Name: (+)-Melezitose
PrecursorMZ: 543.13165
RT: 9.7965
ExactMass: 504.16903493
Spectrum_type: 2
charge: 1
Formula: C18H32O16
SMILES: C([C@@H]1[C@H]([C@@H]([C@H]([C@H](O1)O[C@H]2[C@@H]([C@H](O[C@@]2(CO)O[C@@H]3[C@@H]([C@H]([C@@H]([C@H](O3)CO)O)O)O)CO)O)O)O)O)O
Method: HCD
Collision_energy: [28.333334]
Isolation_window: 4.0
Ion_mode: P
Num Peaks: 4
60.3483	5.0
543.1312	100.0
544.1346	19.2
545.1310	8.8

Name: (+-)-2-Hydroxyisovaleric acid
PrecursorMZ: 275.08896
RT: 1.3275
ExactMass: 118.062994177
Spectrum_type: 2
charge: 1
Formula: C5H10O3
SMILES: CC(C)C(C(=O)O)O
Method: HCD
Collision_energy: [28.333334]
Isolation_window: 4.0
Ion_mode: P
Num Peaks: 9
120.0812	1.9
148.0760	3.9
230.2477	2.7
234.1849	2.0
273.1673	100.0
274.1707	24.3
275.0892	42.8
275.1728	2.8
276.0930	4.5

Name: (+-)-3-Methyladipic acid
PrecursorMZ: 161.08083
RT: 6.8008
ExactMass: 160.07355886
Spectrum_type: 2
charge: 1
Formula: C7H12O4
SMILES: CC(CCC(=O)O)CC(=O)O
Method: HCD
Collision_energy: [28.333334]
Isolation_window: 4.0
Ion_mode: P
Num Peaks: 11
69.0702	12.3
79.0545	49.3
81.0701	17.5
97.0649	57.5
100.0757	11.8
116.0706	11.8
120.0655	7.5
125.0596	100.0
143.0702	57.0
160.1331	52.3
160.9011	8.9

Name: (+-)-Chlorpheniramine
PrecursorMZ: 275.13081
RT: 0.8095
ExactMass: 274.1236763
Spectrum_type: 2
charge: 1
Formula: C16H19ClN2
SMILES: CN(C)CCC(C1=CC=C(C=C1)Cl)C2=CC=CC=N2
Method: HCD
Collision_energy: [28.333334]
Isolation_window: 4.0
Ion_mode: P
Num Peaks: 7
230.0733	100.0
231.0766	15.7
232.0702	33.3
233.0734	4.7
275.1312	9.1
276.1346	1.8
277.1284	3.4

Name: (-)-Arctigenin
PrecursorMZ: 373.16442
RT: 1.0337
ExactMass: 372.15728848
Spectrum_type: 2
charge: 1
Formula: C21H24O6
SMILES: COC1=C(C=C(C=C1)C[C@H]2COC(=O)[C@@H]2CC3=CC(=C(C=C3)O)OC)OC
Method: HCD
Collision_energy: [28.333334]
Isolation_window: 4.0
Ion_mode: P
Num Peaks: 13
57.0704	59.3
81.0338	24.4
85.0651	24.4
109.0286	36.0
201.0545	48.2
229.0857	30.4
271.0963	29.5
289.1070	76.7
303.1225	93.3
355.1533	25.4
373.1633	100.0
374.1667	26.3
375.1795	28.3

Name: (-)-Asparagine
PrecursorMZ: 133.06073
RT: 9.2814
ExactMass: 132.05349212
Spectrum_type: 2
charge: 1
Formula: C4H8N2O3
SMILES: C([C@@H](C(=O)O)N)C(=O)N
Method: HCD
Collision_energy: [28.333334]
Isolation_window: 4.0
Ion_mode: P
Num Peaks: 22
68.0499	3.4
69.0338	4.6
69.7272	3.1
71.0494	4.1
72.0811	28.8
74.0239	100.0
85.0479	3.8
86.0602	21.9
86.0966	17.1
87.0442	60.1
87.0554	22.1
88.0395	39.6
88.0475	3.7
88.0759	3.0
114.0913	21.1
116.0341	11.6
132.0654	4.7
132.1017	27.6
133.0605	4.7
134.0445	3.2
134.0598	3.1
134.0810	26.1

Name: (-)-Stachydrine
PrecursorMZ: 144.10198
RT: 7.6449066666666665
ExactMass: 143.094628657
Spectrum_type: 2
charge: 1
Formula: C7H13NO2
SMILES: C[N+]1(CCC[C@H]1C(=O)[O-])C
Method: HCD
Collision_energy: [28.333334]
Isolation_window: 4.0
Ion_mode: P
Num Peaks: 45
56.0500	1.1
58.0656	1.5
60.0813	1.4
62.9297	1.4
69.0339	1.6
70.0655	3.1
81.0702	1.9
83.0608	3.6
84.0448	19.8
84.0811	1.1
85.0288	2.5
85.0480	1.4
86.0604	4.1
86.0968	31.2
87.0444	2.9
98.0603	1.7
98.0967	100.0
99.0443	1.4
99.1000	7.3
100.0759	1.5
100.1124	10.3
101.0712	1.5
103.9559	1.4
104.0710	1.3
116.0707	1.2
118.0653	2.4
121.9664	13.4
126.0551	1.0
126.0914	56.7
127.0947	4.4
142.0864	2.6
142.1228	1.6
143.0731	2.1
143.0816	1.7
144.0657	8.0
144.0809	25.7
144.1020	72.3
145.0496	1.5
145.0761	1.6
145.0841	2.2
145.1053	6.2
146.0601	3.4
146.0812	1.8
146.0921	1.3
146.1177	13.6

Name: (-)-Stearoylcarnitine
PrecursorMZ: 428.37273
RT: 4.67755
ExactMass: 427.36615904
Spectrum_type: 2
charge: 1
Formula: C25H49NO4
SMILES: CCCCCCCCCCCCCCCCCC(=O)O[C@H](CC(=O)[O-])C[N+](C)(C)C
Method: HCD
Collision_energy: [28.333334]
Isolation_window: 4.0
Ion_mode: P
Num Peaks: 42
57.0339	0.6
57.0702	1.1
60.0812	12.4
67.0545	0.7
69.0702	1.1
70.0654	0.9
71.0858	1.5
81.0701	1.8
83.0857	1.4
85.0232	0.7
85.0286	100.0
85.0328	0.6
85.0339	0.8
85.1014	1.1
86.0319	4.5
86.0965	0.9
95.0856	2.0
97.1013	1.2
103.0390	1.5
107.0855	0.6
109.1012	1.5
123.1167	0.7
126.0550	0.8
128.0704	0.6
144.0653	0.9
144.1017	2.8
165.0908	1.6
229.1541	0.6
267.2675	0.6
302.1937	1.1
369.2991	2.8
370.3025	0.7
410.3050	1.2
426.3573	0.8
427.2778	2.1
427.3594	2.4
428.3143	4.1
428.3723	52.7
429.3174	1.2
429.3756	15.1
430.2261	0.7
430.3787	1.4

Name: 1,3,5-Trimethoxybenzene
PrecursorMZ: 169.08594
RT: 0.5733
ExactMass: 168.078644241
Spectrum_type: 2
charge: 1
Formula: C9H12O3
SMILES: COC1=CC(=CC(=C1)OC)OC
Method: HCD
Collision_energy: [28.333334]
Isolation_window: 4.0
Ion_mode: P
Num Peaks: 107
57.0704	3.1
58.0656	1.3
59.0496	5.4
60.0447	0.5
60.0812	0.6
62.0605	1.7
67.0547	1.0
69.0340	2.1
69.0703	1.6
71.0494	0.7
71.0860	1.6
72.0448	1.7
73.0287	0.4
73.0652	0.4
79.0546	0.6
81.0703	3.0
83.0496	0.5
83.0859	1.9
84.0812	0.8
85.0651	1.5
86.0604	1.4
87.0445	0.4
89.0600	1.1
91.0544	0.4
93.0703	1.2
95.0858	5.1
96.0892	0.6
96.9955	0.9
97.0651	0.5
97.1016	0.6
98.0605	0.8
98.9844	12.2
99.0807	0.6
100.0758	0.3
101.0597	0.4
102.0913	0.4
105.0702	0.5
107.0858	2.4
109.0651	3.5
109.1014	1.9
111.0807	0.8
113.0599	0.5
116.0708	3.8
116.1072	1.3
119.0494	0.6
119.0858	1.1
121.1013	2.4
123.0113	0.4
123.0806	3.1
123.1171	1.5
125.0963	0.8
127.0755	0.9
129.0184	0.4
130.1591	1.9
131.0856	0.7
133.1011	0.7
135.1169	1.7
137.0960	0.6
147.1173	0.6
149.0235	5.4
149.0964	0.5
149.1328	0.5
150.0267	0.5
151.0755	0.6
154.0629	0.9
156.1748	0.9
161.1326	0.7
163.1482	0.4
165.0216	6.9
166.0230	0.5
167.1434	0.3
168.0689	3.8
169.0563	0.6
169.0860	100.0
169.1164	0.7
169.1589	0.4
170.0893	9.4
170.1176	0.5
170.1537	1.4
171.0909	0.9
171.1378	3.5
172.1697	10.8
173.1324	0.4
173.1635	0.4
173.1756	0.9
174.1853	11.2
175.1485	0.8
175.1886	1.4
177.1274	0.5
178.1223	1.7
179.1428	0.7
180.0820	1.4
180.1050	10.1
180.1746	0.8
181.1066	0.8
181.1227	0.3
181.1573	0.6
184.0972	0.4
184.1338	0.5
184.1696	8.8
185.1293	0.4
185.1537	1.5
185.1726	0.9
186.0582	0.4
186.1856	1.4
188.1644	0.9
189.1634	0.6

Name: 1,3,7-Trimethyluric acid
PrecursorMZ: 210.07542
RT: 2.5965
ExactMass: 210.07529019
Spectrum_type: 2
charge: 1
Formula: C8H10N4O3
SMILES: CN1C2=C(NC1=O)N(C(=O)N(C2=O)C)C
Method: HCD
Collision_energy: [28.333334]
Isolation_window: 4.0
Ion_mode: P
Num Peaks: 24
82.0528	2.2
83.0243	5.6
97.3994	1.4
112.0507	1.8
124.0506	3.9
125.0585	12.9
126.0662	6.5
152.0456	2.3
153.0534	43.1
154.0614	18.2
169.0720	2.0
171.0638	3.4
191.0816	1.6
196.0591	3.9
208.0967	2.1
209.0670	9.8
209.0920	3.5
209.1284	2.0
209.1648	1.4
210.0747	84.7
210.1125	5.5
211.0826	100.0
211.1231	5.5
212.0858	3.0

Name: 1,5-Dihydro-1-beta-D-ribofuranosyl-4H-pyrazolo(3,4-d)pyrimidin-4-one
PrecursorMZ: 269.08759
RT: 5.6631
ExactMass: 268.0807695
Spectrum_type: 2
charge: 1
Formula: C10H12N4O5
SMILES: C1=NN(C2=C1C(=O)NC=N2)[C@H]3[C@@H]([C@@H]([C@H](O3)CO)O)O
Method: HCD
Collision_energy: [28.333334]
Isolation_window: 4.0
Ion_mode: P
Num Peaks: 65
69.0337	38.2
69.3219	0.9
69.3239	0.9
70.0371	1.6
70.0653	0.6
71.0494	2.4
72.0810	2.1
81.0336	5.0
87.0441	2.5
95.0604	14.7
96.0444	2.0
97.4562	1.0
99.0440	28.1
100.0473	1.2
110.0346	0.9
110.0713	1.0
112.0868	5.8
122.0599	2.1
136.0137	1.8
144.0804	1.3
150.0546	1.7
152.0703	1.6
153.0403	100.0
153.1019	1.0
154.0244	3.3
154.0374	1.2
154.0437	4.7
160.0754	1.6
164.0815	0.7
168.1128	4.3
173.0706	4.4
179.0811	1.2
181.0963	1.2
214.1179	2.1
221.1027	1.2
221.1277	0.8
224.1387	0.9
250.1065	1.0
250.1542	2.1
251.0767	18.8
251.1017	0.7
252.0802	1.6
252.0977	0.9
252.1340	0.6
267.1113	1.8
267.1329	4.4
267.1695	0.9
268.0949	0.8
268.1171	2.2
268.1306	1.0
268.1532	1.4
268.1648	11.0
269.0872	84.5
269.1112	2.1
269.1251	2.3
269.1482	2.9
269.1678	1.6
269.1852	2.2
270.0908	8.8
270.0939	1.2
270.1098	2.0
270.1321	1.5
270.1440	4.0
271.1065	0.8
271.1282	4.0

Name: 1-Methyladenosine
PrecursorMZ: 282.11834
RT: 8.4774
ExactMass: 281.11240398
Spectrum_type: 2
charge: 1
Formula: C11H15N5O4
SMILES: CN1C=NC2=C(C1=N)N=CN2[C@H]3[C@@H]([C@@H]([C@H](O3)CO)O)O
Method: HCD
Collision_energy: [28.333334]
Isolation_window: 4.0
Ion_mode: P
Num Peaks: 20
70.0654	1.6
84.0809	2.1
121.0645	3.0
150.0771	100.0
151.0741	1.4
151.0804	4.9
154.0860	1.3
190.1069	1.4
266.1492	3.1
280.1394	1.9
281.1481	2.9
281.1842	2.1
282.1188	11.4
282.1328	2.3
282.1545	1.3
282.1797	2.6
283.1261	1.3
283.1620	2.1
283.1777	1.8
283.1993	2.1

Name: 1-Myristoyl-sn-glycero-3-phosphocholine
PrecursorMZ: 468.30788
RT: 4.984975
ExactMass: 467.3011898
Spectrum_type: 2
charge: 1
Formula: C22H46NO7P
SMILES: CCCCCCCCCCCCCC(=O)OC[C@H](COP(=O)([O-])OCC[N+](C)(C)C)O
Method: HCD
Collision_energy: [28.333334]
Isolation_window: 4.0
Ion_mode: P
Num Peaks: 112
52.0344	2.1
57.0338	2.2
57.0703	8.9
58.0655	8.0
60.0812	2.2
62.0604	34.8
67.0546	5.7
69.0702	8.7
70.0654	3.9
71.0494	2.3
71.0607	9.7
71.0858	10.1
75.0443	2.2
79.0544	2.6
81.0337	3.5
81.0701	13.5
83.0494	2.3
83.0858	8.9
84.0810	3.4
85.0650	6.0
85.1014	6.5
86.0966	11.6
89.0711	3.6
93.0700	4.1
95.0493	3.5
95.0857	16.1
97.0649	2.7
97.1013	6.6
98.9842	4.9
99.0441	4.5
99.0806	3.1
101.0597	2.9
104.1071	34.8
105.0699	2.9
107.0856	6.3
109.0648	2.9
109.1012	10.5
111.0440	3.1
111.0804	3.4
111.1168	1.9
116.0706	4.3
119.0855	3.2
121.1011	5.6
123.0803	2.6
123.1168	4.7
124.9998	2.3
125.0596	2.5
125.0960	2.8
126.0914	3.0
131.0853	2.8
133.1010	5.1
135.0804	2.8
135.1167	4.8
137.0959	2.5
142.0259	2.0
142.0973	13.4
145.0757	1.6
145.1011	4.0
147.1168	3.1
149.0958	2.3
149.1323	2.3
152.0702	2.0
155.0102	10.7
159.1165	3.7
161.1325	2.2
163.1114	2.0
166.0861	2.7
169.0371	3.1
180.1016	2.5
183.1164	2.0
184.0730	44.4
185.0764	2.0
185.1322	1.6
196.0967	2.7
198.0522	2.2
213.1631	2.0
216.0627	2.7
257.1277	2.0
294.3149	2.9
295.3184	3.1
296.2940	9.9
297.2980	2.0
299.2573	7.5
301.1544	2.0
313.2732	5.9
325.1174	2.3
326.2763	3.0
327.2886	100.0
328.2920	21.4
329.2945	2.0
343.1282	15.2
343.1630	2.7
344.1310	2.7
344.1746	3.8
345.1439	4.4
345.1793	3.3
347.1593	2.4
407.2549	5.7
413.2676	2.1
431.2775	2.6
450.2968	20.1
451.2979	4.1
467.2855	3.3
467.3148	3.7
468.2113	6.2
468.2477	8.1
468.3075	40.4
469.2006	2.8
469.3032	5.9
469.3304	7.4
470.2272	6.3
470.2620	2.0

Name: 1-Octadecanoyl-sn-glycero-3-phosphoethanolamine
PrecursorMZ: 482.32388
RT: 4.962
ExactMass: 481.31683987
Spectrum_type: 2
charge: 1
Formula: C23H48NO7P
SMILES: CCCCCCCCCCCCCCCCCC(=O)OC[C@H](COP(=O)(O)OCCN)O
Method: HCD
Collision_energy: [28.333334]
Isolation_window: 4.0
Ion_mode: P
Num Peaks: 88
53.5917	2.7
57.0702	2.9
58.0655	2.6
60.0812	6.0
62.0604	13.9
63.0637	0.8
67.0546	2.8
69.0702	3.9
69.3419	1.2
70.0654	1.1
71.0607	1.2
71.0732	0.9
71.0858	3.8
81.0701	5.5
83.0857	2.7
85.0651	1.1
85.0762	1.0
85.1014	2.8
86.0966	21.0
87.1000	1.3
93.0700	1.4
95.0856	6.7
96.0889	0.9
97.1013	2.7
98.9841	1.1
99.0805	1.2
104.1070	94.6
105.1103	4.1
107.0855	1.6
109.1012	2.7
111.1168	0.9
119.0856	1.1
121.1011	2.4
123.0804	0.9
123.1168	1.6
124.9997	7.0
130.0650	2.0
131.0683	1.0
133.1009	1.1
135.1167	1.3
144.0807	0.9
149.0958	0.8
155.0102	2.9
163.0153	0.9
166.0861	0.9
169.0372	0.8
172.0751	1.7
184.0670	1.8
184.0730	100.0
185.0765	5.0
190.0861	1.6
191.0895	1.1
216.0627	1.4
258.1093	1.3
279.2316	0.9
299.2572	2.8
307.1071	1.5
308.2941	0.8
309.2980	0.9
310.3098	2.1
313.2731	1.2
325.1173	1.3
331.1637	1.3
339.2888	9.3
340.2920	11.8
341.3045	27.3
342.3078	5.4
357.1436	1.5
359.1593	3.8
421.2720	1.4
427.3202	0.9
462.2974	1.3
463.3000	2.8
464.3127	9.0
465.3203	1.9
466.1957	1.0
480.3086	1.1
481.2531	1.6
481.3084	4.4
481.3510	1.0
482.2303	1.4
482.3238	48.3
482.3590	8.1
483.3274	10.8
483.3626	1.8
484.2070	1.0
484.2429	5.1
484.3314	1.3

Name: 1-Propanaminium, 3-carboxy-N,N,N-trimethyl-2-(((9Z)-1-oxo-9-octadecen-1-yl)oxy)-, inner salt
PrecursorMZ: 426.3576
RT: 4.6977
Spectrum_type: 2
charge: 1
SMILES: CCCCCCCC/C=C\CCCCCCCC(=O)OC(CC(=O)[O-])C[N+](C)(C)C
Method: HCD
Collision_energy: [28.333334]
Isolation_window: 4.0
Ion_mode: P
Num Peaks: 64
57.0339	0.5
57.0704	0.8
60.0812	12.4
67.0546	0.6
69.0703	1.5
70.0655	1.6
71.0859	1.1
72.0812	0.6
81.0338	0.8
81.0702	1.3
83.0859	1.4
85.0246	0.7
85.0287	100.0
85.0341	0.7
85.1015	0.8
86.0320	3.3
86.0966	0.6
95.0857	1.6
97.0651	0.5
97.1014	1.1
107.0857	0.4
109.1013	1.0
111.1170	0.6
116.0708	0.5
120.0809	1.9
121.1012	0.8
123.1168	0.4
126.0550	0.6
135.1168	0.7
136.0756	0.4
144.1019	2.9
149.1327	0.5
150.0915	0.4
157.0496	0.4
196.0966	0.7
197.1282	0.6
198.0913	1.0
215.1390	1.0
246.1123	0.4
247.2422	0.5
264.1230	0.4
265.2523	0.5
285.2417	0.7
297.1596	0.4
324.3257	0.5
343.1650	4.0
344.1688	0.6
367.2840	1.1
369.2999	0.8
373.1769	0.4
389.1701	1.1
391.1861	2.0
407.1810	0.4
409.1968	0.7
424.3420	2.3
425.3450	5.2
426.2044	0.5
426.3576	41.8
427.2087	0.8
427.2825	1.6
427.3608	11.4
428.2856	0.5
428.3164	1.1
428.3731	16.3

Name: 11beta-Hydroxyandrost-4-ene-3,17-dione
PrecursorMZ: 303.19509
RT: 1.4075
ExactMass: 302.18819469
Spectrum_type: 2
charge: 1
Formula: C19H26O3
SMILES: C[C@]12CCC(=O)C=C1CC[C@@H]3[C@@H]2[C@H](C[C@]4([C@H]3CCC4=O)C)O
Method: HCD
Collision_energy: [28.333334]
Isolation_window: 4.0
Ion_mode: P
Num Peaks: 52
70.0655	18.8
72.0811	25.1
81.0702	16.0
86.0966	40.8
91.0542	8.5
93.0699	7.8
95.0857	14.8
105.0698	15.3
107.0857	16.2
109.1013	20.3
116.0706	13.6
119.0855	25.5
121.0648	8.6
121.1011	7.1
131.0854	28.9
133.1009	7.3
143.1181	9.6
147.1166	8.1
159.0917	11.0
163.0752	7.6
177.0908	7.4
183.1170	10.5
186.1234	7.9
197.1328	8.3
211.1477	52.7
212.1513	7.7
215.1387	7.8
229.1220	19.2
239.1425	9.9
239.1790	34.8
240.1825	9.0
257.1278	15.8
257.1527	17.6
257.1896	15.9
267.1740	11.6
285.1225	20.7
285.1843	100.0
286.1064	7.6
286.1879	22.4
302.1004	14.6
302.1377	20.4
302.1502	9.8
302.1716	9.0
303.1323	49.0
303.1946	84.3
304.1152	30.6
304.1366	12.2
304.1539	8.1
304.1984	14.7
304.2989	15.2
305.1265	9.5
305.1483	18.7

Name: 12-Ketolithocholic acid
PrecursorMZ: 391.28371
RT: 2.7261
ExactMass: 390.27700969
Spectrum_type: 2
charge: 1
Formula: C24H38O4
SMILES: C[C@H](CCC(=O)O)[C@H]1CC[C@@H]2[C@@]1(C(=O)C[C@H]3[C@H]2CC[C@H]4[C@@]3(CC[C@H](C4)O)C)C
Method: HCD
Collision_energy: [28.333334]
Isolation_window: 4.0
Ion_mode: P
Num Peaks: 114
67.0545	2.8
69.0701	3.3
79.0543	1.8
81.0337	3.0
81.0701	8.0
83.0857	3.6
85.0650	2.5
86.0966	6.0
91.0543	1.9
93.0700	5.6
95.0856	10.2
97.4558	1.2
99.0440	1.9
105.0699	6.3
107.0855	9.2
109.1012	10.0
111.0804	1.6
113.0595	1.4
117.0698	1.7
119.0854	7.7
120.0807	2.7
121.1011	8.3
123.0802	1.4
123.1167	2.5
125.0961	2.2
131.0853	4.9
133.1010	7.6
135.0803	1.5
135.1166	6.1
143.0852	2.0
145.1010	52.7
146.1043	5.7
147.1166	12.4
148.1199	1.8
149.0959	1.3
149.1323	20.5
150.1357	2.8
153.0909	1.3
157.1010	3.2
159.1166	8.9
160.1199	1.4
161.1323	10.7
162.0909	1.3
163.1479	5.2
166.0861	1.4
171.1164	3.3
173.1322	4.8
175.1479	3.4
177.1635	1.6
185.1321	4.8
187.1479	4.8
189.1632	1.9
193.1219	2.7
197.1323	1.3
199.1478	13.1
199.1800	1.7
200.1509	2.7
201.1633	12.8
202.1668	1.8
203.1792	1.8
205.1219	1.9
209.1320	3.5
211.1475	2.4
213.1633	10.5
214.1668	1.6
215.1789	16.3
216.1823	2.6
223.1475	2.4
225.1633	2.9
227.1427	4.7
227.1789	7.5
228.1826	1.7
229.1583	3.1
233.1535	2.0
234.1121	1.3
237.1631	1.9
241.1582	1.5
241.1947	3.6
243.1740	1.5
245.1531	7.4
246.1569	1.3
247.1686	2.4
253.1944	1.4
255.1738	3.4
259.1686	4.3
261.1845	2.7
266.1744	1.9
268.1173	1.6
273.1593	2.2
273.1843	1.5
295.2045	1.5
301.1536	1.5
309.2568	100.0
310.2602	22.8
311.2635	1.6
319.2411	10.5
320.2448	2.1
327.2673	10.6
328.2709	3.2
337.2517	26.3
338.2551	5.7
343.1648	2.3
355.2622	84.9
356.2657	19.6
357.2680	1.9
361.1751	1.6
373.2728	79.1
374.2761	20.4
390.1524	2.1
391.1851	3.0
391.2233	1.4
391.2833	15.3
392.1681	1.2
392.2866	3.9

Name: 1H-Indole-3-propanoic acid
PrecursorMZ: 189.07832
RT: 4.8186
ExactMass: 189.078978594
Spectrum_type: 2
charge: 1
Formula: C11H11NO2
SMILES: C1=CC=C2C(=C1)C(=CN2)CCC(=O)O
Method: HCD
Collision_energy: [28.333334]
Isolation_window: 4.0
Ion_mode: P
Num Peaks: 26
55.0182	1.6
83.0858	1.1
98.0965	4.6
109.0647	1.6
118.0651	5.5
126.0912	16.2
130.0650	100.0
131.0683	8.7
132.0806	1.9
144.0806	1.8
145.0522	1.8
146.0598	3.8
154.0860	16.6
160.0755	16.2
161.0789	1.9
162.0549	1.1
172.0755	4.3
172.0965	5.2
188.0704	5.3
189.0661	1.2
189.0782	8.5
190.0165	32.0
190.0496	1.0
190.0865	4.4
190.1067	1.6
191.0200	1.3

Name: 2,2,6,6-Tetramethyl-4-piperidone
PrecursorMZ: 156.13815
RT: 1.4415
ExactMass: 155.131014166
Spectrum_type: 2
charge: 1
Formula: C9H17NO
SMILES: CC1(CC(=O)CC(N1)(C)C)C
Method: HCD
Collision_energy: [28.333334]
Isolation_window: 4.0
Ion_mode: P
Num Peaks: 67
55.0545	0.6
56.0498	0.3
58.0512	0.4
58.0626	0.9
58.0654	100.0
58.0685	0.7
58.0798	0.5
59.0625	0.3
59.0688	3.1
67.0545	3.4
69.0337	0.5
69.0701	1.9
71.0494	0.4
72.0810	1.7
74.0603	1.0
81.0700	1.1
82.0652	0.4
83.0492	8.8
83.0858	0.4
84.0445	0.8
84.0526	0.5
84.0808	1.3
86.0965	7.0
87.0999	0.3
91.0542	0.6
93.0699	0.7
95.0493	0.4
95.0855	2.4
96.0809	0.4
97.0647	1.7
98.0600	3.7
99.0634	0.4
100.0756	0.5
109.0647	0.4
109.1010	1.3
110.0598	0.4
110.0963	0.4
111.0803	0.9
112.0757	0.4
112.1119	0.5
114.0913	0.3
123.0551	0.3
123.0803	0.5
126.0910	1.0
127.0943	0.4
128.1068	1.2
129.0695	0.9
136.1118	0.3
137.0956	0.5
138.0909	0.5
139.0749	0.5
139.1114	0.8
142.0773	1.3
154.0861	0.6
154.1223	30.1
155.0851	1.7
155.1064	0.4
155.1180	0.7
155.1255	6.8
156.0653	0.6
156.0930	0.4
156.1015	1.2
156.1379	26.6
157.1008	3.4
157.1411	2.5
157.1695	0.8
158.1171	0.7

Name: 2-Hydroxyhexanoic acid
PrecursorMZ: 133.08587
RT: 1.2417545454545456
ExactMass: 132.078644241
Spectrum_type: 2
charge: 1
Formula: C6H12O3
SMILES: CCCCC(C(=O)O)O
Method: HCD
Collision_energy: [28.333334]
Isolation_window: 4.0
Ion_mode: P
Num Peaks: 1
89.0598	100.0

Name: 2-Methyl-4(3H)-quinazolinone
PrecursorMZ: 161.07102
RT: 2.0438
ExactMass: 160.063662883
Spectrum_type: 2
charge: 1
Formula: C9H8N2O
SMILES: CC1=NC2=CC=CC=C2C(=O)N1
Method: HCD
Collision_energy: [28.333334]
Isolation_window: 4.0
Ion_mode: P
Num Peaks: 28
55.0546	1.4
59.0496	1.9
60.0812	7.7
84.0448	1.9
86.0604	2.2
86.0967	2.0
88.0397	1.7
97.3997	2.8
101.0599	27.2
102.0915	2.2
116.0497	2.1
134.0600	2.3
144.0444	4.2
144.0809	4.9
159.0918	2.6
159.1170	1.8
160.0758	10.6
160.1333	59.8
161.0599	1.9
161.0710	100.0
161.1073	6.7
161.1372	4.5
162.0550	15.7
162.0742	9.6
162.0914	3.6
162.1121	1.8
162.1273	1.6
163.0866	2.0

Name: 2-Methylbutyrylglycine
PrecursorMZ: 160.09685
RT: 4.610961904761905
ExactMass: 159.08954328
Spectrum_type: 2
charge: 1
Formula: C7H13NO3
SMILES: CCC(C)C(=O)NCC(=O)O
Method: HCD
Collision_energy: [28.333334]
Isolation_window: 4.0
Ion_mode: P
Num Peaks: 120
56.0498	0.5
57.0339	1.0
58.0655	0.5
60.0447	0.5
68.0498	0.6
69.0257	0.8
69.0277	0.7
69.0338	1.5
69.0450	0.6
69.0702	0.6
69.2813	0.7
69.2834	0.5
69.3012	0.8
69.4017	0.6
69.4651	0.7
69.6553	0.5
69.6638	0.6
70.0654	2.8
71.0495	1.3
72.0447	0.6
72.0811	1.0
74.0603	1.9
75.0443	0.5
81.0337	0.9
82.0653	1.0
83.0494	0.7
84.0446	2.7
84.0810	1.7
85.0286	0.8
85.0650	0.5
86.0602	9.2
88.0394	0.6
88.0758	0.7
91.0543	0.7
96.0809	2.1
97.0649	1.2
97.4554	0.4
97.4574	0.7
98.0601	65.1
98.0965	23.3
99.0441	1.2
99.0553	2.3
99.0635	3.3
99.0917	1.2
99.0999	1.4
100.0217	0.6
100.0394	0.5
100.0757	15.3
101.0597	0.5
101.0710	3.5
101.0791	0.8
102.0550	1.3
102.0914	0.7
104.0707	0.5
105.0699	0.9
109.0285	0.6
110.0601	0.5
112.0586	0.9
112.0757	2.9
113.0709	1.0
114.0372	3.1
114.0550	0.9
114.0914	2.4
116.0165	1.3
116.0706	1.8
117.0739	0.5
117.1022	1.6
118.0862	11.8
119.0854	0.7
119.0897	0.8
124.0756	10.7
125.0790	1.0
127.0388	0.8
127.0502	1.0
128.0705	0.6
130.0647	0.7
131.0813	5.0
131.0855	0.7
132.0653	0.6
132.0806	0.5
133.0520	2.4
140.0534	0.8
140.0705	0.5
141.0657	1.2
142.0319	4.4
142.0745	0.8
142.0768	0.6
142.0861	100.0
142.0950	0.7
142.0976	0.7
143.0894	7.2
144.0652	1.1
157.0840	0.5
158.0810	5.7
158.0963	0.6
158.1174	3.6
158.1538	0.6
159.0651	0.6
159.0681	0.7
159.0758	3.3
159.0849	0.9
159.0912	1.7
159.1124	1.1
159.1169	2.2
160.0426	2.6
160.0755	27.3
160.0859	0.6
160.0966	74.7
160.1107	0.5
161.0344	1.1
161.0470	4.3
161.0597	0.6
161.0707	1.4
161.0789	3.0
161.0957	0.8
161.1004	4.9
161.1064	0.9
161.1323	1.1
162.0548	9.5
162.0911	1.1

Name: 2-Phenylbenzimidazole-5-Sulfonic Acid
PrecursorMZ: 275.0482
RT: 1.412
ExactMass: 274.04121336
Spectrum_type: 2
charge: 1
Formula: C13H10N2O3S
SMILES: C1=CC=C(C=C1)C2=NC3=C(N2)C=C(C=C3)S(=O)(=O)O
Method: HCD
Collision_energy: [28.333334]
Isolation_window: 4.0
Ion_mode: P
Num Peaks: 61
69.0417	0.1
86.0966	0.1
97.4553	0.1
108.0445	0.1
125.0232	0.1
148.0754	0.6
149.0787	0.1
150.0911	0.1
159.0912	0.1
173.0957	0.1
184.1116	0.1
186.0910	0.1
188.0703	0.2
193.0752	0.1
194.0832	1.6
195.0922	0.6
196.0950	0.1
202.0858	0.1
210.0779	0.1
211.0861	0.5
226.0732	0.8
227.0762	0.1
228.1013	0.3
229.0965	0.1
229.1332	0.1
230.0804	0.1
230.1176	0.1
231.1125	0.1
232.0971	0.1
256.0963	0.1
257.1277	0.1
258.0750	0.1
273.0851	0.1
273.1227	0.1
273.1599	0.1
274.0707	0.2
274.1066	0.5
274.1429	0.1
274.2733	0.2
274.9004	0.2
274.9894	0.1
274.9984	0.1
275.0076	0.2
275.0166	0.7
275.0229	0.5
275.0478	100.0
275.0721	0.6
275.0789	0.6
275.0881	0.2
275.0981	0.2
275.1028	0.2
275.1149	0.1
275.1379	0.3
275.1876	0.1
275.2032	0.1
276.0195	0.1
276.0509	13.8
276.0841	0.3
276.1217	0.3
277.0420	1.8
277.1172	0.2

Name: 2-Phenylglycine
PrecursorMZ: 152.0706
RT: 7.40505
ExactMass: 151.06332853
Spectrum_type: 2
charge: 1
Formula: C8H9NO2
SMILES: C1=CC=C(C=C1)C(C(=O)O)N
Method: HCD
Collision_energy: [28.333334]
Isolation_window: 4.0
Ion_mode: P
Num Peaks: 10
96.9952	6.4
124.0391	14.0
134.0632	16.3
150.0771	4.7
150.0912	5.6
152.0703	100.0
152.1069	6.3
153.0737	10.7
154.0496	65.6
154.0859	6.9

Name: 2-Pyridone
PrecursorMZ: 96.04457
RT: 2.9741714285714287
ExactMass: 95.037113783
Spectrum_type: 2
charge: 1
Formula: C5H5NO
SMILES: C1=CC(=O)NC=C1
Method: HCD
Collision_energy: [28.333334]
Isolation_window: 4.0
Ion_mode: P
Num Peaks: 9
68.0498	2.9
69.0450	13.7
82.0528	1.5
94.0653	0.8
96.0444	100.0
97.0397	30.3
97.0477	5.5
97.0760	27.9
113.0345	3.0

Name: 2-Pyrrolidone
PrecursorMZ: 86.06027
RT: 2.6442
ExactMass: 85.052763847
Spectrum_type: 2
charge: 1
Formula: C4H7NO
SMILES: C1CC(=O)NC1
Method: HCD
Collision_energy: [28.333334]
Isolation_window: 4.0
Ion_mode: P
Num Peaks: 12
56.0500	3.2
58.0655	7.1
59.0497	2.1
68.0499	5.2
71.0733	13.9
84.0810	7.4
84.9115	100.0
85.0763	46.0
86.0603	40.8
86.0967	22.2
86.9089	42.7
87.0919	2.0

Name: 20-Hydroxyecdysone
PrecursorMZ: 481.31523
RT: 4.743371428571429
ExactMass: 480.30870374
Spectrum_type: 2
charge: 1
Formula: C27H44O7
SMILES: C[C@]12CC[C@H]3C(=CC(=O)[C@H]4[C@@]3(C[C@@H]([C@@H](C4)O)O)C)[C@@]1(CC[C@@H]2[C@](C)([C@@H](CCC(C)(C)O)O)O)O
Method: HCD
Collision_energy: [28.333334]
Isolation_window: 4.0
Ion_mode: P
Num Peaks: 47
69.0702	29.3
81.0337	6.4
81.0700	24.1
89.0598	11.4
93.0699	9.4
95.0491	8.9
95.0855	9.6
97.0648	15.6
97.4556	6.7
99.0804	12.5
105.0698	5.4
107.0855	24.6
109.0647	6.1
109.1011	8.2
119.0854	7.1
121.1009	8.2
123.0803	14.5
125.0959	22.9
133.0857	6.6
135.1166	7.6
143.1066	5.3
145.1009	8.3
147.1164	8.4
159.1164	6.4
165.1270	61.5
166.1303	7.2
173.0957	11.9
187.1111	8.3
191.1064	10.5
205.1220	5.3
249.1481	8.0
255.1738	5.8
265.1579	7.4
283.1686	9.8
301.1788	9.9
303.1948	12.8
371.2206	74.5
372.2245	14.6
391.2621	6.3
409.2729	11.1
427.2829	34.3
428.2855	10.5
445.2936	100.0
446.2970	25.2
463.3046	19.6
464.3097	5.7
481.3175	9.6

Name: 2H-Indol-2-one, 3-(1,3-dihydro-3-oxo-2H-indol-2-ylidene)-1,3-dihydro-
PrecursorMZ: 263.0812
RT: 1.1805
ExactMass: 262.074227566
Spectrum_type: 2
charge: 1
Formula: C16H10N2O2
SMILES: C1=CC=C2C(=C1)C(=C(N2)O)C3=NC4=CC=CC=C4C3=O
Method: HCD
Collision_energy: [28.333334]
Isolation_window: 4.0
Ion_mode: P
Num Peaks: 13
69.6111	0.7
219.0913	3.9
220.0947	0.6
234.0785	1.3
235.0862	4.2
236.0916	0.7
246.0781	1.0
262.0731	5.7
263.0809	100.0
263.1102	0.6
263.1632	0.8
264.0844	15.9
265.0869	0.8

Name: 3,4',7-Trihydroxyflavone
PrecursorMZ: 271.05971
RT: 2.7102000000000004
ExactMass: 270.05282342
Spectrum_type: 2
charge: 1
Formula: C15H10O5
SMILES: C1=CC(=CC=C1C2=C(C(=O)C3=C(O2)C=C(C=C3)O)O)O
Method: HCD
Collision_energy: [28.333334]
Isolation_window: 4.0
Ion_mode: P
Num Peaks: 2
271.0595	100.0
272.0628	15.4

Name: 3,7-Dimethyluric Acid
PrecursorMZ: 197.06675
RT: 4.90225
ExactMass: 196.05964013
Spectrum_type: 2
charge: 1
Formula: C7H8N4O3
SMILES: CN1C2=C(NC1=O)N(C(=O)NC2=O)C
Method: HCD
Collision_energy: [28.333334]
Isolation_window: 4.0
Ion_mode: P
Num Peaks: 58
68.0372	0.4
69.0450	0.5
69.7568	0.3
72.0810	0.3
86.0601	0.4
89.0599	0.3
95.0605	0.4
107.0605	0.4
110.0713	1.0
112.0505	0.7
114.0661	0.4
133.0758	8.1
134.0792	0.7
136.0753	0.4
138.0662	0.4
140.0452	33.5
141.0423	0.5
141.0485	1.6
149.1072	0.7
150.0547	0.8
150.0911	1.5
152.0815	0.4
153.0656	2.7
155.0559	0.6
156.0767	0.5
157.0480	2.5
158.0558	6.5
159.0590	0.5
168.1017	0.3
177.0736	0.3
177.1019	4.1
178.0498	0.4
178.0859	5.2
178.1049	0.8
179.0560	0.4
179.0811	34.1
179.0893	0.6
180.0764	0.3
180.0845	2.9
182.0430	1.1
195.0840	0.7
195.1124	4.4
196.0588	4.7
196.0713	0.8
196.0965	6.4
196.1156	0.9
197.0377	3.4
197.0474	0.7
197.0513	0.3
197.0665	100.0
197.0815	0.6
197.0912	4.6
197.0999	0.7
198.0632	0.7
198.0701	6.4
198.0869	0.6
198.0949	0.3
198.1120	0.2

Name: 3-Aminobenzoic Acid
PrecursorMZ: 138.05496
RT: 5.326
ExactMass: 137.047678466
Spectrum_type: 2
charge: 1
Formula: C7H7NO2
SMILES: C1=CC(=CC(=C1)N)C(=O)O
Method: HCD
Collision_energy: [28.333334]
Isolation_window: 4.0
Ion_mode: P
Num Peaks: 17
91.0544	6.6
95.0493	27.3
110.0349	5.4
119.0350	4.8
121.0283	93.2
122.0318	5.8
136.0616	22.2
136.0756	10.7
137.0456	100.0
137.0595	6.6
137.0649	4.8
138.0492	5.0
138.0547	38.0
138.0911	35.3
139.0500	6.0
139.0863	5.9
140.0704	5.0

Name: 3-Hydroxyanthranilic Acid
PrecursorMZ: 154.0499
RT: 5.8613
ExactMass: 153.042593085
Spectrum_type: 2
charge: 1
Formula: C7H7NO3
SMILES: C1=CC(=C(C(=C1)O)N)C(=O)O
Method: HCD
Collision_energy: [28.333334]
Isolation_window: 4.0
Ion_mode: P
Num Peaks: 26
65.0389	2.4
67.0546	9.0
71.0495	4.8
81.0337	4.1
95.0492	100.0
96.0525	4.9
96.0571	3.5
97.0649	10.3
110.0713	3.9
112.0393	15.8
112.0518	4.2
123.0440	4.0
125.0596	8.4
127.0752	22.5
137.0708	2.9
138.0547	2.3
140.0340	61.0
141.0374	3.3
152.0703	2.7
153.0657	8.8
153.1019	2.0
154.0496	9.5
154.0861	5.5
155.0701	41.1
155.0811	23.2
156.1017	3.3

Name: 3-Hydroxyhippuric Acid
PrecursorMZ: 196.06045
RT: 5.2569
ExactMass: 195.05315777
Spectrum_type: 2
charge: 1
Formula: C9H9NO4
SMILES: C1=CC(=CC(=C1)O)C(=O)NCC(=O)O
Method: HCD
Collision_energy: [28.333334]
Isolation_window: 4.0
Ion_mode: P
Num Peaks: 39
79.0545	2.2
81.0702	2.9
89.0600	3.1
93.0702	3.5
96.0446	6.9
97.3988	2.0
107.0857	1.7
108.0810	4.0
110.0603	2.6
124.1121	2.3
125.0709	1.6
133.1012	1.8
135.0805	1.5
135.1168	4.9
136.0392	2.2
136.0757	2.8
148.0757	2.8
150.0550	2.1
150.0914	5.7
151.0756	1.8
152.0706	4.3
152.1070	40.0
154.0499	1.6
164.0343	41.6
165.0375	2.5
168.1020	1.8
177.1272	1.7
178.0498	8.1
178.0862	2.7
180.0291	3.9
194.0813	3.2
194.1180	1.7
195.0652	3.9
196.0604	100.0
196.0967	15.4
197.0638	9.8
197.0809	1.7
198.0395	2.0
198.1122	2.6

Name: 3-Hydroxykynurenine
PrecursorMZ: 225.0869
RT: 8.4684
ExactMass: 224.07970687
Spectrum_type: 2
charge: 1
Formula: C10H12N2O4
SMILES: C1=CC(=C(C(=C1)O)N)C(=O)CC(C(=O)O)N
Method: HCD
Collision_energy: [28.333334]
Isolation_window: 4.0
Ion_mode: P
Num Peaks: 33
55.0547	2.1
69.0703	2.9
80.0497	1.3
96.0447	1.5
96.0810	13.9
101.0599	5.9
113.1075	3.4
114.0915	12.6
122.0601	1.6
124.0393	4.0
126.0550	11.5
138.0550	5.4
150.0548	2.1
166.0500	4.1
180.0655	1.9
184.0607	2.4
207.0766	1.7
208.0603	1.5
209.1647	20.7
224.0551	1.8
224.0924	1.5
224.1121	2.0
224.1283	3.4
225.0869	56.0
225.1223	1.5
225.1595	1.9
226.0709	1.9
226.0910	6.0
226.1073	26.7
226.1799	1.3
226.1912	2.1
227.1115	1.5
227.1753	100.0

Name: 3-Hydroxypyridine
PrecursorMZ: 96.04458
RT: 2.7176
ExactMass: 95.037113783
Spectrum_type: 2
charge: 1
Formula: C5H5NO
SMILES: C1=CC(=CN=C1)O
Method: HCD
Collision_energy: [28.333334]
Isolation_window: 4.0
Ion_mode: P
Num Peaks: 25
65.0390	0.2
67.0545	0.4
68.0498	3.8
69.0532	0.2
69.1198	0.2
81.0575	0.2
94.0652	1.0
95.0493	0.4
95.0605	0.4
95.0855	0.1
96.0125	0.3
96.0150	0.3
96.0343	0.2
96.0380	0.8
96.0444	100.0
96.0509	0.7
96.0555	0.2
96.0754	0.4
96.0807	0.4
97.0286	0.1
97.0412	0.3
97.0477	5.8
97.0502	0.2
97.0649	0.2
97.0760	0.6

Name: 3-Methoxy-dl-tyrosine
PrecursorMZ: 212.0915
RT: 7.9403
ExactMass: 211.0844579
Spectrum_type: 2
charge: 1
Formula: C10H13NO4
SMILES: COC1=C(C=CC(=C1)CC(C(=O)O)N)O
Method: HCD
Collision_energy: [28.333334]
Isolation_window: 4.0
Ion_mode: P
Num Peaks: 161
55.0546	6.0
59.0495	1.8
67.0545	1.5
68.0497	1.3
69.0702	1.1
70.0654	8.7
71.0495	5.1
72.0447	12.4
73.0651	2.2
81.0337	3.6
81.0701	2.5
82.0654	3.9
83.0494	4.7
83.0858	3.8
84.0446	4.8
84.0810	1.6
85.0286	2.8
85.0650	1.4
86.0603	3.8
87.0442	37.6
88.0476	1.6
91.0544	1.1
93.0700	1.7
94.0652	1.6
95.0493	1.9
95.0856	1.2
96.0445	17.0
96.0808	1.9
97.0285	1.8
97.0649	1.4
98.0602	2.0
99.0441	1.1
99.0806	1.2
100.0758	21.9
101.0597	23.8
102.0631	3.0
103.0390	4.6
105.0699	1.9
107.0856	1.0
108.0444	23.4
109.0481	1.5
110.0601	45.4
110.0964	1.3
111.0441	1.4
111.0553	3.8
111.0634	6.0
111.0917	2.6
112.0393	1.9
112.0757	4.0
113.0234	1.0
114.0550	5.0
114.0914	3.4
115.0947	2.8
116.0706	2.8
119.0854	1.2
120.0807	1.4
122.0600	4.3
124.0393	2.7
124.0756	5.9
125.0709	2.1
126.0548	40.8
126.0652	1.8
126.0913	8.6
127.0389	1.2
127.0580	2.2
127.0864	1.3
130.0498	2.9
133.1011	3.9
134.0600	1.0
136.0754	1.8
138.0548	1.2
138.0912	100.0
139.0386	1.4
139.0944	7.6
139.1227	1.6
140.0704	4.2
141.0543	2.7
141.0657	1.9
142.0497	5.6
142.0861	1.2
147.1166	3.3
148.0756	1.3
149.0708	1.1
150.0549	3.9
150.0912	3.8
151.0865	1.4
151.1117	2.4
152.0704	12.0
153.0657	1.4
154.0497	1.3
154.0859	1.8
155.0701	1.2
164.0705	1.8
164.1070	2.4
165.0658	1.6
165.1022	4.3
165.1272	1.3
166.0496	2.3
166.0861	55.3
166.0975	1.7
166.1222	2.2
167.0814	5.6
167.0895	5.4
167.1178	3.6
168.0653	12.3
168.0767	1.5
168.1017	6.5
170.0809	3.5
175.1119	1.5
177.1020	3.0
178.0861	2.2
182.0445	1.2
182.0810	1.4
184.0965	79.1
185.0999	7.4
185.1277	1.4
192.0651	1.1
192.1018	2.7
193.0605	2.4
193.0969	8.2
193.1222	1.3
194.0445	4.6
194.0809	16.6
194.0919	3.9
194.1173	4.4
195.0762	6.6
195.0846	1.0
195.1124	4.3
196.0602	8.1
196.0965	7.5
210.0759	6.7
210.1121	54.0
210.1231	1.3
210.1322	2.9
210.1488	1.3
211.0710	8.1
211.0796	2.9
211.1072	40.5
211.1157	13.3
211.1332	1.6
211.1437	12.3
212.0551	9.9
212.0748	1.3
212.0915	72.8
212.1022	12.5
212.1111	2.2
212.1277	16.5
212.1385	2.2
212.1473	1.1
213.0864	7.1
213.0949	6.0
213.1119	1.5
213.1228	27.2
213.1590	2.6
214.0530	1.4
214.0708	12.4
214.0826	1.4
214.1071	37.2
214.1178	4.2
214.1268	1.5
214.1431	4.5

Name: 3-Methyloxindole
PrecursorMZ: 148.07578
RT: 1.3696
ExactMass: 147.068413911
Spectrum_type: 2
charge: 1
Formula: C9H9NO
SMILES: CC1C2=CC=CC=C2NC1=O
Method: HCD
Collision_energy: [28.333334]
Isolation_window: 4.0
Ion_mode: P
Num Peaks: 24
64.9277	0.7
91.0545	0.9
103.0544	1.0
105.0338	0.8
105.9541	1.0
106.0653	3.7
119.0494	1.6
119.0605	1.0
120.0810	4.1
123.9645	6.9
130.0653	3.9
133.0524	1.8
147.0444	1.4
147.0554	5.2
147.0918	2.2
148.0634	0.8
148.0757	100.0
148.0876	0.7
148.1122	0.8
149.0790	9.7
149.1074	3.2
150.0551	1.8
150.0914	2.4
150.1278	1.1

Name: 3-Methylxanthine
PrecursorMZ: 167.05634
RT: 4.7497375
ExactMass: 166.04907545
Spectrum_type: 2
charge: 1
Formula: C6H6N4O2
SMILES: CN1C2=C(C(=O)NC1=O)NC=N2
Method: HCD
Collision_energy: [28.333334]
Isolation_window: 4.0
Ion_mode: P
Num Peaks: 111
57.0338	0.5
69.0450	0.3
69.0701	0.2
69.3730	0.3
69.4737	0.3
70.0654	2.8
74.0239	0.8
81.0337	0.5
81.0450	0.7
83.0606	0.3
95.0541	0.2
95.0605	34.5
96.0638	0.5
97.4564	0.3
98.0601	0.6
103.0543	0.4
106.0650	0.3
107.0492	0.5
107.0604	0.7
108.0444	0.8
109.0760	1.4
110.0239	0.3
110.0349	15.1
110.0601	0.6
111.0382	0.7
111.0440	0.3
112.0869	14.5
119.0604	0.5
120.0443	0.4
120.0807	19.4
121.0759	0.7
121.0840	1.7
122.0598	0.6
122.0712	1.6
123.0109	0.5
123.0439	0.2
124.0504	1.1
124.0756	0.3
125.0708	2.3
126.0548	0.8
126.0660	0.3
126.1024	0.4
127.0501	2.0
127.0865	0.3
128.0453	3.3
131.0489	0.7
133.0758	0.3
136.0141	0.5
138.0547	1.0
138.1025	0.8
139.0499	2.4
139.0863	0.4
139.0976	2.8
140.0703	0.4
140.0930	0.5
142.0608	0.3
148.0392	0.4
148.0503	0.3
148.0753	0.4
149.0458	0.7
149.0594	0.4
149.0707	0.7
150.0548	2.4
150.0916	0.4
150.1024	9.9
151.0864	2.8
154.0245	0.6
165.0657	0.6
165.0771	0.5
165.1021	0.7
165.1384	5.9
166.0497	9.3
166.0604	2.7
166.0723	10.4
166.0860	4.5
166.0970	2.6
166.1223	0.4
166.1416	1.2
167.0415	0.5
167.0444	0.4
167.0561	72.2
167.0617	0.4
167.0682	0.5
167.0704	0.6
167.0754	0.5
167.0811	12.3
167.0887	0.3
167.0925	5.6
167.1063	0.2
167.1175	0.8
167.1540	0.6
168.0401	3.2
168.0531	0.9
168.0593	4.9
168.0655	2.7
168.0682	3.9
168.0768	0.4
168.0849	0.9
168.0884	0.6
168.0963	0.3
168.1018	1.4
168.1128	22.8
168.1378	0.3
169.0607	0.7
169.0638	0.6
169.0757	100.0
169.0878	0.5
169.0908	0.6
169.0967	2.0
169.1161	0.5
169.1460	0.3

Name: 3-Nitro-L-tyrosine
PrecursorMZ: 227.06603
RT: 7.5239
ExactMass: 226.05897142
Spectrum_type: 2
charge: 1
Formula: C9H10N2O5
SMILES: C1=CC(=C(C=C1C[C@@H](C(=O)O)N)[N+](=O)[O-])O
Method: HCD
Collision_energy: [28.333334]
Isolation_window: 4.0
Ion_mode: P
Num Peaks: 30
69.6644	9.6
70.0655	100.0
84.0446	13.3
95.0856	10.9
96.0445	13.7
116.0706	28.7
164.0343	8.8
167.1541	10.3
168.0291	9.8
180.0652	23.8
181.0605	21.0
182.0447	8.2
183.1128	11.8
191.0449	13.5
198.0872	14.0
198.1122	42.0
208.0601	37.1
209.0554	20.0
209.0921	8.8
210.0394	93.7
211.0431	8.6
225.1235	8.3
226.0708	68.3
226.0822	47.9
226.1071	28.9
227.0654	47.8
227.1020	18.8
228.0871	10.0
228.1011	13.6
228.2318	10.3

Name: 3-Oxocholic acid
PrecursorMZ: 407.27817
RT: 1.5011
ExactMass: 406.27192431
Spectrum_type: 2
charge: 1
Formula: C24H38O5
SMILES: C[C@H](CCC(=O)O)[C@H]1CC[C@@H]2[C@@]1([C@H](C[C@H]3[C@H]2[C@@H](C[C@H]4[C@@]3(CCC(=O)C4)C)O)O)C
Method: HCD
Collision_energy: [28.333334]
Isolation_window: 4.0
Ion_mode: P
Num Peaks: 46
69.0701	9.8
69.5996	14.4
81.0337	13.3
81.0700	18.8
86.0965	38.6
93.0699	14.2
95.0855	22.4
105.0698	15.9
107.0854	21.5
109.1011	17.4
119.0853	16.4
121.1011	12.8
131.0852	11.3
133.1008	20.4
145.1009	26.2
147.1164	16.2
150.0910	11.5
157.1008	12.0
159.1165	22.9
164.1065	22.4
185.1319	11.0
196.0589	12.2
197.1321	12.3
199.1476	20.6
211.1471	12.9
213.1632	24.3
230.1379	14.5
245.1528	12.4
253.1946	10.2
307.2412	16.7
323.1954	51.0
324.1990	10.7
325.2514	42.8
335.2360	23.5
353.2464	87.2
354.2497	23.8
371.2184	26.3
371.2568	100.0
372.2602	19.9
389.2281	15.1
389.2669	70.4
390.2700	23.0
407.2740	25.5
408.2871	12.9
409.2706	15.6
409.3114	14.2

Name: 3-Pyridineacetic acid
PrecursorMZ: 138.05478
RT: 5.6624
ExactMass: 137.047678466
Spectrum_type: 2
charge: 1
Formula: C7H7NO2
SMILES: C1=CC(=CN=C1)CC(=O)O
Method: HCD
Collision_energy: [28.333334]
Isolation_window: 4.0
Ion_mode: P
Num Peaks: 18
68.0498	1.8
69.0338	0.9
82.0654	0.9
95.0540	0.7
95.0604	100.0
96.0444	3.6
96.0573	0.8
96.0637	6.2
109.0760	13.1
110.0349	1.1
110.0792	1.0
136.0617	0.8
137.0455	18.9
137.0707	39.8
138.0489	1.1
138.0547	3.8
138.0739	3.8
138.0910	2.1

Name: 4-Hydroxyhippuric acid
PrecursorMZ: 196.06008
RT: 5.5888
ExactMass: 195.05315777
Spectrum_type: 2
charge: 1
Formula: C9H9NO4
SMILES: C1=CC(=CC=C1C(=O)NCC(=O)O)O
Method: HCD
Collision_energy: [28.333334]
Isolation_window: 4.0
Ion_mode: P
Num Peaks: 36
69.8517	4.1
70.0654	5.2
89.0598	6.4
94.0289	5.1
96.0443	4.7
100.0756	5.4
108.0443	4.2
110.0600	9.0
112.0392	16.2
122.0597	6.8
124.0390	6.8
134.0597	5.3
136.0390	10.5
140.0339	43.7
148.0515	59.0
149.0547	4.0
150.0546	18.0
150.0911	8.1
152.0703	6.1
152.0815	15.8
178.0494	16.8
178.0858	11.6
179.0579	5.0
179.0811	8.0
180.0651	4.6
194.0668	9.3
194.0807	9.0
194.1169	5.6
195.0763	9.1
196.0599	100.0
196.0963	31.2
197.0633	10.3
197.0917	8.4
198.0756	17.1
198.0868	14.3
198.1116	4.9

Name: 4-Methyl-5-(2-hydroxyethyl)thiazole
PrecursorMZ: 144.04767
RT: 1.874525
ExactMass: 143.04048508
Spectrum_type: 2
charge: 1
Formula: C6H9NOS
SMILES: CC1=C(SC=N1)CCO
Method: HCD
Collision_energy: [28.333334]
Isolation_window: 4.0
Ion_mode: P
Num Peaks: 20
57.0451	0.6
58.0655	0.6
62.9294	13.8
74.0603	0.7
80.9395	1.0
103.9557	11.1
113.0295	1.1
121.9571	0.7
121.9661	100.0
121.9754	0.7
122.9694	1.7
126.0372	1.3
131.9617	1.0
142.0610	0.8
143.0814	0.6
144.0476	13.1
144.9820	7.1
145.0510	1.0
145.0758	0.8
146.0598	0.7

Name: 4-O-Feruloylquinic acid
PrecursorMZ: 369.11768
RT: 4.472
ExactMass: 368.11073221
Spectrum_type: 2
charge: 1
Formula: C17H20O9
SMILES: COC1=C(C=CC(=C1)/C=C/C(=O)OC2[C@@H](CC(C[C@H]2O)(C(=O)O)O)O)O
Method: HCD
Collision_energy: [28.333334]
Isolation_window: 4.0
Ion_mode: P
Num Peaks: 3
177.0544	100.0
178.0577	9.9
369.1455	6.2

Name: 4-Pyridoxic Acid
PrecursorMZ: 184.06014
RT: 1.3876
ExactMass: 183.05315777
Spectrum_type: 2
charge: 1
Formula: C8H9NO4
SMILES: CC1=NC=C(C(=C1O)C(=O)O)CO
Method: HCD
Collision_energy: [28.333334]
Isolation_window: 4.0
Ion_mode: P
Num Peaks: 15
91.0543	24.7
106.0286	21.3
108.0443	14.0
124.0390	12.3
124.0755	10.3
152.0339	14.7
164.1065	5.3
166.0496	100.0
167.0529	9.3
170.0445	15.7
182.0810	6.5
182.1170	10.2
184.0599	21.2
184.0966	5.6
185.1067	14.2

Name: 5'-Methylthioadenosine
PrecursorMZ: 298.09656
RT: 4.7183
ExactMass: 297.08956053
Spectrum_type: 2
charge: 1
Formula: C11H15N5O3S
SMILES: CSC[C@@H]1[C@H]([C@H]([C@@H](O1)N2C=NC3=C(N=CN=C32)N)O)O
Method: HCD
Collision_energy: [28.333334]
Isolation_window: 4.0
Ion_mode: P
Num Peaks: 202
55.0546	0.4
57.0339	0.6
57.0703	1.4
60.0448	1.3
61.0110	8.5
67.0546	1.2
69.0338	0.7
69.0390	0.3
69.0413	0.4
69.0702	1.3
69.2511	0.3
69.2532	0.3
69.7514	0.3
70.0654	0.8
71.0495	0.6
71.0859	1.6
72.0811	0.3
75.0266	2.9
79.0545	0.5
81.0337	1.7
81.0701	2.5
82.0653	0.3
82.0734	0.2
83.0494	0.4
83.0858	1.0
84.0810	0.4
85.0650	0.6
85.1014	1.0
86.0602	2.2
86.0966	0.6
87.0443	0.5
91.0544	0.3
93.0700	1.0
95.0492	0.4
95.0857	2.5
97.0108	0.3
97.0285	4.5
97.0650	0.4
97.1013	0.8
97.4561	0.4
99.0442	0.3
99.0805	0.3
100.0758	0.7
101.0598	0.6
103.0213	1.1
105.0699	0.6
107.0491	0.3
107.0856	0.9
109.0649	0.4
109.1012	1.8
110.0600	0.3
111.0441	0.5
111.0804	0.2
111.1169	0.4
112.0758	0.3
113.0961	0.3
115.0390	0.4
116.0706	1.1
119.0856	0.6
121.0283	0.7
121.0649	0.3
121.1011	1.0
123.0804	0.3
123.1167	1.0
125.0960	0.3
126.0912	0.5
131.0855	0.4
133.1010	0.6
135.0803	0.2
135.1167	0.7
136.0114	0.3
136.0507	0.6
136.0616	100.0
136.0726	0.5
136.0756	0.4
136.1128	0.4
137.0417	0.3
137.0587	1.8
137.0649	5.2
137.0959	0.2
137.1322	1.0
138.0911	0.5
139.1115	0.2
140.0704	0.4
140.1067	0.5
140.1432	0.8
142.1224	0.2
142.1589	0.2
143.0853	0.3
145.0316	4.6
145.1011	0.4
146.0349	0.3
147.0803	0.2
147.1166	0.4
149.0958	0.4
149.1322	0.3
150.0912	0.3
152.0704	0.3
152.1069	0.3
154.0862	0.4
154.1225	0.7
156.1019	0.4
157.1011	0.3
158.1174	0.3
159.1168	0.3
161.1323	0.3
162.0910	0.2
163.0422	3.4
163.0866	0.3
164.0454	0.3
164.0704	0.5
165.1273	0.2
166.0862	0.5
166.1224	0.2
171.1165	0.3
173.1320	0.3
175.0865	0.5
175.1480	0.5
176.0704	0.3
176.1066	0.3
178.0859	1.2
180.1017	0.4
181.1220	0.2
184.0752	0.5
185.1322	0.2
190.1223	1.3
192.1012	0.3
194.1172	0.4
197.0707	0.6
197.1321	0.2
200.0912	0.3
222.1120	0.3
224.0911	0.3
230.0811	0.2
236.0911	0.3
236.1639	0.7
238.1072	0.4
239.1792	0.2
241.1543	0.3
243.1372	0.2
243.2103	0.3
250.1434	0.4
253.1330	0.8
255.1122	0.5
257.1643	0.2
261.2208	0.7
262.1070	0.4
266.1016	0.3
278.1367	0.4
278.1740	0.2
278.2190	0.4
279.1330	0.4
279.1578	0.2
279.2313	2.0
280.1173	0.4
280.1525	0.4
280.1898	1.1
280.2352	0.4
281.1917	0.2
282.1115	0.3
282.1337	0.3
282.1693	0.6
282.2786	0.8
296.1114	0.3
296.1477	1.2
296.1614	0.3
296.1844	0.4
296.2306	0.3
296.2941	3.1
297.1226	2.7
297.1439	1.5
297.1473	0.2
297.1803	2.3
297.1845	0.6
297.2182	0.5
297.2420	0.6
297.2976	0.9
298.0958	15.9
298.1272	4.9
298.1430	1.1
298.1626	1.4
298.1782	0.4
298.1994	0.6
298.2737	0.7
298.3098	0.4
299.1006	2.4
299.1379	3.0
299.1598	1.4
299.1633	0.2
299.1745	0.4
299.1968	1.6
299.2000	1.3
299.2320	0.7
299.2366	0.4
299.2572	5.2
300.0888	0.5
300.1221	1.0
300.1426	1.8
300.1592	0.5
300.1794	0.5
300.2616	0.4
300.2888	0.7

Name: 5,6-Dimethylbenzimidazole
PrecursorMZ: 147.09152
RT: 1.8784
ExactMass: 146.084398327
Spectrum_type: 2
charge: 1
Formula: C9H10N2
SMILES: CC1=CC2=C(C=C1C)N=CN2
Method: HCD
Collision_energy: [28.333334]
Isolation_window: 4.0
Ion_mode: P
Num Peaks: 26
62.9295	2.0
64.9277	14.4
82.9380	1.2
86.0967	1.1
88.0760	1.5
103.9558	1.1
105.9539	10.6
118.0652	4.5
121.9662	6.2
122.9695	3.3
123.9643	100.0
124.9678	2.9
130.0651	17.1
131.0684	1.6
132.0681	1.1
145.0760	11.8
146.0599	21.2
146.0792	2.7
146.9803	7.3
147.0552	7.8
147.0632	2.2
147.0916	27.1
148.0756	10.0
148.0950	2.8
148.1120	6.3
149.0232	1.6

Name: 5-Aminovaleric acid
PrecursorMZ: 118.0863
RT: 9.74584375
ExactMass: 117.078978594
Spectrum_type: 2
charge: 1
Formula: C5H11NO2
SMILES: C(CCN)CC(=O)O
Method: HCD
Collision_energy: [28.333334]
Isolation_window: 4.0
Ion_mode: P
Num Peaks: 19
53.0390	0.7
55.0546	14.9
56.0499	14.5
56.0579	0.6
58.0655	12.5
59.0495	4.7
59.0733	12.5
69.7445	0.8
70.0654	1.1
72.0811	1.7
82.0654	1.4
83.0494	6.3
97.4577	0.6
100.0758	10.7
101.0598	35.1
101.0790	0.7
102.0631	2.4
118.0862	100.0
119.0895	5.5

Name: 5-Methoxytryptophan
PrecursorMZ: 235.10774
RT: 7.5093
ExactMass: 234.10044231
Spectrum_type: 2
charge: 1
Formula: C12H14N2O3
SMILES: COC1=CC2=C(C=C1)NC=C2C[C@@H](C(=O)O)N
Method: HCD
Collision_energy: [28.333334]
Isolation_window: 4.0
Ion_mode: P
Num Peaks: 21
95.0607	8.0
108.0445	5.3
124.0395	18.8
127.0504	10.0
144.1021	7.8
187.8830	27.3
188.0821	7.0
189.8811	25.9
210.8989	24.8
212.8970	26.1
234.0760	10.0
234.0875	16.7
234.1125	13.1
234.1702	13.1
234.1846	6.5
235.1078	100.0
235.1182	6.5
236.0921	33.5
236.1115	13.0
236.1282	22.8
237.1230	8.9

Name: 5-Methylcytidine
PrecursorMZ: 258.10809
RT: 6.958
ExactMass: 257.10117059
Spectrum_type: 2
charge: 1
Formula: C10H15N3O5
SMILES: CC1=CN(C(=O)N=C1N)[C@H]2[C@@H]([C@@H]([C@H](O2)CO)O)O
Method: HCD
Collision_energy: [28.333334]
Isolation_window: 4.0
Ion_mode: P
Num Peaks: 158
60.0448	2.5
68.0497	1.0
69.0336	3.5
70.0653	6.7
71.0493	1.5
81.0337	1.8
83.0494	2.1
84.0446	23.2
84.0470	1.1
84.0810	2.1
85.0284	1.8
85.0476	1.0
86.0602	2.1
86.0965	1.1
87.0443	1.7
87.0555	1.8
96.0444	5.9
97.0285	11.7
98.0319	2.8
98.0601	6.2
99.0441	1.7
100.0757	1.2
102.0550	5.4
108.0442	0.9
109.0283	1.0
110.0600	1.8
111.0441	1.4
112.0393	2.0
112.0757	2.2
114.0551	2.4
114.0662	20.0
115.0502	1.5
116.0706	15.6
123.0552	13.9
124.0581	1.0
124.0756	0.9
126.0549	5.3
127.0386	1.0
128.0705	2.8
129.0656	5.2
130.0497	3.1
130.0859	1.1
132.1017	0.9
133.0759	1.6
133.1007	1.2
134.0597	1.1
134.0806	1.0
136.0752	1.1
138.0546	1.2
139.0500	5.0
140.0533	4.4
141.0540	1.5
141.0656	3.0
141.1021	1.4
142.0496	2.5
142.0861	11.6
144.0653	4.5
149.0707	3.4
150.0547	1.0
151.0862	1.1
152.0704	1.9
152.0815	1.1
153.0545	2.0
154.0498	1.3
156.0652	2.3
156.1018	6.1
158.0445	0.9
161.0707	2.6
164.0816	1.0
166.0861	1.2
166.0972	4.3
167.0813	4.1
168.0650	1.2
169.0969	1.5
170.0810	1.6
172.0714	1.8
175.0864	4.7
176.0816	6.1
177.0653	1.0
178.0496	2.4
179.0812	6.0
180.0652	1.5
181.0489	1.1
191.0811	1.9
192.0649	0.9
193.0685	0.9
193.0969	2.2
193.1217	1.0
194.0446	0.9
194.0811	1.9
194.0918	1.8
195.0761	7.1
195.1124	1.0
196.0713	29.3
197.0747	2.0
197.0917	2.5
198.0762	1.7
198.0860	1.6
199.0597	2.1
200.0550	1.8
203.0811	10.5
204.0763	1.1
206.0444	6.0
210.0867	4.5
211.1075	2.2
211.1328	3.6
212.0913	2.3
212.1025	1.3
212.1271	1.3
213.0866	5.3
213.1228	3.7
214.0703	1.0
214.1066	1.2
216.0865	2.5
221.0916	11.1
222.0762	1.3
222.0866	6.0
222.0957	1.2
223.0709	2.6
224.0550	3.7
229.1289	4.4
230.1014	1.0
238.0709	1.4
239.0738	0.9
239.1021	41.8
240.0498	1.1
240.0864	3.9
240.0972	12.3
240.1068	3.8
241.0812	6.2
241.1007	1.2
241.1177	3.9
242.0656	3.7
242.1014	1.2
256.1004	8.3
256.1170	2.6
256.1288	2.6
257.1126	100.0
257.1239	29.3
257.1486	3.9
258.0756	1.6
258.0965	21.4
258.1078	44.7
258.1149	12.5
258.1312	3.7
258.1427	2.4
258.1690	2.6
259.0911	2.9
259.1080	2.2
259.1107	5.2
259.1281	23.5
259.1430	1.3
259.1641	1.4
260.0910	8.0
260.1127	2.8
260.1261	1.8
260.1298	0.9
260.1481	1.9

Name: 5-Methylcytosine
PrecursorMZ: 126.06621
RT: 6.1307
ExactMass: 125.058911855
Spectrum_type: 2
charge: 1
Formula: C5H7N3O
SMILES: CC1=C(NC(=O)N=C1)N
Method: HCD
Collision_energy: [28.333334]
Isolation_window: 4.0
Ion_mode: P
Num Peaks: 31
56.0498	0.3
69.0702	0.3
69.0723	0.5
80.0497	0.3
81.0449	0.7
82.0653	0.9
83.0606	3.4
84.0446	2.8
97.4574	0.6
100.0756	0.3
108.0443	0.6
108.0556	2.6
109.0396	6.0
109.0760	0.6
110.0236	0.4
110.0429	0.4
124.0504	0.3
124.0755	0.5
125.0708	1.3
125.1072	0.3
126.0186	0.3
126.0550	3.9
126.0660	100.0
126.0737	0.7
126.0911	0.5
127.0389	0.3
127.0500	1.6
127.0629	0.9
127.0692	5.4
127.0864	0.7
128.0703	0.9

Name: 5-Methyluridine
PrecursorMZ: 259.0919
RT: 5.4171
ExactMass: 258.08518617
Spectrum_type: 2
charge: 1
Formula: C10H14N2O6
SMILES: CC1=CN(C(=O)NC1=O)[C@H]2[C@@H]([C@@H]([C@H](O2)CO)O)O
Method: HCD
Collision_energy: [28.333334]
Isolation_window: 4.0
Ion_mode: P
Num Peaks: 32
72.0810	29.9
81.0336	16.3
84.0445	56.9
84.0809	100.0
86.0965	62.8
96.0444	20.3
112.0392	21.3
121.0757	15.8
122.0598	20.9
126.0546	39.8
128.0702	73.9
130.0495	77.0
138.0545	18.1
147.0760	66.1
154.0495	23.4
158.0443	51.2
197.0915	22.8
199.0708	18.6
200.0548	76.5
214.1069	15.8
240.0865	18.6
258.1116	32.2
258.1328	17.6
259.0919	20.4
259.1074	17.7
259.1433	61.5
259.1641	93.7
260.0908	30.7
260.1122	41.1
260.1274	24.7
261.1337	24.3
261.1583	32.3

Name: 6-Acetylaminocaproic acid
PrecursorMZ: 174.11246
RT: 5.2809
ExactMass: 173.10519334
Spectrum_type: 2
charge: 1
Formula: C8H15NO3
SMILES: CC(=O)NCCCCCC(=O)O
Method: HCD
Collision_energy: [28.333334]
Isolation_window: 4.0
Ion_mode: P
Num Peaks: 36
57.0339	1.2
70.1501	0.8
71.0494	0.7
81.0338	0.9
81.0701	0.7
85.0650	0.6
87.0443	0.7
91.0544	0.8
97.0286	1.0
100.0758	100.0
101.0598	2.9
101.0791	5.5
105.0699	0.9
113.0598	0.8
118.0862	2.4
119.0856	1.5
131.0855	1.6
133.1009	1.1
145.1012	0.7
146.0598	1.4
147.1169	0.6
154.0860	1.2
155.0896	0.7
156.1018	4.0
172.0968	1.3
173.0959	0.6
173.1324	2.8
174.0549	1.7
174.0913	0.9
174.1123	1.6
175.0755	1.0
175.0864	0.9
175.1115	2.7
175.1478	1.5
176.0704	1.2
176.0835	1.5

Name: 6-Aminohexanoic Acid
PrecursorMZ: 132.10188
RT: 9.673807142857143
ExactMass: 131.094628657
Spectrum_type: 2
charge: 1
Formula: C6H13NO2
SMILES: C(CCC(=O)O)CCN
Method: HCD
Collision_energy: [28.333334]
Isolation_window: 4.0
Ion_mode: P
Num Peaks: 40
55.0183	2.6
55.0546	26.5
56.0499	4.9
56.0580	2.3
58.0655	1.6
59.0495	9.9
68.0497	1.7
69.0338	3.3
69.6995	2.0
70.0654	73.1
71.0495	2.2
71.0688	3.3
72.0811	8.7
74.0239	3.4
83.0494	19.3
84.0446	10.7
84.0810	4.7
86.0603	1.9
86.0966	20.1
87.0443	5.1
88.0395	2.3
98.0601	36.1
99.0442	4.5
101.0598	100.0
102.0550	1.7
102.0631	7.1
112.0758	2.1
114.0914	51.9
115.0947	5.2
116.0706	8.6
117.0546	4.3
130.0496	1.8
130.0862	3.4
130.1589	5.3
132.1018	40.7
133.0758	1.7
133.1050	3.9
134.0631	2.2
134.0810	12.5
134.0962	1.9

Name: 6-Hydroxynicotinic acid
PrecursorMZ: 140.03419
RT: 5.8717
ExactMass: 139.026943022
Spectrum_type: 2
charge: 1
Formula: C6H5NO3
SMILES: C1=CC(=O)NC=C1C(=O)O
Method: HCD
Collision_energy: [28.333334]
Isolation_window: 4.0
Ion_mode: P
Num Peaks: 23
81.0450	7.5
93.0449	8.9
94.0652	1.1
95.0605	21.4
96.0638	1.4
97.0398	1.7
111.0553	1.0
112.0393	27.6
113.0428	1.7
121.0396	77.1
122.0429	6.0
122.0600	1.4
123.0552	33.0
138.0490	2.5
138.0911	1.4
139.0500	100.0
139.0864	5.9
140.0340	45.5
140.0533	8.6
140.0704	1.2
141.0374	2.9
141.0656	15.4
142.0862	1.0

Name: 7-Amino-4-methylcoumarin
PrecursorMZ: 176.07054
RT: 1.4157250000000001
ExactMass: 175.06332853
Spectrum_type: 2
charge: 1
Formula: C10H9NO2
SMILES: CC1=CC(=O)OC2=C1C=CC(=C2)N
Method: HCD
Collision_energy: [28.333334]
Isolation_window: 4.0
Ion_mode: P
Num Peaks: 9
120.0807	2.1
133.0519	3.7
148.0755	19.7
149.0788	2.8
161.0469	19.6
176.0703	100.0
176.1065	2.3
176.8750	17.3
177.0734	8.9

Name: 7-Ketolithocholic acid
PrecursorMZ: 391.28375
RT: 1.0011
ExactMass: 390.27700969
Spectrum_type: 2
charge: 1
Formula: C24H38O4
SMILES: C[C@H](CCC(=O)O)[C@H]1CC[C@@H]2[C@@]1(CC[C@H]3[C@H]2C(=O)C[C@H]4[C@@]3(CC[C@H](C4)O)C)C
Method: HCD
Collision_energy: [28.333334]
Isolation_window: 4.0
Ion_mode: P
Num Peaks: 29
57.0703	9.8
69.0235	1.3
69.0255	0.7
69.0280	1.2
69.0307	1.0
69.0343	0.9
69.0368	0.9
69.1182	0.8
69.2653	0.8
69.3350	0.9
69.3701	1.2
69.3797	0.9
71.0858	18.3
72.0891	1.0
89.0598	1.0
97.4572	1.4
113.1325	1.6
149.0107	0.7
149.0231	100.0
149.0355	0.8
150.0265	7.9
167.0008	0.8
167.0337	16.2
168.0370	1.2
279.1585	1.8
284.0547	3.8
326.0651	2.2
358.0913	3.0
390.2783	1.6

Name: 7-Methylguanine
PrecursorMZ: 166.07229
RT: 6.006031578947368
ExactMass: 165.06505986
Spectrum_type: 2
charge: 1
Formula: C6H7N5O
SMILES: CN1C=NC2=C1C(=O)NC(=N2)N
Method: HCD
Collision_energy: [28.333334]
Isolation_window: 4.0
Ion_mode: P
Num Peaks: 24
120.0808	0.4
124.0505	1.8
138.0913	0.3
139.0750	0.5
139.0866	0.4
142.0610	1.3
149.0457	1.6
150.0547	1.0
165.0657	0.4
165.1385	0.3
166.0577	0.7
166.0607	0.7
166.0722	100.0
166.0844	0.5
166.0868	0.9
166.1414	0.3
167.0563	5.7
167.0692	1.4
167.0756	6.4
167.0812	0.4
167.1538	0.6
168.0594	0.3
168.0657	0.6
168.0686	1.2

Name: 7alpha-Hydroxy-3-oxo-5beta-cholan-24-oic acid
PrecursorMZ: 391.28321
RT: 1.4594
ExactMass: 390.27700969
Spectrum_type: 2
charge: 1
Formula: C24H38O4
SMILES: C[C@H](CCC(=O)O)[C@H]1CC[C@@H]2[C@@]1(CC[C@H]3[C@H]2[C@@H](C[C@H]4[C@@]3(CCC(=O)C4)C)O)C
Method: HCD
Collision_energy: [28.333334]
Isolation_window: 4.0
Ion_mode: P
Num Peaks: 312
55.0543	0.9
57.0701	0.3
67.0544	3.4
69.0700	1.7
69.5310	0.2
69.5331	0.2
69.5888	0.2
71.0492	0.3
73.0285	0.2
77.0384	0.2
79.0543	1.6
81.0700	9.8
82.0733	0.6
83.0492	0.7
83.0856	3.8
84.0888	0.2
85.0648	2.0
91.0541	1.7
93.0698	6.0
94.0732	0.5
95.0854	10.3
96.0443	0.5
96.0888	0.6
97.0647	0.4
97.1011	0.8
97.4571	0.2
99.0439	2.7
99.0804	0.2
101.0596	1.9
105.0333	0.2
105.0697	6.2
106.0730	0.5
107.0853	12.0
108.0887	0.9
109.0645	0.4
109.1010	11.3
110.1043	1.0
111.0802	1.1
111.1166	0.3
113.0595	1.2
115.0534	0.2
115.0751	0.2
117.0696	1.3
119.0852	8.1
120.0885	0.8
121.0646	0.3
121.1009	8.9
122.1041	0.7
123.0801	1.3
123.1165	2.9
124.1198	0.2
125.0594	0.2
125.0957	2.2
126.0992	0.2
127.0751	0.4
129.0696	0.3
131.0851	5.0
132.0884	0.4
133.1008	8.3
134.1040	0.8
135.0800	1.2
135.1164	6.6
136.1198	0.7
137.0957	0.7
137.1321	0.4
139.0750	0.7
139.1113	0.2
141.0905	0.4
143.0850	2.2
144.0881	0.2
145.0444	0.2
145.0887	0.4
145.0912	0.3
145.1007	66.8
145.1102	0.5
145.1125	0.5
145.1162	0.2
146.1040	7.0
147.0800	0.3
147.1069	0.2
147.1163	13.4
148.1196	1.5
149.0956	0.9
149.1320	26.5
149.1443	0.2
150.0909	0.3
150.1353	3.0
151.0750	0.2
151.1112	1.0
151.1474	0.2
153.0905	1.3
155.0851	0.6
157.1007	3.1
158.1040	0.2
159.0797	0.3
159.1163	9.9
160.1195	1.1
161.0958	0.4
161.1319	9.6
162.1352	1.0
163.1112	0.5
163.1476	5.9
164.1066	0.2
164.1508	0.8
165.0907	0.4
165.1269	0.3
167.1061	1.1
169.1005	1.0
171.1162	3.0
172.1192	0.4
173.0954	0.3
173.1319	4.4
174.1352	0.6
175.1111	0.9
175.1475	3.3
176.1508	0.3
177.0906	0.4
177.1267	0.4
177.1631	1.5
178.1664	0.2
179.1061	0.7
181.1007	0.4
181.1216	0.8
183.1161	1.3
184.1196	0.2
185.0955	0.3
185.1318	4.6
186.1349	0.6
187.1111	0.6
187.1474	4.8
188.1507	0.5
189.0903	0.1
189.1267	0.6
189.1631	2.3
190.1664	0.3
191.1059	1.4
191.1422	0.4
192.1091	0.2
193.1216	2.7
194.1251	0.2
195.1160	0.5
195.1370	0.4
197.1317	1.5
198.1351	0.2
199.1114	0.2
199.1474	14.5
200.1506	2.0
201.1267	0.4
201.1630	13.6
202.1663	2.0
203.1061	0.1
203.1422	0.5
203.1786	1.6
204.1821	0.3
205.1215	1.2
205.1579	0.2
206.1249	0.2
207.1372	1.0
208.1404	0.2
209.1317	3.4
209.1523	0.2
210.1349	0.6
211.1473	2.1
212.1504	0.5
213.1274	0.2
213.1629	12.0
214.1662	1.9
215.1426	0.8
215.1785	16.5
216.1819	2.4
217.1213	0.2
217.1576	0.5
217.1941	0.5
219.1371	1.4
219.1737	0.2
220.1404	0.2
221.1527	0.8
223.1473	1.8
224.1508	0.3
225.1629	2.7
226.1660	0.5
227.1421	5.3
227.1785	8.1
228.1455	0.9
228.1819	1.3
229.1577	2.8
229.1944	1.0
230.1609	0.6
231.1371	0.7
231.1733	0.8
233.1526	1.3
233.1893	0.2
234.1559	0.2
235.1479	0.2
235.1683	0.5
237.1627	2.2
238.1663	0.3
239.1785	1.3
240.1822	0.3
241.1578	1.4
241.1942	2.9
242.1609	0.2
242.1974	0.6
243.1370	0.2
243.1735	1.1
243.2098	0.8
244.1765	0.2
245.1526	7.4
246.1559	1.3
247.1682	2.7
248.1718	0.4
249.1630	0.4
249.1838	0.2
251.1784	0.6
253.1941	1.4
254.2014	0.6
255.1733	4.8
255.2098	1.4
256.1768	0.8
256.2128	0.3
257.1891	0.3
259.1682	4.5
260.1715	0.8
261.1839	2.8
262.1873	0.5
263.1781	0.9
264.1823	0.2
265.1941	0.2
267.1732	0.2
267.2095	0.6
269.1888	0.4
271.1679	0.2
273.1836	2.0
274.1871	0.3
277.1936	0.7
279.2094	1.2
280.2127	0.3
281.1888	1.1
281.2254	0.6
282.1920	0.2
283.2053	0.3
285.1837	0.3
287.1997	0.4
291.2099	0.2
293.2251	1.5
294.2296	0.4
295.2046	1.3
295.2408	0.9
296.2077	0.3
296.2447	0.2
297.2201	1.3
298.2229	0.3
299.1996	0.8
300.2028	0.2
301.2147	0.4
307.2416	0.3
309.0815	0.2
309.1797	0.7
309.2086	0.2
309.2192	0.8
309.2263	0.5
309.2563	100.0
309.2855	0.5
309.2934	0.7
309.3039	0.2
310.2224	0.2
310.2596	24.0
310.2968	0.2
311.2628	1.8
313.2151	0.7
314.2183	0.2
315.2307	0.3
319.2405	8.8
320.2439	2.0
321.2479	0.2
327.2668	4.2
328.2700	1.1
337.2087	0.2
337.2511	24.7
338.2545	6.1
339.2573	0.4
345.2780	0.3
355.2156	0.4
355.2249	0.4
355.2616	74.0
355.2967	0.4
355.3073	0.5
355.3204	0.2
356.2649	18.5
356.3106	0.2
357.2003	0.3
357.2676	1.6
357.2720	0.4
357.2780	0.3
371.2573	0.3
372.2594	0.5
372.2882	0.3
373.2221	0.2
373.2720	61.7
373.3209	0.4
373.3361	0.2
374.2754	15.4
375.2785	1.5
390.2753	0.2
390.2985	1.0
391.2824	9.5
391.3031	0.3
392.2771	0.4
392.2860	2.5
393.1797	0.4
393.2030	0.3
393.2911	0.3

Name: 7beta-Hydroxylathyrol
PrecursorMZ: 351.21559
RT: 1.2441
ExactMass: 350.20932405
Spectrum_type: 2
charge: 1
Formula: C20H30O5
SMILES: C[C@H]1C[C@]2([C@H]([C@H]1O)[C@H](C(=C)[C@@H](C[C@H]3[C@H](C3(C)C)/C=C(\C2=O)/C)O)O)O
Method: HCD
Collision_energy: [28.333334]
Isolation_window: 4.0
Ion_mode: P
Num Peaks: 20
57.0338	12.8
57.0702	9.8
69.5508	3.8
83.0856	3.7
85.0285	49.3
101.0232	6.9
133.1008	7.4
147.0800	15.3
147.1163	3.1
157.0491	4.6
161.0956	6.4
165.0541	4.9
175.1112	24.9
193.1216	11.9
203.1061	7.7
221.1164	36.7
222.1198	4.5
295.1527	7.1
351.2152	100.0
352.2186	21.4

Name: 9-Methyluric acid
PrecursorMZ: 183.05154
RT: 5.4102
ExactMass: 182.04399007
Spectrum_type: 2
charge: 1
Formula: C6H6N4O3
SMILES: CN1C2=C(C(=O)NC(=O)N2)NC1=O
Method: HCD
Collision_energy: [28.333334]
Isolation_window: 4.0
Ion_mode: P
Num Peaks: 25
70.0654	3.1
91.0543	97.2
92.0577	6.1
122.0599	3.3
126.0297	12.4
136.0754	10.9
137.0707	1.9
154.0860	9.4
155.0561	10.3
157.0970	21.6
164.0703	45.3
165.0657	3.8
165.0737	4.8
166.0862	1.6
182.0809	100.0
182.1172	20.3
182.1899	1.7
183.0509	77.0
183.0761	7.6
183.0842	9.4
183.1126	1.7
183.1204	1.6
184.0544	4.4
184.0963	2.3
185.0917	13.9

Name: Aceglutamide
PrecursorMZ: 189.08688
RT: 6.4325
ExactMass: 188.07970687
Spectrum_type: 2
charge: 1
Formula: C7H12N2O4
SMILES: CC(=O)N[C@@H](CCC(=O)N)C(=O)O
Method: HCD
Collision_energy: [28.333334]
Isolation_window: 4.0
Ion_mode: P
Num Peaks: 18
69.0338	29.0
82.0654	24.1
98.0602	39.9
100.0758	19.2
111.0441	33.8
116.0706	100.0
118.0650	15.4
126.0548	17.4
128.0705	63.7
146.0599	64.4
153.0655	20.9
165.0210	39.4
171.0760	36.8
188.0700	28.9
188.0912	33.0
189.0865	24.6
190.0856	15.4
190.1070	31.6

Name: Acetylhistamine
PrecursorMZ: 154.09729
RT: 5.59425
ExactMass: 153.090211983
Spectrum_type: 2
charge: 1
Formula: C7H11N3O
SMILES: CC(=O)NCCC1=CN=CN1
Method: HCD
Collision_energy: [28.333334]
Isolation_window: 4.0
Ion_mode: P
Num Peaks: 167
56.0497	0.3
59.0606	0.4
67.0545	0.6
68.0497	0.9
69.0338	0.3
69.0450	2.7
69.0701	0.2
69.0748	0.4
69.5956	0.3
69.6252	0.3
69.6669	0.3
69.6815	0.3
69.7479	0.3
69.8456	0.3
69.8784	0.2
69.8887	0.3
69.9695	0.3
69.9932	0.3
70.0402	2.2
70.0653	1.4
70.1485	0.2
70.2398	0.2
71.0493	1.6
71.0606	1.1
72.0446	0.4
72.0809	1.4
72.9372	1.1
74.0965	0.3
79.0544	0.4
80.0496	0.8
81.0336	1.3
81.0700	0.5
82.0653	1.1
83.0493	0.3
83.0605	0.8
84.0445	2.8
84.0557	0.5
84.0809	0.8
85.0285	0.4
85.0761	0.8
86.0601	1.0
87.0441	1.6
90.9477	0.4
93.0699	0.5
94.0651	0.3
95.0492	2.2
95.0542	0.3
95.0604	43.5
95.0667	0.3
95.0855	0.3
96.0443	0.9
96.0574	0.3
96.0637	2.2
96.0807	0.3
97.0284	0.5
97.0648	0.3
97.0759	0.6
97.4567	0.4
98.0349	1.7
98.0600	0.7
98.0712	1.4
98.0964	0.3
107.0602	0.5
107.0855	0.3
108.0443	3.6
108.0555	1.0
108.0807	0.4
109.0646	0.4
109.0759	1.2
109.1011	0.3
110.0347	0.3
110.0599	1.2
110.0712	1.9
110.0964	0.5
111.0440	0.3
111.0552	0.5
111.0664	0.5
111.0790	2.3
111.0915	1.3
112.0503	0.7
112.0758	1.4
112.0831	0.3
112.0868	15.6
112.9997	8.7
113.0707	0.9
113.0819	1.4
113.0901	0.9
113.0946	0.3
113.1071	0.3
113.9634	2.7
114.0549	0.4
114.0660	0.5
114.1024	1.8
115.0501	1.0
122.0598	0.3
124.0754	1.4
125.0596	0.3
125.0708	0.6
125.0786	1.5
125.0820	0.3
126.0546	1.7
126.0911	1.6
126.1022	1.4
127.0751	0.5
128.0452	0.8
128.0703	0.9
131.9738	0.6
135.0551	0.6
135.0914	0.5
136.0389	1.2
136.0757	0.5
136.0866	10.7
137.0707	4.6
137.0819	0.4
137.0899	0.9
138.0182	8.1
138.0546	0.6
138.0658	0.5
138.0910	0.2
138.1020	0.3
139.0218	0.3
152.0703	0.6
152.0929	0.5
152.1007	0.4
152.1068	0.4
152.1179	0.9
152.1259	0.8
153.0405	2.0
153.0543	0.2
153.0655	10.7
153.0739	0.8
153.0769	1.0
153.0904	0.4
153.1020	1.7
153.1131	21.8
153.1179	0.3
153.9872	0.3
154.0244	0.6
154.0363	0.7
154.0390	0.7
154.0494	100.0
154.0611	0.8
154.0689	1.1
154.0863	3.3
154.0971	19.7
154.1088	0.9
154.1163	1.5
154.1224	0.2
154.1332	0.6
155.0466	0.5
155.0526	7.6
155.0561	12.4
155.0700	0.7
155.0810	4.5
155.0925	2.1
155.1003	1.5
155.1176	0.7
155.1286	5.1
155.1540	0.2
156.0288	1.5
156.0417	1.9
156.0535	0.4
156.0594	0.4
156.0651	6.6
156.0755	0.3
156.1015	0.6
156.1126	0.6

Name: Adenosine
PrecursorMZ: 268.10355
RT: 5.9466
ExactMass: 267.09675391
Spectrum_type: 2
charge: 1
Formula: C10H13N5O4
SMILES: C1=NC(=C2C(=N1)N(C=N2)[C@H]3[C@@H]([C@@H]([C@H](O3)CO)O)O)N
Method: HCD
Collision_energy: [28.333334]
Isolation_window: 4.0
Ion_mode: P
Num Peaks: 103
57.0339	0.6
69.3470	0.5
70.0654	0.6
72.0811	1.3
73.0287	0.6
74.0240	0.6
81.0338	0.5
81.0700	0.5
84.0810	0.6
85.0285	0.7
97.3986	0.8
100.0759	0.5
101.0598	0.5
102.0551	0.8
110.0714	0.6
113.0712	0.6
114.0914	0.9
115.0390	0.5
116.0705	1.0
130.0499	0.7
133.0494	0.8
134.0599	0.8
136.0508	0.7
136.0529	0.5
136.0616	100.0
136.0702	0.7
136.0724	0.8
136.0755	4.1
137.0588	1.6
137.0650	5.7
144.0807	4.1
145.1011	0.5
149.0960	1.0
152.0706	1.0
160.9013	0.6
163.0865	0.7
166.0531	1.1
166.0861	0.6
167.0569	0.6
168.0489	1.5
173.0708	2.7
175.1227	1.5
185.1071	0.5
187.1116	0.7
201.1232	0.9
202.1266	0.7
203.1176	4.6
204.1213	0.5
205.1224	0.7
205.1333	1.6
207.1015	0.5
219.1125	4.2
219.9770	1.1
220.1165	0.5
221.1281	1.0
224.1757	0.5
231.1124	5.9
232.0714	0.7
232.1160	0.8
233.1173	0.6
233.1283	1.4
246.0043	1.0
249.1229	3.7
250.1071	1.4
250.1181	0.5
251.1021	0.6
251.1387	2.6
252.0867	0.5
252.1589	0.7
252.1703	3.7
266.1020	0.8
266.1137	0.5
266.1246	0.6
266.1376	0.8
266.1747	0.7
267.0648	0.8
267.0970	0.9
267.1133	0.6
267.1203	3.3
267.1332	4.6
267.1471	0.7
267.1696	1.5
268.0826	0.6
268.0920	2.1
268.1038	18.8
268.1173	2.8
268.1292	0.8
268.1539	1.1
268.1685	0.6
268.2631	1.4
269.0804	1.3
269.1082	1.9
269.1125	2.5
269.1282	0.6
269.1489	5.7
269.1855	1.1
270.0965	0.9
270.1112	0.6
270.1325	1.1
270.1451	1.4
270.1696	0.9
270.1815	1.7
270.1839	1.9

Name: Adenosine 2',3'-cyclic phosphate
PrecursorMZ: 330.05931
RT: 5.41185
ExactMass: 329.05252012
Spectrum_type: 2
charge: 1
Formula: C10H12N5O6P
SMILES: C1=NC(=C2C(=N1)N(C=N2)C3C4C(C(O3)CO)OP(=O)(O4)O)N
Method: HCD
Collision_energy: [28.333334]
Isolation_window: 4.0
Ion_mode: P
Num Peaks: 60
69.0338	3.9
69.7396	0.4
70.0654	2.3
72.0811	0.7
81.0336	0.4
85.0285	0.4
86.0966	1.3
97.0285	1.4
98.9842	10.2
100.0394	0.5
116.0705	0.4
126.0911	0.4
130.0649	0.4
136.0098	0.3
136.0508	0.6
136.0534	0.4
136.0616	100.0
136.0700	0.5
136.0724	0.5
137.0587	1.5
137.0649	5.4
147.0439	0.6
164.9945	0.5
167.0812	1.6
168.1017	1.3
171.0914	0.7
195.0049	0.3
195.0509	0.5
202.0719	1.5
213.0154	2.1
217.1181	0.5
229.1543	0.8
257.1278	0.9
258.1141	0.4
259.1222	0.4
283.1063	0.5
285.1233	0.5
288.0845	0.5
301.1174	1.2
313.1189	0.3
328.1378	0.5
328.1534	0.4
329.1125	5.7
329.1498	0.6
329.1709	1.0
330.0590	48.0
330.0927	0.3
330.0984	0.4
330.1152	1.3
330.1199	0.6
330.1332	0.7
330.1531	0.5
330.1673	0.5
330.2018	1.0
331.0624	5.0
331.1286	2.3
331.1643	0.7
332.0629	0.5
332.1115	0.7
332.1466	0.4

Name: Allocholic acid
PrecursorMZ: 391.28386
RT: 0.9553
ExactMass: 408.28757437
Spectrum_type: 2
charge: 1
Formula: C24H40O5
SMILES: C[C@H](CCC(=O)O)[C@H]1CC[C@@H]2[C@@]1([C@H](C[C@H]3[C@H]2[C@@H](C[C@@H]4[C@@]3(CC[C@H](C4)O)C)O)O)C
Method: HCD
Collision_energy: [28.333334]
Isolation_window: 4.0
Ion_mode: P
Num Peaks: 193
57.0703	1.3
67.0546	4.9
69.0419	1.5
69.0444	1.3
69.0702	3.7
69.4091	1.2
69.4149	1.2
70.0655	1.5
71.0859	1.9
72.0811	2.0
79.0544	2.5
81.0337	1.0
81.0701	9.9
83.0493	1.5
83.0858	4.0
84.0810	2.6
85.0650	2.8
86.0602	2.0
86.0966	1.8
91.0543	2.4
93.0700	6.7
95.0856	11.7
97.0648	1.3
97.1013	1.9
99.0442	2.4
101.0598	2.0
105.0699	6.9
107.0856	12.4
108.0890	1.0
109.1012	11.4
110.1046	1.0
111.0442	1.0
111.0805	1.3
113.0597	1.4
116.0706	1.6
117.0700	1.6
119.0855	8.6
120.0807	2.2
121.0647	0.9
121.1011	10.6
123.0803	2.1
123.1168	3.8
125.0960	2.1
128.0707	1.3
130.0862	1.7
131.0854	4.9
132.0654	3.5
133.1010	9.0
135.0803	1.6
135.1167	7.4
137.0961	1.3
137.1322	1.1
139.0752	1.0
143.0853	2.3
145.1010	53.6
146.1043	6.5
147.0803	1.1
147.1167	22.1
148.1200	4.3
149.0231	6.4
149.0959	1.6
149.1323	22.1
150.1357	2.0
151.1115	1.4
153.0910	1.4
155.0103	2.2
157.1011	3.5
159.1167	11.0
160.1197	1.4
161.0958	1.0
161.1323	10.2
162.1356	2.0
163.1115	1.3
163.1480	5.9
165.1271	1.9
166.0860	1.1
167.1066	1.1
169.1009	1.6
171.1166	3.4
173.0959	1.1
173.1322	5.1
174.1359	1.0
175.1117	1.2
175.1479	3.7
177.1634	1.2
179.1067	1.2
183.1166	2.6
185.1323	4.7
186.1356	1.1
187.1479	5.3
189.1272	1.1
189.1635	2.5
191.1063	1.8
193.1220	2.6
197.1323	2.2
199.1478	14.8
200.1510	2.5
201.1635	12.6
202.1669	2.2
203.1791	2.0
205.1221	1.5
207.1378	1.1
209.1322	3.9
211.1478	3.4
212.1511	1.1
213.1634	13.0
214.1666	2.3
215.1430	1.2
215.1791	16.0
216.1826	2.9
217.1583	1.4
219.1376	1.6
221.1531	1.3
223.1478	1.9
225.1634	3.8
227.1426	5.1
227.1791	7.5
228.1823	1.5
229.1583	3.9
229.1945	1.0
231.1742	1.5
233.1532	1.2
235.1686	1.0
237.1632	1.7
239.1790	1.1
241.1584	1.5
241.1947	3.1
243.1378	0.9
243.1742	1.9
245.1532	7.5
246.1571	1.1
247.1687	3.3
251.1792	1.0
253.1947	1.8
255.1738	4.7
255.2104	1.5
257.1895	0.9
259.1689	4.4
261.1844	2.9
263.1782	1.1
265.1946	0.9
266.1743	1.5
268.1816	1.1
273.1229	1.1
273.1844	1.7
279.2101	1.4
281.1894	1.1
293.2255	2.0
295.2056	1.5
295.2411	1.0
297.2209	1.1
299.2003	1.1
307.2418	1.8
308.2447	1.6
309.2202	0.9
309.2570	100.0
310.2604	22.9
311.2633	1.8
313.2159	1.0
319.2414	9.1
320.2445	2.5
325.2519	9.3
326.2551	8.5
327.2679	10.8
328.2707	2.3
335.2367	1.4
336.2400	1.4
337.2519	28.1
338.2554	7.3
353.2467	2.9
354.2503	2.0
355.2625	84.1
356.2658	22.6
357.2693	1.8
371.2575	8.5
372.2606	11.2
373.2730	78.3
374.2763	19.0
375.2801	2.6
389.2671	1.1
390.1344	2.2
390.2059	2.7
390.2695	1.8
390.2992	2.4
390.3213	3.4
391.1866	6.9
391.2830	16.1
391.3238	1.2
392.1877	1.3
392.2426	1.1
392.2866	3.5
393.3158	2.4
393.3518	1.4

Name: Alloisoleucine, DL-
PrecursorMZ: 132.10186
RT: 7.646684615384616
ExactMass: 131.094628657
Spectrum_type: 2
charge: 1
Formula: C6H13NO2
SMILES: CC[C@@H](C)[C@@H](C(=O)O)N
Method: HCD
Collision_energy: [28.333334]
Isolation_window: 4.0
Ion_mode: P
Num Peaks: 48
57.0703	1.2
58.0655	28.7
59.0690	0.8
59.0733	25.4
60.0448	0.8
60.0767	1.1
61.0526	0.6
69.0338	7.4
69.0702	1.7
69.7638	0.5
70.0655	0.5
72.0811	7.9
74.0240	0.9
74.0967	1.3
84.0446	7.4
84.0810	18.5
85.0399	9.2
85.0480	1.4
85.0843	2.5
86.0602	0.5
86.0966	24.5
87.0555	0.6
87.1000	1.9
88.0395	0.5
91.0543	0.6
105.0369	1.4
105.0699	0.9
116.0705	0.5
130.0497	1.2
130.0651	0.9
130.0861	5.5
130.1589	4.1
131.0450	2.1
131.0856	0.8
131.0893	0.7
131.1622	0.7
132.0807	0.7
132.0911	0.7
132.1017	100.0
132.1098	0.6
132.1120	0.6
133.0317	1.3
133.0647	0.5
133.0760	0.5
133.1050	7.3
134.0598	0.5
134.0810	6.8
134.0962	0.9

Name: Allothreonine, L-
PrecursorMZ: 120.06559
RT: 9.7344
ExactMass: 119.058243149
Spectrum_type: 2
charge: 1
Formula: C4H9NO3
SMILES: C[C@@H]([C@@H](C(=O)O)N)O
Method: HCD
Collision_energy: [28.333334]
Isolation_window: 4.0
Ion_mode: P
Num Peaks: 14
56.0499	41.4
60.0448	8.5
72.0811	7.8
73.0845	11.1
74.0604	100.0
75.0636	4.4
102.0551	25.6
119.0896	39.1
120.0476	14.7
120.0555	5.9
120.0655	8.2
120.0807	7.4
121.0648	5.5
121.0760	5.2

Name: Alpha-Aminoadipic Acid
PrecursorMZ: 162.07589
RT: 8.8016
Spectrum_type: 2
charge: 1
Method: HCD
Collision_energy: [28.333334]
Isolation_window: 4.0
Ion_mode: P
Num Peaks: 10
60.0447	19.5
72.0446	46.1
84.0445	39.0
85.0286	14.5
98.0601	100.0
105.0334	30.8
116.0705	39.8
144.0653	40.9
162.0758	69.6
162.1122	43.3

Name: Anthranilic Acid
PrecursorMZ: 155.08149
RT: 1.2486
ExactMass: 137.047678466
Spectrum_type: 2
charge: 1
Formula: C7H7NO2
SMILES: C1=CC=C(C(=C1)C(=O)O)N
Method: HCD
Collision_energy: [28.333334]
Isolation_window: 4.0
Ion_mode: P
Num Peaks: 71
55.0546	0.9
58.0655	6.9
67.0546	2.5
69.0338	0.9
69.0702	13.1
70.0654	2.0
71.0494	2.6
72.0811	1.3
81.0701	1.8
82.0653	3.2
83.0494	1.0
83.0858	1.1
84.0446	3.8
93.0699	3.0
95.0492	1.6
95.0605	33.8
95.0856	10.1
96.0444	3.1
96.0638	1.8
96.0808	1.5
97.0285	1.5
97.0649	8.7
98.0965	2.9
98.9843	2.1
100.0757	1.0
108.0444	1.3
108.0807	1.1
109.0647	1.9
109.0760	4.5
110.0349	1.2
110.0601	9.8
110.0713	1.4
110.0964	5.6
111.0440	1.4
111.0552	2.8
111.0803	4.3
112.0757	4.1
114.0550	2.6
115.0390	1.9
124.0756	1.1
126.0550	1.7
126.0912	9.7
127.0752	1.2
128.0703	3.7
128.1067	1.9
136.0391	1.3
136.0504	1.2
136.0756	1.0
137.0596	1.3
137.0707	100.0
138.0546	1.3
138.0741	7.2
138.0911	10.3
139.0751	5.3
153.0406	4.3
153.0658	2.5
154.0245	1.8
154.0496	18.6
154.0598	3.1
154.0862	5.2
154.1223	1.0
155.0531	1.3
155.0813	31.9
156.0421	3.9
156.0653	17.5
156.0850	1.9
156.1017	79.9
156.1380	2.4
157.0606	1.7
157.0969	1.5
157.1051	3.7

Name: Benzamide
PrecursorMZ: 122.06008
RT: 1.3005
ExactMass: 121.052763847
Spectrum_type: 2
charge: 1
Formula: C7H7NO
SMILES: C1=CC=C(C=C1)C(=O)N
Method: HCD
Collision_energy: [28.333334]
Isolation_window: 4.0
Ion_mode: P
Num Peaks: 11
79.0545	1.5
80.0497	1.5
81.0701	1.8
107.0730	7.5
122.0600	9.6
122.0964	100.0
123.0634	1.0
123.0803	3.5
123.0919	1.9
123.0996	8.8
124.0755	1.0

Name: Benzeneacetamide
PrecursorMZ: 136.07556
RT: 1.4604
ExactMass: 135.068413911
Spectrum_type: 2
charge: 1
Formula: C8H9NO
SMILES: C1=CC=C(C=C1)CC(=O)N
Method: HCD
Collision_energy: [28.333334]
Isolation_window: 4.0
Ion_mode: P
Num Peaks: 28
53.0389	3.7
65.0388	1.3
67.0545	2.3
69.5341	1.7
80.0497	1.7
81.0700	2.2
91.0543	18.5
92.0577	1.3
93.0573	3.4
93.0699	13.5
95.0492	8.5
95.0604	1.4
97.4560	1.4
105.0446	1.8
108.0444	2.9
108.0807	8.2
112.0392	4.8
120.0441	2.2
126.0547	7.3
136.0213	2.8
136.0754	100.0
136.0861	2.6
137.0455	1.5
137.0594	6.3
137.0708	1.9
137.0786	10.5
138.0546	7.3
138.0910	8.9

Name: Benzocaine
PrecursorMZ: 166.08635
RT: 1.1604
ExactMass: 165.078978594
Spectrum_type: 2
charge: 1
Formula: C9H11NO2
SMILES: CCOC(=O)C1=CC=C(C=C1)N
Method: HCD
Collision_energy: [28.333334]
Isolation_window: 4.0
Ion_mode: P
Num Peaks: 33
106.0653	6.0
107.0858	5.1
108.0447	8.2
109.1013	4.2
123.0554	16.4
124.0395	7.2
124.0758	13.8
126.0550	5.0
132.0444	8.4
134.0601	12.0
136.0394	7.1
136.0757	6.2
138.0914	5.8
139.0754	3.7
149.0963	4.7
152.0344	4.3
152.0708	12.0
154.0500	75.4
164.0707	7.9
164.1071	6.4
164.1434	4.0
165.0547	6.2
166.0864	100.0
166.1226	7.4
167.0704	4.5
167.0819	4.2
167.0897	12.5
167.1068	4.8
167.1544	23.4
168.0480	4.2
168.0659	22.5
168.0688	13.0
168.1021	7.9

Name: Benzoic Acid
PrecursorMZ: 123.0441
RT: 2.5024
ExactMass: 122.03677943
Spectrum_type: 2
charge: 1
Formula: C7H6O2
SMILES: C1=CC=C(C=C1)C(=O)O
Method: HCD
Collision_energy: [28.333334]
Isolation_window: 4.0
Ion_mode: P
Num Peaks: 32
53.0390	5.5
56.0499	3.9
59.0680	9.2
67.0546	3.2
77.0915	87.8
80.0497	5.9
81.0701	2.5
94.0653	3.1
95.0493	100.0
96.0445	11.7
96.0526	6.4
100.0244	12.3
104.0576	2.9
104.0707	3.9
105.0448	2.3
105.0701	2.5
118.0349	4.3
121.0649	2.5
121.0841	5.5
122.0600	11.5
122.0714	4.7
122.0812	3.9
122.0964	35.6
123.0440	38.2
123.0552	12.2
123.0804	23.4
123.0916	3.0
123.0996	2.9
124.0392	37.7
124.0466	2.7
124.0756	34.5
125.0708	3.6

Name: Beta-Carboline
PrecursorMZ: 169.076
RT: 1.9288916666666667
ExactMass: 168.068748264
Spectrum_type: 2
charge: 1
Formula: C11H8N2
SMILES: C1=CC=C2C(=C1)C3=C(N2)C=NC=C3
Method: HCD
Collision_energy: [28.333334]
Isolation_window: 4.0
Ion_mode: P
Num Peaks: 9
89.0600	19.9
126.0914	4.6
151.0965	9.0
167.1542	21.5
168.0693	28.5
168.1018	4.6
169.0760	100.0
170.0793	12.5
170.1177	5.5

Name: Beta-Leucine
PrecursorMZ: 132.10189
RT: 7.3926
ExactMass: 131.094628657
Spectrum_type: 2
charge: 1
Formula: C6H13NO2
SMILES: CC(C)C(CC(=O)O)N
Method: HCD
Collision_energy: [28.333334]
Isolation_window: 4.0
Ion_mode: P
Num Peaks: 38
57.0703	2.0
60.0447	3.1
61.0110	1.8
61.0526	2.3
69.0338	29.0
69.0702	8.5
69.3695	2.2
69.9911	1.5
72.0811	39.2
74.0239	3.6
74.0967	2.3
84.0446	27.1
84.0810	10.9
85.0399	21.8
85.0480	4.6
85.0843	2.0
86.0966	100.0
87.0265	2.7
87.0555	1.6
87.1000	7.3
91.0544	2.0
97.4560	1.4
105.0369	5.7
105.0699	3.2
116.0705	2.4
130.0498	4.0
130.0649	2.3
130.0861	3.3
130.1589	6.3
131.0449	5.5
131.0855	2.6
132.0807	2.5
132.1018	2.9
133.0317	4.0
133.0646	2.3
133.1009	1.8
134.0810	36.7
134.0963	3.2

Name: Biotin
PrecursorMZ: 245.09517
RT: 5.7156
ExactMass: 244.08816355
Spectrum_type: 2
charge: 1
Formula: C10H16N2O3S
SMILES: C1[C@H]2[C@@H]([C@@H](S1)CCCCC(=O)O)NC(=O)N2
Method: HCD
Collision_energy: [28.333334]
Isolation_window: 4.0
Ion_mode: P
Num Peaks: 31
72.0810	0.9
86.0966	4.9
87.0555	1.2
97.0397	2.8
100.0757	1.2
114.0912	1.3
123.0263	1.3
139.0573	1.0
141.1022	1.0
166.0683	2.5
166.0859	1.6
167.0524	3.2
184.0790	2.6
187.1073	0.9
198.1126	1.0
199.0896	2.7
209.0739	2.7
212.0915	1.6
226.1071	2.2
227.0844	100.0
227.1027	0.9
228.0881	9.9
229.0798	2.3
243.1334	1.1
243.1531	0.9
244.0967	1.8
244.1174	2.2
245.0949	15.8
246.0978	2.0
246.1121	1.5
247.1071	0.9

Name: Butyric Acid
PrecursorMZ: 89.05985
RT: 1.4679
ExactMass: 88.052429494
Spectrum_type: 2
charge: 1
Formula: C4H8O2
SMILES: CCCC(=O)O
Method: HCD
Collision_energy: [28.333334]
Isolation_window: 4.0
Ion_mode: P
Num Peaks: 22
55.0545	5.4
56.0498	100.0
58.0290	5.1
60.0446	3.6
69.4083	8.6
69.4125	6.5
69.4576	7.2
69.4712	6.6
69.5086	6.6
69.6049	6.9
69.7625	5.7
70.0653	44.4
71.0493	4.9
72.0446	6.6
72.0810	10.8
87.0917	24.9
88.0757	71.2
88.1121	6.9
89.0597	12.0
90.0550	13.4
91.0543	15.1
97.4573	6.1

Name: Carglumic Acid
PrecursorMZ: 191.06608
RT: 8.7934
ExactMass: 190.05897142
Spectrum_type: 2
charge: 1
Formula: C6H10N2O5
SMILES: C(CC(=O)O)[C@@H](C(=O)O)NC(=O)N
Method: HCD
Collision_energy: [28.333334]
Isolation_window: 4.0
Ion_mode: P
Num Peaks: 15
84.0446	55.8
102.0550	36.0
111.0553	7.4
116.0705	3.3
126.0912	5.3
130.0497	100.0
131.0531	4.9
141.0656	3.0
144.1016	3.0
148.0602	25.8
153.0656	9.0
190.0501	3.5
190.1072	2.5
192.0840	3.9
192.1378	3.9

Name: Carnosine
PrecursorMZ: 227.11372
RT: 10.0723
ExactMass: 226.10659032
Spectrum_type: 2
charge: 1
Formula: C9H14N4O3
SMILES: C1=C(NC=N1)C[C@@H](C(=O)O)NC(=O)CCN
Method: HCD
Collision_energy: [28.333334]
Isolation_window: 4.0
Ion_mode: P
Num Peaks: 34
69.0703	2.1
70.0654	0.9
79.0546	1.0
96.0446	0.7
96.0809	16.3
97.0649	0.8
97.0843	1.1
101.0598	1.1
108.0445	0.8
110.0714	13.2
113.1074	3.4
114.0914	14.4
115.0753	0.8
115.0948	0.7
122.0711	1.4
126.0550	1.9
152.0817	1.1
156.0767	9.5
157.0800	0.7
164.0819	2.6
180.0768	1.4
181.1083	2.8
182.0809	1.1
209.1646	21.4
210.0870	6.0
210.1680	2.2
226.1072	6.2
227.1132	4.0
227.1389	1.2
227.1751	100.0
228.0866	3.6
228.1238	1.7
228.1787	11.7
228.2318	0.9

Name: Carnosol
PrecursorMZ: 331.18989
RT: 1.3093
ExactMass: 330.18310931
Spectrum_type: 2
charge: 1
Formula: C20H26O4
SMILES: CC(C)C1=C(C(=C2C(=C1)[C@@H]3C[C@@H]4[C@@]2(CCCC4(C)C)C(=O)O3)O)O
Method: HCD
Collision_energy: [28.333334]
Isolation_window: 4.0
Ion_mode: P
Num Peaks: 78
56.0499	1.0
60.0448	10.0
67.0546	1.8
69.0339	1.4
69.0702	1.3
70.0655	0.6
72.0447	1.7
72.0811	0.6
74.0561	0.7
74.0604	100.0
74.0647	0.7
75.0637	3.8
79.0546	1.1
81.0701	2.3
83.0858	1.1
86.0602	1.0
86.0967	1.4
91.0545	1.5
93.0701	2.2
95.0857	2.4
97.1013	0.9
97.3987	0.7
105.0701	1.8
106.0778	0.6
107.0856	1.4
108.0936	0.7
109.1013	1.2
119.0856	2.0
121.0648	2.3
121.1012	1.7
130.0862	0.6
133.0649	0.7
133.1011	1.1
134.0727	3.0
135.1169	1.9
145.0647	3.6
147.0804	1.5
147.1167	1.1
148.0518	2.4
149.0598	2.2
159.0916	0.7
160.0518	3.6
161.0598	2.7
162.0675	4.3
171.0804	0.6
173.0963	0.6
227.1433	0.6
239.1430	0.6
246.1610	1.0
252.2682	1.7
257.1285	2.1
264.2679	0.7
270.2789	1.2
279.1749	0.9
281.1524	0.7
282.2790	2.5
285.1841	0.7
294.2786	1.8
295.2827	0.6
297.1846	3.6
298.1888	0.8
299.1390	1.2
300.2894	1.2
312.2893	3.8
313.1540	0.9
313.2931	0.6
314.1873	12.0
315.1909	2.6
329.2108	1.7
329.2875	1.3
330.2148	1.1
330.3000	28.1
331.1664	1.4
331.1899	22.6
331.2254	0.7
331.3033	6.0
332.1934	5.5
332.3064	0.8

Name: Castanospermine
PrecursorMZ: 190.10698
RT: 7.2701
ExactMass: 189.10010796
Spectrum_type: 2
charge: 1
Formula: C8H15NO4
SMILES: C1CN2C[C@@H]([C@H]([C@@H]([C@H]2[C@H]1O)O)O)O
Method: HCD
Collision_energy: [28.333334]
Isolation_window: 4.0
Ion_mode: P
Num Peaks: 26
58.0655	10.1
74.0602	8.8
87.0441	29.0
98.0600	31.8
104.0706	6.3
116.0704	100.0
117.0737	6.1
126.0910	45.4
130.0859	6.2
131.0447	9.9
133.0644	10.8
142.0859	47.2
143.0891	17.2
144.1015	29.2
165.0210	8.7
170.0808	10.3
188.0913	13.2
189.0653	10.9
189.0945	6.5
190.0497	11.7
190.0856	11.8
190.1067	28.2
191.0808	7.4
192.0648	14.7
192.1013	6.5
192.1378	18.1

Name: Cholest-4-en-3-one
PrecursorMZ: 385.34603
RT: 1.0199799999999999
ExactMass: 384.339216023
Spectrum_type: 2
charge: 1
Formula: C27H44O
SMILES: C[C@H](CCCC(C)C)[C@H]1CC[C@@H]2[C@@]1(CC[C@H]3[C@H]2CCC4=CC(=O)CC[C@]34C)C
Method: HCD
Collision_energy: [28.333334]
Isolation_window: 4.0
Ion_mode: P
Num Peaks: 96
57.0703	2.3
67.0546	1.1
69.0702	3.1
71.0858	2.5
79.0545	1.6
81.0701	6.3
83.0494	6.2
83.0858	4.1
85.1014	1.2
91.0542	0.6
93.0700	1.3
95.0857	6.8
96.0889	0.5
97.0649	72.7
97.0715	0.5
97.1013	2.5
97.4319	0.5
98.0682	3.8
105.0699	1.4
107.0856	2.3
109.0570	0.5
109.0648	73.8
109.0725	0.5
109.1012	4.6
110.0682	4.3
110.1046	0.5
111.1169	2.1
119.0855	1.7
121.0649	0.7
121.1011	2.4
123.0804	7.7
123.1167	2.7
124.0836	0.5
125.1323	0.6
131.0854	1.0
133.1010	1.9
135.1167	2.9
137.0959	1.0
137.1323	1.1
145.1011	2.1
147.1166	2.2
149.0960	0.5
149.1324	2.0
151.1116	0.6
151.1478	0.8
157.1010	0.5
159.1167	2.5
161.1323	1.8
163.1116	2.2
163.1481	1.2
165.1637	0.7
171.1167	0.8
173.1322	1.2
175.1480	1.1
177.1272	1.7
177.1635	0.8
179.1790	0.8
185.1320	1.1
187.1479	1.2
189.1634	0.6
191.1427	0.9
191.1791	0.6
193.1950	0.7
199.1478	1.3
201.1635	1.3
203.1430	0.7
205.1948	0.7
207.2100	0.6
213.1633	1.5
215.1789	1.1
217.1584	1.1
219.1741	0.5
219.2101	0.6
227.1791	1.2
231.1739	0.8
233.2258	0.6
241.1946	1.9
255.2102	2.3
259.2053	0.6
273.2205	0.5
299.2728	0.5
311.2730	0.6
315.3042	0.7
327.3043	0.5
367.3352	6.1
368.3386	1.9
384.3151	0.7
384.3446	0.8
385.2728	0.5
385.2938	0.5
385.3457	100.0
385.3855	0.4
385.3978	0.7
386.3492	26.7
386.3755	1.3
387.3522	1.3

Name: Cholic Acid
PrecursorMZ: 426.32091
RT: 4.9371
ExactMass: 408.28757437
Spectrum_type: 2
charge: 1
Formula: C24H40O5
SMILES: C[C@H](CCC(=O)O)[C@H]1CC[C@@H]2[C@@]1([C@H](C[C@H]3[C@H]2[C@@H](C[C@H]4[C@@]3(CC[C@H](C4)O)C)O)O)C
Method: HCD
Collision_energy: [28.333334]
Isolation_window: 4.0
Ion_mode: P
Num Peaks: 80
55.0545	1.2
67.0546	1.6
69.0702	1.8
79.0544	1.0
81.0701	4.4
83.0858	1.7
85.0650	1.9
93.0700	2.2
95.0857	4.6
97.0648	1.0
99.0442	1.5
101.0597	2.4
105.0699	2.4
107.0856	3.7
109.1012	2.6
119.0855	3.8
121.1011	2.8
123.0802	1.4
123.1168	1.4
131.0854	2.4
133.1011	3.6
135.1167	2.7
145.1011	4.1
147.1167	4.1
149.0959	1.3
149.1322	1.1
157.1011	1.4
159.1166	5.7
161.1323	2.4
167.1064	1.4
171.1166	1.8
173.1324	2.7
175.1478	1.3
183.1168	1.3
185.1322	2.4
187.1479	1.9
189.1635	1.1
193.1222	1.4
197.1321	1.2
199.1478	4.5
201.1634	1.7
207.1378	1.4
209.1321	3.2
211.1477	2.1
213.1634	6.7
214.1662	1.1
215.1795	1.2
221.1526	1.3
225.1636	1.3
227.1428	3.6
227.1790	3.4
237.1634	1.1
241.1946	2.4
245.1532	5.8
246.1564	1.1
247.1688	2.6
254.2024	1.0
255.2095	1.1
259.1689	2.5
261.1842	2.5
273.1842	2.2
313.2159	1.1
319.2416	4.2
337.2519	5.6
338.2548	1.6
355.2624	100.0
356.2658	24.6
357.2683	2.5
371.2570	1.1
373.2729	46.3
374.2763	11.8
375.2789	1.4
389.2667	1.5
391.2833	3.5
392.2867	1.3
425.2850	1.7
426.2854	1.7
426.3205	6.8
427.2834	1.5
427.3251	2.1

Name: Choline Alfoscerate
PrecursorMZ: 258.10978
RT: 9.433
ExactMass: 257.10282436
Spectrum_type: 2
charge: 1
Formula: C8H20NO6P
SMILES: C[N+](C)(C)CCOP(=O)([O-])OC[C@@H](CO)O
Method: HCD
Collision_energy: [28.333334]
Isolation_window: 4.0
Ion_mode: P
Num Peaks: 86
58.0653	0.4
60.0812	2.5
70.0654	1.4
71.0732	0.2
81.0338	0.3
84.0447	0.3
84.0810	0.7
86.0603	0.4
86.0966	6.4
87.0443	0.7
87.1000	0.3
95.0606	0.4
96.0445	0.5
97.0285	0.4
100.0758	0.7
101.0598	0.5
104.0729	0.3
104.0976	0.3
104.0998	0.7
104.1070	100.0
104.1140	0.7
104.1420	0.3
105.1041	0.4
105.1103	5.1
111.0443	0.3
111.0553	0.3
112.0868	0.3
114.0550	0.4
114.0914	0.7
116.0707	0.5
124.0394	0.4
124.9997	10.0
126.0031	0.3
126.0547	0.3
128.1069	0.4
129.1022	0.5
144.1017	0.3
146.0922	2.7
157.0967	0.3
160.0871	0.3
166.0860	0.8
171.1125	0.2
180.1018	0.3
182.0925	0.2
184.0730	8.0
185.0763	0.4
199.0362	0.4
199.0950	0.3
200.1025	1.0
211.0711	0.2
212.1027	0.3
213.0863	0.3
214.1071	0.4
222.1124	0.4
223.0709	0.3
239.1383	0.2
240.0862	0.3
240.0981	0.7
240.1226	1.0
241.1284	0.3
242.1130	2.4
242.1381	0.4
256.1175	0.9
256.1293	0.4
256.1536	0.3
256.1657	0.3
257.0761	0.2
257.1122	1.1
257.1244	0.9
257.1490	6.0
258.0825	0.4
258.0978	1.7
258.1094	24.7
258.1320	4.0
258.1447	2.5
258.1688	0.7
258.2171	0.8
259.1127	1.9
259.1280	1.7
259.1393	0.3
259.1643	1.5
260.1126	0.8
260.1237	13.1
260.1372	0.6
260.1487	3.1
260.1604	0.3

Name: Chrysin
PrecursorMZ: 255.06455
RT: 1.5002
ExactMass: 254.0579088
Spectrum_type: 2
charge: 1
Formula: C15H10O4
SMILES: C1=CC=C(C=C1)C2=CC(=O)C3=C(C=C(C=C3O2)O)O
Method: HCD
Collision_energy: [28.333334]
Isolation_window: 4.0
Ion_mode: P
Num Peaks: 61
69.6812	0.3
69.7396	0.3
70.0653	0.5
72.0810	0.5
81.0336	0.3
83.0605	0.5
84.0809	0.3
86.0965	0.6
89.0597	0.8
96.0444	0.4
98.0601	0.4
116.0704	0.4
124.0392	0.3
126.0910	0.4
133.0856	0.5
137.0229	2.2
138.0908	0.3
145.0281	0.4
152.0700	0.4
157.0644	0.3
164.1064	0.3
167.0811	0.3
194.0806	0.5
199.0747	3.4
200.0785	0.3
208.1327	0.3
209.1069	0.3
209.1277	0.3
210.1118	0.3
211.1434	0.9
227.0695	1.5
229.1327	0.5
235.1428	0.4
236.0909	0.3
237.0540	0.4
238.0699	0.3
239.1480	0.5
253.1536	0.5
253.1916	0.3
254.1015	0.8
254.1376	0.4
254.1493	0.7
254.1746	0.4
255.0284	0.3
255.0363	0.7
255.0427	0.4
255.0643	100.0
255.0864	0.6
255.0922	0.6
255.1111	0.7
255.1327	2.1
255.1686	0.3
255.2106	0.4
256.0677	16.3
256.0951	0.4
256.1175	0.5
256.1356	0.4
256.1529	0.4
257.0700	1.1
257.0906	0.3
257.1273	1.3

Name: Cinnamaldehyde
PrecursorMZ: 133.0648
RT: 1.266
ExactMass: 132.057514874
Spectrum_type: 2
charge: 1
Formula: C9H8O
SMILES: C1=CC=C(C=C1)/C=C/C=O
Method: HCD
Collision_energy: [28.333334]
Isolation_window: 4.0
Ion_mode: P
Num Peaks: 24
65.0390	2.5
66.0468	3.2
67.0546	0.5
79.0546	4.3
90.0466	1.6
91.0545	9.1
92.0578	0.7
93.0701	1.4
103.0544	1.8
105.0701	20.2
106.0734	1.7
107.0856	1.2
118.0414	36.5
119.0448	3.4
133.0542	0.7
133.0648	100.0
133.0728	0.5
133.0754	1.0
133.1012	1.2
134.0681	11.2
134.0964	2.9
135.0441	0.7
135.0803	1.5
135.1168	3.0

Name: Cirsimaritin
PrecursorMZ: 315.08577
RT: 1.33
ExactMass: 314.07903816
Spectrum_type: 2
charge: 1
Formula: C17H14O6
SMILES: COC1=C(C(=C2C(=C1)OC(=CC2=O)C3=CC=C(C=C3)O)O)OC
Method: HCD
Collision_energy: [28.333334]
Isolation_window: 4.0
Ion_mode: P
Num Peaks: 13
88.0758	2.8
156.1381	6.3
170.1535	2.6
254.0570	6.8
282.0516	26.3
283.0548	4.3
300.0620	13.3
301.0655	2.2
314.0412	2.3
315.0855	100.0
315.2276	2.6
316.0888	19.4
316.2835	2.4

Name: Citrulline
PrecursorMZ: 176.10292
RT: 9.9385
ExactMass: 175.09569129
Spectrum_type: 2
charge: 1
Formula: C6H13N3O3
SMILES: C(C[C@@H](C(=O)O)N)CNC(=O)N
Method: HCD
Collision_energy: [28.333334]
Isolation_window: 4.0
Ion_mode: P
Num Peaks: 97
55.0546	1.1
56.0498	1.9
58.0655	6.8
59.0495	1.1
60.0560	2.3
60.0812	0.8
69.5454	0.7
70.0136	0.6
70.0654	14.8
71.0495	2.5
71.0687	0.9
72.0811	1.7
74.0603	1.1
76.0760	8.0
82.0653	1.9
83.0494	3.0
84.0446	1.2
84.0810	2.1
86.0602	1.3
87.0441	0.6
88.0396	0.6
88.0759	0.9
94.0652	0.5
95.0855	0.7
96.0810	0.9
97.0649	0.6
98.0601	50.7
98.0710	1.0
99.0441	4.0
99.0635	2.5
100.0758	1.8
101.0598	19.1
102.0631	1.1
110.0965	0.5
112.0394	0.6
112.0757	6.3
112.0870	0.7
112.1121	8.2
113.0709	8.9
114.0550	2.6
114.0913	1.5
115.0866	5.6
116.0706	35.6
116.0817	2.5
117.0546	2.2
117.0739	1.9
118.0862	0.6
128.0706	1.0
128.1068	1.9
129.1021	0.7
130.0862	4.0
130.0973	2.1
130.1225	0.7
132.0654	1.2
134.0810	6.5
140.0705	1.3
140.0816	6.6
140.1068	30.0
141.0656	5.7
141.1101	2.6
142.0497	1.2
145.0281	0.8
156.0654	0.8
156.1017	1.9
157.0970	0.7
158.0812	5.4
158.0922	9.0
158.1174	12.8
159.0762	13.0
159.0956	0.8
159.1208	1.0
160.0797	0.9
160.0964	0.9
174.1123	5.4
174.1242	0.6
174.1487	3.0
175.0711	0.6
175.0866	0.7
175.1076	1.4
175.1167	0.9
176.0707	1.6
176.0828	0.9
176.0867	0.8
176.0919	8.1
176.1027	100.0
176.1198	1.3
176.1278	65.6
176.8750	11.6
177.0546	0.8
177.0656	1.2
177.1004	0.9
177.1070	5.0
177.1314	4.6
178.0719	1.8
178.0859	5.8
178.1070	3.7
178.1223	11.3

Name: Cortisol
PrecursorMZ: 363.21649
RT: 1.4028749999999999
ExactMass: 362.20932405
Spectrum_type: 2
charge: 1
Formula: C21H30O5
SMILES: C[C@]12CCC(=O)C=C1CC[C@@H]3[C@@H]2[C@H](C[C@]4([C@H]3CC[C@@]4(C(=O)CO)O)C)O
Method: HCD
Collision_energy: [28.333334]
Isolation_window: 4.0
Ion_mode: P
Num Peaks: 25
57.0703	7.9
69.0703	8.5
83.0495	4.1
85.0651	9.8
112.0758	3.9
172.1332	12.7
205.0860	3.9
259.1329	6.1
261.1487	4.0
277.1433	10.5
289.1436	11.1
304.1174	4.4
327.1590	4.3
327.1950	4.9
345.1706	5.9
345.2059	17.1
346.2099	4.9
347.1852	6.2
362.1961	6.6
362.2412	100.0
363.1804	9.3
363.2165	22.6
363.2445	20.1
364.2169	4.6
365.1960	5.5

Name: Cortisone
PrecursorMZ: 361.20078
RT: 1.2126
ExactMass: 360.19367399
Spectrum_type: 2
charge: 1
Formula: C21H28O5
SMILES: C[C@]12CCC(=O)C=C1CC[C@@H]3[C@@H]2C(=O)C[C@]4([C@H]3CC[C@@]4(C(=O)CO)O)C
Method: HCD
Collision_energy: [28.333334]
Isolation_window: 4.0
Ion_mode: P
Num Peaks: 24
57.0703	15.4
69.0703	10.0
85.0651	7.8
97.0650	5.1
217.1222	5.6
241.1220	5.3
247.1329	5.0
257.1171	6.2
259.1327	10.3
275.1273	10.0
277.1433	14.9
293.1382	5.9
325.1802	5.3
343.1901	22.2
344.1932	6.0
345.1701	9.1
345.2058	5.9
360.1859	5.1
361.2006	45.3
362.2036	9.7
362.2411	100.0
363.1794	12.6
363.2196	7.9
363.2444	13.7

Name: Creatine
PrecursorMZ: 132.07659
RT: 9.029026666666667
ExactMass: 131.069476538
Spectrum_type: 2
charge: 1
Formula: C4H9N3O2
SMILES: CN(CC(=O)O)C(=N)N
Method: HCD
Collision_energy: [28.333334]
Isolation_window: 4.0
Ion_mode: P
Num Peaks: 10
57.0701	9.4
58.0654	11.0
74.0965	11.4
88.1121	12.5
90.0550	95.5
130.1588	35.7
132.0764	51.0
132.1016	100.0
133.1048	11.2
134.0628	34.4

Name: Creatinine
PrecursorMZ: 114.06629
RT: 6.0814
ExactMass: 113.058911855
Spectrum_type: 2
charge: 1
Formula: C4H7N3O
SMILES: CN1CC(=O)N=C1N
Method: HCD
Collision_energy: [28.333334]
Isolation_window: 4.0
Ion_mode: P
Num Peaks: 26
68.0498	0.5
70.0654	1.3
72.0447	0.7
79.0544	0.3
86.0602	0.7
86.0714	3.3
95.0604	0.5
98.9842	0.8
104.0819	1.0
112.0506	0.3
112.9917	0.7
112.9998	100.0
113.0059	0.4
113.0082	0.6
113.0386	0.3
113.0456	0.3
113.0709	0.3
114.0031	1.2
114.0552	0.4
114.0661	39.7
114.0913	4.6
115.0039	0.7
115.0633	0.5
115.0694	1.6
115.0947	0.4
131.0100	0.5

Name: Curcumenol
PrecursorMZ: 235.16884
RT: 1.0913666666666666
ExactMass: 234.16197994
Spectrum_type: 2
charge: 1
Formula: C15H22O2
SMILES: C[C@H]1CC[C@@H]2[C@]13CC(=C(C)C)[C@](O3)(C=C2C)O
Method: HCD
Collision_energy: [28.333334]
Isolation_window: 4.0
Ion_mode: P
Num Peaks: 27
69.0701	24.2
70.0052	9.4
81.0700	13.7
93.0699	22.2
95.0855	15.3
105.0698	17.5
107.0855	17.7
109.1011	11.0
119.0853	36.4
121.1010	53.9
125.0958	12.4
133.1009	34.9
137.0955	10.2
147.1164	19.4
151.1115	10.0
159.1165	9.4
161.1321	10.4
175.1112	10.6
175.1477	23.4
189.1632	44.2
217.1581	15.8
233.1278	21.5
234.1315	21.6
234.1845	9.3
234.2210	15.4
235.1686	38.8
236.2002	100.0

Name: Cytidine
PrecursorMZ: 244.09247
RT: 7.314829166666667
ExactMass: 243.08552052
Spectrum_type: 2
charge: 1
Formula: C9H13N3O5
SMILES: C1=CN(C(=O)N=C1N)[C@H]2[C@@H]([C@@H]([C@H](O2)CO)O)O
Method: HCD
Collision_energy: [28.333334]
Isolation_window: 4.0
Ion_mode: P
Num Peaks: 86
69.0702	0.5
69.6249	0.4
69.6952	0.3
70.0654	0.3
71.0858	0.4
81.0450	0.7
83.0858	0.4
84.0810	2.6
86.0966	0.5
97.0285	0.3
97.1012	0.5
98.0601	0.4
99.0806	0.4
100.0758	2.3
100.1122	0.4
101.0598	0.9
109.0284	0.4
112.0127	0.3
112.0428	0.6
112.0505	100.0
112.0587	0.8
112.0755	0.5
113.0478	1.1
113.0538	4.2
126.0548	0.4
127.0501	1.7
129.1021	2.7
130.0861	1.5
137.0708	0.6
147.1125	1.0
149.0709	0.5
149.1072	0.8
153.0657	0.4
155.0813	4.3
163.0863	1.1
166.0862	0.4
167.0814	0.5
178.0971	0.4
179.0812	0.6
181.0969	0.4
184.0967	0.6
185.0917	0.8
186.1486	1.3
191.0811	1.1
197.0918	0.9
197.1281	1.0
198.1123	0.9
198.1232	0.4
200.1276	0.4
206.0920	0.4
209.0916	1.4
215.0809	0.5
224.1027	0.5
224.2007	0.4
225.1231	0.5
226.0685	1.3
226.1070	1.3
226.1799	0.5
227.1020	2.0
228.1022	0.3
242.1016	0.5
242.1133	0.9
242.1384	1.3
242.2110	22.0
242.2225	0.7
243.0759	0.9
243.0970	0.3
243.1158	0.3
243.1329	4.3
243.2145	5.5
244.0788	8.2
244.0942	0.3
244.0965	0.9
244.1177	3.2
244.1295	0.9
244.1902	0.4
244.2172	0.5
245.0811	0.7
245.0924	0.4
245.1125	10.2
245.1482	1.2
245.1853	1.7
246.1137	0.7
246.1170	0.5
246.1330	0.4
246.1694	1.3

Name: Cytosine
PrecursorMZ: 112.05069
RT: 6.6103000000000005
ExactMass: 111.043261792
Spectrum_type: 2
charge: 1
Formula: C4H5N3O
SMILES: C1=C(NC(=O)N=C1)N
Method: HCD
Collision_energy: [28.333334]
Isolation_window: 4.0
Ion_mode: P
Num Peaks: 12
69.0451	4.1
94.0401	0.8
95.0241	9.6
96.0273	0.4
111.0443	0.4
111.0554	0.6
112.0442	0.6
112.0506	100.0
113.0478	1.0
113.0538	3.8
113.1072	0.4
114.0914	0.6

Name: D-Alanine
PrecursorMZ: 90.0552
RT: 9.3747
ExactMass: 89.047678466
Spectrum_type: 2
charge: 1
Formula: C3H7NO2
SMILES: C[C@H](C(=O)O)N
Method: HCD
Collision_energy: [28.333334]
Isolation_window: 4.0
Ion_mode: P
Num Peaks: 12
57.0451	48.7
58.0291	18.0
58.0655	6.9
70.0654	8.6
72.0447	78.6
72.0811	12.7
88.0395	27.5
88.0759	9.9
89.0711	100.0
90.0551	35.8
90.0915	6.0
91.0543	33.4

Name: D-Alpha-aminobutyric acid
PrecursorMZ: 104.07076
RT: 8.893621428571429
ExactMass: 103.06332853
Spectrum_type: 2
charge: 1
Formula: C4H9NO2
SMILES: CC[C@H](C(=O)O)N
Method: HCD
Collision_energy: [28.333334]
Isolation_window: 4.0
Ion_mode: P
Num Peaks: 7
56.0499	42.3
58.0655	100.0
60.0811	20.6
86.0602	15.6
102.1277	39.3
104.0706	47.7
104.1070	73.6

Name: D-Cellobiose
PrecursorMZ: 365.10488
RT: 9.4275
ExactMass: 342.11621151
Spectrum_type: 2
charge: 1
Formula: C12H22O11
SMILES: C([C@@H]1[C@H]([C@@H]([C@H]([C@@H](O1)O[C@@H]2[C@H](O[C@H]([C@@H]([C@H]2O)O)O)CO)O)O)O)O
Method: HCD
Collision_energy: [28.333334]
Isolation_window: 4.0
Ion_mode: P
Num Peaks: 8
69.4930	2.5
69.5696	2.6
138.0547	3.9
203.0521	4.0
204.0864	3.0
305.0834	2.1
365.1046	100.0
366.1081	13.3

Name: D-Glucosamine
PrecursorMZ: 180.08655
RT: 9.0572
ExactMass: 179.07937252
Spectrum_type: 2
charge: 1
Formula: C6H13NO5
SMILES: C([C@@H]1[C@H]([C@@H]([C@H](C(O1)O)N)O)O)O
Method: HCD
Collision_energy: [28.333334]
Isolation_window: 4.0
Ion_mode: P
Num Peaks: 18
60.0812	7.3
78.9844	1.3
85.0287	1.8
96.9953	8.5
115.0058	0.9
119.0492	0.8
123.0441	1.5
127.0389	2.2
136.0756	4.9
145.0495	0.8
147.0440	1.3
163.0390	0.7
165.0545	2.6
180.0656	0.9
180.0882	0.8
180.1049	100.0
180.1215	0.9
181.1081	3.9

Name: D-Glutamic Acid
PrecursorMZ: 148.06039
RT: 8.4905
ExactMass: 147.05315777
Spectrum_type: 2
charge: 1
Formula: C5H9NO4
SMILES: C(CC(=O)O)[C@H](C(=O)O)N
Method: HCD
Collision_energy: [28.333334]
Isolation_window: 4.0
Ion_mode: P
Num Peaks: 11
84.0446	2.5
84.0810	3.4
88.0394	100.0
88.0758	16.7
89.0428	3.9
100.0757	4.5
102.0913	12.5
146.0810	2.3
148.0601	5.9
148.0966	9.1
149.0230	3.2

Name: D-Pyroglutamic acid
PrecursorMZ: 130.04969
RT: 5.5154
ExactMass: 129.042593085
Spectrum_type: 2
charge: 1
Formula: C5H7NO3
SMILES: C1CC(=O)N[C@H]1C(=O)O
Method: HCD
Collision_energy: [28.333334]
Isolation_window: 4.0
Ion_mode: P
Num Peaks: 17
56.0498	2.3
57.0337	2.7
57.0702	6.9
70.0653	1.8
71.0493	1.7
74.0966	9.4
83.0605	16.7
84.0444	100.0
85.0478	5.1
86.0601	3.3
128.1179	1.4
129.0654	5.5
130.0495	30.5
130.0647	2.6
130.1586	29.3
131.0525	1.9
131.1619	2.7

Name: DL-Carnitine
PrecursorMZ: 162.11234
RT: 4.1107
ExactMass: 161.10519334
Spectrum_type: 2
charge: 1
Formula: C7H15NO3
SMILES: C[N+](C)(C)CC(CC(=O)[O-])O
Method: HCD
Collision_energy: [28.333334]
Isolation_window: 4.0
Ion_mode: P
Num Peaks: 8
60.0813	16.4
85.0288	3.4
102.0916	5.2
103.0392	20.3
104.0427	0.8
162.1126	100.0
163.1161	7.3
166.1233	0.9

Name: DL-Glutamic acid
PrecursorMZ: 148.06034
RT: 8.5856
ExactMass: 147.05315777
Spectrum_type: 2
charge: 1
Formula: C5H9NO4
SMILES: C(CC(=O)O)C(C(=O)O)N
Method: HCD
Collision_energy: [28.333334]
Isolation_window: 4.0
Ion_mode: P
Num Peaks: 25
56.0498	1.9
57.0339	12.8
61.0110	12.6
62.9903	6.0
65.0059	36.3
69.6622	2.2
74.0062	31.1
75.0266	3.4
84.0446	90.9
84.0810	2.2
85.0286	7.3
85.0479	5.1
86.0365	2.9
102.0008	7.4
102.0550	26.0
120.0113	24.3
121.0318	18.7
130.0497	19.5
148.0425	19.1
148.0602	4.3
148.0966	4.6
149.0228	4.6
149.0267	100.0
149.0463	1.5
150.0302	2.7

Name: DL-Homoserine
PrecursorMZ: 120.06555
RT: 9.3556
ExactMass: 119.058243149
Spectrum_type: 2
charge: 1
Formula: C4H9NO3
SMILES: C(CO)C(C(=O)O)N
Method: HCD
Collision_energy: [28.333334]
Isolation_window: 4.0
Ion_mode: P
Num Peaks: 30
55.0547	3.5
56.0499	41.9
57.0339	2.5
57.0533	2.3
58.0656	12.3
59.0734	13.0
69.3511	1.9
70.0655	2.0
72.0811	55.5
73.0845	5.4
74.0604	100.0
75.0637	4.7
84.0447	3.6
91.0544	4.9
93.0701	8.8
95.0494	1.9
97.3999	1.8
101.0598	2.1
102.0551	25.3
103.0544	9.7
104.0708	3.0
118.0863	85.1
119.0897	7.9
120.0476	2.0
120.0558	3.3
120.0656	7.4
120.0808	42.0
121.0649	19.4
121.0841	2.5
122.0812	2.9

Name: DL-panthenol
PrecursorMZ: 206.13868
RT: 3.1972
ExactMass: 205.13140809
Spectrum_type: 2
charge: 1
Formula: C9H19NO4
SMILES: CC(C)(CO)C(C(=O)NCCCO)O
Method: HCD
Collision_energy: [28.333334]
Isolation_window: 4.0
Ion_mode: P
Num Peaks: 13
58.0656	12.2
74.0240	9.8
76.0761	85.4
89.0600	24.6
102.0552	19.5
107.0606	100.0
170.1178	12.1
188.1280	26.6
206.0246	14.3
206.0812	11.6
206.1288	47.0
206.1388	64.1
208.0970	12.2

Name: Daidzein
PrecursorMZ: 255.06474
RT: 2.6017
ExactMass: 254.0579088
Spectrum_type: 2
charge: 1
Formula: C15H10O4
SMILES: C1=CC(=CC=C1C2=COC3=C(C2=O)C=CC(=C3)O)O
Method: HCD
Collision_energy: [28.333334]
Isolation_window: 4.0
Ion_mode: P
Num Peaks: 6
255.0649	100.0
255.1125	8.9
256.0684	18.0
256.1168	5.1
256.2631	6.1
257.1279	7.7

Name: Daminozide
PrecursorMZ: 161.09207
RT: 5.9724
ExactMass: 160.08479225
Spectrum_type: 2
charge: 1
Formula: C6H12N2O3
SMILES: CN(C)NC(=O)CCC(=O)O
Method: HCD
Collision_energy: [28.333334]
Isolation_window: 4.0
Ion_mode: P
Num Peaks: 16
60.0812	22.3
90.0552	13.1
98.0965	6.4
101.0598	28.9
102.0550	5.7
131.0814	10.3
144.0653	7.4
159.1935	19.2
160.0754	9.0
160.0967	38.0
160.1330	100.0
161.0707	12.8
161.1364	9.9
162.0548	37.0
162.0756	6.6
162.0912	5.9

Name: Deoxyadenosine
PrecursorMZ: 252.10888
RT: 5.299433333333333
ExactMass: 251.10183929
Spectrum_type: 2
charge: 1
Formula: C10H13N5O3
SMILES: C1[C@@H]([C@H](O[C@H]1N2C=NC3=C(N=CN=C32)N)CO)O
Method: HCD
Collision_energy: [28.333334]
Isolation_window: 4.0
Ion_mode: P
Num Peaks: 174
57.0339	0.3
67.0546	0.8
69.0338	0.6
69.0702	0.4
69.3363	0.3
69.4843	0.3
69.4928	0.2
70.0655	0.7
71.0494	1.3
73.0287	1.3
79.0544	0.3
81.0337	0.9
81.0701	1.4
83.0494	0.4
83.0858	0.3
85.0285	0.2
85.0649	0.3
87.0442	0.2
91.0543	0.2
93.0700	0.6
95.0492	0.7
95.0605	0.2
95.0856	1.4
97.0285	0.2
97.0649	0.2
97.1013	0.2
97.4568	0.2
99.0441	3.4
100.0475	0.2
100.0757	0.3
101.0598	0.3
105.0699	0.4
107.0856	0.5
109.0649	0.3
109.1012	0.8
110.0600	0.2
110.0713	0.2
111.0440	0.2
111.0553	0.2
111.0804	0.2
112.0758	0.3
116.0705	0.3
117.0546	10.0
118.0579	0.6
119.0855	0.5
120.0808	0.3
121.0648	0.2
121.1011	0.6
122.0600	1.2
123.0804	0.3
123.1167	0.4
125.0595	0.4
125.0961	0.3
127.0499	0.3
130.0649	0.2
131.0855	0.3
133.1011	0.5
134.0599	0.2
135.0803	0.3
135.1168	0.4
136.0072	0.2
136.0102	0.3
136.0476	0.2
136.0507	0.6
136.0531	0.5
136.0616	100.0
136.0702	0.5
136.0725	0.6
136.0756	0.4
136.1135	0.3
137.0587	1.9
137.0649	5.1
137.0959	0.3
137.1321	0.2
138.0911	0.2
140.0703	0.4
144.0807	0.2
145.1011	0.3
146.0599	0.3
147.0803	0.2
147.1166	0.4
148.0755	0.2
149.0958	0.3
150.0548	0.3
150.0912	0.5
152.0258	0.2
152.0704	0.4
152.1069	0.4
153.0656	0.5
154.0051	0.2
158.0599	0.6
159.1167	0.2
162.0547	0.2
162.0912	0.5
163.1116	0.2
164.0704	0.5
166.0862	0.4
166.0971	0.4
173.1322	0.2
176.0703	0.3
178.0496	0.2
178.0859	0.5
180.1016	0.4
187.1476	0.2
188.0702	0.4
188.1068	0.2
190.0415	0.8
190.0859	0.3
190.1221	0.4
192.1016	0.7
193.0968	1.2
194.0443	0.3
194.0807	0.4
194.1173	0.2
205.0967	0.2
206.0808	0.5
206.1172	0.6
206.1284	0.4
207.1124	0.4
207.1487	0.5
208.0964	0.4
208.1330	0.3
210.1122	0.2
215.1791	0.3
218.0362	1.1
218.0807	0.3
221.1279	0.6
222.1120	1.7
224.0915	0.2
225.1229	0.5
232.0964	0.2
233.0819	0.3
233.0918	0.2
233.1281	0.4
233.1532	0.3
233.1903	0.2
234.0760	0.3
234.1120	0.6
234.1233	0.5
234.1479	0.3
235.0626	0.5
235.1068	0.9
235.1440	0.4
236.0469	1.0
236.0915	0.4
236.1278	0.3
250.1070	0.5
250.1432	0.6
250.1899	0.2
251.1022	1.2
251.1167	0.3
251.1382	3.1
251.1636	0.6
251.1752	0.7
251.2001	0.7
252.0872	0.9
252.1086	6.6
252.1224	5.2
252.1342	1.6
252.1585	1.7
252.1951	0.2
253.0734	5.8
253.1125	0.5
253.1173	1.8
253.1276	0.4
253.1535	1.8
253.1792	0.2
253.1924	0.2
254.0779	0.5
254.1017	12.3
254.1140	0.2
254.1379	2.2
254.1497	0.3
254.1744	0.3

Name: Deoxycholic Acid
PrecursorMZ: 785.59165
RT: 4.6093
ExactMass: 392.29265975
Spectrum_type: 2
charge: 1
Formula: C24H40O4
SMILES: C[C@H](CCC(=O)O)[C@H]1CC[C@@H]2[C@@]1([C@H](C[C@H]3[C@H]2CC[C@H]4[C@@]3(CC[C@H](C4)O)C)O)C
Method: HCD
Collision_energy: [28.333334]
Isolation_window: 4.0
Ion_mode: P
Num Peaks: 154
55.0545	0.2
67.0546	0.9
69.0701	0.4
69.3690	0.2
69.3750	0.2
79.0543	0.5
81.0701	4.2
82.0731	0.2
83.0857	1.0
85.0650	0.4
91.0541	0.3
93.0699	1.4
95.0856	3.6
96.0889	0.2
97.0648	0.3
97.1011	0.2
97.4322	0.2
99.0441	0.6
101.0598	0.7
105.0698	1.0
107.0855	2.9
109.1012	3.2
115.0751	0.4
119.0854	1.5
121.1011	3.2
122.1044	0.2
123.0802	0.3
123.1168	1.0
127.0751	0.3
131.0852	0.3
133.1010	2.3
135.0803	0.2
135.1166	5.8
136.1200	0.5
137.0960	0.4
137.1323	0.4
139.0753	0.2
141.0909	0.5
145.1009	0.6
147.1166	3.7
148.1198	0.4
149.0959	0.7
149.1323	4.9
150.1356	0.3
151.1115	0.6
153.0908	0.9
155.1065	0.4
159.1167	1.0
161.1323	4.5
162.1357	0.3
163.1116	0.4
163.1480	3.1
164.1512	0.5
165.1269	0.3
167.1064	2.0
169.1221	0.3
171.1164	0.2
173.1323	0.6
175.1114	0.3
175.1479	3.9
176.1512	0.5
177.1271	1.0
177.1635	1.2
179.1064	0.3
181.1220	2.5
182.1254	0.2
185.1321	0.4
187.1479	1.2
189.1270	0.4
189.1634	3.0
190.1667	0.3
191.1425	0.3
191.1784	0.2
193.1220	1.1
195.1377	4.8
196.1410	0.4
197.1319	0.3
199.1478	0.3
201.1635	2.7
202.1668	0.3
203.1428	0.6
203.1790	2.5
204.1825	0.3
205.1585	0.2
207.1375	1.8
209.1533	1.1
211.1477	1.3
212.1512	0.2
213.1632	0.3
215.1429	0.2
215.1790	6.8
216.1824	1.0
217.1582	0.2
217.1946	0.9
219.1739	0.5
221.1532	5.2
222.1563	0.5
223.1689	0.6
225.1633	0.9
227.1787	0.3
229.1583	0.8
229.1946	3.3
230.1981	0.5
233.1530	0.5
235.1688	2.1
236.1721	0.3
237.1846	0.2
239.1787	0.4
241.1947	0.4
243.1739	0.7
243.2102	4.1
244.2135	0.6
247.1688	4.9
248.1720	0.6
249.1844	1.4
257.1894	0.3
257.2259	0.5
261.1844	3.2
262.1878	0.4
263.2001	1.1
265.1944	0.3
273.1845	0.2
275.2000	3.4
276.2032	0.6
283.2048	0.2
287.1997	0.5
289.2158	0.4
297.2205	0.2
297.2571	0.6
301.2155	1.3
302.2198	0.3
311.2727	0.4
315.2306	0.3
321.2570	4.9
322.2602	1.0
339.2675	10.1
340.2708	1.9
357.0600	0.2
357.2181	0.2
357.2319	0.7
357.2411	0.5
357.2780	100.0
357.3148	0.6
357.3240	0.7
357.3369	0.2
358.2814	21.9
359.2848	0.4
375.2886	10.2
376.2919	2.6
393.2994	0.5
767.5815	0.5
768.5832	0.3
785.5908	1.4
786.5951	0.7

Name: Deoxyguanosine
PrecursorMZ: 268.10377
RT: 6.832852380952381
ExactMass: 267.09675391
Spectrum_type: 2
charge: 1
Formula: C10H13N5O4
SMILES: C1[C@@H]([C@H](O[C@H]1N2C=NC3=C2N=C(NC3=O)N)CO)O
Method: HCD
Collision_energy: [28.333334]
Isolation_window: 4.0
Ion_mode: P
Num Peaks: 31
100.0757	3.3
101.0597	3.3
126.0662	3.3
133.0759	10.1
136.0616	100.0
137.0456	12.2
137.0586	2.6
137.0650	5.6
140.0338	3.2
149.0707	2.9
151.0865	9.1
152.0565	67.3
153.0600	2.9
167.0813	5.8
169.0969	15.3
222.1122	2.6
231.0431	4.4
249.0532	8.6
250.0704	6.2
250.1066	3.6
266.1008	3.5
266.1226	3.4
267.0639	39.2
267.0967	16.0
268.0668	4.6
268.0809	21.1
268.1035	20.8
268.1175	6.3
269.1127	10.7
270.0963	17.1
270.1194	4.3

Name: Deoxyinosine
PrecursorMZ: 253.09255
RT: 6.0204
ExactMass: 252.08585488
Spectrum_type: 2
charge: 1
Formula: C10H12N4O4
SMILES: C1[C@@H]([C@H](O[C@H]1N2C=NC3=C2N=CNC3=O)CO)O
Method: HCD
Collision_energy: [28.333334]
Isolation_window: 4.0
Ion_mode: P
Num Peaks: 146
67.0545	0.7
69.0337	3.4
69.2272	1.3
69.2296	0.8
69.8510	0.7
69.9412	0.6
70.0654	1.5
70.2492	0.6
71.0494	1.3
72.0810	0.8
81.0336	1.4
81.0700	0.9
82.0652	0.7
83.0493	0.6
84.0809	3.6
85.0285	0.8
86.0602	0.6
87.0441	1.1
94.0651	0.8
95.0490	0.7
95.0855	0.7
97.0284	0.8
98.0600	0.9
99.0440	3.4
101.0597	1.0
105.0698	0.9
110.0600	1.0
110.0711	0.6
111.0440	0.7
116.0704	0.9
120.0555	2.2
121.0645	0.7
122.0598	1.2
124.0755	4.3
126.0549	0.5
126.0661	1.7
134.0597	1.0
134.0961	1.2
135.0802	0.6
136.0615	2.4
136.0754	2.9
137.0455	100.0
137.0595	0.5
138.0426	1.2
138.0488	4.7
138.0546	1.4
140.0339	2.6
140.0703	0.6
145.0757	1.9
146.0597	1.3
148.0388	1.1
148.0753	1.2
148.1119	0.9
150.0546	1.9
150.0910	0.7
151.0498	0.9
152.0702	1.1
154.0495	2.9
160.1118	2.9
161.0707	0.9
162.0546	2.7
162.0660	0.6
162.0910	4.0
163.0626	0.7
163.0863	1.3
164.0702	1.0
166.0857	0.7
172.0752	0.5
175.0863	0.9
176.0702	2.6
178.0494	9.5
178.0859	0.7
179.0525	0.9
182.0806	0.8
188.0702	0.9
189.1017	1.3
190.0858	1.5
191.0810	0.6
191.1174	0.7
192.0649	1.0
192.1017	0.7
193.0966	4.2
194.0807	2.3
195.1123	0.9
200.0698	0.8
205.0968	0.7
206.0807	4.6
206.0917	0.9
206.1171	1.0
207.1121	1.9
208.0824	1.3
208.0962	1.6
208.1072	1.1
208.1327	4.7
209.1277	1.0
217.0965	1.7
218.0806	2.2
219.1122	1.2
221.1278	0.6
223.0597	1.1
223.1070	0.9
233.0915	0.8
234.0757	1.4
234.1118	1.4
235.0816	0.7
235.1069	3.5
236.0369	1.5
236.0909	4.4
236.1023	6.7
236.1274	1.4
237.0858	0.9
237.1059	0.8
237.1225	1.8
238.0819	1.3
238.1178	2.3
251.1017	1.6
251.1135	1.3
251.1379	1.6
251.1744	1.1
251.2110	0.6
252.0141	1.2
252.0861	6.8
252.0974	1.6
252.1075	1.9
252.1221	6.8
252.1339	1.9
252.1585	2.7
253.0924	45.3
253.1171	10.6
253.1287	3.5
253.1536	8.8
253.1913	0.6
254.0473	1.0
254.1017	47.1
254.1140	2.3
254.1231	2.9
254.1376	4.2
254.1503	1.3
254.1582	1.4
254.1724	0.7
255.0960	1.3
255.1060	3.2
255.1114	0.8
255.1329	6.4
255.1699	0.8
255.1847	1.0

Name: Desthiobiotin
PrecursorMZ: 215.13884
RT: 5.4004
ExactMass: 214.13174244
Spectrum_type: 2
charge: 1
Formula: C10H18N2O3
SMILES: C[C@H]1[C@H](NC(=O)N1)CCCCCC(=O)O
Method: HCD
Collision_energy: [28.333334]
Isolation_window: 4.0
Ion_mode: P
Num Peaks: 29
69.6607	6.6
70.0654	15.8
72.0447	18.4
72.0811	55.2
73.0651	10.3
81.0337	6.4
97.0285	7.9
100.0757	15.4
101.0597	6.3
116.0706	100.0
117.0739	6.2
126.0912	17.0
141.0545	14.5
142.0861	6.7
144.1017	12.0
156.1016	4.7
170.1173	17.5
187.1436	5.5
196.0962	5.9
198.1121	5.5
213.1121	5.1
213.1230	18.3
214.0858	12.3
214.1068	9.4
215.1014	5.7
215.1385	47.4
216.1226	10.8
216.1425	6.7
217.0969	6.5

Name: Diethanolamine
PrecursorMZ: 106.08639
RT: 11.4689
ExactMass: 105.078978594
Spectrum_type: 2
charge: 1
Formula: C4H11NO2
SMILES: C(CO)NCCO
Method: HCD
Collision_energy: [28.333334]
Isolation_window: 4.0
Ion_mode: P
Num Peaks: 4
70.0654	69.5
88.0759	100.0
104.1070	26.7
106.0863	69.2

Name: Dihydroactinidiolide, (+-)-
PrecursorMZ: 181.12201
RT: 1.1677
ExactMass: 180.115029749
Spectrum_type: 2
charge: 1
Formula: C11H16O2
SMILES: CC1(CCCC2(C1=CC(=O)O2)C)C
Method: HCD
Collision_energy: [28.333334]
Isolation_window: 4.0
Ion_mode: P
Num Peaks: 30
57.0702	17.2
59.0495	2.1
81.0700	2.8
83.0493	18.5
91.0543	30.2
93.0700	2.7
95.0492	8.4
97.0648	8.9
107.0855	3.9
120.0807	7.7
121.1010	8.2
123.0802	3.1
125.0595	65.4
126.0628	5.2
135.1164	3.1
145.1008	7.3
150.0546	6.0
162.0909	2.9
163.1114	94.7
164.1067	2.8
164.1147	10.3
180.0804	100.0
180.1014	6.3
181.0837	13.5
181.0960	2.8
181.1219	40.5
182.0805	3.5
182.1171	5.8
182.1253	4.5
183.0801	2.8

Name: Dihydrouracil
PrecursorMZ: 115.0504
RT: 3.0317
ExactMass: 114.042927438
Spectrum_type: 2
charge: 1
Formula: C4H6N2O2
SMILES: C1CNC(=O)NC1=O
Method: HCD
Collision_energy: [28.333334]
Isolation_window: 4.0
Ion_mode: P
Num Peaks: 14
55.0183	11.4
56.0499	5.1
69.0704	6.2
70.0656	5.1
72.0448	38.3
72.0812	7.1
79.0546	6.5
86.0603	5.6
96.0810	7.1
113.1075	12.2
114.0915	100.0
114.8933	11.3
115.0504	26.8
115.0948	6.8

Name: Dimethyl Phthalate
PrecursorMZ: 195.06504
RT: 1.0229
ExactMass: 194.0579088
Spectrum_type: 2
charge: 1
Formula: C10H10O4
SMILES: COC(=O)C1=CC=CC=C1C(=O)OC
Method: HCD
Collision_energy: [28.333334]
Isolation_window: 4.0
Ion_mode: P
Num Peaks: 12
81.0701	5.5
95.0856	5.2
109.1012	3.8
117.0334	5.8
123.1167	2.9
135.1166	2.6
145.0282	54.8
146.0316	4.8
149.0594	7.1
163.0388	4.5
177.0543	100.0
178.0576	10.3

Name: Estragole
PrecursorMZ: 149.09605
RT: 1.1565
ExactMass: 148.088815002
Spectrum_type: 2
charge: 1
Formula: C10H12O
SMILES: COC1=CC=C(C=C1)CC=C
Method: HCD
Collision_energy: [28.333334]
Isolation_window: 4.0
Ion_mode: P
Num Peaks: 11
69.1195	8.9
79.0545	6.4
91.0544	5.2
93.0700	22.3
105.0699	15.3
121.1011	23.5
123.0804	6.0
149.0959	100.0
150.0912	6.1
150.0992	11.2
151.0753	7.9

Name: Ethopabate
PrecursorMZ: 238.10731
RT: 1.4056
ExactMass: 237.10010796
Spectrum_type: 2
charge: 1
Formula: C12H15NO4
SMILES: CCOC1=C(C=CC(=C1)NC(=O)C)C(=O)OC
Method: HCD
Collision_energy: [28.333334]
Isolation_window: 4.0
Ion_mode: P
Num Peaks: 94
67.0546	0.7
69.0701	1.1
70.0654	1.9
81.0701	1.3
83.0493	0.6
83.0856	0.4
87.0442	0.6
89.0598	0.7
93.0700	0.6
95.0856	2.0
97.0647	0.7
97.1012	1.1
100.0757	0.5
101.0597	0.6
107.0491	0.5
107.0855	0.8
108.0443	2.3
109.1012	1.1
110.0599	0.5
116.0705	4.7
119.0854	0.7
120.0807	3.3
121.1009	1.0
122.0597	1.2
123.0803	0.6
124.0756	1.1
125.0595	0.7
125.0958	0.8
126.0548	1.8
133.1008	0.6
135.0801	0.5
136.0754	0.5
139.0863	0.9
140.0704	0.5
148.0755	0.5
150.0547	3.3
151.0865	0.6
152.0703	0.5
159.1166	0.5
161.1324	0.5
162.0545	0.7
164.0703	0.5
166.0859	0.9
174.0910	0.6
175.0861	0.5
175.1228	0.5
177.1271	0.5
178.0858	1.4
192.0831	0.6
192.0873	0.5
192.1014	100.0
192.1159	0.5
192.1197	0.7
193.0970	0.8
193.1048	11.0
193.1331	0.7
193.1580	0.9
194.0811	0.5
194.1170	0.8
202.0857	1.0
203.0812	0.7
208.0962	0.5
219.0758	0.5
219.1123	1.3
219.1375	0.7
220.0963	33.2
220.1062	1.2
220.1323	0.5
221.0909	0.9
221.1001	4.0
221.1278	3.2
221.1529	1.0
221.1643	1.0
222.1120	0.8
236.0913	1.3
236.1274	0.6
237.0848	1.1
237.0951	0.6
237.1222	3.0
237.1480	1.2
237.1599	0.5
237.1840	0.7
238.1068	44.5
238.1173	2.3
238.1426	5.0
239.1013	1.1
239.1110	4.8
239.1377	4.6
239.1635	1.3
239.1755	1.2
240.0863	1.3
240.1224	6.5
240.1331	0.5
240.1585	3.5

Name: Ferulic Acid
PrecursorMZ: 195.06513
RT: 8.0326
ExactMass: 194.0579088
Spectrum_type: 2
charge: 1
Formula: C10H10O4
SMILES: COC1=C(C=CC(=C1)/C=C/C(=O)O)O
Method: HCD
Collision_energy: [28.333334]
Isolation_window: 4.0
Ion_mode: P
Num Peaks: 31
70.0655	1.2
73.0288	1.8
91.0545	2.5
93.0338	3.2
105.0007	6.4
111.0442	6.1
119.0492	4.1
124.0393	1.3
125.0598	20.8
126.0632	1.3
133.1013	1.6
149.0598	2.0
150.0550	3.2
151.0755	4.0
152.0709	1.6
153.0547	100.0
154.0500	1.2
154.0580	8.0
166.0863	1.3
168.0656	2.2
178.0498	5.4
194.0447	3.1
194.0811	4.0
194.1176	3.3
195.0652	8.0
195.0762	1.7
195.1126	1.3
196.0604	8.3
196.0968	5.6
196.1332	1.4
197.0808	2.3

Name: Flucytosine
PrecursorMZ: 130.04112
RT: 5.596766666666667
Spectrum_type: 2
charge: 1
SMILES: C1=NC(=O)NC(=C1F)N
Method: HCD
Collision_energy: [28.333334]
Isolation_window: 4.0
Ion_mode: P
Num Peaks: 15
57.0703	1.9
74.0968	2.1
84.0447	0.7
87.0356	1.9
113.0147	5.0
129.1387	0.5
130.0311	0.7
130.0411	100.0
130.0490	0.6
130.0513	0.7
130.0651	1.3
130.1590	8.5
131.0382	1.1
131.0444	4.8
131.1623	0.8

Name: Gaboxadol
PrecursorMZ: 141.06579
RT: 8.7509
ExactMass: 140.058577502
Spectrum_type: 2
charge: 1
Formula: C6H8N2O2
SMILES: C1CNCC2=C1C(=O)NO2
Method: HCD
Collision_energy: [28.333334]
Isolation_window: 4.0
Ion_mode: P
Num Peaks: 22
79.0545	1.5
81.0450	4.0
95.0606	14.5
96.0446	1.7
96.0683	4.5
96.0810	1.7
97.0762	22.0
112.0870	1.5
123.0553	18.7
124.0584	1.6
124.0757	3.7
125.0597	1.6
140.0342	1.4
140.0706	8.1
140.0818	3.5
140.1069	3.7
141.0658	100.0
141.1385	1.9
142.0691	7.3
142.0861	4.6
142.1226	4.7
143.0814	23.6

Name: Gamma-Aminobutyric Acid
PrecursorMZ: 104.07074
RT: 8.1287
ExactMass: 103.06332853
Spectrum_type: 2
charge: 1
Formula: C4H9NO2
SMILES: C(CC(=O)O)CN
Method: HCD
Collision_energy: [28.333334]
Isolation_window: 4.0
Ion_mode: P
Num Peaks: 8
56.0499	27.1
58.0655	61.7
60.0812	27.6
79.0544	18.7
102.1278	33.9
103.0543	19.7
104.1070	100.0
105.0699	50.1

Name: Gentiopicroside
PrecursorMZ: 357.11916
RT: 4.6149
ExactMass: 356.11073221
Spectrum_type: 2
charge: 1
Formula: C16H20O9
SMILES: C=C[C@H]1[C@@H](OC=C2C1=CCOC2=O)O[C@H]3[C@@H]([C@H]([C@@H]([C@H](O3)CO)O)O)O
Method: HCD
Collision_energy: [28.333334]
Isolation_window: 4.0
Ion_mode: P
Num Peaks: 23
83.0859	2.5
86.0967	10.1
116.0707	2.8
126.0913	8.6
132.1019	8.0
195.0647	2.8
197.1282	3.1
213.0754	1.9
217.0720	1.6
226.0971	4.1
254.0922	14.4
255.0954	1.5
311.1135	100.0
312.1169	14.1
338.1960	1.5
356.1697	4.4
357.0834	1.5
357.1190	59.6
357.1416	2.3
357.1661	1.9
357.1816	1.5
357.2786	3.1
358.1227	11.2

Name: Glycine
PrecursorMZ: 76.03965
RT: 9.4357
ExactMass: 75.032028402
Spectrum_type: 2
charge: 1
Formula: C2H5NO2
SMILES: C(C(=O)O)N
Method: HCD
Collision_energy: [28.333334]
Isolation_window: 4.0
Ion_mode: P
Num Peaks: 5
56.0498	53.9
74.0604	47.1
74.0967	100.0
75.0555	37.8
76.0396	28.4

Name: Glycocholic Acid
PrecursorMZ: 504.27181
RT: 4.9906
ExactMass: 465.30903809
Spectrum_type: 2
charge: 1
Formula: C26H43NO6
SMILES: C[C@H](CCC(=O)NCC(=O)O)[C@H]1CC[C@@H]2[C@@]1([C@H](C[C@H]3[C@H]2[C@@H](C[C@H]4[C@@]3(CC[C@H](C4)O)C)O)O)C
Method: HCD
Collision_energy: [28.333334]
Isolation_window: 4.0
Ion_mode: P
Num Peaks: 19
56.0290	1.8
56.0306	5.3
56.1421	1.4
81.0702	0.7
84.0810	1.3
87.0443	1.1
89.0599	4.9
126.0913	0.9
133.0859	2.2
166.0863	1.1
177.1121	0.9
345.1437	1.6
346.1510	1.6
471.2363	0.7
503.2056	0.8
504.1929	0.8
504.2720	100.0
505.2757	26.3
506.2737	5.7

Name: Glycyl-L-leucine
PrecursorMZ: 189.12328
RT: 5.9968
ExactMass: 188.11609238
Spectrum_type: 2
charge: 1
Formula: C8H16N2O3
SMILES: CC(C)C[C@@H](C(=O)O)NC(=O)CN
Method: HCD
Collision_energy: [28.333334]
Isolation_window: 4.0
Ion_mode: P
Num Peaks: 17
69.6687	6.8
72.0810	8.0
75.0556	8.9
86.0966	100.0
97.4569	5.9
116.0706	7.5
128.0706	6.1
132.1017	68.6
133.1051	6.2
143.1176	65.2
165.0216	7.0
170.0807	6.7
188.0918	10.7
189.1234	6.1
190.0856	12.8
190.1069	11.2
191.0813	18.4

Name: Glycyl-L-proline
PrecursorMZ: 173.09208
RT: 9.073485714285715
ExactMass: 172.08479225
Spectrum_type: 2
charge: 1
Formula: C7H12N2O3
SMILES: C1C[C@H](N(C1)C(=O)CN)C(=O)O
Method: HCD
Collision_energy: [28.333334]
Isolation_window: 4.0
Ion_mode: P
Num Peaks: 87
56.0499	1.2
57.0451	0.9
58.0655	3.3
60.0560	1.3
67.0545	0.7
68.0498	3.0
69.0702	0.8
69.8838	0.6
70.0654	3.9
72.0447	1.2
72.0811	1.7
73.0763	0.7
74.0716	16.6
74.0967	0.8
82.0653	1.2
83.0494	0.8
84.0446	3.5
84.0810	5.8
85.0762	0.9
86.0602	2.4
86.0966	1.4
88.0394	0.6
88.0760	0.6
98.0601	0.9
98.9843	2.3
99.0441	1.8
100.0757	1.6
101.0597	2.6
102.0550	1.6
109.0761	1.0
109.1012	1.0
110.0601	1.9
110.0964	0.7
111.0553	1.3
112.0757	3.2
114.0549	2.9
114.0913	1.7
115.0754	1.3
116.0706	3.7
124.0867	0.8
126.0549	0.5
126.0912	2.6
127.0865	59.1
128.0705	3.7
128.0817	5.0
128.0896	3.7
128.1068	2.7
129.0656	0.7
129.1021	1.5
130.0497	2.7
130.0861	1.0
131.0811	0.7
137.0707	2.0
138.0911	0.9
146.0598	1.2
146.0922	1.1
154.0862	1.5
154.0974	1.0
154.1223	0.9
155.0813	3.6
156.0653	3.5
156.1017	2.5
156.1382	0.9
157.0604	0.7
171.1126	2.2
171.1490	4.2
172.0969	3.2
172.1078	27.7
172.1329	4.8
172.1526	0.6
173.0762	0.6
173.0798	0.6
173.0918	100.0
173.1042	0.7
173.1078	0.6
173.1114	2.3
173.1282	2.6
173.1646	2.3
174.0547	1.0
174.0764	1.6
174.0871	28.8
174.0952	7.0
174.1121	11.4
174.1234	4.0
174.1485	6.2
175.0906	0.9
175.1074	1.2

Name: Guanidinosuccinic acid
PrecursorMZ: 176.06638
RT: 8.8726
ExactMass: 175.05930578
Spectrum_type: 2
charge: 1
Formula: C5H9N3O4
SMILES: C([C@@H](C(=O)O)N=C(N)N)C(=O)O
Method: HCD
Collision_energy: [28.333334]
Isolation_window: 4.0
Ion_mode: P
Num Peaks: 19
60.0559	11.3
88.0394	43.9
112.0505	8.4
116.0341	9.1
130.0609	8.6
131.0449	13.5
134.0446	26.5
158.0559	10.5
174.1121	25.5
174.1485	20.6
176.0661	67.9
176.0912	12.5
176.1066	33.6
176.1276	10.1
176.8749	18.5
177.1021	7.9
177.1383	100.0
178.0859	28.8
178.1232	8.0

Name: Guanosine
PrecursorMZ: 284.09864
RT: 7.53645652173913
ExactMass: 283.09166853
Spectrum_type: 2
charge: 1
Formula: C10H13N5O5
SMILES: C1=NC2=C(N1[C@H]3[C@@H]([C@@H]([C@H](O3)CO)O)O)N=C(NC2=O)N
Method: HCD
Collision_energy: [28.333334]
Isolation_window: 4.0
Ion_mode: P
Num Peaks: 5
152.0565	100.0
153.0536	1.8
153.0599	5.1
284.1123	2.5
286.1260	1.9

Name: Harman
PrecursorMZ: 183.09139
RT: 1.9194
ExactMass: 182.084398327
Spectrum_type: 2
charge: 1
Formula: C12H10N2
SMILES: CC1=NC=CC2=C1NC3=CC=CC=C23
Method: HCD
Collision_energy: [28.333334]
Isolation_window: 4.0
Ion_mode: P
Num Peaks: 33
83.0856	2.7
91.0543	22.2
96.0808	3.0
110.0600	7.1
122.0963	2.7
124.0755	100.0
125.0788	5.6
126.0911	13.7
128.0452	3.2
136.0754	28.0
138.0910	15.1
148.0390	2.7
150.0548	4.3
152.0704	4.6
154.0246	2.9
164.0703	37.9
164.1067	3.1
165.1018	6.0
166.0497	9.9
166.0859	42.5
167.0893	4.5
170.0795	7.9
182.0813	4.4
182.1172	6.4
183.0801	24.9
183.0913	74.7
183.1123	27.1
184.0600	2.8
184.0839	4.0
184.0956	26.2
184.1147	3.1
185.1029	6.5
185.1279	4.2

Name: Hinokitiol
PrecursorMZ: 165.09093
RT: 1.0894499999999998
ExactMass: 164.083729621
Spectrum_type: 2
charge: 1
Formula: C10H12O2
SMILES: CC(C)C1=CC(=O)C(=CC=C1)O
Method: HCD
Collision_energy: [28.333334]
Isolation_window: 4.0
Ion_mode: P
Num Peaks: 21
67.0546	3.9
81.0701	2.8
93.0700	1.6
95.0492	2.8
95.0857	2.6
107.0855	2.7
109.0648	1.3
109.1012	8.2
119.0855	4.7
121.0647	0.9
121.1011	1.4
122.0725	2.1
137.0959	25.4
138.0992	2.4
147.1166	1.2
163.1116	2.6
163.1478	1.6
165.0908	100.0
165.1271	4.8
166.0940	10.5
167.0700	2.3

Name: Homocitrulline
PrecursorMZ: 190.11845
RT: 9.352
ExactMass: 189.11134135
Spectrum_type: 2
charge: 1
Formula: C7H15N3O3
SMILES: C(CCNC(=O)N)C[C@@H](C(=O)O)N
Method: HCD
Collision_energy: [28.333334]
Isolation_window: 4.0
Ion_mode: P
Num Peaks: 41
60.0811	5.1
69.0702	6.0
70.0290	5.8
84.0447	12.4
84.0810	55.4
95.0605	100.0
96.0445	36.2
98.0601	5.2
100.0758	9.0
101.0709	7.9
109.1012	13.9
116.0707	5.5
119.9750	18.9
126.0911	5.8
127.0865	85.9
128.0705	12.2
129.1021	9.1
130.0498	20.8
130.0861	9.5
144.1017	7.8
144.1129	5.1
154.1225	9.1
165.0211	5.1
165.9805	9.8
172.0714	23.0
172.0964	6.2
172.1329	13.9
173.0918	69.3
174.0951	5.4
179.9596	10.0
188.1279	14.3
189.1016	5.2
189.1231	20.6
190.0972	57.3
190.1068	11.1
190.1189	10.6
190.1434	30.5
191.1010	6.6
191.1174	9.6
192.0862	5.3
192.1015	71.7

Name: Homocysteic acid
PrecursorMZ: 184.02721
RT: 8.8544
ExactMass: 183.02014356
Spectrum_type: 2
charge: 1
Formula: C4H9NO5S
SMILES: C(CS(=O)(=O)O)C(C(=O)O)N
Method: HCD
Collision_energy: [28.333334]
Isolation_window: 4.0
Ion_mode: P
Num Peaks: 24
56.0499	65.2
91.0544	100.0
92.0577	14.3
96.0445	6.3
124.0756	11.2
135.9996	9.9
136.0756	10.7
136.9963	30.3
138.0218	75.0
138.0548	8.9
155.0068	18.9
160.0119	9.5
166.0497	6.7
166.0861	6.4
178.0226	8.6
182.0806	7.8
182.1016	18.0
182.1171	17.6
183.0764	5.5
184.0272	29.0
184.0601	12.0
184.0969	6.7
184.1075	10.8
185.0917	6.3

Name: Hypoxanthine
PrecursorMZ: 137.04574
RT: 5.8985
ExactMass: 136.03851076
Spectrum_type: 2
charge: 1
Formula: C5H4N4O
SMILES: C1=NC2=C(N1)C(=O)NC=N2
Method: HCD
Collision_energy: [28.333334]
Isolation_window: 4.0
Ion_mode: P
Num Peaks: 31
82.0401	0.1
94.0401	1.6
110.0349	2.4
110.0600	0.1
112.0506	0.3
119.0352	2.0
120.0386	0.1
121.1012	0.2
128.0453	0.2
136.0504	0.2
136.0617	0.5
136.0756	0.3
136.1118	0.1
136.9943	0.3
136.9962	0.1
137.0284	0.1
137.0314	0.1
137.0346	0.6
137.0370	0.4
137.0456	100.0
137.0544	0.6
137.0566	0.7
137.0598	0.3
137.0704	0.1
137.0949	0.1
137.0980	0.2
138.0427	1.4
138.0489	5.3
138.0547	0.9
138.0911	0.2
138.1275	0.9

Name: Imazamox
PrecursorMZ: 306.14448
RT: 4.7534
ExactMass: 305.1375561
Spectrum_type: 2
charge: 1
Formula: C15H19N3O4
SMILES: CC(C)C1(C(=O)NC(=N1)C2=C(C=C(C=N2)COC)C(=O)O)C
Method: HCD
Collision_energy: [28.333334]
Isolation_window: 4.0
Ion_mode: P
Num Peaks: 22
72.0810	7.3
114.0914	32.4
130.0498	11.0
130.0650	27.3
132.0806	27.1
138.0912	10.0
144.0807	10.9
159.0915	100.0
160.0949	10.4
164.0705	34.7
170.0599	15.2
182.0808	9.3
187.1438	6.8
258.1117	7.9
287.1021	12.1
287.1385	7.0
289.1177	54.3
290.1216	8.9
305.1487	17.2
307.1299	10.8
307.1631	11.3
308.1112	7.7

Name: Indole-2-carboxylic acid
PrecursorMZ: 162.05496
RT: 1.4839
ExactMass: 161.047678466
Spectrum_type: 2
charge: 1
Formula: C9H7NO2
SMILES: C1=CC=C2C(=C1)C=C(N2)C(=O)O
Method: HCD
Collision_energy: [28.333334]
Isolation_window: 4.0
Ion_mode: P
Num Peaks: 21
72.0811	0.5
101.0599	0.6
136.0756	3.5
160.0758	0.8
160.1334	1.4
160.9014	8.5
161.0709	1.2
161.1074	1.9
162.0409	0.7
162.0549	100.0
162.0660	0.9
162.0690	0.7
162.0910	1.1
162.1121	0.5
162.8995	1.2
163.0506	1.4
163.0581	9.6
163.0865	1.5
163.1230	0.7
164.0706	6.5
164.1069	1.0

Name: Indole-3-Carboxylic Acid
PrecursorMZ: 162.05495
RT: 5.3245
ExactMass: 161.047678466
Spectrum_type: 2
charge: 1
Formula: C9H7NO2
SMILES: C1=CC=C2C(=C1)C(=CN2)C(=O)O
Method: HCD
Collision_energy: [28.333334]
Isolation_window: 4.0
Ion_mode: P
Num Peaks: 9
105.0335	1.4
136.0754	4.1
161.0958	1.1
162.0547	100.0
162.0657	1.1
163.0510	0.7
163.0580	9.9
163.0745	0.8
164.0703	2.9

Name: Indole-3-lactic acid
PrecursorMZ: 206.08101
RT: 1.3117
ExactMass: 205.07389321
Spectrum_type: 2
charge: 1
Formula: C11H11NO3
SMILES: C1=CC=C2C(=C1)C(=CN2)CC(C(=O)O)O
Method: HCD
Collision_energy: [28.333334]
Isolation_window: 4.0
Ion_mode: P
Num Peaks: 5
89.0599	1.8
146.0598	1.9
174.0548	100.0
175.0581	10.0
206.0808	8.9

Name: Indole-3-pyruvic acid
PrecursorMZ: 204.06503
RT: 1.5072
ExactMass: 203.058243149
Spectrum_type: 2
charge: 1
Formula: C11H9NO3
SMILES: C1=CC=C2C(=C1)C(=CN2)CC(=O)C(=O)O
Method: HCD
Collision_energy: [28.333334]
Isolation_window: 4.0
Ion_mode: P
Num Peaks: 9
86.0965	3.4
102.0911	3.4
186.0542	47.3
187.0577	4.9
203.0808	3.9
204.0647	100.0
205.0683	11.8
205.0960	3.9
206.0808	3.7

Name: Inosine
PrecursorMZ: 269.08773
RT: 6.742413636363636
ExactMass: 268.0807695
Spectrum_type: 2
charge: 1
Formula: C10H12N4O5
SMILES: C1=NC2=C(C(=O)N1)N=CN2[C@H]3[C@@H]([C@@H]([C@H](O3)CO)O)O
Method: HCD
Collision_energy: [28.333334]
Isolation_window: 4.0
Ion_mode: P
Num Peaks: 12
97.0284	0.9
136.0616	100.0
137.0456	37.4
137.0588	1.5
137.0649	5.1
138.0489	1.2
179.0813	1.8
212.0915	1.1
252.0860	1.2
268.1036	15.0
269.1131	6.9
270.0965	9.1

Name: Irbesartan
PrecursorMZ: 429.23961
RT: 0.9886
ExactMass: 428.23245954
Spectrum_type: 2
charge: 1
Formula: C25H28N6O
SMILES: CCCCC1=NC2(CCCC2)C(=O)N1CC3=CC=C(C=C3)C4=CC=CC=C4C5=NNN=N5
Method: HCD
Collision_energy: [28.333334]
Isolation_window: 4.0
Ion_mode: P
Num Peaks: 79
55.0545	1.4
57.0703	12.8
67.0546	1.8
69.0702	4.7
69.6081	1.6
71.0858	15.5
73.0470	4.2
81.0701	6.3
83.0857	4.6
85.1014	8.2
91.0575	14.3
95.0856	7.8
97.1012	4.1
109.1012	4.4
111.1169	2.0
121.1010	1.5
123.1167	2.7
133.1009	1.4
135.0800	1.5
135.1165	2.0
137.0959	2.4
137.1323	1.6
139.0750	1.5
149.0447	1.4
149.0959	9.6
151.0751	3.6
159.1168	2.1
163.1115	18.8
164.0704	4.8
164.0830	2.5
165.0908	100.0
166.0940	10.1
167.0553	5.4
167.0700	7.5
173.1322	2.4
175.1115	5.2
177.0906	10.5
177.1269	2.3
179.1064	1.9
187.1113	2.7
189.1271	2.5
191.1063	10.2
201.1268	3.0
205.1219	12.4
206.1251	1.4
215.1426	2.4
219.1375	6.7
233.1530	3.1
247.1687	1.5
275.1994	2.0
289.2157	1.5
303.2305	1.7
342.9957	1.5
344.9755	1.5
359.0277	10.3
360.0278	2.9
411.3608	1.8
427.4112	3.4
428.3303	8.0
428.3882	6.9
428.4234	13.2
429.0876	5.9
429.2391	18.1
429.2740	2.0
429.3090	2.8
429.3370	1.5
429.3712	70.9
429.4273	4.3
430.0888	2.1
430.2427	5.5
430.3127	2.0
430.3450	11.1
430.3753	27.3
430.4042	1.9
430.4388	9.9
431.1780	4.1
431.2903	1.5
431.3546	9.1
431.3803	2.6

Name: Isocaproic acid
PrecursorMZ: 117.09094
RT: 1.3029
ExactMass: 116.083729621
Spectrum_type: 2
charge: 1
Formula: C6H12O2
SMILES: CC(C)CCC(=O)O
Method: HCD
Collision_energy: [28.333334]
Isolation_window: 4.0
Ion_mode: P
Num Peaks: 14
57.0702	12.8
58.0654	13.8
59.0495	19.9
59.0733	14.5
60.0447	44.4
69.2315	11.2
69.8778	5.9
69.9023	6.0
72.0445	5.8
97.4565	7.1
116.1068	39.2
118.0320	31.3
118.0649	7.1
118.0861	100.0

Name: Isoeugenol
PrecursorMZ: 165.09085
RT: 1.0927
ExactMass: 164.083729621
Spectrum_type: 2
charge: 1
Formula: C10H12O2
SMILES: C/C=C/C1=CC(=C(C=C1)O)OC
Method: HCD
Collision_energy: [28.333334]
Isolation_window: 4.0
Ion_mode: P
Num Peaks: 19
67.0546	3.0
81.0701	1.4
95.0856	0.9
107.0854	0.8
109.1012	6.9
119.0855	3.6
121.1012	0.7
122.0724	1.7
137.0959	22.7
138.0992	2.1
163.1116	0.8
164.1432	0.6
165.0908	100.0
165.1020	0.6
165.1267	0.7
166.0941	10.2
166.1224	0.8
167.0700	0.9
167.1542	1.8

Name: Isomaltose
PrecursorMZ: 365.10477
RT: 9.0625
ExactMass: 342.11621151
Spectrum_type: 2
charge: 1
Formula: C12H22O11
SMILES: C([C@@H]1[C@H]([C@@H]([C@H]([C@H](O1)OC[C@@H]2[C@H]([C@@H]([C@H](C(O2)O)O)O)O)O)O)O)O
Method: HCD
Collision_energy: [28.333334]
Isolation_window: 4.0
Ion_mode: P
Num Peaks: 6
185.0417	22.9
203.0522	51.5
204.0556	3.1
245.0501	7.4
365.1046	100.0
366.1081	13.6

Name: Isonicotinic Acid
PrecursorMZ: 124.03947
RT: 4.6051
ExactMass: 123.032028402
Spectrum_type: 2
charge: 1
Formula: C6H5NO2
SMILES: C1=CN=CC=C1C(=O)O
Method: HCD
Collision_energy: [28.333334]
Isolation_window: 4.0
Ion_mode: P
Num Peaks: 14
80.0499	3.0
81.0702	2.8
96.0446	6.8
97.0763	3.9
107.0606	54.1
107.0731	10.6
112.0395	28.7
122.0966	12.1
123.0554	18.9
124.0394	100.0
124.0758	5.1
125.0428	7.0
125.0710	17.3
140.0343	28.2

Name: Isoquinoline
PrecursorMZ: 130.06512
RT: 1.32564
ExactMass: 129.057849228
Spectrum_type: 2
charge: 1
Formula: C9H7N
SMILES: C1=CC=C2C=NC=CC2=C1
Method: HCD
Collision_energy: [28.333334]
Isolation_window: 4.0
Ion_mode: P
Num Peaks: 4
116.9719	6.4
130.0650	100.0
130.1589	6.9
131.0684	11.2

Name: Kynurenic Acid
PrecursorMZ: 190.04987
RT: 3.1889
ExactMass: 189.042593085
Spectrum_type: 2
charge: 1
Formula: C10H7NO3
SMILES: C1=CC=C2C(=C1)C(=O)C=C(N2)C(=O)O
Method: HCD
Collision_energy: [28.333334]
Isolation_window: 4.0
Ion_mode: P
Num Peaks: 5
145.0396	12.2
162.0548	79.6
163.0581	6.1
190.0497	100.0
191.0448	49.5

Name: L-Alanine
PrecursorMZ: 90.05523
RT: 9.1027
ExactMass: 89.047678466
Spectrum_type: 2
charge: 1
Formula: C3H7NO2
SMILES: C[C@@H](C(=O)O)N
Method: HCD
Collision_energy: [28.333334]
Isolation_window: 4.0
Ion_mode: P
Num Peaks: 6
65.0390	13.0
70.0655	28.6
72.0812	17.0
88.0760	55.1
90.0552	100.0
91.0545	70.9

Name: L-Alanyl-L-leucine
PrecursorMZ: 203.13889
RT: 5.372
ExactMass: 202.13174244
Spectrum_type: 2
charge: 1
Formula: C9H18N2O3
SMILES: C[C@@H](C(=O)N[C@@H](CC(C)C)C(=O)O)N
Method: HCD
Collision_energy: [28.333334]
Isolation_window: 4.0
Ion_mode: P
Num Peaks: 15
86.0966	100.0
98.0965	13.4
100.1121	22.0
126.0913	8.6
132.1017	95.3
144.1018	12.2
157.1334	29.8
202.1071	9.0
202.1796	16.7
203.0808	11.2
203.1382	11.1
204.0654	9.5
204.1019	9.3
204.1229	10.0
205.0967	48.8

Name: L-Glutamic Acid
PrecursorMZ: 148.06037
RT: 8.4481
ExactMass: 147.05315777
Spectrum_type: 2
charge: 1
Formula: C5H9NO4
SMILES: C(CC(=O)O)[C@@H](C(=O)O)N
Method: HCD
Collision_energy: [28.333334]
Isolation_window: 4.0
Ion_mode: P
Num Peaks: 6
70.0290	1.5
88.0395	100.0
88.0759	2.9
89.0428	4.4
148.0602	6.7
148.0965	1.6

Name: L-Glutamine
PrecursorMZ: 147.07634
RT: 9.1945
ExactMass: 146.06914219
Spectrum_type: 2
charge: 1
Formula: C5H10N2O3
SMILES: C(CC(=O)N)[C@@H](C(=O)O)N
Method: HCD
Collision_energy: [28.333334]
Isolation_window: 4.0
Ion_mode: P
Num Peaks: 46
55.0546	9.7
59.0495	2.9
60.0560	6.4
60.0811	6.2
65.0059	1.6
69.0339	1.6
70.0653	1.3
71.0494	1.1
74.0062	17.1
83.0494	5.0
84.0446	100.0
84.0810	15.2
85.0479	5.0
85.0650	2.2
86.0602	18.5
87.0442	26.0
87.0635	1.1
88.0395	1.9
88.0475	1.5
100.0757	2.4
101.0597	23.4
101.0710	4.1
102.0009	4.7
102.0550	13.0
102.0631	1.3
104.0706	6.3
111.0552	3.1
120.0113	14.1
123.9642	2.1
128.0817	4.3
128.1068	10.3
129.0656	1.1
130.0497	55.6
130.0860	4.7
131.0530	4.0
146.0598	1.1
146.0922	28.4
146.1173	15.2
147.0551	0.9
147.0761	2.7
147.0956	1.6
147.1207	1.3
148.0425	12.9
148.0606	1.8
148.0966	3.4
149.0270	5.3

Name: L-Isoleucine
PrecursorMZ: 132.10186
RT: 7.2767
ExactMass: 131.094628657
Spectrum_type: 2
charge: 1
Formula: C6H13NO2
SMILES: CC[C@H](C)[C@@H](C(=O)O)N
Method: HCD
Collision_energy: [28.333334]
Isolation_window: 4.0
Ion_mode: P
Num Peaks: 43
57.0703	14.9
58.0736	1.8
60.0448	6.0
61.0401	1.6
61.0526	4.4
69.0338	9.8
69.0702	6.6
70.0655	2.5
71.0494	3.3
72.0811	73.8
74.0240	7.4
74.0967	17.6
75.1000	1.5
76.0396	1.7
84.0446	17.3
84.0810	16.1
85.0286	2.8
85.0399	39.2
85.0479	3.1
85.0844	1.8
86.0602	1.8
86.0966	100.0
87.0443	3.4
87.1000	6.8
88.0395	5.2
88.0759	2.3
90.0551	3.4
97.4570	1.6
103.0542	7.5
105.0368	1.7
115.0503	3.1
116.0706	3.8
130.0497	3.1
130.0650	4.6
130.0861	4.4
130.1589	60.2
131.0450	9.2
131.0683	1.5
131.1621	12.1
132.1017	2.8
133.0758	1.1
134.0597	2.6
134.0810	71.3

Name: L-Methionine
PrecursorMZ: 150.05833
RT: 7.5536
ExactMass: 149.05104977
Spectrum_type: 2
charge: 1
Formula: C5H11NO2S
SMILES: CSCC[C@@H](C(=O)O)N
Method: HCD
Collision_energy: [28.333334]
Isolation_window: 4.0
Ion_mode: P
Num Peaks: 6
56.0499	81.1
104.0529	100.0
133.0316	73.8
149.0228	94.4
152.0567	88.8
152.0702	78.5

Name: L-Proline
PrecursorMZ: 116.07072
RT: 8.3702
ExactMass: 115.06332853
Spectrum_type: 2
charge: 1
Formula: C5H9NO2
SMILES: C1C[C@H](NC1)C(=O)O
Method: HCD
Collision_energy: [28.333334]
Isolation_window: 4.0
Ion_mode: P
Num Peaks: 26
56.0499	0.2
58.0655	4.5
59.0733	3.6
69.0451	0.3
70.0465	0.5
70.0616	0.7
70.0654	100.0
70.0692	0.8
70.0706	0.3
70.0852	0.3
71.0617	0.9
71.0688	4.6
72.0811	18.3
74.9378	0.4
76.0396	0.6
86.0602	0.2
101.0598	0.4
114.0913	1.9
115.0500	0.2
115.0945	0.4
115.1229	0.3
116.0706	23.3
116.1069	0.3
117.0657	0.8
117.0739	1.5
118.0862	36.2

Name: L-Pyroglutamic Acid
PrecursorMZ: 130.04992
RT: 5.9571
ExactMass: 129.042593085
Spectrum_type: 2
charge: 1
Formula: C5H7NO3
SMILES: C1CC(=O)N[C@@H]1C(=O)O
Method: HCD
Collision_energy: [28.333334]
Isolation_window: 4.0
Ion_mode: P
Num Peaks: 6
57.0704	17.4
74.0968	26.4
84.0448	14.1
130.0498	2.7
130.1591	100.0
131.1624	9.7

Name: L-Serine
PrecursorMZ: 106.04999
RT: 9.5011
ExactMass: 105.042593085
Spectrum_type: 2
charge: 1
Formula: C3H7NO3
SMILES: C([C@@H](C(=O)O)N)O
Method: HCD
Collision_energy: [28.333334]
Isolation_window: 4.0
Ion_mode: P
Num Peaks: 13
60.0448	100.0
60.0812	1.3
61.0481	2.8
69.0337	1.4
70.0291	1.9
79.0545	1.2
86.0602	1.1
87.0442	3.6
88.0395	15.8
104.1070	3.2
105.0700	1.1
106.0499	3.7
107.0492	14.3

Name: L-Tryptophan
PrecursorMZ: 205.09701
RT: 7.3255
ExactMass: 204.08987763
Spectrum_type: 2
charge: 1
Formula: C11H12N2O2
SMILES: C1=CC=C2C(=C1)C(=CN2)C[C@@H](C(=O)O)N
Method: HCD
Collision_energy: [28.333334]
Isolation_window: 4.0
Ion_mode: P
Num Peaks: 127
60.0448	3.0
61.0288	1.4
69.0338	0.6
70.0655	0.6
72.0447	0.5
72.0811	1.2
74.0239	0.9
80.0497	0.6
81.0337	1.2
83.0494	0.6
84.0446	10.1
84.0811	0.6
85.0286	0.5
85.0651	0.7
86.0602	0.5
88.0395	1.0
90.0551	1.7
91.0544	0.6
95.0605	0.9
96.0445	3.3
97.0285	1.8
98.0601	4.9
98.0965	4.1
99.0441	0.9
100.0757	0.7
101.0710	4.3
102.0550	1.1
108.0443	0.6
109.0284	2.1
111.0441	0.6
112.0504	0.6
112.0757	1.2
113.0791	1.1
114.0550	1.1
115.0503	0.7
116.0706	0.8
116.1070	1.1
118.0651	6.5
118.0862	1.8
120.0807	0.8
123.0440	0.6
124.0756	0.6
126.0548	25.0
126.0911	0.8
126.1275	0.6
127.0388	1.9
127.0582	1.9
128.0704	0.7
130.0650	1.1
132.0806	5.2
134.0963	10.8
135.0995	0.8
136.0756	1.6
138.0547	55.5
139.0580	4.0
140.0704	0.6
140.1068	4.9
142.0651	0.8
142.0861	1.4
144.0653	18.7
144.0806	11.5
144.1017	6.6
145.0494	1.0
145.0685	0.9
145.0839	1.1
145.1007	0.7
145.1055	0.5
146.0479	0.5
146.0599	65.0
147.0632	6.0
147.1167	0.7
148.1118	1.6
156.1018	0.6
157.1052	1.9
158.0813	0.9
158.0963	6.6
158.1174	22.9
159.0915	8.6
159.1120	1.0
159.1212	1.6
160.0754	1.8
160.0954	0.9
160.1330	1.2
162.0759	0.8
162.0911	1.7
164.0704	0.6
168.0653	7.3
169.0688	0.8
170.0597	3.5
170.0807	0.6
176.0704	0.9
176.1068	27.1
177.1100	2.9
185.0917	1.5
186.0582	1.3
186.0757	3.5
186.1122	5.1
186.1485	0.6
187.0710	1.8
187.1159	0.6
187.1476	0.5
188.0526	0.6
188.0703	100.0
188.0911	2.0
189.0736	11.5
190.0760	0.6
203.1026	0.6
204.0653	2.6
204.0763	0.6
204.0871	4.7
204.1015	35.7
204.1222	5.9
204.1591	1.0
205.0815	8.1
205.0967	2.8
205.1051	4.5
205.1585	0.6
206.0244	0.7
206.0444	3.9
206.0808	12.4
206.0915	0.7
206.1008	2.2
206.1170	4.0
206.1377	0.8
207.0759	1.1
207.0846	0.7
207.1123	1.6

Name: L-Tyrosine
PrecursorMZ: 182.08106
RT: 8.0408
ExactMass: 181.07389321
Spectrum_type: 2
charge: 1
Formula: C9H11NO3
SMILES: C1=CC(=CC=C1C[C@@H](C(=O)O)N)O
Method: HCD
Collision_energy: [28.333334]
Isolation_window: 4.0
Ion_mode: P
Num Peaks: 105
60.0811	1.4
67.0546	0.4
69.0338	0.6
70.0372	0.4
70.0529	0.5
70.0655	0.4
80.0498	1.3
81.0338	0.3
82.0653	0.5
83.0495	0.4
84.0447	0.5
85.0287	0.4
87.0442	36.3
88.0476	1.5
91.0544	21.2
92.0577	1.6
93.0702	0.3
94.0652	0.5
95.0493	0.5
96.0445	41.3
96.9952	1.9
97.0478	1.7
100.0758	0.7
101.0598	0.7
108.0444	0.9
108.0808	0.7
110.0601	1.5
112.0757	1.4
119.0491	9.3
119.0856	0.4
120.0525	0.7
121.0648	0.5
122.0600	3.5
123.0440	17.1
123.0678	1.0
123.0804	0.7
124.0392	6.7
124.0471	1.1
124.0755	0.3
125.0425	0.5
125.0597	0.4
126.0548	0.6
134.0963	0.6
135.0438	0.4
135.0804	0.4
135.0916	0.4
136.0755	51.4
137.0595	0.4
137.0709	1.2
137.0788	4.9
137.0835	0.4
138.0548	2.1
138.0912	1.4
138.1023	1.2
139.0865	0.4
140.0341	0.6
140.0704	2.6
147.0438	9.4
148.0472	0.7
152.0705	0.5
153.0544	0.9
154.0498	3.1
154.0861	1.4
163.0387	0.4
163.0864	1.6
164.0704	7.7
165.0545	24.1
165.0657	1.4
165.0738	0.6
165.1022	0.6
166.0499	0.8
166.0577	2.4
166.0864	0.5
180.0654	1.9
180.0806	3.9
180.1016	7.1
180.1048	10.8
180.1381	1.0
181.0494	0.4
181.0694	0.3
181.0841	1.3
181.0969	3.8
181.1051	1.4
181.1084	1.4
181.1333	0.6
182.0446	2.7
182.0681	0.5
182.0738	0.5
182.0809	100.0
182.0905	0.8
182.0940	0.9
182.0983	0.7
182.1013	1.0
182.1172	4.2
182.1899	0.8
183.0763	2.0
183.0841	9.3
183.0912	0.5
183.1123	1.8
183.1208	0.6
184.0424	0.5
184.0601	21.2
184.0866	0.4
184.0965	2.6
184.1076	7.9

Name: L-leucyl-L-leucine
PrecursorMZ: 245.18566
RT: 2.7046
ExactMass: 244.17869263
Spectrum_type: 2
charge: 1
Formula: C12H24N2O3
SMILES: CC(C)C[C@@H](C(=O)N[C@@H](CC(C)C)C(=O)O)N
Method: HCD
Collision_energy: [28.333334]
Isolation_window: 4.0
Ion_mode: P
Num Peaks: 8
86.0966	100.0
87.0999	5.6
132.1017	5.2
199.1802	2.9
226.1796	2.9
244.2630	28.1
245.1855	5.9
245.2665	4.5

Name: Lactulose
PrecursorMZ: 381.07922
RT: 9.077063636363636
ExactMass: 342.11621151
Spectrum_type: 2
charge: 1
Formula: C12H22O11
SMILES: C([C@@H]1[C@@H]([C@@H]([C@H]([C@@H](O1)O[C@@H]2[C@H](O[C@@]([C@H]2O)(CO)O)CO)O)O)O)O
Method: HCD
Collision_energy: [28.333334]
Isolation_window: 4.0
Ion_mode: P
Num Peaks: 23
70.0656	1.2
84.0812	2.2
141.0659	1.2
201.0161	1.2
219.0267	1.0
379.1888	1.1
379.2189	1.4
380.0939	1.2
380.1220	2.7
380.1691	1.1
380.1906	0.9
380.2164	1.0
381.0794	100.0
381.1204	0.8
381.1625	3.7
381.1682	1.8
381.1806	1.6
381.2033	1.7
382.0828	12.2
382.1700	2.8
382.1991	0.9
383.0777	5.7
383.1791	1.6

Name: Laurocapram
PrecursorMZ: 282.27877
RT: 0.99308
ExactMass: 281.27186474
Spectrum_type: 2
charge: 1
Formula: C18H35NO
SMILES: CCCCCCCCCCCCN1CCCCCC1=O
Method: HCD
Collision_energy: [28.333334]
Isolation_window: 4.0
Ion_mode: P
Num Peaks: 2
282.2785	100.0
283.2819	17.9

Name: Loperamide
PrecursorMZ: 477.23039
RT: 2.7056
ExactMass: 476.223056
Spectrum_type: 2
charge: 1
Formula: C29H33ClN2O2
SMILES: CN(C)C(=O)C(CCN1CCC(CC1)(C2=CC=C(C=C2)Cl)O)(C3=CC=CC=C3)C4=CC=CC=C4
Method: HCD
Collision_energy: [28.333334]
Isolation_window: 4.0
Ion_mode: P
Num Peaks: 4
53.0244	1.5
53.0259	5.1
477.2300	100.0
478.2335	20.0

Name: Lumichrome
PrecursorMZ: 243.08743
RT: 2.2427384615384613
ExactMass: 242.08037557
Spectrum_type: 2
charge: 1
Formula: C12H10N4O2
SMILES: CC1=CC2=C(C=C1C)N=C3C(=N2)C(=O)NC(=O)N3
Method: HCD
Collision_energy: [28.333334]
Isolation_window: 4.0
Ion_mode: P
Num Peaks: 5
172.0868	10.0
216.0767	13.5
242.2474	4.3
243.0874	100.0
244.0912	11.8

Name: Maltotriose-Technical
PrecursorMZ: 543.13224
RT: 5.8783
ExactMass: 504.16903493
Spectrum_type: 2
charge: 1
Formula: C18H32O16
SMILES: C([C@@H]1[C@H]([C@@H]([C@H]([C@H](O1)O[C@@H]2[C@H](O[C@@H]([C@@H]([C@H]2O)O)O[C@@H]3[C@H](OC([C@@H]([C@H]3O)O)O)CO)CO)O)O)O)O
Method: HCD
Collision_energy: [28.333334]
Isolation_window: 4.0
Ion_mode: P
Num Peaks: 5
60.3491	5.4
542.1443	7.6
543.1328	100.0
544.1356	22.9
545.1379	17.0

Name: Medrysone
PrecursorMZ: 345.24217
RT: 1.3285
ExactMass: 344.23514488
Spectrum_type: 2
charge: 1
Formula: C22H32O3
SMILES: C[C@H]1C[C@H]2[C@@H]3CC[C@@H]([C@]3(C[C@@H]([C@@H]2[C@@]4(C1=CC(=O)CC4)C)O)C)C(=O)C
Method: HCD
Collision_energy: [28.333334]
Isolation_window: 4.0
Ion_mode: P
Num Peaks: 23
93.0702	31.4
95.0858	34.4
105.0701	24.8
107.0857	33.6
111.0805	23.2
119.0856	29.7
121.1013	63.1
133.1013	28.6
139.9147	27.2
145.1012	41.3
159.1169	32.0
161.1326	23.8
173.1324	35.3
185.1322	23.0
213.1635	20.9
269.1281	31.0
315.1338	22.8
327.2317	60.7
345.2418	100.0
346.2455	27.9
347.1616	43.1
347.1830	71.0
347.2585	42.3

Name: Melamine
PrecursorMZ: 127.07274
RT: 6.272216666666667
ExactMass: 126.06539422
Spectrum_type: 2
charge: 1
Formula: C3H6N6
SMILES: C1(=NC(=NC(=N1)N)N)N
Method: HCD
Collision_energy: [28.333334]
Isolation_window: 4.0
Ion_mode: P
Num Peaks: 13
60.0561	0.9
82.0655	0.8
85.0512	15.5
100.0758	0.8
126.0550	0.7
126.0914	0.8
127.0629	0.7
127.0727	100.0
127.0825	0.7
127.0862	0.5
128.0700	2.2
128.0760	3.8
128.9535	1.1

Name: Melatonin
PrecursorMZ: 233.12824
RT: 1.6645
ExactMass: 232.121177757
Spectrum_type: 2
charge: 1
Formula: C13H16N2O2
SMILES: CC(=O)NCCC1=CNC2=C1C=C(C=C2)OC
Method: HCD
Collision_energy: [28.333334]
Isolation_window: 4.0
Ion_mode: P
Num Peaks: 6
69.6198	2.4
159.0678	2.8
174.0911	100.0
175.0944	13.0
216.1014	6.6
233.1279	2.8

Name: Melibiose
PrecursorMZ: 381.07876
RT: 9.61
ExactMass: 342.11621151
Spectrum_type: 2
charge: 1
Formula: C12H22O11
SMILES: C([C@@H]1[C@@H]([C@@H]([C@H]([C@H](O1)OC[C@@H]2[C@H]([C@@H]([C@H](C(O2)O)O)O)O)O)O)O)O
Method: HCD
Collision_energy: [28.333334]
Isolation_window: 4.0
Ion_mode: P
Num Peaks: 35
70.0654	3.0
84.0810	4.7
110.0712	1.4
111.0440	2.5
126.0548	1.8
130.0860	1.3
154.0861	7.3
162.0757	1.4
172.0965	2.5
190.0972	1.1
197.1282	2.3
200.1278	7.2
235.0820	1.4
288.1915	1.3
291.1337	1.5
364.1854	1.5
379.1818	3.6
379.2550	1.5
380.0947	21.9
380.1330	1.2
380.1793	2.0
380.1911	1.6
380.2207	1.5
381.0785	100.0
381.0983	2.8
381.1631	5.7
381.1859	1.5
381.2034	2.7
382.0816	12.5
382.1447	1.4
382.1491	1.2
382.1967	5.1
382.2344	1.3
383.0779	2.7
383.0951	2.3

Name: Methyl Nicotinate
PrecursorMZ: 138.05501
RT: 1.2526
ExactMass: 137.047678466
Spectrum_type: 2
charge: 1
Formula: C7H7NO2
SMILES: COC(=O)C1=CN=CC=C1
Method: HCD
Collision_energy: [28.333334]
Isolation_window: 4.0
Ion_mode: P
Num Peaks: 19
55.0548	3.1
69.0339	2.2
82.0654	2.3
96.0446	29.8
97.1014	5.0
108.0446	11.7
110.0966	5.7
111.0443	11.4
122.0840	6.7
124.0394	44.2
125.0427	4.2
136.0758	9.5
136.1122	3.3
137.1073	100.0
138.0550	15.1
138.0914	12.2
138.1106	10.2
140.0707	4.9
140.1068	4.8

Name: Methyl indole-3-carboxylate
PrecursorMZ: 176.07069
RT: 1.4018666666666666
ExactMass: 175.06332853
Spectrum_type: 2
charge: 1
Formula: C10H9NO2
SMILES: COC(=O)C1=CNC2=CC=CC=C21
Method: HCD
Collision_energy: [28.333334]
Isolation_window: 4.0
Ion_mode: P
Num Peaks: 12
59.0495	26.8
133.0520	19.2
144.0443	100.0
146.0599	57.7
148.0756	72.7
162.0550	56.7
175.0865	24.3
175.1226	23.6
176.0705	59.2
176.1065	33.4
177.1020	27.9
178.0859	22.6

Name: Methylguanidine
PrecursorMZ: 74.07163
RT: 12.9701
ExactMass: 73.063997236
Spectrum_type: 2
charge: 1
Formula: C2H7N3
SMILES: CN=C(N)N
Method: HCD
Collision_energy: [28.333334]
Isolation_window: 4.0
Ion_mode: P
Num Peaks: 11
55.0546	4.6
56.0499	4.5
57.0451	100.0
57.0577	2.4
58.0291	2.7
72.0811	12.9
73.0764	1.8
74.0603	3.6
74.0716	38.8
74.0967	23.8
75.0555	4.1

Name: Mono(2-ethylhexyl) phthalate
PrecursorMZ: 279.15869
RT: 1.029153846153846
ExactMass: 278.15180918
Spectrum_type: 2
charge: 1
Formula: C16H22O4
SMILES: CCCCC(CC)COC(=O)C1=CC=CC=C1C(=O)O
Method: HCD
Collision_energy: [28.333334]
Isolation_window: 4.0
Ion_mode: P
Num Peaks: 11
57.0703	7.1
67.0546	7.9
69.2949	9.7
81.0701	10.3
95.0856	10.1
97.4569	7.5
149.0232	100.0
150.0266	8.8
279.0932	8.4
279.2311	6.4
299.0609	18.2

Name: Monocrotaline
PrecursorMZ: 326.15947
RT: 5.0994
ExactMass: 325.15253745
Spectrum_type: 2
charge: 1
Formula: C16H23NO6
SMILES: C[C@H]1C(=O)O[C@@H]2CCN3[C@@H]2C(=CC3)COC(=O)[C@]([C@]1(C)O)(C)O
Method: HCD
Collision_energy: [28.333334]
Isolation_window: 4.0
Ion_mode: P
Num Peaks: 144
55.0546	2.0
57.0339	0.6
57.0703	0.7
67.0546	1.2
69.0338	0.8
69.0702	1.3
69.2273	0.6
70.0654	0.9
71.0494	0.5
71.0859	0.9
72.0811	0.4
79.0545	0.6
81.0337	1.1
81.0701	2.0
83.0494	1.4
83.0858	28.4
84.0809	0.4
84.0891	2.0
85.0650	0.5
85.1014	0.4
86.0967	0.5
91.0543	0.5
93.0700	1.1
95.0493	0.7
95.0857	1.9
97.0649	0.7
97.1013	1.1
98.0966	1.2
99.0442	0.3
99.0806	0.6
100.0758	0.5
101.0598	0.6
105.0700	0.9
107.0492	2.0
107.0855	0.9
109.0649	1.1
109.1013	1.2
110.0601	0.3
110.0713	0.6
111.0441	1.1
111.0805	0.5
113.0598	0.5
115.0503	0.5
116.0706	1.3
117.0699	0.4
119.0855	0.8
121.0648	0.9
121.1012	1.0
123.0804	2.8
123.1168	0.4
124.0757	0.4
125.0961	0.9
126.0816	0.6
126.0913	100.0
126.0988	0.5
126.1010	0.7
127.0945	7.0
131.0853	0.7
133.1010	0.7
135.0803	0.6
135.1166	0.4
136.0616	4.7
136.0754	0.4
137.0594	1.0
137.0960	0.6
138.0911	0.5
140.0705	0.6
140.1068	0.4
141.0908	0.4
145.1010	0.8
147.0801	0.4
147.1166	0.6
148.0617	0.6
149.0960	2.5
152.0705	0.4
156.0765	0.4
157.1012	0.5
159.1168	0.4
161.0958	0.4
163.1116	0.7
164.0704	0.4
165.0545	2.9
165.0908	0.5
166.0861	0.7
175.1117	0.4
180.1018	0.5
182.1173	0.4
183.0649	0.9
183.1129	0.4
184.0967	0.3
189.1118	0.6
191.1063	0.4
194.1174	1.0
217.1585	0.4
219.1378	0.6
220.1189	7.0
221.1231	0.5
228.1013	0.3
234.0868	0.5
237.1482	0.3
262.1432	0.9
273.1845	1.5
289.1790	0.5
290.1379	1.1
291.1949	8.1
292.1988	1.0
294.1077	0.7
306.2055	0.9
307.1074	0.5
307.1652	0.3
307.1896	0.5
308.1116	0.3
308.1480	1.6
309.2052	0.8
310.1276	0.4
324.1435	0.4
324.2162	1.5
325.1185	0.7
325.1389	0.9
325.1535	1.7
325.1752	1.5
325.2161	1.3
325.2502	0.3
325.2729	0.5
326.1027	0.4
326.1214	0.9
326.1395	1.2
326.1429	0.8
326.1592	25.6
326.1930	0.3
326.2073	0.7
326.2327	0.7
327.1331	1.3
327.1628	4.0
327.1920	1.1
327.2148	1.0
327.2318	0.9
327.2884	3.5
328.1163	0.8
328.1373	0.8
328.1533	0.8
328.1722	0.5
328.2478	0.4
328.2910	0.4

Name: N'-Methylnicotinamide
PrecursorMZ: 137.07078
RT: 13.7042
ExactMass: 136.063662883
Spectrum_type: 2
charge: 1
Formula: C7H8N2O
SMILES: CNC(=O)C1=CN=CC=C1
Method: HCD
Collision_energy: [28.333334]
Isolation_window: 4.0
Ion_mode: P
Num Peaks: 8
94.0653	8.3
96.9953	14.2
120.0476	31.2
135.0916	5.5
137.0456	9.4
137.0708	100.0
137.1071	5.5
138.0741	6.7

Name: N,N-Dimethylaniline
PrecursorMZ: 122.09646
RT: 1.2307
ExactMass: 121.089149355
Spectrum_type: 2
charge: 1
Formula: C8H11N
SMILES: CN(C)C1=CC=CC=C1
Method: HCD
Collision_energy: [28.333334]
Isolation_window: 4.0
Ion_mode: P
Num Peaks: 5
94.0653	13.4
107.0730	24.7
122.0600	12.6
122.0963	100.0
123.1000	8.1

Name: N,N-Dimethylarginine
PrecursorMZ: 203.15002
RT: 15.2674
ExactMass: 202.14297583
Spectrum_type: 2
charge: 1
Formula: C8H18N4O2
SMILES: CN(C)C(=NCCC[C@@H](C(=O)O)N)N
Method: HCD
Collision_energy: [28.333334]
Isolation_window: 4.0
Ion_mode: P
Num Peaks: 24
70.0654	51.3
71.0606	27.6
84.0810	23.2
86.0965	14.7
88.0871	27.2
97.0284	15.2
115.0866	23.9
116.0706	83.4
126.0549	19.2
128.9534	61.8
133.0970	33.6
138.0546	19.8
142.0861	18.6
144.0653	17.3
158.1286	38.7
172.1077	50.0
202.0687	14.9
202.1071	38.5
202.1435	27.6
203.1498	100.0
204.0862	15.2
204.1018	15.2
204.1228	29.9
204.1340	70.0

Name: N,N-diethyl-m-toluamide
PrecursorMZ: 192.13813
RT: 1.1167
Spectrum_type: 2
charge: 1
SMILES: CCN(CC)C(=O)C1=CC=CC(=C1)C
Method: HCD
Collision_energy: [28.333334]
Isolation_window: 4.0
Ion_mode: P
Num Peaks: 17
57.0703	8.1
59.0495	46.3
60.0529	1.6
69.3156	1.8
72.0447	2.9
93.0701	1.8
97.4569	1.7
100.0758	7.7
107.0856	1.9
119.0491	100.0
120.0524	8.9
133.1011	1.9
135.1165	1.6
173.1327	1.7
191.1429	2.0
192.1380	100.0
193.1414	13.0

Name: N-ACETYL-beta-D-GLUCOSAMINE
PrecursorMZ: 222.09763
RT: 7.424142857142857
ExactMass: 221.0899372
Spectrum_type: 2
charge: 1
Formula: C8H15NO6
SMILES: CC(=O)N[C@@H]1[C@H]([C@@H]([C@H](O[C@H]1O)CO)O)O
Method: HCD
Collision_energy: [28.333334]
Isolation_window: 4.0
Ion_mode: P
Num Peaks: 17
84.0446	12.3
87.0442	8.6
126.0549	30.7
138.0184	12.3
138.0547	18.0
144.0654	22.3
162.0548	100.0
175.0864	28.9
180.0653	20.1
186.0761	14.8
204.0862	12.7
221.0914	9.8
222.0757	15.1
222.1122	11.6
223.1067	8.8
224.0918	9.0
224.1278	8.5

Name: N-Acetyl-D-Glucosamine
PrecursorMZ: 244.07898
RT: 7.3994
ExactMass: 221.0899372
Spectrum_type: 2
charge: 1
Formula: C8H15NO6
SMILES: CC(=O)N[C@@H]1[C@H]([C@@H]([C@H](OC1O)CO)O)O
Method: HCD
Collision_energy: [28.333334]
Isolation_window: 4.0
Ion_mode: P
Num Peaks: 18
112.0507	100.0
113.0540	5.0
114.0664	4.5
114.0915	13.1
179.0817	2.9
197.0920	3.2
215.0813	8.8
226.0686	6.6
226.1801	2.1
227.1027	2.8
243.0762	14.0
244.0791	48.3
244.1181	4.2
244.2017	3.6
245.0640	2.6
245.0825	4.1
245.1123	7.2
246.0865	2.1

Name: N-Acetyl-L-Aspartic Acid
PrecursorMZ: 176.0553
RT: 7.5443
ExactMass: 175.04807239
Spectrum_type: 2
charge: 1
Formula: C6H9NO5
SMILES: CC(=O)N[C@@H](CC(=O)O)C(=O)O
Method: HCD
Collision_energy: [28.333334]
Isolation_window: 4.0
Ion_mode: P
Num Peaks: 16
60.0448	3.6
70.0292	7.3
74.0240	17.0
88.0396	78.6
102.0551	3.5
116.0343	29.7
118.0500	7.1
130.0499	13.9
134.0448	100.0
135.0482	4.1
158.0448	11.0
176.0707	3.7
176.1071	3.6
176.8753	9.4
177.0656	4.1
178.0862	3.7

Name: N-Acetyl-L-Cysteine
PrecursorMZ: 164.03766
RT: 4.7432
Spectrum_type: 2
charge: 1
Method: HCD
Collision_energy: [28.333334]
Isolation_window: 4.0
Ion_mode: P
Num Peaks: 34
58.9955	2.1
76.0219	24.6
86.9903	2.2
91.0544	1.3
93.0702	1.0
105.0007	7.0
108.0809	0.9
118.0323	6.1
120.0810	3.0
122.0271	72.4
122.0601	0.9
123.0304	2.3
124.0229	1.8
126.0551	0.6
136.0649	0.7
136.0757	100.0
137.0790	7.2
140.0706	2.4
146.0269	1.3
152.0343	3.0
162.0550	3.2
163.0504	1.1
163.0866	0.7
163.1121	0.9
163.1228	1.4
164.0379	0.9
164.0706	35.2
164.0819	0.7
164.1070	1.4
165.0549	0.7
165.0740	3.0
165.1026	0.6
166.0498	0.7
166.0862	1.6

Name: N-Acetyl-L-Lysine
PrecursorMZ: 189.12324
RT: 9.4852
ExactMass: 188.11609238
Spectrum_type: 2
charge: 1
Formula: C8H16N2O3
SMILES: CC(=O)N[C@@H](CCCCN)C(=O)O
Method: HCD
Collision_energy: [28.333334]
Isolation_window: 4.0
Ion_mode: P
Num Peaks: 132
58.0655	0.5
60.0448	2.4
60.0560	6.7
60.0812	1.0
62.0604	5.6
67.0545	0.5
68.0498	0.5
69.0338	0.6
69.0702	1.3
69.5430	0.4
70.0654	2.7
72.0447	1.0
72.0559	1.2
72.0811	1.3
74.0603	0.7
82.0653	0.8
83.0493	1.0
84.0446	2.9
84.0810	82.3
84.0863	0.6
85.0285	0.7
85.0650	2.3
85.0843	4.2
86.0602	0.7
87.0443	0.6
88.0759	1.2
89.0711	1.6
90.0551	0.6
90.0915	0.6
95.0605	24.9
95.0857	1.2
96.0445	9.7
96.0638	0.8
97.4567	0.5
98.0601	0.8
98.0965	0.4
99.0442	0.4
100.0757	6.1
101.0598	5.1
101.1074	4.2
102.0550	0.9
102.0914	1.0
109.1012	2.1
110.0599	0.5
110.0964	0.5
111.0441	5.6
111.1168	0.4
112.0757	2.3
113.0708	0.7
116.0707	0.8
118.0862	1.2
119.9751	0.6
124.0757	0.5
124.0869	0.6
125.0709	0.4
126.0548	0.7
126.0912	14.1
127.0865	7.0
127.0945	1.1
128.0705	2.6
128.1069	0.9
129.0545	1.6
129.0921	0.6
129.1021	100.0
129.1122	0.8
130.0497	5.7
130.0861	40.6
130.0993	0.6
130.1053	5.9
131.0894	2.6
137.0960	1.0
142.0861	3.2
142.1225	1.2
144.0654	1.0
144.1018	3.0
144.1129	0.6
146.0599	1.1
146.0809	0.6
146.0921	1.0
147.1126	19.8
148.0602	0.8
148.1158	1.0
152.0705	0.7
152.0817	0.4
153.0658	0.8
153.1020	6.6
154.0861	1.4
154.1052	0.8
154.1225	3.0
155.1065	0.5
158.0810	0.4
160.0755	1.3
162.0550	0.6
165.0212	1.5
170.0811	1.6
170.0922	3.7
170.1173	1.7
171.0763	0.8
171.1126	5.1
172.0600	0.4
172.0713	1.7
172.0966	8.1
172.1329	3.6
173.0918	7.7
173.0998	0.9
187.1074	0.9
187.1438	1.3
187.1523	0.6
188.0701	0.9
188.0817	0.4
188.0915	3.3
188.1026	10.0
188.1278	13.1
188.1642	4.0
189.0867	1.3
189.0977	0.4
189.1064	0.7
189.1231	37.4
189.1311	1.3
189.1593	1.9
190.0495	1.0
190.0861	1.9
190.0971	15.4
190.1070	7.7
190.1183	1.3
190.1264	3.4
190.1434	13.3
190.1544	1.2
191.0811	1.3
191.1004	0.9
191.1175	1.2
191.1469	0.6

Name: N-Acetyl-L-arginine
PrecursorMZ: 217.12923
RT: 9.238966666666666
ExactMass: 216.12224039
Spectrum_type: 2
charge: 1
Formula: C8H16N4O3
SMILES: CC(=O)N[C@@H](CCCN=C(N)N)C(=O)O
Method: HCD
Collision_energy: [28.333334]
Isolation_window: 4.0
Ion_mode: P
Num Peaks: 38
70.0654	19.4
74.0715	27.1
87.0442	5.3
100.0757	10.6
101.0598	9.8
112.0755	5.3
112.0869	7.8
113.0709	8.3
114.0549	5.5
114.0913	5.0
115.0866	14.7
116.0705	15.2
126.0547	5.7
128.0816	30.6
144.0652	11.2
157.0969	18.6
158.0810	53.0
158.0916	13.0
161.0917	7.5
172.0964	20.4
172.9518	5.3
173.0919	11.9
175.1187	11.7
186.0870	7.1
199.1074	7.6
200.1025	21.2
215.1383	5.9
216.0984	8.1
216.1008	14.8
216.1228	13.2
216.1588	12.0
217.1178	63.8
217.1289	100.0
218.1018	11.3
218.1129	20.3
218.1158	22.5
218.1385	12.0
219.1122	11.5

Name: N-Acetyl-L-glutamic acid
PrecursorMZ: 190.07092
RT: 7.4567
ExactMass: 189.06372245
Spectrum_type: 2
charge: 1
Formula: C7H11NO5
SMILES: CC(=O)N[C@@H](CCC(=O)O)C(=O)O
Method: HCD
Collision_energy: [28.333334]
Isolation_window: 4.0
Ion_mode: P
Num Peaks: 74
55.0548	0.4
60.0449	0.6
72.0812	0.5
82.0655	0.6
84.0447	22.7
85.0481	1.0
86.0604	1.0
87.0444	5.6
88.0396	1.9
95.0607	0.4
98.0603	1.1
100.0759	0.9
101.0599	2.0
102.0551	17.3
103.0586	0.7
104.0709	0.7
111.0555	1.0
114.0664	0.6
114.0914	0.5
116.0708	2.6
118.0653	0.7
118.0865	1.1
124.1121	0.8
126.0549	0.6
126.0913	0.4
128.0707	5.6
128.0818	0.7
129.0659	1.6
129.0738	0.6
130.0397	0.7
130.0499	100.0
130.0580	0.6
130.0600	0.8
130.0863	0.7
131.0532	5.1
132.0655	0.4
140.0709	0.7
142.0863	15.2
142.1228	0.8
143.0896	2.1
144.0655	3.8
144.0810	0.4
144.1019	0.6
144.1384	0.4
146.0368	1.4
146.0601	3.4
146.0813	2.1
146.0925	4.3
147.0633	0.9
148.0604	19.3
149.0639	1.2
165.0214	0.6
170.1175	0.7
172.0604	3.1
188.0709	1.9
188.0917	3.6
188.1028	4.6
188.1281	3.9
188.1646	1.4
189.0739	0.8
189.1061	0.6
190.0263	0.4
190.0502	0.8
190.0708	0.6
190.0864	1.6
190.0974	0.9
190.1073	2.2
190.1436	0.4
191.0815	3.2
191.1067	0.8
192.0655	1.4
192.0879	0.7
192.1018	1.7
192.1232	0.9

Name: N-Acetyl-L-ornithine
PrecursorMZ: 175.10763
RT: 9.511277272727273
ExactMass: 174.10044231
Spectrum_type: 2
charge: 1
Formula: C7H14N2O3
SMILES: CC(=O)N[C@@H](CCCN)C(=O)O
Method: HCD
Collision_energy: [28.333334]
Isolation_window: 4.0
Ion_mode: P
Num Peaks: 82
55.0546	1.0
58.0655	1.9
60.0448	0.9
60.0560	2.9
69.8571	0.5
70.0654	13.9
71.0494	2.7
71.0688	0.6
72.0559	1.6
72.0810	0.3
73.0399	5.4
74.0239	1.0
76.0760	2.2
82.0653	0.4
83.0493	0.8
84.0810	2.1
86.0966	1.6
87.0441	0.4
88.0758	1.0
97.0761	0.5
97.4571	0.4
98.0601	13.9
98.0712	1.2
99.0441	3.3
99.0634	0.5
101.0598	4.5
111.0917	0.8
112.0757	5.9
112.1121	2.4
113.0709	2.8
114.0549	0.4
114.1025	2.3
114.1277	0.6
115.0866	51.1
116.0454	2.9
116.0706	15.0
116.0818	20.2
116.0898	2.7
117.0545	7.5
117.0739	0.7
117.0849	0.6
128.1069	1.5
129.1020	0.9
130.0861	1.2
130.0973	2.3
133.0970	2.2
134.0809	17.5
135.0841	0.5
139.0864	3.5
140.0705	0.5
140.0816	0.5
140.1068	7.5
141.0657	0.5
156.1017	0.6
156.1381	0.5
157.0970	5.7
158.0810	17.7
158.0921	5.2
158.1003	0.4
158.1173	2.7
159.0762	7.4
159.0844	1.1
173.0918	0.4
173.1647	2.9
174.0865	0.6
174.1122	2.2
174.1679	0.5
175.0864	0.3
175.1074	4.2
175.1187	1.0
176.0704	0.7
176.0864	0.5
176.0912	1.0
176.1026	100.0
176.1151	0.5
176.1187	0.6
176.1278	15.6
176.8750	13.1
177.0996	0.5
177.1021	0.3
177.1060	3.8
177.1314	0.8

Name: N-Acetyl-L-phenylalanine
PrecursorMZ: 208.09645
RT: 1.4654
ExactMass: 207.08954328
Spectrum_type: 2
charge: 1
Formula: C11H13NO3
SMILES: CC(=O)N[C@@H](CC1=CC=CC=C1)C(=O)O
Method: HCD
Collision_energy: [28.333334]
Isolation_window: 4.0
Ion_mode: P
Num Peaks: 91
53.0389	1.2
55.0545	15.8
56.0578	1.1
59.0494	6.5
69.0061	3.2
69.0337	2.0
69.6035	1.0
69.6739	1.6
69.7319	1.6
70.0653	1.3
70.1409	1.4
71.0493	1.8
80.0496	19.3
81.0336	1.7
82.0652	1.7
83.0492	14.7
86.0965	3.8
89.0597	4.1
93.0698	1.4
94.0286	1.6
94.0651	5.7
97.4563	1.7
101.0596	65.5
102.0629	3.1
106.0650	2.4
108.0442	100.0
109.0476	6.3
109.0646	1.7
110.0598	2.1
111.0550	2.3
112.0755	1.5
118.0648	2.5
120.0805	43.9
121.0646	1.4
121.0838	3.4
122.0597	35.1
123.0631	3.0
125.0230	1.2
130.0494	5.5
134.0595	1.4
134.0960	7.6
136.0388	2.7
136.0753	3.2
144.0803	1.2
148.0752	19.2
149.0592	1.3
149.0787	1.5
150.0546	1.0
150.0909	22.3
151.0942	2.2
161.0704	2.1
162.0545	1.3
162.0908	23.2
163.0748	1.4
163.0861	2.8
163.0942	2.1
163.1225	3.0
164.0701	4.0
164.1065	4.3
165.1018	2.9
166.0857	6.5
178.0857	2.7
179.0807	1.9
179.1172	3.4
180.1013	47.6
181.1046	5.0
182.0806	1.2
182.1171	1.4
190.0856	8.7
191.0697	1.3
191.0807	1.1
191.1172	3.6
192.0648	3.8
192.1011	1.6
197.0912	6.5
199.0705	2.0
206.0802	3.5
207.0644	1.9
207.0757	2.0
207.1120	6.1
208.0597	22.0
208.0960	28.1
208.1323	1.4
209.0633	1.8
209.0799	2.0
209.0912	5.5
209.0996	2.7
209.1275	8.5
210.0786	12.6
210.1116	10.9
225.0862	3.4

Name: N-Acetyl-L-tyrosine
PrecursorMZ: 224.09148
RT: 5.1956
ExactMass: 223.0844579
Spectrum_type: 2
charge: 1
Formula: C11H13NO4
SMILES: CC(=O)N[C@@H](CC1=CC=C(C=C1)O)C(=O)O
Method: HCD
Collision_energy: [28.333334]
Isolation_window: 4.0
Ion_mode: P
Num Peaks: 188
55.0546	0.4
57.0339	2.7
67.0546	2.3
69.0338	0.6
69.0702	1.0
69.5467	0.6
70.5661	0.4
71.0494	1.0
79.0545	1.3
81.0337	0.7
81.0701	4.1
83.0494	0.7
83.0858	0.9
85.0650	0.6
86.0603	0.5
87.0442	1.1
91.0543	0.7
93.0573	0.5
93.0700	2.6
94.0652	0.4
95.0492	1.0
95.0856	4.6
96.0445	0.4
96.0889	0.4
97.0649	1.0
98.0601	0.4
99.0441	0.4
99.0805	0.4
100.0757	0.4
101.0597	0.6
105.0699	1.0
106.0651	0.4
107.0856	2.1
108.0808	1.2
109.0648	0.9
109.0760	1.4
109.1012	2.9
110.0601	1.2
111.0441	0.8
111.0805	0.8
117.0699	0.4
119.0855	1.0
120.0807	0.5
121.0648	0.6
121.1011	2.3
122.0600	10.1
122.0712	1.0
122.0963	0.7
123.0551	0.5
123.0634	0.8
123.0803	0.8
123.1167	0.7
124.0755	0.5
125.0596	0.5
125.0708	1.2
125.0960	0.6
126.0548	0.7
131.0853	1.3
132.0806	0.4
133.1010	1.0
134.0598	1.3
134.0962	0.5
135.0677	0.7
135.0802	0.9
135.1167	0.7
136.0390	0.8
136.0755	2.1
137.0595	0.5
137.0959	0.3
138.0547	0.5
139.0863	0.3
140.0704	0.3
140.0817	0.8
145.1010	1.1
146.0601	0.4
147.1167	2.2
148.0755	3.0
149.0787	0.3
149.0839	0.6
149.0960	1.3
150.0548	1.4
150.0912	0.9
151.0750	0.9
152.0705	0.9
153.0910	0.3
159.1167	0.5
160.0754	0.6
161.0959	0.3
161.1323	0.6
162.0549	0.4
162.0912	3.0
162.1355	0.4
163.0625	0.5
163.0945	0.4
163.1116	0.7
163.1480	2.3
164.0561	0.8
164.0589	0.6
164.0704	100.0
164.0819	0.6
164.0847	0.7
164.1065	1.4
165.0676	0.5
165.0737	9.3
165.0909	0.3
165.1021	0.4
166.0749	0.6
166.0860	4.3
167.0703	0.4
167.1065	0.4
168.0653	21.6
169.0686	1.9
172.0867	0.4
176.0703	0.3
176.1069	0.5
177.0656	1.4
177.1383	2.3
177.1636	0.6
178.0860	16.8
178.0970	1.2
178.1218	0.5
179.0891	1.7
179.1177	0.6
180.0647	0.9
180.1016	3.6
181.1332	0.6
182.0810	16.3
182.1173	1.2
183.0844	1.8
187.1478	2.2
188.0704	0.4
188.1513	0.3
190.0861	1.0
190.0971	9.5
192.0652	0.6
193.0492	5.2
194.0527	0.5
194.0807	0.6
196.0965	1.5
197.1896	0.4
205.0966	0.8
205.1583	1.6
206.0809	6.2
206.0918	1.2
206.1171	0.9
207.0759	0.4
207.0838	0.6
207.0886	0.7
207.1015	0.5
207.1124	1.1
207.1375	0.3
208.0600	20.2
208.0965	5.3
208.1076	9.6
208.1328	1.0
209.0633	1.3
211.0707	0.4
222.0878	0.8
222.1121	14.2
222.1211	0.4
222.1481	1.7
222.1571	0.4
223.0598	0.5
223.1071	3.1
223.1156	4.8
223.1324	0.4
223.1345	0.6
223.1436	33.5
223.1679	2.6
224.0372	1.5
224.0691	0.4
224.0914	67.2
224.1015	2.9
224.1103	0.3
224.1150	0.7
224.1277	6.5
224.1470	4.2
224.1632	0.7
224.1722	0.4
225.0859	1.5
225.0949	7.9
225.1225	6.2
225.1596	1.5
226.0970	0.6
226.1069	14.1
226.1183	12.4
226.1252	0.4
226.1433	0.5

Name: N-Acetyl-L-valine
PrecursorMZ: 160.09696
RT: 4.4305
ExactMass: 159.08954328
Spectrum_type: 2
charge: 1
Formula: C7H13NO3
SMILES: CC(C)[C@@H](C(=O)O)NC(=O)C
Method: HCD
Collision_energy: [28.333334]
Isolation_window: 4.0
Ion_mode: P
Num Peaks: 39
55.0547	1.5
82.0655	27.4
83.0689	1.7
84.0447	1.5
84.0811	70.5
85.0845	5.9
88.0397	1.7
98.0603	1.5
98.0967	1.4
100.0759	100.0
101.0600	4.3
101.0712	7.6
101.0792	4.3
102.0914	1.6
103.0392	4.1
104.0708	6.0
112.0759	2.8
114.0916	7.9
129.0661	3.0
131.0340	7.5
142.0864	20.1
143.0898	1.6
144.1020	5.6
158.0814	2.6
158.1177	34.8
159.0917	2.1
159.1209	5.4
160.0759	16.9
160.0865	1.4
160.0969	62.1
160.1079	2.0
161.0710	2.6
161.0791	1.9
161.0922	10.5
161.1002	4.6
161.1074	1.6
162.0551	5.8
162.0909	1.7
162.1125	1.9

Name: N-Acetylasparagine
PrecursorMZ: 175.0713
RT: 6.4282
ExactMass: 174.0640568
Spectrum_type: 2
charge: 1
Formula: C6H10N2O4
SMILES: CC(=O)N[C@@H](CC(=O)N)C(=O)O
Method: HCD
Collision_energy: [28.333334]
Isolation_window: 4.0
Ion_mode: P
Num Peaks: 39
60.0448	6.2
70.0290	13.7
70.0654	1.5
71.0495	1.3
74.0239	2.6
84.0446	1.5
84.0810	6.6
87.0554	18.3
88.0394	46.9
89.0428	2.0
98.0239	1.3
99.0077	2.2
100.0757	6.8
112.0757	24.6
113.0597	2.4
113.0790	1.7
114.0547	1.4
115.0501	2.0
116.0342	6.3
128.0704	2.7
130.0497	22.3
130.0861	1.6
131.0532	1.6
133.0606	27.1
134.0641	1.3
138.0911	5.8
140.0703	1.9
141.0543	2.1
156.0653	3.4
156.1017	100.0
157.1051	8.6
158.0446	31.0
159.0480	1.8
173.1273	1.4
174.0758	2.8
174.1122	31.0
175.1153	2.0
176.0701	1.7
176.0915	2.7

Name: N-Acetylputrescine
PrecursorMZ: 131.11784
RT: 12.6498
ExactMass: 130.110613074
Spectrum_type: 2
charge: 1
Formula: C6H14N2O
SMILES: CC(=O)NCCCCN
Method: HCD
Collision_energy: [28.333334]
Isolation_window: 4.0
Ion_mode: P
Num Peaks: 9
70.0654	80.6
72.0811	44.6
84.0447	27.8
86.0966	50.7
112.0868	21.8
114.0913	100.0
130.0973	32.9
130.1588	56.5
132.1018	48.4

Name: N-Acetyltryptophan
PrecursorMZ: 247.10731
RT: 4.6573
ExactMass: 246.10044231
Spectrum_type: 2
charge: 1
Formula: C13H14N2O3
SMILES: CC(=O)NC(CC1=CNC2=CC=CC=C21)C(=O)O
Method: HCD
Collision_energy: [28.333334]
Isolation_window: 4.0
Ion_mode: P
Num Peaks: 19
69.0702	3.4
86.0966	100.0
87.0999	9.1
95.0492	2.3
100.1121	2.5
132.1016	2.9
146.0597	6.0
156.0805	15.7
174.0909	5.2
176.0703	5.6
188.0700	2.3
202.0855	4.8
229.0969	2.6
230.0807	4.3
245.1852	4.7
246.1118	3.0
246.1327	6.2
247.1070	5.9
248.1278	3.2

Name: N-Ethyl-o-crotonotoluidide
PrecursorMZ: 204.13821
RT: 1.13165
ExactMass: 203.131014166
Spectrum_type: 2
charge: 1
Formula: C13H17NO
SMILES: CCN(C1=CC=CC=C1C)C(=O)/C=C/C
Method: HCD
Collision_energy: [28.333334]
Isolation_window: 4.0
Ion_mode: P
Num Peaks: 5
83.0858	9.1
122.0601	100.0
204.1381	97.4
205.1416	9.2
206.0245	17.5

Name: N-Oleoylglycine
PrecursorMZ: 340.28414
RT: 1.2732555555555556
ExactMass: 339.27734404
Spectrum_type: 2
charge: 1
Formula: C20H37NO3
SMILES: CCCCCCCC/C=C\CCCCCCCC(=O)NCC(=O)O
Method: HCD
Collision_energy: [28.333334]
Isolation_window: 4.0
Ion_mode: P
Num Peaks: 10
70.0655	29.0
81.0702	17.6
95.0858	20.1
140.1430	33.2
168.1745	35.2
198.1486	34.5
226.1797	33.2
338.3420	14.9
340.2839	100.0
341.2867	25.3

Name: N-acetylglutamic acid
PrecursorMZ: 190.0706
RT: 7.1932
ExactMass: 189.06372245
Spectrum_type: 2
charge: 1
Formula: C7H11NO5
SMILES: CC(=O)NC(CCC(=O)O)C(=O)O
Method: HCD
Collision_energy: [28.333334]
Isolation_window: 4.0
Ion_mode: P
Num Peaks: 67
60.0446	1.2
69.8427	0.8
70.0653	1.3
74.0601	0.8
82.0652	0.8
84.0444	27.3
84.0808	1.0
85.0477	1.1
86.0600	1.5
88.0393	2.1
95.0602	3.5
96.0443	1.9
98.0963	2.4
100.0755	2.2
101.0596	0.9
102.0548	18.6
112.0756	0.9
114.0546	0.9
116.0703	1.7
117.0696	0.9
117.0737	0.8
118.0648	13.9
118.0860	0.9
119.0681	1.9
126.0546	1.8
126.0908	1.0
128.0702	6.7
130.0494	100.0
130.0858	1.3
131.0527	5.2
142.0646	1.6
142.0858	5.8
142.1221	1.7
143.0725	1.8
144.0651	3.1
144.0803	12.2
144.1014	15.5
144.1377	1.0
145.0836	2.4
145.1047	1.2
146.0595	58.6
146.0804	2.6
147.0628	12.1
148.0598	17.1
149.0634	1.0
154.0494	2.1
154.0859	1.2
156.0650	1.2
162.0546	0.8
170.0594	3.7
171.0629	1.3
172.0597	2.2
172.0961	1.0
188.0698	16.9
188.0907	3.1
188.1274	4.3
189.0732	4.7
189.0862	1.2
189.1016	1.1
190.0856	2.1
190.0967	2.2
190.1065	3.4
191.0807	3.4
191.1174	1.1
192.0647	2.5
192.0859	1.9
192.1010	3.2

Name: N-carbamoyl-beta-alanine
PrecursorMZ: 133.06079
RT: 6.7904285714285715
ExactMass: 132.05349212
Spectrum_type: 2
charge: 1
Formula: C4H8N2O3
SMILES: C(CNC(=O)N)C(=O)O
Method: HCD
Collision_energy: [28.333334]
Isolation_window: 4.0
Ion_mode: P
Num Peaks: 8
72.0447	19.2
73.0400	21.8
86.0967	23.0
90.0551	100.0
115.0503	91.7
119.0729	13.5
132.0806	13.3
134.0963	72.5

Name: N1-Methyl-2-pyridone-5-carboxamide
PrecursorMZ: 153.06582
RT: 3.6053
ExactMass: 152.058577502
Spectrum_type: 2
charge: 1
Formula: C7H8N2O2
SMILES: CN1C=C(C=CC1=O)C(=O)N
Method: HCD
Collision_energy: [28.333334]
Isolation_window: 4.0
Ion_mode: P
Num Peaks: 13
69.0338	13.5
95.0493	43.5
97.0649	4.8
110.0601	60.7
125.0597	7.2
127.0752	9.6
137.0708	7.5
152.0703	6.6
153.0657	100.0
154.0689	8.6
154.0863	8.3
155.0702	8.8
155.0812	8.3

Name: Nicotinamide
PrecursorMZ: 123.0552
RT: 2.5069
ExactMass: 122.048012819
Spectrum_type: 2
charge: 1
Formula: C6H6N2O
SMILES: C1=CC(=CN=C1)C(=O)N
Method: HCD
Collision_energy: [28.333334]
Isolation_window: 4.0
Ion_mode: P
Num Peaks: 19
78.0340	0.5
80.0497	6.9
96.0444	4.1
104.0704	0.4
107.0729	2.5
121.0393	0.4
122.0963	2.9
123.0551	13.2
123.0802	0.6
123.0916	3.9
123.9935	0.4
124.0297	0.8
124.0391	100.0
124.0485	0.7
124.0584	0.9
124.0754	0.6
124.0866	0.8
124.0947	0.4
125.0424	2.3

Name: Nicotine
PrecursorMZ: 163.12279
RT: 4.1141
ExactMass: 162.115698455
Spectrum_type: 2
charge: 1
Formula: C10H14N2
SMILES: CN1CCC[C@H]1C2=CN=CC=C2
Method: HCD
Collision_energy: [28.333334]
Isolation_window: 4.0
Ion_mode: P
Num Peaks: 12
80.0496	3.6
84.0809	5.4
106.0651	5.7
120.0807	3.0
130.0650	5.8
132.0805	13.4
136.0754	100.0
137.0786	4.8
140.0704	3.3
163.1227	28.5
164.0703	27.9
164.1261	3.0

Name: Npc164516
PrecursorMZ: 140.10698
RT: 3.5449
ExactMass: 139.099714038
Spectrum_type: 2
charge: 1
Formula: C8H13NO
SMILES: CN1C2CCC1CC(=O)C2
Method: HCD
Collision_energy: [28.333334]
Isolation_window: 4.0
Ion_mode: P
Num Peaks: 27
70.0655	4.5
81.0451	8.8
94.0653	5.0
95.0606	12.0
96.0447	11.5
97.0650	10.2
98.0966	19.5
110.0603	4.8
112.1123	5.2
113.0710	5.2
121.0397	11.6
123.0554	35.6
138.0375	6.6
138.0550	43.3
138.0914	25.1
139.0503	15.9
139.0582	9.6
139.0866	23.0
139.1230	6.1
140.0708	21.5
140.1070	100.0
141.0659	66.6
141.1023	6.7
141.1103	8.3
141.1386	5.9
142.0475	14.8
142.1227	7.0

Name: O-Methoxycinnamaldehyde, (E)-
PrecursorMZ: 163.07533
RT: 1.03824
ExactMass: 162.068079557
Spectrum_type: 2
charge: 1
Formula: C10H10O2
SMILES: COC1=CC=CC=C1/C=C/C=O
Method: HCD
Collision_energy: [28.333334]
Isolation_window: 4.0
Ion_mode: P
Num Peaks: 5
69.2472	6.5
97.4567	4.6
105.0336	100.0
106.0369	6.0
163.0752	25.9

Name: O-alpha-D-Glucopyranosyl-(1->4)-O-alpha-D-glucopyranosyl-(1->4)-D-glucopyranose
PrecursorMZ: 543.13229
RT: 9.986728571428571
ExactMass: 504.16903493
Spectrum_type: 2
charge: 1
Formula: C18H32O16
SMILES: C([C@@H]1[C@H]([C@@H]([C@H]([C@H](O1)O[C@@H]2[C@H](O[C@@H]([C@@H]([C@H]2O)O)O[C@@H]3[C@H](OC([C@@H]([C@H]3O)O)O)CO)CO)O)O)O)O
Method: HCD
Collision_energy: [28.333334]
Isolation_window: 4.0
Ion_mode: P
Num Peaks: 12
60.3484	5.1
60.4599	0.9
97.3999	0.6
363.0691	1.2
381.0798	1.9
542.1429	1.0
542.1752	1.1
543.0458	0.7
543.1323	100.0
543.2183	0.7
544.1359	19.3
545.1333	6.9

Name: Octahydrocurcumin
PrecursorMZ: 377.19563
RT: 1.9956
ExactMass: 376.18858861
Spectrum_type: 2
charge: 1
Formula: C21H28O6
SMILES: COC1=C(C=CC(=C1)CCC(CC(CCC2=CC(=C(C=C2)O)OC)O)O)O
Method: HCD
Collision_energy: [28.333334]
Isolation_window: 4.0
Ion_mode: P
Num Peaks: 12
57.0703	3.0
85.0651	2.1
151.1117	7.7
163.1118	7.6
251.1278	2.5
275.1277	5.6
359.1851	11.9
376.1995	4.2
377.1959	14.7
378.1309	2.2
378.2154	100.0
379.2190	14.4

Name: Oleamide
PrecursorMZ: 282.27879
RT: 1.0873
ExactMass: 281.27186474
Spectrum_type: 2
charge: 1
Formula: C18H35NO
SMILES: CCCCCCCC/C=C\CCCCCCCC(=O)N
Method: HCD
Collision_energy: [28.333334]
Isolation_window: 4.0
Ion_mode: P
Num Peaks: 78
55.0546	2.1
57.0703	16.0
67.0546	7.0
69.0702	34.7
69.7967	1.0
70.0735	1.5
71.0494	1.6
71.0858	15.3
72.0447	0.9
72.0811	2.9
79.0544	2.5
81.0701	17.6
82.0735	1.0
83.0493	1.8
83.0858	34.6
84.0891	2.3
85.0649	1.3
85.1014	7.7
86.0602	6.8
86.0966	1.1
93.0700	6.1
95.0856	19.5
96.0890	1.5
97.0649	9.3
97.1012	33.1
98.1046	2.4
99.0805	1.2
100.0757	12.8
107.0855	9.3
109.1012	14.8
110.1046	1.1
111.0804	9.6
111.1168	17.8
112.1202	1.2
114.0913	14.3
121.1011	14.8
122.1044	1.5
123.1167	6.4
125.0960	7.4
125.1324	4.6
128.1068	8.1
135.1166	16.8
136.1198	1.7
137.1323	3.5
139.1114	4.6
142.1224	5.4
149.1323	12.8
150.1356	1.3
151.1479	3.1
153.1271	3.2
156.1381	3.1
163.1479	6.8
164.1512	1.0
165.1635	2.5
167.1428	2.1
170.1536	3.0
177.1635	3.5
179.1792	0.9
181.1584	1.7
184.1693	1.9
191.1790	3.0
195.1737	1.1
198.1848	1.7
205.1945	1.3
209.1896	1.2
212.2006	2.4
226.2162	1.5
240.2678	2.0
247.2415	23.0
248.2448	4.4
265.2520	21.9
266.2554	3.6
282.2211	1.8
282.2784	100.0
283.2818	20.4
284.2368	1.4
284.2945	8.7
299.0609	1.2

Name: Oleanolic Acid
PrecursorMZ: 457.36579
RT: 1.3457
ExactMass: 456.36034539
Spectrum_type: 2
charge: 1
Formula: C30H48O3
SMILES: C[C@]12CC[C@@H](C([C@@H]1CC[C@@]3([C@@H]2CC=C4[C@]3(CC[C@@]5([C@H]4CC(CC5)(C)C)C(=O)O)C)C)(C)C)O
Method: HCD
Collision_energy: [28.333334]
Isolation_window: 4.0
Ion_mode: P
Num Peaks: 66
67.0544	9.4
69.0701	18.6
81.0700	34.2
83.0856	8.5
89.0597	7.1
93.0698	17.4
95.0855	64.1
96.0889	5.6
99.0803	6.1
105.0696	10.6
107.0854	30.5
109.1010	48.4
111.0803	16.3
119.0852	16.0
121.1009	33.7
123.1165	27.5
127.1114	6.3
131.0850	5.5
133.1008	19.2
135.1164	31.2
137.1322	9.7
139.1112	8.6
145.1007	9.4
147.1164	17.7
149.0956	5.6
149.1321	24.2
151.0750	7.7
159.1163	16.5
161.1321	16.3
163.1114	5.6
163.1478	10.9
165.0906	100.0
171.1160	6.7
173.1321	11.6
175.1477	15.5
177.0906	7.9
177.1632	10.4
179.0699	8.7
185.1318	5.4
187.1475	8.7
189.1632	11.4
191.1791	6.3
193.1581	7.1
195.1740	7.1
201.1630	8.4
203.1060	7.4
203.1786	9.3
205.1214	13.7
213.1628	6.3
215.1786	7.2
219.1739	6.4
233.1890	6.2
245.1890	6.1
421.3449	8.6
422.3480	5.4
438.3426	6.0
439.3180	5.7
439.3545	19.3
440.3580	6.5
441.3351	13.9
455.3509	11.1
456.3473	60.0
457.3279	6.9
457.3684	37.6
458.3675	13.6
459.3457	12.4

Name: Oleoylethanolamide
PrecursorMZ: 326.30512
RT: 1.1182857142857143
ExactMass: 325.298079487
Spectrum_type: 2
charge: 1
Formula: C20H39NO2
SMILES: CCCCCCCC/C=C\CCCCCCCC(=O)NCCO
Method: HCD
Collision_energy: [28.333334]
Isolation_window: 4.0
Ion_mode: P
Num Peaks: 10
74.0604	63.2
75.0637	2.3
139.9146	3.1
226.2532	3.5
284.2947	2.2
310.3104	3.4
324.2895	5.3
325.2925	4.7
326.3051	100.0
327.3083	20.9

Name: Oxindole
PrecursorMZ: 134.05997
RT: 1.53
ExactMass: 133.052763847
Spectrum_type: 2
charge: 1
Formula: C8H7NO
SMILES: C1C2=CC=CC=C2NC1=O
Method: HCD
Collision_energy: [28.333334]
Isolation_window: 4.0
Ion_mode: P
Num Peaks: 3
106.0652	10.0
134.0598	100.0
135.0632	8.9

Name: Pai-2
PrecursorMZ: 172.09671
RT: 1.3754142857142857
ExactMass: 171.08954328
Spectrum_type: 2
charge: 1
Formula: C8H13NO3
SMILES: CCCC(=O)NC1CCOC1=O
Method: HCD
Collision_energy: [28.333334]
Isolation_window: 4.0
Ion_mode: P
Num Peaks: 62
55.0546	1.3
67.0545	0.6
69.0702	3.7
70.0654	3.2
72.0447	1.4
73.0109	1.6
81.0701	1.0
82.0654	0.7
83.0858	0.7
84.0810	13.3
85.0650	1.4
85.0843	0.5
86.0602	1.0
88.0759	1.0
89.0711	1.7
95.0856	4.3
96.0809	1.0
97.0649	2.4
97.1013	24.0
98.0601	1.6
98.1046	1.8
99.0679	0.5
100.0758	0.7
102.0550	4.2
102.0913	1.0
108.0444	3.4
110.0600	1.0
110.0964	1.4
112.0675	0.7
112.0757	100.0
112.0821	0.6
112.1121	5.8
113.0790	6.3
113.0961	2.0
114.0550	1.0
123.0803	1.9
127.1116	4.5
128.0705	0.7
130.0861	5.3
138.0912	8.2
139.0944	0.7
140.0704	45.5
140.1068	39.1
141.0737	3.4
141.1101	3.5
145.0970	0.5
146.0599	1.8
155.1064	1.3
158.0811	2.5
170.1173	4.4
171.1212	0.7
171.1490	2.4
172.0789	15.3
172.0965	11.4
172.1329	16.2
173.0826	1.2
173.0919	0.7
173.0998	0.9
173.1071	0.7
173.1370	1.1
174.0545	1.1
174.0911	1.9

Name: Palmitoylethanolamide
PrecursorMZ: 300.28925
RT: 1.18746
ExactMass: 299.282429423
Spectrum_type: 2
charge: 1
Formula: C18H37NO2
SMILES: CCCCCCCCCCCCCCCC(=O)NCCO
Method: HCD
Collision_energy: [28.333334]
Isolation_window: 4.0
Ion_mode: P
Num Peaks: 18
57.0703	6.2
62.0604	100.0
63.0637	1.7
69.0641	2.9
69.0702	1.6
69.0835	2.4
71.0858	5.6
81.0701	2.7
83.0858	2.2
85.1014	4.5
95.0856	3.8
97.4580	1.8
109.1012	2.2
282.2782	4.1
283.2624	10.2
284.2658	2.1
300.2890	34.2
301.2921	6.8

Name: Pantothenic Acid
PrecursorMZ: 220.11744
RT: 5.1448
ExactMass: 219.11067264
Spectrum_type: 2
charge: 1
Formula: C9H17NO5
SMILES: CC(C)(CO)[C@H](C(=O)NCCC(=O)O)O
Method: HCD
Collision_energy: [28.333334]
Isolation_window: 4.0
Ion_mode: P
Num Peaks: 141
56.0498	1.6
57.0702	1.8
59.0495	2.7
60.0447	13.2
67.0545	2.8
69.0701	4.6
69.2674	1.4
69.8126	1.2
70.0290	2.1
70.0653	0.8
72.0446	8.6
72.0810	58.1
73.0286	1.9
73.0844	2.8
74.0238	0.8
74.0602	22.7
81.0336	1.9
81.0700	1.4
83.0493	1.4
84.0445	1.5
85.0649	7.5
86.0601	3.6
86.0965	28.3
87.0805	2.1
87.0998	1.7
90.0528	1.7
90.0550	100.0
91.0543	1.7
91.0584	3.1
93.0699	1.5
95.0491	4.2
95.0603	1.1
97.0759	0.9
97.4570	1.5
98.0236	8.5
100.0392	2.2
100.0756	1.3
103.0753	8.4
105.0698	1.4
107.0490	1.6
107.0855	1.2
109.0759	1.3
110.0711	2.6
111.0916	1.7
112.0755	2.0
112.0867	3.8
113.0596	2.5
113.0788	1.1
116.0340	16.2
118.0861	5.6
119.0854	2.0
120.0653	5.3
121.0647	1.7
124.0754	10.7
128.1065	1.4
130.0497	1.0
131.0600	3.9
131.0699	0.9
131.0854	1.4
132.1016	11.7
135.0659	1.3
135.0801	1.5
136.0866	3.1
137.0819	2.9
138.1022	1.6
140.0337	1.5
142.0859	6.6
145.1009	1.2
146.0597	7.0
149.0817	1.4
150.1271	1.2
151.0975	1.7
154.0494	1.8
156.1015	1.5
158.0808	4.7
159.1165	2.3
160.0964	2.4
161.0816	1.3
161.0956	1.3
161.1321	2.3
163.0974	0.8
166.0858	2.6
173.0705	1.4
173.1278	12.0
174.0545	1.4
174.0771	1.3
174.1027	1.3
174.1120	3.3
175.0863	2.8
175.0972	0.8
176.0701	2.2
177.0764	0.9
177.1129	2.5
178.1082	3.1
179.0922	2.2
179.1035	1.1
183.1164	1.3
184.0963	21.2
185.0998	2.1
192.0647	2.4
192.1015	2.7
200.0922	2.4
200.1272	1.4
201.0653	1.2
201.0956	1.3
201.1226	2.5
201.1265	2.0
202.0862	2.2
202.0972	1.7
202.1068	29.1
203.0808	2.9
203.1102	3.0
203.1423	1.4
204.0650	2.2
218.0805	20.9
218.1020	1.4
218.1169	1.1
218.1383	1.7
219.0756	7.1
219.0840	13.7
219.0988	1.0
219.1123	5.6
219.1338	14.1
220.0599	5.2
220.0811	1.3
220.0857	1.2
220.0963	15.4
220.1078	2.5
220.1173	34.7
220.1316	3.2
220.1548	1.2
220.2051	5.8
221.0913	8.4
221.1014	2.1
221.1199	3.0
221.1287	1.9
221.1522	3.5
222.0755	9.9
222.0976	1.2
222.1117	6.2
222.1342	0.9

Name: Pellitorine
PrecursorMZ: 224.20061
RT: 1.0528
ExactMass: 223.193614421
Spectrum_type: 2
charge: 1
Formula: C14H25NO
SMILES: CCCCC/C=C/C=C/C(=O)NCC(C)C
Method: HCD
Collision_energy: [28.333334]
Isolation_window: 4.0
Ion_mode: P
Num Peaks: 2
224.2004	100.0
225.2041	17.2

Name: Phenacetin
PrecursorMZ: 180.10176
RT: 1.2505
ExactMass: 179.094628657
Spectrum_type: 2
charge: 1
Formula: C10H13NO2
SMILES: CCOC1=CC=C(C=C1)NC(=O)C
Method: HCD
Collision_energy: [28.333334]
Isolation_window: 4.0
Ion_mode: P
Num Peaks: 50
57.0702	0.4
81.0337	10.9
82.0370	0.6
83.0494	0.7
84.0810	5.0
91.0543	1.2
93.0700	0.4
97.0648	0.4
103.0543	1.1
112.0757	17.7
113.0789	1.2
120.0717	0.6
120.0807	100.0
120.0897	0.7
121.0647	4.7
121.0775	0.4
121.0840	8.1
121.1010	0.5
122.0681	0.4
123.0803	0.4
125.0596	2.8
131.0489	2.0
132.0477	0.4
135.0803	0.5
138.0913	0.5
148.0756	0.5
150.0910	0.4
152.1068	0.4
162.0913	1.2
163.0751	1.8
163.1115	3.2
178.0858	0.8
178.1225	0.6
179.0701	0.6
179.0812	0.5
179.1062	0.5
179.1177	2.7
179.1539	0.6
180.0657	0.8
180.0805	18.5
180.1016	8.6
180.1380	1.0
181.0839	2.7
181.0972	0.6
181.1047	1.0
181.1219	1.7
181.1332	0.8
182.0807	0.6
182.1173	1.6
182.1535	0.4

Name: Phenylethanolamine
PrecursorMZ: 138.09132
RT: 6.8098
ExactMass: 137.084063974
Spectrum_type: 2
charge: 1
Formula: C8H11NO
SMILES: C1=CC=C(C=C1)C(CN)O
Method: HCD
Collision_energy: [28.333334]
Isolation_window: 4.0
Ion_mode: P
Num Peaks: 57
55.0183	1.0
67.0545	2.9
68.0498	1.1
69.0338	1.5
69.0702	0.8
69.5761	0.9
70.0654	4.2
79.0545	1.4
80.0498	1.5
81.0337	1.8
81.0701	1.2
82.0654	3.7
83.0494	0.9
91.0544	2.1
93.0700	2.6
94.0400	1.2
94.0652	1.8
95.0493	1.7
95.0856	2.0
96.0445	5.1
97.0285	1.0
97.0648	0.9
98.0601	10.2
108.0445	0.8
109.0649	1.0
110.0349	1.5
110.0601	17.8
110.0965	7.0
111.0441	0.9
111.0553	0.7
111.0634	0.9
112.0757	2.9
119.0352	1.9
122.0600	2.6
123.0678	3.5
125.0470	4.4
136.0616	19.7
136.0755	3.4
137.0456	39.8
137.0593	3.2
137.0650	3.4
137.0707	1.8
137.0787	0.9
137.0959	2.2
137.1072	0.9
138.0490	2.5
138.0548	5.8
138.0912	100.0
138.1023	0.7
139.0388	1.2
139.0500	1.1
139.0752	2.1
139.0865	4.1
139.0945	9.4
140.0339	0.8
140.0704	11.0
140.1067	1.6

Name: Phytosphingosine
PrecursorMZ: 318.29974
RT: 4.9414
ExactMass: 317.29299411
Spectrum_type: 2
charge: 1
Formula: C18H39NO3
SMILES: CCCCCCCCCCCCCC[C@H]([C@H]([C@H](CO)N)O)O
Method: HCD
Collision_energy: [28.333334]
Isolation_window: 4.0
Ion_mode: P
Num Peaks: 39
60.0448	73.8
69.5398	5.9
83.0858	11.2
86.0966	25.4
95.0856	11.8
97.4565	5.3
124.0756	6.8
126.0912	19.8
136.0754	11.1
138.0911	14.7
148.0755	59.6
152.0704	8.6
166.0861	100.0
167.0892	7.7
173.0706	9.8
176.0704	6.4
188.0702	12.8
194.0809	36.8
205.0966	13.0
229.0966	11.9
231.1488	20.4
241.0969	6.1
243.1123	9.7
259.1435	11.8
271.1069	22.2
273.1228	25.9
273.1591	29.9
282.2786	8.1
283.1070	8.7
291.1699	24.0
300.2892	11.7
301.1176	24.0
301.1535	12.7
317.1499	6.7
317.3237	5.5
318.2996	44.6
319.1282	31.9
319.1643	27.1
319.3029	9.9

Name: Pipecolic acid, (-)-
PrecursorMZ: 130.08621
RT: 3.1666
ExactMass: 129.078978594
Spectrum_type: 2
charge: 1
Formula: C6H11NO2
SMILES: C1CCN[C@@H](C1)C(=O)O
Method: HCD
Collision_energy: [28.333334]
Isolation_window: 4.0
Ion_mode: P
Num Peaks: 7
84.0812	100.0
85.0845	5.9
102.0916	3.4
130.0864	40.2
131.0899	2.6
138.0551	4.9
148.0966	2.0

Name: Piperine
PrecursorMZ: 286.14335
RT: 1.1134076923076923
ExactMass: 285.13649347
Spectrum_type: 2
charge: 1
Formula: C17H19NO3
SMILES: C1CCN(CC1)C(=O)/C=C/C=C/C2=CC3=C(C=C2)OCO3
Method: HCD
Collision_energy: [28.333334]
Isolation_window: 4.0
Ion_mode: P
Num Peaks: 45
69.0702	3.2
69.3116	0.4
69.3137	0.3
69.3989	0.6
81.0701	0.5
84.0810	3.8
86.0966	3.3
95.0856	0.5
97.4574	0.4
109.1012	0.4
112.0757	7.3
113.0789	0.5
115.0541	2.0
135.0438	20.1
136.0471	1.7
143.0489	4.2
144.0523	0.5
150.0912	0.8
151.0990	1.8
159.0438	1.3
161.0594	0.4
171.0438	4.6
172.0469	0.6
173.0595	4.1
174.0625	0.6
185.0959	0.5
201.0346	0.7
201.0391	0.5
201.0542	100.0
201.0697	0.5
201.0736	0.7
202.0575	11.6
203.0598	0.6
215.1064	0.4
284.2943	0.6
285.2416	0.5
286.1097	0.7
286.1166	0.4
286.1430	85.2
286.1694	0.6
286.1759	0.6
287.1465	15.2
287.2011	1.1
288.1476	0.8
288.1594	0.4

Name: Piracetam
PrecursorMZ: 143.08149
RT: 5.7419
ExactMass: 142.074227566
Spectrum_type: 2
charge: 1
Formula: C6H10N2O2
SMILES: C1CC(=O)N(C1)CC(=O)N
Method: HCD
Collision_energy: [28.333334]
Isolation_window: 4.0
Ion_mode: P
Num Peaks: 42
56.0499	0.7
57.0339	1.7
59.0495	1.1
68.0498	0.9
69.5063	0.8
69.5116	0.7
71.0495	1.1
72.0811	0.9
81.0337	0.9
83.0858	0.8
84.0447	2.9
84.0810	1.1
85.0286	5.4
85.0651	0.8
96.0683	30.7
97.0651	0.9
97.0717	1.8
97.0761	3.8
98.0601	1.6
98.0966	0.9
99.0917	0.7
109.0285	0.7
115.0503	2.6
117.0699	1.0
117.1024	0.8
125.0610	0.8
125.0709	100.0
125.0804	0.9
126.0679	0.9
126.0742	8.2
127.0750	0.9
128.0618	0.9
142.0861	2.0
142.1224	1.3
143.0813	23.1
144.0654	1.6
144.0803	3.6
144.0855	1.2
144.1018	1.5
145.0647	0.7
145.0758	1.1
145.1010	2.5

Name: Pivagabine
PrecursorMZ: 188.12798
RT: 4.544875
ExactMass: 187.1208434
Spectrum_type: 2
charge: 1
Formula: C9H17NO3
SMILES: CC(C)(C)C(=O)NCCCC(=O)O
Method: HCD
Collision_energy: [28.333334]
Isolation_window: 4.0
Ion_mode: P
Num Peaks: 27
56.0499	6.9
57.0338	7.6
60.0448	13.6
72.0811	30.5
84.0446	18.9
85.0650	14.4
86.0966	100.0
98.0601	10.1
101.0710	5.9
102.0914	6.7
107.0729	23.2
118.0862	10.9
124.0755	8.5
130.0497	22.3
132.1017	31.9
142.0860	20.5
142.1224	19.5
144.1016	8.6
147.0762	8.5
148.0965	11.0
170.0809	44.4
186.2213	12.8
188.0373	25.4
188.0916	15.2
188.1066	37.5
189.1019	17.1
190.0495	7.8

Name: Pseudolaric Acid C
PrecursorMZ: 391.17488
RT: 2.1495
ExactMass: 390.16785316
Spectrum_type: 2
charge: 1
Formula: C21H26O7
SMILES: C/C(=C\C=C\[C@@]1([C@@H]2CC[C@@]3([C@@]2(CCC(=CC3)C(=O)OC)O)C(=O)O1)C)/C(=O)O
Method: HCD
Collision_energy: [28.333334]
Isolation_window: 4.0
Ion_mode: P
Num Peaks: 26
69.0702	37.6
81.0702	19.1
83.0495	42.1
95.0856	16.8
107.0857	17.1
123.0441	59.9
145.1012	34.3
251.1275	15.3
267.0500	18.4
305.1016	45.1
309.2571	52.1
317.1011	17.4
337.2523	16.5
355.2628	51.3
373.1642	92.6
373.2732	56.7
374.1693	18.6
374.2763	15.6
390.2768	29.2
391.1750	100.0
391.2095	20.7
391.2827	30.4
392.1766	17.5
392.2919	15.2
393.1905	17.5
393.2269	16.6

Name: Pseudouridine
PrecursorMZ: 245.07649
RT: 7.085735714285715
ExactMass: 244.06953611
Spectrum_type: 2
charge: 1
Formula: C9H12N2O6
SMILES: C1=C(C(=O)NC(=O)N1)[C@H]2[C@@H]([C@@H]([C@H](O2)CO)O)O
Method: HCD
Collision_energy: [28.333334]
Isolation_window: 4.0
Ion_mode: P
Num Peaks: 16
97.4312	11.9
98.9843	100.0
125.0345	62.0
155.0450	43.9
163.0502	13.2
167.0450	19.1
173.0207	52.7
179.0448	21.9
191.0449	49.6
209.0553	75.3
226.1066	13.0
244.0965	11.1
244.1180	19.1
245.0776	13.1
245.1129	16.1
246.1255	18.2

Name: Pterin
PrecursorMZ: 164.05669
RT: 6.181075
ExactMass: 163.0494098
Spectrum_type: 2
charge: 1
Formula: C6H5N5O
SMILES: C1=CN=C2C(=N1)C(=O)NC(=N2)N
Method: HCD
Collision_energy: [28.333334]
Isolation_window: 4.0
Ion_mode: P
Num Peaks: 22
69.0338	3.3
91.0543	3.0
101.0598	17.7
104.0706	3.0
105.0335	10.2
123.0439	3.0
136.0755	22.2
137.0458	3.0
146.0810	8.8
162.0547	6.8
162.1123	3.3
163.0502	7.9
163.0751	4.3
164.0565	100.0
164.0704	12.2
165.0213	3.4
165.0406	14.6
165.0540	4.3
165.0600	5.6
165.0658	3.9
165.1017	4.1
166.0856	5.2

Name: Purine
PrecursorMZ: 121.05093
RT: 5.133625
ExactMass: 120.043596145
Spectrum_type: 2
charge: 1
Formula: C5H4N4
SMILES: C1=C2C(=NC=N1)N=CN2
Method: HCD
Collision_energy: [28.333334]
Isolation_window: 4.0
Ion_mode: P
Num Peaks: 10
91.0543	1.0
93.0701	1.0
94.0402	3.7
103.0544	0.9
120.0809	3.3
121.0509	100.0
121.0650	1.0
122.0479	1.3
122.0542	5.2
122.0964	3.7

Name: Pyridine
PrecursorMZ: 80.04985
RT: 1.50355
ExactMass: 79.042199164
Spectrum_type: 2
charge: 1
Formula: C5H5N
SMILES: C1=CC=NC=C1
Method: HCD
Collision_energy: [28.333334]
Isolation_window: 4.0
Ion_mode: P
Num Peaks: 9
53.0391	0.8
80.0266	0.4
80.0453	0.7
80.0498	100.0
80.0542	0.6
80.0562	0.3
81.0470	0.3
81.0532	5.6
96.0446	0.5

Name: Pyridoxal
PrecursorMZ: 168.06559
RT: 4.9545
ExactMass: 167.058243149
Spectrum_type: 2
charge: 1
Formula: C8H9NO3
SMILES: CC1=NC=C(C(=C1O)C=O)CO
Method: HCD
Collision_energy: [28.333334]
Isolation_window: 4.0
Ion_mode: P
Num Peaks: 53
56.0497	2.4
70.0654	4.4
74.0239	13.5
80.0497	3.3
81.0336	2.6
81.0701	3.3
95.0857	5.7
98.0600	2.8
100.0756	2.8
108.0444	3.0
108.0808	5.4
109.0648	5.2
110.0600	3.0
110.0964	2.5
120.0807	6.4
121.0759	9.5
122.0600	16.3
122.0710	2.4
123.0110	3.8
123.0551	2.4
123.0803	3.0
123.0916	73.3
124.0754	6.6
124.0948	4.6
125.0708	5.6
126.0911	4.2
138.0912	23.3
139.0864	50.0
139.0940	3.8
140.0704	3.2
140.0897	3.1
148.0753	4.4
149.0707	5.7
150.0548	100.0
150.0912	2.5
151.0500	4.6
151.0579	7.5
151.0864	2.4
152.0704	3.9
166.0861	17.4
167.0700	3.0
167.0813	56.3
167.0893	3.7
167.1178	2.3
168.0657	53.6
168.0846	3.8
168.1016	12.7
169.0606	6.8
169.0687	4.6
169.0757	21.4
169.0967	6.8
170.0808	5.9
170.1173	2.6

Name: Pyropheophorbide a
PrecursorMZ: 535.26953
RT: 1.5766
ExactMass: 534.26309096
Spectrum_type: 2
charge: 1
Formula: C33H34N4O3
SMILES: CCC1=C(C2=NC1=CC3=C(C4=C(CC(=C5[C@H]([C@@H](C(=CC6=NC(=C2)C(=C6C)C=C)N5)C)CCC(=O)O)C4=N3)O)C)C
Method: HCD
Collision_energy: [28.333334]
Isolation_window: 4.0
Ion_mode: P
Num Peaks: 75
56.3642	0.4
57.0703	0.4
59.4748	5.1
59.5863	1.6
59.6987	2.1
67.0546	0.8
69.0702	0.6
69.1318	0.4
71.0858	0.4
81.0702	1.2
83.0858	0.6
93.0700	0.4
95.0857	1.1
97.0650	0.3
97.1013	0.6
105.0701	0.3
107.0856	0.4
109.1012	0.7
119.0856	0.4
121.1012	0.5
123.1167	0.3
133.1012	0.4
135.1165	0.4
149.0959	0.3
237.2208	0.4
294.2424	0.6
419.1868	0.3
420.2291	0.5
421.2014	0.3
433.2017	1.4
433.2377	0.5
434.2066	0.5
434.2457	1.8
435.2182	0.7
435.2533	7.4
436.2576	2.2
437.2696	2.7
447.2174	4.5
448.2211	1.5
448.2609	0.7
449.2331	1.5
461.2330	1.5
462.2391	1.0
463.2483	1.5
463.2852	2.2
464.2880	0.7
465.3005	0.5
476.2575	0.3
492.2493	0.4
506.2309	2.0
507.2363	0.8
507.2746	8.6
508.2443	1.0
508.2785	2.8
509.2905	4.9
517.2590	0.5
520.2455	1.0
521.2526	0.9
522.2600	0.6
533.3776	0.4
533.3835	0.3
533.4534	0.4
534.2600	1.2
534.5237	3.7
535.1851	0.6
535.2027	0.4
535.2697	100.0
535.3369	0.7
535.3540	0.6
535.3978	0.4
535.5273	1.5
536.2734	36.9
536.5389	1.2
537.2161	0.5
537.2847	44.3

Name: Quinaldic Acid
PrecursorMZ: 174.05494
RT: 1.4869
ExactMass: 173.047678466
Spectrum_type: 2
charge: 1
Formula: C10H7NO2
SMILES: C1=CC=C2C(=C1)C=CC(=N2)C(=O)O
Method: HCD
Collision_energy: [28.333334]
Isolation_window: 4.0
Ion_mode: P
Num Peaks: 48
70.0654	5.4
82.0653	0.7
84.0446	1.0
84.0810	1.3
86.0602	2.0
86.0966	2.6
98.0601	0.6
98.0965	1.3
100.0758	0.6
102.0550	0.5
114.0548	0.6
116.0706	4.1
118.0652	0.9
126.0549	0.6
126.0912	16.6
127.0501	1.9
127.0865	0.9
127.0946	2.7
128.0493	0.9
128.0705	8.9
128.1069	0.7
130.0861	2.2
131.0854	0.7
132.0443	3.3
132.0653	1.3
132.1017	0.7
146.0480	0.6
146.0599	100.0
146.0721	0.7
147.0573	0.5
147.0632	9.5
154.0862	1.8
156.0653	2.8
156.1018	1.4
159.0760	0.5
172.0966	2.5
173.0707	0.5
173.0916	0.6
173.0973	0.9
173.1326	1.1
174.0547	24.1
174.0756	2.5
174.0918	0.6
174.1027	0.7
175.0581	2.7
175.0866	1.0
175.1113	0.8
176.0703	0.8

Name: Raffinose
PrecursorMZ: 505.17575
RT: 10.0012
ExactMass: 504.16903493
Spectrum_type: 2
charge: 1
Formula: C18H32O16
SMILES: C([C@@H]1[C@@H]([C@@H]([C@H]([C@H](O1)OC[C@@H]2[C@H]([C@@H]([C@H]([C@H](O2)O[C@]3([C@H]([C@@H]([C@H](O3)CO)O)O)CO)O)O)O)O)O)O)O
Method: HCD
Collision_energy: [28.333334]
Isolation_window: 4.0
Ion_mode: P
Num Peaks: 9
69.0339	8.8
85.0286	47.2
91.0392	5.0
97.0285	29.3
109.0285	9.9
127.0389	100.0
128.0422	5.9
145.0494	46.2
163.0600	13.5

Name: Riboflavin
PrecursorMZ: 377.14712
RT: 5.7313
ExactMass: 376.13828437
Spectrum_type: 2
charge: 1
Formula: C17H20N4O6
SMILES: CC1=CC2=C(C=C1C)N(C3=NC(=O)NC(=O)C3=N2)C[C@@H]([C@@H]([C@@H](CO)O)O)O
Method: HCD
Collision_energy: [28.333334]
Isolation_window: 4.0
Ion_mode: P
Num Peaks: 8
376.1373	1.8
376.2009	2.0
377.1478	27.1
377.1707	1.9
378.1524	6.7
378.2151	100.0
379.1482	2.3
379.2185	12.5

Name: Rolipram
PrecursorMZ: 276.15906
RT: 1.306
ExactMass: 275.15214353
Spectrum_type: 2
charge: 1
Formula: C16H21NO3
SMILES: COC1=C(C=C(C=C1)C2CC(=O)NC2)OC3CCCC3
Method: HCD
Collision_energy: [28.333334]
Isolation_window: 4.0
Ion_mode: P
Num Peaks: 58
67.0546	2.1
69.0702	3.1
79.0546	1.5
81.0337	1.2
81.0702	3.1
83.0858	1.3
84.0810	15.7
86.0967	81.3
87.1000	3.3
93.0700	3.5
95.0491	1.6
95.0857	2.0
105.0699	1.5
107.0856	2.4
109.1014	1.4
111.0441	1.2
112.0758	20.8
119.0854	1.4
121.1011	1.8
122.0599	2.1
122.0962	1.9
123.0440	4.0
126.0914	2.6
128.1071	1.6
131.0491	8.8
133.1009	1.3
135.1167	1.8
137.0595	3.7
147.1167	1.4
148.0756	9.0
149.0597	11.3
149.1324	1.2
150.0913	9.1
151.1117	2.1
154.1225	3.0
161.1323	1.1
190.0860	1.9
192.1019	1.4
204.1019	2.8
216.1128	1.4
231.1492	1.3
232.1328	3.0
234.1851	1.4
245.1279	1.6
260.1276	2.9
275.1384	5.3
275.1751	26.1
275.1990	2.0
276.1224	1.8
276.1343	1.4
276.1590	100.0
276.1760	3.3
277.1177	1.1
277.1642	14.7
277.2156	7.9
278.1008	1.8
278.1383	1.1
278.1750	6.9

Name: Salicylamide
PrecursorMZ: 138.05476
RT: 1.485
ExactMass: 137.047678466
Spectrum_type: 2
charge: 1
Formula: C7H7NO2
SMILES: C1=CC=C(C(=C1)C(=O)N)O
Method: HCD
Collision_energy: [28.333334]
Isolation_window: 4.0
Ion_mode: P
Num Peaks: 19
67.0546	1.8
70.0653	2.0
79.0544	1.7
91.0542	1.6
93.0698	1.6
94.0651	8.8
110.0599	6.9
111.0914	1.7
112.0756	2.3
122.0598	4.2
136.0754	3.2
137.0595	2.5
138.0546	100.0
138.0909	50.9
139.0498	2.0
139.0578	8.3
139.0862	22.1
139.0940	4.8
140.0339	1.9

Name: Sepiapterin
PrecursorMZ: 238.0935
RT: 5.9864
ExactMass: 237.08618923
Spectrum_type: 2
charge: 1
Formula: C9H11N5O3
SMILES: C[C@@H](C(=O)C1=NC2=C(NC1)N=C(NC2=O)N)O
Method: HCD
Collision_energy: [28.333334]
Isolation_window: 4.0
Ion_mode: P
Num Peaks: 77
67.0546	3.4
69.0700	1.3
70.0654	1.7
79.0544	2.4
81.0701	5.3
83.0494	2.3
83.0858	1.6
84.0446	1.5
91.0543	1.7
93.0700	3.6
95.0856	6.1
96.0445	2.0
97.0648	2.8
105.0699	1.7
107.0855	2.0
108.0445	1.4
109.0648	1.9
109.1013	1.5
110.0600	1.3
111.0441	2.0
111.0553	1.3
116.0704	1.7
117.0699	2.1
119.0855	2.1
121.0647	6.4
121.1009	1.5
123.0804	1.9
125.0595	2.0
130.0498	4.2
131.0854	1.8
135.0802	7.0
136.0755	4.5
139.0750	1.6
142.0497	2.4
146.0595	1.4
150.0546	1.3
159.1166	2.9
164.0705	1.6
167.0558	1.3
167.1429	2.0
173.1322	4.4
177.1272	1.5
183.1167	1.5
191.0811	3.1
191.1426	3.8
192.0652	4.1
192.0783	1.5
192.0876	100.0
192.1017	3.7
193.0904	6.5
193.0978	1.3
194.0267	6.0
194.0809	2.4
201.1270	4.5
219.0756	4.7
219.1377	5.9
220.0823	10.0
220.0963	3.0
221.1533	2.1
222.0216	2.7
222.0756	3.6
236.0911	2.9
237.0859	10.2
237.1225	3.6
237.1480	4.5
237.1595	4.5
238.0707	4.9
238.0931	98.1
238.1062	8.3
238.1183	3.0
238.1434	1.4
239.0961	5.1
239.1004	4.9
239.1378	2.5
240.0864	5.7
240.0972	1.4
240.1224	2.1

Name: Serotonin
PrecursorMZ: 177.10232
RT: 3.0345
ExactMass: 176.094963011
Spectrum_type: 2
charge: 1
Formula: C10H12N2O
SMILES: C1=CC2=C(C=C1O)C(=CN2)CCN
Method: HCD
Collision_energy: [28.333334]
Isolation_window: 4.0
Ion_mode: P
Num Peaks: 38
60.0561	4.9
60.0812	3.9
70.0656	16.1
71.0495	5.3
84.0811	3.7
101.0599	3.8
112.0758	4.2
113.0711	14.1
114.0550	4.0
115.0868	5.7
116.0708	8.6
117.0549	3.4
130.0865	7.2
130.0976	6.3
130.1227	11.3
132.1019	5.7
140.1070	4.6
158.0813	5.1
158.1178	5.3
159.0765	27.8
160.0757	100.0
161.0793	10.8
172.9522	3.3
175.1187	5.3
176.0706	9.1
176.0918	18.6
176.1079	37.0
176.1281	53.4
177.1024	8.7
177.1106	3.2
177.1316	5.2
178.0612	6.2
178.0863	16.2
178.1075	20.7
178.1226	69.9
178.1432	4.9
179.1180	15.0
179.1261	4.4

Name: Sinapaldehyde
PrecursorMZ: 209.08067
RT: 1.1744
ExactMass: 208.07355886
Spectrum_type: 2
charge: 1
Formula: C11H12O4
SMILES: COC1=CC(=CC(=C1O)OC)/C=C/C=O
Method: HCD
Collision_energy: [28.333334]
Isolation_window: 4.0
Ion_mode: P
Num Peaks: 31
55.0547	8.6
57.0702	12.3
59.0495	8.1
67.0546	9.4
73.0651	53.5
81.0701	13.8
89.0599	51.5
93.0700	8.9
95.0492	9.1
95.0857	18.6
99.0441	13.8
107.0856	12.0
118.0651	17.6
131.0853	7.4
133.1010	12.4
139.0752	8.7
146.0599	36.5
153.0909	10.3
163.0752	26.1
167.0701	12.7
173.1323	11.4
178.0859	14.0
181.0857	13.0
191.0699	39.1
191.1425	10.4
208.0755	12.0
208.1692	14.5
209.0804	100.0
209.1533	37.4
210.0836	13.2
210.1126	11.2

Name: Solasodine
PrecursorMZ: 414.33633
RT: 1.3599
ExactMass: 413.329379614
Spectrum_type: 2
charge: 1
Formula: C27H43NO2
SMILES: C[C@@H]1CC[C@@]2([C@H]([C@H]3[C@@H](O2)C[C@@H]4[C@@]3(CC[C@H]5[C@H]4CC=C6[C@@]5(CC[C@@H](C6)O)C)C)C)NC1
Method: HCD
Collision_energy: [28.333334]
Isolation_window: 4.0
Ion_mode: P
Num Peaks: 10
98.0965	0.8
412.3207	0.4
413.3237	0.5
414.2780	0.7
414.2899	0.5
414.3357	100.0
414.3817	0.5
414.3933	0.7
415.3390	27.7
416.3503	5.9

Name: Sphinganine
PrecursorMZ: 302.30513
RT: 3.1958
ExactMass: 301.298079487
Spectrum_type: 2
charge: 1
Formula: C18H39NO2
SMILES: CCCCCCCCCCCCCCC[C@H]([C@H](CO)N)O
Method: HCD
Collision_energy: [28.333334]
Isolation_window: 4.0
Ion_mode: P
Num Peaks: 23
60.0449	100.0
67.0547	7.8
69.0703	9.1
71.0859	4.2
81.0702	11.8
83.0859	8.8
95.0858	18.2
97.1013	7.9
109.1013	8.3
116.0709	6.9
134.0601	6.9
162.0551	9.9
240.2682	4.5
254.2841	15.9
257.1284	16.4
266.2841	11.5
284.2946	80.2
285.1236	3.8
285.2981	15.0
302.3052	72.8
303.1335	14.0
303.3087	12.1
304.2993	5.7

Name: Sphingosine
PrecursorMZ: 300.28951
RT: 2.99789
ExactMass: 299.282429423
Spectrum_type: 2
charge: 1
Formula: C18H37NO2
SMILES: CCCCCCCCCCCCC/C=C/[C@H]([C@H](CO)N)O
Method: HCD
Collision_energy: [28.333334]
Isolation_window: 4.0
Ion_mode: P
Num Peaks: 23
57.0703	8.2
60.0448	49.1
69.0703	9.7
81.0700	8.5
83.0859	8.5
95.0858	13.1
112.8959	8.3
116.0707	22.7
252.2688	10.7
254.2848	9.0
264.2682	7.5
282.2789	100.0
283.1727	7.3
283.2822	19.7
284.2946	42.4
299.2580	9.5
300.2897	10.2
301.1174	13.6
301.1546	10.7
301.1816	8.6
302.1020	10.1
302.2685	7.5
302.3053	30.8

Name: Stachyose
PrecursorMZ: 705.18464
RT: 10.550777777777778
ExactMass: 666.22185834
Spectrum_type: 2
charge: 1
Formula: C24H42O21
SMILES: C([C@@H]1[C@@H]([C@@H]([C@H]([C@H](O1)OC[C@@H]2[C@@H]([C@@H]([C@H]([C@H](O2)OC[C@@H]3[C@H]([C@@H]([C@H]([C@H](O3)O[C@]4([C@H]([C@@H]([C@H](O4)CO)O)O)CO)O)O)O)O)O)O)O)O)O)O
Method: HCD
Collision_energy: [28.333334]
Isolation_window: 4.0
Ion_mode: P
Num Peaks: 6
78.3545	4.9
381.0786	6.3
543.1323	4.7
705.1844	100.0
706.1882	27.4
707.1843	10.6

Name: Sucrose
PrecursorMZ: 343.12293
RT: 9.0611
ExactMass: 342.11621151
Spectrum_type: 2
charge: 1
Formula: C12H22O11
SMILES: C([C@@H]1[C@H]([C@@H]([C@H]([C@H](O1)O[C@]2([C@H]([C@@H]([C@H](O2)CO)O)O)CO)O)O)O)O
Method: HCD
Collision_energy: [28.333334]
Isolation_window: 4.0
Ion_mode: P
Num Peaks: 6
85.0286	88.6
97.0285	46.4
127.0388	100.0
145.0493	71.4
163.0602	18.4
180.0867	21.6

Name: Sulfadimethoxine
PrecursorMZ: 311.08068
RT: 1.5022
ExactMass: 310.07357611
Spectrum_type: 2
charge: 1
Formula: C12H14N4O4S
SMILES: COC1=NC(=NC(=C1)NS(=O)(=O)C2=CC=C(C=C2)N)OC
Method: HCD
Collision_energy: [28.333334]
Isolation_window: 4.0
Ion_mode: P
Num Peaks: 25
68.0499	4.9
81.0337	4.0
81.0702	3.7
86.0967	6.1
95.0858	3.4
108.0445	20.6
136.0757	14.1
146.1175	4.0
152.0705	3.1
155.0689	4.7
156.0114	44.0
156.0768	53.3
157.0800	3.7
168.1018	6.8
209.1173	6.2
218.0230	7.5
237.0759	7.5
237.1121	5.5
245.1031	13.0
291.1225	5.2
309.1320	4.1
309.1817	3.8
311.0805	100.0
311.1613	3.2
312.0842	13.0

Name: Sulfamethazine
PrecursorMZ: 279.09096
RT: 1.5233
ExactMass: 278.08374688
Spectrum_type: 2
charge: 1
Formula: C12H14N4O2S
SMILES: CC1=CC(=NC(=N1)NS(=O)(=O)C2=CC=C(C=C2)N)C
Method: HCD
Collision_energy: [28.333334]
Isolation_window: 4.0
Ion_mode: P
Num Peaks: 6
108.0446	17.3
124.0870	34.7
156.0115	32.0
204.0436	66.3
279.0908	100.0
280.0943	13.2

Name: Swertiamarin
PrecursorMZ: 375.12974
RT: 5.1248000000000005
ExactMass: 374.12129689
Spectrum_type: 2
charge: 1
Formula: C16H22O10
SMILES: C=C[C@H]1[C@@H](OC=C2[C@]1(CCOC2=O)O)O[C@H]3[C@@H]([C@H]([C@@H]([C@H](O3)CO)O)O)O
Method: HCD
Collision_energy: [28.333334]
Isolation_window: 4.0
Ion_mode: P
Num Peaks: 33
57.0338	3.8
61.0287	2.7
69.0338	6.7
73.0287	14.9
84.0443	1.4
85.0286	10.7
86.0965	1.5
87.0443	2.5
97.0285	20.0
98.0318	1.6
115.0389	8.2
172.0867	4.1
200.0816	2.5
214.0971	1.9
216.0762	3.2
243.0871	62.2
244.0907	6.7
257.1027	1.3
260.1024	2.6
285.0976	17.1
286.1014	2.2
297.0971	1.9
339.1079	6.1
340.1123	1.5
357.1187	16.0
358.1222	3.1
374.1606	1.9
375.1099	1.5
375.1294	100.0
375.1547	11.7
376.1327	18.1
376.1562	2.2
377.1322	2.2

Name: Taurine
PrecursorMZ: 126.0219
RT: 8.566378571428572
ExactMass: 125.01466426
Spectrum_type: 2
charge: 1
Formula: C2H7NO3S
SMILES: C(CS(=O)(=O)O)N
Method: HCD
Collision_energy: [28.333334]
Isolation_window: 4.0
Ion_mode: P
Num Peaks: 3
108.0114	60.3
126.0218	100.0
126.0549	15.5

Name: Tenofovir
PrecursorMZ: 288.08544
RT: 8.1149
ExactMass: 287.07834094
Spectrum_type: 2
charge: 1
Formula: C9H14N5O4P
SMILES: C[C@H](CN1C=NC2=C(N=CN=C21)N)OCP(=O)(O)O
Method: HCD
Collision_energy: [28.333334]
Isolation_window: 4.0
Ion_mode: P
Num Peaks: 14
114.0916	10.8
122.0813	7.2
136.0619	7.7
168.0692	7.7
176.0932	23.7
206.1037	7.1
270.0748	13.4
287.1603	12.7
288.0856	100.0
288.1209	7.0
289.0891	9.4
289.1396	5.1
289.1547	6.5
290.1377	29.3

Name: Thymidine
PrecursorMZ: 243.0975
RT: 4.6755
ExactMass: 242.09027155
Spectrum_type: 2
charge: 1
Formula: C10H14N2O5
SMILES: CC1=CN(C(=O)NC1=O)[C@H]2C[C@@H]([C@H](O2)CO)O
Method: HCD
Collision_energy: [28.333334]
Isolation_window: 4.0
Ion_mode: P
Num Peaks: 83
69.0340	3.3
69.0703	3.1
70.0655	3.3
71.0496	3.0
73.0289	2.3
74.0604	3.8
81.0339	11.0
83.0495	6.3
84.0447	3.0
84.0810	2.7
86.0605	2.3
86.0968	74.6
95.0494	2.2
97.0287	2.0
98.0604	2.7
98.0967	9.9
99.0443	7.9
100.1123	6.7
110.0602	3.6
111.0442	3.9
112.0760	2.1
114.0664	72.2
114.0915	2.9
115.0697	2.9
117.0548	16.1
122.0601	1.9
124.0759	1.8
125.0711	1.9
127.0503	42.8
128.0535	2.1
129.0547	4.7
132.1020	2.4
137.0598	2.1
139.0868	2.3
141.0659	1.9
148.0394	10.5
150.0551	2.1
151.0868	2.5
152.0706	3.4
152.0818	1.8
154.0864	2.7
155.0817	2.5
164.0708	2.7
166.0863	4.7
181.0974	3.8
182.0815	3.2
194.0812	2.1
196.0978	2.7
196.1075	2.8
197.1284	7.0
200.0715	2.3
206.0811	2.1
207.1122	2.9
208.0969	1.9
210.0874	1.8
212.1029	3.8
214.0860	2.8
223.1074	2.5
224.0916	3.6
224.1028	7.2
224.1280	2.0
225.0756	2.4
225.0869	2.0
225.1233	15.1
226.1072	5.4
226.1184	3.6
241.1180	9.7
241.1546	1.8
242.0827	4.0
242.1020	12.8
242.1134	100.0
242.1385	6.9
242.1497	5.1
243.1166	9.6
243.1338	19.0
243.1700	6.3
244.0968	4.3
244.1183	22.2
244.1294	4.7
245.0919	2.0
245.1011	2.1
245.1132	2.2
245.1858	6.2

Name: Tomatidine
PrecursorMZ: 416.35143
RT: 1.2598416666666665
ExactMass: 415.345029678
Spectrum_type: 2
charge: 1
Formula: C27H45NO2
SMILES: C[C@H]1CC[C@]2([C@H]([C@H]3[C@@H](O2)C[C@@H]4[C@@]3(CC[C@H]5[C@H]4CC[C@@H]6[C@@]5(CC[C@@H](C6)O)C)C)C)NC1
Method: HCD
Collision_energy: [28.333334]
Isolation_window: 4.0
Ion_mode: P
Num Peaks: 93
67.0545	3.4
69.0701	1.6
70.0654	1.7
70.5278	1.0
76.0396	67.0
77.0429	1.5
79.0545	1.8
81.0701	13.0
83.0857	3.4
85.0650	11.0
89.0598	3.2
93.0700	5.0
95.0856	12.2
105.0699	3.0
107.0855	10.4
109.1012	11.2
111.0805	1.4
114.0913	2.0
119.0855	22.8
120.0887	2.6
121.1011	12.7
123.1167	4.0
126.1276	2.3
131.0853	2.4
133.0857	2.0
133.1010	7.1
135.1166	19.0
136.1201	1.5
145.1010	4.4
147.1166	11.5
148.1199	1.4
149.1323	14.1
150.1358	1.4
151.1115	3.3
158.0810	7.7
159.1166	8.6
161.1322	13.6
162.1357	1.8
163.1115	2.6
163.1480	7.3
165.1271	1.8
172.0965	2.3
173.1324	5.7
175.1478	5.2
177.1271	7.8
177.1635	4.0
179.1430	1.4
185.1322	1.9
186.1123	1.4
187.1479	6.1
189.1634	7.0
191.1427	4.0
199.1478	2.9
201.1634	5.2
203.1790	4.7
205.1582	2.4
213.1634	8.5
214.1665	1.8
215.1791	5.0
217.1949	3.5
219.1741	1.4
226.1431	2.8
227.1791	6.2
229.1946	3.3
231.1738	2.4
231.2104	1.5
240.1588	2.3
241.1945	3.8
245.1896	2.7
252.1589	4.1
254.1746	1.4
255.2102	7.7
256.2137	1.9
266.1746	2.3
267.2098	2.0
273.2206	6.8
280.1895	1.4
294.2053	2.1
306.2055	1.4
320.2209	1.6
323.2726	31.1
324.2760	6.4
341.2830	31.0
342.2867	6.8
398.3406	8.8
399.3434	2.3
416.2922	1.8
416.3155	100.0
416.3514	80.3
417.3186	27.5
417.3547	21.4
418.3230	2.4
418.3571	1.8

Name: Trehalose
PrecursorMZ: 360.14966
RT: 9.4084
ExactMass: 342.11621151
Spectrum_type: 2
charge: 1
Formula: C12H22O11
SMILES: C([C@@H]1[C@H]([C@@H]([C@H]([C@H](O1)O[C@@H]2[C@@H]([C@H]([C@@H]([C@H](O2)CO)O)O)O)O)O)O)O
Method: HCD
Collision_energy: [28.333334]
Isolation_window: 4.0
Ion_mode: P
Num Peaks: 6
85.0287	100.0
97.0285	19.2
127.0388	38.5
145.0495	87.9
163.0600	34.5
325.1128	22.6

Name: Triethyl Citrate
PrecursorMZ: 277.12783
RT: 1.06964
ExactMass: 276.12090297
Spectrum_type: 2
charge: 1
Formula: C12H20O7
SMILES: CCOC(=O)CC(CC(=O)OCC)(C(=O)OCC)O
Method: HCD
Collision_energy: [28.333334]
Isolation_window: 4.0
Ion_mode: P
Num Peaks: 3
133.0495	21.7
157.0495	100.0
234.1851	35.1

Name: Trigonelline
PrecursorMZ: 138.05492
RT: 7.96593125
ExactMass: 137.047678466
Spectrum_type: 2
charge: 1
Formula: C7H7NO2
SMILES: C[N+]1=CC=CC(=C1)C(=O)[O-]
Method: HCD
Collision_energy: [28.333334]
Isolation_window: 4.0
Ion_mode: P
Num Peaks: 44
68.0498	0.1
80.0497	0.6
82.0654	0.1
93.0574	1.7
94.0609	0.1
94.0653	0.4
95.0364	0.1
96.0121	0.1
96.0156	0.1
96.0380	0.3
96.0445	39.0
96.0509	0.2
96.0749	0.1
108.0443	0.1
110.0601	0.9
112.0392	0.2
120.0443	1.0
122.0599	0.4
123.0678	0.5
126.0548	0.1
136.0615	0.2
138.0436	0.2
138.0462	0.1
138.0548	26.5
138.0659	0.2
138.0911	0.7
139.0521	0.1
139.0580	2.1
139.0863	0.1
140.0133	0.2
140.0196	0.2
140.0339	0.5
140.0463	0.1
140.0526	0.1
140.0557	0.2
140.0590	0.8
140.0613	0.6
140.0704	100.0
140.0791	0.5
140.0816	0.7
140.0850	0.3
140.0885	0.1
140.0911	0.1
140.1240	0.3

Name: Trimethylamine oxide
PrecursorMZ: 76.07606
RT: 3.7254
ExactMass: 75.068413911
Spectrum_type: 2
charge: 1
Formula: C3H9NO
SMILES: C[N+](C)(C)[O-]
Method: HCD
Collision_energy: [28.333334]
Isolation_window: 4.0
Ion_mode: P
Num Peaks: 14
58.0656	100.0
59.0694	3.2
59.0735	87.4
60.0768	3.1
70.0656	1.6
72.0812	2.6
76.0761	54.0
77.0794	2.3
80.0499	4.4
83.0607	1.2
84.0812	2.5
86.0967	1.1
87.0920	1.3
94.0655	1.0

Name: Turanose
PrecursorMZ: 360.14967
RT: 9.0773
ExactMass: 342.11621151
Spectrum_type: 2
charge: 1
Formula: C12H22O11
SMILES: C([C@@H]1[C@H]([C@@H]([C@H]([C@H](O1)O[C@@H]([C@@H]([C@@H](CO)O)O)C(=O)CO)O)O)O)O
Method: HCD
Collision_energy: [28.333334]
Isolation_window: 4.0
Ion_mode: P
Num Peaks: 8
85.0287	100.0
97.0287	22.4
114.0915	12.7
127.0390	40.6
145.0495	88.6
163.0601	77.9
325.1129	19.6
358.2697	14.8

Name: Tyrosine Methyl Ester
PrecursorMZ: 196.09678
RT: 2.079
ExactMass: 195.08954328
Spectrum_type: 2
charge: 1
Formula: C10H13NO3
SMILES: COC(=O)[C@H](CC1=CC=C(C=C1)O)N
Method: HCD
Collision_energy: [28.333334]
Isolation_window: 4.0
Ion_mode: P
Num Peaks: 9
119.0493	9.5
136.0756	100.0
137.0596	43.9
147.0440	9.0
179.0702	29.2
195.1126	9.3
195.1491	13.6
196.0968	9.9
197.1072	60.9

Name: Urocanic Acid
PrecursorMZ: 139.05016
RT: 6.4859
ExactMass: 138.042927438
Spectrum_type: 2
charge: 1
Formula: C6H6N2O2
SMILES: C1=C(NC=N1)/C=C/C(=O)O
Method: HCD
Collision_energy: [28.333334]
Isolation_window: 4.0
Ion_mode: P
Num Peaks: 71
54.0341	0.1
56.0498	0.0
68.0498	0.2
69.0338	0.1
81.0447	0.1
82.0525	0.0
82.0654	0.0
93.0448	0.7
94.0482	0.0
95.0288	0.0
95.0522	0.1
95.0550	0.1
95.0605	18.6
95.0669	0.2
95.0705	0.0
95.0904	0.1
96.0445	0.2
96.0635	0.1
96.0682	8.2
96.0985	0.0
97.0397	0.1
97.0760	2.0
100.0394	0.1
110.0350	0.0
110.0601	0.0
119.0353	0.0
121.0396	5.0
121.0483	0.0
122.0365	0.0
122.0429	0.3
123.0552	2.7
125.0470	0.1
137.0456	0.4
137.0649	0.0
138.0425	0.0
138.0490	0.1
138.0547	0.2
138.0911	0.2
139.0388	0.0
139.0411	0.0
139.0500	6.0
139.0587	0.0
139.0614	0.0
139.0751	0.0
139.0864	0.0
139.1228	0.0
140.0474	0.0
140.0533	0.4
140.0704	0.1
140.1067	0.0
141.0083	0.2
141.0143	0.1
141.0308	0.0
141.0413	0.1
141.0443	0.1
141.0478	0.0
141.0507	0.3
141.0542	0.6
141.0566	0.3
141.0655	100.0
141.0746	0.5
141.0771	0.8
141.0802	0.2
141.0836	0.2
141.0866	0.0
141.0904	0.0
141.0931	0.0
141.1031	0.0
141.1198	0.3
141.1218	0.0
141.1739	0.0

Name: Val-Phe
PrecursorMZ: 265.1543
RT: 2.7714
ExactMass: 264.1473925
Spectrum_type: 2
charge: 1
Formula: C14H20N2O3
SMILES: CC(C)[C@@H](C(=O)N[C@@H](CC1=CC=CC=C1)C(=O)O)N
Method: HCD
Collision_energy: [28.333334]
Isolation_window: 4.0
Ion_mode: P
Num Peaks: 35
59.0495	0.3
72.0811	4.3
81.0337	0.4
93.0698	0.3
103.0543	0.5
118.0862	3.2
120.0391	0.3
120.0717	0.7
120.0807	100.0
120.0878	0.7
120.0922	0.3
120.1248	0.3
121.0840	8.1
162.0912	1.0
206.0806	0.8
218.1173	0.6
219.1487	3.2
220.0963	0.4
220.1336	0.4
220.1532	0.3
246.0755	0.3
246.1116	0.3
247.1434	0.3
248.0911	0.3
248.1271	0.4
264.0858	0.4
264.1223	1.2
264.1591	0.3
265.1174	1.2
265.1540	7.8
266.1020	1.0
266.1376	0.6
266.1574	0.9
267.1118	0.3
267.1332	1.2

Name: Val-Tyr
PrecursorMZ: 281.14918
RT: 4.8484
ExactMass: 280.14230712
Spectrum_type: 2
charge: 1
Formula: C14H20N2O4
SMILES: CC(C)[C@@H](C(=O)N[C@@H](CC1=CC=C(C=C1)O)C(=O)O)N
Method: HCD
Collision_energy: [28.333334]
Isolation_window: 4.0
Ion_mode: P
Num Peaks: 42
69.0702	0.4
69.7539	0.4
70.0654	0.4
72.0811	3.7
86.0966	7.4
87.1000	0.9
91.0543	1.8
98.0601	0.4
107.0491	0.4
116.0706	1.4
118.0862	2.5
119.0491	3.9
120.0807	0.9
121.0647	2.4
136.0647	0.8
136.0670	0.7
136.0755	100.0
136.0843	0.4
136.0866	0.7
137.0787	8.5
140.0704	0.5
147.0438	0.5
164.0703	0.4
166.0860	0.7
218.1173	0.5
222.1118	0.4
235.1436	2.5
236.1279	1.2
236.1468	0.3
262.1063	0.4
263.1385	0.4
264.1224	2.2
280.1164	1.0
280.1529	0.5
280.1651	0.4
281.1124	0.5
281.1489	10.4
282.0966	0.4
282.1103	0.3
282.1318	0.7
282.1515	1.7
283.1286	0.8

Name: Xanthine
PrecursorMZ: 153.04054
RT: 6.0013
ExactMass: 152.03342538
Spectrum_type: 2
charge: 1
Formula: C5H4N4O2
SMILES: C1=NC2=C(N1)C(=O)NC(=O)N2
Method: HCD
Collision_energy: [28.333334]
Isolation_window: 4.0
Ion_mode: P
Num Peaks: 33
95.0603	2.4
96.0443	3.5
96.9951	2.2
108.0443	4.3
110.0348	17.5
124.0754	2.5
125.0456	1.9
125.0708	4.3
126.0546	5.0
128.0452	4.9
134.0595	3.1
134.0631	5.3
136.0139	8.3
136.0391	2.0
136.0754	7.5
137.0707	2.3
151.0750	1.8
151.1227	2.6
152.0564	100.0
152.0700	16.7
152.1066	13.2
153.0404	73.7
153.0534	2.4
153.0597	5.4
153.0655	6.3
153.1020	2.0
154.0244	26.3
154.0438	3.8
154.0495	45.3
154.0859	30.1
155.0530	1.8
155.0560	9.2
155.0811	37.4

Name: Xanthurenic Acid
PrecursorMZ: 206.04433
RT: 5.3325
ExactMass: 205.0375077
Spectrum_type: 2
charge: 1
Formula: C10H7NO4
SMILES: C1=CC2=C(C(=C1)O)NC(=CC2=O)C(=O)O
Method: HCD
Collision_energy: [28.333334]
Isolation_window: 4.0
Ion_mode: P
Num Peaks: 14
80.0496	10.2
99.0076	2.7
108.0443	100.0
109.0476	6.5
120.0442	2.7
134.0598	3.2
160.0390	10.2
178.0494	25.0
204.0649	3.3
206.0442	12.1
206.0804	5.6
207.0755	5.7
207.1121	3.2
208.0962	3.4

Name: alpha-(Methylamino)isobutyric acid
PrecursorMZ: 118.08638
RT: 1.5502
ExactMass: 117.078978594
Spectrum_type: 2
charge: 1
Formula: C5H11NO2
SMILES: CC(C)(C(=O)O)NC
Method: HCD
Collision_energy: [28.333334]
Isolation_window: 4.0
Ion_mode: P
Num Peaks: 19
58.0656	100.0
59.0690	4.2
59.0734	2.5
61.0401	10.1
70.0656	22.4
71.0689	1.9
72.0812	6.0
91.0545	2.4
92.0498	3.4
101.0600	1.3
103.0544	1.3
116.0708	5.8
117.0701	1.4
118.0654	1.9
118.0864	37.7
119.0605	1.2
119.0898	2.2
120.0444	4.7
120.0809	12.9

Name: beta-D N-Acetylgalactosamine
PrecursorMZ: 222.09699
RT: 7.425599999999999
ExactMass: 221.0899372
Spectrum_type: 2
charge: 1
Formula: C8H15NO6
SMILES: CC(=O)N[C@@H](C=O)[C@H]([C@H]([C@@H](CO)O)O)O
Method: HCD
Collision_energy: [28.333334]
Isolation_window: 4.0
Ion_mode: P
Num Peaks: 26
60.0448	13.0
84.0447	24.2
87.0443	6.1
96.0445	10.3
97.0285	6.0
97.4319	4.5
98.0602	12.2
126.0549	87.4
127.0389	5.5
127.0582	5.2
138.0548	100.0
139.0582	7.2
144.0654	51.6
159.0651	3.9
163.0388	10.9
168.0654	29.1
175.0864	11.0
177.0657	3.8
186.0758	35.3
204.0863	33.7
221.0917	12.2
222.0761	8.3
222.1121	33.0
223.0711	4.0
223.1070	6.6
224.0913	3.8

Name: gamma-Guanidinobutyric acid
PrecursorMZ: 146.09238
RT: 9.383866666666666
ExactMass: 145.085126602
Spectrum_type: 2
charge: 1
Formula: C5H11N3O2
SMILES: C(CC(=O)O)CN=C(N)N
Method: HCD
Collision_energy: [28.333334]
Isolation_window: 4.0
Ion_mode: P
Num Peaks: 14
69.0339	11.8
84.0446	100.0
85.0286	11.1
87.0442	20.0
87.0554	13.1
102.0551	25.1
104.0706	21.7
120.0114	8.5
121.9661	40.3
123.9643	23.4
129.0658	14.2
130.0498	38.7
146.0922	22.5
148.0967	13.1

Name: p-Aminohippuric acid
PrecursorMZ: 195.07648
RT: 5.6354
Spectrum_type: 2
charge: 1
Method: HCD
Collision_energy: [28.333334]
Isolation_window: 4.0
Ion_mode: P
Num Peaks: 31
89.0600	9.2
94.9299	2.2
107.0605	1.9
119.0605	3.8
133.0861	2.6
135.0554	24.3
137.0711	2.8
148.0759	3.5
149.0347	3.9
150.0916	3.1
152.0706	2.1
175.1230	17.8
176.0707	16.8
176.1265	3.7
177.0658	1.9
177.1025	3.8
178.0863	19.7
179.0816	4.6
183.0763	2.5
193.0973	2.4
193.1335	4.6
194.0812	37.7
194.1176	10.4
195.0765	100.0
195.0838	3.9
195.1126	4.9
196.0798	7.4
196.0968	20.4
197.0924	2.7
197.1072	2.6
211.0713	2.5

Name: (((7a,12b)-7,12-dihydroxy-24-oxocholan-24-yl)amino)ethanesulfonic acid
PrecursorMZ: 464.28238
RT: 0.9974
Spectrum_type: 2
charge: 1
SMILES: O=S(O)(CCNC(CC[C@@H](C)C1CC[C@@]2([H])[C@]3([H])[C@H](O)CC4CCCC[C@]4(C)[C@@]3([H])C[C@@H](O)[C@]12C)=O)=O
Method: HCD
Collision_energy: [28.333334]
Isolation_window: 4.0
Ion_mode: P
Num Peaks: 71
51.5871	5.1
67.0546	3.2
69.0702	3.0
69.1019	4.4
69.2151	3.6
73.0470	2.4
81.0701	14.5
83.0857	3.4
85.0649	2.5
91.0574	6.4
93.0699	4.6
95.0856	9.1
105.0699	4.5
107.0855	7.3
109.1012	8.3
119.0853	6.7
121.1011	7.9
123.1165	3.4
126.0218	56.1
133.1010	7.8
135.1166	10.3
145.1010	4.6
147.1166	9.4
149.0447	2.5
149.1323	9.1
159.1166	5.3
161.1323	10.9
163.1115	4.0
163.1480	4.4
167.0551	5.9
173.1324	2.8
175.1118	2.6
175.1479	6.5
177.1270	4.3
185.1320	4.1
187.1477	4.2
189.1634	5.6
199.1476	2.9
201.1635	10.8
203.1424	3.4
203.1788	3.4
208.0634	17.5
211.1478	6.9
213.1631	3.1
215.1790	16.6
223.0631	20.1
224.0625	2.9
225.0425	12.5
225.1633	2.9
227.1788	2.8
229.1580	6.2
229.1944	3.7
239.1789	2.9
243.1739	3.7
243.2104	3.6
285.0083	2.8
288.1252	2.4
297.0819	4.8
299.0610	19.6
300.0611	4.3
301.0568	3.1
302.1411	2.4
321.2568	8.5
339.2672	17.6
340.2710	4.4
354.1727	3.5
355.0691	4.9
382.2038	3.7
464.2819	100.0
465.2852	28.9
466.2955	6.4

Name: (((7b)-7-hydroxy-24-oxocholan-24-yl)amino)ethanesulfonic acid
PrecursorMZ: 466.29814
RT: 9.9217
Spectrum_type: 2
charge: 1
SMILES: O=S(O)(CCNC(CC[C@@H](C)C1CC[C@@]2([H])[C@]3([H])[C@@H](O)CC4CCCC[C@]4(C)[C@@]3([H])CC[C@]12C)=O)=O
Method: HCD
Collision_energy: [28.333334]
Isolation_window: 4.0
Ion_mode: P
Num Peaks: 96
51.8111	5.7
51.9226	1.5
55.0545	1.7
57.0703	4.9
58.0656	3.1
67.0546	4.2
69.0702	4.1
70.0653	1.6
71.0858	5.0
81.0701	11.2
83.0857	6.9
84.0810	3.0
85.0649	1.9
85.1014	3.8
93.0699	3.7
95.0856	12.2
97.1013	3.5
97.4576	2.9
98.9843	3.0
105.0698	1.9
107.0856	6.4
109.1012	10.1
119.0855	2.5
121.1011	10.2
123.1167	4.1
126.0218	66.0
128.0175	2.2
133.1010	3.9
135.1166	13.6
136.1198	2.0
137.1322	1.5
145.1010	2.2
147.1166	4.4
149.1323	11.5
150.1358	1.5
151.1115	1.8
155.0102	11.0
159.1166	3.3
161.1322	4.1
163.1116	2.6
163.1480	6.5
173.1322	2.1
175.1479	3.6
177.1271	7.2
177.1635	3.1
187.1476	2.1
189.1634	5.1
191.1427	3.9
201.1634	3.0
203.1791	5.5
205.1587	2.1
208.0635	9.4
213.1634	2.4
215.1790	2.4
217.1948	3.3
222.0787	3.4
227.1791	3.0
229.1948	1.8
231.1736	2.1
234.0789	1.6
241.1947	2.2
245.1896	1.7
262.1103	1.5
276.1258	3.7
288.1258	1.6
290.1417	2.4
294.3147	6.3
299.2727	1.4
302.1409	3.1
312.3254	2.7
313.2730	24.5
314.2764	3.3
316.1571	2.6
318.1727	1.4
323.2725	14.0
324.2761	3.0
327.2890	4.4
330.1723	2.2
341.2833	18.9
342.2863	3.3
356.1882	2.1
370.2038	1.5
384.2199	2.2
449.2649	5.7
450.1608	1.5
464.2828	5.6
465.2860	7.7
466.1575	1.5
466.1991	1.9
466.2979	100.0
466.3269	6.3
467.1838	3.2
467.3010	30.4
468.1702	3.7
468.2535	1.9
468.3062	6.2

Name: ((1R,3S,7R,8R,11R,12R,14R,15S,16S)-15-((2R,3S)-3-acetyloxy-6-methyl-5-methylidene-4-oxoheptan-2-yl)-7,12,16-trimethyl-6-oxo-14-pentacyclo(9.7.0.01,3.03,8.012,16)octadec-4-enyl) acetate
PrecursorMZ: 575.33411
RT: 2.9787
ExactMass: 552.34508925
Spectrum_type: 2
charge: 1
Formula: C34H48O6
SMILES: C[C@@H]1[C@H]2CC[C@@H]3[C@]4(C[C@H]([C@H]([C@@]4(CC[C@]35[C@@]2(C5)C=CC1=O)C)[C@@H](C)[C@@H](C(=O)C(=C)C(C)C)OC(=O)C)OC(=O)C)C
Method: HCD
Collision_energy: [28.333334]
Isolation_window: 4.0
Ion_mode: P
Num Peaks: 4
63.9264	4.9
575.3337	100.0
576.3370	35.8
577.3347	2.2

Name: ((1R,3S,7R,8R,11R,12R,14R,15S,16S)-15-((2R,3S)-3-hydroxy-6-methyl-5-methylidene-4-oxoheptan-2-yl)-7,12,16-trimethyl-6-oxo-14-pentacyclo(9.7.0.01,3.03,8.012,16)octadec-4-enyl) acetate
PrecursorMZ: 533.32367
RT: 4.2887
ExactMass: 510.33452456
Spectrum_type: 2
charge: 1
Formula: C32H46O5
SMILES: C[C@@H]1[C@H]2CC[C@@H]3[C@]4(C[C@H]([C@H]([C@@]4(CC[C@]35[C@@]2(C5)C=CC1=O)C)[C@@H](C)[C@@H](C(=O)C(=C)C(C)C)O)OC(=O)C)C
Method: HCD
Collision_energy: [28.333334]
Isolation_window: 4.0
Ion_mode: P
Num Peaks: 3
59.2585	5.1
533.3230	100.0
534.3267	30.2

Name: ((1S,4aS,6S,7R,7aS)-6-acetyloxy-4-(((2R,3R,4S,5S,6R)-3-acetyloxy-4,5-dihydroxy-6-(hydroxymethyl)oxan-2-yl)oxymethyl)-7-(acetyloxymethyl)-7-hydroxy-4a,5,6,7a-tetrahydro-1H-cyclopenta(c)pyran-1-yl) 3-methylbutanoate
PrecursorMZ: 627.22539
RT: 2.5743
ExactMass: 604.23672056
Spectrum_type: 2
charge: 1
Formula: C27H40O15
SMILES: CC(C)CC(=O)OC1C2C(CC(C2(COC(=O)C)O)OC(=O)C)C(=CO1)COC3C(C(C(C(O3)CO)O)O)OC(=O)C
Method: HCD
Collision_energy: [28.333334]
Isolation_window: 4.0
Ion_mode: P
Num Peaks: 13
69.4539	8.6
97.3985	7.5
106.0500	11.5
145.0607	23.0
294.2427	8.5
609.4842	9.8
625.2668	18.1
626.2762	10.4
627.2253	100.0
628.2297	26.9
628.3729	13.7
629.2282	9.4
629.3151	10.0

Name: ((2E,6Z,10Z)-7,11-bis(acetyloxymethyl)-3,15-dimethylhexadeca-2,6,10,14-tetraenyl) acetate
PrecursorMZ: 449.28968
RT: 4.7619
ExactMass: 448.28248899
Spectrum_type: 2
charge: 1
Formula: C26H40O6
SMILES: CC(=CCC/C(=C/CC/C(=C/CC/C(=C/COC(=O)C)/C)/COC(=O)C)/COC(=O)C)C
Method: HCD
Collision_energy: [28.333334]
Isolation_window: 4.0
Ion_mode: P
Num Peaks: 176
55.0546	11.7
57.0339	8.7
57.0704	12.0
67.0547	34.5
69.0703	44.4
70.0655	16.4
71.0495	20.0
71.0859	20.8
79.0546	31.9
81.0339	14.6
81.0702	96.4
83.0494	12.1
83.0859	22.1
85.0651	40.4
87.0444	12.2
91.0545	20.0
93.0701	42.9
95.0494	14.0
95.0858	55.6
97.0650	26.6
97.1014	8.7
97.3984	9.3
99.0443	10.3
99.0807	86.1
101.0600	9.9
105.0701	34.6
107.0493	14.4
107.0857	41.4
109.0650	17.8
109.1014	33.7
111.0442	18.0
111.0806	17.2
113.0599	13.4
113.0963	12.7
117.0700	14.5
118.0654	8.9
119.0857	43.7
121.0649	17.1
121.1013	33.7
123.0805	15.4
123.1169	8.5
125.0598	13.1
125.0962	19.8
126.0913	7.9
129.0549	8.7
129.0700	13.2
131.0856	29.8
133.0647	14.2
133.1012	47.6
135.0805	18.5
135.1169	37.6
137.0458	10.1
137.0596	8.3
137.0960	13.1
139.0754	10.8
143.0702	8.6
143.0855	20.4
145.1013	34.0
147.0804	18.0
147.1169	27.8
149.0962	24.1
149.1325	19.4
151.0755	10.2
151.1118	10.2
153.0911	9.8
155.0854	8.5
157.1012	19.9
159.0803	8.0
159.1169	28.2
160.0756	11.4
161.0962	15.8
161.1326	24.0
163.1118	15.4
163.1482	10.2
165.0912	10.2
167.1066	8.7
169.1013	15.1
171.1168	24.2
173.0962	11.4
173.1325	15.2
175.1119	22.6
175.1482	11.7
177.1275	16.9
180.1019	7.6
181.1010	9.7
183.1170	19.3
185.1324	21.3
187.1119	11.7
187.1480	16.9
189.1275	11.3
189.1635	7.9
191.1066	10.3
191.1430	9.3
193.1224	15.5
195.1168	10.1
195.1375	7.9
197.1325	15.1
199.1118	11.9
199.1481	14.6
201.1272	18.0
201.1637	9.7
203.1429	11.2
205.1224	10.2
207.1378	10.2
209.1324	10.3
210.0913	24.5
211.1481	11.7
213.1280	8.2
213.1637	12.0
215.1429	10.3
217.1222	10.3
217.1584	8.1
219.1379	18.8
221.1537	19.2
223.1479	8.2
223.1692	10.1
225.1270	7.7
225.1638	9.5
227.1432	8.9
233.1537	10.7
237.1486	7.9
237.1632	8.8
239.1635	8.0
239.1792	9.2
241.1589	9.9
243.1377	8.4
243.1746	8.6
245.1534	11.9
247.1691	9.1
255.1744	8.2
259.1693	10.3
261.1845	9.2
269.1897	8.2
273.1853	9.3
275.2000	8.6
283.1695	8.9
285.1846	10.5
287.1384	7.7
287.2002	11.0
297.1845	10.9
299.1999	11.0
301.1794	7.8
313.2147	7.8
315.1945	8.4
319.1890	10.2
325.1543	40.1
333.2048	8.6
355.2629	12.6
367.2629	7.7
377.2483	11.3
379.2638	9.1
395.2576	23.6
397.2743	15.5
413.2672	42.4
414.2715	11.1
415.2480	9.8
415.2829	31.3
430.2658	9.2
431.2785	62.8
431.3133	7.7
432.2814	16.7
433.2581	9.9
433.2933	26.7
447.2702	10.2
448.2157	15.0
448.2747	26.7
448.3057	34.1
449.1920	28.2
449.2275	9.9
449.2879	100.0
450.1976	21.6
450.2376	14.8
450.2902	25.8
450.3229	7.7
451.2093	28.3
451.3039	36.3

Name: ((2R)-1,1,2,3,3-pentadeuterio-2-hydroxy-3-(hydroxy-((5R)-2,3,4,5,6-pentahydroxycyclohexyl)oxyphosphoryl)oxypropyl) heptadecanoate
PrecursorMZ: 614.33573
RT: 1.0588
ExactMass: 591.34319779
Spectrum_type: 2
charge: 1
Formula: C26H51O12P
SMILES: [2H][C@@](C([2H])([2H])OC(=O)CCCCCCCCCCCCCCCC)(C([2H])([2H])OP(=O)(O)OC1C([C@@H](C(C(C1O)O)O)O)O)O
Method: HCD
Collision_energy: [28.333334]
Isolation_window: 4.0
Ion_mode: P
Num Peaks: 22
70.0655	16.3
100.0760	8.0
121.0649	10.9
147.1171	6.6
161.0964	6.5
161.1326	11.5
281.2264	24.9
299.2369	35.6
317.2476	17.1
427.3204	22.5
438.3362	7.1
456.3473	38.2
457.3515	10.3
474.3578	100.0
475.3612	29.0
516.3688	14.8
534.3791	67.7
535.3826	22.6
554.3142	12.8
614.3358	83.7
615.3392	31.7
616.3354	10.1

Name: ((2S)-1,1,2,3,3-pentadeuterio-1-heptadecanoyloxy-3-hydroxypropan-2-yl) (11Z,14Z,17Z)-icosa-11,14,17-trienoate
PrecursorMZ: 676.53501
RT: 3.1999
ExactMass: 637.56935912
Spectrum_type: 2
charge: 1
Formula: C40H72O5
SMILES: [2H][C@](C([2H])([2H])O)(C([2H])([2H])OC(=O)CCCCCCCCCCCCCCCC)OC(=O)CCCCCCCCC/C=C\C/C=C\C/C=C\CC
Method: HCD
Collision_energy: [28.333334]
Isolation_window: 4.0
Ion_mode: P
Num Peaks: 15
60.0448	26.4
67.0546	6.7
69.0703	9.5
81.0702	10.1
83.0859	11.3
95.0857	15.6
109.1013	7.3
224.2371	38.6
242.2477	48.2
272.2582	14.3
478.4619	8.1
496.4722	91.8
497.4758	28.0
514.4828	100.0
515.4863	31.0

Name: ((2S)-3-decanoyloxy-2-dodecanoyloxypropyl) tetradecanoate
PrecursorMZ: 656.58158
RT: 0.9545333333333333
ExactMass: 638.54854008
Spectrum_type: 2
charge: 1
Formula: C39H74O6
SMILES: CCCCCCCCCCCCCC(=O)OC[C@H](COC(=O)CCCCCCCCC)OC(=O)CCCCCCCCCCC
Method: HCD
Collision_energy: [28.333334]
Isolation_window: 4.0
Ion_mode: P
Num Peaks: 37
57.0699	31.4
57.0715	5.2
67.0541	8.0
69.0698	3.6
71.0854	24.0
71.0876	2.8
72.8300	4.6
72.9415	2.0
73.0539	2.4
81.0696	14.1
83.0853	10.9
85.1009	18.4
95.0856	32.2
95.0884	1.9
97.1013	5.4
97.4330	1.7
109.1012	23.2
123.1167	6.2
127.1115	5.7
137.1319	1.7
155.1429	3.7
183.1740	15.8
383.3147	13.0
384.3181	2.9
411.3462	18.8
412.3493	3.4
439.3773	100.0
440.3806	22.6
467.4087	13.9
468.4126	3.6
495.4400	12.9
496.4423	2.3
655.4683	70.4
656.4719	33.7
656.5795	2.6
657.4830	44.8
658.4872	6.7

Name: ((2S,3S)-2-((E,3R,4S)-3,4-dihydroxypent-1-enyl)-6-oxo-2,3-dihydropyran-3-yl) (E)-2-methylbut-2-enoate
PrecursorMZ: 335.08901
RT: 1.447
ExactMass: 296.12598835
Spectrum_type: 2
charge: 1
Formula: C15H20O6
SMILES: C/C=C(\C)/C(=O)O[C@H]1C=CC(=O)O[C@H]1/C=C/[C@H]([C@H](C)O)O
Method: HCD
Collision_energy: [28.333334]
Isolation_window: 4.0
Ion_mode: P
Num Peaks: 18
60.0448	18.6
83.0494	16.9
126.0914	21.1
148.0754	20.1
150.0912	18.5
180.1019	45.8
182.1176	33.3
208.0967	15.9
287.2005	30.6
315.1952	32.3
316.1177	69.6
333.1674	13.7
334.1280	57.7
335.0889	100.0
335.1607	18.7
335.1851	45.8
336.0908	15.9
336.2893	66.3

Name: ((3aR,4R,5R,6E,9Z,11aR)-4-hydroxy-6,10-dimethyl-3-methylidene-2,8-dioxo-4,5,11,11a-tetrahydro-3aH-cyclodeca(b)furan-5-yl) (Z)-2-methylbut-2-enoate
PrecursorMZ: 383.14622
RT: 8.1227
ExactMass: 360.15728848
Spectrum_type: 2
charge: 1
Formula: C20H24O6
SMILES: C/C=C(/C)\C(=O)O[C@H]\1[C@@H]([C@@H]2[C@@H](C/C(=C\C(=O)/C=C1\C)/C)OC(=O)C2=C)O
Method: HCD
Collision_energy: [28.333334]
Isolation_window: 4.0
Ion_mode: P
Num Peaks: 90
69.0704	4.0
71.0495	4.0
81.0703	5.2
83.0495	11.1
87.0445	5.6
88.0395	3.4
93.0702	4.6
96.0446	49.5
97.0650	3.7
101.0598	3.5
107.0493	3.7
110.0714	28.4
111.0443	4.3
121.0649	4.7
123.0805	3.6
126.0914	12.6
131.0854	3.9
135.0805	4.4
137.0597	3.7
141.0658	9.6
143.0452	4.3
145.1012	6.1
147.0805	4.2
149.0961	3.6
154.0863	6.8
156.0769	12.5
157.1014	4.4
168.0656	8.6
169.1013	3.8
171.1166	3.5
173.0962	3.9
182.0812	5.2
185.0963	3.8
187.1120	4.9
191.1068	4.3
199.1119	4.2
213.0505	3.4
215.1068	4.5
217.1223	5.7
221.1282	25.7
222.1315	4.2
228.0501	3.7
233.1176	6.0
235.1326	4.0
251.1273	3.9
267.1331	7.2
267.1358	4.6
283.1691	7.8
285.1487	6.9
285.1852	3.4
299.1642	4.5
301.1797	6.4
303.1589	4.0
311.1640	7.2
313.1429	5.6
313.1797	6.6
327.1588	5.2
329.1746	14.5
331.1538	8.9
331.1902	8.5
337.1140	3.5
345.1697	6.3
347.1233	4.1
347.1478	3.8
347.1849	17.2
349.1646	7.8
349.2003	7.6
363.1794	10.2
364.1837	4.9
365.1952	14.4
367.1751	6.3
367.2122	4.8
381.1084	4.6
381.1287	3.8
381.1884	14.6
382.1113	5.3
382.1327	4.1
382.1605	100.0
382.1935	10.8
383.1199	21.0
383.1460	97.8
383.1642	12.2
383.2029	15.9
384.0681	3.5
384.1147	4.3
384.1485	16.8
384.2077	4.8
385.1433	6.8
385.1649	4.4
385.2221	3.6

Name: ((3aR,4S,6Z,9S,10E,11aR)-9-hydroxy-6,10-dimethyl-3-methylidene-2-oxo-3a,4,5,8,9,11a-hexahydrocyclodeca(b)furan-4-yl) (E)-4-hydroxy-2-methylbut-2-enoate
PrecursorMZ: 385.16002
RT: 8.4384
ExactMass: 362.17293854
Spectrum_type: 2
charge: 1
Formula: C20H26O6
SMILES: C/C/1=C/C[C@@H](/C(=C/[C@@H]2[C@@H]([C@H](C1)OC(=O)/C(=C/CO)/C)C(=C)C(=O)O2)/C)O
Method: HCD
Collision_energy: [28.333334]
Isolation_window: 4.0
Ion_mode: P
Num Peaks: 7
70.0654	11.3
96.0445	9.8
116.0705	26.1
144.0652	8.1
290.1227	17.3
385.1594	100.0
386.1645	17.3

Name: ((4R)-4-((3R,5R,9S,10S,12R,13R,14S,17R)-3,12-dihydroxy-10,13-dimethylhexadecahydro-1H-cyclopenta(a)phenanthren-17-yl)pentanoyl)glycine
PrecursorMZ: 432.31016
RT: 4.640616666666666
ExactMass: 449.31412347
Spectrum_type: 2
charge: 1
Formula: C26H43NO5
SMILES: C[C@H](CCC(=O)NCC(=O)O)[C@H]1CC[C@@H]2[C@@]1([C@@H](C[C@H]3[C@H]2CC[C@H]4[C@@]3(CC[C@H](C4)O)C)O)C
Method: HCD
Collision_energy: [28.333334]
Isolation_window: 4.0
Ion_mode: P
Num Peaks: 77
67.0541	2.0
76.0390	23.3
76.0414	3.1
79.0539	1.9
81.0696	6.4
83.0852	2.0
85.0644	2.9
86.0961	1.7
93.0694	4.2
95.0850	6.1
97.3998	1.9
105.0699	3.8
107.0850	7.2
109.1006	6.5
119.0856	4.7
121.1012	7.0
123.1161	1.9
125.0959	2.0
131.0855	3.2
133.1011	7.0
134.0269	10.8
135.1167	8.1
143.0848	1.6
144.0444	1.8
145.1011	3.7
147.1167	9.2
149.0960	1.8
149.1324	8.2
151.1117	1.8
157.1010	2.0
158.0811	14.0
159.1168	5.9
161.1324	9.8
163.1116	4.5
163.1480	4.3
173.1323	3.5
175.1117	1.9
175.1480	8.0
177.1272	5.6
185.1325	2.9
187.1480	3.9
189.1270	2.2
189.1637	6.0
191.1429	2.0
199.1478	3.4
201.1636	9.2
203.1428	3.1
203.1791	3.0
211.1478	4.9
213.1638	4.0
215.1791	12.2
217.1587	2.3
225.1635	3.2
227.1792	3.0
229.1585	5.5
229.1948	4.7
231.1739	2.6
238.1435	3.2
239.1795	2.6
241.1950	2.8
243.1741	2.4
243.2107	2.7
252.1587	3.3
257.1895	2.6
278.1753	2.3
297.2576	2.0
304.1900	1.6
321.2571	17.4
322.2613	3.8
332.2220	2.0
339.2678	22.6
340.2711	6.6
414.2997	100.0
415.3033	27.3
416.3073	2.6
432.3105	21.0
433.3160	4.9

Name: ((4S,5R,8S,9S,10R,16S)-11-ethyl-8,16-dihydroxy-6-methoxy-13-(methoxymethyl)-11-azahexacyclo(7.7.2.12,5.01,10.03,8.013,17)nonadecan-4-yl) acetate
PrecursorMZ: 432.27384
RT: 5.2844
ExactMass: 449.27773796
Spectrum_type: 2
charge: 1
Formula: C25H39NO6
SMILES: CCN1CC2(CC[C@@H](C34[C@H]1[C@H](CC23)[C@]5(CC([C@H]6CC4C5[C@H]6OC(=O)C)OC)O)O)COC
Method: HCD
Collision_energy: [28.333334]
Isolation_window: 4.0
Ion_mode: P
Num Peaks: 40
67.0545	1.1
81.0336	1.2
81.0700	1.4
83.0857	1.0
86.0966	1.1
95.0855	1.0
100.0757	5.5
101.0597	1.1
110.0600	1.5
112.0756	1.0
119.0856	1.1
126.0913	2.0
131.0854	1.5
138.0912	1.3
146.0269	1.9
189.1270	1.1
246.1126	1.1
248.0913	1.0
279.1737	1.3
290.1015	1.6
297.1843	1.5
332.2212	3.6
333.2249	1.1
368.2571	1.2
370.2360	1.0
386.2680	1.2
396.2527	2.4
414.2315	1.0
414.2628	14.9
414.3348	2.6
415.1857	1.3
415.2658	4.1
415.3396	1.2
431.1830	1.2
431.2614	2.4
432.2474	2.3
432.2733	100.0
433.1964	2.2
433.2766	26.8
434.2799	2.6

Name: ((6E,10Z)-6-formyl-10-(hydroxymethyl)-3-methylidene-2-oxo-3a,4,5,8,9,11a-hexahydrocyclodeca(b)furan-4-yl) 3-methylbutanoate
PrecursorMZ: 363.18006
RT: 0.8907
ExactMass: 362.17293854
Spectrum_type: 2
charge: 1
Formula: C20H26O6
SMILES: CC(C)CC(=O)OC1C/C(=C\CC/C(=C/C2C1C(=C)C(=O)O2)/CO)/C=O
Method: HCD
Collision_energy: [28.333334]
Isolation_window: 4.0
Ion_mode: P
Num Peaks: 100
57.0704	17.2
67.0546	6.4
69.0339	12.2
69.0703	20.9
71.0495	7.6
81.0703	7.1
83.0495	27.8
85.0651	16.5
95.0494	10.1
97.0651	11.0
97.3992	4.2
109.0650	6.7
111.0442	4.2
121.0648	4.4
127.0753	4.9
155.0703	5.3
163.0754	6.1
175.0754	4.4
175.1118	5.5
179.0704	5.9
185.0961	4.4
187.1119	4.0
189.0546	8.1
189.1275	3.7
191.0703	4.4
193.0861	4.7
199.1118	4.7
203.0703	9.8
203.1068	7.3
205.0859	5.2
207.0651	18.6
207.1013	5.4
209.0808	3.7
215.1065	5.7
217.1222	9.1
219.1016	8.6
221.0808	4.0
221.1174	5.0
223.0601	37.3
227.1065	4.1
229.1223	6.3
231.1014	4.7
231.1380	4.0
233.1171	10.5
235.1329	10.1
239.0916	4.7
241.0857	4.3
241.1222	6.0
243.1015	9.2
245.1172	16.0
247.1327	5.3
257.1170	12.4
259.0965	17.2
259.1328	28.6
261.1121	16.8
261.1482	5.7
263.1276	11.4
271.1329	6.0
273.1120	8.0
275.1276	32.0
276.1313	5.1
277.1433	55.2
279.1226	8.6
281.1380	8.2
285.1483	4.3
287.1277	4.7
287.1635	4.9
289.1436	6.8
291.1235	4.8
293.1381	3.9
297.1331	38.8
299.1639	6.9
301.1799	6.3
303.1588	15.4
304.1627	4.6
309.1486	5.9
311.1640	6.8
315.1590	6.9
317.1748	15.4
319.1542	4.2
327.1588	13.8
327.1952	6.1
329.1745	14.9
343.1902	10.2
344.1946	4.4
345.1347	14.4
345.1696	51.3
345.2051	19.1
346.1727	10.0
346.2089	4.0
347.1852	55.8
361.2011	17.8
362.2050	8.8
362.2412	100.0
363.1445	5.6
363.1805	21.0
363.2163	10.2
363.2444	21.6
364.1847	5.4
365.1957	60.3

Name: (+)-Catechin tetramethyl ether
PrecursorMZ: 369.13083
RT: 7.9589
ExactMass: 346.14163842
Spectrum_type: 2
charge: 1
Formula: C19H22O6
SMILES: COC1=C(C=C(C=C1)[C@@H]2[C@H](CC3=C(O2)C=C(C=C3OC)OC)O)OC
Method: HCD
Collision_energy: [28.333334]
Isolation_window: 4.0
Ion_mode: P
Num Peaks: 32
70.0656	9.0
84.0812	21.2
110.0716	6.9
116.0708	6.9
128.0708	9.7
132.0656	9.8
132.0767	5.3
141.0660	8.4
174.0761	6.4
216.0866	21.1
269.1529	5.5
297.1485	6.5
299.1643	5.6
315.1590	9.4
317.1750	9.6
333.1692	11.2
335.1849	9.7
351.1797	10.6
353.1459	10.4
353.1946	6.2
368.1106	6.7
368.1445	14.6
368.1911	6.5
369.1302	100.0
369.1663	20.7
370.1006	14.9
370.1291	20.3
370.1624	11.5
370.1671	7.1
371.1539	38.9
371.1588	44.6
371.1806	5.6

Name: (+)-Catharanthine
PrecursorMZ: 359.17094
RT: 3.5024
ExactMass: 336.183778013
Spectrum_type: 2
charge: 1
Formula: C21H24N2O2
SMILES: CCC1=C[C@H]2C[C@]3([C@@H]1N(C2)CCC4=C3NC5=CC=CC=C45)C(=O)OC
Method: HCD
Collision_energy: [28.333334]
Isolation_window: 4.0
Ion_mode: P
Num Peaks: 9
120.0808	15.9
184.1078	61.2
185.1113	6.7
245.1281	6.5
286.1543	9.5
331.1762	12.9
359.1708	100.0
360.1488	24.2
360.1738	18.4

Name: (+)-Communic acid
PrecursorMZ: 303.23185
RT: 0.5696
ExactMass: 302.224580195
Spectrum_type: 2
charge: 1
Formula: C20H30O2
SMILES: C/C(=C\CC1C(=C)CCC2C1(CCCC2(C)C(=O)O)C)/C=C
Method: HCD
Collision_energy: [28.333334]
Isolation_window: 4.0
Ion_mode: P
Num Peaks: 314
55.0546	3.9
57.0341	7.9
57.0704	16.8
59.0497	49.2
60.0530	1.8
62.0606	9.4
67.0548	39.8
68.0581	1.9
69.0340	5.4
69.0704	35.6
70.0656	1.7
70.0737	2.1
71.0497	12.0
71.0861	14.4
73.0653	3.3
79.0547	11.9
81.0340	1.5
81.0704	76.5
82.0737	5.0
83.0496	8.5
83.0860	24.7
84.0813	3.3
85.0289	1.5
85.0653	14.0
85.1017	7.8
86.0969	8.0
87.0445	7.9
88.0761	1.9
89.0602	6.6
91.0546	10.3
93.0703	33.6
94.0736	2.8
95.0495	6.3
95.0859	89.8
96.0893	5.7
97.0652	16.5
97.1016	22.4
98.1049	1.7
98.9846	5.2
99.0444	9.8
99.0808	12.9
101.0601	12.0
102.0918	1.6
105.0703	18.1
107.0496	1.8
107.0705	1.8
107.0859	39.5
108.0893	3.1
109.0652	8.4
109.1015	56.4
110.1049	5.1
111.0444	7.8
111.0808	11.7
111.1171	9.3
112.0761	23.6
113.0601	10.3
113.0794	1.9
113.0964	8.8
115.0757	6.0
117.0700	4.3
117.0913	14.9
119.0859	24.2
120.0891	2.3
121.0653	4.4
121.1015	52.2
122.1048	4.8
123.0444	3.4
123.0808	11.6
123.1171	36.1
124.1204	4.0
125.0602	3.2
125.0964	11.6
125.1325	2.4
127.0756	5.3
127.1121	3.6
128.1437	10.5
129.0551	3.6
129.0911	1.6
131.0493	3.5
131.0710	2.1
131.0858	11.3
133.0872	2.0
133.1014	30.0
134.1049	2.8
135.0446	2.4
135.0807	7.2
135.1171	35.4
136.1205	4.0
137.0600	21.2
137.0963	10.4
137.1327	15.4
138.0634	1.7
138.0914	1.9
138.1364	1.9
139.0757	4.5
139.1119	11.7
141.0700	3.4
141.0914	3.8
141.1278	4.1
143.0856	3.0
143.1069	2.8
145.1014	16.0
146.1045	1.9
147.0806	3.4
147.1171	25.4
148.1212	2.8
149.0602	2.0
149.0964	11.7
149.1327	22.7
150.1363	2.5
151.0758	5.1
151.0969	3.8
151.1120	11.5
151.1484	4.5
153.0550	4.8
153.0914	3.7
153.1277	6.0
155.1070	3.9
155.1433	1.9
157.0861	2.0
157.1013	4.4
157.1223	1.4
158.1180	2.1
159.0808	1.5
159.1170	15.4
160.1202	1.6
161.0599	2.7
161.0964	6.2
161.1327	20.3
162.1370	2.3
163.0757	5.9
163.1121	9.7
163.1485	12.0
164.0830	3.3
164.1053	2.3
165.0914	19.0
165.1277	7.8
165.1641	2.1
166.0971	2.0
167.0566	7.1
167.1070	4.3
167.1432	4.0
169.0650	9.6
169.1012	1.5
169.1221	3.0
171.1172	5.0
171.1378	2.5
173.0965	2.2
173.1180	2.0
173.1325	14.5
174.1361	1.7
175.0391	3.9
175.1121	4.5
175.1334	3.2
175.1483	10.5
176.0839	2.0
176.1516	1.4
177.0911	4.5
177.1272	5.8
177.1638	4.2
179.1068	3.2
179.1434	6.9
180.1017	2.3
181.0499	3.2
181.1223	4.7
181.1585	1.7
183.1171	2.5
183.1381	1.6
185.1326	4.2
187.1132	2.6
187.1329	3.0
187.1484	9.1
189.0908	2.2
189.1271	3.4
189.1642	10.5
191.1066	4.2
191.1432	4.3
191.1801	2.1
193.1223	4.9
193.1591	3.3
195.1383	5.4
197.0597	4.0
197.1327	2.5
199.0761	4.9
199.1484	3.5
201.1277	1.8
201.1640	4.3
203.0910	2.1
203.1070	2.7
203.1274	2.4
203.1438	2.2
203.1796	3.3
205.1226	2.6
205.1593	3.7
207.1385	4.8
207.1743	1.5
209.1174	47.6
209.1537	4.2
210.1209	6.0
211.1487	2.1
213.1651	2.0
215.1453	1.9
215.1809	2.3
217.1588	1.5
219.1385	1.9
219.1747	2.3
221.1542	1.5
221.1902	1.7
223.1693	3.1
225.1642	1.7
227.0705	21.9
227.1803	2.6
228.0742	3.4
229.1589	2.5
229.1954	6.6
231.1746	1.4
233.1548	2.4
233.2273	1.5
235.1693	1.7
237.1123	37.6
237.1841	2.1
238.1159	5.3
241.1952	3.3
243.2110	10.7
244.2143	2.2
245.2270	3.5
247.1696	3.9
249.1858	2.1
251.1817	2.1
255.1229	12.2
256.2631	2.6
257.1291	8.3
257.1884	2.0
259.2058	4.5
261.1860	2.4
261.2214	30.6
262.1447	2.4
262.2252	5.4
263.2008	2.6
263.2374	3.4
265.1436	2.6
267.2121	2.0
269.1889	1.8
273.1851	2.6
275.2004	4.0
277.1813	3.2
277.2162	21.9
278.2196	4.0
279.2321	100.0
280.2355	20.5
281.2445	3.0
283.1922	1.9
285.1242	7.4
285.2211	4.7
289.2165	1.4
290.2120	1.9
291.1961	2.3
292.2277	1.8
293.1749	6.9
293.2104	2.5
295.2269	8.9
296.2300	1.9
296.2589	4.2
297.1845	2.7
297.2423	44.3
298.2462	9.0
299.0619	5.7
299.2003	1.6
299.2581	5.1
301.1809	2.0
301.2163	7.2
302.1749	6.6
302.2188	3.9
302.3056	11.6
303.2000	2.2
303.2322	25.2
303.2701	2.2
303.3086	2.3
304.1916	4.4
304.2339	7.3
304.2960	1.9
305.2115	2.8
305.2468	5.6
306.2071	5.0
306.2458	1.8
306.2773	2.6
307.1555	2.0
308.2229	1.8
311.1852	9.3
312.1595	13.0
312.1898	1.7
312.2543	2.7
313.1609	3.3
314.2694	6.6
315.0867	1.6
315.1951	5.9
315.2326	3.0
316.1985	2.1
317.1493	3.4
317.2112	4.2
317.2480	2.5
318.2080	1.6
318.3005	9.8
319.1864	2.0
319.2271	5.7
319.2634	5.8
319.3030	1.5
320.1960	8.9
320.2276	2.0
320.2640	1.8
321.2041	2.4
321.2458	4.8
322.2403	1.8
322.2737	4.7

Name: (+)-Dihydrorobinetin
PrecursorMZ: 327.0472
RT: 5.1545
ExactMass: 304.05830272
Spectrum_type: 2
charge: 1
Formula: C15H12O7
SMILES: C1=CC2=C(C=C1O)O[C@@H]([C@H](C2=O)O)C3=CC(=C(C(=C3)O)O)O
Method: HCD
Collision_energy: [28.333334]
Isolation_window: 4.0
Ion_mode: P
Num Peaks: 4
176.8751	79.7
178.8732	30.1
326.3770	29.1
327.0471	100.0

Name: (+)-Epigallocatechin
PrecursorMZ: 307.08089
RT: 7.5019
ExactMass: 306.07395278
Spectrum_type: 2
charge: 1
Formula: C15H14O7
SMILES: C1[C@@H]([C@@H](OC2=CC(=CC(=C21)O)O)C3=CC(=C(C(=C3)O)O)O)O
Method: HCD
Collision_energy: [28.333334]
Isolation_window: 4.0
Ion_mode: P
Num Peaks: 23
79.0181	1.4
81.0338	2.1
84.0811	1.7
97.0286	2.7
97.3996	1.2
125.0234	100.0
126.0267	5.9
177.0546	1.8
181.0495	1.6
242.1020	1.4
288.1073	1.1
289.0704	13.0
290.0747	2.1
290.1235	5.4
306.0964	1.3
307.0927	1.9
307.1274	1.4
307.1649	2.0
308.1102	1.3
308.1138	1.4
308.1346	2.4
309.1077	2.5
309.1803	1.9

Name: (+)-Estrone 3-methyl ether
PrecursorMZ: 285.18396
RT: 2.3862
ExactMass: 284.177630004
Spectrum_type: 2
charge: 1
Formula: C19H24O2
SMILES: C[C@]12CC[C@H]3[C@H]([C@@H]1CCC2=O)CCC4=C3C=CC(=C4)OC
Method: HCD
Collision_energy: [28.333334]
Isolation_window: 4.0
Ion_mode: P
Num Peaks: 22
81.0698	11.1
93.0698	13.7
95.0855	13.9
105.0696	11.3
107.0853	22.4
131.0851	12.0
145.1007	11.5
183.1162	17.7
211.1471	11.3
229.1215	11.2
239.1784	46.6
243.1120	24.6
244.1196	16.1
245.1273	12.6
257.1274	29.0
267.1736	12.8
285.0984	24.4
285.1220	78.1
285.1836	100.0
286.1283	15.1
286.1873	14.7
287.1379	27.3

Name: (+)-Hecogenin
PrecursorMZ: 448.34197
RT: 5.1258
ExactMass: 430.30830982
Spectrum_type: 2
charge: 1
Formula: C27H42O4
SMILES: C[C@@H]1CC[C@@]2([C@H]([C@H]3[C@@H](O2)C[C@@H]4[C@@]3(C(=O)C[C@H]5[C@H]4CC[C@@H]6[C@@]5(CC[C@@H](C6)O)C)C)C)OC1
Method: HCD
Collision_energy: [28.333334]
Isolation_window: 4.0
Ion_mode: P
Num Peaks: 116
67.0547	0.9
69.0703	1.3
71.0496	0.5
73.0288	0.6
79.0546	0.8
81.0339	1.5
81.0703	2.2
82.0655	0.5
83.0859	0.8
84.0812	0.7
85.0652	1.1
87.0444	0.6
89.0600	3.1
91.0545	0.6
93.0701	1.3
95.0858	1.9
97.0650	0.9
97.3993	0.6
99.0807	0.9
100.0759	3.1
105.0702	0.8
107.0857	1.2
109.0650	0.5
109.0762	7.6
109.1014	1.2
110.0602	0.9
111.0444	0.6
111.0806	0.6
114.0915	1.4
117.0700	0.5
119.0857	1.0
121.1014	1.0
125.0962	0.5
128.0707	7.2
129.0748	0.5
130.0499	1.3
130.0650	0.6
131.0856	1.0
133.0859	1.6
133.1013	1.1
135.0804	0.9
135.1168	0.6
140.1070	1.1
143.0857	0.5
145.1013	1.0
147.1170	0.9
149.0963	0.5
157.1011	0.6
158.1185	0.5
159.1169	0.9
161.0962	0.5
161.1325	1.3
163.0390	0.8
163.1120	0.5
169.1014	0.5
171.1170	0.6
173.1328	0.6
175.1120	0.5
177.1122	0.6
183.1168	0.6
185.1326	0.5
193.0319	1.6
201.1276	0.5
213.0659	0.6
222.0914	0.5
255.2107	1.5
268.0966	0.6
273.2213	2.8
274.2252	0.5
277.0526	1.2
285.0867	1.0
285.1232	0.6
325.1550	0.8
329.2953	0.7
347.3060	1.2
364.0848	0.6
377.2480	0.5
383.2944	0.5
395.2595	0.7
411.2525	0.7
411.2895	0.6
412.3201	0.9
413.2687	1.2
414.2991	1.1
429.2640	1.0
429.3002	1.0
430.2721	0.7
430.2828	0.6
430.3315	100.0
430.3534	0.6
430.3925	0.7
431.2428	0.7
431.2787	1.8
431.3349	27.7
432.3379	2.7
447.1794	0.7
447.2108	1.1
447.2725	2.3
447.3101	1.0
447.3584	8.2
448.1495	0.9
448.2520	0.6
448.2747	1.1
448.3072	1.3
448.3370	3.2
448.3412	14.0
448.3639	1.7
449.1723	1.5
449.1935	0.9
449.2282	1.1
449.2532	1.0
449.2857	2.7
449.3444	4.0
450.1982	0.6
450.2907	0.9
467.1218	0.9

Name: (+)-Heliotrine
PrecursorMZ: 336.17768
RT: 4.5531
ExactMass: 313.18892296
Spectrum_type: 2
charge: 1
Formula: C16H27NO5
SMILES: C[C@H]([C@@](C(C)C)(C(=O)OCC1=CCN2[C@H]1[C@H](CC2)O)O)OC
Method: HCD
Collision_energy: [28.333334]
Isolation_window: 4.0
Ion_mode: P
Num Peaks: 48
60.0562	1.7
70.0656	5.6
72.0811	1.8
84.0812	2.7
109.0763	5.3
112.0872	5.1
113.0824	9.6
125.0823	20.2
132.0446	2.4
139.0976	1.8
153.0663	1.8
167.0930	17.1
170.0925	2.9
180.1138	2.4
181.0432	3.1
184.1197	2.0
185.1035	16.5
199.1192	4.8
212.1036	1.7
224.1032	10.6
225.1060	1.5
227.0486	1.3
241.0757	5.1
241.1141	2.0
258.1022	4.9
275.0953	2.8
290.1725	1.5
295.1397	2.0
296.1065	1.6
297.1236	1.3
335.1602	2.3
336.1781	100.0
337.1802	20.4
338.1275	6.5
338.1831	2.7
339.1992	3.7
341.1745	4.8
345.1433	2.3
347.1591	2.2
348.1674	9.0
349.1751	4.2
350.1721	2.3
351.1966	1.2
352.1896	1.5
353.1513	1.2
354.1550	1.5
354.2081	2.2
355.1549	42.1

Name: (+)-Kavain
PrecursorMZ: 213.09091
RT: 3.8775
ExactMass: 230.094294304
Spectrum_type: 2
charge: 1
Formula: C14H14O3
SMILES: COC1=CC(=O)O[C@H](C1)/C=C/C2=CC=CC=C2
Method: HCD
Collision_energy: [28.333334]
Isolation_window: 4.0
Ion_mode: P
Num Peaks: 18
70.0655	1.0
81.0702	1.2
86.0967	1.0
97.3987	1.1
116.0708	1.9
153.0699	12.2
154.0733	1.2
166.1227	2.0
180.0570	1.2
181.0648	18.0
182.0674	1.7
198.0676	2.5
213.0629	1.2
213.0910	100.0
213.0991	0.9
213.1638	0.9
214.0944	13.0
215.1792	2.0

Name: (+)-L-Leucine methyl ester
PrecursorMZ: 146.11757
RT: 1.3008
ExactMass: 145.110278721
Spectrum_type: 2
charge: 1
Formula: C7H15NO2
SMILES: CC(C)C[C@@H](C(=O)OC)N
Method: HCD
Collision_energy: [28.333334]
Isolation_window: 4.0
Ion_mode: P
Num Peaks: 51
57.0703	2.9
58.0656	1.3
59.0734	0.8
60.0812	16.3
62.9295	5.4
64.9277	3.0
69.0703	1.0
72.0447	0.7
84.0447	4.8
84.0811	5.3
85.0481	0.7
86.0604	0.7
86.0913	0.7
86.0968	100.0
86.1022	0.8
87.0444	30.8
87.1001	7.0
88.0477	1.3
90.0341	0.7
90.0552	5.3
97.3998	0.8
103.9558	3.7
105.0700	0.9
105.9539	2.8
106.0653	1.2
118.0653	1.7
121.9663	37.7
121.9697	0.7
122.9697	1.0
123.9644	26.1
144.0808	3.1
144.1019	5.7
144.9821	2.7
145.0648	0.9
145.0761	5.3
145.1011	0.8
145.1052	0.9
146.0237	1.5
146.0600	3.8
146.0967	1.3
146.1176	31.8
146.1540	1.1
146.9803	1.9
147.0553	0.9
147.0804	0.9
147.0917	5.8
147.1166	0.6
147.1211	2.4
148.0757	5.5
148.0868	1.3
148.1121	7.5

Name: (+)-Penbutolol
PrecursorMZ: 292.2271
RT: 6.3168
ExactMass: 291.219829168
Spectrum_type: 2
charge: 1
Formula: C18H29NO2
SMILES: CC(C)(C)NC[C@H](COC1=CC=CC=C1C2CCCC2)O
Method: HCD
Collision_energy: [28.333334]
Isolation_window: 4.0
Ion_mode: P
Num Peaks: 80
69.0703	1.7
70.0656	6.5
71.0859	1.7
72.0448	1.0
80.0499	16.1
81.0339	6.6
83.0495	1.0
84.0812	1.4
86.0968	3.3
95.0606	1.1
96.0447	1.9
96.0810	1.0
97.0651	1.7
98.0968	2.3
101.0600	1.5
111.0443	1.3
112.0759	1.3
114.0552	4.7
114.0914	1.9
116.0708	12.2
120.0809	2.7
124.0394	2.1
130.0863	2.1
130.1590	1.2
132.1020	1.7
147.0764	1.3
150.0915	7.9
166.1227	1.1
170.0603	1.4
179.0702	1.8
183.0803	2.0
195.1129	1.9
204.1384	13.7
205.1417	1.9
212.1281	1.3
215.1065	1.4
221.1410	2.0
222.1489	11.9
223.1525	1.7
231.0917	0.9
232.1078	2.2
247.1442	1.0
248.1029	5.7
249.1023	1.0
256.1079	2.9
273.1250	1.0
274.1187	3.6
274.1431	4.0
275.1385	1.7
276.1229	1.6
290.2118	1.0
291.0821	0.9
291.1126	2.1
291.1340	5.9
291.1702	36.5
291.2050	4.1
291.2427	1.4
292.0589	3.0
292.1164	2.4
292.1296	9.7
292.1542	27.2
292.1671	2.6
292.1726	5.1
292.1924	1.7
292.2143	0.9
292.2270	100.0
293.0922	16.1
293.1128	2.4
293.1286	6.6
293.1496	11.0
293.1858	26.5
293.2229	3.2
293.2302	16.1
294.0949	2.8
294.1092	4.1
294.1330	4.5
294.1506	4.6
294.1693	2.6
294.1822	4.3
294.2063	1.1

Name: (+)-Sclareolide
PrecursorMZ: 251.20029
RT: 4.7482
ExactMass: 250.193280068
Spectrum_type: 2
charge: 1
Formula: C16H26O2
SMILES: C[C@]12CCCC([C@@H]1CC[C@@]3([C@@H]2CC(=O)O3)C)(C)C
Method: HCD
Collision_energy: [28.333334]
Isolation_window: 4.0
Ion_mode: P
Num Peaks: 68
55.0546	10.0
57.0703	10.3
59.0495	12.1
67.0546	57.3
69.0702	15.0
71.0494	5.9
79.0545	14.6
81.0337	28.9
81.0701	81.0
82.0735	7.2
83.0857	13.2
85.0650	6.8
89.0599	52.7
91.0543	11.9
93.0700	23.4
95.0493	23.7
95.0856	100.0
96.0889	6.4
97.0649	6.8
97.1012	7.4
98.9842	10.4
101.0961	8.0
105.0699	13.0
107.0855	19.0
109.0648	6.5
109.1012	77.1
110.1045	6.2
111.0805	5.2
119.0855	16.7
121.0647	13.8
121.1011	26.5
122.0599	10.4
123.0803	8.1
123.1167	27.5
125.0958	6.3
131.0854	21.8
133.0858	13.2
133.1010	15.3
135.0803	6.6
135.1166	19.5
136.0755	9.4
137.0958	10.8
137.1324	5.8
145.1010	14.7
145.1220	7.8
147.1166	14.7
149.0959	8.6
149.1325	10.2
159.1166	10.8
163.1116	6.0
173.1322	7.9
181.1220	5.8
187.1479	10.5
195.1224	5.5
215.1429	5.6
215.1791	13.1
233.1534	22.7
233.1896	15.5
234.1477	5.7
250.1068	14.6
251.1019	24.9
251.1637	20.4
251.2000	78.8
252.0862	9.6
252.1223	9.6
252.1577	7.3
252.2038	12.8
253.1172	5.6

Name: (+)-alpha-Cyperone
PrecursorMZ: 219.17414
RT: 4.9559
ExactMass: 218.167065321
Spectrum_type: 2
charge: 1
Formula: C15H22O
SMILES: CC1=C2C[C@@H](CC[C@]2(CCC1=O)C)C(=C)C
Method: HCD
Collision_energy: [28.333334]
Isolation_window: 4.0
Ion_mode: P
Num Peaks: 56
67.0546	10.0
69.0703	4.8
69.9476	2.4
79.0545	8.0
81.0701	13.5
83.0858	3.8
85.0650	6.8
86.0603	5.1
91.0543	8.2
93.0700	9.9
95.0857	11.1
97.0649	5.1
99.0806	4.2
105.0699	10.3
107.0856	13.7
109.0648	2.7
109.1012	8.4
111.0805	3.8
117.0699	5.0
119.0855	17.8
121.1012	26.2
122.1046	2.8
123.0804	9.2
123.1168	3.0
131.0854	15.7
133.1011	17.6
135.0805	3.0
135.1166	24.1
137.0960	9.9
145.1010	25.9
147.1167	7.1
159.1167	19.0
161.1322	8.5
173.1323	15.1
174.1356	2.5
175.0864	4.0
175.1480	10.9
176.0898	3.8
200.0926	12.6
201.1271	3.8
201.1635	86.2
202.0860	2.7
202.1669	13.6
218.0808	8.7
218.0916	3.3
218.1005	4.7
219.0758	14.9
219.1123	6.1
219.1380	7.6
219.1739	100.0
220.0601	4.1
220.0965	8.4
220.1073	3.7
220.1183	3.8
220.1773	15.5
221.1535	2.7

Name: (+-)-1,2-Dipalmitoylglycerol
PrecursorMZ: 551.50294
RT: 1.0741
ExactMass: 568.50667527
Spectrum_type: 2
charge: 1
Formula: C35H68O5
SMILES: CCCCCCCCCCCCCCCC(=O)OCC(CO)OC(=O)CCCCCCCCCCCCCCC
Method: HCD
Collision_energy: [28.333334]
Isolation_window: 4.0
Ion_mode: P
Num Peaks: 19
55.0546	6.6
57.0703	43.1
67.0546	17.2
69.0702	20.9
69.3794	6.5
71.0858	41.2
81.0701	30.0
83.0857	22.7
85.1013	26.8
89.0598	7.0
95.0856	38.5
97.1012	21.3
97.4572	6.9
109.1012	27.3
111.1169	6.6
123.1167	11.3
550.4899	11.7
551.5020	100.0
552.5042	31.1

Name: (+-)-Cashmeran
PrecursorMZ: 207.17419
RT: 0.9927
ExactMass: 206.167065321
Spectrum_type: 2
charge: 1
Formula: C14H22O
SMILES: CC1C(C2=C(C1(C)C)C(=O)CCC2)(C)C
Method: HCD
Collision_energy: [28.333334]
Isolation_window: 4.0
Ion_mode: P
Num Peaks: 40
57.0703	4.7
67.0546	20.9
69.0703	6.9
79.0546	7.2
81.0702	23.2
83.0858	4.6
85.0651	11.0
91.0545	8.1
93.0701	17.2
95.0858	29.8
97.0650	6.3
97.1015	5.6
105.0700	9.1
107.0493	9.5
107.0857	22.0
109.1013	25.2
119.0857	19.2
121.1013	16.2
123.1169	16.2
133.1012	32.3
135.1168	12.9
137.0961	8.3
147.1169	17.2
149.1326	10.5
151.1119	4.9
161.1326	8.8
162.0551	7.0
163.1482	12.6
189.1638	72.2
190.1669	11.1
205.1589	7.4
206.0247	16.3
206.1176	5.5
207.1124	6.4
207.1743	100.0
208.1332	6.1
208.1694	21.1
208.1783	11.2
209.1077	4.9
225.0429	10.7

Name: (+-)-Normetanephrine
PrecursorMZ: 166.08601
RT: 2.5219
ExactMass: 183.08954328
Spectrum_type: 2
charge: 1
Formula: C9H13NO3
SMILES: COC1=C(C=CC(=C1)C(CN)O)O
Method: HCD
Collision_energy: [28.333334]
Isolation_window: 4.0
Ion_mode: P
Num Peaks: 55
69.1822	1.1
69.5026	0.6
70.0654	0.7
79.0544	0.7
93.0571	1.0
93.0697	0.9
95.0854	0.7
96.0806	1.4
97.4578	0.7
106.0649	24.3
107.0683	1.6
107.0727	3.5
107.0854	0.6
108.0806	0.9
110.0348	0.8
110.0598	3.4
119.0853	0.6
120.0804	2.1
121.0758	4.3
121.1009	0.6
122.0596	0.9
123.0106	1.5
123.0438	0.7
123.0914	7.3
124.0753	6.5
125.0231	1.4
125.0786	0.5
136.0753	2.8
137.0784	0.7
138.0909	1.9
139.0862	1.6
148.0750	3.5
150.0545	3.8
150.0906	0.6
164.0702	2.9
164.1065	0.8
165.0650	0.6
165.0743	0.6
165.0908	0.7
165.1019	0.9
165.1271	0.7
166.0495	1.2
166.0710	0.7
166.0740	0.6
166.0857	100.0
166.0973	0.5
166.1001	0.7
166.1222	0.6
167.0559	3.2
167.0704	0.8
167.0812	3.0
167.0890	9.1
167.1537	1.7
168.0685	9.8
168.1014	0.8

Name: (+-)-Pantothenic acid
PrecursorMZ: 220.11759
RT: 0.708
ExactMass: 219.11067264
Spectrum_type: 2
charge: 1
Formula: C9H17NO5
SMILES: CC(C)(CO)C(C(=O)NCCC(=O)O)O
Method: HCD
Collision_energy: [28.333334]
Isolation_window: 4.0
Ion_mode: P
Num Peaks: 293
56.0498	3.4
57.0339	2.0
57.0703	2.5
58.0657	2.7
59.0496	3.5
60.0449	5.5
67.0547	5.9
68.0499	1.6
69.0338	2.7
69.0703	9.1
70.0291	1.9
70.0656	40.3
71.0495	4.0
71.0690	1.7
72.0448	8.6
72.0812	67.1
73.0288	2.1
73.0845	3.9
74.0605	30.7
79.0546	2.6
80.0500	1.6
81.0339	7.1
81.0702	5.5
82.0655	3.1
83.0495	6.1
83.0860	1.6
84.0448	17.2
84.0811	7.5
85.0288	3.0
85.0652	11.9
86.0604	10.6
86.0968	98.4
87.0444	5.4
87.0807	2.3
87.1001	5.7
88.0395	2.7
90.0553	100.0
91.0539	3.2
91.0589	1.8
93.0703	3.9
94.0654	2.0
95.0495	6.5
95.0856	4.3
96.0446	5.2
96.0810	1.8
97.0288	3.1
97.0650	2.5
97.1013	1.8
98.0239	8.1
98.0603	6.5
98.0967	5.7
99.0444	3.1
100.0395	3.9
100.0759	4.6
100.1122	3.1
101.0600	16.2
102.0554	3.8
103.0756	8.5
104.0708	8.7
105.0701	3.6
107.0494	2.1
107.0857	3.8
108.0447	6.1
108.0809	1.9
109.0284	2.3
109.0653	2.8
109.0760	1.6
109.1016	3.2
110.0603	5.5
111.0444	4.3
111.0557	2.0
112.0397	2.7
112.0760	4.6
113.0600	3.8
113.0710	2.2
114.0552	11.1
114.0914	3.2
115.0391	1.8
116.0345	15.7
116.0708	80.5
117.0751	3.7
118.0864	9.5
119.0857	4.6
120.0659	2.1
120.0810	11.5
121.0652	4.8
121.0842	1.5
121.1015	3.9
122.0599	3.4
123.0806	2.4
124.0393	1.8
124.0758	17.3
125.0234	2.0
125.0599	2.6
125.0710	1.8
125.0961	2.4
126.0550	5.4
126.0919	3.5
127.0392	2.1
128.0708	4.8
128.1069	3.7
130.0500	6.4
130.0862	2.8
131.0491	2.1
131.0854	3.0
132.0809	2.2
132.1019	15.7
133.0648	1.6
133.1008	3.7
134.0964	1.7
135.0807	3.9
135.1168	2.0
136.0757	8.8
137.0602	3.2
137.0963	1.5
138.0545	2.7
138.0913	2.4
140.0343	64.5
140.0704	4.1
141.0380	3.1
142.0500	26.1
142.0862	7.9
143.0534	1.7
144.0656	1.6
145.1011	2.3
147.0805	2.4
147.1169	2.3
148.0757	3.4
149.0598	2.5
149.0958	3.5
150.0550	2.2
150.0910	6.0
151.0750	2.1
152.0707	6.2
152.1070	1.6
154.0500	2.2
154.0866	3.4
156.0656	2.6
156.1022	2.9
158.0812	2.5
159.1170	3.1
160.0757	2.2
160.0972	2.7
161.0958	2.4
161.1077	2.9
161.1326	1.9
162.0544	2.7
162.0917	4.8
163.0752	2.7
163.0868	1.5
163.1118	2.5
164.0706	26.9
164.1065	2.7
165.0546	2.3
165.0742	2.2
165.0908	2.1
166.0514	2.5
166.0862	12.1
167.0700	1.6
168.0654	5.1
168.1023	2.1
170.0445	1.6
170.0563	1.6
172.0967	2.5
172.1335	1.7
173.0924	3.4
173.1288	7.4
174.0762	4.2
174.0916	2.3
174.1124	6.2
175.0753	1.5
175.0871	1.7
175.1245	3.6
176.0701	5.1
177.1030	2.0
178.0859	9.5
179.0701	1.9
179.1182	2.0
180.0649	4.8
180.1016	8.1
181.0972	6.4
181.1341	2.1
182.0811	7.1
182.1163	3.5
183.1134	4.6
184.0967	26.9
184.1328	2.6
185.0993	2.3
185.1295	2.0
186.0906	3.7
186.1121	1.9
187.1446	4.9
188.0702	1.6
188.1278	1.9
189.1027	1.8
190.0843	2.9
191.0826	5.5
191.1046	3.0
192.0655	4.8
192.1016	14.8
193.1341	1.9
194.0809	4.9
194.1172	4.2
195.1140	2.6
196.0970	2.0
196.1332	1.8
197.1286	1.9
198.0744	2.8
198.1123	2.1
201.1244	2.2
202.1074	34.8
203.0814	2.0
203.1107	3.9
203.1431	1.6
204.0649	2.9
205.0977	2.0
206.0805	6.8
207.1140	8.0
208.0602	2.4
208.0950	5.9
209.0923	7.6
209.1165	1.6
210.0752	2.7
210.1127	2.9
211.0720	1.7
212.0912	5.2
212.1257	3.5
214.1082	1.7
214.1438	4.9
215.1416	1.8
216.1234	2.0
217.0976	5.0
218.0812	4.7
218.1011	1.5
219.0770	2.1
219.1130	1.6
219.1353	5.0
220.0606	1.8
220.0967	11.6
220.1178	41.8
221.0934	9.4
221.1273	13.3
221.1528	1.6
222.0759	18.4
222.1109	7.3
223.1096	6.2
223.1452	5.8
224.0915	19.1
224.1262	8.1
225.0921	2.8
225.1233	10.5
225.1589	3.6
226.0711	4.2
226.1050	11.8
227.1028	9.1
227.1398	4.4
227.1765	1.6
228.1237	2.9
229.1184	2.5
229.1545	14.0
230.0805	1.7
230.1013	1.6
230.1183	1.7
230.1384	27.6
231.1114	1.7
231.1368	5.5
231.1685	4.3
232.0966	5.3
232.1175	2.1
233.0929	1.6
233.1278	2.5
233.1503	3.1
234.0752	2.9
234.1126	3.2
234.1331	2.3
235.1075	11.8
235.1434	1.7
236.0901	10.1
236.1279	3.7
237.0874	11.6
237.1247	3.0
238.0704	2.4
238.1080	15.5
238.1405	3.2
239.1042	7.9
239.1389	10.6
239.1774	1.6
240.0861	10.0
240.1219	14.3
240.1588	6.7
240.2320	1.8
241.1172	6.0
241.1571	1.9

Name: (+-)-Sinactine
PrecursorMZ: 340.14991
RT: 6.190300000000001
ExactMass: 339.14705815
Spectrum_type: 2
charge: 1
Formula: C20H21NO4
SMILES: COC1=C(C=C2C3CC4=C(CN3CCC2=C1)C5=C(C=C4)OCO5)OC
Method: HCD
Collision_energy: [28.333334]
Isolation_window: 4.0
Ion_mode: P
Num Peaks: 36
69.0701	6.9
70.0654	8.9
71.0858	4.5
81.0702	6.2
83.0857	7.5
84.0446	5.1
84.0810	11.9
97.1012	5.2
116.0706	9.0
130.0862	5.1
133.0758	8.3
147.0914	5.2
163.0865	5.5
166.0531	9.4
175.0864	39.3
176.0901	4.8
193.0968	40.1
194.1002	6.1
211.1073	51.9
258.0964	6.2
276.1071	15.3
278.1381	4.5
304.1286	5.7
322.1396	4.4
338.3412	16.9
339.1547	11.4
339.1898	9.8
339.3448	5.9
340.1064	8.0
340.1516	100.0
340.1745	11.1
341.1330	4.7
341.1502	16.5
341.1714	11.4
342.1311	5.2
342.1544	6.5

Name: (+/-)-9-hydroxy-5Z,7E,11Z,14Z,17Z-eicosapentaenoic acid
PrecursorMZ: 301.21607
RT: 1.1685
ExactMass: 318.21949481
Spectrum_type: 2
charge: 1
Formula: C20H30O3
SMILES: CC/C=C\C/C=C\C/C=C\CC(/C=C/C=C\CCCC(=O)O)O
Method: HCD
Collision_energy: [28.333334]
Isolation_window: 4.0
Ion_mode: P
Num Peaks: 107
55.0547	1.4
67.0547	3.0
69.0703	2.3
71.0496	2.3
79.0546	2.0
81.0703	16.0
82.0736	0.9
83.0859	3.0
85.0651	1.5
91.0546	2.4
93.0702	12.6
95.0858	18.2
96.0891	0.9
97.1015	2.1
97.3995	1.2
99.0443	9.7
105.0701	11.8
107.0858	11.9
108.0891	0.9
109.1014	6.6
117.0700	2.6
119.0857	13.8
120.0891	1.2
121.1014	19.3
122.1046	1.5
123.0806	1.6
123.1170	4.0
125.0962	1.0
131.0856	10.9
132.0890	1.0
133.1013	19.0
134.1047	2.1
135.1169	9.0
136.1202	0.9
137.1325	1.1
139.0754	1.2
141.0913	2.2
143.0856	2.8
145.1013	13.7
146.1046	1.1
147.1169	9.3
148.1202	1.0
149.0962	3.3
149.1327	2.0
151.1117	1.2
157.1013	5.1
159.1170	24.5
160.1197	2.1
161.0960	1.4
161.1326	8.0
163.1118	3.9
163.1482	1.2
167.1068	3.4
171.1169	5.3
173.1326	6.9
175.1119	2.5
175.1482	1.8
177.1276	1.4
179.1069	1.5
181.1224	1.3
185.1328	4.0
187.1482	38.1
188.1515	5.5
189.1275	3.3
189.1638	8.2
191.1067	1.4
191.1430	1.3
193.1224	3.9
195.1171	1.1
197.1326	1.9
199.1482	3.9
201.1276	1.3
203.1432	0.9
205.1223	1.4
207.1379	9.9
208.1414	1.3
209.1326	1.5
209.1538	1.1
211.1480	1.1
213.1639	4.5
215.1432	1.3
219.1379	1.7
221.1536	2.7
223.1485	1.6
225.1638	3.9
227.1431	1.4
227.1795	15.8
228.1829	2.6
229.1953	3.4
231.1379	0.9
233.1537	2.0
237.1636	1.2
241.1594	1.4
245.1540	2.2
247.1696	1.4
255.1751	2.0
255.2108	3.7
265.1951	3.2
267.2105	1.1
283.2056	12.7
284.2088	2.3
285.2222	2.2
301.1554	1.4
301.2162	100.0
302.2196	19.6
303.1702	1.2
303.2324	14.1

Name: (-)-11,12-Methylenedioxykopsinaline
PrecursorMZ: 399.19138
RT: 6.5074
ExactMass: 398.18417193
Spectrum_type: 2
charge: 1
Formula: C22H26N2O5
SMILES: COC(=O)[C@@]1(C[C@]23CCCN4[C@@H]2[C@@]5([C@]1(CC3)NC6=C5C=CC7=C6OCO7)CC4)O
Method: HCD
Collision_energy: [28.333334]
Isolation_window: 4.0
Ion_mode: P
Num Peaks: 55
70.0655	23.1
72.0812	49.3
73.0845	2.0
84.0810	2.2
89.1076	3.5
95.0858	1.6
98.0603	11.3
100.0759	3.9
107.0493	6.4
111.0442	1.7
114.0915	6.4
115.0868	9.6
128.1070	2.5
168.0691	4.6
187.0388	2.4
223.0753	4.0
225.0909	14.4
239.1066	1.7
247.1441	3.2
248.1281	10.0
249.1319	1.5
265.0857	7.3
265.1545	19.1
266.1581	2.8
267.1015	2.3
276.1228	13.7
277.1266	2.2
293.0805	2.6
293.1495	21.5
294.1522	3.6
322.1186	2.1
336.1591	3.5
338.1750	12.4
339.1791	3.3
353.1857	1.7
355.2013	5.4
363.3007	2.9
381.3112	3.9
382.1646	9.9
383.1675	2.3
397.1832	2.3
397.3036	1.6
398.1622	3.0
398.2101	3.7
398.2677	2.3
398.3408	1.6
399.1502	2.0
399.1585	2.7
399.1912	100.0
399.3213	1.9
400.1947	24.7
400.2228	4.9
401.1731	5.3
401.1973	2.4
401.3364	4.3

Name: (-)-2-Aminobutyric acid
PrecursorMZ: 104.07062
RT: 7.7239
ExactMass: 103.06332853
Spectrum_type: 2
charge: 1
Formula: C4H9NO2
SMILES: CC[C@@H](C(=O)O)N
Method: HCD
Collision_energy: [28.333334]
Isolation_window: 4.0
Ion_mode: P
Num Peaks: 9
56.0498	1.2
58.0655	100.0
58.0685	0.7
59.0688	2.9
84.0809	0.8
103.0542	2.2
104.0706	15.7
104.1068	1.3
105.0698	1.3

Name: (-)-9,10-Dihydrojasmonic acid
PrecursorMZ: 195.13765
RT: 1.1447
ExactMass: 212.1412445
Spectrum_type: 2
charge: 1
Formula: C12H20O3
SMILES: CCCCC[C@@H]1[C@H](CCC1=O)CC(=O)O
Method: HCD
Collision_energy: [28.333334]
Isolation_window: 4.0
Ion_mode: P
Num Peaks: 44
55.0546	4.6
57.0339	4.2
67.0546	27.9
69.0338	3.1
69.0702	5.6
69.3738	2.2
71.0494	8.4
79.0545	20.6
81.0337	100.0
81.0701	19.5
82.0371	6.1
83.0494	24.0
83.0858	4.7
85.0650	3.0
91.0544	17.6
93.0700	23.7
94.0733	2.1
95.0492	9.8
95.0857	12.9
97.0649	12.1
97.3986	1.9
105.0700	9.3
107.0492	10.0
107.0856	14.7
109.0649	4.4
109.1012	7.6
111.0805	3.5
117.0699	15.4
119.0855	5.7
121.0647	44.8
121.1012	8.1
122.0681	3.3
131.0854	16.5
132.0887	1.9
133.1010	14.6
135.0803	8.7
135.1167	4.7
149.0958	2.7
149.1323	3.5
159.1167	11.1
177.1272	4.6
195.1376	45.8
196.1410	5.8
197.1071	2.9

Name: (-)-Anhydroecgonine methyl ester
PrecursorMZ: 182.11747
RT: 6.580500000000001
ExactMass: 181.110278721
Spectrum_type: 2
charge: 1
Formula: C10H15NO2
SMILES: CN1[C@H]2CC[C@@H]1C(=CC2)C(=O)OC
Method: HCD
Collision_energy: [28.333334]
Isolation_window: 4.0
Ion_mode: P
Num Peaks: 36
60.0811	2.3
69.4568	1.2
81.0337	5.6
90.0550	1.5
91.0543	100.0
92.0577	7.5
95.0492	2.1
95.0605	2.8
96.9952	2.9
98.9754	2.1
105.0699	2.0
107.0604	1.8
110.0713	1.3
112.0505	5.2
112.0869	1.3
116.9858	3.7
125.0708	1.5
134.9963	3.9
164.1070	1.2
165.1020	1.8
166.0972	7.2
180.1047	11.8
181.0967	2.9
181.1051	2.6
181.1079	2.8
181.1332	10.5
182.0091	1.3
182.0921	3.5
182.1012	1.9
182.1172	19.5
182.1285	1.5
182.1901	2.5
183.1127	11.2
183.1206	1.9
184.1081	2.7
184.1328	35.9

Name: (-)-Carnitine
PrecursorMZ: 162.11221
RT: 9.0616
ExactMass: 161.10519334
Spectrum_type: 2
charge: 1
Formula: C7H15NO3
SMILES: C[N+](C)(C)C[C@@H](CC(=O)[O-])O
Method: HCD
Collision_energy: [28.333334]
Isolation_window: 4.0
Ion_mode: P
Num Peaks: 101
55.0545	1.1
56.0498	0.8
57.0451	0.8
58.0654	1.0
59.0495	0.4
59.0733	0.5
60.0447	6.0
60.0559	0.7
60.0811	18.7
61.0844	0.5
62.0603	1.4
68.0498	0.7
69.0337	1.2
69.2687	0.4
69.5964	0.4
69.6540	0.5
69.8926	0.4
70.0653	2.6
71.0687	1.4
72.0446	13.5
73.0650	1.5
74.0602	0.6
74.0716	0.5
76.0759	4.0
80.0496	0.5
83.0492	1.0
84.0445	6.9
84.0809	1.0
85.0285	5.4
85.0649	1.8
86.0601	1.3
87.0442	8.2
88.0392	0.3
88.0757	0.9
90.0550	1.9
90.0913	0.9
96.0444	0.8
96.0807	0.4
97.0284	1.2
98.0600	5.9
98.0964	0.5
100.0243	0.6
100.0756	2.5
101.0596	9.0
101.0708	0.5
101.0789	0.4
102.0549	1.1
102.0630	1.0
102.0913	7.1
103.0363	0.3
103.0389	24.0
103.0946	0.4
104.0423	1.1
104.0705	1.6
105.0334	0.8
113.0708	0.8
114.0548	0.8
114.0741	1.4
114.0912	1.6
115.0946	0.4
116.0704	7.4
116.1068	2.8
117.0736	0.4
118.0861	6.4
121.0884	4.3
125.0706	0.5
126.0547	1.9
126.0911	5.4
127.0388	0.9
127.0944	0.4
136.0753	0.4
142.0859	1.0
144.0652	3.7
144.1016	0.7
146.0808	0.6
160.0967	1.8
160.1076	6.1
160.1328	14.2
160.1435	0.7
160.9012	0.6
161.0998	0.5
161.1068	1.7
161.1113	1.1
161.1360	3.2
162.0542	0.8
162.0758	9.0
162.0863	0.4
162.0910	3.4
162.0981	0.5
162.1009	0.4
162.1121	100.0
162.1175	0.8
162.1264	1.8
163.0792	0.6
163.0862	1.0
163.1154	7.4
163.1226	2.5
164.0702	1.9
164.0915	2.5
164.1065	13.7
164.1164	0.4

Name: (-)-Curcumol
PrecursorMZ: 219.17417
RT: 5.0262
ExactMass: 236.177630004
Spectrum_type: 2
charge: 1
Formula: C15H24O2
SMILES: C[C@H]1CC[C@@H]2[C@]13C[C@H]([C@](O3)(CC2=C)O)C(C)C
Method: HCD
Collision_energy: [28.333334]
Isolation_window: 4.0
Ion_mode: P
Num Peaks: 66
55.0546	3.5
67.0546	10.4
69.0703	5.7
79.0545	7.3
81.0701	13.7
83.0494	3.3
83.0857	4.5
85.0650	7.0
88.0759	4.2
91.0543	8.8
93.0700	15.6
95.0493	3.4
95.0856	15.3
97.0649	6.4
99.0806	4.0
101.0596	3.4
105.0699	12.0
107.0856	16.4
109.0649	3.8
109.1012	7.2
111.0804	5.5
117.0699	7.2
119.0603	9.5
119.0855	21.6
121.0647	3.2
121.1011	29.9
122.1046	3.3
123.0803	9.0
123.1167	3.1
130.0860	3.0
131.0854	16.8
133.1010	19.5
135.1166	24.1
137.0959	11.6
145.1010	25.8
146.1044	3.0
147.1167	8.2
157.1011	3.9
159.1167	23.1
160.1199	2.9
161.0959	3.9
161.1322	13.3
163.1115	3.0
173.1324	14.9
175.1479	12.6
183.1164	3.7
185.1321	3.1
191.1426	2.9
201.0654	5.9
201.1274	7.5
201.1634	84.5
202.0862	3.2
202.1668	12.8
203.1428	5.3
218.0813	5.3
218.1014	3.6
219.0758	9.6
219.1124	20.8
219.1377	15.2
219.1739	100.0
220.0605	6.6
220.0965	8.2
220.1173	4.8
220.1774	16.9
221.1531	10.7
221.1895	3.8

Name: (-)-Dehydrocostus lactone
PrecursorMZ: 248.16421
RT: 7.693
ExactMass: 230.130679813
Spectrum_type: 2
charge: 1
Formula: C15H18O2
SMILES: C=C1CC[C@@H]2[C@@H]([C@@H]3[C@H]1CCC3=C)OC(=O)C2=C
Method: HCD
Collision_energy: [28.333334]
Isolation_window: 4.0
Ion_mode: P
Num Peaks: 210
55.0546	1.3
58.0655	0.4
59.0495	1.3
67.0546	0.8
68.0498	0.5
69.0338	1.2
70.0654	2.0
71.0494	0.8
72.0811	0.9
79.0544	0.6
80.0497	0.7
81.0337	2.2
81.0701	0.8
82.0653	1.4
83.0494	3.6
84.0446	0.9
84.0810	1.5
85.0287	0.8
86.0603	7.4
86.0966	1.8
87.0442	1.7
88.0395	1.5
88.0759	4.5
90.0551	0.5
91.0543	0.5
93.0700	0.8
94.0652	0.8
95.0492	0.8
95.0605	0.6
95.0857	1.3
96.0445	0.8
97.0286	0.8
98.0601	1.0
98.0966	0.7
98.9843	1.2
99.0441	1.0
100.0395	0.5
100.0758	23.7
101.0233	0.5
101.0598	14.2
101.0790	0.8
102.0550	1.2
102.0631	0.6
104.0706	0.5
105.0700	0.7
107.0492	0.7
107.0855	0.7
110.0602	0.7
111.0440	0.6
112.0758	3.9
113.0419	1.0
113.0598	0.5
114.0550	1.1
114.0914	0.4
116.0706	1.4
117.0545	1.0
117.0698	0.4
118.0863	1.3
119.0855	0.7
120.0806	0.6
121.0648	0.4
121.1010	0.8
122.0599	0.5
122.0962	0.4
123.0439	0.7
123.0804	0.8
123.0916	0.5
124.0756	0.8
125.0232	1.2
126.0549	0.7
126.0913	2.2
127.0500	0.6
128.0705	3.5
129.0737	0.5
130.0498	1.1
130.0650	0.7
130.0861	1.5
131.0853	0.4
132.0653	4.5
132.0806	0.7
132.1018	0.9
133.1010	0.9
134.0598	0.6
135.1167	0.4
136.0754	0.4
137.0959	0.6
138.0547	0.6
140.0705	7.4
141.0739	0.6
142.0496	0.9
142.0861	1.8
144.0653	0.7
144.0804	0.6
144.1017	1.0
146.0270	1.0
146.0597	1.0
147.0915	1.1
148.0754	0.6
148.0967	3.2
148.1119	30.4
149.0594	0.5
149.0709	0.5
149.0958	0.5
149.1152	2.8
150.0548	3.5
150.0913	1.0
150.1023	0.5
150.1276	0.8
152.0704	0.8
153.0545	0.8
154.0861	2.0
155.0448	0.6
156.0654	1.9
156.0806	3.7
156.1018	2.9
157.0606	0.4
157.0841	0.4
158.0811	1.1
160.0602	0.5
160.0755	0.7
162.0910	0.6
164.0702	1.0
165.0542	0.5
166.0861	1.5
170.0810	0.6
173.0206	0.6
174.0759	1.5
174.0911	1.4
174.1125	0.6
176.1067	0.4
177.0654	0.5
182.1170	0.4
183.0762	1.7
184.0755	0.4
184.0966	2.4
186.0758	0.6
186.1121	2.1
188.0703	2.2
188.0913	0.9
189.0543	1.2
190.0857	0.4
192.1017	0.6
194.0808	0.6
196.0965	0.9
200.1277	1.1
201.1023	0.8
201.1128	0.5
201.1227	1.8
202.0861	1.5
202.1069	4.9
202.1435	0.5
203.0810	0.6
204.0655	0.7
204.0862	0.5
204.1016	1.6
204.1226	0.5
205.0968	0.4
206.0808	0.6
212.0913	2.1
214.1071	1.8
220.0965	2.6
222.1122	1.7
228.1229	0.9
229.0970	0.5
229.1164	0.8
230.0479	0.9
230.0815	2.4
230.1019	10.2
230.1383	1.4
231.0760	1.2
231.1042	0.9
232.0601	0.6
232.0814	0.5
232.0966	1.1
232.1175	5.5
246.1120	0.8
246.1329	1.9
246.1454	1.3
247.0714	0.7
247.0929	1.0
247.1072	5.5
247.1171	0.7
247.1286	4.0
247.1436	9.3
247.1655	1.4
247.2413	0.5
248.0571	0.8
248.0768	0.6
248.0917	7.1
248.1124	7.2
248.1277	7.7
248.1383	3.5
248.1494	11.0
248.1639	100.0
248.1739	1.3
248.1846	0.8
248.1906	0.6
249.0753	1.0
249.0860	4.1
249.1227	9.7
249.1573	3.0
249.1688	13.2
250.0710	1.9
250.0924	1.5
250.1067	12.8
250.1164	0.6
250.1277	3.0
250.1430	6.1
250.1545	2.4
250.1800	3.0

Name: (-)-Galantamine
PrecursorMZ: 270.1491
RT: 4.7679
ExactMass: 287.15214353
Spectrum_type: 2
charge: 1
Formula: C17H21NO3
SMILES: CN1CC[C@@]23C=C[C@@H](C[C@@H]2OC4=C(C=CC(=C34)C1)OC)O
Method: HCD
Collision_energy: [28.333334]
Isolation_window: 4.0
Ion_mode: P
Num Peaks: 29
67.0547	1.7
79.0545	1.9
81.0703	2.8
93.0702	1.8
94.9298	4.2
103.0544	8.0
105.0701	1.5
107.0494	8.7
114.0916	4.3
120.0810	3.0
122.0966	20.6
123.0999	1.5
127.0390	1.9
131.0492	11.3
227.1754	7.7
268.1331	7.1
268.2635	2.4
269.1365	5.4
269.1506	3.2
269.1746	2.0
270.0760	2.5
270.0972	2.1
270.1095	2.3
270.1487	100.0
271.1070	2.3
271.1528	18.2
271.1682	3.3
271.2051	1.5
272.0916	2.8

Name: (-)-Holostyligone
PrecursorMZ: 379.1494
RT: 6.9991
ExactMass: 356.16237386
Spectrum_type: 2
charge: 1
Formula: C21H24O5
SMILES: C[C@@H]1[C@@H](C(=O)C2=CC(=C(C=C2[C@H]1C3=CC(=C(C=C3)O)OC)OC)OC)C
Method: HCD
Collision_energy: [28.333334]
Isolation_window: 4.0
Ion_mode: P
Num Peaks: 13
70.0654	5.8
116.0707	8.9
202.1437	6.1
216.1225	5.9
301.1178	19.4
302.1014	6.6
319.1281	50.2
320.1312	7.7
361.1386	31.7
378.1135	8.9
378.1571	5.0
379.1490	100.0
380.1540	18.9

Name: (-)-Matairesinol
PrecursorMZ: 359.14866
RT: 0.8676
ExactMass: 358.14163842
Spectrum_type: 2
charge: 1
Formula: C20H22O6
SMILES: COC1=C(C=CC(=C1)C[C@H]2COC(=O)[C@@H]2CC3=CC(=C(C=C3)O)OC)O
Method: HCD
Collision_energy: [28.333334]
Isolation_window: 4.0
Ion_mode: P
Num Peaks: 41
57.0704	22.1
85.0651	15.0
135.0806	6.5
145.0647	6.3
149.0598	19.6
177.0910	4.8
187.0755	8.5
189.0544	4.4
205.0860	7.3
215.0702	6.0
215.1064	5.2
217.0491	5.0
229.0859	6.7
231.1016	5.1
233.0806	5.9
233.1172	15.5
243.1379	7.2
247.0967	7.8
253.1226	4.5
257.0808	6.3
261.1484	15.5
271.1329	14.0
273.1119	5.9
275.0913	18.3
276.0965	4.0
283.0965	3.6
289.1434	15.8
290.1467	3.7
295.1329	5.0
299.1277	4.9
301.1070	6.6
313.1432	5.7
331.1537	11.9
341.1380	8.7
343.1899	6.1
358.1289	3.8
359.1487	100.0
359.1829	11.2
360.1521	18.2
361.0450	3.6
361.2006	4.5

Name: (-)-Menthol
PrecursorMZ: 174.18532
RT: 6.1229
ExactMass: 156.151415257
Spectrum_type: 2
charge: 1
Formula: C10H20O
SMILES: C[C@@H]1CC[C@H]([C@@H](C1)O)C(C)C
Method: HCD
Collision_energy: [28.333334]
Isolation_window: 4.0
Ion_mode: P
Num Peaks: 51
57.0704	5.4
58.0656	1.7
62.0605	10.1
70.0655	1.3
71.0859	6.2
80.0498	2.2
81.0339	2.1
88.0760	2.2
95.0606	3.2
97.3987	1.6
98.0602	1.2
109.1013	1.2
114.0916	5.1
116.0708	13.0
118.0651	1.2
119.0857	1.3
128.1071	2.5
130.0651	1.7
130.0864	2.8
130.1592	1.0
146.0601	1.4
147.0917	1.4
148.0759	1.3
155.0604	1.4
156.1020	2.8
156.1748	8.6
157.0761	1.7
172.1810	3.0
173.0711	14.3
173.0781	1.4
173.1074	1.6
173.1332	1.4
173.1650	3.5
174.0221	3.6
174.0550	2.2
174.0661	1.2
174.0749	1.3
174.0916	3.2
174.1027	28.3
174.1124	3.5
174.1488	1.8
174.1853	100.0
175.0868	5.6
175.1059	2.8
175.1119	1.9
175.1483	1.5
175.1887	10.0
176.0706	5.8
176.0827	1.3
176.0912	1.9
176.1071	1.5

Name: (-)-Methyl jasmonate
PrecursorMZ: 225.14829
RT: 1.1313499999999999
ExactMass: 224.1412445
Spectrum_type: 2
charge: 1
Formula: C13H20O3
SMILES: CC/C=C\C[C@@H]1[C@H](CCC1=O)CC(=O)OC
Method: HCD
Collision_energy: [28.333334]
Isolation_window: 4.0
Ion_mode: P
Num Peaks: 22
67.0547	25.3
69.0702	24.2
81.0701	61.2
89.0598	32.0
93.0700	49.8
95.0857	54.8
105.0699	47.0
107.0856	51.7
109.1012	36.0
119.0854	31.6
121.1011	53.4
131.0853	22.5
133.1010	30.9
147.1164	41.2
149.0960	60.9
161.1325	36.8
165.1272	28.5
173.1321	38.9
189.1272	31.0
207.1375	47.1
224.2005	100.0
226.1795	24.7

Name: (-)-Nuciferine
PrecursorMZ: 296.16011
RT: 4.9528
ExactMass: 295.157228913
Spectrum_type: 2
charge: 1
Formula: C19H21NO2
SMILES: CN1CCC2=CC(=C(C3=C2[C@H]1CC4=CC=CC=C43)OC)OC
Method: HCD
Collision_energy: [28.333334]
Isolation_window: 4.0
Ion_mode: P
Num Peaks: 63
55.0546	3.1
67.0546	8.8
69.0702	3.8
69.2549	2.5
71.0858	9.7
79.0545	4.5
81.0337	2.0
81.0701	7.7
83.0493	2.3
83.0858	4.4
86.0966	2.4
91.0544	2.5
93.0700	5.8
95.0493	1.9
95.0856	6.1
97.1012	5.2
97.4575	2.3
99.0805	9.4
105.0699	3.2
107.0604	2.8
107.0855	6.6
109.1012	5.8
119.0855	3.0
121.1011	4.8
125.0960	5.1
133.1011	3.4
135.1166	4.7
136.0754	3.3
147.1165	2.6
149.1325	2.7
150.0548	6.7
151.1116	7.8
161.1072	47.5
161.1323	5.2
162.1093	3.4
163.1116	3.2
163.1227	2.2
175.1227	16.8
176.0342	3.4
179.1177	4.1
179.1428	2.5
189.1117	3.9
232.0963	3.5
232.1443	2.4
234.1121	5.8
259.2055	2.7
260.0911	2.6
277.2156	23.0
278.1017	12.5
278.1494	100.0
278.2187	4.9
279.1531	14.8
295.1271	6.3
295.1637	2.7
295.2262	8.5
296.1122	22.1
296.1600	59.4
296.2298	2.0
297.1172	2.5
297.1440	2.8
297.1632	7.6
298.1279	2.8
298.1635	2.3

Name: (-)-Propionylcarnitine
PrecursorMZ: 218.13845
RT: 9.2773
ExactMass: 217.13140809
Spectrum_type: 2
charge: 1
Formula: C10H19NO4
SMILES: CCC(=O)O[C@H](CC(=O)[O-])C[N+](C)(C)C
Method: HCD
Collision_energy: [28.333334]
Isolation_window: 4.0
Ion_mode: P
Num Peaks: 9
104.1070	17.8
158.0812	12.3
159.0652	7.0
172.9522	7.8
217.1292	17.6
218.1174	9.2
218.1383	100.0
219.1124	17.8
219.1419	8.6

Name: (-)-Sophocarpine
PrecursorMZ: 269.16072
RT: 10.672
ExactMass: 246.17321333
Spectrum_type: 2
charge: 1
Formula: C15H22N2O
SMILES: C1C[C@H]2CN3[C@H](CC=CC3=O)[C@@H]4[C@H]2N(C1)CCC4
Method: HCD
Collision_energy: [28.333334]
Isolation_window: 4.0
Ion_mode: P
Num Peaks: 60
55.0547	2.1
58.0657	2.1
60.0812	2.9
70.0656	4.9
72.0811	3.3
82.0654	2.4
84.0812	10.0
100.0759	2.4
101.0600	5.6
108.0446	2.2
110.0601	2.2
110.0715	6.9
111.0443	2.9
124.0394	8.0
126.0552	2.5
127.0867	7.4
130.0864	2.6
140.0706	1.8
144.1019	4.2
164.0820	32.0
165.0852	2.4
170.0813	10.3
183.1492	6.3
209.1046	4.4
210.0874	100.0
211.0911	9.0
211.1441	31.8
212.1028	12.0
212.1478	2.6
233.1651	2.6
251.1752	4.6
252.0865	3.7
254.1246	2.0
267.1699	8.5
268.1180	8.7
268.1540	13.3
268.1660	3.0
268.1780	4.4
268.2021	18.5
269.1127	2.9
269.1290	3.2
269.1493	17.2
269.1610	21.6
269.1841	7.1
269.2054	2.3
270.0973	48.3
270.1105	2.1
270.1132	2.3
270.1335	65.4
270.1454	2.5
270.1704	5.1
270.1820	3.2
270.2175	73.8
271.0998	4.3
271.1274	3.3
271.1410	3.9
271.1512	13.1
271.1651	4.6
271.1768	4.8
271.2211	6.8

Name: (-)-Tetrahydrocolumbamine
PrecursorMZ: 342.16935
RT: 7.7071
ExactMass: 341.16270821
Spectrum_type: 2
charge: 1
Formula: C20H23NO4
SMILES: COC1=C(C2=C(C[C@H]3C4=CC(=C(C=C4CCN3C2)OC)O)C=C1)OC
Method: HCD
Collision_energy: [28.333334]
Isolation_window: 4.0
Ion_mode: P
Num Peaks: 7
58.0655	15.4
265.0853	100.0
266.0883	14.3
297.1111	60.3
298.1148	14.3
342.1692	91.6
343.1734	17.6

Name: (-)-Tetrahydropalmatine
PrecursorMZ: 356.18529
RT: 7.8765
ExactMass: 355.17835828
Spectrum_type: 2
charge: 1
Formula: C21H25NO4
SMILES: COC1=C(C2=C(C[C@H]3C4=CC(=C(C=C4CCN3C2)OC)OC)C=C1)OC
Method: HCD
Collision_energy: [28.333334]
Isolation_window: 4.0
Ion_mode: P
Num Peaks: 43
58.0656	18.7
70.0656	5.1
72.0812	34.5
73.0846	1.4
81.0339	1.9
84.0813	1.6
101.0601	1.1
111.0444	1.7
114.0915	1.8
118.0866	1.1
150.0912	1.6
156.1020	2.9
176.8755	1.4
181.0972	1.4
246.1125	5.6
257.1171	3.0
260.1279	2.6
261.1557	1.7
279.1011	2.1
280.1092	4.6
284.1046	1.1
285.1120	3.8
296.1042	3.5
311.1274	4.2
338.1597	7.2
339.1653	1.2
354.1551	1.9
354.1707	1.1
354.1919	1.4
355.1643	7.3
355.1877	3.4
355.2023	1.4
356.1341	10.2
356.1696	15.1
356.1866	100.0
356.2450	1.1
357.1440	3.2
357.1728	3.7
357.1893	21.6
357.2151	2.0
358.1457	4.6
358.1673	2.3
358.2109	4.0

Name: (-)-Vasicine
PrecursorMZ: 171.09169
RT: 4.3614
ExactMass: 188.094963011
Spectrum_type: 2
charge: 1
Formula: C11H12N2O
SMILES: C1CN2CC3=CC=CC=C3N=C2[C@H]1O
Method: HCD
Collision_energy: [28.333334]
Isolation_window: 4.0
Ion_mode: P
Num Peaks: 9
72.0447	4.7
89.0711	5.0
109.1013	4.3
126.0913	32.8
162.0552	4.5
170.0789	4.6
171.0915	100.0
171.1489	15.8
172.0949	13.2

Name: (-)-Vasicinone
PrecursorMZ: 203.08136
RT: 8.8971
ExactMass: 202.074227566
Spectrum_type: 2
charge: 1
Formula: C11H10N2O2
SMILES: C1CN2C(=NC3=CC=CC=C3C2=O)[C@H]1O
Method: HCD
Collision_energy: [28.333334]
Isolation_window: 4.0
Ion_mode: P
Num Peaks: 18
81.0338	9.6
125.0234	70.5
185.0708	75.9
186.0746	9.7
192.1017	12.9
201.1068	6.5
201.1311	11.7
202.0862	35.4
202.1069	12.2
202.1191	11.3
202.1435	36.6
203.0814	100.0
203.1181	7.1
204.0657	12.3
204.0865	12.8
204.1018	77.9
204.1226	7.1
205.0970	19.4

Name: (1,3-Dihydroxy-1-(7-methoxy-2-oxochromen-6-yl)-3-methylbutan-2-yl) 3-methylbut-2-enoate
PrecursorMZ: 377.15942
RT: 0.8676
ExactMass: 376.1522031
Spectrum_type: 2
charge: 1
Formula: C20H24O7
SMILES: CC(=CC(=O)OC(C(C1=C(C=C2C(=C1)C=CC(=O)O2)OC)O)C(C)(C)O)C
Method: HCD
Collision_energy: [28.333334]
Isolation_window: 4.0
Ion_mode: P
Num Peaks: 47
57.0703	14.3
85.0651	8.4
95.0494	3.9
149.0598	6.9
177.0908	2.8
187.0752	3.5
205.0858	3.8
209.0813	3.5
215.1065	3.4
229.0858	3.1
231.1018	3.7
233.0806	2.9
233.1171	10.7
243.1378	3.4
247.0964	5.1
257.1171	3.4
259.1329	3.7
261.1484	10.7
271.1328	7.8
273.1118	3.6
275.0912	11.3
275.1278	7.9
289.1078	3.1
289.1433	12.1
290.1023	5.1
299.1273	3.9
301.1071	3.5
303.1221	3.0
313.1434	4.2
331.1537	7.7
341.1383	4.6
341.1743	4.3
346.2022	3.5
357.1692	3.5
359.1488	65.6
359.1832	16.0
360.1522	12.8
360.1882	4.0
361.1665	3.1
361.2010	8.7
376.1394	4.7
376.2008	3.7
377.1595	19.2
377.1955	14.8
378.1652	3.8
378.2152	100.0
379.2182	12.6

Name: (1,6-Dihydroxy-8-(hydroxymethyl)-4,12,12,15-tetramethyl-14-(2-methylpropanoyloxy)-5-oxo-13-tetracyclo(8.5.0.02,6.011,13)pentadeca-3,8-dienyl) 2-ethylbutanoate
PrecursorMZ: 533.31051
RT: 0.8774
ExactMass: 532.30361836
Spectrum_type: 2
charge: 1
Formula: C30H44O8
SMILES: CCC(CC)C(=O)OC12C(C1(C)C)C3C=C(CC4(C(C3(C(C2OC(=O)C(C)C)C)O)C=C(C4=O)C)O)CO
Method: HCD
Collision_energy: [28.333334]
Isolation_window: 4.0
Ion_mode: P
Num Peaks: 17
69.0040	5.6
69.0060	2.9
97.4574	5.7
119.0854	5.4
157.1010	100.0
158.1043	10.5
175.1114	33.4
176.1151	3.2
185.1321	30.9
186.1356	3.7
203.1428	6.9
213.1267	3.5
231.1374	17.8
249.1479	16.8
250.1515	2.8
267.1584	22.0
268.1618	3.1

Name: (1-carboxy-2-(1H-indol-3-yl)ethyl)-trimethylazanium
PrecursorMZ: 247.14353
RT: 6.3176
ExactMass: 247.144652853
Spectrum_type: 2
charge: 1
Formula: C14H19N2O2+
SMILES: C[N+](C)(C)C(CC1=CNC2=CC=CC=C21)C(=O)O
Method: HCD
Collision_energy: [28.333334]
Isolation_window: 4.0
Ion_mode: P
Num Peaks: 15
60.0812	56.0
61.0845	1.9
86.0967	2.7
118.0653	1.0
133.0608	1.1
144.0806	5.8
146.0599	35.5
147.0632	3.3
170.0599	1.6
188.0704	100.0
189.0738	12.4
247.1438	6.4
248.1477	1.2
249.1229	1.2
249.1584	2.0

Name: (11-methyl-2,7-dimethylidene-6,12-dioxo-5,14-dioxatricyclo(9.2.1.04,8)tetradec-1(13)-en-9-yl) (Z)-2-methylbut-2-enoate
PrecursorMZ: 359.14886
RT: 1.0257
ExactMass: 358.14163842
Spectrum_type: 2
charge: 1
Formula: C20H22O6
SMILES: C/C=C(/C)\C(=O)OC1CC2(C(=O)C=C(O2)C(=C)CC3C1C(=C)C(=O)O3)C
Method: HCD
Collision_energy: [28.333334]
Isolation_window: 4.0
Ion_mode: P
Num Peaks: 12
83.0496	23.4
201.0913	36.9
203.1069	41.2
229.0859	28.5
289.1070	28.4
343.1901	37.7
357.2400	52.8
359.1488	29.5
359.1840	34.3
360.2254	19.8
361.0455	32.8
361.2008	100.0

Name: (12E)-7,7,12,16,17-pentamethyl-19-(2-methylpropyl)-6,8-dioxa-20-azatetracyclo(12.7.0.01,18.05,9)henicosa-12,15-diene-2,21-dione
PrecursorMZ: 426.3
RT: 4.5629
ExactMass: 443.30355879
Spectrum_type: 2
charge: 1
Formula: C27H41NO4
SMILES: CC1C2C(NC(=O)C23C(/C=C(/CCC4C(CCC3=O)OC(O4)(C)C)\C)C=C1C)CC(C)C
Method: HCD
Collision_energy: [28.333334]
Isolation_window: 4.0
Ion_mode: P
Num Peaks: 26
70.0655	2.4
72.0812	1.6
81.0702	1.3
86.0967	10.3
95.0858	1.3
116.0707	7.2
120.0809	1.5
164.1071	9.5
166.1229	1.3
180.1019	1.6
180.1382	1.4
301.1549	2.5
371.2573	2.4
372.2615	2.1
408.2894	10.1
409.2937	2.6
425.3071	1.3
426.1577	1.6
426.2039	2.9
426.3000	100.0
427.1373	1.4
427.1870	1.4
427.2458	2.1
427.3035	28.1
428.1704	2.0
428.3138	9.2

Name: (13-acetyloxy-1-hydroxy-8-(hydroxymethyl)-4,12,12,15-tetramethyl-5-oxo-14-tetracyclo(8.5.0.02,6.011,13)pentadeca-3,8-dienyl) (E)-2-methylbut-2-enoate
PrecursorMZ: 495.23555
RT: 7.813
ExactMass: 472.24610348
Spectrum_type: 2
charge: 1
Formula: C27H36O7
SMILES: C/C=C(\C)/C(=O)OC1C(C2(C3C=C(C(=O)C3CC(=CC2C4C1(C4(C)C)OC(=O)C)CO)C)O)C
Method: HCD
Collision_energy: [28.333334]
Isolation_window: 4.0
Ion_mode: P
Num Peaks: 11
55.0265	4.6
293.1144	2.8
477.2844	2.0
493.2215	4.6
493.2759	6.7
494.2226	7.5
494.2831	3.0
495.2356	100.0
496.2061	2.1
496.2392	23.9
497.2501	12.5

Name: (15Z)-9,12,13-Trihydroxy-15-octadecenoic acid
PrecursorMZ: 348.27327
RT: 1.4915
ExactMass: 330.24062418
Spectrum_type: 2
charge: 1
Formula: C18H34O5
SMILES: CC/C=C\CC(C(CCC(CCCCCCCC(=O)O)O)O)O
Method: HCD
Collision_energy: [28.333334]
Isolation_window: 4.0
Ion_mode: P
Num Peaks: 41
67.0544	10.6
69.0700	2.5
69.9334	2.1
71.0858	2.6
81.0700	7.4
83.0855	4.3
93.0699	3.9
95.0854	6.3
97.1011	6.0
99.0802	2.6
107.0853	3.4
109.1010	23.8
119.0852	2.9
125.0958	8.6
133.0643	2.1
133.1008	2.4
135.1164	3.4
137.0957	3.2
149.1320	2.8
151.1111	2.1
155.1062	33.9
156.1097	2.6
164.0701	24.6
171.1010	2.5
173.1167	63.4
174.1201	5.4
178.0857	4.8
189.1114	6.3
190.1431	2.3
195.1375	3.8
206.0804	3.2
213.1478	2.5
224.0909	100.0
225.0944	8.7
277.2150	14.1
278.2188	2.9
295.2255	11.1
347.1354	2.0
347.1588	2.0
348.1424	2.4
349.1744	2.2

Name: (1R,2S,5aR,5bR,7aS,10R,12bR)-2-Hydroxy-10-isopropenyl-3,3,5a,5b,12b-pentamethyloctadecahydrodicyclopenta)a,i(phenanthrene-1,7a(1H)-dicarboxylic acid
PrecursorMZ: 487.34165
RT: 0.6207
ExactMass: 486.33452456
Spectrum_type: 2
charge: 1
Formula: C30H46O5
SMILES: CC(=C)[C@@H]1CC[C@]2(C1C3CCC4[C@]([C@@]3(CC2)C)(CCC5[C@@]4([C@H]([C@@H](C5(C)C)O)C(=O)O)C)C)C(=O)O
Method: HCD
Collision_energy: [28.333334]
Isolation_window: 4.0
Ion_mode: P
Num Peaks: 275
55.0390	0.8
55.1499	2.3
57.0340	1.6
57.0704	2.4
58.0657	1.0
59.0497	3.0
60.0813	5.2
67.0548	5.8
69.0340	3.1
69.0704	7.5
70.0656	3.8
70.0736	0.7
71.0496	4.3
71.0861	2.1
72.0812	2.7
73.0289	1.1
73.0652	0.8
79.0546	3.6
81.0340	3.7
81.0703	12.7
82.0734	0.8
83.0496	5.1
83.0860	4.5
84.0447	0.8
84.0812	2.1
85.0289	3.1
85.0652	5.2
85.1015	1.2
86.0968	20.5
87.0444	4.3
87.0999	1.3
89.0601	16.1
91.0545	2.7
93.0702	9.3
94.0736	0.8
95.0495	5.4
95.0859	14.6
96.0891	0.7
97.0651	5.0
97.1015	3.2
98.9844	3.5
99.0444	2.8
99.0808	4.5
101.0600	1.8
103.0392	1.9
104.1073	76.0
105.0702	5.2
105.1106	3.7
107.0495	1.3
107.0858	12.6
108.0891	0.9
109.0652	4.2
109.1015	14.4
110.1046	1.3
111.0443	3.2
111.0809	3.1
111.1171	1.4
112.0760	0.9
113.0601	3.2
113.0965	1.5
115.0755	1.0
116.0709	1.3
117.0549	1.2
117.0698	1.2
119.0858	9.3
120.0810	1.6
121.0651	3.9
121.1014	12.9
122.1046	1.1
123.0441	0.8
123.0807	6.4
123.1171	7.2
124.1206	0.8
125.0000	4.5
125.0599	2.3
125.0963	7.8
126.0998	0.8
127.0755	3.2
127.1119	6.7
128.0707	0.7
129.0548	0.7
131.0707	1.9
131.0857	3.9
133.0649	1.0
133.0861	9.6
133.1013	9.9
134.0894	0.8
134.1049	1.0
135.0807	4.6
135.1169	8.6
136.0759	0.8
136.1205	0.7
137.0598	2.5
137.0962	7.7
137.1324	2.0
139.0755	2.2
139.1118	4.2
141.0559	0.9
141.0660	29.8
141.0899	2.0
141.1274	0.7
142.0698	1.7
143.0861	1.9
143.1067	4.9
145.1014	6.6
146.1050	0.7
147.0809	2.3
147.1170	8.4
148.1206	1.0
149.0963	9.7
149.1327	4.2
150.1004	0.8
151.0757	3.2
151.1119	3.8
153.0546	0.9
153.0911	2.4
153.1275	1.8
155.0107	7.2
155.0705	1.5
155.0835	0.7
155.1070	3.6
157.1013	3.7
159.0800	1.8
159.1170	5.4
160.0761	0.9
160.1202	0.9
161.0962	4.0
161.1327	4.8
163.0752	1.6
163.1120	4.6
163.1480	1.5
165.0550	0.8
165.0911	5.9
165.1274	2.7
166.0534	0.9
167.0702	1.3
167.1070	2.2
169.1014	1.4
169.1224	1.1
171.0776	1.5
171.1170	4.0
173.0211	1.8
173.0959	2.1
173.1326	4.5
175.0758	0.7
175.1116	3.3
175.1481	3.7
176.1034	0.9
177.0905	1.6
177.1124	1.9
177.1274	2.0
177.1637	1.3
179.0708	1.4
179.1065	2.1
179.1435	0.9
180.1015	0.8
181.1224	1.9
183.1016	0.9
183.1169	1.9
184.0395	0.7
184.0736	100.0
185.0774	5.0
185.0957	0.7
185.1327	3.0
186.0780	1.0
187.1117	2.1
187.1483	3.0
189.0911	1.3
189.1276	2.9
189.1636	1.4
191.1066	1.7
191.1428	2.0
193.0859	1.0
193.1223	1.1
193.1580	1.2
195.1189	1.1
197.1321	1.7
199.1119	1.4
199.1488	3.0
201.0894	1.7
201.1278	2.2
201.1636	2.3
203.1062	1.5
203.1432	2.3
203.1795	1.3
205.1222	2.1
205.1591	1.1
207.1377	1.4
207.1748	0.8
208.0973	0.9
209.1326	1.6
209.1541	1.1
211.1488	2.1
213.1276	1.5
213.1634	2.5
215.1062	1.0
215.1436	2.1
215.1791	1.7
217.1211	1.7
217.1592	1.7
219.1378	1.5
219.1747	0.8
221.1542	2.2
223.1492	0.9
225.1661	1.2
227.1455	1.2
227.1790	1.0
229.0475	2.0
229.1221	0.8
229.1582	2.1
231.1376	1.2
231.1738	1.3
233.1531	1.3
235.1709	0.8
239.1453	0.9
243.1746	1.4
245.1537	0.9
245.1901	1.1
247.1677	1.4
249.1856	0.9
253.1951	0.8
255.2121	1.2
258.1100	1.1
259.1689	1.0
261.1855	1.1
263.1665	0.7
269.1906	0.7
271.2051	1.0
273.2215	2.4
275.1649	0.9
279.1710	0.8
283.1726	0.8
289.2147	0.8
301.2168	1.1
313.2742	2.3
314.2783	1.2
383.2960	1.2
393.3124	2.7
412.3213	1.0
430.3325	4.1
431.3330	0.9
435.3277	2.0
451.3230	0.8
453.3360	1.2
455.3525	0.9
465.3008	0.9
467.3174	1.2
468.3227	0.7
469.3378	2.0
471.3532	2.2
472.3479	0.8
478.3284	5.3
479.2764	2.2
479.3320	1.0
479.7781	1.0
481.2932	0.9
483.3123	1.1
485.3296	1.7
486.3359	1.5
487.3455	4.2
488.3484	2.3
489.3504	2.9
490.3547	7.6
491.3499	12.6
492.3537	3.9
493.3200	2.9
494.3302	1.6
495.3431	18.1
496.3407	51.6
497.3436	14.0
498.3466	2.8
499.3039	1.2
501.3188	2.8
502.3408	0.9
503.3404	2.8

Name: (1R,3R,4R,4aS,5'S,8aR)-5'-(furan-3-yl)-1-hydroxy-8,8a-bis(hydroxymethyl)-3-methylspiro(1,2,3,4a,5,6-hexahydronaphthalene-4,3'-oxolane)-2'-one
PrecursorMZ: 401.1358
RT: 0.8901
ExactMass: 362.17293854
Spectrum_type: 2
charge: 1
Formula: C20H26O6
SMILES: C[C@@H]1C[C@H]([C@@]2([C@@H]([C@@]13C[C@H](OC3=O)C4=COC=C4)CCC=C2CO)CO)O
Method: HCD
Collision_energy: [28.333334]
Isolation_window: 4.0
Ion_mode: P
Num Peaks: 4
401.1325	22.2
401.1941	15.6
403.1108	100.0
403.1516	32.7

Name: (1R,4S,5aS,9aS)-1,4-dihydroxy-6,6,9a-trimethyl-4,5,5a,7,8,9-hexahydro-1H-benzo(e)(2)benzofuran-3-one
PrecursorMZ: 289.1409
RT: 1.32385
ExactMass: 266.15180918
Spectrum_type: 2
charge: 1
Formula: C15H22O4
SMILES: CC1(CCCC2(C1CC(C3=C2C(OC3=O)O)O)C)C
Method: HCD
Collision_energy: [28.333334]
Isolation_window: 4.0
Ion_mode: P
Num Peaks: 3
259.1434	20.4
289.1408	100.0
290.1437	15.5

Name: (1R,4Z,9S)-4-(hydroxymethyl)-11,11-dimethyl-8-methylidenebicyclo(7.2.0)undec-4-en-3-one
PrecursorMZ: 217.15839
RT: 1.3551
ExactMass: 234.16197994
Spectrum_type: 2
charge: 1
Formula: C15H22O2
SMILES: CC1(C[C@H]2[C@H]1CC(=O)/C(=C\CCC2=C)/CO)C
Method: HCD
Collision_energy: [28.333334]
Isolation_window: 4.0
Ion_mode: P
Num Peaks: 37
67.0546	21.6
69.0702	6.1
79.0545	18.7
81.0338	14.3
81.0702	20.1
83.0858	5.6
91.0544	22.1
93.0701	19.1
95.0493	6.9
95.0857	17.2
105.0700	25.6
107.0492	12.8
107.0856	16.4
109.1013	7.3
117.0699	18.0
119.0855	32.5
121.0647	13.7
121.1012	15.5
123.0807	7.1
129.0698	22.4
131.0855	30.2
133.1011	18.0
135.0804	8.9
135.1167	6.9
143.0854	12.7
145.1011	9.8
147.1168	9.2
157.1010	13.1
159.1167	7.8
171.1166	8.5
173.1325	8.6
199.1478	24.6
216.1226	6.7
217.0967	7.4
217.1584	100.0
218.1618	15.1
219.1744	8.7

Name: (1R,5R)-8-oxo-N-(pyridin-3-yl)-4,5,6,8-tetrahydro-1H-1,5-methanopyrido(1,2-a)(1,5)diazocine-3(2H)-carbothioamide (M+H)+
PrecursorMZ: 349.11011
RT: 7.2682
ExactMass: 326.12013238
Spectrum_type: 2
charge: 1
Formula: C17H18N4OS
SMILES: C1C2CN(CC1C3=CC=CC(=O)N3C2)C(=S)NC4=CN=CC=C4
Method: HCD
Collision_energy: [28.333334]
Isolation_window: 4.0
Ion_mode: P
Num Peaks: 10
112.0506	17.1
194.1048	2.4
295.0958	6.6
332.1332	3.0
347.0939	8.3
348.0963	4.1
349.1097	100.0
350.1130	13.9
350.1431	4.7
350.2072	2.7

Name: (1R,5S,9R,13S)-14-(hydroxymethyl)-5,9-dimethyltetracyclo(11.2.1.01,10.04,9)hexadec-14-ene-5-carboxylic acid
PrecursorMZ: 283.20524
RT: 1.1628
ExactMass: 318.21949481
Spectrum_type: 2
charge: 1
Formula: C20H30O3
SMILES: C[C@]12CCC[C@](C1CC[C@@]34C2CC[C@@H](C3)C(=C4)CO)(C)C(=O)O
Method: HCD
Collision_energy: [28.333334]
Isolation_window: 4.0
Ion_mode: P
Num Peaks: 7
209.1321	10.3
213.1630	11.5
225.1632	11.1
265.1945	29.2
283.2049	100.0
284.2083	24.0
284.2942	10.0

Name: (1S)-1-(Hydroxymethyl)-2-((1-oxooctadecyl)oxy)ethyl (9Z,12Z)-9,12-octadecadienoate
PrecursorMZ: 638.57145
RT: 0.9703999999999999
ExactMass: 620.53797539
Spectrum_type: 2
charge: 1
Formula: C39H72O5
SMILES: CCCCCCCCCCCCCCCCCC(=O)OC[C@H](CO)OC(=O)CCCCCCC/C=C\C/C=C\CCCCC
Method: HCD
Collision_energy: [28.333334]
Isolation_window: 4.0
Ion_mode: P
Num Peaks: 39
55.0546	5.0
57.0339	3.9
57.0703	6.7
67.0546	11.1
67.0596	3.5
69.0702	15.8
71.0553	3.7
71.0859	4.8
79.0544	3.2
81.0701	16.1
83.0858	17.6
85.1014	3.4
93.0700	6.0
95.0857	18.1
97.0649	2.8
97.1013	12.8
97.4321	5.4
107.0856	5.6
109.1012	11.0
111.1169	4.6
121.1011	12.2
123.1168	4.7
135.1167	9.5
149.1324	5.4
153.1270	2.3
247.2416	3.5
265.2523	5.0
337.2733	5.7
338.2765	4.1
339.2887	100.0
340.2921	23.1
602.5215	9.3
603.5336	61.8
604.5373	25.7
637.4778	11.9
638.4822	5.3
639.4392	3.6
639.4947	60.4
640.4979	8.7

Name: (1S,17S,18S)-5,7-dioxa-12-azapentacyclo(10.6.1.02,10.04,8.015,19)nonadeca-2,4(8),9,15-tetraene-17,18-diol
PrecursorMZ: 288.12224
RT: 4.6956
ExactMass: 287.11575802
Spectrum_type: 2
charge: 1
Formula: C16H17NO4
SMILES: C1CN2CC3=CC4=C(C=C3[C@H]5C2C1=C[C@@H]([C@H]5O)O)OCO4
Method: HCD
Collision_energy: [28.333334]
Isolation_window: 4.0
Ion_mode: P
Num Peaks: 15
94.0650	4.5
107.0490	26.7
112.8955	8.6
136.0751	7.0
138.0909	10.3
152.0702	15.0
164.0701	34.0
182.0806	9.9
194.0807	7.5
226.2160	4.9
245.1276	4.6
287.1379	5.7
288.1219	100.0
289.1262	14.5
289.1523	4.3

Name: (1S,2R,3R,5'R,6R,7R)-5'-(furan-3-yl)-3,6,7-trimethylspiro(9-oxatricyclo(5.2.2.01,6)undecane-2,3'-oxolane)-2',8-dione
PrecursorMZ: 345.16945
RT: 6.0689
ExactMass: 344.16237386
Spectrum_type: 2
charge: 1
Formula: C20H24O5
SMILES: C[C@@H]1CC[C@@]2([C@]3(CC[C@]2([C@@]14C[C@@H](OC4=O)C5=COC=C5)OC3=O)C)C
Method: HCD
Collision_energy: [28.333334]
Isolation_window: 4.0
Ion_mode: P
Num Peaks: 97
67.0546	5.0
70.0655	2.7
72.0812	2.3
79.0545	4.5
81.0702	27.4
86.0967	4.3
89.0599	1.9
91.0545	9.8
93.0701	13.6
95.0857	30.4
96.0891	1.8
105.0700	17.7
107.0857	11.7
109.1013	16.8
116.0708	8.8
117.0700	3.3
119.0856	16.1
121.0648	3.1
121.1013	6.5
123.0805	2.1
123.1168	5.1
131.0855	8.9
133.1012	14.8
135.1168	7.7
137.0961	9.4
139.0753	4.0
143.0855	6.1
145.1012	9.3
147.1168	6.2
149.0961	2.0
151.0754	1.9
151.1117	10.4
155.0856	1.9
157.1012	4.0
159.1168	4.0
161.0961	2.0
163.1116	5.0
166.0499	2.3
167.0814	2.5
169.1012	4.6
170.0812	2.4
171.1167	5.6
183.1167	3.6
185.1324	7.0
187.1479	5.2
189.1273	3.9
193.0857	2.3
197.1323	5.1
198.0758	2.0
198.1124	2.1
199.1481	5.3
203.1428	2.9
215.0700	2.8
215.1429	3.1
215.1792	4.2
225.1636	20.7
226.0858	2.7
226.1669	4.4
227.1793	14.7
228.1826	2.3
235.1479	3.0
241.0971	2.9
243.1379	2.1
243.1741	47.2
244.1775	8.0
245.1898	52.2
246.1931	10.5
253.1584	12.0
254.1619	2.3
261.1848	18.2
262.1881	3.7
269.0915	2.4
271.1690	68.6
272.1723	14.7
281.1535	2.8
287.1023	4.9
289.1795	90.9
290.1829	16.3
299.1637	13.4
300.1678	2.2
301.1052	3.2
301.1188	3.8
317.1743	100.0
318.1776	19.4
327.0856	2.7
327.1587	2.2
343.1663	2.7
344.1122	5.5
344.1485	2.0
344.1707	2.9
345.1074	4.2
345.1451	4.5
345.1692	64.2
346.1288	2.0
346.1726	13.3
347.1234	27.1
347.1973	2.2

Name: (1S,2S,5S,8R,9R,10R,11R,15S,18R)-9,10,15,18-tetrahydroxy-12,12-dimethyl-6-methylidene-17-oxapentacyclo(7.6.2.15,8.01,11.02,8)octadecan-7-one
PrecursorMZ: 347.18491
RT: 1.452
ExactMass: 364.18858861
Spectrum_type: 2
charge: 1
Formula: C20H28O6
SMILES: CC1(CC[C@@H]([C@]23[C@@H]1[C@H]([C@@]([C@]45[C@H]2CC[C@H]([C@H]4O)C(=C)C5=O)(OC3)O)O)O)C
Method: HCD
Collision_energy: [28.333334]
Isolation_window: 4.0
Ion_mode: P
Num Peaks: 137
67.0550	4.9
69.0342	3.6
70.0658	2.9
72.0814	9.7
79.0549	4.1
81.0343	2.0
81.0706	5.5
86.0971	11.7
91.0548	4.7
93.0705	6.2
95.0860	3.8
105.0701	6.5
107.0858	6.0
109.0656	1.8
117.0701	7.3
118.0862	3.4
119.0858	6.3
120.0809	2.1
121.0650	9.7
121.1019	2.8
125.0240	1.7
129.0699	2.5
131.0854	7.1
132.1018	2.6
133.1010	4.6
135.0808	3.9
135.1169	11.2
136.0756	2.2
138.0557	2.2
143.0855	4.0
145.1010	20.1
146.1040	2.2
147.0438	5.2
147.0804	24.5
148.0837	2.3
149.0596	2.7
155.0857	2.4
157.1011	4.3
159.0804	4.2
161.0595	21.9
161.0961	3.9
162.0637	2.2
163.1116	10.0
164.0704	5.0
166.0501	2.2
167.0809	2.0
167.0861	1.8
169.1018	2.9
171.0804	6.7
173.0959	11.2
175.0753	2.7
175.1117	2.2
178.0862	2.0
181.1015	2.1
182.0811	4.6
183.1119	2.2
185.0960	2.9
186.1128	2.0
186.1234	2.7
187.0755	2.6
187.1068	7.4
187.1125	2.1
195.1165	2.5
197.0958	3.3
199.0754	2.7
199.1121	2.3
200.1392	2.9
201.0908	2.2
201.1232	5.3
206.0806	2.7
209.0959	2.3
209.1325	2.1
211.0750	2.5
211.1121	2.2
213.0909	3.2
213.1271	2.6
214.1183	2.5
215.1021	3.3
222.1123	2.2
223.1113	7.2
224.0914	9.4
225.1271	8.6
226.0863	2.1
227.1431	1.8
229.1175	2.9
237.0579	2.4
237.0910	2.1
237.1271	5.6
237.1634	4.0
241.0970	2.4
241.1218	4.6
247.1475	5.3
250.1077	2.2
251.1062	2.7
253.1218	10.0
253.1577	2.1
255.1377	6.0
255.1737	7.6
265.1217	7.2
265.1582	28.5
266.1616	5.4
275.1424	3.1
283.1077	2.0
283.1327	2.1
283.1686	22.7
284.1726	4.7
284.2941	8.7
285.2974	1.7
287.1020	3.1
293.1531	40.7
294.1563	7.7
301.1175	3.3
301.1798	2.4
303.1336	2.7
311.1635	64.0
312.1670	12.0
321.1432	4.7
329.1133	3.5
329.1737	15.4
330.1777	3.4
345.1445	2.8
346.0931	2.2
346.1256	5.4
346.1450	3.9
346.1922	3.7
346.3306	24.7
347.1236	22.0
347.1607	7.6
347.1843	100.0
347.3340	5.3
348.1068	5.0
348.1255	3.9
348.1432	3.7
348.1574	2.9
348.1880	19.9
349.1391	7.6
349.1741	3.9

Name: (1S,5R)-8-Methyl-8-Azabicyclo(3.2.1)Octan-3-Ol
PrecursorMZ: 142.12262
RT: 1.3077
ExactMass: 141.115364102
Spectrum_type: 2
charge: 1
Formula: C8H15NO
SMILES: CN1[C@@H]2CC[C@H]1CC(C2)O
Method: HCD
Collision_energy: [28.333334]
Isolation_window: 4.0
Ion_mode: P
Num Peaks: 40
55.0546	3.3
56.0580	0.4
57.0703	4.1
69.0702	2.4
69.6263	0.6
69.6287	0.5
69.6380	0.5
70.0654	0.8
71.0495	2.0
72.0811	18.6
73.0843	0.7
81.0701	0.9
82.0654	1.7
83.0858	1.7
84.0446	0.8
84.0810	2.0
86.0965	0.6
97.1013	5.5
98.0965	0.4
98.1046	1.0
99.0806	0.4
100.0757	0.5
112.0757	2.8
113.0791	0.6
124.1119	0.6
125.0960	0.7
127.0752	1.4
140.1068	2.1
141.0656	1.5
141.1101	0.7
142.0862	0.9
142.1109	0.7
142.1133	0.5
142.1225	100.0
142.1317	0.6
142.1340	0.7
143.1199	0.5
143.1257	9.9
144.0806	7.5
144.1017	1.8

Name: (1S,6S,9S,10R,11R,14R)-12-ethyl-9,19-dihydroxy-17-methoxy-14-methyl-5-oxa-12-azahexacyclo(8.7.2.12,6.01,11.03,9.014,18)icosan-4-one
PrecursorMZ: 392.24236
RT: 2.5251
ExactMass: 391.23587315
Spectrum_type: 2
charge: 1
Formula: C22H33NO5
SMILES: CCN1C[C@@]2(CCC([C@]34[C@H]1[C@H](C(C23)O)[C@]5(CC[C@H]6CC4C5C(=O)O6)O)OC)C
Method: HCD
Collision_energy: [28.333334]
Isolation_window: 4.0
Ion_mode: P
Num Peaks: 14
89.0592	9.6
133.0856	6.1
177.1111	2.4
230.1379	3.7
307.1646	3.4
309.1795	4.2
331.1897	3.0
356.2210	6.0
357.2006	2.9
374.2314	100.0
375.2347	24.0
392.1688	3.3
392.2420	23.5
393.2448	4.1

Name: (1S,8R,16S,17R)-11,12-dimethoxy-5,15-diazahexacyclo)13.4.2.01,16.05,16.08,17.09,14(henicosa-2,9,11,13-tetraen-21-one
PrecursorMZ: 353.18592
RT: 2.2323
ExactMass: 352.17869263
Spectrum_type: 2
charge: 1
Formula: C21H24N2O3
SMILES: COC1=C(C=C2C(=C1)[C@@H]3CCN4CC=C[C@]56[C@]4([C@@H]3CC5)N2C(=O)C6)OC
Method: HCD
Collision_energy: [28.333334]
Isolation_window: 4.0
Ion_mode: P
Num Peaks: 99
55.0548	2.1
58.0657	2.6
59.0498	1.6
70.0657	7.0
72.0814	3.7
81.0340	3.7
83.0497	3.3
84.0813	7.9
86.0971	2.4
89.0603	2.1
94.0655	18.7
95.0610	1.6
96.0812	4.9
98.0966	2.7
100.0761	1.8
101.0600	17.2
107.0736	2.4
110.0718	1.9
111.0446	3.4
118.0654	31.0
119.0686	2.9
120.0810	2.9
121.0653	2.1
122.0606	2.1
130.0866	3.0
132.0449	2.3
132.0809	5.1
136.0757	1.8
137.0599	1.7
150.0557	1.7
150.0917	2.1
160.0760	44.1
161.0799	4.2
162.0918	1.9
178.0870	1.5
180.1025	1.7
187.0996	4.1
194.1178	48.8
195.1214	6.6
219.1499	2.1
229.1087	2.0
235.1244	5.8
261.1249	1.8
267.1128	19.3
268.1164	3.1
297.1246	1.7
336.1231	2.6
338.1396	1.8
351.2314	3.6
352.1189	2.0
352.1549	4.4
352.2470	7.1
353.1519	7.3
353.1864	86.9
354.1356	12.4
354.1876	20.8
355.1253	3.0
355.1660	15.4
355.2265	2.2
356.1485	18.6
356.1893	2.5
356.3519	5.9
357.1465	11.4
357.1828	12.6
357.3564	1.7
358.1721	22.9
358.3696	4.4
359.1568	10.8
359.1979	6.3
359.3716	1.5
360.1452	3.3
360.1864	15.2
361.1728	14.5
361.2132	5.4
362.1595	6.7
362.2112	12.1
363.1561	2.3
363.1943	11.2
363.2306	2.2
364.1841	1.9
364.2191	4.3
365.1499	5.2
365.2095	7.0
366.1363	5.3
366.2340	2.7
367.1656	100.0
367.2264	1.9
367.2369	2.0
368.1551	28.0
368.2442	1.7
368.4256	1.9
369.1484	6.6
369.1889	7.0
370.1271	1.6
370.1684	15.1
371.1576	12.2
371.1979	5.8
372.1374	3.5
372.1911	5.5

Name: (1r,4r)-4-((2-((4,8-dimethyl-2-oxo-2H-chromen-7-yl)oxy)acetamido)methyl)cyclohexanecarboxylic acid
PrecursorMZ: 388.17503
RT: 4.7292
ExactMass: 387.16818752
Spectrum_type: 2
charge: 1
Formula: C21H25NO6
SMILES: CC1=CC(=O)OC2=C1C=CC(=C2C)OCC(=O)NCC3CCC(CC3)C(=O)O
Method: HCD
Collision_energy: [28.333334]
Isolation_window: 4.0
Ion_mode: P
Num Peaks: 28
69.2524	1.2
97.4313	1.4
105.0699	1.7
107.0491	2.8
112.0758	1.7
112.8958	2.4
133.0647	100.0
134.0680	7.7
151.0387	1.9
163.0384	1.5
165.0545	4.8
177.0544	35.3
178.0577	3.3
193.0493	9.9
205.0492	49.5
206.0525	4.4
238.1070	22.8
239.1109	2.2
250.1069	31.4
251.1102	3.4
297.1116	17.8
298.1154	2.9
325.1065	10.3
326.1100	1.8
370.1641	35.9
371.1678	6.8
388.1747	67.2
389.1777	14.8

Name: (2'S,3S,5'S,6'R,11'S)-2'-ethenyl-4'-methylspiro)1H-indole-3,7'-9-oxa-4-azatetracyclo)6.3.1.02,6.05,11(dodecane(-2-one
PrecursorMZ: 323.18206
RT: 3.5882
ExactMass: 322.168127949
Spectrum_type: 2
charge: 1
Formula: C20H22N2O2
SMILES: CN1C[C@@]2([C@H]3[C@H]1[C@@H]4C2CC([C@@]35C6=CC=CC=C6NC5=O)OC4)C=C
Method: HCD
Collision_energy: [28.333334]
Isolation_window: 4.0
Ion_mode: P
Num Peaks: 86
70.0656	12.0
71.0497	2.0
72.0813	2.5
80.0500	2.0
83.0496	3.4
84.0449	6.4
84.0813	4.2
86.0607	2.4
99.0445	3.1
101.0601	11.1
111.0445	3.0
111.0557	9.3
112.0873	1.9
114.0666	3.6
116.0710	5.3
122.0815	2.6
130.0865	3.9
134.0602	2.2
138.0549	2.3
146.0931	2.1
149.0836	2.7
150.0917	11.3
161.0713	2.2
163.0870	2.4
177.1025	2.1
178.0983	3.7
181.0972	6.5
193.0974	2.1
194.0943	2.7
195.1131	2.2
196.1083	3.3
197.0744	2.4
205.0969	2.9
206.0931	4.1
212.1049	2.5
223.1080	3.1
227.1028	20.8
228.1052	2.7
232.1077	2.8
237.1231	3.7
241.1305	8.0
262.1187	2.3
264.1346	26.9
265.1389	3.8
279.1334	2.6
280.1096	6.8
281.1596	1.9
289.1288	2.1
306.1508	2.0
310.1081	2.7
321.1454	6.7
322.1277	6.2
322.1703	4.0
323.1591	37.7
323.1853	30.6
324.1543	59.2
324.1870	5.2
325.1426	19.1
325.1759	15.9
326.1175	100.0
326.1609	15.1
327.1195	13.9
327.1572	53.8
327.1923	4.3
328.1142	15.2
328.1717	5.0
329.1121	5.1
329.1754	10.0
330.1336	13.5
330.1726	2.4
330.2017	2.6
331.1306	5.0
332.1494	13.1
333.1477	16.2
334.1341	15.5
334.1736	2.4
335.1622	10.6
336.1500	14.5
337.1418	7.3
337.1748	8.3
338.1812	42.8
339.1529	43.2
340.1548	3.4
340.1846	4.0
341.1768	32.6
342.1336	12.0

Name: (2-((2-Methoxyethyl)amino)pteridin-4-yl)(4-methoxyphenyl)amine
PrecursorMZ: 327.15613
RT: 5.42695
ExactMass: 326.14912384
Spectrum_type: 2
charge: 1
Formula: C16H18N6O2
SMILES: COCCNC1=NC2=NC=CN=C2C(=N1)NC3=CC=C(C=C3)OC
Method: HCD
Collision_energy: [28.333334]
Isolation_window: 4.0
Ion_mode: P
Num Peaks: 16
115.0390	36.4
273.1841	16.5
291.1949	32.5
309.2051	16.5
326.1223	22.7
326.2466	29.1
326.3049	18.4
326.3414	40.6
326.3774	59.3
327.1560	100.0
327.2154	15.7
328.1168	20.7
328.1380	20.6
328.1588	21.5
328.1896	31.6
328.2631	24.3

Name: (2-((E)-3,4-dihydroxypent-1-enyl)-6-oxooxan-3-yl) (E)-2-methylbut-2-enoate
PrecursorMZ: 321.13065
RT: 1.6245
ExactMass: 298.14163842
Spectrum_type: 2
charge: 1
Formula: C15H22O6
SMILES: C/C=C(\C)/C(=O)OC1CCC(=O)OC1/C=C/C(C(C)O)O
Method: HCD
Collision_energy: [28.333334]
Isolation_window: 4.0
Ion_mode: P
Num Peaks: 22
59.0496	9.2
109.0762	3.5
120.0812	3.0
122.0604	2.7
131.0704	8.5
148.1121	4.1
164.0707	2.7
175.1230	3.8
209.1648	2.0
237.1233	2.7
247.0844	2.7
257.2670	6.2
319.3036	20.2
320.1124	4.9
320.1613	3.4
320.3059	2.6
321.1306	100.0
321.1803	5.3
322.1341	14.6
322.2488	2.6
323.1279	6.8
323.1586	3.2

Name: (2-Acetyloxy-3,6-diphenylcyclohexyl) acetate
PrecursorMZ: 375.15453
RT: 4.4723
ExactMass: 352.16745924
Spectrum_type: 2
charge: 1
Formula: C22H24O4
SMILES: CC(=O)OC1C(CCC(C1OC(=O)C)C2=CC=CC=C2)C3=CC=CC=C3
Method: HCD
Collision_energy: [28.333334]
Isolation_window: 4.0
Ion_mode: P
Num Peaks: 7
315.1333	20.8
316.1371	5.0
357.1439	28.7
358.1476	5.1
375.1542	100.0
376.1577	21.1
376.1985	4.3

Name: (20S)-Protopanaxatriol
PrecursorMZ: 441.37184
RT: 0.9993
ExactMass: 476.38656014
Spectrum_type: 2
charge: 1
Formula: C30H52O4
SMILES: CC(=CCC[C@@](C)([C@H]1CC[C@@]2([C@@H]1[C@@H](C[C@H]3[C@]2(C[C@@H]([C@@H]4[C@@]3(CC[C@@H](C4(C)C)O)C)O)C)O)C)O)C
Method: HCD
Collision_energy: [28.333334]
Isolation_window: 4.0
Ion_mode: P
Num Peaks: 25
69.1648	49.6
69.3037	44.5
81.0700	39.9
95.0855	100.0
97.4569	34.9
107.0854	52.2
109.1010	66.7
111.0803	41.0
119.0854	31.0
121.1010	42.5
123.1166	40.1
133.1008	33.8
135.1164	49.6
147.1166	27.9
149.1321	37.6
161.1319	37.8
163.1477	32.9
175.1474	30.5
189.1629	32.6
203.1787	37.7
229.1941	27.4
423.3599	58.5
440.3579	39.2
441.3344	38.6
441.3705	77.0

Name: (25S)-3alpha,7alpha,12alpha-trihydroxy-5beta-cholestan-26-oic acid
PrecursorMZ: 433.33062
RT: 1.2726
ExactMass: 450.33452456
Spectrum_type: 2
charge: 1
Formula: C27H46O5
SMILES: C[C@H](CCC[C@H](C)C(=O)O)[C@H]1CC[C@@H]2[C@@]1([C@H](C[C@H]3[C@H]2[C@@H](C[C@H]4[C@@]3(CC[C@H](C4)O)C)O)O)C
Method: HCD
Collision_energy: [28.333334]
Isolation_window: 4.0
Ion_mode: P
Num Peaks: 63
67.0545	1.2
69.0702	24.1
70.0734	1.2
73.0651	3.8
81.0701	3.1
93.0701	1.6
95.0605	1.5
95.0857	4.3
97.0649	5.4
105.0699	2.1
107.0856	3.9
109.1013	3.1
112.0870	1.4
115.0754	11.1
119.0855	1.6
121.1012	5.0
123.0802	1.3
123.1166	1.9
125.0961	4.1
133.1011	2.9
135.1166	3.1
139.0754	1.9
143.0854	1.3
145.1011	3.4
147.1166	4.9
149.1325	2.5
157.1010	3.0
159.1167	1.7
161.1324	47.6
162.1356	6.3
171.1164	1.3
173.1323	2.1
175.1118	1.3
179.1064	3.8
197.1321	1.8
199.1478	2.1
201.1635	2.0
213.1634	1.2
252.1825	1.3
253.1947	18.8
254.1978	3.1
255.2105	3.4
256.2138	1.2
271.2052	19.9
272.2086	3.8
273.2213	3.9
274.2240	1.5
283.2417	1.2
287.1997	2.1
288.2039	2.3
289.2157	100.0
290.2192	19.8
291.2225	1.8
414.3350	4.1
415.3187	1.4
431.3151	1.5
432.3181	5.5
432.3470	3.9
433.3305	62.9
434.3340	17.7
434.4098	1.5
435.1518	1.5
435.3412	1.8

Name: (25S)-Delta(7)-dafachronic acid
PrecursorMZ: 415.32038
RT: 0.8855500000000001
ExactMass: 414.3133952
Spectrum_type: 2
charge: 1
Formula: C27H42O3
SMILES: C[C@H](CCC[C@H](C)C(=O)O)[C@H]1CC[C@@H]2[C@@]1(CC[C@H]3C2=CC[C@@H]4[C@@]3(CCC(=O)C4)C)C
Method: HCD
Collision_energy: [28.333334]
Isolation_window: 4.0
Ion_mode: P
Num Peaks: 19
95.0493	5.4
97.3988	7.3
107.0857	5.1
113.0599	8.5
121.1013	5.5
133.1010	4.5
135.1168	4.9
145.1011	5.3
147.1168	11.1
159.1169	7.6
161.1324	33.0
173.1325	5.9
255.2105	50.9
256.2137	11.8
273.2210	81.7
274.2243	16.7
415.3203	100.0
416.3235	28.3
417.1260	33.5

Name: (2E)-1-(2-hydroxy-4-methoxy-5-(3-methylbut-2-en-1-yl)phenyl)-3-(4-hydroxyphenyl)prop-2-en-1-one
PrecursorMZ: 361.13928
RT: 6.3184
ExactMass: 338.15180918
Spectrum_type: 2
charge: 1
Formula: C21H22O4
SMILES: CC(=CCC1=CC(=C(C=C1OC)O)C(=O)/C=C/C2=CC=C(C=C2)O)C
Method: HCD
Collision_energy: [28.333334]
Isolation_window: 4.0
Ion_mode: P
Num Peaks: 18
212.1070	9.9
256.0967	24.3
258.1125	19.4
283.1075	8.8
284.0916	30.9
298.1072	9.1
301.1182	30.6
302.1216	5.9
308.0916	16.8
326.1022	33.9
327.1064	6.6
360.0934	10.8
361.1385	11.0
361.1727	7.9
362.1228	5.0
362.2413	100.0
363.1318	36.0
363.2448	12.1

Name: (2E)-2-methoxyimino-N-methyl-2-(2-phenoxyphenyl)acetamide
PrecursorMZ: 285.12315
RT: 4.510983333333334
ExactMass: 284.11609238
Spectrum_type: 2
charge: 1
Formula: C16H16N2O3
SMILES: CNC(=O)/C(=N/OC)/C1=CC=CC=C1OC2=CC=CC=C2
Method: HCD
Collision_energy: [28.333334]
Isolation_window: 4.0
Ion_mode: P
Num Peaks: 29
167.0560	2.5
195.0913	32.2
195.1126	2.4
196.0948	3.8
207.0912	3.9
212.1065	1.6
215.0812	1.3
215.1177	1.2
225.1019	2.2
226.0821	2.1
228.0887	1.7
229.0971	1.5
229.1331	1.6
240.1016	1.1
241.1176	1.3
243.1124	11.0
244.1179	2.2
245.1280	7.0
257.1280	8.4
258.1331	1.3
267.1120	2.1
284.1246	2.3
284.2951	1.4
284.3304	1.7
285.1227	100.0
286.1069	1.7
286.1264	18.3
287.1022	1.1
287.1387	6.6

Name: (2E)-3-(3,4-dimethoxyphenyl)-N-(4-methoxyphenyl)prop-2-enamide
PrecursorMZ: 314.13845
RT: 6.8249
ExactMass: 313.13140809
Spectrum_type: 2
charge: 1
Formula: C18H19NO4
SMILES: COC1=CC=C(C=C1)NC(=O)/C=C/C2=CC(=C(C=C2)OC)OC
Method: HCD
Collision_energy: [28.333334]
Isolation_window: 4.0
Ion_mode: P
Num Peaks: 36
70.0655	1.0
81.0339	1.4
83.0495	0.7
107.0732	1.2
111.0442	2.5
120.0809	1.0
121.0886	0.6
151.0866	0.6
176.8752	0.7
187.0992	1.6
194.1176	3.1
203.1178	0.9
217.1095	0.6
296.1472	0.7
312.1237	0.9
312.1589	3.9
312.1792	0.7
313.1184	1.6
313.1387	1.8
313.1547	8.2
313.1753	1.3
313.1909	2.3
313.2483	7.2
314.0998	1.0
314.1224	4.9
314.1384	100.0
314.1573	6.0
314.1737	9.3
314.2523	1.1
315.1416	17.1
315.1689	7.6
315.2061	0.7
316.1173	1.1
316.1538	11.6
316.1742	2.2
316.1905	3.2

Name: (2E)-N-(4-Acetamidobutyl)-3-(4-hydroxy-3-methoxyphenyl)prop-2-enamide
PrecursorMZ: 329.14618
RT: 5.804
ExactMass: 306.15795719
Spectrum_type: 2
charge: 1
Formula: C16H22N2O4
SMILES: CC(=O)NCCCCNC(=O)/C=C/C1=CC(=C(C=C1)O)OC
Method: HCD
Collision_energy: [28.333334]
Isolation_window: 4.0
Ion_mode: P
Num Peaks: 16
70.0654	4.7
86.0965	2.0
116.0705	2.4
132.0417	3.0
170.1170	2.4
191.0548	9.9
204.0622	2.4
328.1170	2.7
328.1352	2.4
329.1148	5.3
329.1462	100.0
329.2032	2.0
330.1321	3.5
330.1494	16.8
330.2622	2.0
331.1273	17.5

Name: (2E)-octenoylcarnitine
PrecursorMZ: 286.2009
RT: 5.4381
ExactMass: 285.19400834
Spectrum_type: 2
charge: 1
Formula: C15H27NO4
SMILES: CCCCC/C=C/C(=O)OC(CC(=O)[O-])C[N+](C)(C)C
Method: HCD
Collision_energy: [28.333334]
Isolation_window: 4.0
Ion_mode: P
Num Peaks: 121
55.0182	0.9
60.0811	6.3
69.0338	1.0
69.0702	0.9
69.5304	0.9
70.0654	9.1
72.0811	12.6
73.0287	2.5
81.0337	9.0
84.0810	3.1
85.0286	100.0
86.0319	3.7
86.0966	11.4
95.0604	1.1
98.0965	1.0
99.0441	1.7
107.0604	0.9
110.0712	4.0
114.0549	1.2
116.0706	5.4
118.0861	1.0
121.0646	1.3
122.0599	2.4
122.0963	3.3
123.0438	1.1
124.0868	0.9
125.0708	1.2
125.0959	15.8
126.0549	1.0
126.0914	0.9
126.0991	1.2
126.1275	1.1
127.0501	0.9
127.1228	2.9
129.1021	2.0
130.0649	21.1
131.0683	2.0
132.1016	1.7
136.0754	0.9
141.1020	1.2
142.0861	1.7
142.0971	1.5
142.1222	1.3
143.1064	7.5
143.1177	6.2
144.0806	1.9
144.1017	3.0
144.1382	1.5
152.0702	0.9
153.0406	1.4
153.0657	1.0
154.1224	0.9
156.0805	1.0
157.0968	2.2
167.0562	1.1
169.0970	1.1
171.1124	3.5
171.1490	1.7
173.0917	3.6
180.0803	0.9
182.0921	3.3
183.1489	1.0
184.1328	4.8
187.1073	2.7
189.1227	3.0
193.0969	0.9
195.1121	1.8
199.1223	1.2
199.1439	1.3
200.0701	1.9
208.0753	2.9
210.0868	1.3
215.1386	2.4
222.0907	1.1
227.1171	1.8
227.1272	20.9
228.1305	2.5
239.1022	3.8
250.1069	1.0
258.0754	2.3
266.1856	1.8
267.1122	2.4
267.1330	4.5
267.1692	1.3
268.0961	12.8
268.1170	2.8
269.0992	2.4
269.1127	0.9
269.1857	0.8
273.0989	9.0
284.1613	1.2
284.1962	2.0
284.3304	5.6
285.0903	1.1
285.1079	1.4
285.1225	10.9
285.1437	8.8
285.1591	13.5
285.1802	4.6
285.1992	1.0
285.3340	2.2
286.0913	1.1
286.1065	9.4
286.1267	4.5
286.1425	11.3
286.1626	2.1
286.1763	3.4
286.2004	53.8
287.1005	2.8
287.1229	3.9
287.1384	9.3
287.1594	8.2
287.1746	14.3
287.2040	8.3
288.0858	1.0
288.0897	1.2
288.1080	2.5
288.1219	57.0
288.1411	1.6
288.1574	1.2
288.1769	1.3

Name: (2E,4E)-12-hydroxy-13-(hydroxymethyl)-14-methoxy-3,5,7-trimethyl-14-oxotetradeca-2,4-dienoic acid
PrecursorMZ: 357.22694
RT: 5.0261
ExactMass: 356.21988874
Spectrum_type: 2
charge: 1
Formula: C19H32O6
SMILES: CC(CCCCC(C(CO)C(=O)OC)O)C/C(=C/C(=C/C(=O)O)/C)/C
Method: HCD
Collision_energy: [28.333334]
Isolation_window: 4.0
Ion_mode: P
Num Peaks: 95
67.0546	6.1
69.0704	6.9
70.0656	4.3
79.0546	4.8
81.0703	9.6
86.0968	10.4
91.0545	5.3
93.0702	8.9
95.0858	8.9
97.0651	6.0
97.3993	9.2
105.0701	5.0
107.0858	6.8
109.1014	5.1
111.0443	6.8
114.0916	19.8
116.0710	4.1
119.0857	6.4
121.0650	7.9
121.1013	6.0
125.0601	4.4
131.0855	10.4
133.1013	10.8
135.0806	7.5
135.1171	5.3
145.1012	10.5
147.1169	5.5
149.0964	4.5
157.1014	9.1
159.1169	10.0
161.0960	5.6
163.1117	6.0
166.0867	4.1
169.1016	5.2
171.1169	7.0
173.0962	5.8
173.1326	6.1
183.1168	8.1
185.1326	4.4
186.0914	6.9
187.1118	7.5
191.1068	5.5
191.1429	5.5
197.1328	4.0
199.1114	4.8
201.1274	8.0
209.1541	4.1
214.0864	13.8
219.1379	10.6
225.1639	9.0
237.1483	14.3
239.1796	6.6
242.0812	6.5
243.1745	7.7
253.1585	4.9
255.1590	22.7
257.1893	6.4
259.1690	4.6
261.1851	10.2
267.1742	7.1
271.1693	15.4
275.2005	16.2
285.1848	27.9
286.1879	6.4
287.1645	4.2
289.1798	29.2
290.1828	4.6
303.1954	100.0
304.1988	21.2
305.1753	8.4
307.1901	10.0
320.1940	4.4
321.2059	53.2
322.2093	11.8
323.1852	4.2
337.1995	4.7
338.2441	5.9
339.1962	5.9
339.2155	29.6
340.2198	6.9
341.2128	5.0
356.1133	8.1
356.1512	4.8
356.2544	5.1
357.1217	30.0
357.1452	9.4
357.1822	4.7
357.2066	12.1
357.2450	5.9
357.2806	4.4
358.1269	12.6
359.1373	84.4
359.1596	5.6
359.1847	4.2
359.2211	15.1

Name: (2E,4E,12Z)-N-(2-Methylpropyl)-2,4,12-octadecatrienamide
PrecursorMZ: 334.30985
RT: 1.0048
ExactMass: 333.303164868
Spectrum_type: 2
charge: 1
Formula: C22H39NO
SMILES: CCCCC/C=C\CCCCCC/C=C/C=C/C(=O)NCC(C)C
Method: HCD
Collision_energy: [28.333334]
Isolation_window: 4.0
Ion_mode: P
Num Peaks: 46
55.0181	0.7
55.0546	2.9
57.0702	8.5
67.0546	7.5
69.0702	6.7
70.0654	1.0
71.0858	1.4
72.0810	3.9
74.0967	2.5
79.0544	1.7
81.0337	4.2
81.0701	10.0
83.0857	3.6
91.0544	0.8
93.0700	2.7
95.0492	1.6
95.0856	9.3
96.0889	0.7
97.1012	2.8
98.0601	5.7
105.0699	1.4
107.0855	2.8
109.0648	0.7
109.1012	5.5
110.0600	0.8
111.1167	0.8
119.0854	1.1
121.1011	2.4
123.1167	2.0
128.1069	1.2
133.1010	1.3
135.1165	1.9
137.1322	0.8
142.1224	0.9
149.1321	0.8
154.1224	1.1
166.1224	1.1
168.1381	0.8
261.2201	0.9
332.2939	3.3
333.2409	0.7
333.2972	5.3
334.3095	100.0
334.3510	0.7
335.3128	23.2
336.3255	27.1

Name: (2R)-2-amino-3-cyclohexylpropanoic acid
PrecursorMZ: 172.13308
RT: 9.69
ExactMass: 171.125928785
Spectrum_type: 2
charge: 1
Formula: C9H17NO2
SMILES: C1CCC(CC1)C[C@H](C(=O)O)N
Method: HCD
Collision_energy: [28.333334]
Isolation_window: 4.0
Ion_mode: P
Num Peaks: 7
67.0546	12.3
109.1012	19.0
126.0911	18.6
171.1126	44.1
171.1491	13.3
172.1329	100.0
173.1169	14.2

Name: (2R)-2-amino-6-(((4S)-4-amino-4-carboxybutanoyl)amino)hexanoic acid
PrecursorMZ: 276.15499
RT: 10.9496
ExactMass: 275.14812078
Spectrum_type: 2
charge: 1
Formula: C11H21N3O5
SMILES: C(CCNC(=O)CC[C@@H](C(=O)O)N)C[C@H](C(=O)O)N
Method: HCD
Collision_energy: [28.333334]
Isolation_window: 4.0
Ion_mode: P
Num Peaks: 12
84.0446	12.0
84.0810	85.0
129.1021	21.2
130.0496	18.9
130.0861	99.9
147.1126	100.0
234.1847	73.5
274.1069	22.4
275.1105	23.1
276.1228	17.3
276.1546	15.2
276.1950	22.7

Name: (2R)-2-amino-6-))(4S)-4-amino-4-carboxybutanoyl(amino(hexanoic acid
PrecursorMZ: 276.15484
RT: 6.7399
ExactMass: 275.14812078
Spectrum_type: 2
charge: 1
Formula: C11H21N3O5
SMILES: C(CCNC(=O)CC[C@@H](C(=O)O)N)C[C@H](C(=O)O)N
Method: HCD
Collision_energy: [28.333334]
Isolation_window: 4.0
Ion_mode: P
Num Peaks: 60
70.0575	0.5
70.0592	0.6
70.0655	100.0
70.0719	0.5
70.0735	0.8
71.0624	0.4
71.0688	4.2
72.0811	0.6
73.0651	0.7
81.0339	0.4
84.0811	4.5
86.0965	0.5
89.0601	0.5
96.0447	0.4
98.0603	0.5
111.0441	0.5
112.0744	0.6
112.0870	59.3
113.0838	0.6
113.0904	3.2
114.0551	0.7
115.0868	0.5
116.0707	4.1
128.0707	1.3
130.0864	1.5
130.0976	0.4
132.1132	1.3
142.0865	0.4
144.0656	1.1
146.0810	0.7
147.1130	0.4
149.0232	0.4
162.0759	0.6
170.0930	0.5
195.1131	0.4
211.1074	0.8
214.1072	0.3
225.1220	0.5
240.1340	0.3
242.1017	0.3
248.1120	0.4
258.1452	2.2
259.1279	3.0
263.1246	0.6
273.1443	0.6
274.1398	1.1
276.1552	22.8
277.0612	0.4
277.1604	2.3
278.1628	0.4
283.1282	0.4
289.1455	0.3
290.1356	0.4
290.1817	0.3
291.1574	0.6
292.1498	17.6
293.1514	2.1
294.1643	0.8
295.1495	3.7
296.1528	0.3

Name: (2R)-3-sulfanyl-2-(((4R)-4-((3R,5S,7R,8R,9S,10S,12S,13R,14S,17R)-3,7,12-trihydroxy-10,13-dimethyl-2,3,4,5,6,7,8,9,11,12,14,15,16,17-tetradecahydro-1H-cyclopenta(a)phenanthren-17-yl)pentanoyl)amino)propanoic acid
PrecursorMZ: 512.30361
RT: 1.1808
ExactMass: 511.29675933
Spectrum_type: 2
charge: 1
Formula: C27H45NO6S
SMILES: C[C@H](CCC(=O)N[C@@H](CS)C(=O)O)[C@H]1CC[C@@H]2[C@@]1([C@H](C[C@H]3[C@H]2[C@@H](C[C@H]4[C@@]3(CC[C@H](C4)O)C)O)O)C
Method: HCD
Collision_energy: [28.333334]
Isolation_window: 4.0
Ion_mode: P
Num Peaks: 20
56.9229	4.7
89.0599	11.4
133.0857	4.6
140.1067	5.9
161.1323	4.3
162.1276	8.9
255.2100	6.0
353.1770	6.4
396.3254	21.5
397.3283	5.2
414.3357	45.3
415.3388	11.5
432.3462	19.4
433.3499	3.8
494.2920	5.7
495.3883	4.1
511.2926	3.4
512.3031	100.0
513.3064	26.2
514.3057	3.9

Name: (2R)-6-Methylpiperidine-2-carboxylic acid
PrecursorMZ: 166.07947
RT: 1.4467
ExactMass: 143.094628657
Spectrum_type: 2
charge: 1
Formula: C7H13NO2
SMILES: CC1CCC[C@@H](N1)C(=O)O
Method: HCD
Collision_energy: [28.333334]
Isolation_window: 4.0
Ion_mode: P
Num Peaks: 10
124.0508	1.4
142.0614	1.0
149.0460	4.5
166.0435	0.8
166.0727	100.0
166.0841	3.7
167.0564	5.2
167.0754	6.7
180.1053	0.9
182.0813	0.9

Name: (2R)-methyl 3-methyl-2-(2-((4-methyl-2-oxo-2H-chromen-7-yl)oxy)acetamido)pentanoate (M+H)+
PrecursorMZ: 362.15966
RT: 8.83432
ExactMass: 361.15253745
Spectrum_type: 2
charge: 1
Formula: C19H23NO6
SMILES: CCC(C)C(C(=O)OC)NC(=O)COC1=CC2=C(C=C1)C(=CC(=O)O2)C
Method: HCD
Collision_energy: [28.333334]
Isolation_window: 4.0
Ion_mode: P
Num Peaks: 63
55.0547	1.8
59.0496	0.5
70.0654	1.0
83.0495	1.2
84.0812	2.1
85.0287	0.7
87.0444	0.6
97.0286	0.5
98.0967	0.6
100.0760	0.8
101.0600	5.4
111.0441	0.4
116.0707	0.7
126.0550	0.5
127.0393	0.7
129.1022	0.5
130.0864	1.0
145.0498	0.5
146.0924	0.7
163.0601	0.4
172.0968	0.4
184.0756	0.9
201.0785	3.7
202.0866	4.6
203.0898	0.6
219.1492	5.4
220.1525	0.7
247.1440	0.5
262.1073	10.4
263.1109	1.6
265.1545	0.5
270.1339	0.6
272.1273	0.5
275.1024	1.1
300.1230	3.4
301.1307	24.9
302.1355	5.5
303.1407	0.7
317.1452	0.9
328.1391	0.4
344.1710	0.8
346.1496	0.4
360.1653	0.7
360.1771	0.4
360.1942	0.7
361.1394	6.4
361.1748	2.7
361.1968	0.5
361.2086	0.5
362.0862	1.4
362.1599	100.0
362.1921	5.8
362.1960	0.6
362.2073	6.0
362.2388	0.7
363.0689	8.7
363.1631	20.7
363.1914	4.0
363.2118	0.9
364.0726	1.1
364.1386	1.0
364.1635	2.6
364.1870	9.8

Name: (2R,3R)-3,7,4'-Trihydroxy-5-methoxy-8-prenylflavanone
PrecursorMZ: 371.14875
RT: 2.5198
ExactMass: 370.14163842
Spectrum_type: 2
charge: 1
Formula: C21H22O6
SMILES: CC(=CCC1=C2C(=C(C=C1O)OC)C(=O)[C@@H]([C@H](O2)C3=CC=C(C=C3)O)O)C
Method: HCD
Collision_energy: [28.333334]
Isolation_window: 4.0
Ion_mode: P
Num Peaks: 16
147.0440	11.7
179.0340	100.0
197.0444	21.9
233.0808	44.5
234.0841	5.6
235.0966	6.1
251.0912	14.0
299.0914	24.8
327.1089	7.5
353.1385	27.0
354.1417	7.1
369.4288	5.4
370.1105	6.9
371.1483	39.7
372.1500	7.9
373.1641	25.7

Name: (2R,3S,4R,5R)-2,3,4,5-Tetrahydroxy-6-(((2S,3R,4S,5R,6R)-3,4,5-trihydroxy-6-(hydroxymethyl)tetrahydro-2H-pyran-2-yl)oxy)hexanal
PrecursorMZ: 360.14922
RT: 4.5425
ExactMass: 342.11621151
Spectrum_type: 2
charge: 1
Formula: C12H22O11
SMILES: C([C@@H]1[C@@H]([C@@H]([C@H]([C@H](O1)OC[C@H]([C@H]([C@@H]([C@H](C=O)O)O)O)O)O)O)O)O
Method: HCD
Collision_energy: [28.333334]
Isolation_window: 4.0
Ion_mode: P
Num Peaks: 46
61.0288	3.1
69.0338	4.4
70.0655	7.0
72.0810	2.1
73.0288	2.4
84.0811	8.9
85.0287	40.8
86.0320	2.2
87.0443	2.7
88.0871	1.9
91.0392	5.8
97.0286	4.4
99.0442	2.0
116.0705	3.9
127.0390	19.6
128.0708	2.1
129.1022	2.4
130.0861	3.9
145.0495	40.4
146.0524	3.0
163.0601	100.0
164.0634	5.9
166.0531	2.2
181.0709	4.4
325.1127	11.1
326.1161	2.0
358.1612	4.5
359.1473	1.8
360.1484	5.8
361.1707	4.4
362.1538	2.3
365.1017	4.1
365.2033	16.8
366.1687	2.1
366.2125	2.8
367.1466	2.1
368.1394	3.3
369.1702	2.1
370.1609	3.1
371.1393	2.3
371.1890	2.9
372.1883	4.1
373.1606	4.0
374.1531	2.6
375.1801	2.6
377.1596	1.9

Name: (2R,3S,4S,5R,6R)-2-(((2S,3R,4R)-3,4-dihydroxy-4-(hydroxymethyl)oxolan-2-yl)oxymethyl)-6-(4-(4-hydroxyphenyl)butan-2-yloxy)oxane-3,4,5-triol
PrecursorMZ: 483.18341
RT: 5.9066
ExactMass: 460.19446183
Spectrum_type: 2
charge: 1
Formula: C21H32O11
SMILES: CC(CCC1=CC=C(C=C1)O)O[C@H]2[C@@H]([C@H]([C@@H]([C@H](O2)CO[C@@H]3[C@@H]([C@](CO3)(CO)O)O)O)O)O
Method: HCD
Collision_energy: [28.333334]
Isolation_window: 4.0
Ion_mode: P
Num Peaks: 22
53.6873	5.4
53.7988	1.0
70.0655	0.7
81.0337	0.9
86.0967	0.6
87.0443	1.2
89.0599	4.8
111.0441	1.0
114.0661	1.3
133.0858	2.6
176.8751	1.8
177.1121	0.8
481.3342	0.8
482.2012	0.9
483.1098	0.7
483.1829	100.0
483.2396	0.7
483.2549	0.7
484.1862	19.8
484.2132	0.7
484.2520	0.6
485.1819	5.0

Name: (2R,3S,4S,5R,6S)-2-(Hydroxymethyl)-6-(((1S,4aR,7aS)-7-(hydroxymethyl)-1,4a,5,7a-tetrahydrocyclopenta(c)pyran-1-yl)oxy)tetrahydro-2H-pyran-3,4,5-triol
PrecursorMZ: 353.1203
RT: 7.07944
ExactMass: 330.13146766
Spectrum_type: 2
charge: 1
Formula: C15H22O8
SMILES: C1C=C([C@@H]2[C@H]1C=CO[C@H]2O[C@H]3[C@@H]([C@H]([C@@H]([C@H](O3)CO)O)O)O)CO
Method: HCD
Collision_energy: [28.333334]
Isolation_window: 4.0
Ion_mode: P
Num Peaks: 31
70.0654	2.4
84.0810	2.9
85.0287	2.7
141.0545	2.7
170.0812	2.5
182.0809	4.7
193.0969	2.6
211.1075	39.0
212.0914	2.2
212.1109	2.5
220.1190	16.4
301.1393	5.9
304.1655	2.1
319.1494	7.2
320.1523	2.5
333.1439	2.9
333.1650	2.5
336.1912	3.7
351.1549	2.9
352.1385	2.9
352.1595	7.8
352.2476	8.2
353.1202	100.0
353.1660	4.2
353.2027	2.8
353.2495	2.5
354.1232	13.1
354.2018	17.8
355.1197	5.0
355.1846	3.1
355.2052	2.4

Name: (2R,3S,5R)-2-)6-))(1S,2S)-2-hydroxycyclopentyl(amino(-9-purinyl(-5-(hydroxymethyl)oxolane-3,4-diol
PrecursorMZ: 352.16109
RT: 3.7892
ExactMass: 351.15426879
Spectrum_type: 2
charge: 1
Formula: C15H21N5O5
SMILES: C1C[C@@H]([C@H](C1)O)NC2=C3C(=NC=N2)N(C=N3)[C@H]4[C@H](C([C@H](O4)CO)O)O
Method: HCD
Collision_energy: [28.333334]
Isolation_window: 4.0
Ion_mode: P
Num Peaks: 37
55.0540	3.6
70.0648	2.1
83.0486	2.9
101.0600	12.9
130.0862	1.7
142.0866	1.8
164.0704	3.2
220.1193	100.0
221.1226	12.6
247.1407	1.5
254.1021	13.9
255.1059	1.5
264.1212	1.7
351.1578	5.2
352.1632	52.3
353.1676	15.6
354.1544	74.8
355.1554	13.2
356.1689	2.6
357.1697	3.6
357.2103	3.0
358.1259	2.5
359.1910	1.5
360.1420	3.0
360.2262	3.6
361.1447	2.3
362.1627	2.4
363.1546	3.7
364.1852	2.4
365.1779	4.0
366.1615	5.3
367.1902	7.5
368.1714	9.7
369.1658	10.6
370.1499	30.3
370.1912	2.2
371.1902	3.5

Name: (2R,4'aR,5'S,6'R,6'aS,10'aR,10'bR)-6'-(acetyloxy)-4'a,6'a,10'b-trimethyl-5''-oxo-decahydro-1'H-dispiro(oxirane-2,7'-naphtho(2,1-b)pyran-3',3''-oxolane)-5'-yl 2-methylpropanoate
PrecursorMZ: 479.26364
RT: 5.5766
ExactMass: 478.25666817
Spectrum_type: 2
charge: 1
Formula: C26H38O8
SMILES: CC(C)C(=O)O[C@H]1[C@@H]([C@@]2([C@H](CCC[C@]23CO3)[C@@]4([C@]1(OC5(CC4)CC(=O)OC5)C)C)C)OC(=O)C
Method: HCD
Collision_energy: [28.333334]
Isolation_window: 4.0
Ion_mode: P
Num Peaks: 175
53.2518	4.5
59.0496	3.9
69.0336	5.3
69.0701	9.2
70.0656	3.6
71.0494	24.4
81.0700	6.2
83.0858	4.1
85.0651	3.1
86.0967	2.8
89.0600	5.1
93.0697	5.1
95.0494	3.1
95.0855	5.5
97.0648	4.9
99.0441	76.1
99.0469	3.3
100.0475	3.4
101.0598	3.5
105.0700	4.5
107.0854	7.5
109.0649	5.7
109.1015	3.5
111.0806	3.9
113.0597	3.8
116.0708	3.2
119.0854	7.6
120.0810	2.9
121.1009	5.0
123.0800	3.9
125.0598	4.7
127.0747	5.9
133.0860	3.2
133.1009	8.3
135.0804	5.5
135.1167	3.9
145.1011	7.5
147.0805	3.6
147.1165	8.3
149.0960	5.9
151.0753	4.8
157.1013	5.7
159.0807	3.1
159.1166	8.8
161.0961	5.7
161.1328	3.7
163.1112	3.3
169.1006	4.1
171.1168	7.1
173.0962	5.3
173.1322	5.5
175.0752	5.4
175.1114	5.3
177.0909	4.7
179.1068	3.4
183.1169	8.8
185.0961	3.0
185.1324	6.9
187.1114	8.2
187.1481	6.7
189.0908	3.9
189.1274	6.1
191.1065	8.5
197.1326	7.0
199.1116	5.0
199.1480	3.7
201.1274	5.9
203.1063	3.7
205.1222	12.9
207.1378	7.6
209.1321	3.7
211.1116	5.9
211.1482	4.1
213.1273	5.5
215.1070	4.6
217.1212	3.3
219.1377	3.0
223.1479	4.3
225.1273	8.6
227.1429	12.0
229.1226	4.2
229.1585	11.8
231.1380	4.5
233.1524	3.1
235.1477	4.5
237.1267	3.3
237.1634	3.8
239.1429	6.0
241.1219	3.5
241.1587	5.1
243.1378	6.5
247.1330	3.1
247.1690	40.9
248.1724	6.6
251.1429	3.9
253.1587	3.8
255.1375	3.5
257.1534	4.8
263.1426	4.2
265.1584	11.8
265.1800	4.5
267.1380	4.4
267.1740	3.3
269.1533	5.3
271.1678	3.0
277.1581	4.4
279.1742	5.7
281.1535	5.6
283.1688	7.0
285.1485	4.5
287.1645	2.8
289.1573	3.2
295.1691	5.1
297.1843	5.4
299.1993	4.3
301.1795	3.3
305.1523	3.4
307.1688	19.0
309.1836	4.4
311.1639	4.0
321.1845	5.4
323.1633	7.2
325.1795	21.3
327.1952	5.0
329.1749	3.0
337.2160	3.9
339.1948	5.3
339.2311	3.1
341.1736	4.3
343.1899	11.1
347.2204	4.6
349.1796	6.6
349.2147	3.0
355.2266	3.1
357.2059	4.1
361.2171	2.6
363.1627	3.6
363.2307	3.3
365.2108	6.0
367.1898	9.7
367.2259	6.7
379.2261	9.8
381.2419	6.5
383.2212	8.2
385.2005	7.7
385.2365	8.0
389.2112	5.3
391.2265	8.0
397.2374	6.5
399.2532	5.4
401.2318	10.0
403.2116	3.0
407.2212	23.3
408.2246	5.9
409.2371	17.5
419.2423	3.8
425.2318	39.8
426.2351	10.4
427.2473	24.5
431.2663	20.2
432.2690	3.7
433.2570	4.8
443.2418	16.4
444.2458	3.3
445.2581	100.0
461.2530	49.2
462.2565	10.8
463.2689	13.3
477.2471	3.6
478.2528	5.5
478.3528	16.9
479.2639	89.1
479.3574	4.6
480.2396	21.6
480.2686	21.3

Name: (2R,6S)-6-ethyl-1',6'-dimethoxyspiro(10-oxa-5-azatricyclo(5.3.1.04,8)undecane-2,3'-indole)-2'-one
PrecursorMZ: 341.1851
RT: 5.7514
ExactMass: 358.18925731
Spectrum_type: 2
charge: 1
Formula: C20H26N2O4
SMILES: CC[C@H]1C2CC3[C@@]4(CC(C2CO3)N1)C5=C(C=C(C=C5)OC)N(C4=O)OC
Method: HCD
Collision_energy: [28.333334]
Isolation_window: 4.0
Ion_mode: P
Num Peaks: 37
69.0580	4.2
69.0701	10.7
69.1691	3.7
69.1867	3.0
70.0653	2.6
80.0496	60.3
81.0529	3.1
86.0966	3.2
97.0648	3.7
97.4559	3.0
105.0697	2.1
120.0806	30.7
121.0838	2.7
124.0754	2.1
131.0488	2.0
146.0597	15.0
164.0702	11.2
166.0859	13.8
182.0807	9.9
192.0649	3.4
216.1378	1.9
240.2315	3.9
255.0969	3.3
321.1429	2.9
339.1694	2.0
339.3438	3.8
340.1529	2.6
340.1649	5.5
341.1492	4.9
341.1849	100.0
342.1323	2.1
342.1678	3.2
342.1882	21.6
342.3720	2.1
343.1483	1.8
343.1657	3.2
343.1930	2.2

Name: (2R,6S)-6-ethyl-1',6'-dimethoxyspiro)10-oxa-5-azatricyclo)5.3.1.04,8(undecane-2,3'-indole(-2'-one
PrecursorMZ: 341.18599
RT: 1.0985
ExactMass: 358.18925731
Spectrum_type: 2
charge: 1
Formula: C20H26N2O4
SMILES: CC[C@H]1C2CC3[C@@]4(CC(C2CO3)N1)C5=C(C=C(C=C5)OC)N(C4=O)OC
Method: HCD
Collision_energy: [28.333334]
Isolation_window: 4.0
Ion_mode: P
Num Peaks: 58
60.0449	3.1
69.0704	9.9
70.0656	2.5
80.0500	64.1
81.0339	4.5
81.0533	3.7
84.0812	1.6
89.0601	2.6
97.0652	3.3
98.0967	3.1
111.0443	2.8
120.0811	29.6
121.0845	2.5
132.0445	4.7
133.0861	2.0
146.0603	15.9
147.0642	1.8
164.0707	2.1
166.0865	18.2
192.0655	3.2
216.1381	1.7
240.2323	3.6
245.1291	2.8
297.1231	2.2
340.1660	3.8
341.1513	4.0
341.1865	100.0
342.1458	2.6
342.1903	21.0
343.1276	2.3
343.1627	1.7
343.1936	3.2
344.1507	5.4
344.1962	1.7
345.1449	4.4
345.1916	1.8
346.1757	4.5
346.2584	2.6
346.3314	4.1
347.1618	4.4
348.1471	3.1
348.1948	2.2
349.1448	1.8
349.1793	2.8
351.1555	2.0
351.1998	1.8
352.2539	1.9
353.1518	2.1
354.1417	2.3
355.1648	3.6
356.1531	3.8
356.3530	2.4
357.1498	2.9
357.1866	2.2
358.1752	4.7
358.3684	2.2
359.1593	4.7
359.1958	1.6

Name: (2R,6S,11R)-6-ethyl-11-hydroxy-1',6'-dimethoxyspiro(10-oxa-5-azatricyclo(5.3.1.04,8)undecane-2,3'-indole)-2'-one
PrecursorMZ: 375.1905
RT: 6.2942
ExactMass: 374.18417193
Spectrum_type: 2
charge: 1
Formula: C20H26N2O5
SMILES: CC[C@H]1C2[C@H](C3[C@@]4(CC(C2CO3)N1)C5=C(C=C(C=C5)OC)N(C4=O)OC)O
Method: HCD
Collision_energy: [28.333334]
Isolation_window: 4.0
Ion_mode: P
Num Peaks: 25
70.0653	22.1
84.0809	59.4
85.0285	20.3
86.0964	6.9
130.0859	15.5
210.0905	6.8
210.1272	22.2
224.1428	11.3
252.1376	17.6
273.1590	30.9
285.1588	9.0
297.1583	13.6
312.1586	19.5
315.1689	40.8
316.1725	6.7
331.1642	13.7
339.1690	17.9
357.1799	8.6
373.1576	8.5
374.1587	40.4
374.2527	21.6
375.1532	10.1
375.1901	100.0
376.1941	25.2
377.1680	10.2

Name: (2R,6S,11R)-6-ethyl-11-hydroxy-1',6'-dimethoxyspiro)10-oxa-5-azatricyclo)5.3.1.04,8(undecane-2,3'-indole(-2'-one
PrecursorMZ: 375.19142
RT: 1.2085
ExactMass: 374.18417193
Spectrum_type: 2
charge: 1
Formula: C20H26N2O5
SMILES: CC[C@H]1C2[C@H](C3[C@@]4(CC(C2CO3)N1)C5=C(C=C(C=C5)OC)N(C4=O)OC)O
Method: HCD
Collision_energy: [28.333334]
Isolation_window: 4.0
Ion_mode: P
Num Peaks: 65
70.0656	22.9
72.0813	9.6
80.0500	8.3
81.0340	7.4
83.0495	2.7
84.0813	3.9
86.0969	2.7
95.0497	2.3
96.0812	5.9
98.0968	3.1
111.0444	5.5
135.0444	5.0
146.0927	8.3
149.0236	2.7
152.1075	3.5
154.1230	3.0
160.0765	2.6
161.0839	4.6
162.0913	2.7
180.1019	5.2
188.0709	5.4
230.1422	3.1
233.1650	4.9
234.1494	2.6
251.1395	2.8
269.1508	5.0
288.1230	6.1
306.1338	2.7
357.1821	10.0
361.2849	2.5
373.1749	3.2
374.1658	10.9
374.2058	4.4
375.1932	100.0
376.1911	22.0
377.1657	5.8
377.2097	7.9
378.1592	4.9
378.2076	4.2
379.1931	5.1
379.2940	5.3
380.1503	2.6
380.2011	12.8
381.1522	4.1
381.2035	5.2
382.1675	6.7
383.1649	6.8
384.1479	5.0
384.1938	3.8
385.1785	7.9
386.1644	8.3
386.2083	30.4
387.1579	5.2
387.2073	8.8
388.1746	7.7
388.2209	3.1
389.1669	8.1
389.2222	5.1
390.1562	3.9
390.2009	5.6
391.1892	14.0
392.2093	3.3
392.2592	8.1
393.1612	2.4
393.2146	3.6

Name: (2S)-2-((1S)-1-hydroxypentyl)-4-methoxy-2,3-dihydropyran-6-one
PrecursorMZ: 215.12781
RT: 1.31445
ExactMass: 214.12050905
Spectrum_type: 2
charge: 1
Formula: C11H18O4
SMILES: CCCC[C@@H]([C@@H]1CC(=CC(=O)O1)OC)O
Method: HCD
Collision_energy: [28.333334]
Isolation_window: 4.0
Ion_mode: P
Num Peaks: 52
55.0182	0.3
55.0546	2.4
67.0546	3.7
69.0338	1.1
69.0702	1.3
73.0287	1.1
79.0545	2.5
81.0701	2.8
83.0493	1.1
83.0857	7.7
84.0891	0.5
87.0442	0.6
91.0543	0.3
93.0700	1.2
95.0856	0.6
97.1012	18.8
98.1046	1.1
99.0441	2.4
101.0597	0.5
101.0961	0.3
107.0855	5.0
108.0891	0.4
109.0648	1.2
109.1011	1.0
111.0442	0.4
111.0803	0.5
117.0700	0.5
123.0803	0.6
125.0960	16.5
126.0993	1.3
127.0753	0.8
135.0802	1.6
137.0595	3.4
143.1064	0.7
153.0908	1.1
155.0701	0.8
171.1013	1.1
173.0806	0.7
181.0853	0.4
189.1117	2.2
197.1169	1.1
199.0961	2.7
213.1118	0.7
214.1144	0.5
215.1059	0.8
215.1101	0.7
215.1273	100.0
215.1446	0.4
215.1490	0.6
215.1550	0.3
216.1306	11.9
217.1327	0.6

Name: (2S)-2-((1S,2R)-1,2-dihydroxypentyl)-4-methoxy-2,3-dihydropyran-6-one
PrecursorMZ: 231.1226
RT: 1.2931
ExactMass: 230.11542367
Spectrum_type: 2
charge: 1
Formula: C11H18O5
SMILES: CCC[C@H]([C@@H]([C@@H]1CC(=CC(=O)O1)OC)O)O
Method: HCD
Collision_energy: [28.333334]
Isolation_window: 4.0
Ion_mode: P
Num Peaks: 51
67.0547	4.6
72.0812	6.8
79.0546	3.4
81.0702	4.4
91.0546	4.6
93.0702	21.8
95.0858	4.2
101.0600	5.0
105.0701	2.3
107.0494	2.9
107.0857	8.8
109.1015	6.7
111.0807	4.8
115.0392	2.3
117.0701	8.4
119.0857	8.7
121.0651	3.6
123.0807	4.7
129.0548	5.7
130.0863	3.0
135.0805	72.1
136.0839	6.9
137.0960	3.8
139.0754	26.8
153.0911	51.5
154.0944	4.1
161.1326	3.3
163.0755	13.4
165.0912	5.3
167.1068	5.9
170.1175	4.9
179.1434	2.4
181.0860	100.0
182.0894	11.7
198.0765	2.8
199.0965	29.9
200.1001	3.1
213.1120	4.7
229.1331	4.2
229.1432	6.7
230.0813	2.7
230.1178	7.4
230.1384	3.9
231.1017	3.2
231.1129	5.1
231.1490	4.0
232.0966	7.3
232.1335	3.6
232.1696	2.5
233.0808	2.5
233.1286	2.5

Name: (2S)-2-))(4R)-4-)(3R,5S,7R,8R,9S,10S,13R,14S,17R)-3,7-dihydroxy-10,13-dimethyl-2,3,4,5,6,7,8,9,11,12,14,15,16,17-tetradecahydro-1H-cyclopenta)a(phenanthren-17-yl(pentanoyl(amino(-3-methylbutanoic acid
PrecursorMZ: 474.35709
RT: 0.8581
ExactMass: 491.36107366
Spectrum_type: 2
charge: 1
Formula: C29H49NO5
SMILES: C[C@H](CCC(=O)N[C@@H](C(C)C)C(=O)O)[C@H]1CC[C@@H]2[C@@]1(CC[C@H]3[C@H]2[C@@H](C[C@H]4[C@@]3(CC[C@H](C4)O)C)O)C
Method: HCD
Collision_energy: [28.333334]
Isolation_window: 4.0
Ion_mode: P
Num Peaks: 64
52.7044	1.8
52.7074	5.4
52.8187	1.5
70.0656	9.0
72.0813	4.5
81.0339	4.2
81.0703	1.3
82.0656	1.4
83.0496	1.4
84.0448	3.2
84.0813	6.9
86.0968	6.6
95.0496	1.4
98.0606	1.5
100.0760	3.6
102.0552	2.8
107.0497	1.3
107.0859	1.3
110.0604	1.5
110.0719	2.1
111.0444	2.2
116.0709	8.5
120.0811	1.4
126.0915	1.9
128.0709	29.3
129.0747	2.1
130.0502	2.1
130.0864	3.6
133.1012	1.4
136.0759	2.5
137.0601	1.3
140.1070	2.7
147.0779	1.4
148.0609	1.6
149.0602	1.4
152.0712	1.5
154.0862	1.5
156.1020	2.3
161.1328	1.6
164.0704	2.2
166.0868	1.4
173.0928	1.8
180.1021	2.2
182.0803	2.3
194.0819	1.3
299.2378	2.4
430.3319	7.1
431.3349	2.3
460.1827	1.4
473.1699	1.8
474.1707	1.5
474.3582	100.0
475.1887	1.9
475.3612	34.0
476.3649	5.5
477.1953	2.0
478.1866	2.3
480.1798	1.4
481.1880	1.5
482.1502	1.5
483.2123	1.4
485.1819	1.4
486.1937	1.3
489.1941	1.5

Name: (2S)-2-))3-(7-Methoxy-1H-indol-1-YL)propanoyl(amino-4-methylpentanoic acid
PrecursorMZ: 333.18041
RT: 3.1475
ExactMass: 332.17360725
Spectrum_type: 2
charge: 1
Formula: C18H24N2O4
SMILES: CC(C)C[C@@H](C(=O)O)NC(=O)CCN1C=CC2=C1C(=CC=C2)OC
Method: HCD
Collision_energy: [28.333334]
Isolation_window: 4.0
Ion_mode: P
Num Peaks: 61
55.0547	1.2
70.0657	1.2
83.0494	1.8
84.0812	1.5
87.0444	1.2
101.0600	8.2
111.0444	1.4
130.0860	0.8
136.0758	0.9
162.1127	9.4
163.1160	0.9
170.0810	3.4
174.1239	0.8
182.0815	1.3
185.0838	2.4
186.0915	4.6
230.1001	0.7
233.1284	5.2
235.1081	0.8
246.1126	11.5
247.1160	1.6
249.1223	1.4
271.1201	1.7
284.1280	1.5
285.1358	16.2
286.1411	4.8
287.1438	0.7
331.1652	1.0
332.1490	11.4
333.1824	35.4
334.1857	7.3
335.1614	5.1
335.1983	3.3
336.1561	2.9
336.1960	1.5
337.1772	3.7
337.2158	0.9
338.1667	0.9
338.2049	0.8
339.1574	1.4
339.1932	3.1
340.1415	1.5
340.2140	1.6
341.1726	0.9
341.2091	1.8
342.1375	1.0
342.2087	0.8
343.1615	0.7
344.1418	0.8
344.1778	1.7
345.1412	1.2
345.1816	1.0
346.1648	100.0
347.1278	0.9
347.1667	21.0
348.1683	2.2
349.1762	9.6
350.1757	2.2
351.1567	1.0
351.1913	3.9
352.1408	0.8

Name: (2S)-2-)3-(1-methylbenzimidazol-5-yl)propanoylamino(-3-phenylpropanoic acid
PrecursorMZ: 352.16543
RT: 2.8876
ExactMass: 351.15829154
Spectrum_type: 2
charge: 1
Formula: C20H21N3O3
SMILES: CN1C=NC2=C1C=CC(=C2)CCC(=O)N[C@@H](CC3=CC=CC=C3)C(=O)O
Method: HCD
Collision_energy: [28.333334]
Isolation_window: 4.0
Ion_mode: P
Num Peaks: 17
70.0655	8.2
84.0812	9.7
89.0599	4.6
120.0807	5.7
121.0892	5.3
130.0863	4.8
166.0864	30.6
306.1597	7.7
352.1652	100.0
353.1700	23.4
354.1380	6.9
356.1485	7.3
356.3526	10.5
358.3681	6.3
362.1715	6.5
364.1892	9.5
368.2129	6.4

Name: (2S)-2-Carboxy-gamma-oxo-1-pyrrolidinebutanoic acid
PrecursorMZ: 238.07085
RT: 6.6071
ExactMass: 215.07937252
Spectrum_type: 2
charge: 1
Formula: C9H13NO5
SMILES: C1C[C@H](N(C1)C(=O)CCC(=O)O)C(=O)O
Method: HCD
Collision_energy: [28.333334]
Isolation_window: 4.0
Ion_mode: P
Num Peaks: 82
68.0497	1.0
70.0655	2.0
81.0338	13.7
83.0131	1.7
84.0447	11.6
84.0811	1.0
85.0287	1.2
96.0445	2.3
97.0286	14.9
98.0603	1.0
108.0445	2.4
109.0286	74.4
109.0762	1.6
110.0319	4.1
114.0551	6.7
116.0707	2.8
118.0653	1.0
122.0600	0.9
125.0471	1.3
126.0550	5.6
128.0706	6.6
130.0499	9.2
132.0808	1.5
136.0393	1.6
136.0757	4.6
138.0548	1.4
140.0342	2.7
142.0499	8.0
146.0600	3.3
147.0440	3.5
148.0393	1.0
148.0759	1.0
148.1120	1.0
150.0551	1.9
154.0499	46.3
155.0532	3.5
161.0712	1.0
164.0706	44.4
165.0738	4.2
166.0499	3.1
166.0862	2.0
167.0567	1.6
174.0550	3.1
175.0867	1.1
175.1232	0.9
176.0706	1.3
177.0657	1.0
178.0863	1.3
182.0811	2.0
191.0813	1.0
192.0654	87.6
192.1016	2.2
193.0609	1.2
193.0688	8.9
193.0971	1.8
194.0447	2.4
194.0810	2.4
195.0482	0.8
195.0763	1.3
196.0602	1.0
210.0759	14.6
211.0793	1.0
220.0603	1.4
220.0971	1.0
221.0917	4.2
222.0759	1.4
223.0711	2.3
236.0915	1.6
237.0868	3.1
237.1231	3.5
238.0709	100.0
238.0973	0.9
238.1071	44.0
238.1175	1.7
239.0754	15.2
239.1018	2.4
239.1124	5.0
239.1383	3.4
240.0864	4.1
240.0981	1.3
240.1236	1.1
240.1591	1.0

Name: (2S)-4-amino-2-((2R)-2-((2S)-1-(2-(2-aminoacetamido)-4-methylpentanoyl)pyrrolidine-2-carboxamido)-3-mercaptopropanamido)-4-oxobutanoic (tert-butyl carbonic) anhydride (M+H)+
PrecursorMZ: 603.28076
RT: 5.0013
ExactMass: 602.27339811
Spectrum_type: 2
charge: 1
Formula: C25H42N6O9S
SMILES: CC(C)CC(C(=O)N1CCCC1C(=O)NC(CS)C(=O)NC(CC(=O)N)C(=O)OC(=O)OC(C)(C)C)NC(=O)CN
Method: HCD
Collision_energy: [28.333334]
Isolation_window: 4.0
Ion_mode: P
Num Peaks: 74
70.0653	0.9
72.0811	1.1
86.0966	1.0
116.0705	0.9
120.0807	0.7
122.0600	1.8
124.0755	0.9
134.0598	1.1
136.0754	0.8
138.0912	1.1
140.0702	0.7
148.0754	1.2
152.0704	4.2
164.0704	1.9
166.0860	2.8
174.0912	1.2
180.1015	0.8
182.0808	1.6
188.0915	1.9
188.1064	1.3
212.1062	0.7
227.1174	1.0
229.1331	23.8
230.1366	3.0
243.1488	1.3
244.1329	0.9
253.1332	0.9
255.1123	3.5
255.1485	1.4
257.1279	4.0
261.1593	1.2
269.1276	1.3
271.1435	12.8
272.1278	0.9
272.1472	1.7
273.1228	10.3
274.1265	1.8
285.1223	1.6
287.1386	8.8
288.1457	4.1
289.1207	0.7
289.1540	100.0
289.1878	0.8
290.1575	13.5
291.1700	0.8
297.1229	1.1
299.1383	4.2
299.2574	6.4
300.2608	1.2
301.1540	6.3
313.1175	2.6
314.1211	1.1
315.1332	39.3
316.1366	6.0
317.1489	56.3
345.1436	1.1
359.1231	0.9
408.1908	5.7
409.1976	0.9
422.2074	0.8
423.2152	0.8
424.2218	1.1
464.2177	0.8
468.2126	0.9
480.2101	2.0
500.2770	1.0
518.2875	2.3
584.3191	0.7
587.2867	1.5
602.2609	0.8
602.3312	0.8
603.2803	4.7
604.2653	3.0
605.2988	6.7

Name: (2S)-6-amino-2-(hexanoylamino)hexanoic Acid
PrecursorMZ: 245.18585
RT: 7.2296
ExactMass: 244.17869263
Spectrum_type: 2
charge: 1
Formula: C12H24N2O3
SMILES: CCCCCC(=O)NC(CCCCN)C(=O)O
Method: HCD
Collision_energy: [28.333334]
Isolation_window: 4.0
Ion_mode: P
Num Peaks: 97
70.0655	3.8
71.0859	15.3
81.0339	2.0
84.0447	3.3
84.0811	83.7
85.0845	4.1
86.0604	3.6
86.0968	11.1
90.0553	2.1
97.0286	4.5
98.0603	3.9
98.9844	10.2
99.0807	10.3
100.0760	3.0
101.1076	3.4
110.0603	3.4
112.0396	3.1
112.0759	3.4
114.0550	3.2
114.0664	4.5
114.0916	4.9
116.0709	5.1
128.0707	2.6
129.1023	100.0
130.0863	48.1
130.1056	6.2
131.0895	2.8
132.0658	2.9
132.0769	3.7
140.0706	2.2
142.0864	6.8
144.0654	2.9
144.1019	9.6
147.1129	43.1
148.1162	2.4
149.0710	3.1
149.1075	8.6
156.0658	2.3
160.0760	3.8
161.0711	5.1
163.0866	3.7
167.0817	5.9
173.0209	5.9
179.0814	10.3
181.0971	2.6
182.0811	2.2
182.1540	9.1
185.1325	2.4
186.0760	2.6
186.0873	4.1
191.0815	5.0
197.0923	8.3
198.1126	2.4
198.1237	4.9
200.1283	3.3
201.1023	4.6
201.1232	5.3
204.0865	3.1
209.0921	6.5
209.1649	4.1
210.0760	3.7
220.9983	2.0
226.0905	3.6
226.1073	5.1
226.1439	3.3
227.1026	14.8
227.1426	2.6
227.1753	6.4
228.0865	4.5
228.0979	2.4
228.1228	2.7
228.1595	4.5
229.1185	2.0
243.1337	6.3
244.0814	3.5
244.0966	6.2
244.1177	13.9
244.1293	15.3
244.1545	6.2
244.1656	2.8
244.1906	3.7
245.0798	2.2
245.0926	3.3
245.1131	72.9
245.1481	4.2
245.1536	11.2
245.1859	63.1
246.0765	3.1
246.0968	4.0
246.1082	26.8
246.1174	3.9
246.1334	9.4
246.1457	3.9
246.1896	8.3
247.1075	9.6
247.1104	2.1
247.1695	3.1

Name: (2S)-8-((E)-3-hydroxy-3-methylbut-1-enyl)-5,7-dimethoxy-2-phenyl-2,3-dihydrochromen-4-one
PrecursorMZ: 391.15135
RT: 1.1699
ExactMass: 368.16237386
Spectrum_type: 2
charge: 1
Formula: C22H24O5
SMILES: CC(C)(/C=C/C1=C2C(=C(C=C1OC)OC)C(=O)C[C@H](O2)C3=CC=CC=C3)O
Method: HCD
Collision_energy: [28.333334]
Isolation_window: 4.0
Ion_mode: P
Num Peaks: 8
149.0232	15.0
149.0962	19.0
389.1931	54.5
390.1916	59.3
391.1518	100.0
391.1912	11.7
392.1546	22.9
393.1887	12.4

Name: (2S,3R)-2-aminoheptadecane-1,3-diol
PrecursorMZ: 288.28933
RT: 0.5844
ExactMass: 287.282429423
Spectrum_type: 2
charge: 1
Formula: C17H37NO2
SMILES: CCCCCCCCCCCCCC[C@H]([C@H](CO)N)O
Method: HCD
Collision_energy: [28.333334]
Isolation_window: 4.0
Ion_mode: P
Num Peaks: 186
55.0547	1.3
56.0499	4.2
57.0340	21.5
57.0703	14.9
58.0294	1.2
58.0656	2.4
59.0496	13.2
60.0449	100.0
61.0482	2.5
67.0547	16.2
68.0581	1.1
69.0703	15.0
70.0656	3.5
71.0495	2.9
71.0859	15.1
72.0448	1.4
73.0288	1.1
74.0603	2.1
79.0546	4.0
81.0339	1.9
81.0702	23.6
82.0656	2.1
82.0734	1.7
83.0497	1.5
83.0859	17.0
84.0812	2.0
84.0891	1.4
85.0651	4.3
85.1015	11.6
86.0604	1.5
86.0968	1.6
87.0444	1.1
89.0600	26.2
91.0544	5.3
93.0701	5.9
95.0497	1.6
95.0858	28.1
96.0891	2.2
97.0650	2.7
97.1014	11.9
98.0604	1.0
99.0807	6.4
100.0760	1.4
101.0599	13.3
101.0962	1.2
105.0702	2.2
107.0705	1.7
107.0857	5.2
109.1014	18.1
110.1048	1.3
111.0441	1.3
111.0807	1.6
111.1170	4.0
113.0600	1.1
115.0755	3.7
116.0709	1.2
117.0912	2.9
119.0857	2.4
120.0811	2.2
121.1013	6.4
122.0601	1.5
123.1170	6.3
124.0758	4.3
125.0963	1.2
126.0916	3.2
133.0860	7.0
133.1011	2.3
135.1169	5.5
136.0754	1.3
137.0596	1.7
137.1324	2.5
138.0913	3.1
143.1069	1.1
145.1011	1.2
147.0810	1.1
147.1168	1.8
148.0756	1.4
149.1321	1.9
150.0550	1.1
151.0966	12.6
151.1117	2.0
151.1481	1.1
152.0711	1.1
157.1223	7.9
159.1171	1.1
164.0707	4.8
164.1073	1.1
166.0865	1.5
174.0908	1.2
176.1067	1.7
178.0857	2.7
180.1021	1.3
190.0862	6.5
192.1021	1.2
200.1074	1.5
204.1015	1.8
211.2057	1.1
212.2372	3.1
217.1339	1.7
219.1131	1.7
226.2532	1.7
229.1336	2.0
231.1137	2.8
232.0967	5.6
240.2684	10.1
241.1337	2.0
241.2724	2.1
242.1172	1.4
243.1137	1.3
243.1501	1.3
245.1283	21.7
246.1332	5.0
247.1445	2.1
250.2536	2.6
252.2686	13.1
253.2724	2.6
254.2840	8.8
255.1126	1.4
255.1494	1.4
255.2880	1.7
256.1562	2.7
257.1285	14.7
257.1640	2.6
258.1340	3.2
258.2438	1.4
259.1430	2.3
262.2513	1.3
264.2685	5.9
265.2717	1.1
266.2840	6.2
267.2881	1.4
268.2997	2.8
269.1280	1.5
269.3032	1.2
270.2790	48.9
271.1437	1.7
271.2824	9.9
273.1592	1.1
277.2158	1.0
280.2633	28.6
281.2670	6.2
282.2790	70.3
283.1439	6.0
283.2824	12.3
284.2946	52.5
285.1234	2.7
285.2979	10.0
286.1303	2.1
286.3043	1.8
287.1387	19.2
288.1472	3.1
288.2554	2.7
288.2892	36.8
289.1178	1.3
289.1529	2.1
289.2178	1.1
289.2927	7.0
290.2685	1.9
291.1345	8.3
291.2157	3.2
291.2524	3.7
292.1401	1.2
292.2265	2.1
294.1343	1.1
295.1440	1.3
295.2598	1.2
296.2936	1.6
297.1227	1.3
298.1812	1.1
298.2769	1.3
298.3461	1.1
299.1389	3.4
300.2893	8.6
301.1202	1.3
301.1543	20.3
301.2160	1.1
301.2921	1.6
302.1576	2.8
302.3051	43.7
303.1338	6.3
303.1691	2.2
303.3084	9.5
304.2990	12.9
305.1538	1.2
305.3023	3.2
306.2776	2.8

Name: (2S,3S,3aR)-2-(1,3-benzodioxol-5-yl)-5,7-dimethoxy-3-methyl-3a-prop-2-enyl-2,3-dihydro-1-benzofuran-6-one
PrecursorMZ: 371.14867
RT: 0.7956
ExactMass: 370.14163842
Spectrum_type: 2
charge: 1
Formula: C21H22O6
SMILES: C[C@@H]1[C@H](OC2=C(C(=O)C(=C[C@@]12CC=C)OC)OC)C3=CC4=C(C=C3)OCO4
Method: HCD
Collision_energy: [28.333334]
Isolation_window: 4.0
Ion_mode: P
Num Peaks: 9
57.0703	19.2
269.0803	13.2
287.0908	13.4
297.1482	15.2
315.1588	34.4
325.1433	18.6
353.1386	16.1
371.1484	100.0
372.1518	24.5

Name: (2S,3S,4S)-3,4-dihydroxy-6-methoxy-3-methyl-7-methylidene-2-pentyl-2,4-dihydropyrano(2,3-c)pyrrol-5-one
PrecursorMZ: 315.19089
RT: 8.372
ExactMass: 297.15762283
Spectrum_type: 2
charge: 1
Formula: C15H23NO5
SMILES: CCCCC[C@H]1[C@@]([C@H](C2=C(O1)C(=C)N(C2=O)OC)O)(C)O
Method: HCD
Collision_energy: [28.333334]
Isolation_window: 4.0
Ion_mode: P
Num Peaks: 113
55.0546	1.2
57.0339	1.3
57.0703	3.7
59.0494	0.6
67.0545	1.0
69.0702	1.0
69.5865	0.6
70.0656	0.7
71.0858	3.9
72.0890	0.5
80.0498	0.6
81.0339	0.9
81.0701	1.6
82.0655	1.2
83.0495	1.4
83.0857	1.3
84.0811	1.2
85.1014	2.4
87.0444	0.6
89.0598	0.5
94.0654	2.9
95.0856	2.8
96.0448	0.7
97.1012	0.6
98.0605	0.6
98.0967	4.0
98.9844	1.1
99.0440	0.5
100.0759	1.8
101.0568	0.7
101.0599	8.8
102.0631	0.6
108.0809	1.2
109.0286	0.7
109.1012	1.3
112.0756	0.8
114.0662	0.6
116.0706	0.5
118.0864	1.2
123.1170	0.5
124.0756	0.5
126.0548	1.9
126.0912	6.7
127.0944	0.5
128.0707	0.5
130.0861	0.5
136.0755	5.5
137.0788	0.5
138.0548	1.2
138.0911	1.1
142.0859	0.4
144.1017	7.8
145.1053	0.6
151.0864	0.9
152.0704	2.4
152.1067	0.8
153.1020	0.7
154.0861	3.9
156.1017	0.6
158.1173	0.8
170.0809	0.5
171.1125	1.4
179.1178	0.5
180.0652	2.3
187.1438	0.6
196.0608	0.5
196.0966	0.8
197.1283	0.6
198.0759	0.9
200.0919	0.7
200.1025	4.8
207.0049	0.6
214.0706	1.1
215.1027	0.5
215.1387	2.4
216.1226	0.9
226.1071	2.5
253.1177	0.4
253.1543	1.2
257.2472	0.6
271.1646	19.8
272.1681	2.7
288.1366	0.5
296.1109	0.7
297.1426	0.8
297.1801	2.0
298.1249	0.5
313.1735	1.0
313.1865	1.5
313.2730	11.8
314.1043	0.5
314.1222	10.1
314.1361	0.5
314.1718	0.9
314.2055	1.0
314.2764	4.0
315.1251	0.9
315.1289	1.7
315.1542	71.2
315.1682	1.4
315.1906	100.0
315.2059	1.3
315.2199	0.8
315.2285	0.8
315.2792	0.5
316.1156	0.6
316.1336	1.7
316.1561	9.8
316.1941	16.8
317.1326	0.6
317.1464	1.4
317.1709	1.2
317.1960	1.2

Name: (2S,3S,4S)-3,4-dihydroxy-6-methoxy-3-methyl-7-methylidene-2-pentyl-2,4-dihydropyrano)2,3-c(pyrrol-5-one
PrecursorMZ: 315.19152
RT: 0.7068
ExactMass: 297.15762283
Spectrum_type: 2
charge: 1
Formula: C15H23NO5
SMILES: CCCCC[C@H]1[C@@]([C@H](C2=C(O1)C(=C)N(C2=O)OC)O)(C)O
Method: HCD
Collision_energy: [28.333334]
Isolation_window: 4.0
Ion_mode: P
Num Peaks: 268
55.0547	4.8
67.0547	4.9
69.0339	1.6
69.0703	4.7
70.0656	14.6
71.0496	3.9
72.0812	5.2
79.0546	4.5
81.0339	13.5
81.0703	9.4
83.0496	3.3
83.0859	27.8
84.0449	1.7
84.0812	5.6
84.0889	1.9
85.0652	3.9
86.0968	8.9
87.0445	5.1
89.0601	6.4
91.0546	4.2
93.0702	7.6
95.0495	2.9
95.0858	9.4
97.0651	5.1
97.1013	2.0
98.0603	2.7
98.0965	2.0
99.0444	1.8
99.0806	2.4
100.0762	3.7
101.0600	5.3
105.0702	4.6
107.0495	2.0
107.0859	6.9
108.0811	45.7
109.0651	3.1
109.0844	3.1
109.1014	4.8
111.0443	3.7
111.0808	2.9
112.0760	2.9
113.0600	2.6
115.0756	1.8
116.0709	4.5
117.0699	3.1
119.0858	7.0
120.0811	2.6
121.0651	3.8
121.1014	6.7
122.0604	2.0
122.0965	1.6
123.0446	1.8
123.0807	5.0
124.0759	14.1
125.0600	2.5
125.0964	2.8
126.0915	86.7
127.0950	5.9
128.0707	3.3
129.0550	1.8
129.0701	2.0
130.0501	2.2
130.0865	3.2
131.0856	6.3
132.1016	2.3
133.0655	2.1
133.0860	3.3
133.1012	6.9
134.0967	4.8
135.0806	4.6
135.1169	3.7
136.0758	23.4
137.0601	3.6
137.0798	1.7
137.0960	3.3
138.0914	4.5
139.0756	2.7
140.0707	1.6
140.1435	3.9
141.0914	1.9
143.0857	2.9
144.1020	1.9
145.0647	1.7
145.1013	6.9
147.0806	4.4
147.1171	4.5
148.0758	31.3
149.0794	2.5
149.0959	5.7
149.1330	1.9
150.0570	1.8
150.0915	75.2
151.0760	2.6
151.0949	6.4
151.1113	2.4
152.0709	3.0
153.0913	2.4
154.0857	1.6
154.1225	2.0
154.1593	3.0
156.1021	55.0
157.1037	5.3
158.1177	9.4
158.1542	1.9
159.0806	2.2
159.1170	5.0
161.0963	4.7
161.1329	1.8
163.0757	2.3
163.1120	2.9
164.0708	75.2
165.0550	2.5
165.0740	7.2
165.0910	2.8
165.1278	1.8
166.0864	34.8
166.1222	1.6
167.0891	3.5
167.1069	1.8
168.1020	100.0
169.1052	10.0
170.1179	16.4
171.1182	4.2
172.0971	4.2
172.1333	4.5
173.0962	3.0
173.1319	4.2
174.1129	3.2
175.0747	1.8
175.1105	3.1
176.0702	2.1
177.0900	1.8
177.1269	2.3
178.0864	57.7
179.0893	6.0
179.1066	1.7
180.1023	2.9
181.0996	2.3
182.0813	80.9
182.1148	2.1
183.0844	7.5
183.1164	3.1
184.1336	1.6
185.0958	1.9
185.1322	2.5
186.1496	2.0
187.1109	3.4
188.0717	1.6
189.0902	1.8
189.1269	2.1
191.1060	2.7
193.1216	3.0
194.0813	21.4
194.1176	5.7
195.0855	2.5
195.1150	2.9
196.0969	29.3
197.1004	3.3
197.1322	2.9
199.1118	3.1
199.1478	2.3
200.0917	2.1
201.1272	4.0
203.1077	1.8
203.1426	2.2
205.1208	2.0
208.0958	1.7
209.1320	2.1
211.1117	1.6
211.1486	2.4
213.1282	2.9
213.1638	1.8
215.1419	4.0
217.1218	2.4
217.1585	1.6
219.1370	3.0
223.1507	1.9
225.1277	2.2
225.1640	1.8
227.1428	3.3
229.1568	2.4
231.1417	2.0
233.1672	5.2
235.1667	1.9
239.1409	1.9
241.1607	2.1
243.1368	2.4
243.1736	2.1
245.1531	3.4
247.1677	2.6
253.1588	1.8
255.1346	1.9
257.1596	2.1
259.1387	1.9
259.1698	4.1
261.1568	4.7
261.1855	3.1
263.1646	3.7
266.1395	1.9
269.1550	2.0
269.1898	1.7
271.1692	4.5
273.1588	9.6
273.1850	2.2
275.1756	31.6
276.1796	4.5
277.1487	1.8
277.1804	2.8
278.1758	3.4
279.1587	2.6
281.1795	2.5
285.1579	2.9
287.1644	2.6
287.1977	3.1
288.1617	2.3
289.1532	3.2
289.1800	6.1
291.1676	3.1
293.1858	9.8
294.1891	1.7
295.1556	1.8
296.1865	2.3
297.1803	5.0
301.1539	12.7
302.1574	2.1
303.1700	48.1
304.1217	1.9
304.1749	7.9
305.1777	3.4
306.1359	2.0
306.1716	2.7
307.1596	1.6
307.1948	2.9
308.1881	2.0
312.1810	1.7
314.1987	4.6
315.1332	2.3
315.1920	41.1
316.1551	1.7
316.1957	7.1
317.1451	2.3
317.2089	4.4
318.1358	1.6
318.1768	1.7
319.1634	12.9
320.1864	3.1
321.1478	2.8
321.1804	51.5
322.1852	8.1
323.1552	4.6
323.1985	4.0
324.1834	6.3
325.1388	2.8
325.1762	10.1
325.2096	5.6
326.1677	2.1
326.2066	1.6
327.1919	12.8
328.1305	2.5
328.1860	2.4
329.2076	16.7
330.2083	3.4
331.1938	4.9
332.1517	2.3
333.1730	2.4
333.2088	4.2
334.1284	2.7
334.1675	6.0

Name: (2S,3S,9R,12R,13R,14S,15R,16R,17S)-3,12,13,15,16-pentahydroxy-2,6,14,17-tetramethyl-10-oxatetracyclo(7.7.1.02,7.013,17)heptadec-5-ene-4,11-dione
PrecursorMZ: 397.18559
RT: 0.8304
ExactMass: 396.17841785
Spectrum_type: 2
charge: 1
Formula: C20H28O8
SMILES: C[C@H]1[C@H]([C@@H](C2[C@@]3([C@]1([C@H](C(=O)O[C@@H]3CC4[C@@]2([C@@H](C(=O)C=C4C)O)C)O)O)C)O)O
Method: HCD
Collision_energy: [28.333334]
Isolation_window: 4.0
Ion_mode: P
Num Peaks: 87
57.0703	3.9
69.0703	28.7
71.0495	26.0
83.0495	17.0
85.0650	4.2
94.9298	3.0
97.0650	5.4
97.3997	3.5
113.0599	16.1
133.0649	20.1
134.0682	2.9
151.0756	5.1
155.0341	3.0
157.0496	5.2
159.1169	2.8
161.0597	3.5
165.0548	5.7
167.0340	20.1
169.0860	6.1
177.1278	2.8
181.0131	5.7
183.0652	27.0
193.0857	3.8
195.0653	4.6
199.0236	6.7
203.1067	9.3
205.0858	4.7
205.1223	5.0
209.1536	4.2
211.0600	4.6
211.0965	3.5
213.0758	6.2
221.1173	6.0
223.0964	32.1
223.1328	24.6
224.0998	4.3
224.1361	3.4
227.1065	9.2
231.1014	4.3
237.0757	46.6
238.0788	4.7
239.1277	20.7
240.1308	3.4
241.1070	15.9
241.1435	2.8
245.1171	34.8
246.1203	6.3
247.0965	3.3
255.0863	21.4
261.1122	3.0
261.1487	4.3
263.1277	12.2
265.1070	10.1
273.1119	5.8
275.0913	4.1
275.1278	3.3
279.1591	14.9
281.1384	6.9
283.1175	13.9
291.1227	6.5
293.1020	6.1
293.1381	5.5
297.1483	8.8
311.1487	21.7
312.1522	5.0
315.1590	4.6
323.1487	9.2
331.1898	9.1
332.1936	4.0
333.1695	4.0
341.1592	6.9
343.1542	9.3
351.1798	9.3
352.1834	2.7
361.1644	23.3
361.1998	5.0
362.1677	4.0
379.1750	20.6
379.2112	17.6
380.1791	4.2
380.2155	4.5
396.1258	3.0
397.1417	4.8
397.1855	100.0
398.1888	22.4
399.1745	3.7
399.1912	3.1

Name: (2S,3S,9R,12R,13R,14S,15R,16R,17S)-3,12,13,15,16-pentahydroxy-2,6,14,17-tetramethyl-10-oxatetracyclo)7.7.1.02,7.013,17(heptadec-5-ene-4,11-dione
PrecursorMZ: 414.21201
RT: 0.5353
ExactMass: 396.17841785
Spectrum_type: 2
charge: 1
Formula: C20H28O8
SMILES: C[C@H]1[C@H]([C@@H](C2[C@@]3([C@]1([C@H](C(=O)O[C@@H]3CC4[C@@]2([C@@H](C(=O)C=C4C)O)C)O)O)C)O)O
Method: HCD
Collision_energy: [28.333334]
Isolation_window: 4.0
Ion_mode: P
Num Peaks: 227
57.0340	12.7
57.0704	68.2
59.0497	24.3
59.0609	14.7
67.0547	28.8
69.0339	14.3
69.0703	100.0
71.0496	37.6
71.0860	12.7
79.0543	10.2
81.0339	23.1
81.0703	37.2
83.0495	62.5
83.0859	12.9
85.0289	10.6
85.0652	70.5
85.1016	8.7
86.0968	26.6
89.0600	12.1
93.0702	21.2
95.0494	54.2
95.0858	31.1
97.0650	33.3
97.1013	13.0
99.0807	14.5
105.0700	17.7
107.0493	11.9
107.0857	26.3
109.0651	47.8
109.1014	24.3
111.0805	9.0
112.0759	53.8
113.0599	35.8
115.0755	20.5
119.0492	12.4
119.0857	29.4
121.0650	17.7
121.1014	24.0
123.0443	9.1
123.0805	24.1
123.1170	12.5
125.0598	10.7
125.0961	10.2
126.0915	19.5
127.0754	19.2
131.0855	8.4
133.0648	17.5
133.1011	16.0
135.0446	9.8
135.0805	14.0
135.1169	21.9
137.0600	15.8
137.0961	13.4
139.0756	19.5
140.0706	12.7
141.0547	10.7
145.1011	14.3
147.0808	13.4
147.1170	25.1
149.0599	13.0
149.0962	11.6
149.1327	16.7
151.0755	19.3
151.1119	8.5
153.0550	9.6
155.0704	9.9
156.0655	16.5
157.1012	12.7
159.1170	18.6
161.0599	10.7
161.0960	10.4
161.1324	18.0
163.0752	14.0
163.1122	16.8
165.0550	9.2
165.0912	23.3
167.0702	12.0
169.0498	10.5
171.0652	9.6
171.1169	10.1
173.0961	13.5
175.0755	16.1
175.1118	18.5
177.0546	12.8
177.1273	17.5
179.0707	15.1
183.0644	11.0
184.0972	10.7
185.0964	9.5
185.1323	9.0
187.1113	14.5
187.1476	9.3
189.0903	8.7
189.1276	11.6
191.0697	19.5
191.1062	9.0
193.0863	9.5
194.0801	9.0
195.0651	14.2
197.0806	13.8
199.1118	14.0
201.0912	8.4
201.1265	10.2
203.0702	14.2
203.1067	16.1
205.0496	8.8
205.0858	22.1
205.1219	25.7
209.0806	15.9
213.0922	9.1
213.1276	12.1
215.1065	20.8
217.0864	14.3
217.1225	16.9
219.0663	8.9
219.1011	11.9
221.0809	22.2
221.1163	15.6
227.1080	15.8
229.0867	10.7
229.1226	15.1
231.1019	22.0
231.1378	10.0
233.0811	9.0
233.1175	21.0
235.1315	12.4
237.0754	48.2
241.1228	12.2
243.1021	11.9
245.1167	33.6
247.0965	16.9
247.1331	14.7
249.1125	12.9
257.1172	24.4
259.0969	10.1
259.1327	27.8
260.1335	9.8
261.1120	17.6
261.1498	8.8
263.1270	23.3
269.1177	12.1
269.1897	10.4
271.1325	16.2
273.1119	28.6
273.1482	14.3
275.1271	37.7
277.1433	23.6
278.1484	9.1
279.1224	11.5
283.1325	11.3
285.1116	10.9
285.1482	9.5
287.1278	17.8
287.1639	8.6
287.1975	14.6
289.1433	17.5
289.2159	8.4
291.1233	21.9
291.1596	16.1
293.1371	10.0
297.1473	8.5
299.1637	12.2
301.1433	9.6
301.1797	9.7
303.1590	9.4
305.1362	12.4
311.1602	16.4
313.1798	11.5
315.1582	13.7
317.1744	10.1
323.1647	8.6
324.3259	20.4
325.1789	24.8
327.1589	18.9
329.1750	27.6
330.1732	9.6
331.1895	10.1
333.1690	10.6
336.1809	9.9
341.1724	16.1
343.1907	22.4
344.1895	9.2
345.1686	19.6
347.1852	21.5
348.1811	10.2
357.1677	10.0
359.1867	18.9
360.1845	9.8
361.2030	17.7
362.2034	10.5
363.1793	12.2
365.1955	25.9
366.2024	9.8
375.1782	12.9
377.1970	24.1
378.1985	11.3
379.2173	12.8
393.1915	29.5
395.2246	17.2
397.1841	20.4
404.2481	9.6
405.2338	10.9
409.1876	11.0
409.2402	10.4
411.2008	35.2
412.2017	18.6
412.2547	13.3
413.2309	43.6
414.2350	15.7
415.2466	9.8
416.2465	8.8
416.3092	11.5
418.2265	10.8
420.2337	11.4
421.2340	11.2
422.2502	20.6
423.2340	13.6
423.3627	16.1
425.2268	10.8
425.3273	11.4
427.2473	28.5
428.2533	17.2
429.2289	14.3
429.3024	24.0
430.2577	11.2
430.3827	18.9
431.2478	32.4

Name: (2Z)-2-cyano-3-(4-hydroxy-3-methoxyphenyl)-N-(4-hydroxyphenyl)prop-2-enamide
PrecursorMZ: 311.10227
RT: 5.6119
ExactMass: 310.09535693
Spectrum_type: 2
charge: 1
Formula: C17H14N2O4
SMILES: COC1=C(C=CC(=C1)/C=C(/C#N)\C(=O)NC2=CC=C(C=C2)O)O
Method: HCD
Collision_energy: [28.333334]
Isolation_window: 4.0
Ion_mode: P
Num Peaks: 60
60.0449	1.7
70.0654	2.2
72.0810	2.7
81.0336	1.6
96.0445	1.8
102.0551	1.6
116.0707	3.2
126.0913	2.9
136.0755	9.0
138.0911	2.1
152.0704	1.6
164.0708	2.7
165.0545	4.3
165.0738	2.4
166.0760	1.6
166.0858	1.8
166.0972	1.8
170.1172	2.6
178.0861	2.6
182.0809	9.0
208.0964	2.0
231.0911	4.6
236.0914	4.2
247.0864	2.9
248.0915	1.8
248.1028	2.8
249.1017	11.0
250.1058	2.4
253.1180	2.4
260.0908	1.8
264.1228	1.8
265.0968	5.1
265.1541	2.1
266.0503	3.2
266.1012	2.0
267.1121	5.0
267.1331	1.8
275.0808	7.8
278.1018	3.1
289.0659	2.6
292.1161	2.7
293.0909	2.6
294.1330	1.5
309.1416	4.8
309.1812	4.7
310.0912	2.0
310.1087	1.9
310.1278	4.8
310.1440	2.2
311.1021	100.0
311.1216	5.1
311.1594	8.9
312.0861	1.8
312.1055	18.1
312.1225	2.3
312.1432	2.0
312.3617	14.4
313.1179	2.7
313.1391	3.5
313.1748	2.6

Name: (3,4-Dimethoxyphenyl)acetic acid
PrecursorMZ: 197.08084
RT: 0.9462
ExactMass: 196.07355886
Spectrum_type: 2
charge: 1
Formula: C10H12O4
SMILES: COC1=C(C=C(C=C1)CC(=O)O)OC
Method: HCD
Collision_energy: [28.333334]
Isolation_window: 4.0
Ion_mode: P
Num Peaks: 3
151.0755	16.4
179.0703	100.0
180.0737	9.7

Name: (3,4-dimethoxyphenyl)(7,8-dimethoxy-2,2,3-trimethyl-2,3-dihydro-1H-3-benzazepin-4-yl)methanone
PrecursorMZ: 434.18903
RT: 4.4909
ExactMass: 411.20457303
Spectrum_type: 2
charge: 1
Formula: C24H29NO5
SMILES: CC1(CC2=CC(=C(C=C2C=C(N1C)C(=O)C3=CC(=C(C=C3)OC)OC)OC)OC)C
Method: HCD
Collision_energy: [28.333334]
Isolation_window: 4.0
Ion_mode: P
Num Peaks: 33
70.0656	4.2
72.0813	9.3
110.0966	1.4
112.0396	1.6
112.1123	2.1
127.0869	6.6
129.1390	1.6
151.0867	1.6
159.0591	1.5
169.0974	21.9
170.1008	1.4
183.1130	2.8
198.1598	1.3
201.0694	14.2
235.0571	2.8
240.1712	3.0
252.0840	1.4
257.1976	3.3
266.0993	2.0
272.1429	3.3
289.1689	2.0
304.1158	1.9
306.1309	3.6
323.1572	7.7
374.1676	2.7
375.1497	1.4
392.1789	4.0
416.1785	4.8
417.1677	2.0
434.1895	100.0
435.1923	21.8
436.1871	11.4
437.1904	2.0

Name: (3,6,9-Trimethylidene-2-oxo-3a,4,5,6a,7,8,9a,9b-octahydroazuleno(4,5-b)furan-8-yl) acetate
PrecursorMZ: 311.12532
RT: 1.6122
ExactMass: 288.13615911
Spectrum_type: 2
charge: 1
Formula: C17H20O4
SMILES: CC(=O)OC1CC2C(C1=C)C3C(CCC2=C)C(=C)C(=O)O3
Method: HCD
Collision_energy: [28.333334]
Isolation_window: 4.0
Ion_mode: P
Num Peaks: 7
120.0810	15.6
309.1094	8.9
309.2255	17.3
311.1251	100.0
312.1278	13.7
312.3622	12.7
313.1231	6.2

Name: (3AS,4S,7AR)-4-Hydroxy-5-((2S)-5-hydroxypentan-2-YL)-6-methyl-3-methylidene-3A,4,7,7A-tetrahydro-1-benzofuran-2-one
PrecursorMZ: 289.14084
RT: 1.3336999999999999
ExactMass: 266.15180918
Spectrum_type: 2
charge: 1
Formula: C15H22O4
SMILES: CC1=C(C(C2C(C1)OC(=O)C2=C)O)C(C)CCCO
Method: HCD
Collision_energy: [28.333334]
Isolation_window: 4.0
Ion_mode: P
Num Peaks: 7
106.0864	7.9
112.8958	45.5
114.8930	12.3
139.9146	6.9
288.2894	7.7
289.1407	100.0
290.1440	12.2

Name: (3E,5R,6E,8S,9E,13S,14R)-5-Hydroxy-8-methoxy-5,9,13,14-tetramethyloxacyclotetradeca-3,6,9-trien-2-one
PrecursorMZ: 309.20572
RT: 4.8565
ExactMass: 308.19875937
Spectrum_type: 2
charge: 1
Formula: C18H28O4
SMILES: C[C@H]1CC/C=C(/[C@H](/C=C/[C@@](/C=C/C(=O)O[C@@H]1C)(C)O)OC)\C
Method: HCD
Collision_energy: [28.333334]
Isolation_window: 4.0
Ion_mode: P
Num Peaks: 108
55.0547	5.6
57.0340	8.8
59.0496	5.8
67.0547	16.7
69.0703	9.5
70.0655	5.9
71.0495	7.6
79.0546	16.2
81.0338	4.4
81.0702	49.5
83.0494	10.6
83.0859	14.2
85.0651	8.6
86.0966	4.9
91.0545	10.3
93.0701	24.9
95.0494	13.0
95.0858	17.7
97.0650	10.5
97.1014	12.5
99.0806	42.6
105.0701	13.8
107.0493	10.9
107.0857	22.9
109.0650	28.7
109.1014	10.5
111.0442	6.9
111.0806	10.3
113.0599	9.5
117.0700	6.4
119.0856	15.0
121.0648	7.2
121.1013	20.3
123.0805	31.7
125.0599	5.8
125.0961	40.7
126.0914	8.1
127.0755	19.8
131.0855	15.6
133.1011	15.6
135.0804	8.0
135.1168	10.1
136.0758	4.8
137.0962	10.1
139.1117	5.2
143.0856	4.4
144.1018	7.8
145.1011	12.0
147.0806	6.1
147.1168	8.8
149.0961	14.1
149.1323	7.1
151.1116	7.2
153.1275	4.7
157.1013	6.4
159.1169	8.4
161.0961	7.9
163.1118	12.9
163.1231	5.4
164.1070	10.8
165.0913	5.3
166.0863	9.2
171.1168	6.5
173.1322	5.7
175.1115	6.0
177.1273	5.8
181.0759	25.9
181.1223	4.9
185.1324	5.6
187.1119	4.4
189.1121	11.1
194.1287	9.4
200.0705	14.1
217.1586	6.1
218.0811	18.1
219.1378	4.6
221.1535	7.2
223.1323	6.2
224.1394	9.6
233.0126	19.2
240.1341	7.0
255.1748	5.7
257.1894	5.5
261.0076	24.8
273.1846	27.2
274.1883	4.4
275.2003	29.1
290.1378	10.2
291.1336	5.6
291.1952	65.6
292.1995	10.4
293.1643	15.2
293.2109	34.6
308.1313	9.9
308.1491	6.6
308.1974	26.6
309.0107	18.0
309.1437	11.6
309.1816	5.5
309.2055	51.7
310.1182	61.1
310.1767	17.4
310.2112	13.0
310.2369	6.7
311.1229	15.0
311.1609	5.8
311.1752	100.0
311.2210	13.9

Name: (3R)-3-Amino-5-(methylthio)pentanoic acid
PrecursorMZ: 164.07396
RT: 1.3374
ExactMass: 163.06669983
Spectrum_type: 2
charge: 1
Formula: C6H13NO2S
SMILES: CSCC[C@@H](CC(=O)O)N
Method: HCD
Collision_energy: [28.333334]
Isolation_window: 4.0
Ion_mode: P
Num Peaks: 9
56.0499	54.2
61.0111	17.7
104.0530	100.0
116.0708	16.9
147.0473	42.8
148.0392	10.1
163.1229	13.4
165.1388	14.7
166.0497	10.8

Name: (3R)-beta-Leucine
PrecursorMZ: 132.10193
RT: 3.0348
ExactMass: 131.094628657
Spectrum_type: 2
charge: 1
Formula: C6H13NO2
SMILES: CC(C)[C@@H](CC(=O)O)N
Method: HCD
Collision_energy: [28.333334]
Isolation_window: 4.0
Ion_mode: P
Num Peaks: 6
60.0448	23.5
72.0811	49.6
73.0651	25.9
90.0915	57.6
114.0914	100.0
132.1019	21.5

Name: (3R,4R,5R)-3-((11E)-hexadeca-11,15-dien-9-ynyl)-4-hydroxy-5-methyloxolan-2-one
PrecursorMZ: 333.2416
RT: 1.12365
ExactMass: 332.23514488
Spectrum_type: 2
charge: 1
Formula: C21H32O3
SMILES: C[C@@H]1[C@@H]([C@H](C(=O)O1)CCCCCCCCC#C/C=C/CCC=C)O
Method: HCD
Collision_energy: [28.333334]
Isolation_window: 4.0
Ion_mode: P
Num Peaks: 88
55.0182	2.5
55.0546	2.6
57.0338	3.3
57.0703	2.6
67.0546	23.4
69.0338	3.3
69.0702	5.9
69.1757	3.0
71.0495	4.2
71.0858	70.2
72.0891	3.1
79.0545	11.5
81.0337	41.0
81.0701	23.6
83.0494	5.4
83.0858	13.8
85.0650	4.0
91.0544	10.8
93.0700	11.8
95.0492	13.5
95.0856	17.7
97.0650	3.1
97.1013	4.6
97.3976	2.3
99.0805	63.7
100.0839	3.7
105.0699	8.7
107.0492	14.1
107.0856	11.1
109.0648	6.8
109.1012	16.8
111.0805	6.2
117.0699	6.9
119.0855	10.9
121.0648	15.9
121.1012	10.7
123.0804	3.9
123.1167	8.5
125.0960	6.8
127.1115	3.3
129.0697	3.5
131.0853	13.0
133.0648	2.9
133.1010	13.1
135.0804	4.8
135.1166	6.1
137.0958	4.8
139.1116	8.8
143.0853	3.3
145.1010	10.4
147.0802	4.8
147.1166	7.9
149.0959	4.5
149.1320	2.7
151.1115	5.6
155.1066	3.2
157.1010	4.7
159.1164	3.9
161.1323	4.5
163.1114	4.2
165.1271	3.4
171.1167	3.9
173.1322	8.1
175.1117	4.3
177.1272	6.1
183.1165	2.7
187.1325	3.2
191.1427	8.8
193.1219	7.1
199.1477	2.8
201.1271	3.9
203.1430	3.1
217.1583	3.7
219.1376	37.2
220.1410	4.7
221.1532	2.5
233.1533	9.4
235.1690	4.3
249.1481	2.5
287.2363	2.4
297.2204	5.1
315.2312	35.2
316.2350	8.4
331.2259	7.5
332.2303	5.3
333.2418	100.0
334.2452	22.9
335.2570	13.7

Name: (3R,4S)-3-amino-4-methylhexanoic acid
PrecursorMZ: 146.11754
RT: 1.3054
ExactMass: 145.110278721
Spectrum_type: 2
charge: 1
Formula: C7H15NO2
SMILES: CC[C@H](C)[C@@H](CC(=O)O)N
Method: HCD
Collision_energy: [28.333334]
Isolation_window: 4.0
Ion_mode: P
Num Peaks: 7
62.9295	3.5
86.0967	100.0
87.1000	7.5
103.9557	4.1
121.9661	24.3
123.9644	15.6
146.1175	3.9

Name: (3R,4S)-3-amino-4-methylhexanoic acid hydrochloride
PrecursorMZ: 146.11741
RT: 1.2768
ExactMass: 181.0869564
Spectrum_type: 2
charge: 1
Formula: C7H16ClNO2
SMILES: CC[C@H](C)[C@@H](CC(=O)O)N.Cl
Method: HCD
Collision_energy: [28.333334]
Isolation_window: 4.0
Ion_mode: P
Num Peaks: 27
60.0448	1.1
62.9294	2.7
64.9276	1.7
69.0702	1.6
69.2689	0.6
86.0603	2.2
86.0912	0.7
86.0966	100.0
86.1021	0.7
87.0443	0.7
87.1000	6.6
103.9556	2.5
104.0496	0.8
105.9539	1.8
118.0652	0.8
119.0729	5.3
121.9661	22.5
123.9643	15.8
144.0808	1.2
144.9821	1.9
146.0598	1.1
146.1174	2.9
146.9802	1.4
147.0678	2.0
147.0917	0.7
148.0756	2.8
148.1119	1.7

Name: (3R,5S,7R,8R,9S,10S,12S,13R,14S,17R)-17-((2R,5R)-5,7-dihydroxyheptan-2-yl)-10,13-dimethyl-2,3,4,5,6,7,8,9,11,12,14,15,16,17-tetradecahydro-1H-cyclopenta(a)phenanthrene-3,7,12-triol
PrecursorMZ: 421.33101
RT: 4.043
ExactMass: 438.33452456
Spectrum_type: 2
charge: 1
Formula: C26H46O5
SMILES: C[C@H](CC[C@H](CCO)O)[C@H]1CC[C@@H]2[C@@]1([C@H](C[C@H]3[C@H]2[C@@H](C[C@H]4[C@@]3(CC[C@H](C4)O)C)O)O)C
Method: HCD
Collision_energy: [28.333334]
Isolation_window: 4.0
Ion_mode: P
Num Peaks: 24
81.0702	12.5
89.0600	20.9
95.0858	19.8
107.0857	16.1
109.1014	17.4
121.1013	15.2
129.0910	29.8
135.1170	13.1
145.1013	23.4
147.1169	18.3
149.1325	13.9
159.1171	14.0
161.1326	14.2
213.1637	12.7
215.1795	12.2
227.1796	20.9
349.2891	16.6
355.2633	15.1
367.3000	23.8
385.3099	100.0
386.3133	36.1
403.3209	32.1
405.2997	24.2
422.1905	32.6

Name: (3R,5S,7R,9S,10S,12S,13R,17R)-17-((2R)-4-(3-(hydroxymethyl)oxetan-2-yl)butan-2-yl)-10,13-dimethylhexadecahydro-1H-cyclopenta(a)phenanthrene-3,7,12-triol
PrecursorMZ: 433.33043
RT: 2.5331
ExactMass: 450.33452456
Spectrum_type: 2
charge: 1
Formula: C27H46O5
SMILES: C[C@H](CCC1C(CO1)CO)[C@H]2CC[C@@H]3[C@@]2([C@H](C[C@H]4[C@H]3[C@@H](C[C@H]5[C@@]4(CC[C@H](C5)O)C)O)O)C
Method: HCD
Collision_energy: [28.333334]
Isolation_window: 4.0
Ion_mode: P
Num Peaks: 12
81.0701	28.5
95.0856	30.7
109.1013	28.5
253.1945	54.6
379.2988	49.1
397.3089	79.7
398.3124	32.1
414.3354	60.7
415.3187	100.0
416.3220	47.3
433.3299	75.3
434.3306	34.6

Name: (3R,5S,E)-7-(2-cyclopropyl-4-(4-fluorophenyl)quinolin-3-yl)-3,5-dihydroxyhept-6-enoate
PrecursorMZ: 422.17648
RT: 5.4339
ExactMass: 420.16111138
Spectrum_type: 2
charge: 1
Formula: C25H23FNO4-
SMILES: C1CC1C2=NC3=CC=CC=C3C(=C2/C=C/[C@H](C[C@H](CC(=O)[O-])O)O)C4=CC=C(C=C4)F
Method: HCD
Collision_energy: [28.333334]
Isolation_window: 4.0
Ion_mode: P
Num Peaks: 42
70.0651	30.1
70.0670	5.8
81.0334	6.0
89.0598	4.3
111.0439	3.6
111.0553	2.6
133.0858	2.4
142.0860	3.0
145.0606	1.9
157.0963	2.0
163.0703	2.0
178.0859	3.9
185.0916	2.6
196.0965	12.4
214.1070	19.0
219.1124	2.9
232.1174	18.1
235.1071	8.7
237.1227	2.9
241.0813	17.6
247.1071	3.7
257.0914	2.3
260.1234	10.0
265.1177	3.5
270.1078	2.7
271.0918	3.2
275.1022	5.8
283.1282	7.1
289.1021	3.9
311.1227	2.1
338.1338	44.4
339.1369	6.0
350.1335	4.3
358.1603	2.1
368.1444	9.0
369.1473	2.6
386.1549	100.0
387.1582	15.7
404.1656	31.8
405.1677	5.9
422.1762	44.5
423.1782	8.0

Name: (3R,7R,8R,8aS)-3,4'-dihydroxy-7'-(2-hydroxyethyl)-4,4,7,8a-tetramethylspiro(2,3,4a,5,6,7-hexahydro-1H-naphthalene-8,2'-3,8-dihydrofuro(2,3-e)isoindole)-6'-one
PrecursorMZ: 430.25842
RT: 6.045
ExactMass: 429.25152322
Spectrum_type: 2
charge: 1
Formula: C25H35NO5
SMILES: C[C@@H]1CCC2[C@@]([C@@]13CC4=C(C=C5C(=C4O3)CN(C5=O)CCO)O)(CC[C@H](C2(C)C)O)C
Method: HCD
Collision_energy: [28.333334]
Isolation_window: 4.0
Ion_mode: P
Num Peaks: 27
100.0759	19.3
119.0857	3.8
137.0458	2.6
178.1226	3.0
192.1382	4.7
220.1334	2.7
239.1791	3.6
267.1741	17.6
268.1775	3.9
271.1697	2.9
285.1845	9.7
313.1793	16.3
314.1831	3.0
338.2476	5.7
356.2218	2.7
366.2074	3.3
366.2424	8.3
368.2216	8.7
384.2530	19.5
385.2561	4.2
412.2479	58.5
413.2511	13.5
430.2255	3.8
430.2585	100.0
431.2615	23.3
432.2372	3.7
432.2661	2.7

Name: (3R,7R,8R,8aS)-3,4'-dihydroxy-7'-(2-hydroxyethyl)-4,4,7,8a-tetramethylspiro)2,3,4a,5,6,7-hexahydro-1H-naphthalene-8,2'-3,8-dihydrofuro)2,3-e(isoindole(-6'-one
PrecursorMZ: 452.2389
RT: 3.1697
ExactMass: 429.25152322
Spectrum_type: 2
charge: 1
Formula: C25H35NO5
SMILES: C[C@@H]1CCC2[C@@]([C@@]13CC4=C(C=C5C(=C4O3)CN(C5=O)CCO)O)(CC[C@H](C2(C)C)O)C
Method: HCD
Collision_energy: [28.333334]
Isolation_window: 4.0
Ion_mode: P
Num Peaks: 51
50.2496	5.1
70.0656	7.9
72.0812	3.3
84.0812	14.0
86.0968	5.6
87.0445	2.2
89.0601	6.4
98.0968	2.0
112.0870	2.1
116.0710	2.7
130.0864	9.9
133.0862	3.3
175.1192	2.2
179.0375	2.0
180.1019	2.0
235.1075	3.3
248.1397	4.3
253.1183	10.6
256.1312	2.2
382.1991	4.8
408.2498	3.1
427.1330	6.9
451.2160	6.7
452.2406	100.0
453.1853	2.5
453.2445	26.8
453.3379	5.2
454.2532	6.0
455.1830	5.1
456.1778	3.5
456.2439	3.2
457.2106	4.9
458.1774	4.7
459.1797	2.2
459.2390	8.9
460.1998	5.4
461.1925	5.2
462.2368	5.0
463.1514	13.8
463.2160	4.2
464.1600	3.1
464.2050	2.5
464.2563	13.2
465.2420	8.5
466.1954	2.1
466.2635	2.2
467.1905	4.0
467.2580	2.5
468.1814	2.3
468.2411	2.4
469.2244	6.4

Name: (3R,7R,8R,9S,10S,12S,13R,14S,17R)-17-((2R,5R)-5,7-dihydroxyheptan-2-yl)-10,13-dimethyl-2,3,4,5,6,7,8,9,11,12,14,15,16,17-tetradecahydro-1H-cyclopenta(a)phenanthrene-3,7,12-triol
PrecursorMZ: 877.67581
RT: 4.0588
ExactMass: 438.33452456
Spectrum_type: 2
charge: 1
Formula: C26H46O5
SMILES: C[C@H](CC[C@H](CCO)O)[C@H]1CC[C@@H]2[C@@]1([C@H](C[C@H]3[C@H]2[C@@H](CC4[C@@]3(CC[C@H](C4)O)C)O)O)C
Method: HCD
Collision_energy: [28.333334]
Isolation_window: 4.0
Ion_mode: P
Num Peaks: 116
67.0547	0.9
69.0702	1.1
71.0495	1.9
79.0545	0.7
81.0702	3.6
83.0494	0.7
83.0859	2.9
85.0651	1.3
93.0701	2.2
95.0857	5.9
97.1013	0.8
99.0807	0.6
101.0599	0.8
105.0700	2.4
107.0857	4.1
109.1013	4.0
111.0806	5.3
113.0963	4.5
117.0701	0.6
119.0856	2.7
121.1012	4.2
123.1170	1.6
125.0961	0.7
129.0910	24.8
130.0944	1.3
131.0855	1.3
133.1012	3.3
135.1168	4.9
136.1201	0.7
137.1325	0.7
143.0854	0.9
145.1012	6.8
146.1046	0.7
147.1168	5.0
149.1325	3.2
157.1012	1.9
159.1169	6.3
161.1325	5.8
163.1482	1.8
165.1274	1.0
169.1011	0.8
169.1222	0.5
171.1167	2.3
173.1325	2.7
175.1482	2.8
177.1642	0.8
183.1167	1.4
185.1326	2.3
187.1480	3.1
189.1637	1.9
197.1325	0.6
199.1481	3.6
201.1637	4.4
203.1795	1.7
205.1589	0.5
211.1481	0.8
213.1636	6.2
214.1664	0.8
215.1793	5.7
216.1830	0.7
217.1950	0.6
225.1637	1.5
227.1793	6.9
228.1824	1.0
229.1950	3.4
231.1740	1.2
239.1793	4.2
241.1950	5.5
242.1983	0.9
243.2108	1.1
245.1899	1.4
251.1795	0.7
253.1949	10.0
254.1983	1.5
255.2107	4.4
256.2137	0.8
257.1898	2.8
258.1936	0.6
259.2052	1.0
265.1946	0.7
267.2104	1.9
271.2060	0.8
273.2213	0.6
275.2003	0.7
277.2157	0.9
279.2103	0.8
281.2260	3.1
283.2424	0.8
289.2161	0.6
291.2318	1.0
293.2265	1.6
295.2419	1.6
297.2575	1.2
303.2310	0.9
307.2415	1.0
309.2576	0.9
323.2730	8.5
324.2762	1.7
349.2886	13.8
350.2920	3.3
367.2992	20.2
368.3025	5.0
385.3098	100.0
386.3132	24.6
387.3162	2.2
403.3204	61.6
404.3238	15.7
405.3271	1.1
421.3309	10.0
422.3341	1.7
439.3419	2.1
440.3450	0.5
859.6649	1.9
860.6702	1.1
877.6758	2.8
878.6788	1.3

Name: (3S)-3,7-diaminoheptanoic acid dihydrochloride
PrecursorMZ: 161.12835
RT: 15.3295
ExactMass: 232.0745332
Spectrum_type: 2
charge: 1
Formula: C7H18Cl2N2O2
SMILES: C(CCN)C[C@@H](CC(=O)O)N.Cl.Cl
Method: HCD
Collision_energy: [28.333334]
Isolation_window: 4.0
Ion_mode: P
Num Peaks: 20
60.0813	2.3
70.0655	88.3
71.0688	4.2
72.0812	3.7
78.9852	1.1
84.0811	5.5
96.9955	2.4
126.0914	1.5
130.0863	100.0
131.0898	6.7
144.1019	12.3
148.0789	1.5
161.1285	9.0
165.0207	1.1
166.0896	3.4
168.0691	2.2
180.0815	6.9
180.1049	41.1
181.1065	3.8
182.1025	1.5

Name: (3S)-3-amino-4-(4-hydroxyphenyl)butanoic acid
PrecursorMZ: 196.0967
RT: 4.9744
ExactMass: 195.08954328
Spectrum_type: 2
charge: 1
Formula: C10H13NO3
SMILES: C1=CC(=CC=C1C[C@@H](CC(=O)O)N)O
Method: HCD
Collision_energy: [28.333334]
Isolation_window: 4.0
Ion_mode: P
Num Peaks: 65
69.1043	0.6
69.6890	0.4
69.7238	0.4
69.7707	0.5
70.0654	0.7
86.0602	0.6
89.0599	1.0
96.0445	0.7
97.4564	0.6
99.0553	0.4
106.0652	0.5
107.0603	0.7
108.0808	0.7
125.0709	0.5
133.0758	22.0
134.0791	0.8
136.0754	1.4
138.0660	0.5
140.0452	1.2
148.0752	0.5
149.0708	0.8
150.0548	1.1
150.0911	5.2
151.0865	0.6
151.0944	0.4
151.0989	0.4
152.0567	0.5
152.0704	2.0
153.0543	0.6
153.0656	2.8
153.1018	0.5
168.0656	0.6
168.1016	0.6
176.0702	0.7
177.0657	0.4
177.0736	0.5
177.1019	6.5
178.0498	0.6
178.0859	19.9
178.1050	0.7
179.0649	0.6
179.0680	0.5
179.0811	100.0
179.0882	2.7
179.0976	0.7
179.1176	0.6
180.0653	0.6
180.0845	4.4
194.0809	1.9
195.0642	0.6
195.0762	1.3
195.0841	1.9
195.0928	0.5
195.1124	3.7
196.0068	0.4
196.0600	2.1
196.0776	0.6
196.0965	64.7
196.1151	0.5
197.0665	3.6
197.0916	12.0
197.0999	7.0
197.1278	0.7
198.0215	1.0
198.0761	0.9

Name: (3S)-3-amino-5-methylhexanoic acid hydrochloride
PrecursorMZ: 146.11753
RT: 1.2830333333333332
ExactMass: 181.0869564
Spectrum_type: 2
charge: 1
Formula: C7H16ClNO2
SMILES: CC(C)C[C@@H](CC(=O)O)N.Cl
Method: HCD
Collision_energy: [28.333334]
Isolation_window: 4.0
Ion_mode: P
Num Peaks: 22
62.9295	1.4
64.9277	0.8
69.0703	2.2
86.0912	0.8
86.0967	100.0
86.1021	0.7
87.0939	0.6
87.1000	6.5
103.9557	1.3
105.9541	0.7
121.9662	10.2
123.9644	7.0
144.0807	4.9
144.1019	1.2
144.9821	1.1
145.0840	1.4
146.0600	1.7
146.1175	2.7
146.9803	0.6
147.0916	3.5
148.0755	1.8
148.1120	1.0

Name: (3S,5aR,6R,7aS,14aR,14bR)-6-(Acetyloxy)-1,2,3,6,7,7a,10,14,14a,14b-decahydro-3,13-dimethoxy-5,5,7a,9,14b-pentamethyl-5H-3,5a-epoxy-12H-furo(3,4-i)oxepino(4,3-a)xanthen-12-one
PrecursorMZ: 517.24299
RT: 1.6838
ExactMass: 516.23593272
Spectrum_type: 2
charge: 1
Formula: C28H36O9
SMILES: CC1=C2COC(=O)C2=C(C3=C1O[C@]4(C[C@H]([C@@]56[C@@]([C@H]4C3)(CC[C@@](O5)(OC6(C)C)OC)C)OC(=O)C)C)OC
Method: HCD
Collision_energy: [28.333334]
Isolation_window: 4.0
Ion_mode: P
Num Peaks: 32
81.0338	43.5
95.0493	100.0
107.0856	19.5
119.0856	18.9
135.1168	21.7
145.0649	19.1
145.1010	19.8
159.0805	22.8
171.0806	18.4
171.1170	19.6
173.0961	20.7
177.0910	18.3
185.0960	77.1
187.1120	20.0
199.1116	43.0
201.1274	17.7
223.1119	21.3
237.1269	31.4
245.1168	79.3
263.1429	19.3
283.1320	26.0
351.1949	37.2
361.1796	21.7
379.1897	56.1
397.2008	38.4
403.1898	21.4
415.2105	29.9
421.2000	46.7
439.2109	76.1
440.2150	22.1
457.2210	31.0
517.2433	68.0

Name: (3S-trans)-3-benzylhexahydropyrrolo(1,2-a)pyrazine-1,4-dione
PrecursorMZ: 245.12798
RT: 8.5012
ExactMass: 244.121177757
Spectrum_type: 2
charge: 1
Formula: C14H16N2O2
SMILES: C1CC2C(=O)NC(C(=O)N2C1)CC3=CC=CC=C3
Method: HCD
Collision_energy: [28.333334]
Isolation_window: 4.0
Ion_mode: P
Num Peaks: 26
70.0655	2.5
120.0807	1.7
121.0885	8.9
201.1020	4.3
216.1012	2.7
227.1022	1.6
243.1111	1.9
243.1319	1.9
243.1485	2.6
244.0968	5.5
244.1175	2.1
244.1326	47.2
244.1436	4.7
244.1537	2.0
245.1164	1.8
245.1276	100.0
245.1486	1.6
245.1629	3.9
246.1119	48.7
246.1317	18.3
246.1482	22.8
246.1593	3.0
246.1791	2.6
247.1153	3.7
247.1284	5.0
247.1433	9.9

Name: (3Z,6E)-2,2,6-trimethyl-12-oxabicyclo)8.2.1(trideca-3,6,10(13)-triene-5,11-dione
PrecursorMZ: 264.15912
RT: 2.6436
ExactMass: 246.125594432
Spectrum_type: 2
charge: 1
Formula: C15H18O3
SMILES: C/C/1=C\CCC2=CC(C(C=CC1=O)(C)C)OC2=O
Method: HCD
Collision_energy: [28.333334]
Isolation_window: 4.0
Ion_mode: P
Num Peaks: 36
55.0546	0.9
70.0656	0.9
80.0499	0.8
83.0496	1.3
101.0601	4.9
111.0443	0.8
114.0553	1.1
116.0709	0.7
164.1075	1.3
165.1026	14.8
166.0865	1.5
166.1063	1.4
211.1080	1.9
219.1493	0.9
263.1372	0.8
263.1777	0.9
264.0872	0.8
264.1594	2.0
265.0957	0.8
265.1548	100.0
266.1579	15.3
267.1636	1.6
268.1522	0.7
269.1105	1.0
273.1619	0.8
273.2179	0.9
274.1414	0.9
275.1409	0.9
277.1545	3.8
278.1497	1.1
279.1365	1.0
279.1705	9.2
280.1925	1.1
281.1543	1.3
281.1852	1.2
282.1345	0.8

Name: (3aR,4aS,5S,5aR,6aR)-5-(3-hydroxybutyl)-5a-methyl-3-methylidene-3a,4,4a,5,6,6a-hexahydrocyclopropa(f)(1)benzofuran-2-one
PrecursorMZ: 251.16391
RT: 4.9526
ExactMass: 250.15689456
Spectrum_type: 2
charge: 1
Formula: C15H22O3
SMILES: CC(CC[C@H]1[C@H]2[C@@]1(C[C@@H]3[C@H](C2)C(=C)C(=O)O3)C)O
Method: HCD
Collision_energy: [28.333334]
Isolation_window: 4.0
Ion_mode: P
Num Peaks: 44
55.0546	12.8
57.0703	19.3
59.0496	22.3
67.0546	32.1
69.0703	16.6
71.0494	12.4
79.0545	20.0
81.0337	64.5
81.0701	75.3
89.0599	100.0
91.0544	22.6
93.0700	29.2
95.0492	35.7
95.0857	46.7
98.9842	27.2
101.0961	14.6
105.0700	21.5
107.0856	19.3
109.0647	19.3
109.1012	29.8
117.0699	12.9
119.0855	32.7
121.0647	25.5
121.1011	23.2
122.0599	12.8
123.0802	14.5
123.1168	16.3
131.0854	37.3
133.0857	21.5
133.1011	17.5
136.0616	17.6
136.0753	16.6
147.1167	25.7
187.1478	18.5
197.1322	12.1
215.1428	12.4
233.1531	40.0
250.1069	40.4
251.0461	16.8
251.1015	36.4
251.1636	39.2
251.2000	16.2
252.0862	39.5
252.1226	41.3

Name: (3alpha,7alpha)-3,7-Dihydroxycholan-24-oic acid
PrecursorMZ: 785.59047
RT: 2.1157
ExactMass: 392.29265975
Spectrum_type: 2
charge: 1
Formula: C24H40O4
SMILES: C[C@H](CCC(=O)O)[C@H]1CC[C@@H]2[C@@]1(CC[C@H]3[C@H]2[C@@H](CC4[C@@]3(CC[C@H](C4)O)C)O)C
Method: HCD
Collision_energy: [28.333334]
Isolation_window: 4.0
Ion_mode: P
Num Peaks: 182
67.0543	0.8
69.0700	0.4
69.3068	0.3
69.3452	0.3
69.5373	0.3
69.6675	0.3
69.7596	0.3
69.9418	0.2
73.0645	0.2
79.0542	0.4
81.0700	4.0
82.0733	0.2
83.0856	1.0
85.0648	0.3
86.0964	0.3
87.0441	1.2
89.0597	6.6
89.0623	0.3
90.0631	0.3
91.0540	0.3
93.0698	1.3
95.0854	3.4
96.0886	0.2
97.0646	0.3
97.1011	0.3
97.4556	0.2
97.4575	0.2
99.0440	0.6
101.0596	0.7
105.0697	1.1
107.0854	2.7
108.0887	0.2
109.1010	2.8
115.0752	0.4
119.0852	1.5
121.1009	3.2
122.1041	0.3
123.0800	0.3
123.1166	0.9
127.0750	0.3
131.0698	0.3
131.0849	0.4
133.0856	3.1
133.1007	2.3
134.0889	0.3
135.0800	0.2
135.1164	5.2
136.1198	0.5
137.0957	0.5
137.1320	0.4
141.0905	0.4
145.1007	1.0
147.1164	3.3
148.1195	0.4
149.0957	0.7
149.1320	4.3
150.1353	0.4
151.1113	0.4
153.0906	0.8
155.1062	0.4
159.1164	1.1
161.1320	4.0
162.1353	0.4
163.1113	0.5
163.1476	3.1
164.1509	0.4
165.1268	0.3
167.1062	1.9
169.1217	0.3
171.1163	0.2
173.1320	0.6
175.1113	0.2
175.1476	4.0
176.1508	0.5
177.1116	1.1
177.1268	0.9
177.1632	1.0
179.1060	0.2
181.1217	2.2
182.1248	0.3
185.1320	0.3
187.1475	1.3
189.1267	0.4
189.1631	3.0
190.1665	0.3
191.1423	0.3
191.1788	0.2
193.1216	1.1
195.1373	4.6
196.1407	0.5
197.1318	0.2
199.1474	0.3
201.1631	2.4
202.1664	0.4
203.1423	0.6
203.1787	2.0
204.1820	0.4
205.1578	0.3
207.1372	1.7
208.1409	0.2
209.1529	1.0
211.1474	1.1
212.1504	0.2
213.1628	0.2
215.1422	0.2
215.1786	6.3
216.1820	0.9
217.1943	0.9
219.1733	0.4
221.1374	0.3
221.1528	4.4
222.1562	0.5
223.1685	0.5
225.1630	0.8
227.1785	0.3
229.1579	0.8
229.1942	3.3
230.1974	0.4
233.1528	0.4
235.1684	1.9
236.1722	0.2
237.1839	0.3
239.1781	0.4
241.1943	0.4
243.1736	0.5
243.2098	3.7
244.2132	0.7
247.1684	4.5
248.1717	0.7
249.1840	1.3
250.1868	0.2
257.1891	0.3
257.2253	0.4
261.1839	2.9
262.1872	0.4
263.1997	1.0
265.1934	0.3
275.0475	0.7
275.1995	3.3
276.2029	0.6
287.1995	0.4
289.2154	0.3
297.2567	0.5
301.2151	1.1
302.2187	0.2
309.2565	0.9
310.2600	0.5
311.2721	0.3
315.2301	0.3
321.2564	4.2
322.2596	1.0
337.2509	0.3
339.2669	9.4
340.2702	2.5
355.2618	0.5
356.2657	0.3
357.0608	0.2
357.2178	0.2
357.2310	0.6
357.2407	0.6
357.2531	0.2
357.2774	100.0
357.3140	0.3
357.3239	0.6
357.3372	0.2
358.2807	21.8
359.2838	1.7
373.2726	0.7
374.2758	0.3
375.2878	9.1
376.2912	2.2
391.2828	0.9
392.2856	0.5
393.2985	0.4
767.4609	0.8
767.5768	0.3
768.4640	0.4
768.5815	0.2
784.4866	0.8
785.4909	0.4
785.5889	0.6
786.5919	0.4

Name: (3beta,16beta,17alpha,18beta,20alpha)-18-Hydroxy-11,17-dimethoxyyohimban-16-carboxylic acid
PrecursorMZ: 401.20697
RT: 6.6028
ExactMass: 400.199822
Spectrum_type: 2
charge: 1
Formula: C22H28N2O5
SMILES: CO[C@H]1[C@@H](C[C@@H]2CN3CCC4=C([C@H]3C[C@@H]2[C@@H]1C(=O)O)NC5=C4C=CC(=C5)OC)O
Method: HCD
Collision_energy: [28.333334]
Isolation_window: 4.0
Ion_mode: P
Num Peaks: 48
70.0656	8.4
72.0812	63.9
73.0846	2.7
84.0811	1.2
86.0968	1.5
89.1076	4.1
90.0917	1.6
98.0603	1.8
100.0759	1.9
107.0493	5.2
114.0914	1.8
115.0868	1.4
128.1071	1.1
147.0441	1.7
161.0963	1.9
189.0547	3.0
225.0910	14.0
226.0945	2.6
253.0857	3.3
259.1443	1.2
260.1280	4.9
261.1316	1.1
267.1016	7.0
268.1049	1.1
277.1544	1.5
293.1494	1.5
294.1528	1.9
338.1750	33.6
339.1784	8.4
355.2016	14.1
356.2048	3.8
366.1699	21.3
367.1733	5.5
383.1963	13.1
384.1804	7.5
384.2005	1.8
385.1838	1.2
399.1914	4.2
400.1943	7.9
400.2235	2.3
401.1670	1.6
401.1766	2.6
401.2069	100.0
401.3378	1.8
402.1509	1.3
402.2102	24.6
402.2337	1.3
403.2124	2.0

Name: (3beta,5beta,7alpha)-3,7-Dihydroxycholan-24-oic acid
PrecursorMZ: 785.5913
RT: 4.1449
ExactMass: 392.29265975
Spectrum_type: 2
charge: 1
Formula: C24H40O4
SMILES: C[C@H](CCC(=O)O)[C@H]1CC[C@@H]2[C@@]1(CC[C@H]3[C@H]2[C@@H](C[C@H]4[C@@]3(CC[C@@H](C4)O)C)O)C
Method: HCD
Collision_energy: [28.333334]
Isolation_window: 4.0
Ion_mode: P
Num Peaks: 7
149.1324	6.0
184.0732	47.9
215.1794	6.9
339.2682	7.0
357.2784	100.0
358.2819	19.6
375.2888	9.5

Name: (4-Hydroxyphenyl)acetamide
PrecursorMZ: 152.07059
RT: 3.3707
ExactMass: 151.06332853
Spectrum_type: 2
charge: 1
Formula: C8H9NO2
SMILES: C1=CC(=CC=C1CC(=O)N)O
Method: HCD
Collision_energy: [28.333334]
Isolation_window: 4.0
Ion_mode: P
Num Peaks: 20
89.0599	0.9
94.0400	1.0
107.0491	71.6
108.0524	4.8
110.0349	1.9
110.0599	1.6
134.0597	2.5
151.0612	100.0
151.0742	1.3
151.0860	3.1
152.0579	1.7
152.0645	7.1
152.0703	23.7
152.0813	1.2
152.1067	0.8
153.0655	14.1
153.0735	1.3
153.1019	2.1
154.0496	7.6
154.0861	1.2

Name: (4-oxido-2,3,5,6,7,8-hexahydro-1H-pyrrolizin-4-ium-1-yl)methyl 2-hydroxy-2-(1-hydroxyethyl)-3-methylbutanoate
PrecursorMZ: 324.18009
RT: 5.9341
ExactMass: 301.18892296
Spectrum_type: 2
charge: 1
Formula: C15H27NO5
SMILES: CC(C)C(C(C)O)(C(=O)OCC1CC[N+]2(C1CCC2)[O-])O
Method: HCD
Collision_energy: [28.333334]
Isolation_window: 4.0
Ion_mode: P
Num Peaks: 20
69.6474	5.5
97.4571	4.9
100.0757	29.5
136.0756	5.1
161.0959	13.6
177.0544	6.9
178.0862	5.4
189.0905	14.5
236.1278	6.4
260.1640	99.0
261.1674	18.4
262.1433	13.4
278.1745	31.4
279.1780	5.5
288.1586	26.1
289.1622	6.4
306.1693	100.0
307.1733	18.4
324.1798	36.9
325.1830	8.0

Name: (4As,6As,6Br,10S,12Ar)-10-Hydroxy-2,2,6A,6B,9,9,12A-Heptamethyl-1,3,4,5,6,6A,7,8,8A,10,11,12,13,14B-Tetradecahydropicene-4A-Carboxylic Acid
PrecursorMZ: 439.35893
RT: 1.0242
ExactMass: 456.36034539
Spectrum_type: 2
charge: 1
Formula: C30H48O3
SMILES: C[C@]12CC[C@@H](C(C1CC[C@@]3(C2CC=C4[C@]3(CC[C@@]5(C4CC(CC5)(C)C)C(=O)O)C)C)(C)C)O
Method: HCD
Collision_energy: [28.333334]
Isolation_window: 4.0
Ion_mode: P
Num Peaks: 137
55.0546	2.7
57.0704	4.5
67.0547	6.5
69.0703	9.3
71.0496	3.2
71.0859	4.2
79.0546	3.1
81.0702	25.2
83.0495	2.1
83.0859	8.8
85.0651	3.3
91.0544	3.3
93.0702	9.9
95.0858	39.8
96.0893	3.1
97.0651	2.5
97.1014	6.7
99.0806	4.7
101.0598	3.0
105.0701	13.0
107.0857	21.8
109.1014	33.7
110.1047	2.6
111.0807	3.7
111.1170	2.3
119.0857	32.2
120.0889	2.4
121.1013	27.9
122.1047	2.2
123.0804	2.9
123.1169	20.9
125.0961	3.6
127.1118	4.2
129.0547	2.5
131.0857	3.9
133.1012	26.2
134.1045	2.4
135.0806	2.5
135.1168	23.0
136.1202	2.6
137.0962	3.1
137.1325	7.5
141.0912	2.3
145.1012	8.0
147.1168	29.4
148.1202	2.5
149.0962	4.8
149.1325	23.6
151.1117	3.0
151.1482	2.1
153.0910	2.6
157.1013	2.4
159.1170	9.6
161.0962	2.6
161.1326	20.1
162.1359	2.5
163.1117	3.2
163.1482	12.3
165.0911	7.1
167.1068	2.4
171.1167	3.5
173.1325	8.0
175.1119	3.5
175.1481	17.3
176.1515	2.3
177.1275	2.5
177.1637	15.1
179.1067	2.1
183.1170	2.4
185.1324	2.6
187.1481	9.1
189.1275	3.0
189.1637	31.3
190.1670	4.7
191.1430	2.2
191.1794	44.2
192.1826	5.5
193.1223	2.8
193.1585	2.4
199.1483	2.5
201.1273	2.6
201.1638	13.8
203.1429	3.0
203.1794	92.5
204.1827	14.6
205.1224	2.2
205.1586	2.2
205.1951	13.9
207.1743	2.1
213.1638	3.7
215.1430	2.7
215.1794	4.9
217.1587	2.6
217.1950	24.9
218.1984	4.1
219.2108	2.3
221.1536	3.7
221.1900	2.9
223.1690	2.6
227.1793	3.5
229.1950	6.1
231.1744	2.4
231.2106	3.3
235.1693	5.2
239.1794	2.0
241.1948	3.1
245.2264	9.1
247.1692	4.5
249.1848	13.8
255.2113	3.6
257.2265	4.3
261.1849	2.1
275.2004	2.3
287.2008	2.5
297.1848	2.9
355.2634	3.8
389.2686	2.1
393.3521	7.1
394.3550	2.7
403.2840	2.1
421.2957	2.3
421.3464	6.2
422.3473	3.2
423.3608	2.7
437.3389	5.6
438.3433	10.3
438.3725	56.1
439.2079	4.5
439.3215	5.4
439.3553	100.0
440.3213	2.7
440.3593	33.0
440.3874	5.1
441.2615	3.4
441.2987	4.8
441.3359	4.6
441.3706	14.7

Name: (4R)-4-((3R,5S,6S,7R,8R,9S,10R,12S,13R,17R)-3,6,7,12-tetrahydroxy-10,13-dimethyl-2,3,4,5,6,7,8,9,11,12,14,15,16,17-tetradecahydro-1H-cyclopenta(a)phenanthren-17-yl)pentanoic acid
PrecursorMZ: 389.26761
RT: 2.3407
ExactMass: 424.28248899
Spectrum_type: 2
charge: 1
Formula: C24H40O6
SMILES: C[C@H](CCC(=O)O)[C@H]1CCC2[C@@]1([C@H](C[C@H]3[C@H]2[C@H]([C@H]([C@@H]4[C@@]3(CC[C@H](C4)O)C)O)O)O)C
Method: HCD
Collision_energy: [28.333334]
Isolation_window: 4.0
Ion_mode: P
Num Peaks: 145
67.0544	2.9
69.0701	3.0
69.2301	4.9
70.0653	4.7
79.0544	2.8
81.0336	2.5
81.0700	10.6
83.0492	2.0
83.0856	2.3
85.0649	4.5
86.0965	5.2
91.0541	2.2
93.0698	10.2
95.0855	13.9
97.0647	2.3
97.4563	3.5
98.0600	2.4
99.0439	3.0
101.0597	2.8
105.0697	8.6
107.0854	13.4
109.0647	2.8
109.1011	7.4
111.0802	3.3
116.0704	4.8
119.0854	8.4
121.0645	3.8
121.1009	9.5
123.0802	7.3
123.1166	1.9
125.0957	4.3
126.0547	2.1
131.0852	6.0
133.1009	9.2
135.0802	3.2
135.1165	4.4
137.0592	3.8
137.0958	5.0
143.0853	4.0
145.1008	13.7
147.1165	11.2
149.0958	2.7
149.1321	3.8
150.0909	3.1
151.0749	3.1
157.1008	10.4
159.1165	14.4
161.0958	2.2
161.1320	7.5
163.1113	2.3
164.1066	2.6
169.1008	3.5
171.1164	6.0
173.0957	2.3
173.1320	6.8
175.1115	5.2
175.1477	2.6
177.0542	2.6
183.1165	4.9
185.1319	8.2
187.1112	2.2
187.1476	2.8
189.1268	2.1
189.1634	1.8
191.1425	2.7
193.1218	2.0
195.0509	2.0
195.1162	2.0
196.0587	4.2
197.1320	8.7
199.1475	13.3
201.1630	2.9
208.0963	3.1
209.1318	7.5
209.1531	2.1
211.1474	10.2
212.1511	2.2
213.1631	6.7
215.1423	2.9
217.1581	3.6
223.1474	4.0
225.1268	2.7
225.1629	7.1
227.1423	13.2
229.1579	9.7
231.1739	2.5
235.1473	4.3
237.1632	3.1
239.1424	2.2
241.1576	4.3
243.1373	5.5
243.1734	4.5
245.1528	10.6
247.1684	2.2
249.1630	2.1
251.1786	2.5
253.1578	3.5
253.1939	1.8
255.1478	3.5
257.1531	2.5
259.1686	5.0
261.1628	2.1
261.1842	2.5
271.1682	3.9
273.1844	2.1
277.1940	3.8
279.1731	2.9
281.1891	2.3
283.2047	2.6
293.1885	1.9
295.2046	2.9
307.2409	9.8
308.2448	2.6
311.1997	3.0
313.2151	3.5
317.2253	9.0
318.2280	3.1
323.1946	3.7
325.2514	22.4
326.2551	5.8
335.2358	35.6
336.2391	8.3
342.2054	4.0
343.1644	3.5
343.2619	4.0
353.2463	100.0
354.2493	24.7
355.1859	2.0
355.2573	2.2
355.2632	3.6
371.2568	85.2
372.2601	21.5
373.2659	1.9
388.1361	4.4
388.1861	3.4
388.2099	5.1
389.1682	5.9
389.2120	2.1
389.2672	95.7
390.1521	4.7
390.2269	2.2
390.2704	21.3
391.1053	5.6
391.1835	3.2
391.2740	2.6

Name: (4S)-2-ethyl-1,4,5,6-tetrahydropyrimidine-4-carboxylic acid
PrecursorMZ: 157.097
RT: 8.6588
ExactMass: 156.08987763
Spectrum_type: 2
charge: 1
Formula: C7H12N2O2
SMILES: CCC1=NCC[C@H](N1)C(=O)O
Method: HCD
Collision_energy: [28.333334]
Isolation_window: 4.0
Ion_mode: P
Num Peaks: 36
58.0655	1.1
69.7165	1.2
70.0653	10.7
97.0509	2.5
97.0760	8.5
110.0711	4.6
111.0916	1.3
112.0868	33.9
113.0708	1.4
115.0864	2.3
115.9541	1.3
115.9639	3.8
116.0704	2.0
116.9618	2.6
133.9643	1.6
134.9722	1.6
139.0863	4.3
141.0654	2.9
155.0812	1.5
155.0894	1.2
155.1539	1.5
156.0419	1.6
156.0652	1.0
156.0763	1.4
156.1016	2.0
156.1128	1.0
157.0493	1.4
157.0968	29.4
157.1696	4.3
158.0920	100.0
158.1002	1.6
158.1172	2.7
158.1282	1.4
158.1537	2.7
159.0762	1.2
159.0953	3.0

Name: (4S)-4-hydroxy-3,5,5-trimethyl-4-((1E)-3-(((2R,3R,4S,5S,6R)-3,4,5-trihydroxy-6-(hydroxymethyl)oxan-2-yl)oxy)but-1-en-1-yl)cyclohex-2-en-1-one
PrecursorMZ: 409.18336
RT: 2.7072
ExactMass: 386.19406791
Spectrum_type: 2
charge: 1
Formula: C19H30O8
SMILES: CC1=CC(=O)CC([C@]1(/C=C/C(C)O[C@H]2[C@@H]([C@H]([C@@H]([C@H](O2)CO)O)O)O)O)(C)C
Method: HCD
Collision_energy: [28.333334]
Isolation_window: 4.0
Ion_mode: P
Num Peaks: 3
409.1834	100.0
410.1867	17.7
411.1806	5.4

Name: (4S,5S,6R)-5-methoxy-4-((2R,3R)-2-methyl-3-(3-methylbut-2-enyl)oxiran-2-yl)-1-oxaspiro(2.5)octan-6-ol
PrecursorMZ: 283.1901
RT: 5.0413499999999996
ExactMass: 282.18310931
Spectrum_type: 2
charge: 1
Formula: C16H26O4
SMILES: CC(=CC[C@@H]1[C@@](O1)(C)[C@H]2[C@@H]([C@@H](CCC23CO3)O)OC)C
Method: HCD
Collision_energy: [28.333334]
Isolation_window: 4.0
Ion_mode: P
Num Peaks: 111
55.0546	5.9
57.0702	6.0
67.0546	53.1
68.0578	3.8
69.0337	5.0
69.0702	16.3
70.0708	3.9
71.0494	5.0
71.0859	5.0
79.0545	16.3
81.0701	90.4
82.0735	4.5
83.0494	5.5
83.0858	21.5
84.0809	7.0
85.0650	6.8
91.0543	9.0
93.0700	20.5
95.0492	7.4
95.0856	98.3
96.0889	7.8
97.0649	8.9
97.1013	16.0
99.0805	4.4
100.0757	23.7
101.0597	5.3
105.0699	7.5
107.0492	8.7
107.0856	20.7
109.1012	77.2
110.1045	4.5
111.0804	8.5
111.1168	4.0
112.0757	19.6
117.0697	4.1
119.0855	24.7
121.0646	4.9
121.1011	33.0
123.0804	11.2
123.1167	20.2
125.0596	19.2
125.0960	14.8
131.0854	12.3
133.1010	16.7
135.0803	7.7
135.1167	31.9
136.1199	3.5
137.0594	3.4
137.0959	23.3
137.1323	4.3
138.0546	4.3
139.0752	100.0
139.1115	3.7
140.0785	7.6
141.0908	5.1
145.1010	21.5
147.1165	6.0
149.0959	10.5
151.1117	5.2
153.0908	53.7
154.0941	4.9
155.1063	6.4
157.0856	4.2
159.1166	9.9
161.1325	4.2
163.1116	7.3
167.1066	8.4
173.1322	6.8
175.1476	4.5
177.1635	6.0
181.1220	8.8
189.1119	4.1
191.1792	5.2
195.1377	3.7
201.1634	57.0
202.1670	7.0
211.1477	7.1
215.0811	5.3
219.1739	38.2
220.1772	7.1
229.1581	10.5
237.1845	55.4
238.1879	8.0
241.0965	4.9
243.1126	6.3
247.1689	28.2
248.1722	4.2
257.1278	9.4
264.1226	9.4
265.1183	4.2
265.1792	47.5
266.1382	5.2
266.1840	4.7
282.1197	13.6
282.1327	20.1
282.1670	6.8
282.2785	42.8
283.1074	5.7
283.1280	8.3
283.1661	5.3
283.1898	17.5
283.2822	7.5
284.0913	4.5
284.1121	10.0
284.1479	12.0
284.3306	4.1
285.1227	37.6
285.1449	3.7
285.1579	4.5
285.1839	10.6
285.2418	21.2

Name: (4aR,5S,8aS,9aR)-9a-hydroxy-3,4a,5-trimethyl-5,6,7,8,8a,9-hexahydro-4H-benzo(f)(1)benzofuran-2-one
PrecursorMZ: 251.16393
RT: 5.0782
ExactMass: 250.15689456
Spectrum_type: 2
charge: 1
Formula: C15H22O3
SMILES: C[C@H]1CCC[C@@H]2[C@@]1(CC3=C(C(=O)O[C@@]3(C2)O)C)C
Method: HCD
Collision_energy: [28.333334]
Isolation_window: 4.0
Ion_mode: P
Num Peaks: 66
55.0545	10.8
57.0702	11.3
59.0495	17.2
67.0545	10.9
69.0337	9.6
69.0701	10.7
69.6518	13.4
71.0494	11.4
81.0701	34.5
83.0493	11.1
89.0599	85.9
93.0700	22.6
95.0493	23.7
95.0857	39.0
97.0649	16.1
97.4565	11.5
98.9842	21.0
99.0804	10.8
101.0961	11.1
105.0700	18.6
107.0856	34.9
109.0648	27.6
109.1013	20.8
119.0854	22.7
121.0647	12.4
121.1010	14.2
123.0803	14.7
131.0855	12.9
133.0859	18.6
133.1009	29.1
135.0803	12.3
135.1165	10.0
136.0616	15.5
136.0755	13.3
145.1011	23.8
147.1166	16.2
149.0958	9.6
151.1116	10.5
157.1011	9.3
159.1167	14.5
163.1116	11.8
173.1324	22.8
175.1114	23.9
177.1273	9.3
187.1480	14.4
189.1270	17.6
191.1428	13.5
193.1221	17.3
205.1583	35.3
206.1174	12.8
207.1377	23.0
215.1425	16.5
217.1216	9.6
223.1691	10.7
232.0962	12.6
233.1532	40.0
234.1121	11.8
235.1324	32.8
250.1069	53.0
250.1434	11.5
251.0469	12.2
251.1019	22.6
251.1636	100.0
252.0861	27.1
252.1225	50.0
252.1571	28.2

Name: (5-(Furan-2-yl)isoxazol-3-yl)methyl 5-oxo-1-(o-tolyl)pyrrolidine-3-carboxylate
PrecursorMZ: 367.1285
RT: 4.9388
ExactMass: 366.12157168
Spectrum_type: 2
charge: 1
Formula: C20H18N2O5
SMILES: CC1=CC=CC=C1N2CC(CC2=O)C(=O)OCC3=NOC(=C3)C4=CC=CO4
Method: HCD
Collision_energy: [28.333334]
Isolation_window: 4.0
Ion_mode: P
Num Peaks: 79
116.0706	0.5
118.0651	0.7
122.0599	1.7
123.0439	34.1
124.0473	0.5
130.0649	12.9
131.0684	0.5
132.0806	3.4
135.0438	0.6
136.0754	0.6
137.0595	4.1
138.0548	0.4
144.0806	5.9
145.0282	0.7
146.0598	13.9
157.0759	0.7
158.0596	0.5
159.0915	50.1
160.0754	0.5
160.0948	1.0
162.0548	1.3
163.0387	20.1
164.0420	1.5
164.0704	0.8
165.0544	2.7
169.0758	0.7
170.0598	2.7
182.0807	0.5
184.0752	0.6
185.0707	9.8
186.0741	0.8
187.0864	3.3
188.0528	0.7
188.0562	0.6
188.0703	100.0
188.0844	0.4
188.0881	0.7
189.0738	0.7
203.0812	0.8
205.0968	46.4
211.0862	0.6
213.0657	0.7
215.0808	0.5
217.0967	5.2
218.1013	0.5
228.0652	0.9
231.0759	9.1
232.0797	0.9
238.0856	0.8
245.0916	6.3
246.0950	0.7
250.0858	0.8
252.0865	0.5
252.1014	2.4
262.0848	0.5
264.1016	1.0
271.1074	0.5
274.0699	0.6
278.0806	2.4
279.0840	0.6
286.0856	0.4
292.0961	0.4
304.0962	0.8
321.1227	3.1
322.1260	0.8
323.1383	18.0
325.1177	1.9
333.1226	0.4
335.1230	0.5
349.1175	1.2
350.1015	0.5
351.1332	4.0
366.1444	0.6
367.1280	21.2
367.1473	0.7
368.1313	4.1
368.1592	0.8
369.1439	17.1
369.1613	0.5

Name: (5-methyl-1-(4-propoxyphenyl)-1H-1,2,3-triazol-4-yl)(morpholino)methanone
PrecursorMZ: 331.17595
RT: 3.5032
ExactMass: 330.16919058
Spectrum_type: 2
charge: 1
Formula: C17H22N4O3
SMILES: CCCOC1=CC=C(C=C1)N2C(=C(N=N2)C(=O)N3CCOCC3)C
Method: HCD
Collision_energy: [28.333334]
Isolation_window: 4.0
Ion_mode: P
Num Peaks: 108
58.0656	3.0
69.0339	3.1
70.0656	16.0
72.0812	6.1
81.0340	3.0
83.0496	3.5
84.0812	13.8
86.0604	3.7
87.0445	8.3
96.0446	4.2
96.0811	3.0
100.0761	7.0
101.0600	11.0
108.0446	3.5
110.0605	4.0
111.0443	3.4
112.0760	5.1
112.0872	3.8
118.0865	10.3
122.0604	3.2
122.0812	7.8
124.0764	2.9
126.0551	4.8
129.0548	4.4
129.1025	11.8
130.0653	3.5
130.0865	9.7
132.0445	7.2
134.0603	3.5
140.0709	5.6
144.1019	4.9
146.0925	8.1
152.0712	3.7
156.1022	8.2
157.0766	3.9
158.0814	14.9
164.0706	3.1
166.0861	9.1
168.1019	3.5
169.0968	3.9
170.0813	29.8
174.1127	3.1
175.0865	8.8
175.1192	9.0
178.0853	4.1
181.0971	6.7
185.0712	3.7
195.0764	3.5
196.0944	3.0
199.1199	4.3
208.0978	2.8
210.0796	3.4
226.1056	4.2
252.1224	3.7
273.1459	4.5
285.1816	2.8
296.1394	8.4
297.1189	3.1
312.1539	4.9
313.1692	9.5
314.1492	16.6
315.1538	4.0
318.1499	4.0
324.1432	3.8
326.1598	3.0
328.1795	2.8
329.1791	20.6
330.1599	39.6
330.3360	3.8
331.1318	3.1
331.1834	66.7
332.1326	14.9
332.1818	35.7
333.1458	9.2
333.1818	5.6
334.1281	30.8
334.1926	2.8
335.1271	9.6
335.1634	13.3
336.1459	22.6
337.1391	22.7
337.1739	4.4
338.1229	14.6
338.1699	11.6
339.1574	30.4
340.1384	35.0
341.1383	5.7
341.1735	41.9
342.1617	100.0
343.1520	14.4
343.1885	12.4
344.1146	12.7
344.1761	33.4
345.1394	3.1
345.1742	12.0
345.2086	3.1
346.0747	3.1
346.1437	32.6
346.1977	27.6
346.3310	3.8
347.1367	5.4
347.1449	5.2
347.1959	4.7
348.1458	25.7
348.2025	4.2
349.1408	16.8
350.1286	4.5
350.1601	8.7

Name: (5E,7E)-3-acetamidoundeca-5,7-dienoic acid
PrecursorMZ: 240.15932
RT: 4.7846
ExactMass: 239.15214353
Spectrum_type: 2
charge: 1
Formula: C13H21NO3
SMILES: CCC/C=C/C=C/CC(CC(=O)O)NC(=O)C
Method: HCD
Collision_energy: [28.333334]
Isolation_window: 4.0
Ion_mode: P
Num Peaks: 100
55.0547	2.4
67.0546	1.4
69.0339	1.5
69.0703	2.4
70.0655	52.5
71.0689	1.3
79.0546	1.5
81.0702	2.6
82.0655	1.2
83.0495	1.2
83.0858	3.4
87.0443	1.5
89.0600	2.1
93.0702	1.4
95.0493	1.0
95.0858	1.9
97.0650	1.3
97.1014	18.0
98.1048	1.2
99.0442	1.2
100.0759	2.8
101.0598	1.8
107.0857	3.3
109.0651	1.1
109.1013	1.3
111.0443	1.3
112.0759	1.2
116.0708	100.0
117.0740	5.6
119.0855	1.2
121.1013	0.9
123.0805	1.1
125.0962	10.0
133.1014	1.1
136.0757	2.1
138.0913	1.4
139.0866	4.8
139.9147	2.2
140.0707	0.9
150.0913	1.0
152.0707	1.2
152.1070	0.9
153.1023	2.5
161.1325	1.1
164.0707	1.7
166.0864	2.8
176.0707	1.6
178.0866	1.1
180.0654	0.9
180.1019	4.1
180.1382	0.9
181.0972	1.3
182.0812	6.9
184.0969	1.1
192.1020	1.9
193.1055	1.1
193.1337	1.2
194.1177	2.7
194.1541	3.5
195.1128	1.1
208.0967	1.8
210.0763	1.9
210.1125	1.8
220.1079	1.0
220.1441	1.0
221.0915	1.1
221.1281	2.9
221.1535	2.2
222.1126	3.9
222.1485	1.1
224.0916	1.0
224.1282	2.4
225.0869	12.8
226.0906	1.4
238.1071	2.9
238.1187	2.0
238.1431	0.9
238.1544	1.3
239.1020	4.1
239.1112	2.2
239.1251	1.4
239.1387	16.2
239.1651	1.3
239.1787	1.6
240.0864	3.6
240.0987	1.3
240.1232	26.1
240.1342	4.3
240.1593	57.4
240.2321	13.6
241.1175	7.7
241.1272	2.6
241.1543	5.5
241.1631	6.4
241.1945	1.0
241.2355	2.0
242.1020	10.7
242.1136	6.9
242.1384	1.0
242.1498	2.0

Name: (5R)-5-Hydroxy-1-(4-hydroxy-3-methoxyphenyl)tetradecan-3-one
PrecursorMZ: 351.25309
RT: 0.5692
ExactMass: 350.24570956
Spectrum_type: 2
charge: 1
Formula: C21H34O4
SMILES: CCCCCCCCC[C@H](CC(=O)CCC1=CC(=C(C=C1)O)OC)O
Method: HCD
Collision_energy: [28.333334]
Isolation_window: 4.0
Ion_mode: P
Num Peaks: 111
57.0341	5.4
57.0705	16.0
59.0497	5.9
67.0548	26.7
69.0704	23.2
71.0496	6.8
71.0860	15.7
73.0472	7.3
79.0547	18.0
81.0703	47.6
83.0497	6.8
83.0860	16.4
85.0287	10.4
85.0653	10.4
85.1016	6.6
86.0969	5.5
87.0445	15.3
89.0601	9.0
91.0545	8.2
91.0581	6.8
93.0703	39.9
95.0494	5.2
95.0859	46.7
97.0652	8.3
97.1015	11.8
99.0444	6.4
99.0808	11.9
101.0600	7.9
105.0702	25.7
107.0495	5.7
107.0858	36.6
109.0650	8.5
109.1015	32.3
111.0808	9.0
113.0966	5.0
117.0703	8.0
119.0858	32.8
121.1014	39.8
123.0807	11.2
123.1170	16.2
125.0965	8.5
127.0756	4.5
127.1121	4.1
129.0187	5.1
131.0857	14.9
133.1013	40.7
134.1047	4.7
135.0443	8.6
135.0808	6.6
135.1170	38.1
137.0599	31.7
137.0966	7.3
137.1325	6.9
139.1117	4.6
143.0857	6.4
145.1013	22.8
147.0805	11.5
147.1171	44.5
148.1210	4.2
149.0963	7.7
149.1327	25.0
151.0757	4.3
151.0976	4.6
151.1115	8.0
153.0916	4.7
157.1013	9.4
159.1171	25.2
161.0965	5.8
161.1327	30.3
162.1367	4.7
163.0756	11.6
163.1122	6.8
163.1487	8.7
165.0914	7.2
165.1276	5.4
171.1170	12.8
173.1178	5.6
173.1328	14.7
175.1119	5.8
175.1486	16.0
177.0906	4.6
177.1273	5.5
185.1326	9.0
187.1331	4.7
187.1484	6.6
189.1636	5.1
199.1489	8.3
201.1632	4.5
221.1166	9.4
231.2107	4.7
233.1528	4.2
241.1955	20.8
243.2108	4.1
249.1850	6.3
259.2058	58.4
260.2091	12.9
261.2209	11.0
277.2166	10.4
285.0107	4.9
293.1765	4.2
301.2158	4.3
333.2417	4.3
351.2197	7.1
351.2534	100.0
352.2563	21.6
352.3076	7.3
353.2680	13.0
355.0707	7.8
359.2217	8.2
362.2727	5.3
365.3203	6.7

Name: (5R,7R,8S)-3,4,7-trihydroxy-8-((2S)-7-methoxy-6-methyl-7-oxoheptan-2-yl)-5-methyl-5,6,7,8-tetrahydronaphthalene-2-carboxylic acid
PrecursorMZ: 395.20621
RT: 1.02685
ExactMass: 394.19915329
Spectrum_type: 2
charge: 1
Formula: C21H30O7
SMILES: C[C@@H]1C[C@H]([C@H](C2=CC(=C(C(=C12)O)O)C(=O)O)[C@@H](C)CCCC(C)C(=O)OC)O
Method: HCD
Collision_energy: [28.333334]
Isolation_window: 4.0
Ion_mode: P
Num Peaks: 60
57.0703	8.8
69.0703	2.9
83.0495	19.4
85.0651	6.9
87.0444	3.3
97.3988	2.0
109.1014	1.9
126.0914	2.7
179.0704	2.5
181.0132	14.4
199.0238	20.5
200.0271	1.9
203.0705	2.4
205.0859	4.9
205.1223	2.0
207.1378	2.5
208.0971	2.0
209.0808	6.4
209.1534	2.5
221.0808	30.0
222.0847	2.3
233.1175	2.2
235.0601	7.6
237.0757	100.0
238.0791	12.6
247.1328	3.4
251.0912	1.9
251.1278	2.6
253.0705	3.9
255.0861	13.3
257.1173	3.0
259.1329	4.0
265.1433	3.2
275.1276	5.9
277.1433	7.1
287.1278	1.8
289.1434	3.3
291.1226	5.4
293.1382	14.1
294.1416	2.8
295.1543	3.8
303.1225	4.3
311.1487	23.2
312.1518	3.3
313.1797	2.0
321.1341	2.2
331.1901	6.2
359.1490	2.5
359.1853	8.4
360.1884	2.2
361.2004	2.2
377.1955	16.2
378.1987	3.6
379.1760	3.3
379.2107	10.4
380.2153	2.2
394.1914	3.8
395.2063	8.4
396.2095	2.1
397.2369	3.5

Name: (5aR,8Z,9aS,10aR,13bR)-8-ethylidene-9a-(hydroxymethyl)-10a-methyl-2,4,5,5a,8,9,9a,10a,13,13b-decahydrooxireno)8,9()1,6(dioxacyclododecino)2,3,4-gh(pyrrolizine-7,11-dione
PrecursorMZ: 350.15964
RT: 1.4284
ExactMass: 349.15253745
Spectrum_type: 2
charge: 1
Formula: C18H23NO6
SMILES: C/C=C\1/C[C@@]2([C@@](O2)(C(=O)OCC3=CCN4[C@H]3[C@@H](CC4)OC1=O)C)CO
Method: HCD
Collision_energy: [28.333334]
Isolation_window: 4.0
Ion_mode: P
Num Peaks: 97
58.0657	16.8
70.0657	21.9
72.0814	8.1
81.0341	16.6
83.0496	5.8
84.0813	15.0
86.0971	4.9
95.0495	6.5
96.0448	6.2
96.0812	13.3
98.0968	9.8
101.0601	9.8
110.0602	6.8
110.0717	5.5
111.0445	15.9
112.0763	4.8
114.0668	4.8
114.1281	10.2
122.0604	5.5
123.0443	7.1
123.0924	5.2
124.0759	4.7
126.0917	5.5
128.1072	6.8
130.0866	8.2
136.0764	5.2
137.0597	4.8
148.0759	6.0
156.1024	7.2
160.0763	5.4
162.0917	5.1
170.0926	5.4
178.0862	4.8
180.1021	41.4
181.1064	4.8
188.0708	5.1
200.0704	6.2
209.1298	8.2
217.0973	9.8
219.1496	8.0
220.1191	4.5
225.1238	4.4
239.1162	19.2
303.1704	5.3
305.1858	4.8
325.1789	5.3
331.1657	4.8
339.1909	4.8
348.2204	53.1
349.1401	6.8
349.1793	41.6
349.2191	25.8
350.1607	100.0
350.2053	9.8
351.1608	20.9
351.1943	12.2
352.1213	5.2
352.1672	7.2
352.2161	6.2
353.1423	11.3
353.1850	7.3
353.2105	5.7
354.1378	18.1
354.1893	9.8
355.1309	8.2
355.1696	14.9
355.1850	16.7
356.1114	6.6
356.1522	31.7
356.1951	14.0
356.3518	5.3
357.1468	27.2
357.1852	13.6
358.1294	6.8
358.1690	31.9
358.2087	7.3
358.3665	6.2
359.1615	34.3
359.2050	8.7
360.1409	22.9
360.1844	25.8
361.1420	12.9
361.1793	23.8
362.1612	22.6
362.1988	50.4
363.1560	29.0
363.1963	31.6
364.1297	7.1
364.1780	9.8
364.2196	8.7
365.1757	14.4
365.2157	7.2
366.1339	7.8
367.1618	8.5
367.1862	8.9
368.1480	21.2
369.1408	9.4

Name: (6)-Gingerol
PrecursorMZ: 317.17039
RT: 8.4579
ExactMass: 294.18310931
Spectrum_type: 2
charge: 1
Formula: C17H26O4
SMILES: CCCCC[C@@H](CC(=O)CCC1=CC(=C(C=C1)O)OC)O
Method: HCD
Collision_energy: [28.333334]
Isolation_window: 4.0
Ion_mode: P
Num Peaks: 19
100.0759	2.1
101.0599	6.0
130.0864	2.6
146.0925	2.6
160.0967	2.4
217.1179	4.8
315.1664	3.2
316.1177	6.0
316.1370	4.3
316.1538	4.4
316.1670	7.6
317.1503	5.7
317.1705	100.0
318.1334	9.7
318.1469	4.3
318.1739	16.7
319.1646	6.7
319.1858	7.7
319.2019	5.5

Name: (6,7-dihydroxy-7-(hydroxymethyl)-4-(((2R,3R,4S,5S,6R)-3,4,5-trihydroxy-6-(hydroxymethyl)oxan-2-yl)oxymethyl)-4a,5,6,7a-tetrahydro-1H-cyclopenta(c)pyran-1-yl) 3-methylbutanoate
PrecursorMZ: 501.19377
RT: 7.5374
ExactMass: 478.20502652
Spectrum_type: 2
charge: 1
Formula: C21H34O12
SMILES: CC(C)CC(=O)OC1C2C(CC(C2(CO)O)O)C(=CO1)CO[C@H]3[C@@H]([C@H]([C@@H]([C@H](O3)CO)O)O)O
Method: HCD
Collision_energy: [28.333334]
Isolation_window: 4.0
Ion_mode: P
Num Peaks: 4
55.6885	5.3
501.1934	100.0
502.1963	23.1
503.1948	5.6

Name: (6-Hydroxy-8-methyl-8-azabicyclo(3.2.1)octan-3-yl) 3-hydroxy-2-phenylpropanoate
PrecursorMZ: 306.16972
RT: 2.8857
ExactMass: 305.16270821
Spectrum_type: 2
charge: 1
Formula: C17H23NO4
SMILES: CN1C2CC(CC1C(C2)O)OC(=O)C(CO)C3=CC=CC=C3
Method: HCD
Collision_energy: [28.333334]
Isolation_window: 4.0
Ion_mode: P
Num Peaks: 67
58.0656	1.6
60.0813	2.9
70.0656	2.2
72.0813	42.6
73.0844	1.9
83.0496	1.6
84.0812	3.5
93.0704	1.7
96.0811	2.3
98.0965	2.0
100.0760	7.8
101.0601	4.7
116.0707	1.8
120.0809	1.5
123.0443	6.2
130.0866	1.9
144.1021	1.6
170.0930	1.6
193.0963	2.4
195.1128	2.6
200.1285	1.4
201.0901	2.2
207.1130	2.4
213.1238	1.7
215.0823	2.2
229.0864	2.3
275.1145	3.4
280.1546	3.4
288.1599	10.6
289.1640	2.4
291.1343	2.2
293.1501	5.3
294.1537	1.4
295.1398	4.0
304.1552	7.2
305.1175	1.5
305.1515	7.6
306.0957	1.5
306.1379	8.4
306.1705	100.0
307.1327	4.9
307.1726	21.2
308.1552	5.9
309.1464	6.7
309.1819	3.4
310.1305	2.4
310.1683	4.2
311.1615	13.1
312.1658	6.4
313.1776	21.9
314.1746	3.2
315.1342	7.1
316.1211	2.4
316.2229	10.1
317.1510	4.3
317.2254	2.5
318.1322	7.3
319.1305	2.5
319.1677	5.2
320.1528	8.3
321.1470	9.5
321.1837	1.8
322.1770	6.3
323.1625	7.4
324.1446	3.5
324.1813	10.8
325.1791	8.0

Name: (6E)-heptadeca-6,16-diene-1,2,4-triol
PrecursorMZ: 307.22588
RT: 1.1233
ExactMass: 284.23514488
Spectrum_type: 2
charge: 1
Formula: C17H32O3
SMILES: C=CCCCCCCCC/C=C/CC(CC(CO)O)O
Method: HCD
Collision_energy: [28.333334]
Isolation_window: 4.0
Ion_mode: P
Num Peaks: 17
59.0494	20.0
69.0701	7.6
69.1463	7.5
69.1483	6.2
81.0699	8.3
95.0855	8.0
97.0647	8.2
97.4566	8.5
107.0854	6.3
109.0646	43.7
115.0751	9.3
121.1008	6.2
165.1268	12.8
251.1630	21.5
289.2148	13.0
307.2253	100.0
308.2289	21.4

Name: (6Z,10E)-4-hydroxy-6-(hydroxymethyl)-10-methyl-3-methylidene-3a,4,5,8,9,11a-hexahydrocyclodeca(b)furan-2-one
PrecursorMZ: 287.12365
RT: 7.2178
ExactMass: 264.13615911
Spectrum_type: 2
charge: 1
Formula: C15H20O4
SMILES: C/C/1=C\C2C(C(C/C(=C/CC1)/CO)O)C(=C)C(=O)O2
Method: HCD
Collision_energy: [28.333334]
Isolation_window: 4.0
Ion_mode: P
Num Peaks: 50
70.0655	0.7
81.0339	0.8
83.0494	0.6
84.0811	1.2
85.0288	0.9
86.0603	0.6
97.0285	0.7
98.0967	1.0
114.0550	0.6
114.0916	0.6
116.0708	1.7
125.0234	2.0
128.0706	1.9
140.0705	1.9
142.0863	2.4
144.1019	4.9
149.0596	0.8
169.0970	1.4
177.0545	1.5
181.0968	0.6
185.0919	1.3
197.0921	1.6
199.0711	1.0
211.0603	1.1
211.1077	0.9
215.1023	0.6
223.1073	1.1
227.1022	0.7
240.1340	1.5
241.1181	5.6
268.1169	0.7
269.1129	4.0
270.0756	0.6
270.0960	0.6
285.1441	1.2
286.0919	0.8
286.1050	1.0
286.1398	11.9
287.0806	0.8
287.0900	0.6
287.0974	0.6
287.1235	100.0
287.1590	1.9
288.0865	1.4
288.1071	0.6
288.1272	12.4
289.0852	1.5
289.1031	0.7
289.1180	1.1
289.1312	0.8

Name: (6aS)-1,2,10-trimethoxy-6-methyl-6-oxido-5,6,6a,7-tetrahydro-4H-dibenzo(de,g)quinoline-6-ium-9-ol
PrecursorMZ: 358.16458
RT: 1.8038
ExactMass: 357.15762283
Spectrum_type: 2
charge: 1
Formula: C20H23NO5
SMILES: C[N+]1(CCC2=CC(=C(C3=C2[C@@H]1CC4=CC(=C(C=C43)OC)O)OC)OC)[O-]
Method: HCD
Collision_energy: [28.333334]
Isolation_window: 4.0
Ion_mode: P
Num Peaks: 15
89.0599	12.9
109.0650	16.4
126.0914	55.2
128.1069	10.0
154.0863	39.1
170.0811	19.2
215.0701	52.4
231.0653	11.1
293.1169	11.5
323.1275	37.0
324.1309	9.6
340.1542	18.5
340.1753	13.4
358.1644	100.0
359.1678	22.0

Name: (7E)-12-Hydroxy-3-isobutyl-13-methoxy-4,5,8-trimethyl-3,3a,4,6a,9,10,11,12,13,14-decahydro-1H-cycloundeca(d)isoindole-1,15(2H)-dione
PrecursorMZ: 400.28425
RT: 1.2554
ExactMass: 417.28790873
Spectrum_type: 2
charge: 1
Formula: C25H39NO4
SMILES: CC1C2C(NC(=O)C23C(C=C(CCCC(C(CC3=O)OC)O)C)C=C1C)CC(C)C
Method: HCD
Collision_energy: [28.333334]
Isolation_window: 4.0
Ion_mode: P
Num Peaks: 119
67.0546	0.1
81.0701	0.3
83.0855	0.1
86.0967	0.4
89.0600	0.2
91.0546	0.2
93.0701	0.2
95.0858	0.3
97.0646	0.1
99.0443	0.2
99.0807	0.1
101.0599	0.1
105.0700	0.2
107.0857	0.2
109.1014	0.2
115.0755	0.3
117.0549	0.1
119.0857	0.2
121.1013	0.3
123.1170	0.2
130.0863	0.3
131.0855	0.2
133.1012	0.2
135.1168	0.2
138.0913	0.4
144.0809	0.2
145.1011	0.2
147.1168	0.3
159.1170	0.1
161.1321	0.1
163.0391	0.1
163.1116	0.1
186.1278	0.1
188.1072	0.2
194.1176	0.7
195.1379	0.1
202.1227	0.3
205.1220	0.2
221.0918	0.2
235.1111	0.1
243.1698	0.1
252.1747	0.2
262.1436	0.3
274.1436	0.1
275.1881	0.2
276.1593	0.4
277.1225	0.2
279.1015	0.2
298.1803	0.1
300.1955	0.6
301.1995	0.1
302.2110	0.3
314.2111	0.8
315.2151	0.2
327.1202	0.9
328.2276	0.1
329.2349	0.2
340.2267	0.2
341.1854	0.2
351.2312	0.2
356.2214	0.1
366.2421	0.1
367.2500	0.3
368.2584	1.8
369.2618	0.4
370.2374	0.6
371.2396	0.2
380.3131	0.2
381.3279	0.2
382.2739	1.7
383.2531	0.2
383.2778	0.4
384.2043	0.3
384.2529	0.3
384.3259	0.2
385.1417	0.3
385.2610	6.3
386.2644	1.5
387.2681	0.2
398.2722	0.2
398.3053	0.3
398.3416	1.4
399.1556	1.0
399.1779	0.8
399.1928	0.2
399.2174	0.2
399.2275	1.0
399.2532	0.3
399.2745	0.2
399.3250	0.3
399.3462	0.7
400.0344	0.1
400.1533	0.1
400.1615	0.2
400.1834	0.3
400.1970	0.1
400.2134	0.2
400.2296	0.9
400.2407	0.5
400.2491	0.5
400.2844	100.0
400.3163	0.2
400.3274	0.5
400.3395	0.6
400.3550	0.3
400.5497	0.2
401.1365	0.1
401.1472	1.4
401.1711	0.2
401.2297	0.4
401.2445	0.5
401.2877	25.8
401.3426	0.2
402.1502	0.2
402.1678	0.3
402.2289	0.1
402.2906	3.0
402.2990	1.2
402.3370	0.5

Name: (7E)-6-Hydroperoxy-11,12-dihydroxy-3-isobutyl-13-methoxy-4,5,8-trimethyl-3,3a,6,6a,9,10,11,12,13,14-decahydro-1H-cycloundeca(d)isoindole-1,15(2H)-dione
PrecursorMZ: 448.26875
RT: 5.202466666666666
ExactMass: 465.27265258
Spectrum_type: 2
charge: 1
Formula: C25H39NO7
SMILES: CC1=CC2C(C(=C(C3C2(C(=O)CC(C(C(CC1)O)O)OC)C(=O)NC3CC(C)C)C)C)OO
Method: HCD
Collision_energy: [28.333334]
Isolation_window: 4.0
Ion_mode: P
Num Peaks: 65
69.5501	3.2
70.0654	13.6
72.0811	2.9
81.0332	2.8
81.0696	3.7
86.0966	6.4
95.0850	2.6
100.0757	62.5
100.0788	4.2
101.0595	3.4
101.0790	3.0
105.0699	2.8
109.0283	3.2
118.0862	11.8
119.0854	3.2
120.0806	3.6
121.1004	2.4
126.0912	5.0
127.0866	3.5
131.0853	4.7
133.1010	2.9
137.0597	3.4
145.1008	2.7
159.1167	3.2
163.0751	11.2
171.1165	2.7
189.1269	3.3
199.1479	3.2
235.1473	2.6
249.1633	3.3
253.1584	3.7
267.1373	2.7
267.1737	9.5
277.1581	5.1
279.1331	7.9
285.1837	2.5
295.1684	16.4
296.1718	4.1
305.0586	7.6
313.1790	14.1
331.1895	57.6
332.1929	11.2
356.2209	3.7
368.2212	12.6
369.2250	2.7
384.2523	14.0
385.2553	4.5
394.2366	3.1
412.2472	100.0
413.2504	24.9
430.2577	98.0
430.3295	16.2
431.2609	25.1
431.3341	4.4
432.2629	3.2
447.1798	2.6
447.2133	2.4
447.2567	2.6
448.2106	2.8
448.2685	59.0
448.3364	3.0
449.1891	3.2
449.2370	3.2
449.2714	15.6
450.2830	3.7

Name: (7S)-4,5,6,7-Tetrahydro-2-methyl-1H-1,3-Diazepine-7-carboxylicacid
PrecursorMZ: 157.09719
RT: 5.8533
ExactMass: 156.08987763
Spectrum_type: 2
charge: 1
Formula: C7H12N2O2
SMILES: CC1=NCCC[C@H](N1)C(=O)O
Method: HCD
Collision_energy: [28.333334]
Isolation_window: 4.0
Ion_mode: P
Num Peaks: 18
58.0655	2.9
67.0545	2.5
95.0492	6.7
95.0605	4.7
97.0648	2.6
112.0756	2.5
138.0548	2.7
139.0864	9.3
140.1067	2.9
156.0652	2.7
156.1018	5.2
157.0495	5.4
157.0609	2.9
157.0970	100.0
157.1698	11.9
158.1008	6.2
158.1173	3.3
158.1539	6.6

Name: (8,8-Dimethyl-9-(3-methylbut-2-enoyloxy)-2-oxo-9,10-dihydropyrano(2,3-f)chromen-10-yl) 3-methylbut-2-enoate
PrecursorMZ: 449.1569
RT: 0.83555
ExactMass: 426.16785316
Spectrum_type: 2
charge: 1
Formula: C24H26O7
SMILES: CC(=CC(=O)OC1C(C(OC2=C1C3=C(C=C2)C=CC(=O)O3)(C)C)OC(=O)C=C(C)C)C
Method: HCD
Collision_energy: [28.333334]
Isolation_window: 4.0
Ion_mode: P
Num Peaks: 9
69.0703	5.8
84.0811	7.2
275.1273	6.2
345.1702	7.8
363.1799	8.8
449.1571	100.0
450.1605	20.7
450.2484	7.8
451.1584	6.3

Name: (8Z)-8-ethylidene-3-hydroxy-2-methoxy-5,6a,7,9-tetrahydropyrrolo)2,1-c()1,4(benzodiazepine-6,11-dione
PrecursorMZ: 289.11797
RT: 0.7909
ExactMass: 288.111007
Spectrum_type: 2
charge: 1
Formula: C15H16N2O4
SMILES: C/C=C\1/CC2C(=O)NC3=CC(=C(C=C3C(=O)N2C1)OC)O
Method: HCD
Collision_energy: [28.333334]
Isolation_window: 4.0
Ion_mode: P
Num Peaks: 288
55.0547	0.8
58.0656	0.7
67.0547	1.1
69.0339	0.7
69.0704	1.5
70.0656	2.3
71.0496	0.7
72.0812	3.5
74.0604	0.5
79.0545	0.9
81.0339	2.7
81.0703	1.7
82.0655	0.6
83.0496	1.0
83.0859	1.7
84.0448	1.1
84.0812	1.8
85.0289	0.8
85.0651	0.7
86.0605	0.7
86.0968	10.7
87.0444	0.8
87.1001	0.5
88.0398	0.8
89.0600	9.2
91.0544	1.5
93.0701	0.9
94.0654	1.1
95.0494	1.2
95.0858	1.0
96.0448	0.9
96.0810	1.6
97.0287	0.6
97.0650	0.9
98.0603	1.0
98.0967	2.7
99.0444	1.8
100.0760	0.5
102.0552	0.5
105.0700	0.9
106.0652	1.4
107.0494	1.5
107.0857	0.6
108.0447	1.4
108.0811	3.0
109.0650	0.5
110.0602	1.1
111.0444	1.4
112.0759	0.7
112.1121	0.9
114.0554	0.9
114.0917	0.8
116.0709	2.2
117.0701	0.6
119.0858	0.8
120.0446	1.7
120.0809	3.3
121.0653	0.9
121.1012	0.6
122.0603	2.4
123.0445	0.9
123.0806	0.6
124.0759	30.7
125.0789	1.8
126.0556	0.9
126.0915	8.3
127.0388	0.7
128.0708	0.7
130.0653	1.4
130.0866	0.9
131.0859	0.5
132.0446	0.6
132.0810	1.4
132.1021	1.6
133.0860	5.7
133.1008	0.8
134.0603	0.7
134.0976	0.9
135.0680	3.2
135.0805	0.8
136.0759	21.2
136.1115	0.8
137.0606	0.8
137.0795	1.7
138.0558	1.1
138.0915	23.2
139.0391	0.6
139.0952	1.8
140.0707	0.9
140.1071	0.8
142.0499	0.8
142.0862	0.9
142.1592	0.9
143.1177	0.9
144.0812	1.0
144.1020	13.5
145.0497	0.7
145.1052	1.1
146.0602	0.6
146.0967	0.7
147.0806	0.5
147.1168	0.5
148.0393	0.7
148.0511	0.5
148.0758	71.0
149.0597	0.6
149.0794	6.5
150.0553	1.4
150.0916	5.0
152.0707	10.0
152.1069	0.5
153.0749	0.9
154.0864	1.0
156.1022	0.5
158.1177	4.5
159.0808	0.6
159.0919	0.6
160.0754	0.6
161.0956	0.6
162.0548	0.7
162.0914	0.8
163.0752	0.5
164.0423	0.5
164.0707	68.4
164.1076	1.0
165.0553	0.7
165.0745	6.0
166.0864	29.8
167.0909	2.4
168.0656	0.5
168.1022	3.1
170.0814	3.8
171.1146	0.7
173.0710	0.9
174.0912	1.2
176.0706	1.4
176.1071	0.5
177.0784	1.3
177.1134	1.3
178.0863	4.4
179.0340	0.6
179.0943	0.6
180.0677	0.8
180.0901	0.9
180.1019	49.9
181.1057	5.4
182.0812	20.9
183.0846	2.0
184.0968	3.0
186.0908	0.6
187.0753	0.6
188.0698	0.8
190.0856	0.8
192.0655	0.5
192.1014	0.9
194.0818	0.5
200.1078	0.6
202.0865	0.6
204.1019	0.5
205.0835	1.1
206.0791	0.7
211.0873	2.2
212.1074	1.8
214.1229	2.4
214.1459	0.5
216.1042	0.9
218.0825	0.7
219.1132	0.5
220.0967	0.9
225.1021	0.7
227.1192	1.3
228.0886	0.6
229.0968	0.8
229.1337	13.0
230.0817	0.5
230.1177	0.9
230.1379	2.8
231.1139	0.5
231.1494	3.4
232.0966	1.0
232.1530	0.5
234.1125	0.6
240.1048	1.2
241.0983	1.4
241.1347	0.7
242.1172	1.1
242.1408	1.0
242.2486	0.5
243.1131	4.1
243.1490	1.6
244.0968	0.8
244.1174	0.6
245.1285	4.1
246.0764	2.4
246.1087	0.7
246.1333	0.6
248.0917	0.6
249.1235	1.2
251.1403	0.6
253.0969	0.6
253.1559	0.6
255.1128	6.3
255.1499	0.5
256.1170	1.0
257.0718	0.8
257.0856	0.7
257.1070	1.5
257.1284	100.0
257.1865	1.1
258.1113	3.7
258.1323	16.2
259.1131	0.8
259.1439	9.3
260.1274	0.5
260.1504	1.4
262.1079	0.9
270.1125	0.6
271.1080	1.5
271.1434	0.9
273.1281	0.7
273.1597	20.2
274.1080	0.5
274.1628	3.6
275.1393	1.4
275.1736	0.9
276.1215	0.5
276.1492	1.0
280.1228	0.7
283.1079	0.8
283.1441	1.6
283.1753	6.5
284.1455	0.5
284.1791	0.6
285.0971	0.8
285.1235	14.2
286.1309	2.4
287.1056	0.7
287.1386	7.5
288.0876	6.4
288.1214	1.4
288.1444	1.3
289.0903	0.9
289.1188	10.3
289.1547	7.2
290.1014	0.9
290.1274	0.7
290.1571	0.6
290.2691	1.3
291.1345	1.9
291.1705	3.3
292.1168	1.6
293.1163	0.6
293.1499	1.1
293.1850	0.5
294.1361	0.8
295.1308	1.4
295.1661	2.2
296.1164	0.6
296.1609	0.6
297.0874	0.5
297.1473	1.3
297.1852	0.6
298.1078	0.8
298.1789	0.7
299.1009	0.8
299.1384	2.5
300.0896	0.8
300.1218	0.7
300.1514	0.7
301.1192	3.9
301.1541	40.1
302.1025	1.1
302.1585	9.8
303.1062	1.0
303.1344	39.9
303.1684	6.1
303.1893	1.1
304.1142	2.5
304.1375	5.6
304.1717	1.0
305.1166	1.3
305.1489	3.3
306.1355	1.6
307.1311	0.9
307.1649	7.0
308.1151	0.7
308.1705	0.9
309.0870	0.5

Name: (8aR,12S,12aR)-12-hydroxy-4-methyl-4,5,6,7,8,8a,12,12a-octahydro-1H-3-benzoxecine-2,9-dione
PrecursorMZ: 253.14335
RT: 4.8190888888888885
ExactMass: 252.13615911
Spectrum_type: 2
charge: 1
Formula: C14H20O4
SMILES: CC1CCCC[C@@H]2[C@@H](CC(=O)O1)[C@H](C=CC2=O)O
Method: HCD
Collision_energy: [28.333334]
Isolation_window: 4.0
Ion_mode: P
Num Peaks: 128
55.0547	4.4
57.0339	2.7
59.0496	3.1
67.0547	5.7
69.0703	7.0
71.0495	7.1
79.0546	9.5
81.0338	2.8
81.0702	29.1
83.0495	7.7
85.0651	9.5
87.0443	10.7
89.0600	5.1
91.0545	5.1
93.0701	10.8
95.0494	4.9
95.0858	7.2
96.0446	4.6
97.0650	7.2
99.0443	5.3
99.0806	4.7
101.0599	10.1
105.0700	7.9
107.0493	3.9
107.0857	7.4
108.0445	4.0
109.0650	31.5
109.1014	2.4
111.0442	7.7
111.0806	4.0
113.0599	6.6
114.0916	3.1
115.0392	5.1
117.0700	4.0
119.0857	6.2
121.0649	18.2
121.1013	4.9
122.0601	6.0
123.0806	11.3
125.0597	5.4
125.0961	6.0
127.0754	4.1
129.0547	4.0
131.0856	5.4
133.0649	3.5
133.1013	6.7
134.0600	7.4
135.0804	7.6
136.0757	2.4
137.0597	5.2
137.0960	3.1
139.0754	5.0
139.1117	2.7
143.0854	3.1
145.1012	4.2
147.0803	3.6
147.1167	3.7
149.0598	4.4
149.0962	2.5
150.0551	3.2
151.0754	9.6
152.0707	2.6
152.1072	5.6
153.0909	2.6
157.1013	3.6
159.1168	2.8
160.0759	3.2
161.0961	5.6
162.0915	7.9
163.0755	5.9
164.0707	3.4
165.0909	3.2
166.0866	2.4
167.0704	3.8
168.0656	2.7
171.1168	5.6
173.1325	4.7
175.1117	5.4
177.0911	2.7
181.0860	3.1
182.0814	2.7
189.1274	6.9
190.0861	9.9
193.1222	5.0
199.1116	3.3
201.1275	4.6
206.0812	2.8
207.1379	3.0
208.0969	22.0
217.1222	11.4
218.0813	2.5
218.0924	2.9
219.1379	5.6
234.0763	3.8
234.1123	2.7
235.1072	3.9
235.1328	20.1
236.0916	10.1
236.1031	6.1
236.1276	3.9
237.1485	8.6
251.1018	3.4
251.1753	18.9
252.0149	2.9
252.0689	5.8
252.0866	100.0
252.0982	3.4
252.1059	3.4
252.1228	29.3
252.1341	3.4
252.1591	25.0
252.1791	4.5
253.0883	9.6
253.0997	6.1
253.1173	9.3
253.1433	23.0
253.1547	4.0
253.1910	4.3
254.0827	3.7
254.1022	67.9
254.1159	16.2
254.1371	6.2
254.1489	4.0
255.1132	15.0
255.1158	7.1
255.1318	3.3
255.1587	2.4
255.1704	3.0

Name: (9,9b-Dihydroxy-6,6,9a-trimethyl-1-oxo-3,5,5a,7,8,9-hexahydrobenzo(e)(2)benzofuran-5-yl) hexanoate
PrecursorMZ: 381.22709
RT: 1.3325
ExactMass: 380.21988874
Spectrum_type: 2
charge: 1
Formula: C21H32O6
SMILES: CCCCCC(=O)OC1C=C2COC(=O)C2(C3(C1C(CCC3O)(C)C)C)O
Method: HCD
Collision_energy: [28.333334]
Isolation_window: 4.0
Ion_mode: P
Num Peaks: 19
57.0703	41.1
69.0703	47.6
85.0651	28.7
239.0914	34.8
277.1433	24.7
289.1434	40.9
291.1591	39.9
292.1623	34.7
307.1532	23.0
345.2063	32.9
361.2003	21.9
362.2038	40.7
363.1809	29.8
363.2166	68.5
379.2138	44.5
380.2138	100.0
381.1909	28.9
381.2264	65.6
382.2299	22.1

Name: (9-hydroxy-8,8-dimethyl-2-oxo-9,10-dihydropyrano(2,3-f)chromen-10-yl) (Z)-2-methylbut-2-enoate
PrecursorMZ: 345.1332
RT: 4.6349
ExactMass: 344.12598835
Spectrum_type: 2
charge: 1
Formula: C19H20O6
SMILES: C/C=C(/C)\C(=O)OC1C(C(OC2=C1C3=C(C=C2)C=CC(=O)O3)(C)C)O
Method: HCD
Collision_energy: [28.333334]
Isolation_window: 4.0
Ion_mode: P
Num Peaks: 15
89.0601	3.5
107.0494	100.0
108.0528	6.7
140.0376	3.1
189.0546	12.4
220.0967	3.7
225.0910	42.2
226.0944	5.7
249.0912	3.9
267.1015	13.4
285.1119	21.1
286.1160	3.5
295.0962	9.1
344.1128	3.3
347.1977	4.3

Name: (9R,12R,13Z,16S,17S)-13-Ethylidene-6-hydroxy-8-methyl-8,15-diazahexacyclo(14.2.1.01,9.02,7.010,15.012,17)nonadeca-2(7),3,5-trien-18-one
PrecursorMZ: 323.17091
RT: 2.6212
ExactMass: 322.168127949
Spectrum_type: 2
charge: 1
Formula: C20H22N2O2
SMILES: C/C=C/1\CN2[C@H]3CC45[C@H](C2C[C@@H]1[C@@H]3C4=O)N(C6=C5C=CC=C6O)C
Method: HCD
Collision_energy: [28.333334]
Isolation_window: 4.0
Ion_mode: P
Num Peaks: 9
70.0654	26.0
177.1019	6.0
195.1125	22.1
198.1233	66.2
287.1384	5.7
305.1614	5.7
323.1708	100.0
324.1742	17.2
325.1880	6.9

Name: (9S,10E,12Z,15Z)-9-Hydroperoxy-10,12,15-octadecatrienoic acid
PrecursorMZ: 293.21068
RT: 4.8011
ExactMass: 310.21440943
Spectrum_type: 2
charge: 1
Formula: C18H30O4
SMILES: CC/C=C\C/C=C\C=C\[C@H](CCCCCCCC(=O)O)OO
Method: HCD
Collision_energy: [28.333334]
Isolation_window: 4.0
Ion_mode: P
Num Peaks: 136
55.0181	1.5
55.0545	3.1
57.0338	2.9
57.0702	1.5
59.0495	1.6
67.0546	25.9
68.0579	2.3
69.0339	2.8
69.0702	15.2
70.3532	1.4
71.0494	7.8
71.0859	3.2
79.0545	16.6
80.0578	1.5
81.0336	1.6
81.0701	38.4
82.0734	2.0
83.0493	5.0
83.0857	10.7
85.0650	6.1
91.0543	11.0
93.0700	24.6
94.0733	1.8
95.0493	6.9
95.0856	36.7
96.0889	3.4
97.0649	6.2
97.1013	9.0
98.0601	18.0
99.0805	4.6
100.0758	2.6
101.0598	2.2
105.0700	10.4
107.0491	3.6
107.0856	18.9
108.0890	1.8
109.0648	7.9
109.1012	23.3
110.1045	2.2
111.0440	2.1
111.0804	5.3
117.0699	4.6
119.0855	12.2
121.0648	6.4
121.1011	22.1
122.1045	2.2
123.0803	6.1
123.1168	8.1
124.0757	1.5
125.0960	7.0
126.0549	12.5
126.0912	2.2
131.0854	11.5
133.0644	2.3
133.1010	15.5
134.1043	1.7
135.0803	7.8
135.1166	13.3
136.0754	1.7
136.0836	1.7
137.0959	6.2
137.1324	2.8
139.0752	7.3
139.1115	5.6
143.0853	2.3
145.1010	10.8
146.1042	1.9
147.0803	2.3
147.1166	13.1
149.0960	13.0
149.1323	4.5
150.0911	1.6
150.0992	4.9
151.1116	13.6
153.0908	16.6
154.0941	1.8
157.1010	3.4
159.0802	1.4
159.1166	7.1
160.1199	1.5
161.0959	3.0
161.1323	5.3
163.1116	6.9
165.1271	3.4
166.0861	13.3
167.0894	13.3
167.1065	12.0
168.1017	3.1
171.1167	3.5
173.1168	1.8
173.1322	4.1
175.1114	2.7
177.1272	4.3
179.1063	2.1
179.1426	1.5
181.1218	3.3
183.1165	2.1
185.1321	1.5
187.1115	1.9
187.1323	1.9
197.1320	1.5
201.1637	1.7
219.1741	1.6
223.1326	2.6
229.1948	5.6
232.1523	3.2
239.1787	3.9
247.2053	8.4
257.1896	8.6
258.1928	1.9
265.2157	6.7
273.1844	1.9
274.1072	1.9
274.1884	4.4
275.1392	2.0
275.2000	48.3
276.1219	2.4
276.1576	2.3
276.2033	9.6
277.2161	6.3
291.1949	8.9
292.1171	7.2
292.1537	1.9
292.1748	3.4
292.1984	20.0
293.1499	6.1
293.1769	2.2
293.2105	100.0
294.0961	1.6
294.1090	1.7
294.1327	4.7
294.1700	2.1
294.2140	18.0
295.1298	2.1
295.2267	5.1
311.2213	2.8

Name: (9S,10R)-4,5,14,15,16-pentamethoxy-9,10-dimethyltricyclo(10.4.0.02,7)hexadeca-1(16),2,4,6,12,14-hexaene-3,10-diol
PrecursorMZ: 441.18841
RT: 8.1464
ExactMass: 418.19915329
Spectrum_type: 2
charge: 1
Formula: C23H30O7
SMILES: C[C@H]1CC2=CC(=C(C(=C2C3=C(C(=C(C=C3C[C@@]1(C)O)OC)OC)OC)O)OC)OC
Method: HCD
Collision_energy: [28.333334]
Isolation_window: 4.0
Ion_mode: P
Num Peaks: 8
70.0655	2.9
114.0917	2.8
440.1772	4.9
441.1879	100.0
442.1486	2.9
442.1912	21.7
442.2168	3.0
443.2047	10.5

Name: (9Z)-5,8,11-Trihydroxyoctadec-9-enoic acid
PrecursorMZ: 348.2741
RT: 1.3865
ExactMass: 330.24062418
Spectrum_type: 2
charge: 1
Formula: C18H34O5
SMILES: CCCCCCCC(/C=C\C(CCC(CCCC(=O)O)O)O)O
Method: HCD
Collision_energy: [28.333334]
Isolation_window: 4.0
Ion_mode: P
Num Peaks: 80
55.0545	2.0
57.0339	2.4
67.0545	23.2
69.0338	1.8
69.0702	8.0
71.0494	4.8
71.0858	5.0
79.0544	6.2
81.0701	21.0
83.0494	2.7
83.0857	10.4
85.0650	4.3
86.0966	2.9
91.0543	4.9
93.0700	12.6
95.0856	13.2
97.0648	4.8
97.1012	11.2
99.0805	6.6
105.0698	4.3
107.0855	11.9
109.0648	3.1
109.1012	40.8
110.1045	3.1
111.0804	5.9
113.0960	2.6
117.0698	2.1
119.0854	10.2
121.1011	10.9
123.0803	3.7
123.1167	4.5
125.0959	16.7
129.0909	2.2
131.0854	3.3
133.1010	8.3
135.0802	3.0
135.1166	7.7
137.0959	6.5
139.1115	5.5
145.1008	4.1
147.1166	5.9
149.0957	3.1
149.1322	7.7
151.1114	4.9
153.0907	2.1
155.1064	48.8
156.1098	4.4
159.1166	4.9
161.1321	5.0
163.1114	3.5
165.1271	3.2
171.1012	4.4
173.1169	100.0
173.1321	2.6
174.1202	9.7
175.1479	2.0
177.1269	2.9
179.1427	3.1
189.1117	12.9
190.1435	4.6
195.1375	12.8
196.1409	2.1
203.1274	2.0
213.1480	10.9
214.1514	2.4
224.0913	2.7
259.2054	3.5
275.1998	10.9
276.2034	6.1
277.2155	28.7
278.2189	5.0
293.2105	12.1
294.2138	4.3
295.2260	31.9
296.2293	4.6
311.2210	4.9
313.2368	2.7
329.2314	2.5
347.1600	1.8
347.2402	1.9

Name: (9Z,12E)-15,16-Dihydroxyoctadeca-9,12-dienoic acid
PrecursorMZ: 313.23743
RT: 0.6009
ExactMass: 312.2300595
Spectrum_type: 2
charge: 1
Formula: C18H32O4
SMILES: CCC(C(C/C=C/C/C=C\CCCCCCCC(=O)O)O)O
Method: HCD
Collision_energy: [28.333334]
Isolation_window: 4.0
Ion_mode: P
Num Peaks: 421
55.0185	1.4
55.0545	2.2
57.0340	3.9
57.0704	4.3
59.0497	2.4
62.0605	1.7
67.0548	27.0
68.0580	1.6
69.0339	4.6
69.0704	18.9
70.0656	14.2
71.0497	10.5
71.0860	4.6
72.0813	5.9
79.0547	14.9
81.0339	7.0
81.0704	48.5
82.0737	3.3
83.0495	7.9
83.0860	23.1
84.0448	1.5
84.0813	2.4
84.0893	1.7
85.0289	2.5
85.0653	12.3
85.1017	2.7
86.0606	2.4
86.0968	16.2
87.0444	4.9
89.0601	17.4
91.0545	12.1
93.0703	28.5
94.0655	1.7
94.0738	2.6
95.0495	8.1
95.0859	51.0
96.0811	1.6
96.0893	4.2
97.0651	13.0
97.1015	15.7
97.3301	2.4
98.0604	4.1
99.0443	7.3
99.0808	10.6
100.0760	3.1
101.0600	3.9
103.0393	5.6
103.0756	1.4
105.0702	18.4
106.0657	1.8
106.0734	1.9
107.0495	4.4
107.0859	32.3
108.0811	4.7
108.0892	2.4
109.0287	1.4
109.0652	8.5
109.1015	33.2
110.0602	2.4
110.1048	3.2
111.0444	5.7
111.0558	2.3
111.0808	10.6
111.1171	1.9
112.0760	3.0
112.1125	2.4
113.0600	6.0
113.0964	5.3
114.0554	6.6
115.0392	1.5
115.0756	3.0
116.0709	11.8
117.0700	6.9
119.0858	22.3
120.0811	6.1
120.0891	2.3
121.0651	6.3
121.1014	34.7
122.0605	3.7
122.0967	1.7
122.1048	3.9
123.0442	1.8
123.0808	12.1
123.1171	14.1
124.0760	41.6
124.0838	1.4
124.1201	2.0
125.0601	3.8
125.0797	2.3
125.0963	16.3
126.0552	1.4
126.0916	26.2
126.0998	1.8
127.0756	4.4
127.0952	3.6
127.1120	2.6
128.0710	2.2
128.1073	1.8
129.0702	2.5
130.0864	2.7
131.0704	1.7
131.0857	16.9
132.0807	3.2
132.1021	4.1
133.0655	2.7
133.0861	11.1
133.1014	27.4
134.0598	2.9
134.0964	1.4
134.1048	3.5
135.0808	10.8
135.1170	24.2
136.0758	13.4
136.1204	2.6
137.0602	4.1
137.0963	11.3
137.1325	4.6
138.0550	2.1
138.0915	22.0
139.0756	5.0
139.0953	1.4
139.1119	9.9
140.0707	1.9
140.1071	2.4
141.0913	3.3
141.1278	3.5
142.0866	2.0
143.0707	1.7
143.0857	5.3
145.1014	19.2
146.1056	2.6
147.0807	6.1
147.1171	19.1
148.0759	65.0
148.1215	2.4
149.0613	2.3
149.0802	5.4
149.0964	14.3
149.1327	11.0
150.0552	4.1
150.0910	6.2
150.1363	1.5
151.0756	4.2
151.1121	9.7
152.0707	9.1
152.1051	2.1
153.0914	9.9
153.1279	3.2
154.0854	3.4
154.1228	1.8
155.0859	2.4
155.1069	7.2
156.1014	2.5
157.1013	8.6
158.1177	9.3
159.0810	3.2
159.1170	16.9
160.1207	1.7
161.0964	7.7
161.1327	12.0
162.1370	2.1
163.0754	3.2
163.1120	11.1
163.1484	4.7
164.0708	89.5
165.0742	8.5
165.0911	5.0
165.1276	5.4
166.0865	88.4
166.1213	2.5
167.0897	8.9
167.1070	7.6
167.1431	1.4
168.1019	17.1
169.1021	5.3
169.1226	1.8
170.0813	1.8
170.1178	3.8
171.1020	2.7
171.1171	7.5
173.0960	3.9
173.1175	7.9
173.1324	10.9
174.1363	1.8
175.0751	1.6
175.1115	7.4
175.1484	5.3
176.0703	3.4
177.0901	2.6
177.1126	2.4
177.1278	6.6
177.1636	2.5
178.0865	8.7
178.1221	1.6
179.1044	2.7
179.1210	2.7
179.1429	2.8
180.0655	2.0
180.1016	4.4
180.1372	3.1
181.0997	2.2
181.1215	2.6
182.0814	100.0
182.1170	15.0
183.0847	9.4
183.1175	5.4
184.0970	1.4
184.1343	1.8
185.0964	2.0
185.1175	1.6
185.1327	5.3
187.1113	5.1
187.1330	1.7
187.1480	7.5
188.0706	1.4
188.1081	1.4
189.0914	2.3
189.1122	5.4
189.1277	4.6
189.1638	6.0
190.0850	2.5
191.1056	3.5
191.1433	3.4
192.0654	1.4
192.1018	2.4
193.0996	2.1
193.1219	4.0
193.1594	1.9
194.0814	44.2
194.1050	3.6
194.1202	1.6
195.0861	4.8
195.1174	3.1
195.1379	4.1
196.0974	9.6
197.0972	1.4
197.1326	4.2
199.1112	2.7
199.1485	4.7
201.1271	5.7
201.1643	3.5
203.1070	2.8
203.1277	2.4
203.1451	2.3
203.1800	1.7
204.1021	1.5
205.1229	1.9
205.1587	1.7
206.0813	1.6
206.1186	1.7
207.1143	3.2
207.1385	4.5
208.0976	1.6
208.1348	1.6
209.1321	3.1
209.1540	1.5
210.1118	3.0
211.1110	1.5
211.1493	3.3
213.1297	3.0
213.1650	3.5
214.1238	1.6
215.1067	1.4
215.1429	3.1
215.1796	1.9
216.1021	1.9
217.1222	2.0
217.1593	1.9
219.1374	3.4
219.1734	2.3
221.1540	3.6
223.1480	1.9
225.1259	1.4
225.1651	2.2
227.1421	2.0
227.1791	2.1
229.1352	13.2
229.1590	2.5
229.1949	3.3
230.1171	1.9
230.1390	2.2
231.1487	7.4
231.1744	1.5
233.1524	2.3
235.1688	2.7
237.1844	4.4
239.1430	1.7
239.1804	3.8
241.1589	2.5
241.1957	2.2
243.1146	5.3
243.1736	2.3
245.1284	1.9
245.1546	2.6
245.1899	1.5
246.1506	1.4
247.1688	3.1
247.2058	2.8
249.1855	3.4
253.1587	1.4
255.1136	2.8
255.1731	2.8
256.0973	1.6
257.1288	31.9
257.1897	6.0
258.1114	20.3
258.1936	1.9
259.1151	2.7
259.1436	5.5
259.1720	1.7
259.2057	3.4
261.1854	2.3
263.2011	2.4
265.1813	1.9
265.2181	4.2
267.1722	1.6
269.1278	1.9
269.1872	2.1
271.1439	6.8
271.1699	2.6
271.2048	2.5
273.1245	1.7
273.1597	22.1
273.1852	4.6
273.2224	1.6
274.1424	1.9
274.1645	2.6
275.1382	1.8
275.1750	2.0
275.2007	30.1
276.2041	10.0
277.1552	1.8
277.1822	1.5
277.2164	16.2
278.2190	3.1
281.1870	1.6
283.1085	2.0
283.2082	3.4
285.1236	25.3
285.1848	2.7
286.1050	2.0
286.1317	2.6
287.1376	3.7
287.1991	1.9
289.1544	11.5
289.1812	2.0
290.1572	1.9
291.1699	11.1
291.1977	9.3
292.1985	1.7
293.1829	2.3
293.2112	49.3
294.2145	17.1
295.2268	16.0
296.1865	1.8
296.2303	2.5
297.1543	1.5
297.1854	2.3
299.1381	7.9
299.1999	2.1
300.1366	1.7
301.1196	3.8
301.1538	18.8
301.2153	11.9
302.1590	3.1
302.2172	2.9
303.1343	26.2
303.1648	3.0
303.2274	2.7
304.1166	27.7
305.1211	4.1
305.1475	1.5
306.1319	2.0
307.1651	1.9
307.1952	2.4
309.2075	3.7
311.2232	11.3
312.2236	3.5
312.2541	5.4
313.1172	1.8
313.1814	4.0
314.1380	1.4
315.1341	4.5
315.1969	4.4
316.1160	2.1
316.1665	2.9
317.1470	11.6
317.2086	6.6
318.1445	2.6
318.1843	3.5
319.1287	4.2
319.1624	16.4
319.2238	10.2
320.1578	2.6
320.2292	2.1
321.1459	4.4
321.1800	4.2
321.2442	3.0
322.1333	1.8
322.1755	6.2
322.2045	1.4
323.1601	5.2
323.1943	1.9
324.1415	2.1
324.1872	1.6
324.2165	1.7
325.1765	8.5
325.2105	3.7
326.1641	1.9
326.2362	2.0
327.1985	4.7
327.2301	1.9
328.2463	1.6
329.1460	8.1
329.2111	2.9
330.1354	2.7
330.2124	1.4
330.2633	2.5
331.1594	4.0
331.1943	2.3
332.1540	1.5

Name: (E)-1,4-bis(4-hydroxy-3-methoxyphenyl)-2,3-dimethylbut-2-ene-1,4-dione
PrecursorMZ: 374.15946
RT: 1.2822
ExactMass: 356.12598835
Spectrum_type: 2
charge: 1
Formula: C20H20O6
SMILES: C/C(=C(/C)\C(=O)C1=CC(=C(C=C1)O)OC)/C(=O)C2=CC(=C(C=C2)O)OC
Method: HCD
Collision_energy: [28.333334]
Isolation_window: 4.0
Ion_mode: P
Num Peaks: 86
67.0546	1.2
69.0703	0.9
79.0545	1.1
81.0702	1.7
83.0495	1.2
83.0858	1.1
93.0701	1.1
95.0857	1.8
97.0650	1.0
101.0600	0.9
105.0700	1.1
107.0494	1.0
107.0857	1.5
109.1013	1.0
111.0443	0.8
119.0858	0.8
121.1012	1.1
123.0442	5.0
126.0914	2.3
131.0491	25.7
132.0525	2.5
133.1013	0.9
135.0804	0.8
137.0597	36.5
138.0630	2.7
145.0648	45.8
145.1012	0.9
146.0682	4.6
149.0599	0.8
159.0805	2.3
161.0597	3.1
163.0754	1.0
171.0441	1.3
175.0753	1.1
187.0753	4.7
187.1117	0.8
189.0545	7.2
203.0701	3.7
207.0801	2.0
217.0494	7.8
219.1015	12.1
220.1047	1.7
223.0752	58.0
223.0961	5.4
224.0785	8.8
231.0651	16.0
232.0685	2.2
235.0963	20.5
236.0997	3.0
237.0910	7.9
238.0940	1.5
248.1278	0.9
249.0756	14.0
250.0795	1.9
250.1451	1.1
251.0701	23.9
252.0735	4.0
263.0912	100.0
264.0945	13.7
265.0856	34.6
266.0891	5.9
267.0853	1.6
281.1021	1.7
293.0806	39.2
294.0840	7.8
297.1119	56.5
298.1153	11.8
314.1381	1.0
325.1068	13.5
326.1101	2.4
355.2630	0.8
357.1328	1.8
357.1692	1.2
358.1648	2.3
359.1691	1.7
372.1806	1.7
372.2527	2.5
373.1643	1.2
373.1818	1.0
373.2115	2.2
373.2560	0.9
374.1594	18.8
374.2167	0.8
374.2680	2.6
375.1591	3.7
375.1808	2.4

Name: (E)-2-(3,4-Dihydroxystyryl)-3-(2-methoxyphenyl)quinazolin-4(3H)-one
PrecursorMZ: 387.13453
RT: 2.1301
ExactMass: 386.12665706
Spectrum_type: 2
charge: 1
Formula: C23H18N2O4
SMILES: COC1=CC=CC=C1N2C(=NC3=CC=CC=C3C2=O)/C=C/C4=CC(=C(C=C4)O)O
Method: HCD
Collision_energy: [28.333334]
Isolation_window: 4.0
Ion_mode: P
Num Peaks: 4
112.8958	9.9
387.1342	100.0
388.1375	15.8
388.2624	9.2

Name: (E)-3-(2,4-Dimethoxyphenyl)-1-(2-hydroxy-4-methoxyphenyl)prop-2-en-1-one
PrecursorMZ: 315.12274
RT: 2.2496
ExactMass: 314.11542367
Spectrum_type: 2
charge: 1
Formula: C18H18O5
SMILES: COC1=CC(=C(C=C1)C(=O)/C=C/C2=C(C=C(C=C2)OC)OC)O
Method: HCD
Collision_energy: [28.333334]
Isolation_window: 4.0
Ion_mode: P
Num Peaks: 16
107.0494	21.4
112.8960	31.2
120.0810	12.4
121.0649	8.5
123.0442	100.0
133.0649	93.5
139.9146	15.5
149.0598	88.5
150.0635	10.7
159.0804	10.1
200.0706	12.3
279.1010	14.9
297.1118	55.7
298.1160	10.0
299.1393	14.0
315.1206	16.0

Name: (E)-3-(4-acetyloxy-2,3-dihydroxy-2,5,5,8a-tetramethyl-3,4,4a,6,7,8-hexahydro-1H-naphthalen-1-yl)prop-2-enoic acid
PrecursorMZ: 355.21145
RT: 5.8509
ExactMass: 354.20423867
Spectrum_type: 2
charge: 1
Formula: C19H30O6
SMILES: CC(=O)OC1C2C(CCCC2(C(C(C1O)(C)O)/C=C/C(=O)O)C)(C)C
Method: HCD
Collision_energy: [28.333334]
Isolation_window: 4.0
Ion_mode: P
Num Peaks: 174
55.0547	10.3
67.0547	24.4
69.0339	10.5
69.0703	23.5
70.0655	26.1
71.0496	18.6
79.0546	21.9
81.0339	12.5
81.0702	49.9
83.0495	20.2
83.0859	15.9
84.0447	13.8
84.0812	14.4
85.0651	26.9
86.0968	28.1
87.0444	18.9
91.0546	16.2
93.0702	33.5
95.0494	11.9
95.0858	35.7
96.0447	14.5
97.0651	18.5
97.3994	11.3
99.0442	13.9
99.0807	31.3
100.0759	11.8
101.0599	10.8
105.0701	23.3
107.0494	13.5
107.0858	28.6
109.0651	15.6
109.1014	19.9
110.0603	11.4
111.0443	15.8
111.0807	14.7
113.0599	13.7
114.0551	28.9
114.0916	62.1
115.0391	9.8
116.0708	36.5
117.0701	14.7
119.0858	33.9
120.0810	13.1
121.0649	19.0
121.1013	24.4
123.0806	20.3
125.0598	13.6
125.0962	10.0
129.0700	12.1
131.0492	17.1
131.0856	29.2
133.1012	33.5
135.0805	19.4
135.1169	16.3
137.0961	15.2
143.0856	17.3
145.1013	28.8
147.0811	15.9
147.1170	20.9
149.0962	24.8
149.1324	11.1
151.0754	12.3
157.1013	21.5
159.1170	21.9
161.0962	20.2
161.1328	15.6
163.0754	10.7
163.1119	12.6
164.0708	22.2
166.0864	12.2
169.1014	17.7
171.1170	26.1
173.0965	17.7
173.1326	14.5
175.1119	28.3
177.0909	17.0
177.1274	15.2
179.1068	12.5
180.0657	13.8
180.1022	15.8
182.0815	15.3
183.1172	19.9
185.0966	12.0
185.1326	15.4
187.1125	18.3
187.1478	13.5
189.0912	10.3
189.1276	13.2
191.1065	14.8
193.1222	13.3
194.0809	19.3
195.1167	11.9
197.1331	14.3
198.0762	14.7
199.1119	23.1
199.1482	13.5
201.0915	11.5
201.1276	18.0
203.1071	12.0
203.1429	10.4
205.1223	15.4
207.1382	10.7
213.1275	13.8
215.1066	10.0
215.1433	12.6
217.1223	18.6
219.1380	12.5
223.1481	10.9
225.1262	10.8
225.1638	10.4
235.1326	12.0
237.1635	14.4
239.1432	17.8
241.1587	16.4
243.1380	13.3
253.1585	13.3
255.1382	9.9
255.1742	19.9
257.1539	24.2
259.1694	15.5
265.1587	13.9
267.1747	12.4
271.1695	15.0
273.1849	26.5
275.1641	10.9
283.1691	31.2
285.1484	10.7
285.1847	25.5
291.1961	12.6
299.1642	20.1
299.2003	12.1
301.1430	11.9
301.1797	61.6
303.1592	17.8
303.1957	25.7
317.1741	21.7
317.2105	11.4
318.1791	16.5
319.1534	21.1
319.1902	64.3
320.1931	16.8
321.1692	32.8
321.2051	21.3
335.1845	18.6
336.1884	11.7
337.1644	13.2
337.1998	63.6
337.2195	19.9
338.1368	10.3
338.2036	14.2
339.1796	15.0
339.2164	14.1
353.2097	14.8
353.2323	15.8
354.1352	22.5
354.1538	15.2
354.1681	12.0
354.2292	10.8
355.1302	16.6
355.1652	100.0
355.1889	22.5
355.2105	16.7
355.2284	80.5
355.2590	13.5
356.1128	20.9
356.1491	19.7
356.1680	12.5
356.1843	19.1
356.2182	21.9
356.2311	16.3
357.1461	42.4
357.1806	62.8
357.2064	32.4
357.2454	11.2

Name: (E)-5-(1,2,4a,5-Tetramethyl-7-oxo-3,4,8,8a-tetrahydro-2H-naphthalen-1-yl)-3-methylpent-2-enoic acid
PrecursorMZ: 319.22671
RT: 0.566
ExactMass: 318.21949481
Spectrum_type: 2
charge: 1
Formula: C20H30O3
SMILES: CC1CCC2(C(C1(C)CC/C(=C/C(=O)O)/C)CC(=O)C=C2C)C
Method: HCD
Collision_energy: [28.333334]
Isolation_window: 4.0
Ion_mode: P
Num Peaks: 107
57.0698	5.8
62.0599	2.2
67.0547	4.5
69.0704	5.1
71.0495	2.2
71.0860	2.1
72.0812	2.5
79.0547	3.5
81.0702	17.7
83.0488	1.8
83.0859	4.1
85.0652	2.6
86.0967	6.8
87.0444	3.9
89.0601	4.3
91.0544	2.5
93.0701	14.6
95.0489	1.7
95.0858	22.1
97.0652	3.8
97.1014	3.4
98.9845	2.9
99.0444	4.8
99.0801	1.7
101.0595	1.7
105.0701	10.4
107.0858	23.2
108.0887	1.7
109.0650	3.6
109.1014	13.2
111.0807	4.3
117.0698	2.3
119.0857	13.9
121.0650	2.5
121.1014	14.3
123.0806	6.5
123.1169	6.7
125.0963	4.2
131.0855	6.1
133.1013	16.6
135.0806	4.1
135.1169	17.4
136.1199	1.9
137.0961	5.8
139.0755	2.4
139.1116	2.2
141.0911	2.1
143.0855	2.4
145.1013	17.2
146.1043	2.4
146.1172	2.0
147.0800	2.1
147.1171	9.9
149.0960	4.1
149.1326	6.4
151.0763	2.3
151.0962	2.3
151.1114	5.9
157.1013	3.9
159.1169	11.1
160.1204	1.7
161.0957	1.8
161.1327	8.0
163.1119	22.3
163.1482	3.2
164.1152	2.8
165.0912	2.0
165.1276	4.1
171.1169	3.8
173.1326	6.1
175.1119	10.7
175.1479	3.2
176.1147	1.7
177.1275	6.4
179.1071	2.2
179.1435	3.8
181.1217	1.9
185.1325	3.7
187.1484	8.3
189.1275	7.1
189.1638	3.6
191.1430	4.5
193.1225	4.7
199.1484	2.9
201.1275	2.5
203.1432	2.9
203.1792	3.6
205.1584	2.0
207.1378	7.1
213.1643	2.6
219.1381	8.8
227.1794	4.6
237.1472	4.0
241.1588	1.8
255.2107	7.1
265.1957	3.5
273.2214	8.6
283.2058	18.7
284.2094	3.7
301.2163	100.0
302.2199	21.1
303.2242	2.8
317.2109	2.7
319.2269	46.0
320.2300	9.1
325.1549	1.9
336.3132	2.4

Name: (E)-5-(4-methoxy-5-methyl-6-oxopyran-2-yl)-3-methylhex-4-enoic acid
PrecursorMZ: 289.10405
RT: 1.3977
ExactMass: 266.11542367
Spectrum_type: 2
charge: 1
Formula: C14H18O5
SMILES: CC1=C(C=C(OC1=O)/C(=C/C(C)CC(=O)O)/C)OC
Method: HCD
Collision_energy: [28.333334]
Isolation_window: 4.0
Ion_mode: P
Num Peaks: 13
69.8421	2.3
69.9581	2.3
139.0864	8.4
243.1481	4.7
247.1434	2.2
287.1382	10.4
288.1222	3.3
288.1413	4.0
289.1038	100.0
289.1390	9.0
290.1072	12.4
291.1019	3.9
291.1334	4.7

Name: (E)-Piperolein A
PrecursorMZ: 316.1898
RT: 1.0853
ExactMass: 315.18344366
Spectrum_type: 2
charge: 1
Formula: C19H25NO3
SMILES: C1CCN(CC1)C(=O)CCCC/C=C/C2=CC3=C(C=C2)OCO3
Method: HCD
Collision_energy: [28.333334]
Isolation_window: 4.0
Ion_mode: P
Num Peaks: 43
69.0701	8.9
69.6012	1.9
69.7563	1.4
72.0809	1.4
84.0809	9.5
86.0965	98.4
87.0998	6.9
98.0964	2.3
103.0541	3.6
112.0756	37.8
113.0789	5.6
131.0488	29.1
132.0521	10.9
135.0437	97.2
136.0470	9.0
138.0910	2.8
149.0595	2.7
159.0799	2.6
161.0593	18.0
162.0627	8.1
165.0906	1.6
168.1378	5.1
173.0952	1.6
183.0799	2.6
185.0595	1.4
187.0748	7.6
188.0781	2.4
189.0905	3.2
194.1534	11.9
201.0903	5.1
202.0936	2.7
213.0903	8.9
214.0932	1.6
229.0855	2.3
230.0889	1.7
231.1009	10.2
257.1278	2.2
314.1742	16.8
315.1777	32.3
315.1945	2.5
315.2318	1.4
316.1897	100.0
317.1930	19.0

Name: (E,E)-sorbate
PrecursorMZ: 95.04936
RT: 5.9967
ExactMass: 111.044604462
Spectrum_type: 2
charge: 1
Formula: C6H7O2-
SMILES: C/C=C/C=C/C(=O)[O-]
Method: HCD
Collision_energy: [28.333334]
Isolation_window: 4.0
Ion_mode: P
Num Peaks: 8
65.0390	1.4
67.0546	1.7
94.0652	100.0
94.9297	41.1
95.0493	2.2
95.0686	8.1
96.0445	10.2
96.9278	3.4

Name: (R)-2-(2-(7-hydroxy-4-methyl-2-oxo-2H-chromen-3-yl)acetamido)-5-ureidopentanoic acid
PrecursorMZ: 392.14471
RT: 5.8746
ExactMass: 391.13795002
Spectrum_type: 2
charge: 1
Formula: C18H21N3O7
SMILES: CC1=C(C(=O)OC2=C1C=CC(=C2)O)CC(=O)N[C@H](CCCNC(=O)N)C(=O)O
Method: HCD
Collision_energy: [28.333334]
Isolation_window: 4.0
Ion_mode: P
Num Peaks: 38
70.0655	10.9
71.0859	9.8
72.0811	10.4
84.0447	21.0
86.0966	12.9
91.0543	9.1
102.0550	46.8
116.0706	16.0
120.0808	65.6
130.0498	15.8
130.0651	11.0
139.0500	9.1
148.0603	60.3
148.0755	13.6
149.0232	52.4
166.0861	29.9
167.0339	7.7
167.0451	9.5
175.0863	21.9
177.0545	8.7
181.0608	6.9
188.0342	7.0
203.0811	57.4
206.0445	11.9
209.0553	23.1
227.0659	28.3
245.0916	100.0
246.0958	11.1
313.1063	12.1
328.1537	11.4
341.1003	12.9
359.1122	16.5
374.1343	8.0
390.2307	16.4
391.1461	7.9
391.1502	10.4
392.1457	52.0
393.1483	8.8

Name: (R)-4-((3R,5R,8R,9S,10S,12S,13R,14S,17R)-3,12-dihydroxy-10,13-dimethylhexadecahydro-1H-cyclopenta(a)phenanthren-17-yl)pent-2-enoic acid
PrecursorMZ: 373.27329
RT: 3.0362
ExactMass: 390.27700969
Spectrum_type: 2
charge: 1
Formula: C24H38O4
SMILES: C[C@H](C=CC(=O)O)[C@H]1CC[C@@H]2[C@@]1([C@H](C[C@H]3[C@H]2CC[C@H]4[C@@]3(CC[C@H](C4)O)C)O)C
Method: HCD
Collision_energy: [28.333334]
Isolation_window: 4.0
Ion_mode: P
Num Peaks: 35
81.0701	9.7
93.0701	8.0
95.0856	10.4
105.0697	5.1
107.0855	12.2
109.1013	8.2
112.8957	8.9
119.0855	6.8
121.1010	5.8
131.0853	5.4
133.1011	8.8
135.1166	5.7
145.1010	58.2
146.1043	5.8
147.1167	13.0
149.1323	21.6
159.1166	10.9
161.1322	8.0
199.1480	12.8
201.1636	10.8
213.1634	8.7
215.1790	9.7
227.1789	9.0
245.1531	6.1
255.1737	6.4
309.2570	100.0
310.2604	25.1
319.2415	12.0
327.2673	6.6
337.2520	27.2
338.2553	6.7
355.2625	75.0
356.2657	21.7
373.2730	54.5
374.2758	13.9

Name: (R)-4-((3R,5S,8R,9S,10S,13R,14S,17R)-3-hydroxy-10,13-dimethyl-7-oxohexadecahydro-1H-cyclopenta(a)phenanthren-17-yl)pent-2-enoic acid
PrecursorMZ: 371.25723
RT: 4.847
ExactMass: 388.26135963
Spectrum_type: 2
charge: 1
Formula: C24H36O4
SMILES: C[C@H](/C=C/C(=O)O)[C@H]1CC[C@@H]2[C@@]1(CC[C@H]3[C@H]2C(=O)C[C@H]4[C@@]3(CC[C@H](C4)O)C)C
Method: HCD
Collision_energy: [28.333334]
Isolation_window: 4.0
Ion_mode: P
Num Peaks: 82
55.0545	2.2
67.0545	3.6
69.0701	2.1
79.0543	4.2
81.0700	17.3
83.0857	2.6
85.0649	2.4
86.0965	2.1
91.0544	2.9
93.0699	7.3
95.0856	10.2
97.0648	2.1
99.0440	4.5
101.0597	7.7
105.0698	9.8
107.0855	18.7
109.1011	6.8
119.0853	11.5
121.1011	9.6
123.0802	2.1
123.1166	2.1
127.0751	2.2
131.0853	6.6
133.1009	12.5
135.1165	9.0
137.0959	2.2
143.0852	4.1
145.1009	15.7
147.1165	13.1
149.1323	3.1
157.1010	7.4
159.1166	21.0
161.1322	10.8
169.1009	2.6
171.1165	5.6
173.1321	5.7
175.1478	4.5
176.8751	2.5
183.1166	3.6
185.1321	9.2
187.1113	2.2
187.1478	5.1
193.1219	2.8
195.1376	2.5
197.1322	3.4
199.1477	11.8
201.1633	4.5
205.1218	2.1
209.1318	3.2
211.1476	10.9
213.1633	13.1
215.1789	2.5
221.1527	3.5
223.1476	2.5
225.1632	6.0
227.1419	4.2
227.1788	4.9
229.1580	3.6
231.1737	3.7
235.1686	2.2
239.1795	2.6
241.1583	2.4
241.1948	2.8
243.1738	2.4
245.1530	8.0
247.1685	13.6
249.1837	2.7
253.1942	2.4
255.2097	2.7
259.1685	5.3
261.1842	11.8
273.1840	4.9
313.2157	3.5
319.2411	5.2
335.2364	3.5
337.2518	11.8
353.2465	13.2
354.2502	3.4
355.2622	100.0
371.2571	37.6
372.2601	9.7
373.2726	88.4

Name: (R)-Octopamine
PrecursorMZ: 136.07564
RT: 4.7785
ExactMass: 153.078978594
Spectrum_type: 2
charge: 1
Formula: C8H11NO2
SMILES: C1=CC(=CC=C1[C@H](CN)O)O
Method: HCD
Collision_energy: [28.333334]
Isolation_window: 4.0
Ion_mode: P
Num Peaks: 46
53.0390	1.8
65.0389	1.3
67.0181	0.4
67.0546	1.6
69.8341	0.5
70.0290	0.5
77.0388	0.7
79.0545	0.7
80.0497	1.4
81.0337	0.8
81.0701	1.6
91.0543	17.9
92.0577	1.2
93.0574	2.7
93.0700	12.5
94.0652	0.8
94.0733	0.9
95.0492	7.7
96.0444	0.5
96.0526	0.5
97.4579	0.6
105.0447	1.4
108.0444	1.1
108.0808	8.0
109.0521	0.4
109.0648	0.5
109.0841	0.8
118.0651	0.6
119.0491	1.1
121.0521	0.5
123.0678	0.6
126.0548	7.7
136.0217	0.9
136.0392	0.3
136.0617	1.4
136.0647	0.7
136.0670	0.8
136.0755	100.0
136.0866	0.7
137.0456	1.4
137.0595	1.1
137.0708	0.7
137.0787	9.4
137.1072	0.6
138.0547	1.9
138.0911	4.6

Name: (R)-Simurosertib
PrecursorMZ: 342.13894
RT: 3.5989
ExactMass: 341.13103142
Spectrum_type: 2
charge: 1
Formula: C17H19N5OS
SMILES: CC1=C(C=NN1)C2=CC3=C(S2)C(=O)NC(=N3)[C@H]4CC5CCN4CC5
Method: HCD
Collision_energy: [28.333334]
Isolation_window: 4.0
Ion_mode: P
Num Peaks: 152
55.0547	2.3
69.0340	4.0
70.0656	18.8
71.0494	2.7
72.0813	4.9
80.0499	2.9
81.0339	7.6
82.0656	3.1
83.0496	5.5
84.0449	3.7
84.0812	22.5
85.0289	5.6
86.0605	3.9
86.0969	4.4
87.0444	4.4
95.0494	2.7
96.0447	2.8
96.0808	2.3
97.0287	7.3
98.0604	3.8
98.0966	2.4
99.0444	4.1
100.0761	6.0
101.0600	19.1
102.0550	3.0
107.0492	4.1
108.0445	2.4
109.0288	2.9
110.0605	2.9
110.0716	3.0
111.0444	9.6
112.0760	4.3
114.0553	2.6
114.0667	4.3
116.0709	14.3
117.0549	3.5
121.0650	2.3
122.0601	3.0
123.0442	3.9
124.0758	3.1
125.0710	2.3
126.0551	3.7
126.0915	3.2
127.0392	7.2
128.0709	5.2
129.0546	2.5
129.1025	4.0
130.0501	4.3
130.0865	12.1
134.0598	2.7
136.0763	2.8
138.0552	5.0
139.0391	3.3
140.0713	3.5
144.1021	4.9
145.0496	3.5
146.0928	2.7
148.0757	2.5
150.0549	3.4
150.0919	2.9
152.0708	5.0
153.0546	2.4
162.1128	53.7
163.0392	2.7
163.1154	3.5
164.0705	3.2
165.0543	2.7
166.0863	2.7
168.0656	3.7
170.0814	11.0
173.0942	2.7
175.1196	2.6
177.0536	2.7
180.1010	3.1
181.0977	2.5
182.0812	9.2
184.0952	2.6
185.0836	2.2
186.0913	5.6
196.0958	5.9
197.0918	2.7
206.0812	2.3
207.1129	3.0
211.1082	2.4
221.0956	3.6
225.0910	2.2
225.1236	2.8
231.1138	2.3
246.1128	9.9
247.1442	3.2
249.0912	9.1
249.1233	3.9
265.0833	2.3
267.1017	28.6
268.1051	5.1
277.0861	4.7
284.1285	2.3
285.1369	17.6
286.1413	5.2
289.0919	5.5
295.0967	87.1
296.0996	14.8
297.1031	2.9
307.0990	2.8
313.1073	30.7
314.1100	6.5
321.9891	4.5
323.9856	2.5
340.1473	3.5
341.1447	4.3
341.1743	14.3
341.2105	4.5
342.1218	4.3
342.1689	4.9
343.1557	11.3
343.1922	7.8
344.1025	3.1
344.1443	7.2
344.1889	4.9
345.1433	7.6
345.1794	9.9
346.1301	4.3
346.1649	100.0
347.1644	23.1
347.1955	19.9
348.1432	6.8
348.1891	7.5
349.1429	3.4
349.1762	22.1
349.2110	3.2
350.1295	2.6
350.1736	8.9
350.2099	5.4
351.1568	4.5
351.1913	13.1
351.2317	3.2
352.1475	4.3
353.1737	11.1
353.2070	4.0
354.1275	3.4
354.1753	12.0
355.1912	25.9
356.1482	8.2
356.1874	5.3
357.1714	3.9
357.2074	4.0
358.1252	3.1
358.1656	7.6
359.1566	7.8
359.2015	6.5
360.1772	5.3
361.1734	4.8

Name: (RS)-Salsolinol
PrecursorMZ: 180.10166
RT: 6.8998
ExactMass: 179.094628657
Spectrum_type: 2
charge: 1
Formula: C10H13NO2
SMILES: CC1C2=CC(=C(C=C2CCN1)O)O
Method: HCD
Collision_energy: [28.333334]
Isolation_window: 4.0
Ion_mode: P
Num Peaks: 25
60.0811	6.7
67.0546	2.6
69.8124	2.1
85.0650	8.5
91.0543	100.0
96.0445	3.6
96.9952	8.9
135.0915	43.2
138.0546	2.0
164.0815	1.9
178.0859	5.3
179.0915	2.0
180.0652	2.6
180.0805	47.3
180.1027	56.5
180.1048	63.2
180.1218	3.0
181.0841	6.7
181.0968	58.1
181.1055	7.0
182.0808	2.5
182.0923	2.4
182.1007	3.0
182.1172	20.8
182.1899	2.2

Name: (S)-2,5-dimethoxy-N-(quinuclidin-3-yl)benzamide
PrecursorMZ: 291.17022
RT: 1.2501
ExactMass: 290.16304257
Spectrum_type: 2
charge: 1
Formula: C16H22N2O3
SMILES: COC1=CC(=C(C=C1)OC)C(=O)N[C@@H]2CN3CCC2CC3
Method: HCD
Collision_energy: [28.333334]
Isolation_window: 4.0
Ion_mode: P
Num Peaks: 127
57.0704	1.7
58.0657	0.9
69.0704	2.1
70.0656	3.1
72.0813	2.9
74.0241	4.2
80.0499	1.7
81.0339	2.5
82.0656	0.6
83.0496	2.8
84.0812	0.9
86.0968	11.1
91.0545	2.3
96.0447	45.9
96.0812	0.5
97.0480	2.3
97.0650	1.3
98.0605	0.7
98.0968	1.9
101.0598	0.6
108.0447	0.7
109.0763	0.5
110.0605	0.6
111.0444	2.1
112.0510	1.1
112.0759	3.8
114.0553	2.1
114.0665	2.7
116.0709	6.5
118.0865	2.4
122.0603	1.2
124.0760	0.7
126.0917	1.0
130.0864	9.3
132.1020	6.5
136.0756	1.3
138.0912	0.5
148.0760	0.5
150.0914	0.5
152.0706	0.9
154.0874	0.5
154.0972	0.6
160.0758	1.0
164.0707	0.7
164.0824	0.8
166.0979	0.5
166.1222	0.6
168.1385	2.0
178.0855	0.6
179.0817	0.7
180.1018	2.1
181.0963	0.6
185.0928	0.9
186.1488	0.5
188.0704	0.7
190.0862	0.8
198.1127	1.1
200.0708	1.3
206.0931	4.8
207.0949	0.5
207.1133	0.7
208.0974	0.6
212.1270	0.6
212.2373	1.3
244.0950	0.7
256.1302	0.9
260.0923	0.6
263.1753	2.2
272.0918	0.5
273.1245	0.9
274.1101	0.9
275.1408	0.8
276.1278	0.7
277.1190	0.9
278.1054	0.5
279.1379	0.7
285.1242	0.5
286.1076	1.0
287.1397	1.0
289.1201	1.8
289.1558	0.8
290.1027	2.6
290.1387	2.5
291.1354	6.4
291.1706	8.2
292.1161	3.9
292.1730	0.7
293.1179	1.4
293.1509	5.0
294.1414	5.7
295.1312	3.6
295.1663	1.7
296.1133	1.4
296.1541	2.6
297.0900	0.7
297.1459	5.9
297.1842	0.8
298.1345	1.3
298.1679	1.7
299.1093	1.4
299.1628	4.9
299.1980	0.5
300.0875	0.6
300.1250	1.4
300.1901	0.7
301.1199	2.7
301.1521	0.7
301.1777	0.6
302.1029	2.1
302.1405	2.0
303.1356	3.1
304.1178	7.9
304.1557	1.4
304.2998	7.2
305.1193	1.6
305.1508	4.6
305.3032	1.4
306.1312	5.0
307.1311	3.4
307.1656	7.8
308.1124	0.6
308.1499	2.3
309.1489	4.5
309.1808	100.0
309.2560	0.6
310.1327	1.6
310.1848	17.1

Name: (S)-2-((S)-2-(2,4-dioxo-1,2-dihydroquinazolin-3(4H)-yl)-3-methylbutanamido)-3-methylbutanoic acid
PrecursorMZ: 362.17052
RT: 5.3543
ExactMass: 361.16377084
Spectrum_type: 2
charge: 1
Formula: C18H23N3O5
SMILES: CC(C)[C@@H](C(=O)O)NC(=O)[C@H](C(C)C)N1C(=O)C2=CC=CC=C2NC1=O
Method: HCD
Collision_energy: [28.333334]
Isolation_window: 4.0
Ion_mode: P
Num Peaks: 36
70.0654	8.7
72.0811	4.7
84.0810	5.9
86.0966	5.1
91.0544	9.6
100.0758	73.1
101.0598	17.8
116.0708	4.1
118.0863	47.5
120.0808	6.1
124.0757	4.0
130.0649	11.5
136.0616	8.9
136.0756	4.5
148.0755	13.0
157.0760	5.1
163.0391	4.0
166.0862	14.1
170.1174	5.0
175.0864	25.1
203.0812	60.1
204.0848	7.6
208.0969	3.9
218.1019	20.0
244.1075	6.3
245.0916	100.0
246.0955	11.6
273.1593	6.7
344.1631	4.7
345.1445	4.1
361.1372	11.5
362.1230	5.5
362.1712	54.7
363.1559	8.3
363.1749	13.7
364.1532	4.3

Name: (S)-2-((S)-2-Amino-3-carboxypropanamido)-4-methylpentanoic acid
PrecursorMZ: 247.1286
RT: 1.0602
ExactMass: 246.12157168
Spectrum_type: 2
charge: 1
Formula: C10H18N2O5
SMILES: CC(C)C[C@@H](C(=O)O)NC(=O)[C@H](CC(=O)O)N
Method: HCD
Collision_energy: [28.333334]
Isolation_window: 4.0
Ion_mode: P
Num Peaks: 128
55.0546	1.5
56.0498	1.1
67.0546	2.2
69.0702	6.1
70.0654	3.5
71.0495	1.8
72.0811	88.5
73.0844	3.6
74.0603	1.2
79.0545	1.6
81.0701	3.3
83.0493	1.4
83.0606	1.7
83.0858	1.4
84.0446	7.9
84.0810	2.1
85.0650	2.1
86.0603	2.4
86.0966	100.0
87.0554	1.5
87.1000	7.0
88.0395	1.5
91.0544	1.4
93.0700	2.3
95.0856	3.2
98.0601	1.6
98.9842	1.8
100.0757	4.6
100.1121	1.4
101.0598	3.8
102.0373	1.9
102.0550	4.4
104.0530	1.9
105.0700	1.9
107.0855	2.8
109.0283	1.3
109.1012	2.1
112.0757	3.1
116.0706	5.6
118.0862	7.1
119.0856	2.8
120.0807	1.1
121.1012	4.1
122.0964	2.9
126.0548	2.2
128.0704	1.6
129.1019	1.4
130.0497	6.1
130.0862	2.9
130.1224	1.1
131.0856	1.2
132.1018	4.1
133.0605	1.1
133.1010	2.6
134.0811	1.8
135.0804	1.2
135.1166	2.0
138.0547	2.0
138.0912	1.4
140.0705	1.4
141.1021	1.9
142.0860	2.8
143.1177	1.0
145.1013	1.3
147.0760	1.3
147.1166	1.7
148.0602	28.0
149.0639	1.2
149.1324	1.6
154.0861	1.4
155.1177	1.0
159.1168	1.1
160.0966	1.2
161.1322	1.0
166.0860	3.6
168.0653	1.1
172.0603	1.1
173.0210	1.1
173.1324	1.1
183.1125	11.3
184.0966	2.0
184.1165	1.1
184.1326	1.2
186.1122	1.5
187.0861	1.3
187.1069	1.9
188.0914	3.0
200.0913	2.3
200.1277	4.6
201.1223	2.4
202.0862	1.6
202.1067	2.4
202.1435	1.2
204.1226	1.5
206.1018	2.0
211.1070	1.2
212.0914	4.1
216.0430	1.0
225.0428	1.4
228.0688	1.1
228.0859	1.0
228.1046	1.0
228.1224	1.9
228.1336	4.1
228.1587	1.2
229.1178	8.7
230.1021	1.3
230.1382	4.0
245.1856	1.5
245.2261	1.9
246.0768	1.6
246.0969	2.0
246.1120	1.5
246.1331	6.9
246.1691	2.4
247.0734	1.0
247.1078	6.4
247.1282	11.5
247.1703	2.5
247.2418	2.7
248.0917	2.9
248.1137	3.5
248.1285	1.7
248.1483	2.3
249.0872	1.1
249.1226	2.8
249.1484	2.0
249.1840	1.4

Name: (S)-2-(2-Pyrrolidinyl)acetic acid hydrochloride
PrecursorMZ: 130.08624
RT: 3.2447
ExactMass: 165.0556563
Spectrum_type: 2
charge: 1
Formula: C6H12ClNO2
SMILES: C1C[C@H](NC1)CC(=O)O.Cl
Method: HCD
Collision_energy: [28.333334]
Isolation_window: 4.0
Ion_mode: P
Num Peaks: 4
70.0654	100.0
130.0650	49.2
130.0861	29.0
130.1588	23.2

Name: (S)-2-(3-(1-methyl-1H-benzo(d)imidazol-5-yl)propanamido)-3-phenylpropanoic acid
PrecursorMZ: 352.16518
RT: 7.8615
ExactMass: 351.15829154
Spectrum_type: 2
charge: 1
Formula: C20H21N3O3
SMILES: CN1C=NC2=C1C=CC(=C2)CCC(=O)N[C@@H](CC3=CC=CC=C3)C(=O)O
Method: HCD
Collision_energy: [28.333334]
Isolation_window: 4.0
Ion_mode: P
Num Peaks: 5
121.0884	6.3
166.0861	28.3
306.1590	7.2
352.1650	100.0
353.1676	19.3

Name: (S)-3-Amino-4-phenylbutanoic acid
PrecursorMZ: 180.10179
RT: 8.0214
ExactMass: 179.094628657
Spectrum_type: 2
charge: 1
Formula: C10H13NO2
SMILES: C1=CC=C(C=C1)C[C@@H](CC(=O)O)N
Method: HCD
Collision_energy: [28.333334]
Isolation_window: 4.0
Ion_mode: P
Num Peaks: 41
60.0812	3.0
78.9845	0.4
80.0498	0.6
82.0655	0.4
91.0545	3.7
96.9954	4.0
101.0599	0.4
108.0809	1.4
109.0763	0.9
110.0603	3.6
119.0494	0.8
120.0808	1.6
123.0442	1.9
134.0964	1.2
135.0917	2.0
135.1043	1.2
136.0757	5.6
147.0441	0.8
151.0628	2.9
154.0974	0.3
164.0706	2.3
165.0548	2.7
178.0863	4.1
178.8733	0.4
179.0049	2.7
179.0816	1.9
179.0897	1.4
179.1180	0.6
180.0658	0.8
180.0772	1.7
180.0853	0.6
180.1023	100.0
180.1050	30.0
180.1188	0.5
180.1378	0.4
181.0970	7.7
181.1051	10.8
182.0811	45.4
182.0923	1.6
182.1012	1.0
182.1174	2.7

Name: (S)-3-Oxo-N-(2-oxotetrahydrofuran-3-yl)heptanamide
PrecursorMZ: 228.12285
RT: 7.4747
ExactMass: 227.11575802
Spectrum_type: 2
charge: 1
Formula: C11H17NO4
SMILES: CCCCC(=O)CC(=O)N[C@H]1CCOC1=O
Method: HCD
Collision_energy: [28.333334]
Isolation_window: 4.0
Ion_mode: P
Num Peaks: 46
55.0546	4.0
70.0654	25.4
74.0238	3.1
82.0653	5.7
83.0493	2.9
84.0446	15.7
84.0809	3.8
86.0966	5.6
100.0758	5.8
101.0598	20.2
102.0550	3.7
116.0706	35.2
126.0547	3.8
127.0501	8.4
128.0704	47.7
129.0737	3.1
156.0653	17.3
164.1068	3.9
168.1017	7.4
174.0758	12.2
181.0968	12.3
182.0811	5.2
182.1173	16.9
209.0916	5.0
210.0759	10.4
210.1121	5.1
211.1071	3.3
212.0914	3.4
212.1027	3.0
226.1071	8.6
227.1019	44.8
227.1110	4.9
227.1388	6.9
228.0868	23.4
228.0977	4.8
228.1047	4.6
228.1226	100.0
228.1323	3.5
228.2316	4.3
229.0813	4.0
229.1170	24.0
229.1260	5.0
229.1541	5.1
230.1017	6.0
230.1133	20.3
230.1383	6.7

Name: (S)-4-Amino-3-hydroxybutanoic acid
PrecursorMZ: 120.0656
RT: 4.1378
ExactMass: 119.058243149
Spectrum_type: 2
charge: 1
Formula: C4H9NO3
SMILES: C([C@@H](CN)O)C(=O)O
Method: HCD
Collision_energy: [28.333334]
Isolation_window: 4.0
Ion_mode: P
Num Peaks: 83
56.0500	2.1
58.0657	1.4
59.0734	0.9
68.0499	8.1
69.0339	1.1
69.0703	0.7
70.0656	7.7
71.0496	12.8
72.0449	2.7
72.0812	10.6
73.0288	0.7
73.0845	0.7
74.0240	0.9
74.0605	25.5
75.0640	0.8
80.0498	0.6
82.0656	2.7
83.0607	2.5
84.0448	43.1
84.0812	5.0
85.0288	2.1
85.0481	2.0
86.0604	32.6
86.0715	0.8
86.0968	11.2
87.0557	2.7
87.0635	1.4
88.0760	10.5
90.0437	0.7
90.0553	100.0
90.0596	2.0
90.0641	0.6
90.0670	0.7
91.0585	3.0
95.0605	0.7
96.0446	1.2
97.0284	0.6
98.0603	9.8
100.0758	0.8
101.0712	0.6
102.0551	3.0
104.0708	0.8
109.0761	0.8
110.0602	0.8
111.0444	0.7
112.0760	1.5
114.0551	2.3
114.0666	3.0
115.0505	1.7
116.0707	2.7
118.0864	11.0
119.0898	1.4
120.0654	1.0
120.0805	0.6
122.0598	0.8
122.0810	0.7
123.0556	1.0
123.0921	1.3
124.0395	4.3
124.0756	0.8
125.0712	1.9
126.0550	1.4
127.0500	1.0
128.0705	1.9
128.1436	0.9
129.0657	2.5
130.0500	11.2
130.0865	2.6
130.1588	0.7
132.0656	19.8
132.0766	78.6
132.0849	1.1
132.0987	0.9
132.1022	1.0
133.0697	0.7
133.0801	3.6
134.0812	8.7
134.0962	1.4
136.0755	0.7
137.0459	6.6
138.0561	1.3
138.1277	0.7
139.0864	1.4

Name: (S)-5'-Deoxy-5'-(methylsulfinyl)adenosine
PrecursorMZ: 314.09147
RT: 6.6585
ExactMass: 313.08447515
Spectrum_type: 2
charge: 1
Formula: C11H15N5O4S
SMILES: CS(=O)CC1C(C(C(O1)N2C=NC3=C(N=CN=C32)N)O)O
Method: HCD
Collision_energy: [28.333334]
Isolation_window: 4.0
Ion_mode: P
Num Peaks: 26
80.0498	10.0
97.0285	63.4
136.0617	100.0
137.0649	4.3
143.0157	4.7
164.0566	7.0
171.1167	11.4
189.1273	8.4
208.0962	5.3
224.0914	4.3
236.0914	16.2
250.1068	4.3
253.1178	5.2
260.0913	10.2
262.1072	5.0
278.1019	13.3
280.1178	4.9
296.0805	6.8
298.1281	8.3
313.1388	8.6
314.0909	42.1
314.1195	5.8
314.1744	32.1
315.0940	4.5
315.1541	15.5
315.1768	4.2

Name: (S)-Metalaxyl acid
PrecursorMZ: 266.13912
RT: 8.6398
ExactMass: 265.13140809
Spectrum_type: 2
charge: 1
Formula: C14H19NO4
SMILES: CC1=C(C(=CC=C1)C)N([C@@H](C)C(=O)O)C(=O)COC
Method: HCD
Collision_energy: [28.333334]
Isolation_window: 4.0
Ion_mode: P
Num Peaks: 14
134.0964	9.2
149.0837	7.2
160.9015	4.8
173.0381	4.9
180.1021	5.9
201.0692	10.7
265.0684	7.3
265.1313	22.9
265.1538	8.1
266.1387	100.0
267.1329	10.2
267.1433	8.3
268.1172	5.6
268.1667	5.4

Name: (S)-dimethyl 2-aminohexanedioate
PrecursorMZ: 190.10728
RT: 6.8912
ExactMass: 189.10010796
Spectrum_type: 2
charge: 1
Formula: C8H15NO4
SMILES: COC(=O)CCC[C@@H](C(=O)OC)N
Method: HCD
Collision_energy: [28.333334]
Isolation_window: 4.0
Ion_mode: P
Num Peaks: 18
60.0448	30.8
69.0338	25.6
69.3973	24.2
95.0493	21.8
98.0602	25.6
112.0757	34.6
116.0706	91.9
130.0861	23.6
148.0967	94.7
163.1117	18.8
165.0213	39.8
172.0965	24.8
190.0861	18.2
190.1071	100.0
191.0814	19.5
191.1057	22.9
192.0655	37.4
192.1018	31.2

Name: (Z)-2-(4-(methoxycarbonyl)benzylidene)-7-(morpholino-4-iummethyl)-3-oxo-2,3-dihydrobenzofuran-6-olate
PrecursorMZ: 396.14029
RT: 4.5345
Spectrum_type: 2
charge: 1
SMILES: O=C(OC)C1=CC=C(C=C1)C=C2OC=3C(=CC=C([O-])C3C[NH+]4CCOCC4)C2=O
Method: HCD
Collision_energy: [28.333334]
Isolation_window: 4.0
Ion_mode: P
Num Peaks: 14
70.0656	11.1
174.0667	10.6
186.0667	10.7
216.0777	10.7
234.0876	57.0
378.1275	11.3
394.1606	10.2
396.1397	100.0
397.1419	21.6
398.1515	12.3
399.1800	8.8
400.1656	8.9
404.1540	21.1
406.1703	15.7

Name: (Z)-2-octylpent-2-enedioic acid
PrecursorMZ: 243.15906
RT: 1.0585
ExactMass: 242.15180918
Spectrum_type: 2
charge: 1
Formula: C13H22O4
SMILES: CCCCCCCC/C(=C/CC(=O)O)/C(=O)O
Method: HCD
Collision_energy: [28.333334]
Isolation_window: 4.0
Ion_mode: P
Num Peaks: 54
55.0547	5.8
57.0704	3.8
67.0547	11.8
69.0703	15.1
71.0495	3.1
71.0860	4.0
79.0546	3.6
81.0702	27.5
83.0495	3.6
83.0859	26.2
85.0651	3.5
91.0545	6.8
93.0701	7.6
95.0858	12.0
97.0649	9.3
97.1014	21.8
99.0807	3.9
105.0701	10.2
107.0857	14.3
109.1014	3.3
111.0807	5.7
111.1170	3.4
113.0599	3.1
119.0856	7.7
121.1013	18.0
123.1169	13.6
131.0855	3.6
133.1012	9.4
147.1168	67.9
148.1202	7.8
149.0963	3.3
157.1013	12.0
163.1482	31.7
165.1274	33.1
166.1305	3.9
173.1326	4.2
175.1117	23.0
176.1150	3.7
181.1587	21.7
193.1223	25.8
194.1254	3.8
198.1852	3.6
209.1536	9.7
211.1325	8.3
225.1491	3.6
226.1803	9.4
227.1640	4.2
229.1434	100.0
230.1466	12.1
242.2477	11.7
243.1128	3.2
243.1589	3.5
244.1909	6.3
245.1748	21.2

Name: (Z)-5-((1S,2R,4aR,8aR)-5-(hydroxymethyl)-1,2,4a-trimethyl-2,3,4,7,8,8a-hexahydronaphthalen-1-yl)-3-(hydroxymethyl)pent-2-enoic acid
PrecursorMZ: 319.22592
RT: 1.1608
ExactMass: 336.2300595
Spectrum_type: 2
charge: 1
Formula: C20H32O4
SMILES: C[C@@H]1CC[C@@]2([C@@H]([C@@]1(C)CC/C(=C/C(=O)O)/CO)CCC=C2CO)C
Method: HCD
Collision_energy: [28.333334]
Isolation_window: 4.0
Ion_mode: P
Num Peaks: 123
55.0544	0.9
57.0703	4.3
67.0546	3.6
69.0703	2.4
69.4998	1.6
69.5080	1.7
69.5481	1.2
69.7767	1.2
71.0493	0.9
79.0546	2.9
81.0701	14.1
83.0859	1.9
85.0651	1.7
89.0599	2.4
91.0544	2.2
93.0700	11.8
95.0828	1.2
95.0856	16.7
96.0888	1.5
97.0649	2.1
97.1014	1.4
97.4565	1.1
99.0442	2.5
105.0699	9.0
107.0856	20.0
108.0887	1.3
109.0647	1.5
109.1012	8.6
111.0805	3.3
117.0696	1.1
119.0853	13.1
120.0887	1.2
121.0648	1.6
121.1010	9.4
123.0802	3.7
123.1167	4.3
125.0959	2.9
131.0852	4.4
133.1009	10.2
134.1043	1.3
135.0801	3.3
135.1165	14.6
136.1200	1.8
137.0594	10.5
137.0958	3.9
137.1322	2.0
139.0752	1.6
139.1114	1.5
141.0905	1.1
143.0852	1.8
145.1009	15.8
146.1040	1.8
147.0801	1.4
147.1165	6.9
149.0958	3.6
149.1321	5.1
150.1355	0.9
151.1114	6.1
157.1008	2.0
159.1165	8.3
160.1197	0.9
161.0956	2.3
161.1321	6.1
163.0750	4.8
163.1114	24.1
163.1476	2.7
164.1147	3.0
165.1270	4.0
171.1164	2.2
173.1321	3.9
175.1113	9.5
175.1476	2.6
176.1147	1.3
177.0907	1.3
177.1269	5.8
177.1632	1.0
179.1063	1.6
179.1425	2.9
181.1218	1.8
183.1165	1.2
185.1320	2.2
187.1476	5.1
188.1508	0.9
189.1269	5.5
189.1634	2.0
191.1424	3.6
193.1217	4.9
199.1475	2.4
201.1269	1.9
203.1425	2.8
203.1788	2.7
205.1216	1.0
205.1580	3.1
207.1373	3.7
213.1632	1.6
219.1373	6.2
220.1402	1.2
225.1629	1.0
227.1787	2.9
237.1476	1.7
241.1581	1.5
244.1161	1.6
245.1890	1.2
255.1732	1.7
255.2099	6.4
256.2129	1.5
258.1314	5.3
261.1837	1.8
265.1943	3.2
273.2204	9.3
274.2238	2.2
283.2047	19.8
284.2080	5.3
286.1260	6.9
287.1285	1.3
301.2152	100.0
302.2186	22.5
303.2196	2.0
318.1518	2.6
319.2256	31.4
320.2294	7.0
321.2436	1.4
321.2776	1.4

Name: (Z)-5-)(1S,2R,4aR,8aR)-5-(hydroxymethyl)-1,2,4a-trimethyl-2,3,4,7,8,8a-hexahydronaphthalen-1-yl(-3-(hydroxymethyl)pent-2-enoic acid
PrecursorMZ: 359.21737
RT: 5.1185
ExactMass: 336.2300595
Spectrum_type: 2
charge: 1
Formula: C20H32O4
SMILES: C[C@@H]1CC[C@@]2([C@@H]([C@@]1(C)CC/C(=C/C(=O)O)/CO)CCC=C2CO)C
Method: HCD
Collision_energy: [28.333334]
Isolation_window: 4.0
Ion_mode: P
Num Peaks: 24
70.0656	1.2
84.0812	1.0
158.0927	0.8
175.1193	1.4
179.1544	0.9
199.1078	1.2
213.1235	4.1
269.1860	27.6
270.1895	4.3
289.1398	1.5
341.2073	0.9
359.2178	100.0
359.3104	0.8
360.2212	21.0
361.2240	2.6
363.1566	0.9
365.1749	0.8
368.1764	0.8
369.1658	4.0
370.1625	0.9
370.2050	0.8
371.1800	1.0
374.1620	0.8
375.1993	4.5

Name: (Z,6S)-2-methyl-6-((10R,13S,14S,17S)-4,4,10,13,14-pentamethyl-3-oxo-1,2,5,6,9,11,12,15,16,17-decahydrocyclopenta(a)phenanthren-17-yl)hept-2-enoic acid
PrecursorMZ: 437.34062
RT: 1.3382
ExactMass: 454.34469533
Spectrum_type: 2
charge: 1
Formula: C30H46O3
SMILES: C[C@@H](CC/C=C(/C)\C(=O)O)[C@@H]1CC[C@]2([C@]1(CCC3C2=CCC4[C@@]3(CCC(=O)C4(C)C)C)C)C
Method: HCD
Collision_energy: [28.333334]
Isolation_window: 4.0
Ion_mode: P
Num Peaks: 37
57.0703	22.9
67.0546	26.1
69.0702	44.8
71.0858	18.4
81.0701	40.8
83.0858	33.9
93.0700	20.4
95.0856	66.1
97.1013	14.5
107.0855	35.4
109.1012	100.0
119.0855	32.0
121.1012	36.2
123.1168	36.2
133.1011	21.6
135.1168	21.9
145.1010	19.2
147.1168	26.1
149.1324	21.2
159.1168	18.7
161.1322	25.0
163.1480	18.5
173.1323	22.8
185.1323	15.6
187.1478	24.4
189.1634	15.6
201.1634	16.9
203.1794	22.1
213.1639	16.0
215.1791	20.0
391.3354	49.6
409.3460	31.3
419.3304	34.5
437.3395	97.1
437.3628	73.7
438.3399	29.9
438.3716	15.1

Name: )(2R,3S,4S,5R,6S)-6-))(1S,3R,5R,6S,8S)-2-(benzoyloxymethyl)-6-hydroxy-8-methyl-9,10-dioxatetracyclo)4.3.1.02,5.03,8(decan-3-yl(oxy(-3,4,5-trihydroxyoxan-2-yl(methyl benzoate
PrecursorMZ: 607.17787
RT: 5.9348
ExactMass: 584.18937645
Spectrum_type: 2
charge: 1
Formula: C30H32O12
SMILES: C[C@]12C[C@]3([C@@H]4C[C@]1(C4([C@@H](O2)O3)COC(=O)C5=CC=CC=C5)O[C@H]6[C@@H]([C@H]([C@@H]([C@H](O6)COC(=O)C7=CC=CC=C7)O)O)O)O
Method: HCD
Collision_energy: [28.333334]
Isolation_window: 4.0
Ion_mode: P
Num Peaks: 31
59.0609	2.3
67.4614	1.8
67.4655	5.2
70.0655	4.8
84.0448	1.9
84.0812	5.6
85.0289	2.0
97.0289	1.7
116.0708	3.0
126.0548	1.8
128.0706	1.7
130.0864	2.5
138.0548	2.4
139.0393	1.7
170.0813	1.7
313.1077	3.7
314.1087	1.8
339.0838	2.2
353.0987	3.2
563.1884	5.9
564.1902	2.3
607.1780	100.0
608.1802	31.8
609.1763	7.3
610.1799	2.8
612.2062	1.8
613.2491	2.6
614.2419	2.0
616.2452	5.6
617.2551	3.3
620.2501	2.0

Name: )(E)-)1-(4-methoxyphenyl)-2-(3-oxo-1H-2-benzofuran-1-yl)ethylidene(amino(urea
PrecursorMZ: 340.12919
RT: 1.803
ExactMass: 339.12190603
Spectrum_type: 2
charge: 1
Formula: C18H17N3O4
SMILES: COC1=CC=C(C=C1)/C(=N/NC(=O)N)/CC2C3=CC=CC=C3C(=O)O2
Method: HCD
Collision_energy: [28.333334]
Isolation_window: 4.0
Ion_mode: P
Num Peaks: 43
70.0656	5.6
72.0813	4.3
84.0813	4.3
89.0602	4.7
96.0448	18.4
98.0607	3.1
111.0445	4.2
116.0710	8.0
121.0651	11.0
132.0446	10.3
136.0399	3.1
144.0812	10.4
171.0917	3.7
199.0870	6.5
220.1196	100.0
221.1227	9.9
236.1275	3.1
240.2325	5.9
251.1031	6.1
297.1237	3.7
321.1440	3.0
336.2038	8.5
339.1575	10.8
340.1287	48.4
341.1315	13.5
341.1706	5.4
341.2111	3.0
343.1473	5.0
344.1719	4.0
345.1446	3.7
346.1302	5.4
346.3321	9.4
348.1463	5.7
349.1413	4.9
351.1639	14.3
352.1628	48.1
353.1695	10.8
354.1610	4.6
355.1531	5.9
356.1107	4.8
356.3517	6.6
358.3678	3.8
359.1603	20.7

Name: ))3-(7-methoxy-1H-indol-1-yl)propanoyl(amino(phenyl)acetic acid
PrecursorMZ: 353.14936
RT: 4.6496
ExactMass: 352.14230712
Spectrum_type: 2
charge: 1
Formula: C20H20N2O4
SMILES: COC1=CC=CC2=C1N(C=C2)CCC(=O)NC(C3=CC=CC=C3)C(=O)O
Method: HCD
Collision_energy: [28.333334]
Isolation_window: 4.0
Ion_mode: P
Num Peaks: 54
70.0657	28.0
72.0813	7.1
84.0812	30.5
101.0601	14.3
110.0711	6.3
111.0444	15.4
112.0873	9.0
130.0866	10.5
173.0831	7.6
177.1026	7.3
193.1097	7.6
203.0814	18.1
225.1224	6.6
239.1122	6.9
239.1381	11.4
241.1310	8.0
247.1069	11.1
254.1011	6.8
295.1404	23.8
347.1613	12.8
351.1582	6.4
351.1920	8.1
352.1892	32.8
353.1470	100.0
354.1520	24.7
354.2040	31.3
355.1517	9.7
356.1477	11.7
356.2165	7.6
356.3538	12.8
357.1418	9.9
358.1667	13.0
358.3696	12.4
359.1590	16.2
360.1817	12.1
361.1801	17.8
362.1634	13.1
362.2038	8.5
363.1531	11.5
363.1936	13.0
364.1880	39.9
365.1755	22.1
366.1322	10.7
366.1964	7.6
367.1474	28.7
367.1914	13.8
368.1477	39.2
368.2147	16.6
369.1569	21.3
369.2072	7.6
370.1544	9.1
370.2042	14.6
371.1615	7.8
371.2424	27.1

Name: 1'-(2-(3,5-Dimethylpyrazol-1-yl)ethyl)-2-fluorospiro(4,5-dihydrothieno(2,3-c)pyran-7,4'-piperidine)
PrecursorMZ: 350.17039
RT: 8.92265
ExactMass: 349.16241173
Spectrum_type: 2
charge: 1
Formula: C18H24FN3OS
SMILES: CC1=CC(=NN1CCN2CCC3(CC2)C4=C(CCO3)C=C(S4)F)C
Method: HCD
Collision_energy: [28.333334]
Isolation_window: 4.0
Ion_mode: P
Num Peaks: 4
350.1702	100.0
351.1560	1.9
351.1734	16.6
352.1750	2.0

Name: 1,1-Dimethylpyrrolidin-1-Ium-2-Carboxylate
PrecursorMZ: 144.10196
RT: 2.1965
ExactMass: 143.094628657
Spectrum_type: 2
charge: 1
Formula: C7H13NO2
SMILES: C[N+]1(CCCC1C(=O)[O-])C
Method: HCD
Collision_energy: [28.333334]
Isolation_window: 4.0
Ion_mode: P
Num Peaks: 37
55.0547	1.3
58.0656	3.3
62.9295	12.1
70.0655	2.3
72.0448	13.3
82.0655	1.3
83.0859	1.1
84.0448	1.6
84.0811	2.3
85.0651	1.6
86.0604	27.3
86.0968	1.0
87.0637	2.2
96.0811	1.1
98.0603	6.5
98.0967	10.3
100.0759	1.3
102.0552	1.3
103.9558	9.9
113.0712	1.1
116.0708	1.4
118.0654	1.6
121.9663	83.0
122.9696	1.6
126.0914	100.0
127.0502	1.4
127.0755	1.9
127.0947	7.7
142.0863	7.2
142.1227	1.7
143.0897	1.2
144.0808	1.1
144.1019	54.2
144.9822	5.6
145.0761	2.8
145.1054	3.7
146.0601	5.3

Name: 1,1-Dimethylpyrrolidinium-2-carboxylate
PrecursorMZ: 144.10183
RT: 15.3413
ExactMass: 143.094628657
Spectrum_type: 2
charge: 1
Formula: C7H13NO2
SMILES: C[N+]1(CCCC1C(=O)[O-])C
Method: HCD
Collision_energy: [28.333334]
Isolation_window: 4.0
Ion_mode: P
Num Peaks: 54
58.0292	0.3
58.0656	0.4
67.0547	0.4
69.0339	0.6
70.0457	0.3
70.0655	87.2
70.0735	0.6
70.0832	0.3
71.0494	0.3
71.0624	0.3
71.0688	3.8
72.0812	0.8
74.0603	0.3
84.0811	7.9
85.0843	0.4
89.0601	0.3
95.0493	1.0
96.9954	2.4
98.0965	0.4
104.0709	0.4
105.0337	0.8
110.0713	0.3
112.0759	0.7
113.0601	0.5
120.0808	0.2
121.9666	0.4
123.9643	0.3
125.1075	0.4
126.0914	2.2
130.0660	0.6
130.0701	0.5
130.0863	100.0
130.1020	0.6
130.1066	0.7
130.1123	0.2
130.1306	0.3
131.0897	7.0
132.0910	0.5
134.0631	5.0
135.0630	0.3
143.1178	0.5
144.1019	16.4
145.1055	1.6
146.0814	0.4
148.0787	1.7
148.0965	0.4
149.0233	0.9
152.0738	1.3
157.1700	0.3
158.1173	0.4
158.1537	0.9
161.1284	9.2
162.1321	0.8
163.0751	0.2

Name: 1,10-Epoxydecompositin
PrecursorMZ: 327.12
RT: 3.0061
ExactMass: 304.13107373
Spectrum_type: 2
charge: 1
Formula: C17H20O5
SMILES: C[C@H]1CC[C@@H]2[C@]3([C@@]1([C@@H](C4=C(C3=O)OC=C4C)OC(=O)C)C)O2
Method: HCD
Collision_energy: [28.333334]
Isolation_window: 4.0
Ion_mode: P
Num Peaks: 13
114.0912	2.4
139.9144	2.6
223.0745	2.5
226.9870	1.9
251.0696	5.2
269.0803	30.9
283.0959	3.4
311.0908	6.7
327.1197	100.0
327.2669	2.6
328.1230	18.5
329.1009	2.8
329.1181	2.8

Name: 1,17,19-trihydroxy-7-methyl-3-oxapentacyclo(9.8.0.02,4.05,10.013,18)nonadeca-5(10),13(18),14,16-tetraene-9,12-dione
PrecursorMZ: 343.11742
RT: 6.267033333333333
ExactMass: 342.11033829
Spectrum_type: 2
charge: 1
Formula: C19H18O6
SMILES: CC1CC2=C(C3C(=O)C4=C(C(C3(C5C2O5)O)O)C(=CC=C4)O)C(=O)C1
Method: HCD
Collision_energy: [28.333334]
Isolation_window: 4.0
Ion_mode: P
Num Peaks: 118
69.0703	0.9
70.0655	6.0
72.0811	4.5
84.0447	1.1
84.0811	1.0
86.0967	2.9
96.0809	1.5
98.0602	1.1
100.0759	0.9
101.0599	1.8
107.0493	8.1
110.0602	0.9
111.0443	1.0
114.0915	2.3
115.0948	1.2
116.0707	21.8
119.0492	3.1
121.0285	15.7
122.0319	1.0
122.0601	1.1
136.0756	1.0
137.0597	1.1
138.0913	1.9
140.0340	1.0
140.1070	0.9
142.0862	1.8
147.0440	47.4
148.0473	4.7
152.0705	1.8
153.0658	1.1
164.0707	2.4
166.0862	1.2
168.0656	1.1
168.1018	1.0
170.0812	2.6
179.0702	14.4
180.0736	1.2
180.1016	1.9
181.0607	1.1
181.0972	1.3
184.0966	2.0
189.0545	22.2
190.0580	2.5
195.0811	1.5
198.0759	1.3
200.1281	5.1
202.1072	4.2
203.0701	14.4
204.0737	1.7
205.0858	3.8
207.0650	1.0
209.1649	1.2
210.1681	2.3
213.0910	2.8
215.0702	0.9
223.0599	1.2
223.0752	2.3
227.1755	0.9
230.1021	1.7
231.0650	54.6
232.0684	7.4
237.0907	11.4
237.1592	3.4
238.0942	1.5
238.1631	0.9
241.0857	8.2
242.0889	1.3
247.0751	2.3
249.0755	7.9
250.0792	0.9
251.0704	2.0
255.1012	6.3
255.1699	2.9
256.1053	1.4
265.0856	10.6
266.0902	1.7
269.0803	1.2
271.1435	0.9
275.0699	2.6
279.1012	2.1
280.1289	4.5
281.1492	3.0
283.0961	80.4
284.0996	12.9
285.1017	1.1
285.1596	1.8
295.1281	2.0
297.1113	6.5
297.1808	1.1
298.1144	0.9
298.1398	1.2
301.1066	10.0
302.1103	1.6
307.0961	33.8
308.0993	7.5
323.2519	5.3
325.1066	100.0
325.1215	1.2
326.1101	19.6
327.0851	0.9
327.1130	1.7
341.1320	2.5
341.1502	1.1
341.1710	1.7
341.2623	8.1
342.0973	1.2
342.1347	1.6
342.1677	1.0
342.2660	1.7
343.1163	15.7
343.1657	14.1
343.1867	2.7
344.1170	3.7
344.1475	1.2
344.1704	7.5
345.1094	1.1
345.1460	3.4
345.1786	1.1

Name: 1,2,3,4-Tetrahydroisoquinoline-3-carboxylic acid
PrecursorMZ: 178.08621
RT: 5.8605
ExactMass: 177.078978594
Spectrum_type: 2
charge: 1
Formula: C10H11NO2
SMILES: C1C(NCC2=CC=CC=C21)C(=O)O
Method: HCD
Collision_energy: [28.333334]
Isolation_window: 4.0
Ion_mode: P
Num Peaks: 23
68.0499	7.4
81.0337	2.7
82.0372	2.4
88.0217	1.8
114.0550	24.9
120.0806	2.0
132.0478	4.4
137.0457	3.2
160.0967	4.6
161.0630	1.8
176.8752	34.8
177.0657	3.3
177.1022	2.0
178.0529	6.7
178.0861	100.0
178.1062	1.9
178.1224	1.6
178.8732	7.7
179.0814	3.4
179.0895	9.8
179.1540	1.9
180.0652	2.3
180.1043	3.4

Name: 1,2,3,4-Tetrahydroquinoxalin-2,3-dione, 1-ribityl-6,7-dimethyl-
PrecursorMZ: 325.13886
RT: 2.291
ExactMass: 324.13213636
Spectrum_type: 2
charge: 1
Formula: C15H20N2O6
SMILES: CC1=CC2=C(C=C1C)N(C(=O)C(=O)N2)CC(C(C(CO)O)O)O
Method: HCD
Collision_energy: [28.333334]
Isolation_window: 4.0
Ion_mode: P
Num Peaks: 37
70.0656	3.6
81.0339	1.5
98.0966	9.4
111.0441	2.0
126.0546	1.6
152.0706	2.4
248.1139	1.7
278.1025	2.9
307.1287	83.4
308.1356	12.5
309.1340	1.4
323.1251	1.5
324.1461	4.4
325.1395	100.0
325.1696	2.8
326.1457	14.9
327.1540	6.6
327.1928	1.7
328.1430	6.3
329.1749	3.6
330.0977	2.2
330.1587	12.5
331.1565	3.9
332.1106	4.0
334.1280	6.7
335.1266	2.7
336.1395	3.3
337.1404	3.5
338.1246	3.7
339.1589	2.7
340.1444	4.6
341.1356	2.6
341.1773	2.7
342.1551	7.2
343.1565	3.2
344.1146	1.9
344.1802	2.0

Name: 1,2,4-Heptadecanetriol, 1-acetate
PrecursorMZ: 313.27331
RT: 10.1098
ExactMass: 330.27700969
Spectrum_type: 2
charge: 1
Formula: C19H38O4
SMILES: CCCCCCCCCCCCCC(CC(COC(=O)C)O)O
Method: HCD
Collision_energy: [28.333334]
Isolation_window: 4.0
Ion_mode: P
Num Peaks: 39
55.0546	1.7
57.0339	9.6
57.0703	24.3
58.0737	1.6
67.0546	6.0
69.0702	7.7
69.2507	1.1
71.0858	29.7
72.0892	1.4
81.0701	10.9
83.0858	10.0
84.0892	0.8
85.1014	17.5
86.1048	1.1
89.0599	3.2
95.0856	16.7
96.0890	1.2
97.1013	5.7
97.4558	1.3
99.1169	0.8
101.0597	1.4
103.0754	2.4
109.1012	8.8
111.1168	1.0
117.0910	1.0
123.1167	3.8
125.1324	0.9
137.1323	1.9
239.2365	2.6
257.2468	4.1
312.1632	0.9
313.1386	1.6
313.1735	1.4
313.2730	100.0
314.2764	21.4
315.0840	1.4
315.1544	2.5
315.1766	1.8
315.2793	1.7

Name: 1,2-Diaminocyclohexane
PrecursorMZ: 115.12292
RT: 6.854699999999999
ExactMass: 114.115698455
Spectrum_type: 2
charge: 1
Formula: C6H14N2
SMILES: C1CCC(C(C1)N)N
Method: HCD
Collision_energy: [28.333334]
Isolation_window: 4.0
Ion_mode: P
Num Peaks: 10
70.0654	13.1
72.0811	3.7
79.0544	5.0
81.0701	21.8
86.0601	5.1
98.0964	10.9
114.0913	50.6
115.0946	3.7
115.1229	100.0
116.1261	6.4

Name: 1,2-Dihydroxyheptadec-16-en-4-yl acetate
PrecursorMZ: 346.29506
RT: 0.5385
ExactMass: 328.26135963
Spectrum_type: 2
charge: 1
Formula: C19H36O4
SMILES: CC(=O)OC(CCCCCCCCCCCC=C)CC(CO)O
Method: HCD
Collision_energy: [28.333334]
Isolation_window: 4.0
Ion_mode: P
Num Peaks: 104
57.0704	18.3
59.0497	10.7
59.0609	7.9
67.0548	9.1
69.0704	14.9
71.0860	14.8
73.0473	49.1
81.0703	17.0
83.0860	19.0
85.0653	4.7
85.1015	7.7
87.0443	2.9
89.0601	15.1
91.0578	74.6
92.0566	3.9
93.0702	9.5
95.0859	36.3
97.0651	8.2
97.1015	10.5
99.0446	3.3
99.0807	3.5
101.0601	10.4
103.0758	4.5
105.0338	29.6
105.0702	2.8
106.0371	3.3
107.0858	21.8
109.1015	26.8
111.0808	5.0
111.1171	4.0
113.0601	6.5
114.0738	3.4
119.0857	4.4
121.0864	14.4
121.1014	19.4
123.0808	4.0
123.1171	11.1
125.0963	6.3
129.0184	67.0
130.0218	3.6
133.0862	3.9
133.1012	4.9
135.1170	65.4
136.1203	7.3
137.0963	2.9
137.1326	4.7
139.0032	3.5
139.1118	2.7
147.1175	3.9
149.0599	8.0
149.1327	11.2
151.0967	8.8
151.1116	2.6
151.1483	4.7
153.1277	17.6
157.0132	6.2
161.1327	3.0
163.0756	100.0
164.0789	11.9
177.1274	4.7
185.0810	49.9
186.0846	4.3
191.1796	54.5
192.1831	9.1
209.1905	6.2
259.1540	14.3
268.9781	4.1
285.0099	46.1
286.0102	9.6
287.0077	6.4
303.0208	4.1
333.2739	3.5
335.2954	5.5
346.2951	6.7
346.3320	7.7
347.2360	3.0
349.2543	4.5
350.3055	3.0
351.1969	2.7
351.2721	10.1
352.3209	6.6
353.0790	7.0
353.2094	27.3
353.2862	14.1
354.2117	6.1
354.2904	3.6
354.3359	4.6
355.0701	63.1
355.3016	7.6
356.0710	23.8
356.3515	3.8
357.0685	14.2
358.0697	4.4
358.3697	3.1
359.0288	10.6
360.0291	3.7
360.3112	16.9
361.2572	3.5
361.3131	3.6
362.3269	7.4
363.2730	4.4
365.1364	4.3
365.2884	4.3
373.0808	5.0

Name: 1,3,5-Trimethoxy-2-(2,4,6-trimethoxyphenyl)benzene
PrecursorMZ: 335.14639
RT: 1.5667
ExactMass: 334.14163842
Spectrum_type: 2
charge: 1
Formula: C18H22O6
SMILES: COC1=CC(=C(C(=C1)OC)C2=C(C=C(C=C2OC)OC)OC)OC
Method: HCD
Collision_energy: [28.333334]
Isolation_window: 4.0
Ion_mode: P
Num Peaks: 12
60.0448	8.2
83.0494	7.7
258.1122	4.6
281.0803	5.4
285.1230	10.7
316.1170	6.2
317.1493	7.9
334.1279	6.4
335.1462	100.0
336.1491	13.7
336.2893	32.9
337.1422	12.3

Name: 1,3,6,8-Tetrahydroxy-2-(1-hydroxyhexyl)anthraquinone
PrecursorMZ: 373.12754
RT: 4.3473
ExactMass: 372.12090297
Spectrum_type: 2
charge: 1
Formula: C20H20O7
SMILES: CCCCCC(C1=C(C=C2C(=C1O)C(=O)C3=C(C2=O)C=C(C=C3O)O)O)O
Method: HCD
Collision_energy: [28.333334]
Isolation_window: 4.0
Ion_mode: P
Num Peaks: 205
69.0340	0.5
70.0656	3.0
71.0497	0.4
72.0811	0.6
74.0605	0.6
81.0340	1.1
82.0656	0.6
83.0498	0.5
84.0448	1.9
84.0812	6.2
85.0288	0.7
85.0847	0.4
86.0604	0.9
86.0968	2.0
87.0444	1.1
90.0554	0.4
95.0496	0.4
96.0448	0.5
97.0287	0.7
98.0604	0.8
99.0441	0.8
100.0762	0.5
101.0601	2.0
102.0552	2.0
110.0605	0.7
111.0445	0.9
112.0760	0.5
113.0602	0.4
114.0553	0.8
114.0665	0.6
116.0708	2.8
117.0551	0.5
118.0864	0.6
122.0603	0.5
123.0443	0.6
126.0550	0.9
126.0919	0.4
127.0395	0.5
128.0708	2.5
129.0550	0.4
129.0664	0.8
129.1024	1.0
130.0502	1.5
130.0865	2.9
132.0659	0.6
132.0774	0.8
134.0451	0.4
136.0762	0.4
137.0601	0.6
138.0551	0.6
139.0394	1.3
140.0709	0.5
141.0656	1.1
142.0864	0.7
144.0658	1.0
144.1019	0.7
147.0781	0.5
147.1129	0.6
148.0607	2.5
150.0542	0.5
152.0704	0.5
154.0500	0.4
156.0659	0.5
163.0394	0.6
163.0751	0.5
164.0710	0.4
165.0551	0.4
168.0643	0.5
168.1020	0.9
170.0572	0.4
170.0815	0.5
173.0942	0.4
175.1191	0.4
180.0646	0.7
181.0471	0.6
181.0633	0.5
182.0787	0.6
183.0894	0.8
184.0740	0.6
185.0937	0.4
187.1114	0.4
188.0924	0.6
191.1068	0.4
192.0653	0.6
194.0792	0.6
196.0950	0.5
197.1295	1.0
198.1126	0.8
199.0718	1.4
199.1098	0.6
202.0866	0.8
206.0839	0.5
206.1007	0.5
209.0929	0.5
210.0743	0.5
212.1058	0.6
213.0887	0.5
213.1237	0.7
215.1064	0.4
215.1390	0.8
216.1220	1.0
217.1226	0.5
222.0744	0.5
225.0910	0.6
225.1254	0.5
227.1035	0.5
229.1172	0.6
232.1180	1.5
233.1153	0.6
237.0884	0.4
239.0710	0.8
240.1018	0.5
241.0844	0.6
243.1347	0.9
248.0912	0.7
251.1290	0.4
253.0856	3.9
254.1040	0.4
255.1002	0.5
255.1319	0.5
258.1087	2.8
263.0702	0.4
269.0816	0.5
271.0965	12.2
272.0990	1.9
276.1205	0.5
277.0863	1.0
279.1004	0.4
281.0809	16.2
282.0853	2.9
283.0966	3.3
284.0959	0.5
285.1125	3.7
285.1477	0.6
286.1166	0.6
287.0692	0.5
295.0969	2.2
296.0925	0.5
297.0752	0.5
298.0833	3.4
299.0902	1.9
300.0871	0.5
301.0705	1.0
301.1066	1.9
303.1574	0.6
309.1115	1.4
311.0917	1.4
313.1070	89.1
313.1823	0.6
314.1103	13.0
315.1132	1.9
321.1721	0.5
323.0908	0.9
327.1223	1.3
329.1021	6.2
330.1041	1.4
331.1596	0.8
333.1075	2.3
333.1414	1.6
337.1068	1.3
344.1368	0.5
351.1173	1.4
355.0252	0.6
355.1177	100.0
355.1516	1.7
355.1877	0.6
355.2096	0.6
356.1206	16.6
357.1250	2.8
358.1258	0.6
362.1352	0.4
371.1060	0.7
371.1470	0.5
372.1121	0.5
372.1764	0.7
373.1274	22.1
373.1683	3.1
374.1235	5.1
375.1362	1.4
375.1836	5.5
376.1369	7.4
377.1688	8.7
378.1709	2.2
379.1100	1.8
379.1612	1.1
379.1696	1.1
380.1482	1.8
381.1210	0.8
381.1721	1.0
382.1632	1.5
383.1248	2.6
384.1327	1.4
384.1852	0.7
385.1228	0.5
385.1667	1.9
386.1506	2.1
387.1221	5.9
387.1786	1.3
388.1255	1.5
388.1749	2.1
389.1197	0.7
389.1617	1.4
390.1235	1.5
390.1888	0.8
391.1840	2.3

Name: 1,3-Bis(aminomethyl)cyclohexane
PrecursorMZ: 143.15432
RT: 6.2371
ExactMass: 142.146998583
Spectrum_type: 2
charge: 1
Formula: C8H18N2
SMILES: C1CC(CC(C1)CN)CN
Method: HCD
Collision_energy: [28.333334]
Isolation_window: 4.0
Ion_mode: P
Num Peaks: 8
62.9295	4.5
67.0546	3.7
103.9559	4.8
121.9663	39.3
126.1279	3.7
143.1544	100.0
144.1576	8.3
145.0760	3.5

Name: 1,3-Dideacetyl-7-deacetoxy-7-oxokhivorin
PrecursorMZ: 459.23707
RT: 1.5283
ExactMass: 458.23045342
Spectrum_type: 2
charge: 1
Formula: C26H34O7
SMILES: C[C@@]12CCC3[C@]4([C@H](C[C@H](C(C4CC(=O)[C@]3(C15C(O5)C(=O)O[C@H]2C6=COC=C6)C)(C)C)O)O)C
Method: HCD
Collision_energy: [28.333334]
Isolation_window: 4.0
Ion_mode: P
Num Peaks: 115
51.0266	4.8
67.0546	10.3
69.0702	6.5
81.0337	9.9
81.0701	7.5
83.0859	4.2
93.0700	4.8
95.0493	80.6
95.0857	8.1
96.0526	5.8
97.1012	3.1
105.0700	3.3
107.0492	4.1
107.0856	6.2
109.0648	4.5
109.1012	7.6
119.0854	6.2
121.0647	3.8
121.1011	8.7
123.0804	2.8
123.1167	5.2
131.0853	3.2
133.1010	7.0
135.1167	7.1
137.0959	3.9
137.1323	6.0
143.0854	3.7
145.0645	3.5
145.1011	4.5
147.0803	3.4
147.1167	6.5
149.0960	6.5
149.1322	3.3
151.0750	3.6
151.1116	5.5
157.1010	3.6
159.0804	4.0
159.1167	3.9
161.0961	4.0
161.1324	4.9
163.1116	2.8
165.0909	35.2
166.0940	5.4
169.1011	3.6
171.0803	4.8
171.1168	5.5
173.0959	6.0
173.1326	3.7
177.0907	4.5
185.0960	4.6
185.1322	3.3
187.1114	3.6
189.0908	2.7
189.1272	3.2
191.1066	3.9
197.0961	3.0
197.1322	3.0
199.1116	4.5
199.1478	3.8
201.1273	3.8
203.1063	4.6
205.0857	3.0
205.1217	5.7
209.1320	3.4
211.1116	4.9
213.1275	4.0
217.0857	2.9
223.1117	3.6
223.1479	3.1
225.1267	4.2
227.1065	3.3
227.1423	5.8
229.1223	2.8
233.1323	3.1
235.1479	2.9
237.1267	3.5
239.1427	3.3
243.1374	3.9
251.1429	4.2
253.1219	2.8
263.1424	3.5
265.1583	2.8
269.1530	3.2
277.1585	3.1
279.1377	3.1
287.1637	4.3
293.1891	4.7
295.1684	3.2
305.1745	6.1
321.1842	9.8
335.1999	6.8
337.1792	9.2
339.1946	12.1
340.1987	3.2
345.1845	2.8
353.2108	7.4
355.1903	3.7
363.1959	10.6
364.1988	4.1
381.2054	30.4
382.2090	8.4
399.2160	53.1
400.2194	11.6
405.2049	5.8
423.2165	5.5
439.3204	4.4
440.3237	4.2
441.2267	5.1
457.3307	3.2
458.3348	3.7
459.2371	100.0
459.3443	2.8
460.2411	24.1
460.3438	3.4
461.2409	3.0

Name: 1,3-Dimethoxy-2-hydroxy-10-methyl-9(10h)-acridinone
PrecursorMZ: 286.10685
RT: 8.3374
ExactMass: 285.10010796
Spectrum_type: 2
charge: 1
Formula: C16H15NO4
SMILES: CN1C2=CC=CC=C2C(=O)C3=C(C(=C(C=C31)OC)O)OC
Method: HCD
Collision_energy: [28.333334]
Isolation_window: 4.0
Ion_mode: P
Num Peaks: 16
69.7244	3.0
120.0807	100.0
121.0840	7.7
168.0687	3.2
214.0859	4.3
214.1222	3.6
229.1090	12.7
242.1170	9.8
273.0988	3.4
284.1605	3.0
285.1802	4.9
286.1066	85.2
286.1404	4.0
287.1111	11.9
287.1379	3.3
288.1221	53.3

Name: 1,3-Dimethyl-2-imidazolidinone
PrecursorMZ: 115.08668
RT: 7.8588
ExactMass: 114.079312947
Spectrum_type: 2
charge: 1
Formula: C5H10N2O
SMILES: CN1CCN(C1=O)C
Method: HCD
Collision_energy: [28.333334]
Isolation_window: 4.0
Ion_mode: P
Num Peaks: 19
56.0499	7.3
58.0655	2.6
70.0654	7.2
72.0447	2.4
72.0811	8.3
74.9378	1.4
84.0447	12.8
86.0602	1.1
92.9482	1.0
98.0601	2.2
100.0632	4.3
114.0664	1.0
114.0914	10.1
115.0866	100.0
115.0947	1.2
115.1230	3.0
116.0706	1.5
116.0899	5.5
116.1071	0.9

Name: 1,3-dichloro-7-hydroxy-9,9-dimethylacridin-2(9H)-one
PrecursorMZ: 202.21641
RT: 5.143
ExactMass: 307.016684
Spectrum_type: 2
charge: 1
Formula: C15H11Cl2NO2
SMILES: CC1(C2=CC(=O)C=CC2=NC3=CC(=C(C(=C31)Cl)O)Cl)C
Method: HCD
Collision_energy: [28.333334]
Isolation_window: 4.0
Ion_mode: P
Num Peaks: 10
57.0703	4.3
62.0605	7.5
71.0859	1.9
85.1016	2.2
144.9274	4.7
160.9015	7.9
184.2059	4.7
200.2378	2.0
202.2165	100.0
203.2199	12.9

Name: 1,4-Cyclohexanedicarboxylic acid
PrecursorMZ: 173.0784
RT: 1.799
ExactMass: 172.07355886
Spectrum_type: 2
charge: 1
Formula: C8H12O4
SMILES: C1CC(CCC1C(=O)O)C(=O)O
Method: HCD
Collision_energy: [28.333334]
Isolation_window: 4.0
Ion_mode: P
Num Peaks: 12
86.0603	1.4
97.3999	1.6
100.1122	2.4
109.1014	2.4
114.0915	1.4
126.0914	2.4
156.1019	7.5
171.1492	2.1
172.0971	2.3
173.0785	100.0
174.0818	5.1
174.0913	2.0

Name: 1,4-Dihydro-1-methyl-4-oxo-3-pyridinecarboxamide
PrecursorMZ: 153.0659
RT: 5.3782
ExactMass: 152.058577502
Spectrum_type: 2
charge: 1
Formula: C7H8N2O2
SMILES: CN1C=CC(=O)C(=C1)C(=O)N
Method: HCD
Collision_energy: [28.333334]
Isolation_window: 4.0
Ion_mode: P
Num Peaks: 29
67.0546	1.5
89.0601	1.0
95.0606	2.2
97.3989	1.0
107.0606	4.2
107.0730	1.1
108.0445	11.8
109.0762	11.2
126.0550	9.5
134.0596	1.4
135.0553	51.5
136.0393	4.2
136.0586	3.3
136.0757	1.4
137.0709	8.5
151.0617	2.6
151.0866	0.9
152.0706	32.8
152.1070	3.8
153.0659	100.0
153.0710	1.1
153.0733	2.4
153.1022	1.6
153.1387	3.8
154.0498	8.2
154.0692	6.9
154.0863	5.8
154.0973	1.1
155.0815	5.7

Name: 1,4-Dihydro-4-oxo-6-(phenylmethyl)-3-pyridinecarboxamide
PrecursorMZ: 229.09697
RT: 3.6241
ExactMass: 228.08987763
Spectrum_type: 2
charge: 1
Formula: C13H12N2O2
SMILES: C1=CC=C(C=C1)CC2=CC(=O)C(=CN2)C(=O)N
Method: HCD
Collision_energy: [28.333334]
Isolation_window: 4.0
Ion_mode: P
Num Peaks: 43
69.0702	2.2
74.0240	4.7
86.0968	3.1
95.0857	1.5
96.0810	8.4
114.0915	7.0
116.0708	3.4
120.0443	2.7
129.0699	7.6
130.0651	2.5
144.0808	1.7
146.0601	2.9
156.0808	100.0
157.0840	11.1
158.0600	32.0
158.0964	9.9
159.0632	3.4
168.0807	6.2
174.0913	2.4
183.0916	55.3
184.0758	2.3
184.0949	6.9
185.1071	9.4
187.0867	9.2
188.0708	2.4
201.1021	53.3
202.1056	7.6
209.1647	8.5
210.1680	1.7
214.0735	4.0
227.1752	39.4
228.0765	28.6
228.1787	9.7
228.2322	2.7
229.0493	3.2
229.0800	4.3
229.0970	66.4
229.1418	5.4
230.0811	2.6
230.0918	13.8
230.1024	7.2
230.1174	8.2
231.1119	2.4

Name: 1,5,5-Trimethylimidazolidine-2,4-dione
PrecursorMZ: 143.08136
RT: 5.0776
ExactMass: 142.074227566
Spectrum_type: 2
charge: 1
Formula: C6H10N2O2
SMILES: CC1(C(=O)NC(=O)N1C)C
Method: HCD
Collision_energy: [28.333334]
Isolation_window: 4.0
Ion_mode: P
Num Peaks: 11
72.0810	37.9
73.0842	1.7
86.0965	2.0
97.0760	7.5
98.0600	4.5
121.9660	3.5
143.0812	100.0
144.0802	1.8
144.0848	7.1
144.1015	1.9
145.0756	3.9

Name: 1,5,6,7-Tetrahydro-4H-indol-4-one
PrecursorMZ: 136.07548
RT: 4.9191
ExactMass: 135.068413911
Spectrum_type: 2
charge: 1
Formula: C8H9NO
SMILES: C1CC2=C(C=CN2)C(=O)C1
Method: HCD
Collision_energy: [28.333334]
Isolation_window: 4.0
Ion_mode: P
Num Peaks: 102
53.0389	2.9
56.0498	2.8
65.0388	1.4
67.0545	2.3
68.0497	3.2
69.0206	1.4
69.0302	1.4
69.0449	1.3
69.1461	1.1
69.1761	1.0
69.2057	0.9
69.2112	1.1
69.2234	0.8
69.2254	0.6
69.5299	0.7
69.6615	0.8
69.6647	0.6
69.8319	0.7
69.8637	0.6
70.0290	0.7
70.0653	0.9
77.0387	1.0
78.9850	1.4
79.0291	0.6
79.0544	1.4
80.0496	1.5
81.0336	0.9
81.0448	0.9
81.0700	2.3
82.0653	0.7
83.0604	0.7
84.0319	1.1
91.0543	19.3
92.0576	1.6
93.0447	7.1
93.0573	3.5
93.0699	13.5
94.0414	0.9
94.0481	0.8
94.0525	4.9
94.0651	1.4
94.0732	1.1
95.0491	8.2
95.0603	6.4
95.0729	1.0
96.0444	0.7
96.0555	3.9
96.0681	2.3
97.0633	1.3
97.0759	1.0
97.4563	1.3
105.0447	2.1
107.0490	0.8
107.0602	0.9
107.0855	0.7
108.0443	1.9
108.0554	0.6
108.0807	8.0
109.0646	1.1
109.0759	5.5
109.0840	0.7
110.0600	1.1
110.0711	3.7
110.0963	1.3
118.0650	0.9
119.0490	2.2
119.0601	0.6
120.0554	0.9
121.0282	1.5
121.0757	0.8
122.0360	1.9
123.0676	4.2
126.0547	6.4
134.0709	8.3
135.0550	1.1
135.0662	2.9
135.0741	1.6
135.0790	5.8
135.0914	3.3
136.0212	2.6
136.0615	22.3
136.0666	0.8
136.0715	2.2
136.0754	100.0
136.0864	14.1
137.0455	7.3
137.0593	18.1
137.0648	1.0
137.0706	1.1
137.0786	9.7
137.0820	12.8
137.0891	0.9
137.0959	1.5
137.1070	32.4
138.0182	2.0
138.0546	5.0
138.0624	0.7
138.0658	1.3
138.0909	35.9
138.1021	6.2
138.1100	1.2
140.0705	0.6

Name: 1,5-Diaminonaphthalene
PrecursorMZ: 159.09164
RT: 7.307
ExactMass: 158.084398327
Spectrum_type: 2
charge: 1
Formula: C10H10N2
SMILES: C1=CC2=C(C=CC=C2N)C(=C1)N
Method: HCD
Collision_energy: [28.333334]
Isolation_window: 4.0
Ion_mode: P
Num Peaks: 42
55.0546	0.9
60.0812	6.1
70.0654	1.1
70.2444	0.6
72.0811	0.8
83.0493	0.7
95.0605	2.1
96.0808	0.9
98.0965	2.3
101.0598	7.8
112.0758	0.7
112.1121	2.5
114.0550	0.6
114.0914	2.2
115.0542	0.8
117.0573	1.0
118.0650	1.6
130.0650	12.3
131.0683	1.5
132.0806	40.9
133.0839	3.7
142.0649	4.8
142.0861	1.2
143.0729	1.4
157.0607	0.6
157.0759	10.0
157.1698	0.9
158.0600	1.5
158.0791	2.1
158.0838	2.5
158.0965	6.0
158.1037	0.7
158.1174	100.0
158.1538	2.2
159.0773	0.8
159.0915	76.0
159.1207	7.7
160.0755	10.4
160.0957	13.0
160.1329	29.5
161.0707	0.7
161.0788	1.1

Name: 1,5-Dihydroxy-2,3-Dimethoxy-10-Methyl-9-Acridone
PrecursorMZ: 302.10196
RT: 2.5808
ExactMass: 301.09502258
Spectrum_type: 2
charge: 1
Formula: C16H15NO5
SMILES: CN1C2=CC(=C(C(=C2C(=O)C3=C1C(=CC=C3)O)O)OC)OC
Method: HCD
Collision_energy: [28.333334]
Isolation_window: 4.0
Ion_mode: P
Num Peaks: 26
107.0493	0.9
204.1016	0.9
211.0754	0.7
219.0289	0.9
225.1233	0.8
239.0705	1.8
242.0578	0.9
243.0644	1.9
257.0808	3.5
258.0835	0.8
261.0753	0.9
284.0917	46.1
285.0720	1.8
285.0992	7.1
286.0989	0.8
289.0705	7.5
290.0744	1.1
302.1023	100.0
303.1057	17.4
304.1073	3.0
307.1287	0.9
309.1817	2.0
313.1518	0.8
315.0960	0.9
318.0965	6.1
319.0995	0.9

Name: 1,6-O,O-Diacetylbritannilactone
PrecursorMZ: 373.15998
RT: 6.6249
ExactMass: 350.17293854
Spectrum_type: 2
charge: 1
Formula: C19H26O6
SMILES: CC1=C([C@@H]([C@H]2[C@@H](C1)OC(=O)C2=C)OC(=O)C)[C@@H](C)CCCOC(=O)C
Method: HCD
Collision_energy: [28.333334]
Isolation_window: 4.0
Ion_mode: P
Num Peaks: 10
223.1074	9.6
253.1179	7.5
265.1175	10.5
283.1285	11.0
313.1387	22.2
343.1491	7.5
355.1490	10.1
373.1596	100.0
374.1621	20.5
375.1373	6.6

Name: 1,7-Dimethyluric Acid
PrecursorMZ: 197.06674
RT: 3.0597
ExactMass: 196.05964013
Spectrum_type: 2
charge: 1
Formula: C7H8N4O3
SMILES: CN1C2=C(NC1=O)NC(=O)N(C2=O)C
Method: HCD
Collision_energy: [28.333334]
Isolation_window: 4.0
Ion_mode: P
Num Peaks: 12
140.0452	30.0
150.0912	3.5
153.0656	3.5
157.0480	5.6
158.0558	6.4
178.0859	17.2
195.1128	3.4
196.0589	11.3
196.0965	17.1
197.0665	100.0
197.0916	6.4
198.0700	5.7

Name: 1,8-Dihydroxy-3,7-dimethoxyxanthone
PrecursorMZ: 289.07027
RT: 4.471
ExactMass: 288.0633881
Spectrum_type: 2
charge: 1
Formula: C15H12O6
SMILES: COC1=C(C2=C(C=C1)OC3=CC(=CC(=C3C2=O)O)OC)O
Method: HCD
Collision_energy: [28.333334]
Isolation_window: 4.0
Ion_mode: P
Num Peaks: 40
70.0655	1.3
84.0812	1.2
86.0604	1.3
87.0443	2.0
104.0709	0.6
114.0665	0.8
116.0710	0.7
125.0234	3.8
128.0707	0.8
128.0818	0.9
129.0661	0.9
130.0864	0.9
144.0657	1.6
146.0925	17.7
147.0965	1.1
162.0770	0.6
165.0655	0.6
182.0931	1.7
194.0922	1.3
195.0763	0.9
198.0876	0.8
200.1029	14.6
201.1065	1.0
212.1029	3.5
216.0981	0.7
254.1134	0.7
272.1241	7.1
273.1050	2.0
287.1296	0.8
288.0829	0.6
288.1471	0.7
290.1345	100.0
290.2018	0.7
291.1392	12.2
292.1044	0.6
292.1399	2.0
299.1240	1.0
302.1038	1.9
305.1367	0.7
308.1413	0.7

Name: 1,9-Dimethylguanine
PrecursorMZ: 180.08789
RT: 5.2224
ExactMass: 179.08070993
Spectrum_type: 2
charge: 1
Formula: C7H9N5O
SMILES: CN1C=NC2=C1N=C(N(C2=O)C)N
Method: HCD
Collision_energy: [28.333334]
Isolation_window: 4.0
Ion_mode: P
Num Peaks: 54
60.0447	0.7
69.2366	0.9
73.0109	1.0
81.0336	0.7
88.0394	2.5
91.0213	3.2
91.0543	5.5
92.0246	0.7
97.4567	1.0
107.0491	0.8
108.0807	1.7
110.0599	0.7
122.0600	1.4
124.0504	3.3
133.0758	1.3
134.0597	0.7
135.0438	0.8
135.0913	0.8
136.0754	7.6
137.0596	0.9
138.0911	0.7
140.0338	1.0
142.0608	2.1
161.0707	7.0
162.0547	3.6
162.0739	1.9
162.0912	0.7
163.0387	13.7
163.0610	2.3
163.0862	1.5
164.0420	1.3
164.0703	5.4
165.0545	0.9
167.0560	1.7
178.0859	4.4
178.0972	5.8
179.0697	0.8
179.0813	7.3
179.0893	1.2
179.1001	1.3
179.1176	1.1
180.0655	8.9
180.0809	4.4
180.0876	100.0
180.1015	6.3
180.1376	1.2
181.0602	0.7
181.0717	10.7
181.0842	1.7
181.0906	4.3
181.0968	13.3
181.1333	0.9
182.0811	3.9
182.1169	1.3

Name: 1,9-Dimethyluric acid
PrecursorMZ: 197.06649
RT: 2.2298
ExactMass: 196.05964013
Spectrum_type: 2
charge: 1
Formula: C7H8N4O3
SMILES: CN1C2=C(C(=O)N(C(=O)N2)C)NC1=O
Method: HCD
Collision_energy: [28.333334]
Isolation_window: 4.0
Ion_mode: P
Num Peaks: 45
58.0290	1.4
67.0293	1.5
68.0371	2.7
86.0601	1.4
89.0597	77.5
90.0631	6.0
95.0239	3.2
95.0604	3.2
98.0601	4.2
107.0702	4.2
108.0807	2.2
110.0348	2.0
111.0426	1.4
112.0868	2.2
125.0233	1.5
133.0856	13.6
134.0888	2.4
137.0593	10.1
138.0182	3.9
140.0451	37.0
141.0484	1.9
151.0862	6.2
151.0960	2.0
152.0703	1.4
152.1065	3.5
153.1019	6.4
156.0286	1.4
156.0400	3.2
157.0479	15.3
158.0559	5.4
168.1015	1.9
178.0857	1.4
180.0648	1.7
180.1013	1.5
182.0428	2.0
195.0507	6.7
195.0759	1.9
195.1223	3.6
196.0586	22.1
196.0717	1.5
196.0963	3.6
196.1439	2.3
197.0663	100.0
197.0908	5.8
198.0698	8.0

Name: 1-((1,3-Dioxo-2,3-dihydro-1H-isoindol-2-YL)methyl)-5-methyl-decahydroquinolizin-5-ium
PrecursorMZ: 313.19109
RT: 6.3381
ExactMass: 313.191603044
Spectrum_type: 2
charge: 1
Formula: C19H25N2O2+
SMILES: C[N+]12CCCCC1C(CCC2)CN3C(=O)C4=CC=CC=C4C3=O
Method: HCD
Collision_energy: [28.333334]
Isolation_window: 4.0
Ion_mode: P
Num Peaks: 77
55.0547	9.8
59.0496	2.5
70.0656	6.3
72.0812	12.6
80.0498	5.3
81.0339	6.1
83.0495	7.6
84.0812	2.6
86.0968	3.1
98.0967	2.4
101.0600	32.6
102.0633	1.9
105.0701	1.8
107.0494	3.8
107.0606	4.6
108.0446	1.8
110.0715	2.4
111.0444	2.3
114.0664	6.0
114.0914	2.0
116.0708	14.4
120.0809	4.5
122.0841	2.4
123.0441	2.7
125.0710	11.3
146.0601	6.7
146.0925	2.3
147.0442	1.8
149.0600	2.3
150.0914	6.5
151.0503	2.4
152.0708	2.9
156.0765	3.4
160.0757	2.4
165.0547	1.8
171.1494	5.2
176.8753	2.3
188.0706	5.9
199.1441	3.8
212.1070	2.9
213.1386	46.8
214.1424	6.1
215.1384	2.3
220.1332	7.9
267.1492	3.0
280.1657	4.2
294.1092	4.0
294.1332	5.2
311.1389	2.0
311.1747	4.5
311.1965	4.7
311.2324	2.5
312.1066	3.0
312.1225	12.5
312.1433	9.9
312.1589	13.9
312.1945	10.1
312.2282	9.8
313.1183	16.6
313.1402	2.1
313.1549	33.1
313.1757	6.0
313.1911	100.0
313.2115	7.3
313.2492	2.1
314.1020	8.1
314.1225	9.6
314.1387	26.7
314.1570	5.9
314.1746	4.9
314.1941	16.8
314.2091	6.1
314.2691	1.8
315.1330	13.1
315.1703	18.4
315.1920	2.6
315.2080	1.8

Name: 1-((2-Hydroxy-3-methoxypropyl)(2-hydroxyethyl)amino)-3-(1H-indol-1-YL)propan-2-OL
PrecursorMZ: 323.19601
RT: 1.8452
ExactMass: 322.18925731
Spectrum_type: 2
charge: 1
Formula: C17H26N2O4
SMILES: COCC(CN(CCO)CC(CN1C=CC2=CC=CC=C21)O)O
Method: HCD
Collision_energy: [28.333334]
Isolation_window: 4.0
Ion_mode: P
Num Peaks: 12
55.0546	9.6
83.0857	35.7
126.0912	100.0
127.0946	6.7
138.0911	4.8
166.0860	41.0
167.0894	3.6
198.1120	10.8
291.1696	76.0
292.1731	11.5
323.1957	46.0
324.1988	7.1

Name: 1-((3-methoxypropyl)amino)-3-methyl-2H-naphtho(1,2,3-de)quinoline-2,7(3H)-dione
PrecursorMZ: 349.15973
RT: 6.5043
ExactMass: 348.1473925
Spectrum_type: 2
charge: 1
Formula: C21H20N2O3
SMILES: CN1C2=CC=CC3=C2C(=C(C1=O)NCCCOC)C4=CC=CC=C4C3=O
Method: HCD
Collision_energy: [28.333334]
Isolation_window: 4.0
Ion_mode: P
Num Peaks: 10
70.0654	76.4
81.0337	10.0
84.0445	9.9
112.0756	100.0
115.0866	9.8
175.1074	21.3
331.1486	33.2
348.1812	10.2
349.1591	38.1
350.2079	13.5

Name: 1-((3-methoxypropyl)amino)-3-methyl-2H-naphtho)1,2,3-de(quinoline-2,7(3H)-dione
PrecursorMZ: 349.1603
RT: 13.06
ExactMass: 348.1473925
Spectrum_type: 2
charge: 1
Formula: C21H20N2O3
SMILES: CN1C2=CC=CC3=C2C(=C(C1=O)NCCCOC)C4=CC=CC=C4C3=O
Method: HCD
Collision_energy: [28.333334]
Isolation_window: 4.0
Ion_mode: P
Num Peaks: 10
169.0973	3.3
230.1258	3.1
258.1211	2.1
259.1290	25.5
260.1323	3.1
349.1607	100.0
350.1639	15.8
351.1653	1.7
356.3515	1.7
365.1550	1.9

Name: 1-((9E)-octadecenoyl)glycerol
PrecursorMZ: 339.28894
RT: 0.7896
ExactMass: 356.29265975
Spectrum_type: 2
charge: 1
Formula: C21H40O4
SMILES: CCCCCCCC/C=C/CCCCCCCC(=O)OCC(CO)O
Method: HCD
Collision_energy: [28.333334]
Isolation_window: 4.0
Ion_mode: P
Num Peaks: 25
55.0546	10.9
57.0339	13.0
57.0703	16.3
67.0546	12.0
69.0702	29.0
71.0858	12.3
81.0701	20.9
83.0857	23.4
85.1014	7.9
93.0700	5.1
95.0856	24.3
97.1012	15.8
97.4584	6.4
107.0857	5.0
109.1012	15.5
111.1169	4.8
121.1011	9.0
123.1167	4.8
135.1166	8.9
149.1324	4.9
338.3409	14.8
339.2886	100.0
340.2920	23.7
341.2700	5.7
341.3047	24.1

Name: 1-(1,4-dioxa-8-azaspiro)4.5(dec-8-yl)-2-)methyl)3-methyl-1-(4-methylphenyl)-1H-pyrazolo)3,4-d()1,3(thiazol-5-yl(amino-1-ethanone
PrecursorMZ: 442.19158
RT: 3.3342
ExactMass: 441.18346091
Spectrum_type: 2
charge: 1
Formula: C22H27N5O3S
SMILES: CC1=CC=C(C=C1)N2C3=C(C(=N2)C)SC(=N3)N(C)CC(=O)N4CCC5(CC4)OCCO5
Method: HCD
Collision_energy: [28.333334]
Isolation_window: 4.0
Ion_mode: P
Num Peaks: 163
56.0500	9.0
59.0609	5.7
60.0449	5.0
69.0339	13.3
70.0656	71.8
72.0812	49.5
73.0288	5.2
74.0240	5.2
74.0604	7.6
81.0339	21.3
82.0656	5.2
83.0495	5.7
84.0448	28.6
84.0812	61.4
85.0288	33.1
86.0604	7.8
86.0968	33.4
87.0444	10.7
88.0398	7.5
89.0598	5.9
95.0495	5.3
96.0447	13.8
97.0286	19.2
98.0605	7.7
98.0967	17.5
99.0442	16.0
100.0764	5.7
101.0713	6.2
102.0553	16.8
102.0915	5.5
109.0286	5.1
110.0604	8.9
110.0715	12.7
111.0444	13.1
112.0757	9.0
114.0552	8.9
115.0392	5.6
116.0709	37.4
118.0864	29.5
120.0810	14.7
122.0603	8.5
124.0758	7.1
126.0550	19.7
126.0913	5.9
127.0392	19.4
128.0708	16.7
129.0661	6.3
129.1025	11.4
130.0499	19.2
130.0865	37.1
132.1018	7.3
136.0395	5.9
136.0759	12.3
137.0598	5.2
138.0550	10.7
138.0914	5.3
140.0709	13.8
141.0658	10.7
142.0503	5.5
142.0863	12.6
144.0657	9.7
144.1020	6.3
145.0497	15.8
147.0764	12.3
147.1129	8.2
148.0607	12.8
149.0267	5.1
150.0550	5.6
150.0913	13.5
152.0708	6.9
154.0498	8.0
154.0862	11.3
156.0654	5.1
156.0773	8.8
156.1022	8.0
159.0771	5.7
162.0550	5.2
164.0704	10.2
165.0546	6.0
166.0527	21.2
166.0856	8.9
168.0653	7.7
170.0809	6.5
172.0967	11.9
173.0917	9.0
175.1199	10.3
178.0862	5.3
180.1017	5.5
181.0983	5.2
182.0447	9.1
182.0806	10.4
185.0920	14.7
186.0760	9.3
187.1080	12.2
188.0918	5.9
192.0648	6.4
194.0807	7.5
195.0781	5.7
195.1135	5.2
196.0600	6.8
196.0967	20.8
197.0930	5.1
197.1284	5.7
198.0913	5.4
198.1126	11.2
201.1241	5.4
203.0706	5.5
208.0604	8.7
211.1079	8.7
213.0874	5.5
213.1232	7.9
215.1381	7.1
216.1227	38.6
221.0811	7.3
223.0727	6.7
223.1070	10.5
234.1332	8.6
237.0878	5.7
239.1037	5.5
244.1173	37.6
245.1157	5.8
246.0432	5.1
251.1028	5.7
262.1287	100.0
263.1325	11.1
265.1199	5.0
269.1127	29.9
281.1142	5.6
313.1175	7.5
358.1070	5.2
373.1401	11.0
388.1165	9.6
421.1614	8.2
424.1825	65.6
425.1880	12.9
433.1597	14.0
434.1628	5.9
439.1705	7.1
441.1940	14.2
442.1927	18.9
443.1605	7.2
443.2144	10.8
444.1584	5.9
444.2123	13.0
445.1841	11.1
446.1622	12.9
446.2165	5.1
447.1721	12.1
448.1694	11.0
449.1639	8.9
449.2170	5.9
450.1878	17.5
451.1715	25.8
452.1695	11.3
453.1975	17.9
454.1830	16.7
455.1568	7.7
455.2265	11.3
456.1660	9.9
457.1763	15.9
458.1572	6.8
458.2224	10.1
459.1691	7.5

Name: 1-(1H-Imidazol-1-yl)ethanone
PrecursorMZ: 111.05541
RT: 2.7762
ExactMass: 110.048012819
Spectrum_type: 2
charge: 1
Formula: C5H6N2O
SMILES: CC(=O)N1C=CN=C1
Method: HCD
Collision_energy: [28.333334]
Isolation_window: 4.0
Ion_mode: P
Num Peaks: 13
56.0499	1.4
69.0451	1.6
70.0654	4.4
83.0606	13.4
85.0762	0.9
97.0397	26.1
110.0600	1.5
111.0553	100.0
111.0633	0.9
111.0919	0.9
112.0587	3.4
112.0631	15.6
113.0709	22.6

Name: 1-(2,2-Dimethoxyethyl)-5-methoxy-6-(methoxycarbonyl)-4-oxo-1,4-dihydropyridine-3-carboxylic acid
PrecursorMZ: 316.10231
RT: 5.4184
ExactMass: 315.0954165
Spectrum_type: 2
charge: 1
Formula: C13H17NO8
SMILES: COC1=C(N(C=C(C1=O)C(=O)O)CC(OC)OC)C(=O)OC
Method: HCD
Collision_energy: [28.333334]
Isolation_window: 4.0
Ion_mode: P
Num Peaks: 68
60.0447	19.8
70.0654	17.1
72.0810	5.2
81.0337	7.0
84.0446	9.1
84.0810	5.4
85.0285	4.7
86.0966	15.5
96.0444	6.6
98.0601	4.9
106.0652	5.4
107.0492	6.8
110.0601	4.5
116.0706	4.9
121.0284	5.7
122.0599	8.9
123.0440	6.3
126.0548	5.2
126.0913	10.0
132.0443	5.0
134.0598	9.2
135.0438	7.4
136.0391	9.0
138.0547	8.9
140.0704	6.7
141.1020	4.9
142.0497	4.4
148.0755	4.8
150.0548	20.1
151.0388	56.6
152.0420	4.3
152.0705	5.7
154.0497	6.5
157.0969	4.4
158.1174	5.5
168.0652	6.1
178.0495	24.8
179.0336	100.0
180.0369	10.5
182.0444	27.0
184.1078	6.9
185.0919	5.4
195.0916	5.1
196.0601	29.1
197.0443	10.6
200.1390	5.9
211.1073	8.4
220.0604	4.5
229.1540	8.4
238.0706	11.5
256.0815	7.6
257.0646	6.5
271.1441	4.4
298.0915	9.8
299.1019	11.5
300.1439	4.6
314.1364	5.0
314.1716	5.1
315.1343	13.2
315.1699	6.5
316.1017	52.1
316.1163	7.5
316.1323	5.1
316.1522	8.7
316.1875	4.4
317.1125	27.9
317.1486	20.7
318.1309	7.3

Name: 1-(2,3-Dihydropyrrol-1-yl)-8,9-dihydroxy-2-methyldecane-1,3-dione
PrecursorMZ: 284.18549
RT: 1.6677
ExactMass: 283.17835828
Spectrum_type: 2
charge: 1
Formula: C15H25NO4
SMILES: CC(C(CCCCC(=O)C(C)C(=O)N1CCC=C1)O)O
Method: HCD
Collision_energy: [28.333334]
Isolation_window: 4.0
Ion_mode: P
Num Peaks: 165
55.0547	0.8
58.0656	0.9
69.0340	0.8
69.0701	0.7
70.0656	2.6
72.0813	1.0
80.0500	1.5
81.0340	6.2
83.0497	1.3
84.0812	1.8
87.0443	0.9
89.0601	1.3
95.0607	0.8
96.0447	1.1
96.0811	2.2
98.0968	1.5
100.0761	1.0
100.1125	0.8
101.0601	4.6
105.0702	1.1
107.0858	1.5
110.0602	1.1
110.0716	0.9
111.0444	1.2
112.0761	0.7
112.0873	1.0
114.0667	2.2
114.1281	1.1
115.0867	0.6
116.0710	1.9
119.0607	1.2
122.0604	1.2
122.0811	1.3
124.0758	1.5
126.0551	0.7
126.0920	0.9
130.0865	1.2
132.0447	1.4
133.0860	0.7
134.0600	0.9
135.0919	0.7
136.0757	1.5
136.0869	0.8
138.0912	0.7
144.1023	0.8
146.0926	0.7
148.0756	0.9
149.1073	0.8
150.0911	1.3
150.1026	5.7
152.0709	1.1
152.1075	0.8
154.0865	0.9
156.1022	0.7
160.0759	1.2
160.0970	1.4
162.0915	0.8
163.0983	0.8
163.1230	0.9
164.0703	1.0
164.0822	0.7
164.1072	1.1
166.0853	0.7
167.1180	1.7
168.0684	1.1
172.0763	0.8
176.0832	1.1
178.0855	1.0
179.0946	1.1
179.1184	1.4
180.1019	2.6
182.0930	3.5
183.1131	0.8
189.1021	1.5
190.0864	1.0
192.1006	0.9
193.0967	1.5
193.1333	1.2
194.0928	4.2
195.0975	0.7
195.1130	12.8
196.0967	0.6
196.1156	1.1
200.0707	0.7
204.1242	0.7
209.1048	0.9
219.1119	7.0
220.1155	0.8
223.1190	0.7
233.1147	1.5
234.1227	6.1
235.1256	0.7
238.2169	0.7
244.1341	0.6
247.1305	23.8
248.1369	7.2
249.1444	0.8
250.1301	0.9
258.1115	1.0
266.1751	1.8
270.1120	1.3
273.1300	0.8
277.1590	0.8
280.1274	1.1
280.1565	1.3
282.1331	1.1
282.1725	2.5
282.2076	3.4
283.1112	1.3
283.1405	0.8
283.1728	1.7
283.2133	28.2
284.0946	1.1
284.1294	3.5
284.1864	7.4
284.2159	4.4
285.1248	4.1
285.1586	1.0
285.1909	5.1
286.1086	5.0
286.1443	3.4
286.3107	1.0
287.1089	1.6
287.1404	6.2
288.1253	9.2
288.1697	5.2
289.1230	4.1
289.1559	9.8
290.1033	1.2
290.1431	13.0
290.2697	0.7
291.1371	9.0
291.1714	8.4
292.1237	3.2
292.1579	6.3
293.1354	100.0
293.1881	5.3
294.1361	23.5
294.1771	3.9
295.1375	2.6
295.1681	5.0
295.2033	2.8
296.1497	4.4
296.1895	4.3
297.1240	4.9
297.1525	1.1
297.1825	5.5
298.1104	2.0
298.1703	1.5
299.1074	1.1
299.1403	2.8
299.1673	0.7
300.1221	7.9
300.1468	10.5
300.2166	4.7
301.1219	3.7
301.1538	6.3
301.2183	0.8
302.1024	1.3
302.1408	9.1
302.2328	1.1
303.1363	7.2
303.1712	2.6
304.1193	2.4
304.1628	5.6

Name: 1-(2,3-Dimethoxybenzoyl)-4-(3-methoxybenzoyl)piperazine
PrecursorMZ: 407.15723
RT: 4.7587
ExactMass: 384.16852187
Spectrum_type: 2
charge: 1
Formula: C21H24N2O5
SMILES: COC1=CC=CC(=C1)C(=O)N2CCN(CC2)C(=O)C3=C(C(=CC=C3)OC)OC
Method: HCD
Collision_energy: [28.333334]
Isolation_window: 4.0
Ion_mode: P
Num Peaks: 12
59.0607	1.0
89.0599	2.2
95.0857	1.1
97.4008	1.0
133.0859	1.3
222.1125	1.0
283.1281	1.7
390.2015	1.4
407.1573	100.0
407.2140	1.0
408.1606	18.1
409.1573	4.9

Name: 1-(2-(4-chlorophenyl)-3-cyclopropyl-2-hydroxybutyl)-1H-1,2,4-triazol-5-ol
PrecursorMZ: 308.11617
RT: 7.2933
ExactMass: 307.1087545
Spectrum_type: 2
charge: 1
Formula: C15H18ClN3O2
SMILES: CC(C1CC1)C(CN2C(=O)NC=N2)(C3=CC=C(C=C3)Cl)O
Method: HCD
Collision_energy: [28.333334]
Isolation_window: 4.0
Ion_mode: P
Num Peaks: 19
77.0058	2.5
86.0603	100.0
87.0636	4.0
94.0323	3.3
125.0230	2.5
136.0426	8.2
137.0597	2.3
138.0911	4.0
152.0706	2.9
164.0704	12.0
182.0810	2.6
290.1233	3.0
307.1261	4.4
307.1647	2.5
308.1125	10.5
309.1064	10.6
309.1432	3.0
310.0911	2.4
310.1259	4.3

Name: 1-(2-(Pyridin-3-yl)pyrrolidin-1-yl)ethanone
PrecursorMZ: 191.11783
RT: 2.04445
ExactMass: 190.110613074
Spectrum_type: 2
charge: 1
Formula: C11H14N2O
SMILES: CC(=O)N1CCCC1C2=CN=CC=C2
Method: HCD
Collision_energy: [28.333334]
Isolation_window: 4.0
Ion_mode: P
Num Peaks: 5
100.0218	10.2
147.0915	5.9
190.0862	4.6
191.1178	100.0
192.1211	11.7

Name: 1-(2-Chlorophenyl)-3-((1-cyclopentylpiperidin-4-yl)methyl)urea
PrecursorMZ: 336.18357
RT: 1.2405
ExactMass: 335.1764402
Spectrum_type: 2
charge: 1
Formula: C18H26ClN3O
SMILES: C1CCC(C1)N2CCC(CC2)CNC(=O)NC3=CC=CC=C3Cl
Method: HCD
Collision_energy: [28.333334]
Isolation_window: 4.0
Ion_mode: P
Num Peaks: 11
67.0547	2.8
81.0702	6.4
95.0857	6.6
140.0375	100.0
141.0411	2.7
142.0332	3.1
290.1420	2.8
318.1728	14.4
319.1761	3.0
336.1836	15.6
338.3410	3.3

Name: 1-(2-Cyclopentyl-6H,7H-(1,4)dioxino(2,3-D)pyrimidine-4-carbonyl)pyrrolidine
PrecursorMZ: 304.16527
RT: 7.4515
ExactMass: 303.15829154
Spectrum_type: 2
charge: 1
Formula: C16H21N3O3
SMILES: C1CCC(C1)C2=NC(=C3C(=N2)OCCO3)C(=O)N4CCCC4
Method: HCD
Collision_energy: [28.333334]
Isolation_window: 4.0
Ion_mode: P
Num Peaks: 8
70.0655	8.8
84.0810	12.9
125.0709	20.0
209.1281	100.0
210.1315	9.4
304.1649	91.6
305.1680	13.4
306.1330	14.7

Name: 1-(2-Hydroxy-4,6-dimethoxyphenyl)-2-(4-methoxyphenyl)ethanone
PrecursorMZ: 325.10432
RT: 1.6799
ExactMass: 302.11542367
Spectrum_type: 2
charge: 1
Formula: C17H18O5
SMILES: COC1=CC=C(C=C1)CC(=O)C2=C(C=C(C=C2OC)OC)O
Method: HCD
Collision_energy: [28.333334]
Isolation_window: 4.0
Ion_mode: P
Num Peaks: 3
139.9145	8.5
325.1038	100.0
326.1074	13.8

Name: 1-(2-Hydroxyethyl)-2,2,6,6-tetramethyl-4-hydroxypiperidine
PrecursorMZ: 202.18002
RT: 6.0799
ExactMass: 201.172878976
Spectrum_type: 2
charge: 1
Formula: C11H23NO2
SMILES: CC1(CC(CC(N1CCO)(C)C)O)C
Method: HCD
Collision_energy: [28.333334]
Isolation_window: 4.0
Ion_mode: P
Num Peaks: 5
62.0605	16.9
102.0915	40.9
160.9014	3.3
202.1801	100.0
203.1836	8.2

Name: 1-(2-Hydroxyethyl)-2-pyrrolidinone
PrecursorMZ: 130.08628
RT: 3.7114
ExactMass: 129.078978594
Spectrum_type: 2
charge: 1
Formula: C6H11NO2
SMILES: C1CC(=O)N(C1)CCO
Method: HCD
Collision_energy: [28.333334]
Isolation_window: 4.0
Ion_mode: P
Num Peaks: 7
69.0703	15.0
84.0811	21.6
86.0967	15.0
112.0758	28.3
130.0651	20.9
130.0862	100.0
130.1589	32.6

Name: 1-(3,4,5-Trimethoxycinnamoyl)pyrrolidine
PrecursorMZ: 292.14982
RT: 8.4608
ExactMass: 291.14705815
Spectrum_type: 2
charge: 1
Formula: C16H21NO4
SMILES: COC1=CC(=CC(=C1OC)OC)/C=C/C(=O)N2CCCC2
Method: HCD
Collision_energy: [28.333334]
Isolation_window: 4.0
Ion_mode: P
Num Peaks: 19
72.0448	5.6
87.0443	11.7
88.0760	6.8
114.0551	8.5
114.0916	14.6
166.0977	17.4
184.1080	38.5
228.0975	11.1
260.1239	42.6
290.1373	12.1
291.1324	12.8
291.1694	22.2
291.2432	10.8
292.1170	11.5
292.1506	100.0
292.1657	10.2
293.1515	15.0
293.1850	10.5
294.1824	6.8

Name: 1-(3,4-Dimethoxycinnamoyl)piperidine
PrecursorMZ: 298.13933
RT: 6.2823
ExactMass: 275.15214353
Spectrum_type: 2
charge: 1
Formula: C16H21NO3
SMILES: COC1=C(C=C(C=C1)/C=C/C(=O)N2CCCCC2)OC
Method: HCD
Collision_energy: [28.333334]
Isolation_window: 4.0
Ion_mode: P
Num Peaks: 27
81.0449	12.0
95.0604	5.2
96.0446	4.0
98.0602	4.2
107.0604	12.0
110.0713	2.8
124.0868	14.3
125.0708	21.6
126.0547	5.6
136.0389	3.4
142.0973	16.2
212.1025	6.6
262.1544	7.9
280.1286	35.3
280.1649	56.1
281.1333	4.3
281.1685	8.0
297.1434	28.2
297.1789	4.4
298.1390	100.0
298.1754	52.9
299.1414	17.7
299.1596	9.8
299.1778	9.0
300.1209	5.1
300.1430	3.6
300.1572	5.4

Name: 1-(3,4-Dimethoxyphenyl)-2-methylpropan-2-ol
PrecursorMZ: 193.12221
RT: 5.686
ExactMass: 210.125594432
Spectrum_type: 2
charge: 1
Formula: C12H18O3
SMILES: CC(C)(CC1=CC(=C(C=C1)OC)OC)O
Method: HCD
Collision_energy: [28.333334]
Isolation_window: 4.0
Ion_mode: P
Num Peaks: 116
67.0546	2.1
69.0338	0.8
69.0702	1.3
70.0654	2.3
71.0495	1.3
71.0858	1.6
79.0545	4.2
81.0337	1.6
81.0701	4.6
82.0654	0.7
83.0494	1.4
85.0650	0.7
91.0543	8.4
93.0700	5.9
94.0652	0.7
95.0492	2.1
95.0856	3.1
97.0649	1.4
98.0602	0.9
101.0597	0.7
105.0699	9.6
106.0732	0.7
107.0491	1.8
107.0855	12.0
108.0889	1.0
109.0648	1.6
109.1011	1.0
111.0803	1.4
117.0698	2.3
118.0863	0.8
119.0855	5.5
120.0807	0.9
121.0647	1.1
121.1011	3.7
123.0805	1.3
124.0392	5.5
124.0756	1.8
125.0595	1.1
129.0699	0.8
131.0854	8.4
132.0806	0.7
132.0887	1.4
133.0646	1.7
133.1010	100.0
134.0599	1.5
134.1043	9.3
135.0802	3.8
135.1166	3.5
136.0754	0.8
137.0594	1.6
137.0960	0.7
138.0912	1.0
139.0752	0.8
146.0962	1.1
147.0549	0.7
147.0800	1.4
147.1166	37.9
148.0755	4.7
148.1200	4.7
149.0597	0.9
149.0959	1.4
149.1072	0.7
149.1322	2.3
150.0549	0.8
150.0912	5.0
151.0752	1.5
151.1116	3.8
152.0704	10.6
153.0544	2.8
157.1010	2.8
159.1166	0.9
164.0703	1.9
164.1070	0.9
165.0910	1.6
165.1020	0.7
165.1272	7.2
166.0861	3.4
166.1226	5.0
166.1304	0.9
167.0700	1.4
169.0603	1.0
174.0549	0.8
174.1124	0.9
175.0863	4.2
175.1114	12.8
176.0703	2.5
176.1068	1.1
176.1149	1.6
177.1021	1.2
177.1271	1.1
191.1429	0.7
192.0480	0.8
192.0653	5.5
192.0853	1.5
192.1016	14.3
193.0496	1.4
193.0610	1.0
193.0691	0.7
193.0859	1.6
193.0969	5.0
193.1047	1.2
193.1220	25.2
193.1325	1.2
193.1582	1.5
194.0809	14.9
194.0916	1.6
194.1172	26.0
194.1254	2.9
194.1531	0.8
195.0652	1.2
195.0761	1.4
195.0845	0.8
195.1012	0.7
195.1125	5.8
195.1205	1.3
195.1375	1.4

Name: 1-(3,4-Dimethoxyphenyl)-3-((1-methylbenzimidazol-6-yl)amino)propan-1-one
PrecursorMZ: 362.14736
RT: 5.6772
ExactMass: 339.15829154
Spectrum_type: 2
charge: 1
Formula: C19H21N3O3
SMILES: CN1C=NC2=C1C=C(C=C2)NCCC(=O)C3=CC(=C(C=C3)OC)OC
Method: HCD
Collision_energy: [28.333334]
Isolation_window: 4.0
Ion_mode: P
Num Peaks: 21
86.0967	6.7
130.0500	4.6
132.0440	3.7
147.0764	11.1
248.1237	4.8
273.1227	4.4
316.2015	6.0
361.1151	4.4
361.1382	9.0
361.1726	6.5
361.2117	5.3
362.1220	4.4
362.1469	100.0
362.2079	11.9
362.2407	8.1
362.2681	3.5
363.1307	17.5
363.1513	20.0
363.1887	11.4
363.2626	3.9
364.1386	3.5

Name: 1-(3,4-Dimethoxyphenyl)-3-)(1-methylbenzimidazol-6-yl)amino(propan-1-one
PrecursorMZ: 362.14681
RT: 1.5487
ExactMass: 339.15829154
Spectrum_type: 2
charge: 1
Formula: C19H21N3O3
SMILES: CN1C=NC2=C1C=C(C=C2)NCCC(=O)C3=CC(=C(C=C3)OC)OC
Method: HCD
Collision_energy: [28.333334]
Isolation_window: 4.0
Ion_mode: P
Num Peaks: 11
57.0703	16.8
72.0812	21.5
81.0704	18.8
86.0967	15.3
101.0599	24.0
111.0442	29.8
129.0548	55.4
147.0653	54.0
182.0816	16.4
362.1480	100.0
363.1521	23.7

Name: 1-(3,4-dimethoxyphenyl)-2,3,4,9-tetrahydro-1H-pyrido(3,4-b)indole-3-carboxylic acid
PrecursorMZ: 353.14932
RT: 5.1307
ExactMass: 352.14230712
Spectrum_type: 2
charge: 1
Formula: C20H20N2O4
SMILES: COC1=C(C=C(C=C1)C2C3=C(CC(N2)C(=O)O)C4=CC=CC=C4N3)OC
Method: HCD
Collision_energy: [28.333334]
Isolation_window: 4.0
Ion_mode: P
Num Peaks: 41
95.0856	1.6
107.0493	9.3
114.0915	2.3
121.0649	16.2
122.0680	1.6
130.0651	10.4
132.0808	3.8
138.0912	1.8
144.0809	2.3
146.0600	16.2
148.0757	6.2
149.0597	8.2
159.0917	50.6
160.0950	5.1
166.0862	11.8
167.0898	1.9
170.0598	2.7
176.8754	4.1
187.0867	4.3
188.0705	100.0
189.0739	10.1
194.0812	3.4
205.0970	43.4
206.1007	4.6
231.1493	1.6
234.0913	2.5
235.0949	1.7
273.1596	3.0
276.1019	2.3
291.1702	3.3
307.1439	21.2
308.1474	4.3
319.1646	4.2
320.1677	2.0
335.1395	4.7
351.1334	4.4
352.1368	3.8
353.1168	2.2
353.1496	17.7
354.1528	3.4
354.2389	1.7

Name: 1-(3-(Isobutylsulfonyl)azetidin-1-yl)-2-(m-tolyl)ethanone
PrecursorMZ: 310.14689
RT: 5.6829
ExactMass: 309.13986477
Spectrum_type: 2
charge: 1
Formula: C16H23NO3S
SMILES: CC1=CC(=CC=C1)CC(=O)N2CC(C2)S(=O)(=O)CC(C)C
Method: HCD
Collision_energy: [28.333334]
Isolation_window: 4.0
Ion_mode: P
Num Peaks: 40
55.0547	3.4
67.0547	4.0
69.0703	4.1
79.0545	3.8
81.0339	3.3
81.0702	10.0
83.0859	5.4
84.0811	7.7
93.0701	4.7
95.0494	3.4
95.0857	5.1
96.0446	7.9
97.0651	3.1
99.0806	3.2
100.0217	6.8
107.0494	3.7
107.0857	5.4
109.0649	6.9
119.0857	4.6
121.1012	4.3
123.0805	4.5
125.0962	2.9
126.0914	11.6
133.1013	3.4
146.0270	48.6
147.1167	3.6
161.0962	4.2
166.0863	5.2
195.0759	3.1
236.1065	3.5
273.1847	6.4
291.1709	4.8
291.1951	9.7
293.2112	4.8
309.1808	17.3
309.2057	6.9
310.1469	100.0
310.1863	3.4
310.2121	8.8
311.1493	12.8

Name: 1-(4-(3-(3,5-dimethyl-1H-1,2,4-triazol-1-yl)-2-hydroxypropoxy)-3-methoxyphenyl)ethanone
PrecursorMZ: 320.16018
RT: 4.4404
ExactMass: 319.15320616
Spectrum_type: 2
charge: 1
Formula: C16H21N3O4
SMILES: CC1=NN(C(=N1)C)CC(COC2=C(C=C(C=C2)C(=O)C)OC)O
Method: HCD
Collision_energy: [28.333334]
Isolation_window: 4.0
Ion_mode: P
Num Peaks: 17
70.0657	7.8
80.0498	9.5
84.0449	13.4
84.0812	25.5
89.0600	8.0
98.9844	13.5
122.0814	48.7
130.0865	20.4
210.0792	22.0
262.1190	22.5
320.1606	100.0
321.1643	19.7
322.1359	9.6
324.1486	7.5
328.1965	7.1
330.3372	14.3
333.2185	9.0

Name: 1-(4-(5'-Chloro-3,5-dimethyl-2,4'-bipyridin-2'-yl)piperazin-1-yl)-3-(methylsulfonyl)propan-1-one
PrecursorMZ: 437.14151
RT: 2.9509
ExactMass: 436.1335895
Spectrum_type: 2
charge: 1
Formula: C20H25ClN4O3S
SMILES: CC1=CC(=C(N=C1)C2=CC(=NC=C2Cl)N3CCN(CC3)C(=O)CCS(=O)(=O)C)C
Method: HCD
Collision_energy: [28.333334]
Isolation_window: 4.0
Ion_mode: P
Num Peaks: 3
69.2566	10.0
437.1414	100.0
438.1443	21.7

Name: 1-(4-Hydroxyphenyl)-3-((2R,3R,4S,5S,6R)-3,4,5-trihydroxy-6-(hydroxymethyl)oxan-2-yl)oxypropan-1-one
PrecursorMZ: 351.10471
RT: 5.8172
ExactMass: 328.11581759
Spectrum_type: 2
charge: 1
Formula: C15H20O8
SMILES: C1=CC(=CC=C1C(=O)CCO[C@H]2[C@@H]([C@H]([C@@H]([C@H](O2)CO)O)O)O)O
Method: HCD
Collision_energy: [28.333334]
Isolation_window: 4.0
Ion_mode: P
Num Peaks: 4
351.1045	100.0
351.1549	9.4
352.1060	13.8
352.1351	7.7

Name: 1-(4-Methoxyphenyl)-1-penten-3-one
PrecursorMZ: 191.10652
RT: 4.71825
ExactMass: 190.099379685
Spectrum_type: 2
charge: 1
Formula: C12H14O2
SMILES: CCC(=O)/C=C/C1=CC=C(C=C1)OC
Method: HCD
Collision_energy: [28.333334]
Isolation_window: 4.0
Ion_mode: P
Num Peaks: 21
107.0492	27.5
117.0700	4.8
126.0912	9.4
130.0649	32.1
131.0490	9.1
131.0681	6.6
133.0646	17.2
144.0567	7.1
145.0646	95.6
145.1009	9.0
146.0679	10.7
147.0802	13.8
154.0860	11.3
158.0724	6.0
161.0958	5.0
162.0547	3.6
173.0958	100.0
174.0992	15.2
191.0812	3.6
191.1062	37.2
192.1098	4.6

Name: 1-(9Z,12Z-octadecadienoyl)-sn-glycero-3-phosphocholine
PrecursorMZ: 520.33981
RT: 4.945276923076923
ExactMass: 519.33248993
Spectrum_type: 2
charge: 1
Formula: C26H50NO7P
SMILES: CCCCC/C=C\C/C=C\CCCCCCCC(=O)OC[C@H](COP(=O)([O-])OCC[N+](C)(C)C)O
Method: HCD
Collision_energy: [28.333334]
Isolation_window: 4.0
Ion_mode: P
Num Peaks: 33
57.8158	1.8
60.0812	4.9
69.3050	2.4
69.4816	1.7
69.5267	2.3
70.0654	4.5
72.0811	13.4
84.0447	1.8
84.0810	1.7
86.0966	21.3
97.4578	1.7
102.0550	1.9
104.1071	57.5
105.1104	3.0
116.0707	3.4
118.0862	2.8
120.0807	5.4
124.9997	6.1
130.0498	1.9
136.0754	1.8
148.0603	3.9
167.0812	2.5
184.0730	100.0
185.0765	4.7
201.0866	18.6
217.1543	11.9
502.3283	4.7
520.2031	2.8
520.3389	36.9
521.3422	10.7
522.2198	2.3
522.3450	1.7
522.5963	12.3

Name: 1-(9Z-octadecenoyl)-2-(9Z,12Z-octadecadienoyl)-sn-glycero-3-phosphocholine
PrecursorMZ: 784.58379
RT: 4.4571
ExactMass: 783.57780557
Spectrum_type: 2
charge: 1
Formula: C44H82NO8P
SMILES: CCCCCCCC/C=C\CCCCCCCC(=O)OC[C@H](COP(=O)([O-])OCC[N+](C)(C)C)OC(=O)CCCCCCC/C=C\C/C=C\CCCCC
Method: HCD
Collision_energy: [28.333334]
Isolation_window: 4.0
Ion_mode: P
Num Peaks: 21
59.0496	0.5
60.0812	2.8
71.0734	0.6
86.0967	10.6
87.1000	0.5
104.1071	0.9
124.9998	4.8
146.9817	0.5
162.9555	0.4
184.0562	0.6
184.0595	0.5
184.0732	100.0
184.0867	0.5
184.0902	0.8
185.0766	4.4
264.2682	0.6
782.5674	0.6
783.5720	1.9
784.5836	5.5
785.5869	2.6
786.6002	4.7

Name: 1-(9Z-octadecenoyl)-sn-glycero-3-phosphocholine
PrecursorMZ: 522.35499
RT: 4.894542857142857
ExactMass: 521.34814
Spectrum_type: 2
charge: 1
Formula: C26H52NO7P
SMILES: CCCCCCCC/C=C\CCCCCCCC(=O)OC[C@H](COP(=O)([O-])OCC[N+](C)(C)C)O
Method: HCD
Collision_energy: [28.333334]
Isolation_window: 4.0
Ion_mode: P
Num Peaks: 29
58.0397	0.7
60.0812	3.7
67.0546	1.0
69.0702	1.1
81.0701	1.6
83.0858	1.1
84.0809	1.2
86.0966	13.7
95.0856	1.6
104.1070	28.0
105.1103	1.1
124.9997	5.4
142.0263	1.2
184.0561	0.7
184.0598	0.6
184.0730	100.0
185.0764	6.1
504.3443	1.2
505.3467	0.7
506.3588	0.6
520.3386	0.8
520.5077	3.7
521.3424	2.2
521.5112	2.4
522.3545	14.9
522.5227	2.6
523.3575	3.6
523.5263	1.2
524.3703	4.9

Name: 1-(Cyclohexylamino)-3-(4-(1,3,4-oxadiazol-2-yl)phenoxy)propan-2-ol
PrecursorMZ: 318.18082
RT: 7.6002
ExactMass: 317.1739416
Spectrum_type: 2
charge: 1
Formula: C17H23N3O3
SMILES: C1CCC(CC1)NCC(COC2=CC=C(C=C2)C3=NN=CO3)O
Method: HCD
Collision_energy: [28.333334]
Isolation_window: 4.0
Ion_mode: P
Num Peaks: 16
84.0809	6.4
86.0966	6.5
119.0603	13.6
130.0861	6.9
158.0920	4.8
195.1126	7.1
231.0171	4.2
248.1388	7.0
274.1909	4.9
317.1485	5.4
317.1706	4.6
318.1300	5.4
318.1806	100.0
319.1648	6.7
319.1837	18.0
320.1973	10.4

Name: 1-(Cyclohexylamino)-3-)4-(1,3,4-oxadiazol-2-yl)phenoxy(propan-2-ol
PrecursorMZ: 318.18119
RT: 0.667
ExactMass: 317.1739416
Spectrum_type: 2
charge: 1
Formula: C17H23N3O3
SMILES: C1CCC(CC1)NCC(COC2=CC=C(C=C2)C3=NN=CO3)O
Method: HCD
Collision_energy: [28.333334]
Isolation_window: 4.0
Ion_mode: P
Num Peaks: 41
83.0861	1.9
108.0810	2.8
124.0759	3.4
126.0915	6.0
132.0808	4.1
136.0756	2.7
147.0920	2.3
148.0758	39.7
149.0793	4.2
150.0916	4.1
166.0865	47.3
167.0902	3.8
168.1023	6.1
175.0871	2.1
176.0712	3.0
176.0944	4.3
177.1021	4.1
178.0864	4.9
193.0973	28.7
194.0813	25.8
194.1051	100.0
195.0844	2.7
195.1122	30.1
196.0967	1.6
196.1155	2.7
231.1499	2.0
259.1448	2.0
273.1596	14.1
274.1641	1.8
275.1743	1.7
291.1708	3.6
301.1546	18.2
302.1578	3.2
303.1687	2.9
318.1812	78.0
319.1597	4.7
319.1828	12.3
320.1975	23.3
321.1969	3.7
329.1457	5.6
332.1139	1.6

Name: 1-(Heptan-2-ylamino)cyclopentane-1-carboxylic acid
PrecursorMZ: 228.19555
RT: 1.1739636363636363
ExactMass: 227.18852904
Spectrum_type: 2
charge: 1
Formula: C13H25NO2
SMILES: CCCCCC(C)NC1(CCCC1)C(=O)O
Method: HCD
Collision_energy: [28.333334]
Isolation_window: 4.0
Ion_mode: P
Num Peaks: 45
55.0546	9.3
67.0546	27.2
69.0702	24.8
71.0494	6.9
81.0701	36.4
83.0858	44.1
85.0650	4.4
93.0700	9.5
95.0856	100.0
96.0808	8.3
96.0889	7.2
97.0649	7.9
97.1013	29.3
107.0856	6.4
109.1012	71.7
110.1045	4.3
111.0805	10.2
111.1169	6.8
112.8957	4.7
114.0913	5.5
119.0855	16.7
121.1011	5.9
123.0802	6.1
123.1167	8.5
129.0908	6.1
133.1010	19.0
135.1166	6.8
137.0958	9.5
147.1166	12.1
149.1324	8.5
151.1480	13.2
175.1479	61.3
176.1512	7.7
193.1584	31.9
194.1617	4.6
209.1645	7.6
211.1689	11.7
212.0649	15.0
227.1750	33.2
228.1784	6.2
228.1953	20.2
228.2318	18.6
229.0677	14.1
229.1408	28.1
229.1792	6.4

Name: 1-(Phenylcarbamoyl)proline
PrecursorMZ: 235.10729
RT: 6.9659
ExactMass: 234.10044231
Spectrum_type: 2
charge: 1
Formula: C12H14N2O3
SMILES: C1CC(N(C1)C(=O)NC2=CC=CC=C2)C(=O)O
Method: HCD
Collision_energy: [28.333334]
Isolation_window: 4.0
Ion_mode: P
Num Peaks: 126
57.0703	0.3
58.0655	0.6
59.0496	0.9
60.0560	0.7
69.0450	0.3
70.0575	0.2
70.0655	38.4
70.0685	0.6
70.0736	0.3
71.0495	0.7
71.0688	1.5
72.0811	4.3
84.0811	9.8
85.0650	0.3
85.0841	0.4
86.0604	0.2
86.0716	1.0
87.0444	0.6
87.0556	4.2
88.0761	0.6
89.0600	3.7
90.0552	4.7
97.0761	0.5
98.0603	0.6
98.0965	0.3
98.9843	0.7
100.0759	0.4
101.0964	0.3
101.1073	0.3
110.0716	0.5
110.0969	0.3
112.0871	3.8
113.0711	1.5
113.0906	0.2
114.0554	0.6
114.0664	8.2
114.1027	0.7
115.0504	5.9
115.0697	0.4
115.0867	14.2
116.0537	0.5
116.0569	0.3
116.0707	49.0
116.0876	0.8
117.0741	2.5
123.0552	0.6
125.1075	0.3
126.0550	1.3
128.0703	0.2
129.1023	0.7
130.0864	5.5
130.0970	0.5
131.0902	0.3
131.1179	0.6
132.0768	27.6
133.0812	0.7
133.0872	0.6
133.0970	17.9
134.1008	0.9
141.0659	0.5
142.0863	0.8
145.1217	0.3
147.1125	0.5
153.1025	0.3
156.0763	0.6
156.1024	0.3
158.0924	14.5
159.0764	15.7
159.0958	0.7
160.0801	1.0
164.0729	0.5
166.0977	0.6
169.1332	0.7
175.1194	0.5
176.1034	0.5
184.1080	0.8
188.0921	0.4
189.0667	0.5
202.1184	10.9
203.1222	1.0
204.1121	0.6
207.0759	0.6
210.0790	1.6
212.1030	0.3
215.1382	0.4
216.1222	0.7
226.1187	0.2
228.1223	0.2
229.1294	7.9
230.1135	2.0
230.1334	0.6
233.1486	1.3
234.0768	0.3
234.1307	0.5
234.1516	0.3
235.1070	3.0
236.1103	0.4
236.1486	0.3
237.1230	0.3
238.1071	3.9
239.1061	3.9
239.1506	1.1
240.1290	0.2
241.1177	0.6
242.1202	0.3
242.1408	0.3
243.1328	1.1
244.1678	0.3
245.1466	0.3
245.1870	0.2
246.1085	0.3
246.1308	1.9
247.0865	0.6
247.0974	0.5
247.1398	100.0
247.1595	1.9
247.1807	0.4
247.1937	0.7
247.2082	0.3
248.0352	1.7
248.1423	11.0
249.1435	2.1
253.1175	2.1
254.0987	0.6
255.1328	2.3
256.1172	0.2

Name: 1-(furan-3-yl)-2-(4,5,6-trihydroxy-1,2,4a,5-tetramethyl-3,4,6,7,8,8a-hexahydro-2H-naphthalen-1-yl)ethanone
PrecursorMZ: 389.17214
RT: 1.4134
ExactMass: 350.20932405
Spectrum_type: 2
charge: 1
Formula: C20H30O5
SMILES: CC1CC(C2(C(C1(C)CC(=O)C3=COC=C3)CCC(C2(C)O)O)C)O
Method: HCD
Collision_energy: [28.333334]
Isolation_window: 4.0
Ion_mode: P
Num Peaks: 4
388.1513	6.7
389.1723	100.0
390.1754	21.8
391.1630	10.0

Name: 1-)(7,8-Dimethyl-2-oxochromen-4-yl)methyl(piperidine-4-carboxamide
PrecursorMZ: 315.17027
RT: 1.3581
ExactMass: 314.16304257
Spectrum_type: 2
charge: 1
Formula: C18H22N2O3
SMILES: CC1=C(C2=C(C=C1)C(=CC(=O)O2)CN3CCC(CC3)C(=O)N)C
Method: HCD
Collision_energy: [28.333334]
Isolation_window: 4.0
Ion_mode: P
Num Peaks: 184
55.0548	0.8
57.0704	1.4
58.0656	2.3
60.0813	1.2
70.0655	1.1
72.0813	3.5
80.0499	35.2
81.0340	3.9
81.0532	1.8
83.0496	2.9
84.0812	1.1
86.0966	0.8
87.0446	0.5
89.0602	0.7
91.0546	4.9
95.0496	0.6
95.0609	0.7
96.0448	2.0
96.0810	1.0
98.0967	0.9
101.0600	1.7
105.0701	0.8
107.0494	4.0
108.0450	0.6
108.0813	0.7
109.0765	0.6
110.0606	0.9
111.0444	2.9
120.0810	12.7
121.0655	0.7
121.0837	1.0
122.0603	0.9
122.0817	0.6
124.0761	0.5
124.0874	1.2
126.0918	0.5
127.0324	1.0
131.0499	0.9
133.0763	3.9
134.0800	0.5
136.0761	0.7
138.0917	1.3
139.0393	0.5
143.0859	0.6
144.0809	1.4
145.0763	0.5
146.0603	11.0
147.0638	0.9
148.0756	0.9
149.0602	2.6
149.1079	0.7
150.0554	0.6
150.0917	0.5
152.0707	1.0
153.0483	2.2
154.0869	0.5
160.0758	0.7
162.0917	0.6
164.0707	1.5
165.0549	0.7
165.0910	1.7
166.0862	6.5
167.0905	0.8
170.0933	0.7
175.0873	0.6
176.0714	0.5
178.0854	0.9
179.1182	0.6
180.1017	1.3
183.1012	0.9
186.2218	3.4
188.0713	0.5
190.1000	0.7
192.0654	3.7
192.1028	0.6
193.0827	0.9
194.1182	0.6
195.1130	1.1
198.1125	1.9
200.0715	0.5
202.0873	0.6
202.1236	0.7
205.0978	0.5
207.1140	0.6
208.1332	4.4
209.1327	0.5
212.1050	0.8
213.1396	0.6
217.0987	0.6
220.1339	9.5
221.0745	8.1
221.1365	1.3
222.0774	1.0
224.1040	0.7
225.1243	0.5
232.0973	0.7
235.1452	0.7
240.2689	2.6
261.1234	0.7
267.1124	2.2
268.1205	8.2
269.1250	1.7
280.1482	3.6
281.1684	1.1
284.1984	0.8
295.2018	0.8
296.1321	0.6
297.1240	3.6
299.1050	1.0
299.1436	0.5
301.1208	1.3
302.1441	0.6
303.1379	0.7
304.1078	1.0
305.1495	0.9
307.1313	0.6
307.1688	0.5
313.1216	0.7
313.1557	0.6
313.2143	9.2
314.1058	1.3
314.1422	5.9
314.2163	2.8
314.3429	0.6
315.1376	4.7
315.1719	10.2
316.1217	3.3
316.1587	4.7
316.2203	1.6
317.1169	1.2
317.1501	5.3
318.1326	6.3
318.1809	1.8
319.1334	3.8
319.1681	5.7
319.2029	0.6
320.1564	4.3
320.1971	0.9
321.1482	4.3
321.1840	3.0
321.2196	1.8
322.1191	1.5
322.1653	2.7
322.2120	0.7
323.1623	6.2
323.1987	4.2
324.1321	2.3
324.1790	0.8
324.1984	0.8
325.1147	5.0
325.1814	3.0
325.2173	0.5
326.1354	2.6
326.1992	3.0
326.2999	0.8
326.3179	1.0
326.3456	1.6
326.3784	100.0
327.0543	0.5
327.0932	1.1
327.1035	0.8
327.1348	48.3
327.1718	52.5
327.3816	24.3
328.1379	8.2
328.1742	12.1
328.3849	2.8
329.1467	3.9
329.1823	1.2
330.1378	4.8
330.1750	2.0
330.2629	0.9
331.1317	2.5
331.1679	3.9
331.2358	0.8
332.1494	5.7
332.1951	1.2
332.3311	12.9
333.1489	4.3
333.1841	2.3
333.3347	2.8
334.1303	1.5
334.1705	3.6
334.2108	1.2

Name: 1-)3-(3-Cyclopropyl-1,2,4-oxadiazol-5-YL)-1-methyl-1H,4H,5H,6H,7H-pyrazolo)4,3-C(pyridin-5-YL(-2-)1-(propan-2-YL)piperidin-4-YL(ethan-1-one
PrecursorMZ: 413.26542
RT: 9.1033
ExactMass: 412.25867428
Spectrum_type: 2
charge: 1
Formula: C22H32N6O2
SMILES: CC(C)N1CCC(CC1)CC(=O)N2CCC3=C(C2)C(=NN3C)C4=NC(=NO4)C5CC5
Method: HCD
Collision_energy: [28.333334]
Isolation_window: 4.0
Ion_mode: P
Num Peaks: 23
59.0609	15.3
81.0702	12.2
86.0967	11.3
89.0600	24.3
95.0858	9.2
109.1016	11.2
110.0966	10.0
116.0708	8.0
133.0861	13.6
154.0863	62.2
171.1132	8.3
172.0967	11.1
197.1286	26.5
288.1924	9.1
413.2658	100.0
414.2690	25.9
415.1471	9.7
415.2761	9.5
421.1682	8.5
423.1880	13.8
427.2676	27.2
428.2679	10.6
429.2394	12.2

Name: 1-)4-(difluoromethoxy)phenyl(-4-)(3,5-dimethyl-1H-pyrazol-1-yl)carbonyl(-5-ethyl-1H-1,2,3-triazole
PrecursorMZ: 362.14309
RT: 3.9509
ExactMass: 361.13503113
Spectrum_type: 2
charge: 1
Formula: C17H17F2N5O2
SMILES: CCC1=C(N=NN1C2=CC=C(C=C2)OC(F)F)C(=O)N3C(=CC(=N3)C)C
Method: HCD
Collision_energy: [28.333334]
Isolation_window: 4.0
Ion_mode: P
Num Peaks: 86
57.0341	3.7
69.0339	4.2
70.0656	5.6
71.0495	1.3
73.0289	1.9
75.0446	1.9
81.0338	2.1
83.0496	1.2
84.0812	1.7
85.0288	5.5
86.0605	1.3
87.0444	2.0
97.0287	8.7
99.0444	3.2
100.0758	1.7
101.0602	1.5
103.0392	2.9
108.0446	4.4
111.0445	2.0
112.0759	1.2
115.0391	1.4
116.0709	1.2
118.0865	6.9
124.0395	3.4
126.0551	10.3
127.0391	4.9
129.0548	2.0
130.0865	2.9
133.0497	1.1
140.0709	3.5
141.0655	2.0
144.0653	1.4
146.0925	2.3
152.0709	1.5
162.1128	3.2
168.1019	1.5
182.1175	2.0
198.1125	4.5
200.0905	1.3
240.1223	1.7
242.1022	47.8
243.1059	5.4
244.1179	1.4
270.1346	1.1
272.1244	5.5
288.1455	1.3
330.1551	2.7
342.1544	1.4
344.1313	1.3
344.1723	1.8
348.1655	9.7
349.1722	1.3
360.1671	7.7
361.1702	6.3
362.1441	100.0
362.1845	21.2
363.1481	17.1
363.1875	1.8
364.1723	16.9
365.1291	2.2
365.1770	3.1
366.1769	14.1
367.1465	3.2
368.1357	9.9
368.1857	1.8
369.1320	1.3
369.1737	3.5
370.1521	9.0
371.1450	2.1
371.1852	1.8
372.1294	2.8
372.1731	6.2
373.1696	9.4
374.1453	20.9
374.1857	1.6
374.3625	1.1
375.1418	2.7
375.1900	7.6
376.1609	5.2
377.1553	2.4
377.2057	3.2
378.1762	27.2
379.1488	2.3
379.1786	3.0
380.1358	3.6
380.1901	12.7

Name: 1-Acetylproline
PrecursorMZ: 158.08125
RT: 4.88
ExactMass: 157.07389321
Spectrum_type: 2
charge: 1
Formula: C7H11NO3
SMILES: CC(=O)N1CCCC1C(=O)O
Method: HCD
Collision_energy: [28.333334]
Isolation_window: 4.0
Ion_mode: P
Num Peaks: 116
55.0547	2.7
56.0498	0.3
56.0581	0.3
58.0655	0.6
59.0496	1.7
60.0449	0.6
60.0812	0.5
62.0605	23.4
63.0639	0.5
70.0656	5.4
71.0496	1.1
71.0689	0.2
72.0448	0.5
74.0240	0.5
81.0703	0.3
82.0655	0.7
83.0495	5.6
83.0860	0.2
84.0449	0.4
84.0527	0.3
84.0811	0.6
85.0654	0.4
86.0604	0.9
86.0968	1.4
87.0443	0.2
88.0761	0.3
90.0553	2.2
97.0763	0.3
98.0603	2.9
98.0967	6.2
98.9844	0.3
99.0999	0.5
100.0245	0.3
100.0760	1.3
101.0261	0.2
101.0460	0.4
101.0599	56.7
101.0735	0.2
102.0633	3.0
103.0639	0.2
104.0710	0.2
110.0716	2.2
111.0440	0.3
111.0747	0.2
111.0919	0.4
112.0759	7.2
113.0794	0.4
114.0553	1.3
114.1279	2.6
115.0700	0.2
115.0868	27.8
115.1318	0.2
116.0708	7.7
116.0900	1.5
117.0741	0.4
126.0552	0.3
126.0721	0.3
126.0915	51.9
126.1109	0.3
127.0757	0.6
127.0949	3.6
128.0707	0.2
128.0975	0.2
128.1070	3.3
129.1023	1.0
129.1105	0.2
130.0503	0.5
130.0863	1.2
132.0658	0.3
133.0973	1.2
138.0553	0.2
139.0866	2.2
140.0711	0.6
142.0860	0.3
143.0813	0.4
144.0656	1.8
144.1020	14.9
145.0869	0.4
145.1054	1.1
156.0768	0.5
156.1026	0.2
157.0974	4.5
158.0814	15.1
158.1031	0.3
159.0854	1.2
160.0969	0.4
160.1085	0.5
160.1333	1.5
161.0919	0.7
162.0437	0.3
162.0764	0.7
162.0842	0.7
162.0901	0.5
162.1125	100.0
162.1352	0.6
162.1410	0.6
162.1489	0.4
162.1743	0.2
163.1160	7.9
164.1179	0.9
166.1227	0.4
168.0671	0.3
168.1133	0.4
171.1118	0.2
171.1499	0.2
172.0959	0.2
172.1090	0.2
173.1649	23.3
174.1685	2.2
175.1077	3.8
176.0919	0.4
176.1103	0.3
178.0861	0.7
178.1073	0.3
178.1227	0.2
179.1178	0.5

Name: 1-Amino-2-propanol
PrecursorMZ: 76.07599
RT: 11.8038
ExactMass: 75.068413911
Spectrum_type: 2
charge: 1
Formula: C3H9NO
SMILES: CC(CN)O
Method: HCD
Collision_energy: [28.333334]
Isolation_window: 4.0
Ion_mode: P
Num Peaks: 7
58.0655	100.0
59.0496	1.9
59.0689	3.7
74.0604	1.7
74.0967	57.3
75.1000	4.0
76.0760	8.5

Name: 1-Amino-3-phenoxypropan-2-ol
PrecursorMZ: 168.10187
RT: 8.1287
ExactMass: 167.094628657
Spectrum_type: 2
charge: 1
Formula: C9H13NO2
SMILES: C1=CC=C(C=C1)OCC(CN)O
Method: HCD
Collision_energy: [28.333334]
Isolation_window: 4.0
Ion_mode: P
Num Peaks: 10
80.0499	0.8
107.0732	2.2
150.0915	1.9
168.0715	1.1
168.1020	100.0
168.1323	0.7
169.1055	9.7
170.1071	0.9
180.0817	0.9
180.1052	4.3

Name: 1-Aminocyclopropane-1-carboxylic acid
PrecursorMZ: 102.0551
RT: 6.9358
ExactMass: 101.047678466
Spectrum_type: 2
charge: 1
Formula: C4H7NO2
SMILES: C1CC1(C(=O)O)N
Method: HCD
Collision_energy: [28.333334]
Isolation_window: 4.0
Ion_mode: P
Num Peaks: 9
56.0499	39.2
59.0608	46.0
74.0966	14.3
83.0858	17.7
84.0446	100.0
100.0757	41.0
102.0913	14.0
102.1278	99.8
103.0544	16.0

Name: 1-Deoxynojirimycin
PrecursorMZ: 164.09187
RT: 4.4301
ExactMass: 163.0844579
Spectrum_type: 2
charge: 1
Formula: C6H13NO4
SMILES: C1[C@@H]([C@H]([C@@H]([C@H](N1)CO)O)O)O
Method: HCD
Collision_energy: [28.333334]
Isolation_window: 4.0
Ion_mode: P
Num Peaks: 111
58.0656	0.6
60.0450	0.9
60.0561	3.9
60.0813	2.3
62.0605	1.8
69.0339	0.9
70.0656	3.1
71.0496	10.4
72.0448	0.9
74.0605	3.4
81.0703	0.6
82.0655	0.7
84.0448	1.1
84.0813	0.8
86.0604	2.2
87.0444	3.4
88.0760	1.8
90.0553	0.6
92.0709	1.6
96.0811	0.7
96.9954	1.4
98.0603	5.7
99.0443	1.8
100.0249	0.7
100.0760	7.4
101.0600	1.1
102.0552	2.4
102.0916	0.9
103.0392	1.1
104.0708	20.0
105.0742	0.8
110.0604	0.7
112.0758	1.9
113.0602	0.7
114.0550	0.5
114.0917	0.7
115.0868	2.3
116.0708	3.1
116.1072	1.2
117.0549	4.2
118.0866	0.9
119.0342	0.6
120.0655	0.5
122.0601	1.9
124.0758	7.3
125.0793	0.5
126.0918	0.6
128.0710	1.3
128.1070	1.6
129.1023	0.6
130.0871	1.1
130.0976	36.4
131.1015	1.5
132.1022	0.5
134.0813	8.5
136.0759	1.0
138.0549	1.0
139.0868	0.5
140.0709	1.7
142.0618	2.7
142.0863	21.5
143.0711	1.3
143.0898	1.6
146.0812	4.6
148.0785	0.7
148.0969	2.5
150.0550	0.7
154.0867	1.2
158.0813	4.0
159.0647	0.5
159.0758	1.7
160.0969	18.5
161.1004	1.3
162.0876	1.6
162.1127	5.9
163.1161	0.6
164.0701	0.8
164.0919	23.5
165.0217	1.2
165.0663	0.6
165.0947	1.3
166.0866	1.8
166.1076	13.6
167.1111	0.8
168.0677	3.7
169.0753	0.6
171.0765	1.8
172.0968	3.8
173.0911	1.4
174.0882	3.5
174.1125	8.9
175.1079	1.1
175.1192	0.6
176.0704	0.6
176.1032	100.0
176.1278	1.0
176.1341	0.6
177.1071	6.2
178.1074	60.9
178.1212	1.4
179.1108	4.5
180.0805	6.4
180.1049	23.3
180.1212	0.6
181.0860	0.7
181.1080	2.1
182.0802	1.4
182.1041	0.8
183.0906	1.1
184.0603	2.7
184.0969	0.6

Name: 1-Eicosanoyl-sn-glycero-3-phosphocholine
PrecursorMZ: 552.40185
RT: 4.8492
ExactMass: 551.39509019
Spectrum_type: 2
charge: 1
Formula: C28H58NO7P
SMILES: CCCCCCCCCCCCCCCCCCCC(=O)OC[C@H](COP(=O)([O-])OCC[N+](C)(C)C)O
Method: HCD
Collision_energy: [28.333334]
Isolation_window: 4.0
Ion_mode: P
Num Peaks: 65
55.0547	1.1
56.0498	0.7
57.0703	2.6
60.0448	4.5
60.0812	5.3
61.3784	2.2
61.3913	0.8
61.3931	2.7
61.5046	0.9
67.0546	4.0
69.0702	4.2
69.3214	0.7
70.0654	0.9
71.0732	0.9
71.0858	2.2
81.0701	6.9
83.0858	3.9
84.0447	3.4
85.1014	1.2
86.0967	17.7
87.1000	1.1
89.0599	1.3
95.0857	7.2
97.1013	3.4
97.3981	0.7
104.1071	74.6
105.1104	4.1
109.1013	4.2
111.1170	1.3
114.0915	1.2
123.1168	1.0
124.9998	6.7
133.0859	0.8
184.0563	0.8
184.0732	100.0
185.0765	5.9
258.1096	1.0
266.2838	3.4
268.2630	0.8
284.2946	2.2
308.2943	4.8
309.2976	0.8
322.3103	1.1
326.3048	8.5
327.3079	1.3
340.3204	1.8
369.3358	1.5
516.5133	0.9
534.3915	4.4
534.5240	4.7
535.3951	1.4
535.5278	1.8
550.3860	1.8
550.5164	1.2
550.5562	1.2
551.3905	3.8
551.5218	0.8
551.5562	0.8
552.2716	1.5
552.4020	40.9
552.5345	53.1
553.4053	11.2
553.5378	19.3
554.4041	1.2
554.5411	1.6

Name: 1-Ethoxyethenyl(triphenyl)phosphanium
PrecursorMZ: 333.14018
RT: 8.712
ExactMass: 333.140827319
Spectrum_type: 2
charge: 1
Formula: C22H22OP+
SMILES: CCOC(=C)[P+](C1=CC=CC=C1)(C2=CC=CC=C2)C3=CC=CC=C3
Method: HCD
Collision_energy: [28.333334]
Isolation_window: 4.0
Ion_mode: P
Num Peaks: 21
84.0812	0.8
116.0707	1.2
132.0768	1.6
168.0767	1.2
170.0561	2.2
183.0877	3.2
197.1034	0.8
202.0708	1.1
210.1114	0.9
239.1141	0.9
240.0976	1.5
258.1083	6.3
259.1115	0.7
269.1244	2.7
287.1349	3.4
315.1297	1.5
332.1126	1.1
333.1403	100.0
333.1817	0.6
334.1440	13.6
335.1451	1.9

Name: 1-Ethyl-3-methylimidazolium
PrecursorMZ: 111.09185
RT: 3.1212
ExactMass: 111.092223359
Spectrum_type: 2
charge: 1
Formula: C6H11N2+
SMILES: CCN1C=C[N+](=C1)C
Method: HCD
Collision_energy: [28.333334]
Isolation_window: 4.0
Ion_mode: P
Num Peaks: 25
67.0547	0.8
70.0656	1.5
82.0655	0.6
83.0607	3.1
84.0811	2.0
95.0606	2.8
96.0684	5.9
97.3978	0.4
109.0761	0.5
109.0843	0.3
109.1014	0.4
110.0603	5.4
111.0442	0.4
111.0556	0.5
111.0635	0.3
111.0811	0.4
111.0838	0.6
111.0919	100.0
111.0998	0.7
112.0507	0.4
112.0759	1.3
112.0875	1.6
112.0952	6.6
112.8959	0.5
113.0346	1.0

Name: 1-Ethyl-5-(4-hydroxyphenyl)-3-methyl-6,7-dihydropyrazolo(4,3-E)(1,4)diazepin-8(1H)-one
PrecursorMZ: 285.134
RT: 3.1592
ExactMass: 284.12732577
Spectrum_type: 2
charge: 1
Formula: C15H16N4O2
SMILES: CCN1C2=C(C(=N1)C)N=C(CNC2=O)C3=CC=C(C=C3)O
Method: HCD
Collision_energy: [28.333334]
Isolation_window: 4.0
Ion_mode: P
Num Peaks: 14
94.9296	91.5
96.9277	11.8
110.0712	57.3
120.0806	11.6
136.9399	19.1
166.0608	11.8
212.1178	17.8
223.9503	25.2
257.1388	12.4
268.1067	6.0
283.9714	13.9
285.1335	100.0
286.1394	12.7
287.1378	15.0

Name: 1-Hexadecanoyl-2-octadecadienoyl-sn-glycero-3-phosphocholine
PrecursorMZ: 758.56862
RT: 3.0138
ExactMass: 758.56998054
Spectrum_type: 2
charge: 1
Formula: C42H81NO8P+
SMILES: CCCCCCCCCCCCCCCC(=O)OC[C@H](COP(=O)(O)OCC[N+](C)(C)C)OC(=O)C=CC=CCCCCCCCCCCCCC
Method: HCD
Collision_energy: [28.333334]
Isolation_window: 4.0
Ion_mode: P
Num Peaks: 37
58.0654	0.3
59.0496	0.5
60.0812	2.3
71.0733	0.4
84.2861	0.3
84.3976	0.1
86.0967	9.9
87.1000	0.4
97.3981	0.2
97.4008	0.1
98.9841	0.3
104.1071	1.1
117.0910	0.2
124.9998	4.7
139.9146	0.2
162.9556	0.6
183.9945	0.2
184.0466	0.2
184.0512	0.3
184.0563	0.7
184.0598	0.7
184.0732	100.0
184.0870	0.3
184.0904	0.6
184.0953	0.2
184.1569	0.2
185.0765	3.6
186.0774	0.3
196.0730	0.1
699.4351	0.1
756.5507	0.2
757.5567	0.4
758.5075	0.6
758.5682	7.2
759.5109	0.3
759.5717	3.2
760.5829	2.9

Name: 1-Hexadecanoyl-sn-glycero-3-phosphoethanolamine
PrecursorMZ: 454.29253
RT: 1.4281
ExactMass: 453.28553974
Spectrum_type: 2
charge: 1
Formula: C21H44NO7P
SMILES: CCCCCCCCCCCCCCCC(=O)OC[C@H](COP(=O)(O)OCCN)O
Method: HCD
Collision_energy: [28.333334]
Isolation_window: 4.0
Ion_mode: P
Num Peaks: 41
50.3716	5.8
57.0340	2.4
57.0703	9.2
62.0605	28.4
67.0546	2.3
69.0703	3.9
71.0859	9.6
81.0702	4.3
83.0858	4.2
85.0286	2.4
85.1015	6.6
95.0858	5.3
96.0810	7.7
109.1014	4.4
113.1075	4.7
114.0914	28.9
116.0705	2.1
155.0104	6.8
209.1647	25.1
210.1681	3.6
216.0633	2.8
226.1913	9.9
227.1752	4.5
228.1593	9.3
282.2788	8.6
313.2733	99.9
314.2769	21.4
322.2486	24.6
323.2521	5.7
339.2756	3.1
340.2587	3.6
393.2394	5.7
435.3327	34.0
436.2819	18.1
436.3350	10.4
437.2854	3.7
453.3431	100.0
454.2934	17.8
454.3461	28.1
455.2968	3.8
455.3489	5.2

Name: 1-Hydroxybenzotriazole
PrecursorMZ: 136.0505
RT: 1.4173
ExactMass: 135.043261791
Spectrum_type: 2
charge: 1
Formula: C6H5N3O
SMILES: C1=CC=C2C(=C1)N=NN2O
Method: HCD
Collision_energy: [28.333334]
Isolation_window: 4.0
Ion_mode: P
Num Peaks: 21
53.0390	1.9
69.2122	0.9
78.0466	1.4
80.0497	3.5
91.0418	12.5
91.0543	1.0
92.0451	1.0
97.4558	0.9
119.0477	5.2
135.0552	0.7
135.0916	0.8
136.0214	7.6
136.0394	0.7
136.0503	100.0
136.0613	1.6
136.0754	1.5
137.0465	1.1
137.0537	7.0
137.0706	1.1
137.1071	0.9
138.0911	0.9

Name: 1-Lauroyl-2-hydroxy-sn-glycero-3-phosphocholine
PrecursorMZ: 440.2767
RT: 10.1669
ExactMass: 439.26988968
Spectrum_type: 2
charge: 1
Formula: C20H42NO7P
SMILES: CCCCCCCCCCCC(=O)OC[C@H](COP(=O)([O-])OCC[N+](C)(C)C)O
Method: HCD
Collision_energy: [28.333334]
Isolation_window: 4.0
Ion_mode: P
Num Peaks: 59
57.0336	2.4
57.0703	10.1
62.0604	28.1
67.0546	2.7
69.0702	6.6
70.0654	4.6
71.0858	10.1
81.0701	6.6
83.0858	5.3
84.0810	8.2
85.0286	5.5
85.1014	5.4
95.0857	9.7
97.0282	2.1
97.1012	4.6
97.4576	3.8
98.9843	11.3
100.0756	2.6
101.0598	3.7
109.1012	6.0
111.1169	2.6
112.0758	3.2
116.0707	2.5
118.0862	2.9
123.1168	3.1
127.0501	7.1
130.0862	10.4
155.0103	24.8
173.0207	4.0
196.0965	5.4
198.0521	2.4
229.0468	4.3
244.1175	9.5
262.1280	43.5
266.2837	23.6
267.2870	12.6
268.2630	8.2
280.1389	2.9
284.2941	10.3
285.2420	7.1
285.2976	6.1
299.2575	100.0
300.2608	19.4
316.1544	2.4
379.2232	4.7
406.1698	2.6
420.2864	3.5
421.2912	2.8
422.2660	12.5
423.2694	2.8
424.1806	32.2
438.2972	15.8
439.1015	2.5
439.3021	10.6
440.1735	2.8
440.2765	12.9
441.2796	2.7
441.3796	3.0
442.1914	31.3

Name: 1-Methyl-1,2,3,4-tetrahydro-beta-carboline-3-carboxylic acid
PrecursorMZ: 231.11257
RT: 1.4484
ExactMass: 230.105527694
Spectrum_type: 2
charge: 1
Formula: C13H14N2O2
SMILES: CC1C2=C(CC(N1)C(=O)O)C3=CC=CC=C3N2
Method: HCD
Collision_energy: [28.333334]
Isolation_window: 4.0
Ion_mode: P
Num Peaks: 31
56.0499	1.7
74.0241	5.9
102.0553	4.4
130.0652	19.5
131.0688	1.9
132.0814	1.8
144.0810	6.9
146.0603	10.1
154.0653	5.7
157.0890	2.5
158.0966	100.0
159.1004	11.5
168.0809	16.7
169.0851	1.6
170.0969	2.0
185.1075	1.8
187.1231	1.9
188.0706	39.1
189.0742	4.9
192.0655	6.9
196.0759	1.5
214.0863	35.5
215.0895	5.4
227.0848	2.7
231.1130	25.0
232.1162	4.0
237.0862	2.9
238.0707	3.2
240.1214	2.1
242.1167	2.1
248.0916	2.2

Name: 1-Methyl-1-(((1-(oxolan-3-yl)piperidin-4-yl)methyl)carbamoyl)ethyl acetate
PrecursorMZ: 313.21199
RT: 7.1109
ExactMass: 312.20490738
Spectrum_type: 2
charge: 1
Formula: C16H28N2O4
SMILES: CC(=O)OC(C)(C)C(=O)NCC1CCN(CC1)C2CCOC2
Method: HCD
Collision_energy: [28.333334]
Isolation_window: 4.0
Ion_mode: P
Num Peaks: 47
55.0547	0.7
57.0340	2.3
70.0656	1.0
75.0445	4.4
81.0339	1.0
83.0496	1.1
84.0811	1.6
87.0444	1.4
97.0286	6.9
101.0599	3.6
111.0441	1.0
131.0703	3.4
136.0618	2.8
142.0975	1.6
145.0497	1.3
149.0809	1.5
151.0630	0.8
167.0916	0.7
177.1386	1.3
195.1492	5.1
213.1597	2.5
215.1179	1.2
223.1174	1.1
228.1017	0.8
237.1598	1.2
277.1906	1.2
295.2014	8.1
296.1138	0.8
296.1479	2.3
296.2056	1.3
312.1070	2.0
312.1237	2.2
312.1439	5.6
312.1584	1.4
312.1939	1.5
313.1184	0.7
313.1391	1.5
313.1529	3.0
313.1750	2.9
313.2120	100.0
314.1206	8.1
314.1388	4.4
314.1719	18.5
314.2155	16.7
315.1333	1.9
315.1690	4.7
315.2159	1.2

Name: 1-Methyl-2,9-dihydro-7H-pyrido(3,4-b)indol-7-one--hydrogen chloride (1/1)
PrecursorMZ: 199.08653
RT: 1.1912
ExactMass: 234.0559907
Spectrum_type: 2
charge: 1
Formula: C12H11ClN2O
SMILES: CC1=C2C(=C3C=CC(=O)C=C3N2)C=CN1.Cl
Method: HCD
Collision_energy: [28.333334]
Isolation_window: 4.0
Ion_mode: P
Num Peaks: 10
184.0632	17.7
185.0665	1.3
185.0717	0.5
199.0674	0.7
199.0712	0.4
199.0866	100.0
199.1019	0.6
199.1056	0.8
200.0900	12.2
201.0940	0.5

Name: 1-Methyl-4-((4-methylphenyl)amino)-3-nitrohydroquinolin-2-one
PrecursorMZ: 310.11839
RT: 5.0953
ExactMass: 309.11134135
Spectrum_type: 2
charge: 1
Formula: C17H15N3O3
SMILES: CC1=CC=C(C=C1)NC2=C(C(=O)N(C3=CC=CC=C32)C)[N+](=O)[O-]
Method: HCD
Collision_energy: [28.333334]
Isolation_window: 4.0
Ion_mode: P
Num Peaks: 16
59.0496	3.3
97.3991	1.8
126.0914	2.2
135.0441	3.5
161.0961	3.0
181.0760	51.4
182.0792	6.1
263.0714	2.1
264.1132	2.4
309.1428	2.1
310.1183	100.0
311.1217	19.0
311.1616	3.4
312.0861	2.0
312.1237	1.9
312.3622	5.1

Name: 1-Methyl-4-piperidyl 6-nitro-2-oxochromene-3-carboxylate
PrecursorMZ: 333.1075
RT: 8.0295
ExactMass: 332.10083623
Spectrum_type: 2
charge: 1
Formula: C16H16N2O6
SMILES: CN1CCC(CC1)OC(=O)C2=CC3=C(C=CC(=C3)[N+](=O)[O-])OC2=O
Method: HCD
Collision_energy: [28.333334]
Isolation_window: 4.0
Ion_mode: P
Num Peaks: 19
154.0860	6.8
161.1283	4.3
172.0965	8.3
228.1009	2.6
239.1386	3.3
257.0914	6.3
274.0941	10.3
286.1065	3.9
302.1025	2.7
316.1044	4.3
318.0840	3.3
332.1472	5.0
332.2168	18.9
333.1072	100.0
333.1436	2.8
333.2201	3.1
334.1106	16.8
334.1769	8.6
335.1578	3.0

Name: 1-Methyl-L-histidine
PrecursorMZ: 170.09222
RT: 9.2678
ExactMass: 169.085126602
Spectrum_type: 2
charge: 1
Formula: C7H11N3O2
SMILES: CN1C=C(N=C1)C[C@@H](C(=O)O)N
Method: HCD
Collision_energy: [28.333334]
Isolation_window: 4.0
Ion_mode: P
Num Peaks: 29
58.0655	10.3
70.0654	6.3
81.0336	27.7
96.0682	36.0
97.0760	10.4
100.0756	6.6
109.0760	51.1
111.0438	4.9
125.0707	6.3
126.0659	13.6
126.1024	25.4
138.1023	29.4
151.0611	9.7
152.0702	11.4
154.0859	10.8
168.0687	17.8
168.0838	6.2
168.0880	5.2
169.0716	6.4
169.0968	6.1
169.1332	6.8
170.0645	6.5
170.0919	100.0
170.1169	4.8
170.1284	34.0
170.1536	7.8
171.0958	7.3
171.1124	8.5
171.1488	10.4

Name: 1-Methylbenzotriazole
PrecursorMZ: 134.07141
RT: 5.0344
ExactMass: 133.063997236
Spectrum_type: 2
charge: 1
Formula: C7H7N3
SMILES: CN1C2=CC=CC=C2N=N1
Method: HCD
Collision_energy: [28.333334]
Isolation_window: 4.0
Ion_mode: P
Num Peaks: 21
86.0968	0.5
91.0545	0.4
92.0498	1.6
132.1021	0.6
133.0642	0.5
133.0762	1.5
134.0606	1.0
134.0628	0.5
134.0714	100.0
134.0796	0.6
134.0820	0.7
134.0965	1.4
135.0150	1.0
135.0555	0.7
135.0684	1.1
135.0746	7.8
135.0917	1.2
136.0216	2.3
136.0616	0.5
136.0757	2.8
136.1121	0.8

Name: 1-Methylguanine
PrecursorMZ: 166.07243
RT: 5.6095
ExactMass: 165.06505986
Spectrum_type: 2
charge: 1
Formula: C6H7N5O
SMILES: CN1C(=O)C2=C(N=CN2)N=C1N
Method: HCD
Collision_energy: [28.333334]
Isolation_window: 4.0
Ion_mode: P
Num Peaks: 40
74.0604	1.8
92.0709	1.6
96.0447	1.0
98.0603	0.7
102.0551	0.8
107.0494	0.8
109.0509	0.8
110.0350	0.8
120.0809	2.1
121.0762	0.7
122.0602	1.0
125.0710	0.9
128.0456	0.6
137.0710	3.1
138.0914	1.8
139.0865	0.6
146.0812	5.6
147.0846	0.6
148.0757	0.6
149.0459	1.5
149.0711	1.0
153.0407	1.7
164.0709	1.0
164.0917	1.0
164.1073	0.7
165.0660	5.2
165.1023	1.3
166.0580	0.6
166.0724	100.0
166.0861	4.6
166.0975	0.8
166.1224	2.0
167.0564	10.1
167.0695	1.6
167.0756	4.4
167.0815	27.5
167.1180	0.9
167.1542	4.5
168.0647	1.2
168.0846	1.1

Name: 1-Methylimidazole
PrecursorMZ: 83.06057
RT: 3.6713
ExactMass: 82.0530982
Spectrum_type: 2
charge: 1
Formula: C4H6N2
SMILES: CN1C=CN=C1
Method: HCD
Collision_energy: [28.333334]
Isolation_window: 4.0
Ion_mode: P
Num Peaks: 10
56.0498	5.5
81.0336	0.4
83.0553	0.7
83.0605	100.0
83.0656	0.6
83.0851	0.4
84.0576	0.7
84.0638	4.9
84.0808	0.4
84.9113	3.8

Name: 1-Methylimidazole-5-acetic acid
PrecursorMZ: 141.06585
RT: 1.3371
ExactMass: 140.058577502
Spectrum_type: 2
charge: 1
Formula: C6H8N2O2
SMILES: CN1C=NC=C1CC(=O)O
Method: HCD
Collision_energy: [28.333334]
Isolation_window: 4.0
Ion_mode: P
Num Peaks: 9
95.0606	12.9
96.0686	5.4
97.0767	1.1
123.0556	2.1
132.1022	1.4
141.0659	100.0
142.0696	6.0
143.0709	0.8
150.1127	3.6

Name: 1-Methylimidazoleacetic acid
PrecursorMZ: 141.06586
RT: 1.8517
ExactMass: 140.058577502
Spectrum_type: 2
charge: 1
Formula: C6H8N2O2
SMILES: CN1C=C(N=C1)CC(=O)O
Method: HCD
Collision_energy: [28.333334]
Isolation_window: 4.0
Ion_mode: P
Num Peaks: 5
127.0503	100.0
128.0538	8.3
139.0865	13.5
141.0658	15.5
142.0863	10.0

Name: 1-Methylnicotinamide
PrecursorMZ: 137.07088
RT: 1.761
ExactMass: 137.071487915
Spectrum_type: 2
charge: 1
Formula: C7H9N2O+
SMILES: C[N+]1=CC=CC(=C1)C(=O)N
Method: HCD
Collision_energy: [28.333334]
Isolation_window: 4.0
Ion_mode: P
Num Peaks: 31
70.0656	2.6
88.0760	1.0
94.0404	1.8
94.0654	1.2
95.0607	13.2
96.0447	2.3
96.0639	0.7
98.0604	0.9
98.0966	2.8
100.0762	0.7
100.1123	10.1
109.0761	2.0
110.0352	2.5
112.0759	2.8
114.0664	4.4
116.0708	1.0
119.0355	2.0
124.0395	1.2
137.0460	100.0
137.0709	49.5
138.0557	21.9
138.0735	3.1
139.0591	1.7
140.0711	0.8
144.1021	2.5
146.1176	4.8
153.0661	0.9
154.0520	6.6
155.0816	19.2
156.0858	1.3
158.0926	4.3

Name: 1-Methylpyrrolidine-2-carboxylic acid
PrecursorMZ: 130.0862
RT: 8.6308
ExactMass: 129.078978594
Spectrum_type: 2
charge: 1
Formula: C6H11NO2
SMILES: CN1CCCC1C(=O)O
Method: HCD
Collision_energy: [28.333334]
Isolation_window: 4.0
Ion_mode: P
Num Peaks: 16
56.0499	1.7
70.0654	6.3
84.0393	0.7
84.0446	100.0
84.0499	0.8
84.0810	1.4
85.0286	1.3
85.0479	5.3
86.0966	0.9
88.1122	2.0
102.0549	0.8
130.0497	13.6
130.0650	0.7
130.0860	2.2
130.1589	3.5
131.0532	0.8

Name: 1-Methyluric Acid
PrecursorMZ: 183.05154
RT: 5.0297
ExactMass: 182.04399007
Spectrum_type: 2
charge: 1
Formula: C6H6N4O3
SMILES: CN1C(=O)C2=C(NC(=O)N2)NC1=O
Method: HCD
Collision_energy: [28.333334]
Isolation_window: 4.0
Ion_mode: P
Num Peaks: 78
69.0086	0.7
69.0450	1.0
70.0403	0.6
70.0654	0.5
91.0543	20.0
92.0577	1.4
95.0605	4.6
98.0349	1.2
98.9843	0.7
110.0600	1.4
112.0505	6.2
112.0870	2.2
119.0603	3.7
121.0759	0.5
122.0599	5.5
122.0964	0.5
124.0756	13.3
126.0296	17.6
127.0330	0.7
136.0391	2.1
136.0755	12.9
137.0709	0.7
137.0788	1.1
138.0297	0.8
138.0912	3.5
140.0452	11.4
141.0485	0.6
144.0401	0.7
152.0088	1.2
153.0656	2.4
154.0860	4.1
155.0561	15.7
156.0595	1.1
157.0480	1.0
157.0969	3.7
158.0559	1.9
163.0863	0.5
164.0341	1.4
164.0557	0.6
164.0703	86.9
164.0814	0.5
164.0847	0.5
164.1179	1.0
165.0406	1.3
165.0656	20.6
165.0736	8.5
165.1022	0.7
166.0245	7.1
166.0610	0.8
166.0688	1.7
166.0860	4.2
166.0974	1.3
167.0278	0.5
168.0276	3.6
181.0686	0.7
181.0837	0.7
181.0967	0.6
182.0091	0.6
182.0439	2.3
182.0809	49.0
182.1173	3.9
182.1285	2.6
183.0339	0.7
183.0509	100.0
183.0643	0.5
183.0679	0.7
183.0760	12.1
183.0841	4.3
183.0920	0.5
183.1125	0.7
183.1314	0.6
184.0476	1.0
184.0544	6.2
184.0711	1.6
184.0793	0.7
184.0866	0.5
184.0965	11.2
185.0917	2.3

Name: 1-Monolinolein
PrecursorMZ: 355.28412
RT: 5.2536
ExactMass: 354.27700969
Spectrum_type: 2
charge: 1
Formula: C21H38O4
SMILES: CCCCC/C=C\C/C=C\CCCCCCCC(=O)OCC(CO)O
Method: HCD
Collision_energy: [28.333334]
Isolation_window: 4.0
Ion_mode: P
Num Peaks: 99
55.0547	5.6
57.0339	4.6
57.0704	8.9
59.0609	7.5
62.0605	5.9
67.0547	34.3
69.0703	26.9
71.0859	10.4
79.0546	13.3
81.0339	4.7
81.0702	63.1
82.0736	5.3
83.0859	27.3
85.0651	4.2
85.1014	5.4
91.0545	7.2
93.0701	21.3
95.0858	57.5
96.0891	6.1
97.0651	10.8
97.1014	23.5
99.0807	4.9
100.1123	5.0
105.0700	8.7
107.0857	25.4
109.1014	43.1
110.1047	6.3
111.0806	6.7
111.1171	7.6
114.0915	8.9
119.0857	12.2
121.1013	48.1
122.1045	4.7
123.1169	28.2
124.1201	4.0
125.0961	4.5
131.0856	6.7
133.1012	17.1
135.1169	32.5
136.1201	5.3
137.1325	13.3
139.1117	4.1
145.1013	11.7
147.1168	12.2
149.1325	23.4
150.1358	5.6
151.0393	5.0
151.1482	8.2
159.1169	7.6
161.1325	12.2
163.1481	15.7
164.1513	4.8
165.1638	8.5
173.1326	4.5
175.1482	9.3
177.1637	4.9
179.1793	5.1
186.0628	7.8
189.1638	6.0
215.1790	4.3
243.2105	4.4
244.2138	6.1
245.2263	54.4
246.2296	10.3
247.2422	22.0
261.2211	14.5
262.2245	21.6
263.2369	62.4
264.2401	12.5
265.2525	37.8
281.2477	5.8
283.2629	6.2
309.2574	10.8
337.2523	6.6
337.2735	26.0
338.2767	4.2
339.2892	17.9
353.2667	5.7
354.1536	8.3
354.2429	6.5
354.2722	24.3
354.3369	4.1
355.1636	4.3
355.2631	39.4
355.2839	15.0
356.1125	4.7
356.1343	5.5
356.2223	4.7
356.2678	7.0
356.2902	5.1
356.2940	4.5
356.3522	100.0
356.3884	13.6
357.1208	6.3
357.1443	6.5
357.2412	7.4
357.2783	6.6
357.2995	10.0
357.3555	17.0

Name: 1-Monopalmitin
PrecursorMZ: 313.27328
RT: 0.7688
ExactMass: 330.27700969
Spectrum_type: 2
charge: 1
Formula: C19H38O4
SMILES: CCCCCCCCCCCCCCCC(=O)OCC(CO)O
Method: HCD
Collision_energy: [28.333334]
Isolation_window: 4.0
Ion_mode: P
Num Peaks: 20
55.0546	2.8
57.0339	10.2
57.0703	31.1
67.0546	5.7
69.0702	6.5
69.8497	2.8
71.0858	27.9
81.0701	8.9
83.0858	9.7
85.1014	18.3
89.0598	2.9
95.0856	16.4
97.1013	4.6
109.1012	7.5
123.1166	3.5
239.2364	2.6
257.2472	4.5
313.2366	3.2
313.2730	100.0
314.2763	20.2

Name: 1-Monopalmitolein
PrecursorMZ: 311.25746
RT: 1.0276
ExactMass: 328.26135963
Spectrum_type: 2
charge: 1
Formula: C19H36O4
SMILES: CCCCCC/C=C\CCCCCCCC(=O)OCC(CO)O
Method: HCD
Collision_energy: [28.333334]
Isolation_window: 4.0
Ion_mode: P
Num Peaks: 55
55.0546	10.3
57.0703	22.0
67.0547	51.9
69.0703	38.2
71.0859	59.4
79.0546	19.6
81.0702	81.8
83.0858	33.3
85.0652	9.5
85.1015	22.9
91.0545	11.2
93.0701	20.1
95.0857	82.9
97.0650	12.3
97.1014	33.2
99.0806	42.6
101.0599	8.5
105.0700	17.8
107.0857	29.8
109.1013	45.1
111.0805	14.0
111.1170	12.0
113.0962	21.8
119.0856	17.0
121.1013	36.2
123.1169	26.3
125.0961	16.6
131.0858	9.7
133.1011	25.3
135.1168	23.3
137.1327	16.8
141.1273	13.3
145.1012	10.6
147.1169	30.7
149.1323	14.3
151.1118	11.9
161.1326	13.1
163.1482	14.9
165.1276	12.2
173.1325	12.0
175.1482	9.4
181.1587	9.2
243.2106	11.8
245.2262	17.5
261.2207	22.8
263.2370	16.8
279.2317	100.0
280.2350	20.9
293.2111	8.8
293.2473	9.8
299.2579	32.1
311.1834	10.0
311.2573	33.7
312.3621	9.5
313.1549	20.1

Name: 1-Myristoyl-2-hydroxy-sn-glycero-3-phosphoethanolamine
PrecursorMZ: 426.26109
RT: 5.063414285714286
ExactMass: 425.25423961
Spectrum_type: 2
charge: 1
Formula: C19H40NO7P
SMILES: CCCCCCCCCCCCCC(=O)OC[C@H](COP(=O)([O-])OCC[NH3+])O
Method: HCD
Collision_energy: [28.333334]
Isolation_window: 4.0
Ion_mode: P
Num Peaks: 28
57.0703	6.4
62.0605	30.2
67.0546	2.4
69.0702	3.4
70.0653	2.0
71.0859	6.6
81.0701	4.0
85.1014	4.5
86.0968	2.7
95.0857	7.1
97.1011	2.1
107.0855	2.1
109.1012	4.8
112.0757	2.2
155.0102	4.7
216.0626	2.7
254.2474	6.1
285.2419	100.0
286.2453	15.2
365.2082	6.1
408.2504	17.1
409.2557	3.6
425.1909	5.4
425.2866	2.9
426.1977	2.1
426.2609	18.1
427.2092	6.9
427.2669	2.6

Name: 1-Myristoyl-2-oleoyl-sn-glycerol
PrecursorMZ: 584.52462
RT: 1.1176
ExactMass: 566.4910252
Spectrum_type: 2
charge: 1
Formula: C35H66O5
SMILES: CCCCCCCCCCCCCC(=O)OC[C@H](CO)OC(=O)CCCCCCC/C=C\CCCCCCCC
Method: HCD
Collision_energy: [28.333334]
Isolation_window: 4.0
Ion_mode: P
Num Peaks: 112
55.0546	4.3
56.0499	1.9
57.0703	7.1
58.2784	5.7
58.3899	1.8
60.0448	29.2
62.9463	2.5
67.0546	18.2
69.0702	18.7
70.0654	11.3
71.0858	5.2
72.0811	2.6
79.0545	2.1
81.0701	28.9
82.0734	1.7
83.0858	22.5
84.0810	2.3
85.0649	1.3
85.1014	4.2
86.0966	3.9
93.0700	3.7
95.0856	30.3
96.0890	2.4
97.0649	1.7
97.1013	18.7
105.0699	2.6
107.0856	4.9
109.1012	33.5
110.1045	2.8
111.0805	1.8
111.1169	6.1
114.0913	1.2
116.0705	1.5
119.0855	4.4
121.1011	6.0
123.1167	8.2
125.0960	2.3
125.1322	1.4
131.0855	1.5
133.1010	3.0
135.1166	4.7
137.1323	2.9
139.1115	1.3
143.0854	1.3
145.1010	4.6
147.1166	1.8
149.1323	2.3
157.1010	1.9
159.1168	2.6
161.1323	1.6
163.1478	1.4
169.1011	1.6
171.1169	1.8
173.1323	1.9
175.1479	2.0
182.0809	2.2
185.1323	1.1
197.1323	1.7
201.1633	1.2
209.1322	1.2
211.1476	1.1
219.2103	1.4
221.1532	1.8
223.1481	1.2
226.2525	1.9
240.2681	8.5
247.1284	1.6
252.2681	61.0
253.2716	9.4
254.2473	2.5
256.2628	1.5
266.2470	2.0
266.2840	2.6
268.2628	1.7
268.2989	1.5
270.2786	40.3
271.2820	7.3
272.2579	14.1
273.2612	2.9
280.2992	5.2
281.3028	1.1
282.2788	1.4
284.2941	2.0
298.3098	8.7
299.3135	1.7
312.2893	1.2
476.4821	2.9
506.4925	16.0
507.4961	4.8
522.5234	2.8
523.5267	2.9
524.5029	100.0
525.5063	34.3
526.5097	5.1
542.5149	1.8
548.5393	2.8
564.5343	2.0
565.5371	2.4
566.5128	44.4
566.5508	11.8
567.5162	17.3
567.5545	3.3
568.5187	3.0
583.2543	1.1
583.4138	2.6
584.4198	2.6
584.5227	11.9
584.5613	12.0
585.4279	2.8
585.5262	4.6
585.5646	4.3
586.4309	1.6

Name: 1-Myristoyl-2-stearoylphosphatidylcholine
PrecursorMZ: 734.56869
RT: 3.0668
ExactMass: 733.56215551
Spectrum_type: 2
charge: 1
Formula: C40H80NO8P
SMILES: CCCCCCCCCCCCCCCCCC(=O)O[C@H](COC(=O)CCCCCCCCCCCCC)COP(=O)([O-])OCC[N+](C)(C)C
Method: HCD
Collision_energy: [28.333334]
Isolation_window: 4.0
Ion_mode: P
Num Peaks: 74
57.0703	0.2
58.0653	0.4
59.0496	0.3
60.0448	0.9
60.0812	2.8
67.0546	0.4
69.0702	0.4
69.1167	0.2
69.1188	0.1
70.0654	0.3
71.0732	0.6
71.0858	0.3
81.0701	0.7
81.6166	0.2
81.6194	0.5
81.7308	0.2
83.0858	0.6
85.1014	0.2
86.0966	10.6
87.0999	0.5
89.0599	0.2
95.0857	0.9
97.1013	0.4
97.4577	0.2
98.0965	1.0
98.9841	0.3
104.1071	1.1
109.1012	0.5
111.1168	0.2
121.1012	0.2
123.1168	0.2
124.9997	4.9
131.0702	0.1
135.1168	0.1
183.9923	0.3
184.0512	0.3
184.0562	0.8
184.0600	0.8
184.0667	1.8
184.0730	100.0
184.0869	0.3
184.0902	0.6
184.0952	0.2
185.0697	0.2
185.0764	4.9
186.0772	0.5
196.0729	3.1
197.0767	0.3
198.0886	0.5
212.0915	0.1
264.2683	0.2
266.2840	0.7
267.2868	0.2
268.2626	0.2
280.2992	0.3
284.2940	1.0
285.2974	0.4
298.3099	0.5
299.3136	0.2
313.2732	0.5
326.3045	0.2
534.5231	0.5
535.5270	0.3
552.5338	2.1
553.5371	1.4
554.5399	0.3
570.5444	2.7
571.5478	2.2
572.5508	0.5
732.5453	0.5
733.5500	0.8
734.5674	10.2
735.5711	4.0
736.5749	0.7

Name: 1-Naphthylamine
PrecursorMZ: 144.08069
RT: 2.2381
ExactMass: 143.073499291
Spectrum_type: 2
charge: 1
Formula: C10H9N
SMILES: C1=CC=C2C(=C1)C=CC=C2N
Method: HCD
Collision_energy: [28.333334]
Isolation_window: 4.0
Ion_mode: P
Num Peaks: 9
117.0699	4.7
120.0810	1.3
143.0730	6.6
144.0808	100.0
145.0842	11.9
152.0566	2.5
154.0499	21.6
155.0521	1.2
159.0915	1.5

Name: 1-O-Acetyllycorine
PrecursorMZ: 330.13359
RT: 1.8405
ExactMass: 329.12632271
Spectrum_type: 2
charge: 1
Formula: C18H19NO5
SMILES: CC(=O)O[C@@H]1[C@H](C=C2CCN3[C@H]2[C@@H]1C4=CC5=C(C=C4C3)OCO5)O
Method: HCD
Collision_energy: [28.333334]
Isolation_window: 4.0
Ion_mode: P
Num Peaks: 54
70.0657	19.0
81.0339	6.8
84.0814	5.5
89.0601	7.3
98.9844	4.4
111.0443	8.3
122.0815	15.4
132.0446	9.8
151.0865	5.0
152.0710	6.1
152.1070	7.2
158.0814	7.6
166.0980	11.1
192.1022	15.5
195.1128	12.6
210.0795	6.5
220.1197	13.2
238.1197	8.0
240.2327	6.4
256.1295	100.0
257.1327	6.4
297.1227	7.0
319.1296	20.1
320.1320	4.6
327.2016	4.2
328.1394	4.4
329.1144	5.3
329.1699	4.3
330.1328	52.0
330.3365	9.2
331.1307	15.9
332.1434	6.0
332.1689	8.4
333.1429	6.5
334.1267	13.2
335.1255	5.6
335.1667	4.4
336.1677	93.3
337.1391	27.7
337.1695	13.0
338.1298	5.2
338.1732	9.4
339.1563	16.3
340.1425	14.0
341.1753	9.3
342.1592	8.7
343.1264	4.9
343.1631	4.9
344.1829	8.8
345.1400	4.9
346.1312	7.0
346.1984	10.5
346.3323	11.7
348.1789	32.9

Name: 1-Oleoyl-2-palmitoyl-sn-glycero-3-phosphocholine
PrecursorMZ: 760.58395
RT: 3.0133
ExactMass: 759.57780557
Spectrum_type: 2
charge: 1
Formula: C42H82NO8P
SMILES: CCCCCCCCCCCCCCCC(=O)O[C@H](COC(=O)CCCCCCC/C=C\CCCCCCCC)COP(=O)([O-])OCC[N+](C)(C)C
Method: HCD
Collision_energy: [28.333334]
Isolation_window: 4.0
Ion_mode: P
Num Peaks: 77
56.0498	0.1
57.0702	0.1
58.0653	0.3
59.0496	0.0
59.0731	0.1
60.0811	3.7
61.0845	0.1
67.0545	0.1
69.0564	0.1
69.0701	0.1
71.0732	0.7
71.0858	0.1
81.0701	0.1
83.0857	0.1
84.2861	0.1
84.3976	0.1
84.5070	0.1
84.5100	0.2
84.6215	0.1
85.1013	0.0
86.0707	0.1
86.0911	0.1
86.0966	15.2
86.0986	0.1
86.1011	0.1
87.0938	0.1
87.0999	0.9
95.0856	0.1
97.1012	0.0
97.4563	0.1
97.4583	0.0
98.0964	0.1
98.9841	0.4
104.1070	1.4
105.1103	0.1
109.1011	0.1
124.9902	0.1
124.9997	7.2
125.0092	0.0
126.0030	0.2
127.0041	0.1
155.0702	0.0
163.0154	0.0
183.9922	0.3
183.9943	0.1
184.0194	0.0
184.0368	0.1
184.0412	0.1
184.0462	0.1
184.0510	0.3
184.0560	0.8
184.0600	0.6
184.0664	1.7
184.0729	100.0
184.0867	0.4
184.0901	0.6
184.0952	0.2
184.0999	0.2
184.1490	0.1
184.1577	0.1
185.0695	0.1
185.0762	6.2
186.0770	0.7
196.0730	0.2
299.2572	0.0
313.2730	0.3
314.2764	0.1
339.2888	0.1
340.2920	0.0
478.3285	0.0
496.3378	0.0
758.5673	1.8
759.5708	2.3
760.5823	6.0
760.7251	0.0
761.5860	2.6
762.5910	0.4

Name: 1-Oleoyl-sn-glycerol 3-phosphate
PrecursorMZ: 437.26603
RT: 4.5576
ExactMass: 436.25899064
Spectrum_type: 2
charge: 1
Formula: C21H41O7P
SMILES: CCCCCCCC/C=C\CCCCCCCC(=O)OC[C@H](COP(=O)(O)O)O
Method: HCD
Collision_energy: [28.333334]
Isolation_window: 4.0
Ion_mode: P
Num Peaks: 36
55.0546	4.2
57.0340	5.4
57.0704	5.5
67.0547	12.0
69.0703	16.3
71.0859	5.9
79.0546	4.4
81.0702	17.0
83.0859	15.4
85.1016	3.1
89.0601	3.6
93.0701	6.9
95.0858	18.5
97.0651	3.8
97.1014	13.2
98.9844	53.4
99.0806	2.6
107.0858	6.4
109.1014	10.3
111.0807	2.5
111.1171	5.1
121.1013	11.6
123.1171	4.9
135.1168	9.5
149.1324	5.8
155.0104	6.9
173.0209	9.1
247.2423	4.1
265.2525	16.7
266.2561	2.6
339.2892	100.0
340.2926	25.1
419.2541	3.3
436.2168	3.5
437.2664	14.4
438.2694	5.1

Name: 1-Palmitoleoyl-3-palmitoleoyl-sn-glycerol
PrecursorMZ: 582.50896
RT: 0.9769
ExactMass: 564.47537514
Spectrum_type: 2
charge: 1
Formula: C35H64O5
SMILES: CCCCCCCC/C=C\CCCCCC(=O)OCC(O)COC(=O)CCCCC/C=C\CCCCCCCC
Method: HCD
Collision_energy: [28.333334]
Isolation_window: 4.0
Ion_mode: P
Num Peaks: 20
57.0703	4.7
69.0703	5.8
71.0859	5.3
81.0702	10.1
83.0859	8.9
90.0552	100.0
95.0858	7.2
97.1014	8.3
109.1013	4.9
111.1171	5.7
121.1014	6.8
135.1167	6.5
233.2264	4.3
251.2368	12.5
312.2898	9.1
340.2843	72.7
341.2878	13.6
358.2950	26.6
359.2983	6.1
582.5084	6.6

Name: 1-Palmitoyl-2-Oleoyl-sn-Glycero-3-Phosphatidic acid
PrecursorMZ: 692.522
RT: 1.9643
ExactMass: 674.48865622
Spectrum_type: 2
charge: 1
Formula: C37H71O8P
SMILES: CCCCCCCCCCCCCCCC(=O)OCC(COP(=O)(O)O)OC(=O)CCCCCCCC=CCCCCCCCC
Method: HCD
Collision_energy: [28.333334]
Isolation_window: 4.0
Ion_mode: P
Num Peaks: 35
55.0547	1.4
57.0703	2.0
57.8330	1.6
57.8346	5.2
57.9461	1.7
58.0586	2.4
60.0448	1.1
67.0546	4.2
69.0703	3.8
71.0859	1.3
81.0702	6.4
83.0858	3.9
85.1015	1.0
95.0857	6.1
97.1014	3.4
109.1013	4.1
111.1169	1.1
123.1169	1.7
242.2478	1.8
252.2680	2.5
266.2479	1.0
268.2631	3.2
270.2787	2.2
292.2628	2.0
502.4983	4.8
503.5027	1.5
504.5129	2.8
520.5086	100.0
521.5120	35.9
522.5239	53.0
538.5178	2.6
539.5230	1.2
540.5347	1.9
693.4802	2.1
694.4827	1.0

Name: 1-Palmitoyl-2-arachidonoyl-sn-glycerol
PrecursorMZ: 634.54007
RT: 0.9727666666666667
ExactMass: 616.50667527
Spectrum_type: 2
charge: 1
Formula: C39H68O5
SMILES: CCCCCCCCCCCCCCCC(=O)OC[C@H](CO)OC(=O)CCC/C=C\C/C=C\C/C=C\C/C=C\CCCCC
Method: HCD
Collision_energy: [28.333334]
Isolation_window: 4.0
Ion_mode: P
Num Peaks: 62
55.0546	6.1
57.0337	5.9
57.0701	4.6
67.0546	29.1
69.0702	22.3
70.3875	2.8
70.6074	4.6
71.0859	4.4
79.0545	10.3
81.0702	42.4
82.0736	2.7
83.0858	19.6
85.0648	2.5
91.0544	4.7
93.0700	13.9
95.0857	39.8
97.0649	4.6
97.1013	11.6
97.4312	4.3
99.0805	3.7
105.0700	5.5
107.0856	11.0
109.1013	23.2
111.0804	2.8
111.1168	4.0
119.0855	7.5
121.1012	14.5
123.1168	11.7
133.1011	7.2
135.1167	11.8
137.1323	6.9
147.1166	7.1
149.1324	7.5
151.1478	2.4
161.1323	4.4
163.1480	5.9
175.1479	4.0
243.2104	3.1
245.2260	5.0
261.2207	8.5
263.2366	6.7
277.2156	2.5
335.2575	12.1
336.2612	4.7
337.2732	100.0
338.2766	17.5
339.2890	26.8
340.2924	2.9
598.4900	4.0
599.5026	39.8
600.5055	15.0
601.5173	11.3
615.4977	5.2
616.5005	4.7
617.5131	21.7
618.5167	8.8
633.4833	58.1
634.4791	7.6
634.4866	25.8
635.4597	76.2
635.5024	2.4
636.4653	12.9

Name: 1-Palmitoyl-2-oleoyl-sn-glycero-3-phosphocholine
PrecursorMZ: 782.5685
RT: 3.0053
ExactMass: 759.57780557
Spectrum_type: 2
charge: 1
Formula: C42H82NO8P
SMILES: CCCCCCCCCCCCCCCC(=O)OC[C@H](COP(=O)([O-])OCC[N+](C)(C)C)OC(=O)CCCCCCC/C=C\CCCCCCCC
Method: HCD
Collision_energy: [28.333334]
Isolation_window: 4.0
Ion_mode: P
Num Peaks: 26
58.0653	0.3
60.0812	3.0
71.0732	0.5
86.0966	12.6
86.9528	0.3
87.0999	0.4
98.9841	0.3
104.1070	1.2
124.9997	5.6
184.0510	0.3
184.0562	0.7
184.0598	0.7
184.0670	1.8
184.0730	100.0
184.0868	0.3
184.0903	0.6
184.0949	0.2
184.1539	0.3
185.0764	3.5
186.0772	0.4
301.1542	0.2
780.5532	0.4
781.5538	0.4
782.5677	6.4
783.5710	2.9
784.5823	3.6

Name: 1-Palmitoyl-2-oleoyl-sn-glycerol
PrecursorMZ: 577.51851
RT: 0.7901
ExactMass: 594.52232533
Spectrum_type: 2
charge: 1
Formula: C37H70O5
SMILES: CCCCCCCCCCCCCCCC(=O)OC[C@H](CO)OC(=O)CCCCCCC/C=C\CCCCCCCC
Method: HCD
Collision_energy: [28.333334]
Isolation_window: 4.0
Ion_mode: P
Num Peaks: 48
55.0546	8.6
57.0703	31.0
64.1691	5.0
67.0546	23.4
69.0702	30.0
69.0797	4.6
69.1090	3.7
69.1112	4.7
69.1404	4.9
71.0858	26.2
79.0544	4.5
81.0701	34.3
82.0735	2.4
83.0858	29.5
85.0650	2.3
85.1014	18.6
93.0700	6.4
95.0856	45.0
96.0890	4.2
97.1012	20.2
97.4563	3.6
107.0855	5.5
109.1012	22.1
110.1045	2.4
111.1168	6.8
121.1011	10.3
123.1167	10.1
124.0062	14.4
135.1167	7.9
137.1323	2.5
149.1323	4.4
239.2367	2.0
252.2681	2.0
265.2521	4.2
320.2249	1.9
334.2403	22.3
335.2432	5.2
338.2352	2.0
352.2508	25.2
353.2537	4.1
558.4530	4.3
559.4578	2.0
576.4639	6.7
576.5057	5.7
577.4760	2.6
577.5178	100.0
578.5212	38.5
579.5275	8.3

Name: 1-Palmitoyl-sn-glycero-3-phosphocholine
PrecursorMZ: 496.3392
RT: 10.1628
ExactMass: 495.33248993
Spectrum_type: 2
charge: 1
Formula: C24H50NO7P
SMILES: CCCCCCCCCCCCCCCC(=O)OC[C@H](COP(=O)([O-])OCC[N+](C)(C)C)O
Method: HCD
Collision_energy: [28.333334]
Isolation_window: 4.0
Ion_mode: P
Num Peaks: 65
55.1491	2.2
57.0339	3.0
57.0703	6.1
58.0655	9.4
60.0812	5.2
67.0546	5.9
69.0702	7.3
70.0655	1.2
71.0858	7.8
75.0444	1.2
81.0701	11.1
83.0858	8.8
84.0810	1.7
85.1014	5.2
86.0966	16.9
88.0394	2.4
95.0857	13.5
97.1013	8.1
98.9843	43.2
100.0758	1.6
104.1071	72.4
105.1104	3.1
106.0499	1.5
109.1013	8.5
111.1168	3.4
121.1010	1.2
123.1168	4.0
124.9998	6.4
135.1167	1.1
137.1322	1.4
155.0102	81.2
156.0136	2.1
173.0208	20.6
184.0671	1.8
184.0731	100.0
185.0765	4.5
229.0468	20.1
230.0503	1.2
242.2477	1.5
247.0572	4.2
258.1093	1.2
303.0643	1.2
313.2730	7.0
341.3044	7.1
342.3080	1.8
396.3255	1.4
397.3287	1.9
414.3360	3.6
415.0476	1.2
415.3392	5.4
416.3515	3.2
423.2867	1.1
478.3286	5.2
479.3318	1.4
494.2927	1.1
494.4924	14.3
495.2958	2.7
495.3047	4.0
495.4398	2.3
495.5001	6.0
496.3081	2.1
496.3390	42.7
496.4752	1.3
497.0204	1.4
497.3452	9.7

Name: 1-Palmitoyl-sn-glycerol
PrecursorMZ: 331.28414
RT: 5.2466
ExactMass: 330.27700969
Spectrum_type: 2
charge: 1
Formula: C19H38O4
SMILES: CCCCCCCCCCCCCCCC(=O)OC[C@H](CO)O
Method: HCD
Collision_energy: [28.333334]
Isolation_window: 4.0
Ion_mode: P
Num Peaks: 66
57.0339	3.0
57.0704	29.2
58.0656	19.0
60.0449	3.3
67.0547	8.9
69.0703	7.1
71.0859	34.6
72.0892	2.6
75.0443	2.2
75.0557	11.3
81.0702	14.0
83.0859	14.6
84.0447	3.2
85.1015	21.8
86.0969	2.3
91.0545	45.8
92.0577	2.4
95.0858	28.8
97.1014	7.1
105.0700	2.4
109.1014	16.6
111.1170	2.3
119.0857	2.1
120.0809	7.5
121.1014	2.6
123.1170	6.8
130.0652	4.4
137.1325	3.7
144.0809	6.2
146.0601	3.1
147.0442	3.4
148.0757	9.6
175.0864	2.4
180.1020	27.1
181.0607	4.5
208.0967	7.1
231.1127	6.6
238.1803	2.4
239.2369	23.7
240.2405	3.6
240.2685	23.9
241.2719	3.2
257.2473	4.8
259.1075	5.1
273.1600	2.9
294.1570	2.4
301.1546	5.0
313.2736	48.5
314.1150	3.0
314.2773	9.7
329.3235	3.0
330.1511	5.2
330.1782	37.7
330.2079	3.4
331.1293	2.9
331.1638	2.8
331.1835	3.6
331.1871	3.5
331.1915	5.6
331.2250	2.7
332.1138	4.8
332.1966	2.5
332.3311	100.0
333.1439	5.1
333.1805	9.4
333.3350	17.5

Name: 1-Pentadecanoyl-2-hexadecanoyl-sn-glycero-3-phosphocholine
PrecursorMZ: 720.55319
RT: 4.5441
ExactMass: 719.54650544
Spectrum_type: 2
charge: 1
Formula: C39H78NO8P
SMILES: CCCCCCCCCCCCCCCC(=O)O[C@H](COC(=O)CCCCCCCCCCCCCC)COP(=O)([O-])OCC[N+](C)(C)C
Method: HCD
Collision_energy: [28.333334]
Isolation_window: 4.0
Ion_mode: P
Num Peaks: 86
57.0703	0.2
58.0653	0.3
59.0495	0.1
59.0732	0.1
60.0448	0.2
60.0812	2.9
61.0845	0.1
67.0546	0.2
69.0702	0.2
69.4364	0.1
70.0654	0.1
71.0732	0.5
71.0858	0.2
80.0594	0.2
80.0620	0.4
80.1736	0.2
81.0701	0.3
83.0858	0.2
85.1014	0.1
86.0912	0.1
86.0966	12.1
86.1021	0.1
87.1000	0.5
89.0599	0.1
93.0700	0.1
95.0856	0.3
97.1012	0.2
97.4563	0.1
98.9840	0.3
104.1070	1.2
109.1011	0.2
110.0713	0.1
111.1168	0.1
123.1170	0.1
124.9959	0.1
124.9997	5.1
125.0960	0.1
126.0031	0.1
126.0913	0.1
155.0105	0.1
155.0700	0.1
156.0762	0.1
166.0857	0.1
180.1016	0.1
183.9876	0.1
183.9923	0.3
183.9965	0.1
184.0423	0.1
184.0460	0.2
184.0511	0.3
184.0561	0.8
184.0599	0.7
184.0665	1.8
184.0730	100.0
184.0867	0.2
184.0902	0.6
184.0952	0.2
184.0996	0.1
184.1500	0.1
184.1538	0.2
184.1592	0.1
185.0696	0.1
185.0763	4.3
186.0771	0.4
210.0985	0.1
266.2843	0.2
284.2941	0.3
285.2969	0.1
299.2571	0.2
303.1700	0.1
313.2732	0.2
520.5065	0.1
530.2483	0.1
538.5182	0.4
539.5216	0.4
548.5388	0.2
550.5182	0.4
556.5287	0.6
557.5323	0.4
558.5344	0.1
580.5649	0.1
718.5747	0.1
719.5765	0.2
720.5517	8.7
721.5551	3.5
722.5579	0.5

Name: 1-Pentanaminium, 5-amino-5-carboxy-N,N,N-trimethyl-, inner salt
PrecursorMZ: 189.15954
RT: 10.7789
ExactMass: 188.152477885
Spectrum_type: 2
charge: 1
Formula: C9H20N2O2
SMILES: C[N+](C)(C)CCCCC(C(=O)[O-])N
Method: HCD
Collision_energy: [28.333334]
Isolation_window: 4.0
Ion_mode: P
Num Peaks: 8
84.0810	100.0
102.0914	65.8
130.0861	22.4
154.1226	59.2
165.0211	23.7
171.1489	95.8
172.1330	42.1
190.1072	26.6

Name: 1-Phenylethanol
PrecursorMZ: 123.0805
RT: 1.1492
ExactMass: 122.073164938
Spectrum_type: 2
charge: 1
Formula: C8H10O
SMILES: CC(C1=CC=CC=C1)O
Method: HCD
Collision_energy: [28.333334]
Isolation_window: 4.0
Ion_mode: P
Num Peaks: 16
67.0546	3.6
69.0339	3.3
79.0545	2.1
81.0702	8.6
93.0701	2.3
95.0857	4.1
105.0701	2.8
107.0731	7.0
121.1012	2.8
122.0601	2.7
122.0965	12.9
123.0805	100.0
123.1169	5.8
124.0837	9.1
125.0599	2.2
125.0961	5.0

Name: 1-Stearoyl-2-linoleoyl-sn-glycero-3-phosphatidylcholine
PrecursorMZ: 786.59982
RT: 4.4897
ExactMass: 785.59345564
Spectrum_type: 2
charge: 1
Formula: C44H84NO8P
SMILES: CCCCCCCCCCCCCCCCCC(=O)OC[C@H](COP(=O)([O-])OCC[N+](C)(C)C)OC(=O)CCCCCCC/C=C\C/C=C\CCCCC
Method: HCD
Collision_energy: [28.333334]
Isolation_window: 4.0
Ion_mode: P
Num Peaks: 26
60.0811	2.8
71.0732	0.7
86.0966	12.0
87.0999	0.6
98.9841	0.4
104.1071	1.0
124.9997	5.2
162.9553	0.9
184.0561	0.9
184.0595	0.8
184.0671	1.8
184.0730	100.0
184.0902	0.5
185.0764	4.1
186.0774	0.4
264.2679	1.3
606.6171	0.4
624.6302	0.5
784.5807	0.9
785.5147	0.5
785.5812	1.2
786.5353	1.1
786.5992	6.6
787.5403	0.4
787.6033	2.8
788.6120	2.7

Name: 1-Stearoyl-sn-glycero-3-phosphocholine
PrecursorMZ: 524.37097
RT: 4.9122
ExactMass: 523.36379006
Spectrum_type: 2
charge: 1
Formula: C26H54NO7P
SMILES: CCCCCCCCCCCCCCCCCC(=O)OC[C@H](COP(=O)([O-])OCC[N+](C)(C)C)O
Method: HCD
Collision_energy: [28.333334]
Isolation_window: 4.0
Ion_mode: P
Num Peaks: 35
57.0703	0.5
58.0654	0.4
58.2638	2.0
58.3753	0.6
60.0812	5.0
71.0733	0.7
71.0859	0.6
81.0702	0.4
85.1017	0.4
86.0967	15.8
87.1000	0.8
88.0395	0.3
95.0858	0.4
97.3986	0.3
104.0999	0.5
104.1072	63.7
104.1143	0.4
105.1105	2.7
106.0499	0.3
124.9999	5.5
163.0155	0.6
184.0564	0.8
184.0599	0.8
184.0733	100.0
184.0904	0.6
185.0766	5.0
186.0779	0.5
258.1100	1.2
341.3046	1.7
506.3603	4.2
507.3643	1.1
524.2694	0.3
524.3709	39.0
525.3742	11.5
526.3771	1.3

Name: 1-Tetradecanoyl-2-heptadecanoyl-glycero-3-phosphocholine
PrecursorMZ: 720.55316
RT: 4.5136
ExactMass: 719.54650544
Spectrum_type: 2
charge: 1
Formula: C39H78NO8P
SMILES: CCCCCCCCCCCCCCCCC(=O)O[C@H](COC(=O)CCCCCCCCCCCCC)COP(=O)([O-])OCC[N+](C)(C)C
Method: HCD
Collision_energy: [28.333334]
Isolation_window: 4.0
Ion_mode: P
Num Peaks: 9
59.0494	0.9
60.0812	2.3
86.0967	10.6
104.1071	0.8
124.9998	3.6
184.0732	100.0
185.0765	4.6
720.5525	12.4
721.5540	4.6

Name: 1-amino-1,3-dicarboxycyclopentane, trans-(1R,3S)-
PrecursorMZ: 174.07607
RT: 5.5388
ExactMass: 173.06880783
Spectrum_type: 2
charge: 1
Formula: C7H11NO4
SMILES: C1C[C@@](C[C@H]1C(=O)O)(C(=O)O)N
Method: HCD
Collision_energy: [28.333334]
Isolation_window: 4.0
Ion_mode: P
Num Peaks: 31
70.0654	1.0
71.0494	0.6
81.0337	0.9
82.0654	8.5
83.0687	0.6
84.0446	31.6
85.0479	1.0
95.0493	0.6
97.0286	0.8
100.0758	0.9
110.0601	7.4
113.0597	0.9
116.0706	1.4
127.0754	0.7
128.0705	30.6
128.1069	0.7
129.0739	1.8
141.0543	0.7
155.0813	0.7
156.0520	0.7
156.0547	0.5
156.0653	100.0
156.0788	0.7
156.1016	1.8
157.0686	7.0
173.0914	0.6
173.1646	1.3
174.0758	29.7
174.1020	1.5
174.1110	0.8
175.0795	1.9

Name: 1-ethyl-9H-pyrido(3,4-b)indole
PrecursorMZ: 197.10713
RT: 1.469025
ExactMass: 196.100048391
Spectrum_type: 2
charge: 1
Formula: C13H12N2
SMILES: CCC1=NC=CC2=C1NC3=CC=CC=C23
Method: HCD
Collision_energy: [28.333334]
Isolation_window: 4.0
Ion_mode: P
Num Peaks: 8
156.1017	2.4
169.0791	1.4
178.0857	1.1
182.0835	2.1
196.0965	4.6
197.0743	1.6
197.1070	100.0
198.1104	14.2

Name: 1-hexadecanoyl-2-(9Z,12Z-octadecadienoyl)-sn-glycero-3-phosphoethanolamine
PrecursorMZ: 716.5237
RT: 0.9161
ExactMass: 715.51520532
Spectrum_type: 2
charge: 1
Formula: C39H74NO8P
SMILES: CCCCCCCCCCCCCCCC(=O)OC[C@H](COP(=O)(O)OCCN)OC(=O)CCCCCCC/C=C\C/C=C\CCCCC
Method: HCD
Collision_energy: [28.333334]
Isolation_window: 4.0
Ion_mode: P
Num Peaks: 22
57.0703	1.9
62.0604	1.4
67.0546	1.4
69.0702	1.7
71.0858	1.3
81.0701	1.5
83.0858	1.4
95.0856	2.3
98.0599	1.7
109.1012	1.4
155.0102	2.6
282.2784	40.4
283.2819	5.0
304.2630	3.3
305.2660	2.4
306.2784	100.0
307.2819	18.0
308.2942	32.6
313.2729	10.2
314.2769	1.3
324.2895	1.2
337.2728	1.7

Name: 1-methyl-N-(2-(nicotinamido)ethyl)-1H-indole-3-carboxamide
PrecursorMZ: 345.1304
RT: 1.4743
ExactMass: 322.14297583
Spectrum_type: 2
charge: 1
Formula: C18H18N4O2
SMILES: CN1C=C(C2=CC=CC=C21)C(=O)NCCNC(=O)C3=CN=CC=C3
Method: HCD
Collision_energy: [28.333334]
Isolation_window: 4.0
Ion_mode: P
Num Peaks: 8
94.9297	11.2
112.8956	9.2
139.9145	5.6
141.9125	5.3
213.0511	5.0
271.0938	8.9
345.1302	100.0
346.1335	13.6

Name: 1-methyl-N~6~-(4-methylbenzyl)-N~4~-(4-methylphenyl)-1H-pyrazolo(3,4-d)pyrimidine-4,6-diamine
PrecursorMZ: 359.1979
RT: 1.0552
ExactMass: 358.19059473
Spectrum_type: 2
charge: 1
Formula: C21H22N6
SMILES: CC1=CC=C(C=C1)CNC2=NC(=C3C=NN(C3=N2)C)NC4=CC=C(C=C4)C
Method: HCD
Collision_energy: [28.333334]
Isolation_window: 4.0
Ion_mode: P
Num Peaks: 10
95.0857	6.3
97.4321	6.5
358.2817	9.3
358.3089	5.5
359.1980	100.0
359.2188	16.6
359.2924	9.3
360.2013	21.9
360.3235	29.4
361.2133	18.8

Name: 10-Hydroxyaloin
PrecursorMZ: 435.12807
RT: 6.7349
ExactMass: 434.12129689
Spectrum_type: 2
charge: 1
Formula: C21H22O10
SMILES: C1=CC2=C(C(=C1)O)C(=O)C3=C(C2(C4C(C(C(C(O4)CO)O)O)O)O)C=C(C=C3O)CO
Method: HCD
Collision_energy: [28.333334]
Isolation_window: 4.0
Ion_mode: P
Num Peaks: 34
57.0339	17.0
75.0444	17.5
85.0286	7.9
93.0548	29.5
107.0492	50.2
121.0285	7.2
132.0442	15.6
135.0440	9.7
223.0751	29.6
239.0699	75.0
240.0733	12.6
241.0855	31.9
251.0699	19.6
265.0855	25.9
267.0647	7.4
269.0802	97.6
270.0837	12.2
287.0915	10.7
293.0802	49.4
294.0833	9.0
297.0751	53.9
298.0788	7.5
307.0957	7.5
321.0745	8.3
323.0910	26.2
335.0910	21.7
353.1011	20.0
371.1116	14.7
389.1225	100.0
390.1259	16.0
417.1173	42.3
418.1201	8.4
435.0892	44.6
435.1274	29.6

Name: 11-)2-)(dimethylamino)methyl(cyclohexyl(-6H-benzo)c()1(benzothiepin-11-ol
PrecursorMZ: 368.20326
RT: 11.3892
ExactMass: 367.19698572
Spectrum_type: 2
charge: 1
Formula: C23H29NOS
SMILES: CN(C)CC1CCCCC1C2(C3=CC=CC=C3CSC4=CC=CC=C42)O
Method: HCD
Collision_energy: [28.333334]
Isolation_window: 4.0
Ion_mode: P
Num Peaks: 21
70.0657	2.1
95.0609	2.2
110.0716	6.1
189.1245	3.2
235.1193	4.0
290.1615	4.6
291.1450	11.1
308.1721	8.8
309.1550	16.3
310.1574	2.3
333.1673	14.1
334.1693	2.8
350.1942	5.9
351.1771	16.0
352.1804	2.9
368.1570	3.8
368.2046	100.0
369.2076	20.2
370.2067	2.3
374.3620	2.6
382.1632	2.8

Name: 11-)3-(3-oxo-1H-isoindol-2-yl)propanoyl(-7,11-diazatricyclo)7.3.1.02,7(trideca-2,4-dien-6-one
PrecursorMZ: 400.15959
RT: 9.6938
ExactMass: 377.1739416
Spectrum_type: 2
charge: 1
Formula: C22H23N3O3
SMILES: C1C2CN(CC1C3=CC=CC(=O)N3C2)C(=O)CCN4CC5=CC=CC=C5C4=O
Method: HCD
Collision_energy: [28.333334]
Isolation_window: 4.0
Ion_mode: P
Num Peaks: 26
70.0655	5.5
84.0811	9.1
89.0600	6.3
103.0392	4.3
123.0553	13.9
130.0858	4.0
239.1026	9.4
254.1010	4.3
269.1493	3.5
398.1891	4.3
399.1776	16.0
400.1599	100.0
400.2130	6.7
401.1566	72.5
401.2004	4.7
402.1585	14.4
403.1721	9.8
404.1554	10.4
405.1891	7.3
408.1856	6.2
413.2679	5.7
415.1714	21.1
416.1556	20.4
417.1991	13.2
418.1714	7.6
418.2284	29.6

Name: 11-Nor-9-carboxy-delta9-tetrahydrocannabinol
PrecursorMZ: 345.20598
RT: 4.3773
ExactMass: 344.19875937
Spectrum_type: 2
charge: 1
Formula: C21H28O4
SMILES: CCCCCC1=CC(=C2[C@@H]3C=C(CC[C@H]3C(OC2=C1)(C)C)C(=O)O)O
Method: HCD
Collision_energy: [28.333334]
Isolation_window: 4.0
Ion_mode: P
Num Peaks: 23
57.0703	21.8
85.0651	16.7
137.1325	9.6
149.1325	12.9
151.1120	11.9
163.1119	9.3
173.1325	10.0
200.0914	9.4
201.1274	24.4
209.0806	14.6
243.1380	31.1
261.1483	31.2
309.1843	10.5
327.1952	72.0
328.1989	16.7
344.1126	16.1
344.1493	11.1
345.1437	16.6
345.1685	14.9
345.2052	100.0
346.1278	19.2
346.2090	24.2
347.1589	13.5

Name: 12,13-DiHOME
PrecursorMZ: 297.24198
RT: 0.5719
ExactMass: 314.24570956
Spectrum_type: 2
charge: 1
Formula: C18H34O4
SMILES: CCCCCC(C(C/C=C\CCCCCCCC(=O)O)O)O
Method: HCD
Collision_energy: [28.333334]
Isolation_window: 4.0
Ion_mode: P
Num Peaks: 161
55.0549	2.3
57.0339	5.0
57.0704	25.4
59.0496	4.4
60.0448	5.2
67.0547	50.7
68.0581	3.1
69.0339	2.5
69.0703	38.8
70.0737	2.5
71.0496	10.7
71.0860	45.3
72.0814	3.0
72.0892	2.3
73.0652	2.6
76.0398	7.4
79.0546	14.9
81.0339	2.3
81.0703	87.4
82.0736	5.3
83.0495	4.4
83.0859	34.3
85.0652	10.2
85.1016	11.2
86.0968	9.4
89.0600	2.8
91.0546	9.2
93.0702	23.5
94.0735	2.1
95.0494	4.5
95.0858	82.7
96.0892	7.3
97.0650	10.7
97.1015	30.9
97.3298	2.9
98.0604	2.1
99.0807	22.5
100.0840	2.1
105.0701	11.9
107.0858	28.5
108.0890	2.8
109.0651	5.1
109.1014	53.7
110.1049	4.4
111.0807	9.0
111.1171	11.4
113.0601	2.4
113.0964	7.4
117.0703	2.3
119.0858	17.8
121.0652	2.6
121.1014	35.7
122.1044	4.2
123.0807	6.6
123.1170	36.1
124.1201	2.7
125.0962	10.6
125.1328	3.8
126.0223	2.5
127.1120	3.7
131.0857	8.9
133.1013	21.5
135.0808	3.7
135.1170	26.8
136.1202	2.8
137.0599	2.5
137.0964	7.5
137.1326	16.6
139.1119	9.9
141.0910	2.5
141.1275	15.7
145.1014	11.0
147.1170	26.2
148.1203	2.6
149.0963	5.7
149.1326	16.2
150.1364	2.2
151.1119	9.9
151.1484	5.8
153.1274	6.1
157.1012	3.7
159.1168	9.2
161.0961	2.5
161.1326	17.9
162.1362	2.4
163.1120	7.5
163.1484	10.0
165.0911	2.3
165.1277	10.3
165.1641	2.1
167.1068	2.4
167.1436	3.3
169.1222	2.5
171.1171	3.2
173.1327	9.1
175.1481	8.2
177.1277	4.0
177.1634	3.8
179.1432	7.1
181.1224	3.7
181.1589	3.2
183.1380	2.1
185.1326	2.6
187.1481	5.2
189.1124	2.1
189.1637	3.9
191.1432	2.1
193.1586	3.7
195.1379	3.3
201.1635	3.5
205.1586	2.1
209.1536	3.0
215.1796	2.3
217.1960	2.7
223.1690	4.0
229.1329	2.5
229.1952	2.2
233.2262	2.3
243.2111	10.9
244.1208	2.8
244.2139	2.1
245.2266	6.6
253.2528	3.9
255.1137	3.4
257.1284	20.9
258.1325	3.8
259.2054	2.4
261.2211	25.7
262.2248	5.2
263.2370	6.7
277.2162	12.8
278.2191	4.8
279.2318	100.0
280.2354	21.5
281.2475	4.2
282.2789	3.4
285.1231	3.0
287.1371	2.2
293.2113	2.0
295.2270	10.7
296.2313	3.6
296.2940	8.0
297.1850	2.4
297.2428	37.1
298.2458	8.4
299.2585	33.8
300.2622	5.3
301.1544	5.4
301.2163	4.4
303.1343	7.3
303.2319	8.1
304.2637	10.4
305.2485	3.1
306.2791	33.1
307.2855	6.6
308.2949	10.8
310.2375	4.4
313.2742	29.1
314.2771	5.3
315.2000	3.0
316.2846	2.7

Name: 12,15-Dihydroxy-7-methyl-8-oxabicyclo(11.3.0)hexadeca-2,10-dien-9-one
PrecursorMZ: 263.16412
RT: 5.243
ExactMass: 280.16745924
Spectrum_type: 2
charge: 1
Formula: C16H24O4
SMILES: CC1CCCC=CC2CC(CC2C(C=CC(=O)O1)O)O
Method: HCD
Collision_energy: [28.333334]
Isolation_window: 4.0
Ion_mode: P
Num Peaks: 103
55.0183	3.1
55.0547	4.4
67.0547	11.5
69.0340	4.5
69.0703	9.0
70.0655	2.8
71.0495	4.0
79.0546	13.7
81.0338	4.6
81.0702	17.9
83.0495	6.0
83.0859	8.6
85.0652	4.5
86.0603	6.4
87.0444	6.1
89.0600	16.6
91.0545	10.8
93.0702	16.4
95.0494	7.4
95.0858	13.9
97.0649	5.6
105.0701	15.3
107.0493	5.4
107.0858	16.3
109.0649	6.6
109.1014	8.2
111.0805	3.7
113.0599	20.4
116.0708	9.9
117.0701	26.9
119.0493	5.5
119.0857	15.6
121.0649	34.8
121.1014	10.6
123.0805	5.5
129.0700	22.2
131.0491	3.0
131.0856	29.9
133.0648	20.0
133.0861	4.6
133.1012	12.7
135.0805	17.6
135.0917	14.6
135.1167	6.8
137.0961	3.6
142.0863	2.7
143.0856	11.4
145.0648	2.9
145.1012	13.2
146.0811	12.6
147.0804	21.1
147.1170	7.6
149.0742	3.4
149.0962	10.4
149.1325	9.3
153.1024	10.2
155.0856	3.1
157.1014	8.3
159.1171	5.9
161.0962	8.9
163.1119	4.0
168.0654	3.5
171.0807	3.9
171.1169	3.5
175.1116	2.7
176.0708	3.2
181.1010	3.0
183.1166	6.5
185.1325	7.0
189.1274	2.6
199.1481	11.3
201.1273	3.0
202.1074	3.3
203.1022	4.6
203.1429	3.9
209.1325	6.6
209.1536	5.1
216.1233	4.7
217.1585	10.7
227.1429	12.0
229.1586	2.9
244.0967	2.6
245.0918	8.0
245.1535	100.0
246.1124	3.0
246.1572	16.0
247.1329	2.6
247.1692	11.5
261.1481	2.7
261.1848	8.6
262.1070	16.1
263.1019	8.8
263.1251	3.2
263.1392	6.4
263.1640	98.8
263.2005	9.4
264.0860	2.9
264.1224	9.7
264.1342	28.0
264.1684	13.2
265.1181	5.0
265.1309	42.2
265.1800	15.4

Name: 12-Hydroxy-13-(hydroxymethyl)-3,5,7-trimethyl-2,4-tetradecadienedioic acid
PrecursorMZ: 325.20077
RT: 4.967
ExactMass: 342.20423867
Spectrum_type: 2
charge: 1
Formula: C18H30O6
SMILES: CC(CCCCC(C(CO)C(=O)O)O)C/C(=C/C(=C/C(=O)O)/C)/C
Method: HCD
Collision_energy: [28.333334]
Isolation_window: 4.0
Ion_mode: P
Num Peaks: 193
55.0183	2.7
55.0547	6.6
57.0339	5.1
67.0547	16.4
69.0339	4.6
69.0703	14.0
70.0656	4.6
71.0496	7.6
72.0448	3.1
72.0812	2.4
79.0546	10.9
81.0339	6.4
81.0703	26.6
83.0495	7.8
83.0859	26.5
84.0448	2.4
84.0811	2.7
85.0651	10.6
86.0968	3.7
87.0443	3.2
89.0600	4.4
91.0545	9.0
93.0701	20.0
95.0494	12.4
95.0858	18.8
97.0650	19.2
97.1014	12.9
97.3982	4.1
97.4010	2.2
99.0442	2.7
99.0807	12.4
100.0760	2.6
101.0599	3.5
103.0393	4.5
105.0701	13.3
107.0493	6.4
107.0857	15.8
109.0650	18.5
109.1013	11.2
111.0442	4.1
111.0807	9.6
113.0599	7.3
114.0664	3.9
114.0915	7.5
115.0755	5.3
116.0708	5.4
117.0701	5.6
119.0857	16.0
121.0649	12.2
121.1013	17.1
123.0442	3.0
123.0806	23.0
123.1170	4.1
124.1121	2.8
125.0599	5.7
125.0962	16.5
126.0914	100.0
127.0754	4.6
127.0948	7.4
129.0699	4.6
131.0856	12.0
133.0649	3.8
133.0859	2.9
133.1012	13.0
135.0805	12.8
135.1169	8.2
136.0759	5.7
137.0597	8.3
137.0961	12.5
139.0753	6.5
139.1117	4.7
141.0910	5.6
143.0855	4.8
145.1012	11.7
145.1336	3.3
147.0805	7.0
147.1169	8.2
149.0962	10.8
149.1325	3.2
151.0754	4.6
151.1118	6.3
152.1071	7.2
153.0911	7.1
155.0856	2.4
157.1013	5.9
159.0806	4.7
159.1170	6.9
161.0963	8.4
161.1325	3.4
163.0754	4.1
163.1118	9.5
164.0708	5.3
165.0548	6.1
165.0912	7.4
165.1275	3.2
166.0866	2.9
166.0976	4.3
167.1067	5.2
168.1019	3.0
169.1010	3.9
171.1169	5.5
173.0962	4.7
173.1325	4.4
175.1119	7.7
177.0911	5.1
177.1275	3.9
179.1068	5.1
180.1132	39.7
181.1158	3.5
181.1222	3.1
182.0812	8.8
183.0652	3.4
183.1167	3.4
185.1324	2.6
187.1118	4.9
189.1123	7.7
189.1272	3.9
191.1068	3.9
193.1224	6.7
194.1176	7.0
195.1018	3.0
200.0917	5.6
201.1275	3.9
203.1072	3.0
205.1223	3.9
207.1127	9.8
207.1379	2.7
208.1080	39.8
209.1109	2.9
210.1236	2.6
211.1328	3.4
211.1482	2.7
219.1378	6.0
221.1170	2.3
221.1538	3.0
223.1330	5.2
225.1637	3.2
229.1185	3.1
229.1302	5.4
231.1379	2.4
233.1536	6.4
235.1327	3.2
237.1486	4.6
243.1744	4.0
244.0605	2.7
245.1538	3.1
247.1690	2.7
249.1484	3.2
251.1639	3.2
253.1583	4.3
255.1742	3.6
261.1849	6.7
263.2004	2.6
265.1798	2.6
271.1693	13.5
272.1727	3.0
273.1848	18.3
278.8138	4.6
279.1954	3.8
280.8114	2.2
281.2220	3.0
289.1797	36.5
290.1390	3.0
290.1844	5.5
291.1954	32.9
301.8296	3.7
306.1794	4.2
307.1902	42.9
308.1478	6.7
308.1835	8.6
308.1939	6.3
309.2060	14.2
323.2531	3.4
324.1332	16.5
324.1432	6.3
324.1909	7.8
324.2169	7.0
324.2291	6.8
325.1386	8.0
325.1766	8.8
325.2005	37.4
325.2166	2.4
326.1225	3.2
326.1393	4.9
326.1582	4.9
326.1723	3.7
326.1966	3.3
326.2046	9.2
326.3779	6.7
327.1198	5.6
327.1565	8.7
327.2017	11.6
327.2161	9.0

Name: 12-Hydroxyjasmonic acid
PrecursorMZ: 209.11708
RT: 4.6664
ExactMass: 226.12050905
Spectrum_type: 2
charge: 1
Formula: C12H18O4
SMILES: C1CC(=O)[C@@H]([C@H]1CC(=O)O)C/C=C\CCO
Method: HCD
Collision_energy: [28.333334]
Isolation_window: 4.0
Ion_mode: P
Num Peaks: 30
67.0546	9.0
69.0702	13.4
71.0495	15.6
79.0545	14.6
81.0701	14.7
83.0494	8.6
91.0544	7.3
93.0700	18.7
95.0858	12.2
105.0699	13.8
107.0491	7.0
107.0856	29.7
119.0855	7.2
121.0648	24.7
121.1011	18.5
131.0854	66.6
136.0756	8.3
145.1010	28.4
147.1166	7.1
149.0959	65.3
149.1323	7.2
150.0993	8.4
153.0545	9.3
163.1116	24.3
191.1063	40.1
208.0965	27.3
209.0642	8.2
209.1170	71.0
210.1120	100.0
210.1205	9.8

Name: 12-Hydroxyoctadec-9-enoic acid
PrecursorMZ: 321.23967
RT: 3.5909
ExactMass: 298.25079494
Spectrum_type: 2
charge: 1
Formula: C18H34O3
SMILES: CCCCCCC(CC=CCCCCCCCC(=O)O)O
Method: HCD
Collision_energy: [28.333334]
Isolation_window: 4.0
Ion_mode: P
Num Peaks: 5
97.3996	12.8
321.1309	15.0
321.2394	100.0
322.2433	22.8
323.2554	19.8

Name: 13(S)-HODE methyl ester
PrecursorMZ: 293.24705
RT: 0.8994
ExactMass: 310.25079494
Spectrum_type: 2
charge: 1
Formula: C19H34O3
SMILES: CCCCC[C@@H](/C=C/C=C\CCCCCCCC(=O)OC)O
Method: HCD
Collision_energy: [28.333334]
Isolation_window: 4.0
Ion_mode: P
Num Peaks: 17
67.0546	66.5
69.0701	15.5
69.8731	16.1
81.0701	100.0
83.0857	15.5
93.0700	17.6
95.0856	98.9
107.0855	17.6
109.1012	48.0
121.1011	17.4
123.1167	32.7
135.1166	16.3
137.1320	22.0
149.1324	16.3
261.2208	14.0
268.9776	18.2
293.2470	43.0

Name: 13-Oxo-9Z,11E-octadecadienoic acid
PrecursorMZ: 295.22591
RT: 2.1882
ExactMass: 294.21949481
Spectrum_type: 2
charge: 1
Formula: C18H30O3
SMILES: CCCCCC(=O)/C=C/C=C\CCCCCCCC(=O)O
Method: HCD
Collision_energy: [28.333334]
Isolation_window: 4.0
Ion_mode: P
Num Peaks: 62
55.0545	10.2
67.0544	39.0
69.0701	17.2
69.3533	6.1
69.4677	6.7
71.0857	50.2
79.0543	18.8
81.0335	6.4
81.0700	33.4
83.0491	5.5
83.0856	19.9
85.0649	5.9
91.0542	12.8
93.0698	31.5
95.0491	9.5
95.0854	28.4
97.0646	9.9
97.1011	31.4
97.4565	4.6
99.0803	46.0
105.0697	11.4
107.0854	29.6
109.0646	4.1
109.1010	24.9
111.0803	9.9
117.0696	5.6
119.0853	11.5
121.1008	17.7
123.0800	7.8
123.1165	5.4
125.0957	33.4
131.0850	5.3
133.1007	12.7
135.0800	4.8
135.1164	21.5
137.0955	11.6
139.1115	5.3
145.1006	8.0
147.1163	13.5
149.1320	12.8
151.1113	42.4
159.1161	4.7
161.1319	19.6
163.1112	17.7
163.1476	3.7
165.1269	6.2
171.1012	6.1
171.1162	5.1
173.1320	4.3
175.1476	5.5
179.1424	16.9
185.1318	4.7
189.1114	26.3
221.1526	3.8
231.2101	4.7
241.1941	9.1
249.2202	5.6
259.2046	13.6
277.2151	100.0
278.2185	22.8
295.2256	47.9
296.2291	9.4

Name: 13-OxoODE
PrecursorMZ: 295.22652
RT: 0.9131
ExactMass: 294.21949481
Spectrum_type: 2
charge: 1
Formula: C18H30O3
SMILES: CCCCCC(=O)/C=C/C=C\CCCCCCCC(=O)O
Method: HCD
Collision_energy: [28.333334]
Isolation_window: 4.0
Ion_mode: P
Num Peaks: 113
55.0182	6.1
55.0546	11.7
57.0703	14.9
67.0546	83.4
68.0579	5.9
69.0339	5.2
69.0702	47.2
69.3476	7.7
69.3962	6.7
71.0495	7.2
71.0859	42.4
79.0545	25.7
81.0337	6.9
81.0701	100.0
82.0735	7.1
83.0494	9.9
83.0858	39.0
85.0650	11.2
85.1014	14.1
91.0545	16.5
93.0700	46.2
95.0493	19.1
95.0857	97.7
96.0890	8.2
97.0649	17.0
97.1013	38.4
97.4566	5.3
99.0806	31.5
105.0700	18.6
107.0492	5.7
107.0856	49.8
109.0649	9.9
109.1012	62.9
110.1045	5.9
111.0805	17.5
111.1168	7.4
113.0962	14.2
117.0699	6.5
119.0855	22.1
121.1011	46.5
123.0240	26.6
123.0804	11.8
123.1168	27.9
125.0961	22.5
126.0912	7.9
131.0854	16.1
133.1011	24.2
135.0804	6.4
135.1167	38.0
137.0959	15.0
137.1323	14.4
139.1115	13.7
143.0854	5.1
145.1011	13.0
147.1167	26.3
149.0959	12.8
149.1324	24.7
151.1116	40.0
151.1481	8.9
152.1148	10.7
153.0908	4.3
153.1273	8.8
157.1011	4.7
159.1167	12.9
161.1324	20.5
163.1116	15.8
163.1480	12.2
165.1273	17.9
167.1066	4.3
171.1166	6.2
173.1324	12.1
175.1117	4.6
175.1479	9.5
177.1271	7.7
179.1428	15.0
181.1222	5.4
185.1321	6.6
187.1477	6.0
189.1118	12.8
193.1587	4.3
195.1373	5.3
231.2105	5.4
237.2210	9.1
241.1945	8.7
243.2105	7.8
249.2210	5.5
259.2051	13.4
261.2209	16.5
275.2001	7.1
276.2043	4.4
277.2157	98.2
278.2191	18.5
279.2315	55.1
283.0296	9.5
293.2107	20.6
293.2468	11.9
294.1285	9.4
294.2142	14.7
294.2529	6.7
294.2783	18.3
295.1127	12.5
295.1692	4.8
295.2061	7.2
295.2264	78.2
295.2416	7.1
296.2297	16.2
296.2942	39.4
297.1847	4.7
297.2218	7.5
297.2420	16.8
297.2579	8.3
297.2977	4.4
299.0611	47.2

Name: 13S-HOTrE
PrecursorMZ: 277.21551
RT: 5.1743
ExactMass: 294.21949481
Spectrum_type: 2
charge: 1
Formula: C18H30O3
SMILES: CC/C=C\C[C@@H](/C=C/C=C\CCCCCCCC(=O)O)O
Method: HCD
Collision_energy: [28.333334]
Isolation_window: 4.0
Ion_mode: P
Num Peaks: 59
57.0702	4.5
67.0545	22.0
69.0701	10.5
71.0857	15.3
79.0544	16.4
81.0700	22.7
83.0856	9.2
91.0542	7.5
93.0699	32.3
95.0855	16.9
97.0649	4.1
97.1012	4.9
99.0804	13.9
105.0698	10.5
107.0490	39.0
107.0854	21.8
109.1011	12.4
119.0854	9.3
121.1010	16.9
123.1165	5.0
131.0852	4.8
133.1009	9.7
135.1165	21.2
145.1008	5.2
147.1165	9.2
149.1321	14.7
151.1114	10.9
152.0703	5.2
159.1162	4.4
161.1322	9.9
163.1114	12.7
163.1477	6.5
165.1271	4.2
170.0807	19.9
175.1479	4.5
177.1271	5.1
179.1426	3.9
190.0968	4.6
202.0716	5.7
204.0874	8.5
214.0712	5.0
232.0823	49.9
234.1844	19.7
241.1945	5.2
259.2048	12.9
260.0772	56.9
260.0906	6.4
275.1994	6.1
276.0850	5.6
276.1215	13.9
276.1952	4.6
277.1162	7.9
277.1542	4.3
277.2153	100.0
278.0877	67.3
278.1013	10.0
278.2186	20.2
279.0931	7.4
279.1326	8.2

Name: 14-Deoxy-11,12-dehydroandrographolide
PrecursorMZ: 315.19503
RT: 5.2225
ExactMass: 332.19875937
Spectrum_type: 2
charge: 1
Formula: C20H28O4
SMILES: C[C@@]12CC[C@H]([C@@]([C@H]1CCC(=C)[C@H]2/C=C/C3=CCOC3=O)(C)CO)O
Method: HCD
Collision_energy: [28.333334]
Isolation_window: 4.0
Ion_mode: P
Num Peaks: 17
137.0958	11.6
211.1474	14.8
241.1944	28.9
251.1789	38.2
269.1893	100.0
270.1926	19.7
287.2001	15.2
297.1844	27.4
299.1018	10.3
314.1213	22.2
314.1378	19.2
314.3410	29.1
315.1318	16.9
315.1945	78.1
316.1166	25.7
316.1994	14.0
317.1114	13.8

Name: 15,16-Dihydroxy-8(17),13-labdadien-18-oic acid
PrecursorMZ: 319.22628
RT: 1.163
ExactMass: 336.2300595
Spectrum_type: 2
charge: 1
Formula: C20H32O4
SMILES: CC12CCCC(C1CCC(=C)C2CC/C(=C\CO)/CO)(C)C(=O)O
Method: HCD
Collision_energy: [28.333334]
Isolation_window: 4.0
Ion_mode: P
Num Peaks: 149
55.0545	0.6
57.0703	2.9
67.0545	3.8
69.0338	0.7
69.0702	2.4
69.4917	0.6
71.0494	1.0
79.0544	3.1
81.0701	14.6
82.0734	1.1
83.0493	0.7
83.0857	1.6
85.0650	1.5
89.0598	0.7
91.0543	2.6
93.0700	13.3
94.0733	1.1
95.0856	18.6
96.0890	1.4
97.0648	2.1
97.1013	1.4
99.0441	3.5
99.0805	0.8
101.0597	0.6
105.0699	10.4
106.0733	1.0
107.0855	21.3
108.0889	1.5
109.0648	1.6
109.1012	8.8
111.0804	3.5
117.0697	1.2
119.0854	13.8
120.0887	1.0
121.0647	1.4
121.1011	10.9
122.1043	0.7
123.0803	3.7
123.1167	4.3
125.0959	3.3
127.0753	0.7
131.0853	5.6
132.0888	0.6
133.1010	12.9
134.1043	1.3
135.0802	4.1
135.1166	16.8
136.1199	1.7
137.0959	4.8
137.1322	1.3
139.0752	1.9
139.1114	1.2
141.0907	1.1
143.0854	1.5
145.1010	16.8
146.1043	1.9
147.0802	1.5
147.1166	7.8
148.1200	0.8
149.0959	2.9
149.1323	5.7
151.1115	7.1
152.1149	0.6
157.1010	2.3
158.1173	7.0
159.1166	8.9
159.1208	3.3
160.1196	1.0
161.0959	1.9
161.1322	6.5
162.1357	0.9
163.1115	27.7
163.1478	2.5
164.1148	2.8
165.0908	0.7
165.1272	4.1
167.1063	0.8
169.1008	0.9
171.1165	2.6
173.0958	0.6
173.1322	5.1
174.1357	0.7
175.1114	10.8
175.1478	2.9
176.1146	1.4
177.1270	6.7
177.1635	0.9
178.1303	0.8
179.1063	1.5
179.1427	3.4
181.1220	1.8
183.1165	1.1
185.1321	3.0
187.1114	1.2
187.1477	6.0
188.1509	0.7
189.1270	6.0
189.1634	2.6
190.1305	0.8
191.1426	3.3
193.1219	5.1
194.1253	0.6
199.1477	2.2
201.1271	2.1
201.1634	0.7
203.1426	3.1
203.1790	2.9
205.1219	1.2
205.1583	2.3
207.1375	4.8
208.1411	0.6
209.1321	1.2
213.1634	1.5
215.1789	0.8
217.1582	0.9
219.1375	5.6
220.1410	0.9
221.1531	0.9
223.1476	0.9
225.1631	1.2
227.1789	3.5
228.1821	0.8
237.1480	1.9
237.1632	0.8
241.1584	1.4
243.1741	0.8
245.1895	0.7
255.1740	1.6
255.2101	6.2
256.2134	1.3
265.1944	3.4
266.1982	0.7
273.2206	8.8
274.2240	2.0
283.2049	20.4
284.2083	4.4
289.2154	0.6
301.1794	0.7
301.2154	100.0
301.2511	0.6
302.2188	20.6
303.2209	1.1
317.2065	0.7
318.2100	1.4
319.1651	0.6
319.2259	37.2
320.2296	7.6
321.1294	1.2
321.2419	1.5

Name: 15,17-Dihydroxy-9-methyl-4,10-dioxatricyclo(11.4.0.03,5)heptadeca-1(13),14,16-triene-2,11-dione
PrecursorMZ: 324.14381
RT: 6.5137
ExactMass: 306.11033829
Spectrum_type: 2
charge: 1
Formula: C16H18O6
SMILES: CC1CCCC2C(O2)C(=O)C3=C(CC(=O)O1)C=C(C=C3O)O
Method: HCD
Collision_energy: [28.333334]
Isolation_window: 4.0
Ion_mode: P
Num Peaks: 64
70.0655	32.8
81.0338	3.8
83.0494	4.0
84.0446	2.8
84.0811	5.0
85.0287	6.3
95.0493	3.4
97.0285	6.8
99.0442	2.7
101.0600	4.0
105.0699	4.2
107.0493	9.8
108.0570	3.1
111.0442	5.2
114.0914	6.6
116.0708	7.9
121.0285	10.6
122.0964	12.1
124.0757	3.8
127.0389	6.7
129.0547	2.9
136.0757	4.8
145.0495	6.4
145.0647	3.1
147.0803	2.9
164.0706	6.6
164.1070	7.7
166.0862	3.8
173.0597	6.1
181.0970	3.0
182.0811	5.5
191.0697	5.0
194.0810	4.6
196.1122	2.7
209.1645	5.3
212.1067	6.6
213.0906	6.9
213.1233	4.4
227.1024	7.8
230.1173	3.5
242.1175	10.5
260.1278	17.1
261.1309	3.0
273.0965	3.0
278.1385	6.4
288.1222	4.8
305.1124	3.1
306.1330	15.2
307.1292	3.6
322.2357	2.9
322.2494	4.0
323.1213	5.2
323.1595	14.9
323.1995	3.0
324.0952	32.1
324.1436	100.0
324.1587	3.2
324.1812	2.7
325.0794	7.7
325.0997	5.7
325.1469	15.0
325.1753	9.4
326.1223	5.4
326.2093	3.2

Name: 15,17-Dihydroxy-9-methyl-4,10-dioxatricyclo)11.4.0.03,5(heptadeca-1(13),14,16-triene-2,11-dione
PrecursorMZ: 324.14376
RT: 1.0274
ExactMass: 306.11033829
Spectrum_type: 2
charge: 1
Formula: C16H18O6
SMILES: CC1CCCC2C(O2)C(=O)C3=C(CC(=O)O1)C=C(C=C3O)O
Method: HCD
Collision_energy: [28.333334]
Isolation_window: 4.0
Ion_mode: P
Num Peaks: 116
69.0338	6.4
70.0656	48.7
71.0496	5.6
80.0498	6.1
81.0339	30.3
83.0496	7.5
83.0859	5.7
84.0811	5.3
89.0601	14.2
95.0494	16.2
97.0289	5.5
99.0444	14.6
108.0811	7.4
110.0603	7.6
111.0443	47.7
112.0759	5.3
116.0709	5.6
121.0651	5.4
122.0606	6.3
123.0444	7.7
124.0758	6.4
126.0555	5.3
126.0915	27.4
127.0390	10.2
133.0856	7.5
134.0602	9.3
136.0759	8.4
137.0601	7.1
138.0914	5.3
140.0708	6.0
142.0974	27.8
146.0605	5.9
148.0760	6.8
150.0551	7.3
150.0916	7.0
152.0706	9.9
160.0756	7.4
162.0910	10.3
164.0708	16.7
165.0546	5.4
166.0865	9.2
168.1025	5.3
178.0860	6.9
180.1018	7.2
181.0975	8.4
182.0815	16.1
188.0703	6.1
190.0857	6.7
192.1018	5.7
194.0804	9.2
196.0962	8.3
198.1130	5.7
202.0864	5.3
206.0809	5.6
207.0657	7.0
208.0965	12.1
210.1121	14.8
217.0989	5.8
218.0802	5.7
220.1195	9.0
232.0962	5.6
234.1129	5.1
237.0748	7.4
250.1074	10.4
262.1073	5.3
263.1026	7.0
276.1232	26.8
288.1243	7.3
305.1502	6.1
306.1343	20.5
307.1350	5.2
308.1497	7.8
312.1494	9.0
316.1194	5.3
317.1495	5.2
318.1297	6.1
322.1300	11.4
322.1664	5.6
323.1302	13.0
323.1614	23.4
324.1450	100.0
325.1455	20.3
325.1770	10.9
326.1247	14.0
326.1599	51.2
326.2170	11.9
327.1643	18.8
328.1398	13.7
328.1735	9.0
329.1119	5.3
329.1474	10.8
330.1336	12.6
330.1649	15.4
331.1327	11.7
331.1694	8.9
332.1143	11.7
332.1541	16.3
333.1458	18.0
333.1848	8.1
334.1303	30.1
334.1648	8.6
334.2722	8.8
335.1288	5.9
335.1620	17.8
336.1433	29.2
337.1519	9.3
337.1816	10.6
338.1245	14.7
338.1610	20.3
339.1608	16.4
340.1401	20.8
340.1788	11.6
341.1407	6.8
341.1866	8.2
342.1564	65.6
343.1639	11.9

Name: 15-Hepe
PrecursorMZ: 301.21544
RT: 1.1624
ExactMass: 318.21949481
Spectrum_type: 2
charge: 1
Formula: C20H30O3
SMILES: CC/C=C\CC(/C=C/C=C\C/C=C\C/C=C\CCCC(=O)O)O
Method: HCD
Collision_energy: [28.333334]
Isolation_window: 4.0
Ion_mode: P
Num Peaks: 163
55.0545	0.5
57.0701	0.6
62.0603	0.8
67.0545	3.3
69.0337	1.0
69.0701	2.2
69.7584	0.8
69.7614	0.8
69.7639	0.6
69.7681	0.9
69.7738	0.8
71.0494	1.6
72.0810	1.0
79.0544	2.6
81.0700	17.3
82.0734	1.4
83.0856	2.2
85.0649	1.3
86.0965	0.6
91.0542	2.5
93.0699	15.7
94.0732	1.2
95.0492	0.6
95.0855	18.8
96.0889	1.5
97.0648	0.8
97.1011	2.0
97.4566	0.6
99.0440	8.0
99.0804	0.7
105.0698	13.4
106.0731	1.2
107.0854	12.9
108.0887	0.9
109.0647	0.7
109.1011	5.0
111.0803	0.7
112.0757	1.8
113.0595	0.7
115.0751	0.7
117.0697	2.7
119.0854	14.8
120.0886	1.2
121.0646	0.7
121.1010	16.9
122.1043	1.4
123.0801	1.6
123.1166	2.5
125.0958	1.2
127.0751	1.2
129.0696	0.8
131.0852	14.0
132.0885	1.6
133.1009	18.7
134.1042	1.9
135.0438	0.9
135.0801	1.2
135.1165	7.9
136.1198	1.0
137.0958	1.4
139.0750	2.4
141.0906	2.1
143.0852	3.5
145.1009	16.3
146.1040	1.7
147.0801	0.8
147.1165	9.1
148.1197	0.8
149.0958	3.2
149.1321	1.9
151.1114	1.4
155.0851	0.6
157.1009	4.4
158.1040	0.5
159.1165	23.8
160.1193	2.7
161.0958	1.3
161.1321	6.9
162.1354	0.7
163.1114	5.5
163.1477	0.8
165.0906	1.2
165.1269	1.0
167.1062	2.8
169.1007	1.2
171.1164	5.5
173.1321	8.2
174.1351	0.9
175.1113	2.7
175.1478	1.2
177.1269	1.3
178.1224	0.6
179.1060	1.6
181.1217	0.7
183.1164	1.4
185.1320	4.5
187.1113	1.0
187.1476	40.9
188.1508	6.1
189.1269	4.1
189.1632	6.0
190.1664	0.5
191.1061	1.0
191.1425	1.1
193.1217	3.8
195.1163	1.1
197.1320	1.3
199.1476	3.8
200.1511	0.7
201.1267	1.0
201.1633	0.8
203.1425	1.2
205.1217	1.6
207.1373	10.1
208.1408	1.6
209.1318	1.7
209.1529	0.5
211.1473	0.9
213.1268	0.8
213.1632	4.9
214.1665	0.8
215.1424	0.7
219.1374	1.5
221.1529	1.8
223.1475	1.9
225.1631	3.9
226.1666	0.6
227.1424	1.6
227.1787	16.7
228.1820	3.1
229.1944	1.3
231.1373	1.0
233.1530	1.1
237.1631	1.8
240.2309	0.9
241.1579	1.8
245.1529	2.0
255.1736	2.2
255.2099	3.7
256.2132	0.7
257.1278	0.6
259.1685	1.1
265.1943	4.3
266.1976	0.9
269.1279	0.6
270.1593	1.1
273.1840	0.6
283.2047	14.1
284.0904	0.7
284.2081	3.7
285.2206	1.0
300.1583	1.1
300.1948	1.0
301.1544	1.8
301.1790	0.7
301.1880	0.8
301.2151	100.0
301.2504	0.6
302.1018	2.5
302.1728	0.9
302.2186	21.7
303.1695	0.8
303.2317	5.3

Name: 15-hydroxy pentadecanoic acid-C22:4
PrecursorMZ: 573.48726
RT: 0.9274
Spectrum_type: 2
charge: 1
SMILES: O=C(OCCCCCCCCCCCCCCC(O)=O)CCCCCC=CCC=CCC=CCC=CCCCCC
Method: HCD
Collision_energy: [28.333334]
Isolation_window: 4.0
Ion_mode: P
Num Peaks: 66
55.0546	6.7
57.0703	6.6
63.7212	4.7
67.0546	16.6
69.0434	4.1
69.0702	18.0
71.0858	3.9
79.0545	5.1
81.0701	28.1
83.0857	14.1
85.1014	3.4
91.0543	3.9
93.0700	14.0
95.0856	28.6
97.0649	2.5
97.1013	11.3
105.0699	8.7
107.0855	11.5
109.1012	14.9
111.0805	2.8
111.1168	3.3
117.0698	2.3
119.0855	13.8
121.1011	12.7
123.0803	2.7
123.1167	8.5
125.0959	3.0
131.0853	6.0
133.1010	8.3
135.1166	9.4
137.1323	4.9
145.1010	7.8
147.1166	6.6
149.1323	6.3
151.1481	3.0
157.1011	3.1
159.1167	5.1
161.1322	5.6
163.1480	4.9
171.1165	3.3
173.1323	4.5
175.1479	5.9
177.1633	3.0
185.1323	3.0
187.1478	3.7
189.1634	3.5
191.1789	2.7
199.1477	2.6
201.1635	2.7
203.1789	2.8
277.2154	2.6
279.2314	2.4
291.2313	2.5
293.2471	2.3
305.2466	3.2
319.2628	3.6
333.2789	2.6
389.3405	2.4
523.4493	3.0
541.4600	2.5
555.4755	6.4
571.4705	10.3
572.4744	25.8
573.4863	100.0
574.4899	34.2
575.5011	24.5

Name: 15-oxo-11Z,13E-eicosadienoic acid
PrecursorMZ: 323.25767
RT: 4.5774
ExactMass: 322.25079494
Spectrum_type: 2
charge: 1
Formula: C20H34O3
SMILES: CCCCCC(=O)/C=C/C=C\CCCCCCCCCC(=O)O
Method: HCD
Collision_energy: [28.333334]
Isolation_window: 4.0
Ion_mode: P
Num Peaks: 14
55.0546	32.8
69.0702	50.6
81.0702	62.7
83.0494	43.7
93.0700	33.3
95.0856	100.0
97.1013	45.4
107.0856	54.1
109.1011	54.0
121.1012	43.6
135.1165	32.8
149.1321	36.4
305.2469	81.2
323.2548	75.2

Name: 15-oxo-ETE
PrecursorMZ: 336.25244
RT: 5.9204
ExactMass: 318.21949481
Spectrum_type: 2
charge: 1
Formula: C20H30O3
SMILES: CCCCCC(=O)/C=C/C=C\C/C=C\C/C=C\CCCC(=O)O
Method: HCD
Collision_energy: [28.333334]
Isolation_window: 4.0
Ion_mode: P
Num Peaks: 63
57.0701	0.3
60.0447	0.8
69.0701	0.8
69.3596	0.6
69.8312	0.4
70.0653	0.5
71.0857	0.4
72.0810	0.5
81.0700	0.4
83.0856	0.7
84.0809	0.5
91.0542	0.8
95.0855	0.5
97.1012	0.6
98.0601	0.5
116.0704	0.4
130.0497	0.5
130.0648	0.6
142.0859	0.4
147.0761	1.0
150.0910	0.6
164.0701	0.8
182.0807	0.7
192.0651	0.5
198.1119	0.6
253.1176	1.4
274.2157	4.3
275.2193	0.8
289.1176	0.5
292.2260	5.8
293.2296	0.9
299.1229	1.2
301.1387	0.4
317.1121	1.4
317.1330	0.4
319.1492	0.4
321.3139	0.6
334.2367	1.7
334.2731	0.7
335.1219	2.2
335.1585	0.6
335.1754	0.3
335.1963	0.4
335.2309	0.4
335.2407	4.4
335.2763	0.7
336.1252	0.6
336.1717	1.1
336.2101	0.5
336.2307	1.3
336.2521	100.0
336.2858	0.6
336.2942	0.7
337.1533	0.5
337.1727	0.6
337.1753	0.5
337.2556	21.6
338.1204	0.4
338.1357	0.6
338.1710	0.7
338.2104	0.5
338.2588	1.8
338.3406	2.6

Name: 16-Amino-1-cyclohexylhexadecan-1-one
PrecursorMZ: 338.34129
RT: 1.0618
ExactMass: 337.334464995
Spectrum_type: 2
charge: 1
Formula: C22H43NO
SMILES: C1CCC(CC1)C(=O)CCCCCCCCCCCCCCCN
Method: HCD
Collision_energy: [28.333334]
Isolation_window: 4.0
Ion_mode: P
Num Peaks: 77
55.0546	3.9
57.0703	13.5
67.0546	5.7
69.0702	23.6
70.0737	1.6
71.0494	1.0
71.0858	13.2
72.0447	1.0
72.0812	1.8
72.0892	0.9
79.0545	2.5
81.0701	13.3
83.0495	1.5
83.0858	25.5
84.0891	2.0
85.0651	1.2
85.1014	8.8
86.0603	3.5
86.0967	1.0
93.0700	4.4
95.0857	14.9
97.0649	7.1
97.1013	24.7
98.1047	1.8
99.0806	1.0
100.0758	7.9
107.0856	5.6
109.1012	10.2
111.0805	7.2
111.1169	11.7
112.8957	1.9
114.0914	8.6
114.8930	0.9
121.1011	10.1
122.1046	1.2
123.1168	6.2
125.0960	5.7
125.1324	3.5
127.1117	1.0
128.1069	6.2
135.1167	11.0
136.1201	1.3
137.1324	2.8
139.1116	4.1
142.1226	3.7
149.1324	7.9
150.1357	0.9
151.1480	1.5
153.1273	2.1
156.1382	2.3
163.1480	4.7
167.1430	1.4
170.1537	2.0
177.1636	2.8
181.1587	0.9
184.1695	1.9
191.1791	1.6
198.1849	1.5
205.1948	1.3
212.2005	1.5
219.2104	1.1
221.2260	0.8
226.2162	1.3
233.2261	1.5
240.2320	1.4
247.2418	1.2
254.2473	1.7
268.2629	1.3
282.2789	1.4
303.3040	9.7
304.3071	2.2
321.3146	16.8
322.3178	3.6
337.0746	2.9
338.3411	100.0
339.3445	21.6
340.3573	1.7

Name: 16-Hydroxyhexadecanoic acid
PrecursorMZ: 273.24208
RT: 0.9306
ExactMass: 272.23514488
Spectrum_type: 2
charge: 1
Formula: C16H32O3
SMILES: C(CCCCCCCC(=O)O)CCCCCCCO
Method: HCD
Collision_energy: [28.333334]
Isolation_window: 4.0
Ion_mode: P
Num Peaks: 22
55.0547	15.6
67.0546	18.7
69.0703	39.3
81.0702	35.4
83.0858	45.4
93.0702	25.4
95.0857	35.2
97.0650	12.0
97.1013	16.1
107.0856	16.4
109.1013	20.3
121.1013	17.0
123.1169	11.8
135.1168	31.4
139.1119	11.8
153.1272	12.0
227.1749	25.7
237.2210	25.2
255.2316	100.0
256.2349	15.7
273.1667	24.9
273.2423	27.4

Name: 17-(2-hydroxy-5-(2-methylprop-1-enyl)oxolan-3-yl)-4,4,10,14-tetramethyl-3-oxo-2,5,6,9,11,15,16,17-octahydro-1H-cyclopenta(a)phenanthrene-12-carbaldehyde
PrecursorMZ: 489.29742
RT: 4.6523
ExactMass: 466.30830982
Spectrum_type: 2
charge: 1
Formula: C30H42O4
SMILES: CC(=CC1CC(C(O1)O)C2CCC3(C2=C(CC4C3=CCC5C4(CCC(=O)C5(C)C)C)C=O)C)C
Method: HCD
Collision_energy: [28.333334]
Isolation_window: 4.0
Ion_mode: P
Num Peaks: 9
54.3666	5.2
96.9218	32.9
98.9189	3.9
489.2182	3.7
489.2607	8.5
489.2963	100.0
489.3551	3.6
490.2999	27.8
491.3023	3.8

Name: 1H-Benz(e)indene-6-propanoic acid, dodecahydro-2-hydroxy-7-(1-hydroxy-1-methylethyl)-9b-(methoxycarbonyl)-2,3a,6,9a-tetramethyl-4-methylene-1,3-dioxo-
PrecursorMZ: 461.25285
RT: 2.6711
ExactMass: 478.25666817
Spectrum_type: 2
charge: 1
Formula: C26H38O8
SMILES: CC12CCC(C(C1CC(=C)C3(C2(C(=O)C(C3=O)(C)O)C(=O)OC)C)(C)CCC(=O)O)C(C)(C)O
Method: HCD
Collision_energy: [28.333334]
Isolation_window: 4.0
Ion_mode: P
Num Peaks: 125
51.2506	4.9
59.0496	18.4
67.0547	9.8
69.0703	6.5
81.0338	19.6
81.0701	9.1
83.0858	5.3
86.0967	4.3
89.0600	17.5
93.0701	8.8
95.0493	77.0
95.0857	13.5
97.0650	4.8
97.1014	7.4
99.0442	13.0
99.0805	5.3
101.0599	3.9
105.0700	6.5
107.0856	12.2
109.0649	6.1
109.1013	8.7
119.0856	9.6
121.0649	6.0
121.1013	10.8
123.0804	5.5
125.0598	3.8
125.0961	4.2
127.0753	5.2
131.0851	5.7
133.0859	9.8
133.1011	8.3
135.0801	5.6
135.1168	4.0
137.0961	4.3
143.0856	4.0
145.0649	6.6
145.1009	7.6
147.0803	7.0
147.1169	7.2
149.0960	6.0
149.1323	5.7
157.1012	6.2
159.0805	9.1
159.1170	4.3
161.0960	6.8
161.1325	3.8
163.1119	3.8
171.0803	8.3
171.1166	5.4
173.0961	9.2
175.1116	3.9
181.1012	4.5
183.1171	5.2
185.0958	10.2
187.0754	4.5
187.1116	6.6
189.0546	5.4
195.1167	4.3
197.0960	7.0
197.1325	4.3
199.1117	5.3
201.0908	4.7
201.1275	4.2
205.0860	5.7
207.1380	3.7
209.0961	3.7
209.1324	3.8
211.1114	8.0
213.0910	4.5
213.1274	4.3
215.1059	4.7
217.0856	7.5
223.1111	6.7
225.1272	8.5
227.1061	8.4
229.0857	6.6
229.1225	5.1
231.1015	5.1
235.1483	4.7
237.1273	11.2
239.1428	5.1
249.1270	3.7
251.1427	6.3
253.1224	4.6
257.1168	4.1
263.1427	5.5
265.1220	10.1
269.1169	4.6
271.1326	4.5
275.1428	4.2
277.1217	3.7
277.1585	5.7
279.1373	7.6
279.1739	3.9
283.1322	9.0
287.1425	4.2
291.1375	6.0
293.1531	4.4
297.1481	5.3
305.1533	9.4
309.1479	4.7
319.1686	5.1
321.1846	4.3
323.1636	5.4
339.1952	4.0
347.1637	8.6
347.2002	4.1
349.1799	7.8
351.1588	4.8
361.2153	14.2
365.1743	9.0
365.2112	4.7
367.1895	3.8
371.2007	6.0
379.2263	15.4
389.2105	43.8
390.2140	9.3
407.2211	81.1
408.2247	21.7
425.2318	34.7
426.2353	10.6
443.2423	52.0
444.2462	17.3
461.2529	100.0
462.2563	33.1

Name: 1H-Benzotriazole
PrecursorMZ: 120.05568
RT: 5.5291
ExactMass: 119.048347172
Spectrum_type: 2
charge: 1
Formula: C6H5N3
SMILES: C1=CC2=NNN=C2C=C1
Method: HCD
Collision_energy: [28.333334]
Isolation_window: 4.0
Ion_mode: P
Num Peaks: 16
58.0655	3.9
65.0389	7.2
92.0497	6.7
103.0543	4.3
104.0706	2.9
107.0730	3.0
118.0862	17.3
120.0442	2.9
120.0556	100.0
120.0807	14.5
121.0284	4.3
121.0395	5.4
121.0589	6.4
121.0647	3.5
121.0759	2.9
122.0964	6.3

Name: 1H-Imidazole-5-acetic acid
PrecursorMZ: 127.0502
RT: 5.6028
ExactMass: 126.042927438
Spectrum_type: 2
charge: 1
Formula: C5H6N2O2
SMILES: C1=C(NC=N1)CC(=O)O
Method: HCD
Collision_energy: [28.333334]
Isolation_window: 4.0
Ion_mode: P
Num Peaks: 5
81.0449	7.8
82.0653	6.2
127.0501	100.0
127.0725	5.3
127.0865	4.8

Name: 1H-Indole-3-carboxylic acid, octahydro-3-oxo-2,6-methano-2H-quinolizin-8-yl ester, stereoisomer
PrecursorMZ: 325.15366
RT: 1.2433
ExactMass: 324.1473925
Spectrum_type: 2
charge: 1
Formula: C19H20N2O3
SMILES: C1[C@@H]2CC(C[C@H]3N2CC(=O)C1C3)OC(=O)C4=CNC5=CC=CC=C54
Method: HCD
Collision_energy: [28.333334]
Isolation_window: 4.0
Ion_mode: P
Num Peaks: 8
59.0495	28.9
107.0489	10.9
117.0908	13.3
219.1125	8.4
231.1121	19.2
309.2257	7.5
325.1534	100.0
326.1569	22.4

Name: 1H-Naphtho(1,2-c)pyran-7-propanoic acid, dodecahydro-8-(1-hydroxy-1-methylethyl)-3-(methoxycarbonyl)-3,4a,7,10a-tetramethyl-5-methylene-1,4-dioxo-
PrecursorMZ: 461.253
RT: 5.583975000000001
ExactMass: 478.25666817
Spectrum_type: 2
charge: 1
Formula: C26H38O8
SMILES: CC12CCC(C(C1CC(=C)C3(C2C(=O)OC(C3=O)(C)C(=O)OC)C)(C)CCC(=O)O)C(C)(C)O
Method: HCD
Collision_energy: [28.333334]
Isolation_window: 4.0
Ion_mode: P
Num Peaks: 288
51.2506	1.6
55.0546	1.4
59.0496	8.2
67.0547	2.1
69.0339	5.5
69.0703	11.7
71.0495	35.9
72.0528	1.1
79.0545	1.4
81.0702	5.4
83.0495	3.6
83.0858	3.5
85.0651	2.6
86.0967	1.5
87.0443	1.1
89.0599	2.1
91.0544	1.4
93.0701	5.5
95.0493	3.3
95.0857	6.2
97.0650	5.6
97.1014	1.3
99.0442	100.0
99.0806	2.4
100.0476	5.1
101.0233	1.3
101.0599	4.0
105.0700	6.2
107.0857	7.5
109.0285	1.2
109.0649	7.5
109.1013	4.6
111.0807	2.4
113.0599	4.4
115.0390	1.3
115.0754	1.1
119.0856	9.4
120.0890	1.1
121.0649	3.7
121.1013	5.7
123.0804	5.2
125.0597	7.3
127.0754	7.1
131.0855	4.5
133.0647	1.2
133.0859	1.5
133.1011	9.7
135.0804	5.9
135.1168	2.3
137.0597	2.0
137.0960	3.1
139.0753	3.9
141.0910	1.1
143.0855	2.7
145.1011	10.3
147.0805	5.1
147.1168	10.2
149.0597	1.4
149.0960	7.8
151.0753	5.3
151.1117	1.7
153.0909	2.1
155.0855	1.4
157.1011	7.5
159.0804	4.0
159.1169	11.8
160.1201	1.2
161.0961	7.0
161.1325	3.6
163.0752	2.1
163.1119	1.9
165.0908	2.6
167.0700	1.5
167.1066	1.8
169.1011	4.3
171.0804	1.1
171.1168	9.7
173.0960	7.4
173.1325	5.2
174.1407	3.6
175.0752	3.1
175.1118	4.2
175.1483	2.4
177.0909	3.5
177.1273	2.8
179.1065	2.2
181.0857	1.6
181.1010	1.6
183.1168	11.3
184.1201	1.4
185.0961	2.8
185.1324	7.7
187.1116	8.0
187.1480	9.3
188.1513	1.4
189.0909	3.2
189.1273	6.9
191.1065	5.8
193.0859	2.3
193.1013	1.4
193.1222	2.4
195.1166	3.5
197.0961	2.1
197.1325	8.9
198.1350	1.6
199.1117	3.9
199.1480	3.9
201.0908	2.4
201.1272	7.5
201.1631	1.9
203.1066	2.1
203.1428	2.5
205.1222	12.9
206.1253	2.4
207.1168	3.7
207.1378	9.8
209.0957	1.3
209.1325	4.7
211.1116	4.9
211.1480	6.0
213.0907	1.3
213.1272	5.9
213.1633	1.8
215.1065	3.6
215.1431	2.0
217.1223	3.2
219.1019	1.7
219.1378	2.6
221.1167	1.1
221.1322	2.6
223.1118	3.6
223.1479	5.7
225.1272	10.7
225.1635	2.8
226.1310	1.3
227.1065	2.8
227.1429	3.7
229.1221	5.6
229.1584	13.7
230.1636	1.9
231.1379	3.3
233.1174	1.6
233.1533	1.6
235.1482	4.0
237.1273	2.6
237.1635	2.2
239.1065	1.3
239.1428	7.1
239.1789	2.5
240.1464	1.3
241.1222	3.5
241.1584	4.8
243.1378	4.9
243.1745	1.2
245.1168	1.7
245.1528	2.0
247.1343	3.2
247.1479	1.9
247.1689	56.8
248.1724	8.5
249.1272	2.4
249.1482	1.9
249.1634	3.4
251.1426	4.2
251.1790	1.1
253.1221	2.1
253.1584	3.8
255.1377	3.0
255.1742	2.4
257.1168	1.5
257.1532	3.7
257.1895	1.5
259.1325	2.3
259.1474	1.3
259.1687	1.5
260.1399	1.5
261.1477	1.1
263.1427	4.0
263.1781	1.8
265.1217	1.6
265.1431	1.3
265.1583	3.7
265.1796	8.8
266.1826	1.3
267.1377	6.0
267.1744	3.4
268.1408	1.2
268.1774	1.1
269.1531	5.1
271.1326	2.6
271.1691	2.2
273.1481	1.3
273.1846	1.1
276.1348	1.7
277.1425	1.3
277.1584	4.9
278.1619	1.2
279.1376	2.2
279.1735	2.2
281.1531	4.9
281.1896	2.7
282.1592	1.3
283.1323	1.3
283.1689	4.9
283.2050	2.3
284.1764	2.2
285.1483	3.6
285.1842	4.5
287.1635	2.7
291.1734	1.9
293.1534	3.0
293.1885	1.7
295.1689	4.6
296.1730	1.4
297.1486	2.1
297.1846	1.6
299.1635	2.2
299.2003	4.8
300.2037	1.3
301.1793	3.3
305.1532	4.1
305.1897	1.3
307.1694	1.7
309.1482	1.1
309.1840	3.6
311.1638	5.0
311.2000	2.3
315.1587	1.5
317.2107	2.6
319.1696	2.9
319.2051	1.9
321.1847	2.1
323.1638	5.7
323.2004	2.3
324.1672	1.1
325.1795	1.3
327.1950	4.1
329.1736	4.7
329.2102	2.5
337.1793	4.1
337.2146	2.9
338.1839	1.1
339.1947	1.5
341.1740	2.9
345.2052	4.8
347.1636	1.4
347.1846	4.3
347.2010	1.6
347.2189	4.3
351.2301	1.5
355.1898	2.1
357.2047	1.5
361.2164	4.3
362.2191	1.3
363.2310	1.3
365.1749	3.5
365.2108	5.9
366.2144	1.5
375.2157	1.1
379.2263	11.4
380.2296	2.1
381.2419	2.4
383.1850	2.4
383.2213	5.8
389.2109	7.5
390.2140	2.2
397.2369	7.8
398.2396	2.1
401.2323	4.7
403.2124	2.2
407.2212	31.6
408.2247	9.0
415.2471	2.8
419.2421	1.8
425.2318	38.4
426.2350	9.8
433.2571	2.4
443.2422	12.8
444.2448	2.4
460.2077	1.6
460.2404	1.5
461.2530	33.1
462.2560	9.0
462.2855	2.4
463.2598	1.1
478.2511	1.2
479.2635	15.8
480.2668	4.3

Name: 1beta,3alpha-Dihydroxy-5beta-cholan-24-oic Acid
PrecursorMZ: 357.27814
RT: 2.1853
ExactMass: 392.29265975
Spectrum_type: 2
charge: 1
Formula: C24H40O4
SMILES: C[C@H](CCC(=O)O)[C@H]1CC[C@@H]2[C@@]1(CC[C@H]3[C@H]2CC[C@H]4[C@@]3([C@@H](C[C@H](C4)O)O)C)C
Method: HCD
Collision_energy: [28.333334]
Isolation_window: 4.0
Ion_mode: P
Num Peaks: 21
69.2958	6.8
81.0701	9.1
83.0857	6.6
95.0856	13.7
107.0855	9.4
109.1012	13.3
119.0854	6.5
121.1012	10.3
133.1010	6.7
135.1166	13.9
147.1167	11.5
149.1323	8.1
161.1324	8.5
175.1480	8.0
201.1640	6.7
215.1793	9.4
221.1536	6.0
247.1693	7.4
261.1844	8.0
357.2782	100.0
358.2817	24.2

Name: 1beta-Hydroxycholic acid
PrecursorMZ: 407.27816
RT: 2.3476
ExactMass: 424.28248899
Spectrum_type: 2
charge: 1
Formula: C24H40O6
SMILES: C[C@H](CCC(=O)O)[C@H]1CC[C@@H]2[C@@]1([C@H](C[C@H]3[C@H]2[C@@H](C[C@H]4[C@@]3([C@@H](C[C@H](C4)O)O)C)O)O)C
Method: HCD
Collision_energy: [28.333334]
Isolation_window: 4.0
Ion_mode: P
Num Peaks: 82
69.0701	7.0
70.0653	6.0
81.0337	6.9
81.0700	14.3
86.0965	30.8
93.0699	7.1
95.0855	15.1
96.0444	5.5
99.0440	5.1
105.0697	10.5
107.0855	15.4
109.1011	8.1
119.0853	9.8
121.1009	8.7
131.0852	8.0
133.1008	12.5
135.1165	7.8
143.0851	6.7
145.1008	21.0
147.1164	22.1
150.0909	7.2
157.1009	13.8
159.1165	15.2
161.1322	13.2
164.1066	28.2
171.1164	7.8
173.1323	5.8
185.1319	11.5
187.1475	5.9
194.1175	5.5
195.0506	7.0
196.0586	11.9
196.1325	7.5
197.1318	12.8
199.1476	17.3
209.1319	5.6
210.1121	10.9
211.1473	8.8
212.1273	11.7
213.1631	22.7
225.1631	6.5
227.1423	10.3
229.1580	6.2
230.1379	24.9
231.1737	12.2
235.1474	4.9
243.1371	11.0
245.1528	15.1
245.1851	7.7
253.1577	5.2
259.1684	6.9
271.1680	6.3
277.1900	7.6
307.2410	22.2
308.2440	6.6
317.2253	7.3
323.1954	65.5
324.1988	10.4
325.2514	60.4
326.2549	14.5
335.2357	24.2
336.2391	7.0
343.2629	5.7
353.2062	8.0
353.2463	92.8
354.2497	25.9
355.2627	13.9
371.2179	29.9
371.2567	100.0
372.2210	6.3
372.2602	25.3
373.2729	6.7
389.1699	5.3
389.2282	19.8
389.2672	74.0
390.2706	20.9
407.2376	16.8
407.2769	20.9
407.2949	6.1
408.2828	6.8
409.2709	9.5
409.3105	5.8

Name: 2',4'-Dihydroxyacetophenone
PrecursorMZ: 153.05462
RT: 6.056
ExactMass: 152.047344113
Spectrum_type: 2
charge: 1
Formula: C8H8O3
SMILES: CC(=O)C1=C(C=C(C=C1)O)O
Method: HCD
Collision_energy: [28.333334]
Isolation_window: 4.0
Ion_mode: P
Num Peaks: 38
69.4256	1.7
69.5709	1.7
79.0544	2.0
81.0700	1.5
82.0289	3.4
95.0605	7.2
97.0649	2.8
97.4560	1.7
107.0491	3.0
108.0444	2.4
108.0556	1.5
109.0760	2.0
110.0600	7.4
111.0440	9.1
113.0000	1.7
124.0756	2.4
125.0596	100.0
125.0708	4.2
126.0550	2.6
126.0628	6.5
126.0911	1.5
129.0544	5.3
134.0595	11.6
134.0631	1.8
136.0392	1.8
137.0707	21.8
152.0567	3.3
152.0703	24.6
153.0409	2.0
153.0544	47.7
153.0652	5.3
153.0737	1.8
153.1020	2.0
154.0497	32.1
154.0576	3.4
154.0860	8.2
155.0449	2.9
155.0812	9.0

Name: 2',4'-Dimethoxy-3-hydroxy-6-methylflavone
PrecursorMZ: 313.10673
RT: 6.7101
ExactMass: 312.09977361
Spectrum_type: 2
charge: 1
Formula: C18H16O5
SMILES: CC1=CC2=C(C=C1)OC(=C(C2=O)O)C3=C(C=C(C=C3)OC)OC
Method: HCD
Collision_energy: [28.333334]
Isolation_window: 4.0
Ion_mode: P
Num Peaks: 15
119.0492	3.3
147.0440	100.0
148.0472	7.8
149.0596	64.6
150.0631	4.9
173.0597	3.0
201.0543	5.3
219.0648	4.0
249.0910	3.1
253.0853	5.2
267.1009	5.2
271.0961	8.6
295.0960	13.2
312.3618	4.3
313.1056	14.6

Name: 2',6'-Dihydroxy-4'-methoxyacetophenone
PrecursorMZ: 183.06515
RT: 6.8556
ExactMass: 182.0579088
Spectrum_type: 2
charge: 1
Formula: C9H10O4
SMILES: CC(=O)C1=C(C=C(C=C1O)OC)O
Method: HCD
Collision_energy: [28.333334]
Isolation_window: 4.0
Ion_mode: P
Num Peaks: 51
70.0654	1.0
82.0654	1.0
84.0447	6.8
91.0545	19.0
92.0577	1.2
96.0446	1.6
108.0443	1.3
110.0602	2.1
114.0550	2.1
122.0964	1.3
123.0441	1.0
124.0394	1.4
127.0390	1.2
128.0706	1.6
136.0393	1.4
136.0756	2.4
137.0709	1.2
138.0549	10.5
139.0388	1.3
139.1230	0.9
141.0546	13.8
142.0498	1.5
142.0578	1.1
154.0499	3.1
156.0655	8.5
164.0706	3.0
165.0548	1.8
165.0658	1.4
165.1025	1.5
166.0499	3.0
167.0815	1.1
181.0970	2.1
181.1083	0.9
182.0447	9.7
182.0811	5.1
182.1014	1.8
182.1175	4.5
182.1903	1.3
183.0481	1.2
183.0651	100.0
183.0756	1.4
183.0779	1.4
183.0917	4.8
183.1128	1.9
184.0603	4.0
184.0686	9.1
184.0961	1.3
185.0444	1.2
185.0709	1.5
185.0925	1.4
185.1073	1.2

Name: 2',6'-Glycoloxylidide
PrecursorMZ: 180.1017
RT: 6.9115
ExactMass: 179.094628657
Spectrum_type: 2
charge: 1
Formula: C10H13NO2
SMILES: CC1=C(C(=CC=C1)C)NC(=O)CO
Method: HCD
Collision_energy: [28.333334]
Isolation_window: 4.0
Ion_mode: P
Num Peaks: 33
55.0546	3.6
60.0812	4.8
80.0497	20.7
91.0544	46.8
96.9952	4.4
101.0597	10.4
108.0808	3.7
110.0601	6.4
120.0807	4.3
134.0598	3.7
134.0962	54.2
135.0995	5.4
136.0755	23.3
138.0546	4.2
138.0910	4.4
152.0703	3.8
162.0910	4.2
163.0863	37.1
164.0704	10.9
164.0813	5.3
178.0858	6.0
179.0811	9.0
180.0653	19.0
180.0805	44.3
180.1013	100.0
180.1218	6.0
181.0714	4.2
181.0844	8.3
181.0970	53.3
181.1051	13.4
182.0808	42.6
182.0925	5.7
182.1173	11.2

Name: 2'-Hydroxyacetophenone
PrecursorMZ: 137.05942
RT: 4.7048
ExactMass: 136.052429494
Spectrum_type: 2
charge: 1
Formula: C8H8O2
SMILES: CC(=O)C1=CC=CC=C1O
Method: HCD
Collision_energy: [28.333334]
Isolation_window: 4.0
Ion_mode: P
Num Peaks: 11
81.0699	8.2
91.0542	15.2
109.0647	11.1
121.0280	10.6
122.0360	7.6
136.0212	14.8
136.0751	16.2
137.0593	100.0
138.0545	7.8
138.0621	9.7
138.0909	57.8

Name: 2'-Hydroxybenzophenone
PrecursorMZ: 199.07522
RT: 1.32415
ExactMass: 198.068079557
Spectrum_type: 2
charge: 1
Formula: C13H10O2
SMILES: C1=CC=C(C=C1)C(=O)C2=CC=CC=C2O
Method: HCD
Collision_energy: [28.333334]
Isolation_window: 4.0
Ion_mode: P
Num Peaks: 20
95.0855	3.8
105.0335	90.5
106.0368	6.8
121.0283	100.0
122.0314	7.1
124.0756	24.0
126.0912	5.5
138.0912	5.0
140.0704	10.3
154.0862	4.5
157.0758	6.4
172.0756	4.2
198.0909	5.9
198.1120	15.0
198.1847	5.1
199.0750	90.7
199.0861	61.8
200.0786	9.9
200.0898	7.1
200.1069	6.3

Name: 2'-O-Methyladenosine
PrecursorMZ: 282.1193
RT: 4.72
ExactMass: 281.11240398
Spectrum_type: 2
charge: 1
Formula: C11H15N5O4
SMILES: CO[C@@H]1[C@@H]([C@H](O[C@H]1N2C=NC3=C(N=CN=C32)N)CO)O
Method: HCD
Collision_energy: [28.333334]
Isolation_window: 4.0
Ion_mode: P
Num Peaks: 34
59.0495	1.1
69.0339	2.9
71.0494	0.5
81.0702	0.7
87.0443	1.9
95.0857	0.8
97.0285	1.4
101.0598	3.5
115.0390	1.4
129.0545	1.3
136.0507	0.6
136.0616	100.0
136.0723	0.7
137.0588	2.0
137.0649	5.1
147.0650	1.8
163.0501	2.5
184.1080	0.9
219.1125	4.4
237.1018	0.7
241.0968	0.9
265.0963	1.7
265.1175	1.1
281.1494	1.1
282.0949	0.5
282.1194	19.9
282.1311	0.7
282.1468	1.4
282.1693	0.6
282.2055	1.0
283.1066	1.2
283.1235	2.3
283.1403	1.0
283.1639	1.4

Name: 2'-O-Methylguanosine
PrecursorMZ: 298.11418
RT: 6.20165
ExactMass: 297.1073186
Spectrum_type: 2
charge: 1
Formula: C11H15N5O5
SMILES: CO[C@@H]1[C@@H]([C@H](O[C@H]1N2C=NC3=C2N=C(NC3=O)N)CO)O
Method: HCD
Collision_energy: [28.333334]
Isolation_window: 4.0
Ion_mode: P
Num Peaks: 18
69.0338	1.4
87.0443	0.6
97.0285	1.7
101.0597	1.4
115.0391	0.6
129.0546	0.8
147.0649	1.0
152.0439	0.6
152.0565	100.0
152.0695	0.8
153.0403	0.7
153.0535	1.7
153.0599	5.1
176.8750	2.4
297.1424	0.7
298.1142	1.1
298.1291	1.1
299.1230	1.3

Name: 2'-O-methylinosine
PrecursorMZ: 283.10338
RT: 6.927
ExactMass: 282.09641956
Spectrum_type: 2
charge: 1
Formula: C11H14N4O5
SMILES: CO[C@@H]1[C@@H]([C@H](O[C@H]1N2C=NC3=C2N=CNC3=O)CO)O
Method: HCD
Collision_energy: [28.333334]
Isolation_window: 4.0
Ion_mode: P
Num Peaks: 9
81.0338	11.7
83.0494	4.4
121.0648	5.3
137.0457	100.0
138.0490	4.0
266.1384	4.3
283.1035	78.5
283.1288	4.7
284.1083	10.7

Name: 2(5H)-Furanone
PrecursorMZ: 85.02869
RT: 8.3955
ExactMass: 84.021129366
Spectrum_type: 2
charge: 1
Formula: C4H4O2
SMILES: C1C=CC(=O)O1
Method: HCD
Collision_energy: [28.333334]
Isolation_window: 4.0
Ion_mode: P
Num Peaks: 12
56.0499	10.7
57.0339	6.4
57.0577	12.0
58.0655	7.3
69.0702	69.7
71.0733	4.9
84.0446	12.7
84.0810	11.3
85.0286	39.0
85.0762	6.3
86.0602	8.4
86.0966	100.0

Name: 2,10,10-Trimethyltricyclo(6.3.0.01,5)undec-6-ene-6-carboxylic acid
PrecursorMZ: 235.16885
RT: 1.423
ExactMass: 234.16197994
Spectrum_type: 2
charge: 1
Formula: C15H22O2
SMILES: CC1CCC2C13CC(CC3C=C2C(=O)O)(C)C
Method: HCD
Collision_energy: [28.333334]
Isolation_window: 4.0
Ion_mode: P
Num Peaks: 29
57.0339	13.3
67.0546	32.2
69.0703	8.8
79.0545	17.2
81.0338	100.0
81.0702	41.5
82.0371	6.5
83.0494	7.8
91.0544	20.5
93.0701	25.4
95.0493	6.9
95.0857	47.5
97.3987	7.9
105.0700	11.7
107.0492	7.3
107.0857	16.3
109.1012	16.1
117.0700	11.7
119.0856	16.1
121.0647	19.9
121.1012	18.7
123.0805	6.8
131.0855	16.0
133.1011	13.2
135.0803	16.7
135.1168	13.0
145.1010	7.7
157.1012	9.0
235.1691	22.8

Name: 2,2'-(Tetradecylimino)bis(ethanol)
PrecursorMZ: 302.30514
RT: 1.741
ExactMass: 301.298079487
Spectrum_type: 2
charge: 1
Formula: C18H39NO2
SMILES: CCCCCCCCCCCCCCN(CCO)CCO
Method: HCD
Collision_energy: [28.333334]
Isolation_window: 4.0
Ion_mode: P
Num Peaks: 15
57.0703	1.7
70.0656	2.1
71.0860	1.0
88.0760	5.1
102.0915	1.9
106.0865	5.2
158.1175	1.1
284.2946	4.8
285.2974	1.0
301.1538	1.0
302.1019	1.2
302.3051	100.0
303.1340	2.1
303.3085	18.6
304.3126	1.4

Name: 2,2-Bis(hydroxymethyl)-1-azabicyclo(2,2,2,)octan-3-one
PrecursorMZ: 186.1125
RT: 3.7401
ExactMass: 185.10519334
Spectrum_type: 2
charge: 1
Formula: C9H15NO3
SMILES: C1CN2CCC1C(=O)C2(CO)CO
Method: HCD
Collision_energy: [28.333334]
Isolation_window: 4.0
Ion_mode: P
Num Peaks: 99
57.0453	1.3
58.0657	3.7
60.0450	1.1
60.0561	1.2
62.0606	1.7
69.0340	14.8
70.0656	39.8
71.0497	5.2
71.0689	1.7
72.0812	1.2
81.0703	1.1
84.0812	8.4
86.0604	1.3
86.0969	1.3
87.0444	5.3
88.0761	1.4
89.0601	4.3
94.0655	4.0
96.9954	1.6
98.0604	5.0
99.0444	1.1
100.0760	1.7
101.0600	1.6
102.0916	6.1
104.0709	1.3
108.0812	2.0
112.0760	100.0
112.0885	1.7
113.0793	5.9
114.0918	1.7
116.0709	18.8
117.0550	1.7
122.0966	1.4
125.1074	2.2
126.0915	4.3
128.0710	1.6
129.1025	27.6
130.0865	18.2
130.1060	1.6
131.0899	1.3
133.9647	1.2
134.0813	11.4
135.0444	5.7
136.0758	1.4
138.0550	1.5
140.1070	1.9
144.1023	5.1
144.1133	17.0
145.1169	1.2
147.1130	2.4
149.0238	3.4
150.0914	1.1
152.0713	1.1
154.0507	1.7
154.0865	6.0
156.1022	1.2
165.0216	38.1
165.0545	1.2
166.0235	2.9
168.0664	1.7
168.1020	8.6
170.1180	1.5
171.1133	1.2
172.0971	24.2
173.1010	1.8
180.0653	2.1
182.1181	1.3
184.0963	2.0
185.0914	2.7
186.0601	2.5
186.0784	1.9
186.1127	77.2
187.1127	5.4
188.1034	3.8
188.1294	1.9
189.1235	46.8
190.1196	45.4
191.1236	3.2
192.1234	4.8
194.0808	1.3
194.1176	18.3
195.1229	2.0
198.0762	23.9
198.1112	2.3
199.0798	2.5
199.1068	4.8
200.0735	1.3
200.0913	11.6
200.1278	4.0
202.1072	9.3
202.1802	19.8
203.1048	1.5
203.1391	4.6
203.1841	2.4
204.1232	77.1
204.1394	1.6
205.1267	5.8
206.0246	1.1
206.1398	3.1

Name: 2,2-Dimethyl-2,3-dihydro-1-benzofuran-7-amine
PrecursorMZ: 164.10692
RT: 3.7588
ExactMass: 163.099714038
Spectrum_type: 2
charge: 1
Formula: C10H13NO
SMILES: CC1(CC2=C(O1)C(=CC=C2)N)C
Method: HCD
Collision_energy: [28.333334]
Isolation_window: 4.0
Ion_mode: P
Num Peaks: 143
56.0499	0.8
58.0654	0.4
59.0496	0.2
60.0813	1.0
67.0546	0.4
69.0339	0.2
70.0655	0.7
71.0491	0.4
72.0448	0.3
72.0811	0.2
74.0240	4.9
74.0603	0.4
74.0968	0.9
75.0267	1.2
78.9844	0.2
80.0498	0.6
83.0495	0.3
84.0447	0.2
84.0811	0.5
85.0652	1.2
86.0605	0.5
86.0967	0.6
87.0446	0.3
88.0396	0.2
94.0654	0.7
96.0447	0.7
96.9954	1.1
97.0763	0.3
98.0966	0.2
100.0245	0.2
100.0757	0.2
101.0599	1.5
102.0552	1.0
104.0708	0.2
105.0336	0.4
107.0494	0.2
107.0726	0.8
108.0447	0.3
108.0811	0.9
110.0602	0.2
112.0758	1.0
114.0550	0.3
116.0709	0.2
116.1072	0.2
118.0864	0.5
119.0495	0.2
120.0809	7.5
121.0843	0.5
121.0888	0.2
122.0601	3.5
122.0963	0.2
123.0111	0.5
123.0441	0.3
123.0919	0.3
124.0391	0.2
126.0549	0.4
128.1071	0.6
130.0858	0.2
131.0491	0.3
132.0807	0.2
132.1020	0.2
133.0883	0.2
136.0756	0.5
138.0550	2.0
144.0654	0.3
146.0813	0.2
147.0440	0.4
148.0786	0.6
149.0267	0.8
150.0548	1.0
152.0705	0.9
154.0864	0.3
154.1229	0.7
162.0761	0.4
162.1127	0.2
163.1232	1.7
164.0705	0.9
164.0961	0.2
164.1070	7.9
165.0216	0.5
165.0543	0.2
165.0662	0.4
165.1003	1.4
165.1132	0.3
166.0525	0.9
166.0877	1.9
166.1081	0.6
166.1226	10.0
167.0796	0.5
167.1174	10.1
168.0677	5.6
168.1213	0.8
168.1382	0.5
169.0723	0.3
169.0970	0.2
169.1335	0.7
170.0649	0.2
170.0808	1.0
170.1177	0.4
170.1538	0.3
171.1125	0.7
171.1492	0.2
172.1332	2.7
173.1382	0.2
174.0912	0.9
174.1124	1.6
174.1243	0.4
174.1489	7.5
175.1237	0.3
175.1528	0.7
176.0707	0.3
176.0917	0.2
176.1058	0.4
176.1283	0.3
177.0867	0.2
177.1024	0.3
177.1391	0.4
178.0526	0.2
178.0890	1.0
178.0966	0.5
178.1226	100.0
178.1477	0.4
178.1555	0.7
178.2007	0.3
179.0827	0.2
179.1263	11.6
180.0653	0.3
180.0805	2.8
180.1046	15.2
180.1387	3.7
181.0716	1.2
181.1089	1.3
181.1324	3.5
182.0807	2.9
182.1018	0.4
182.1172	0.6
182.1361	0.3
183.0904	0.2
183.1127	0.9
183.1492	0.2
184.0602	0.7
184.0967	0.7
184.1325	0.8

Name: 2,3',4,6-Tetrahydroxybenzophenone
PrecursorMZ: 264.08652
RT: 7.7439
ExactMass: 246.05282342
Spectrum_type: 2
charge: 1
Formula: C13H10O5
SMILES: C1=CC(=CC(=C1)O)C(=O)C2=C(C=C(C=C2O)O)O
Method: HCD
Collision_energy: [28.333334]
Isolation_window: 4.0
Ion_mode: P
Num Peaks: 58
55.0547	3.4
70.0656	1.5
83.0494	2.2
101.0599	10.7
120.0807	1.2
121.0887	2.2
132.1020	17.4
133.1053	1.1
134.0964	1.1
137.1074	1.2
146.0966	2.1
148.0757	1.3
151.0629	27.0
152.0654	1.6
152.0717	1.4
163.0868	2.2
163.1230	2.3
164.1071	15.4
165.1023	4.2
165.1103	1.3
166.0864	7.2
166.1224	1.6
178.0498	2.6
188.0706	1.7
190.0862	1.2
218.0816	1.2
219.1492	7.7
233.1002	1.1
233.1410	1.3
236.0917	10.1
237.0953	1.2
245.1005	1.2
246.0767	1.9
247.1079	1.2
262.1071	3.5
262.1189	1.6
262.1284	1.3
262.1436	4.9
262.1554	4.3
263.1015	4.3
263.1386	16.8
263.1753	8.8
264.0866	100.0
264.1096	1.1
264.1228	12.6
264.1348	3.3
264.1450	2.8
264.1591	47.2
264.1699	1.6
265.0901	14.9
265.1181	11.2
265.1301	3.0
265.1540	86.0
265.1905	2.6
266.1018	1.9
266.1382	8.9
266.1582	4.1
266.1749	7.5

Name: 2,3,14,20,22,25-Hexahydroxycholest-7-en-6-one
PrecursorMZ: 463.30499
RT: 4.791
ExactMass: 480.30870374
Spectrum_type: 2
charge: 1
Formula: C27H44O7
SMILES: CC12CCC3C(=CC(=O)C4C3(CC(C(C4)O)O)C)C1(CCC2C(C)(C(CCC(C)(C)O)O)O)O
Method: HCD
Collision_energy: [28.333334]
Isolation_window: 4.0
Ion_mode: P
Num Peaks: 111
51.4786	1.6
67.0546	1.2
69.0338	3.2
69.0702	6.3
70.0654	2.3
79.0545	1.6
81.0337	1.5
81.0701	36.2
82.0735	1.6
83.0494	1.6
86.0966	1.1
87.0442	3.9
89.0599	11.3
93.0700	1.8
95.0491	1.8
95.0856	2.1
97.0649	2.7
97.1012	1.3
99.0442	2.1
99.0805	39.0
100.0838	2.7
107.0856	5.6
109.0648	1.2
109.1012	8.3
111.0441	2.7
119.0854	1.1
121.0647	1.1
121.1010	1.6
123.0804	2.3
123.1168	1.4
125.0960	13.3
127.1116	4.6
131.0854	1.3
133.0857	6.1
133.1009	1.6
137.0596	1.3
143.0854	1.6
143.1065	8.1
145.1010	2.6
147.1165	1.8
155.0700	1.1
157.1011	1.3
159.1168	1.4
165.1272	8.2
171.0803	1.3
173.0960	2.9
173.1324	1.4
175.1117	1.2
177.1116	1.6
187.1116	1.1
189.0905	1.5
191.1063	1.9
192.1016	1.4
195.1166	1.6
197.1322	3.3
209.1326	1.1
211.1477	1.1
213.1272	2.2
221.1321	1.6
223.1117	1.2
225.1272	2.3
227.1427	1.2
231.1373	1.1
235.1478	1.5
237.1635	1.6
239.1429	1.1
247.1477	2.0
249.1481	1.8
253.1948	2.4
255.1738	2.2
265.1581	4.5
267.1737	1.6
283.1685	14.0
284.1717	2.6
285.1843	2.5
295.2048	1.1
299.1637	3.5
301.1791	100.0
302.1826	18.5
303.1955	8.1
304.1981	1.6
311.2000	2.5
317.1893	1.2
329.2103	10.5
330.2138	2.4
335.1999	1.2
341.2104	1.1
353.2104	5.2
354.2159	1.6
371.2210	2.5
391.2618	1.7
409.2728	18.9
410.2763	5.6
427.2834	26.6
428.2868	8.2
445.2939	21.1
446.1791	1.1
446.2974	5.3
448.2580	3.2
456.7706	1.3
462.1739	1.1
462.2903	1.1
462.3206	2.1
463.2062	1.8
463.3043	33.0
464.2010	14.0
464.3072	8.2
464.3362	1.8
464.7024	4.0
465.1674	1.7
465.2011	1.9

Name: 2,3,14-trihydroxy-10,13-dimethyl-17-(2,3,6,7-tetrahydroxy-6-methylheptan-2-yl)-2,3,4,5,9,11,12,15,16,17-decahydro-1H-cyclopenta(a)phenanthren-6-one
PrecursorMZ: 497.30997
RT: 2.2105
ExactMass: 496.30361836
Spectrum_type: 2
charge: 1
Formula: C27H44O8
SMILES: CC12CCC3C(=CC(=O)C4C3(CC(C(C4)O)O)C)C1(CCC2C(C)(C(CCC(C)(CO)O)O)O)O
Method: HCD
Collision_energy: [28.333334]
Isolation_window: 4.0
Ion_mode: P
Num Peaks: 26
55.2486	5.2
69.0702	10.3
81.0701	10.0
95.0491	10.5
97.0649	7.9
99.0804	9.2
107.0855	8.8
125.0959	17.9
143.1064	8.2
165.1272	6.3
189.0906	7.8
269.1529	6.3
281.1529	5.9
311.1995	5.8
351.1945	11.3
369.2042	8.8
407.2575	5.5
425.2671	14.2
443.2779	13.4
444.2805	6.8
461.2884	9.0
497.2345	100.0
497.3099	72.2
498.2378	20.9
498.3135	18.3
499.2368	6.2

Name: 2,3,4,9-Tetrahydro-1H-pyrido(3,4-b)indol-1-one
PrecursorMZ: 187.08674
RT: 6.2788
ExactMass: 186.079312947
Spectrum_type: 2
charge: 1
Formula: C11H10N2O
SMILES: C1CNC(=O)C2=C1C3=CC=CC=C3N2
Method: HCD
Collision_energy: [28.333334]
Isolation_window: 4.0
Ion_mode: P
Num Peaks: 24
86.0967	2.4
101.0711	1.3
114.0665	2.6
118.0652	1.0
142.0651	5.0
142.1227	1.7
144.0810	1.4
146.0601	5.8
155.0815	2.4
156.0894	4.1
160.0870	4.7
170.0602	3.3
185.1073	6.7
186.0762	1.6
186.1116	3.6
186.1238	2.0
186.2216	1.1
187.0866	100.0
187.1440	2.0
188.0707	8.4
188.0900	10.9
188.1281	1.4
189.0692	4.2
189.1023	1.0

Name: 2,3,4-Trimethoxybenzaldehyde
PrecursorMZ: 197.08086
RT: 5.513
ExactMass: 196.07355886
Spectrum_type: 2
charge: 1
Formula: C10H12O4
SMILES: COC1=C(C(=C(C=C1)C=O)OC)OC
Method: HCD
Collision_energy: [28.333334]
Isolation_window: 4.0
Ion_mode: P
Num Peaks: 28
67.0547	4.1
81.0703	2.2
89.0600	2.8
95.0495	5.1
95.0858	3.1
108.0810	6.2
109.0650	2.3
136.0757	2.9
141.0549	1.6
150.0915	3.3
151.0755	100.0
152.0707	2.0
152.0788	9.6
153.0548	1.6
168.1020	1.9
169.0861	2.5
178.0863	3.6
181.0244	5.7
182.0085	13.3
196.0608	1.8
196.0969	7.0
197.0809	27.3
197.1077	3.3
197.1280	1.4
198.0761	1.3
198.0845	2.2
199.0348	1.6
200.0190	5.9

Name: 2,3-Dihydro-1,5-dimethyl-3-oxo-2-phenyl-1H-pyrazole-4-carbaldehyde
PrecursorMZ: 217.09698
RT: 7.2138
ExactMass: 216.08987763
Spectrum_type: 2
charge: 1
Formula: C12H12N2O2
SMILES: CC1=C(C(=O)N(N1C)C2=CC=CC=C2)C=O
Method: HCD
Collision_energy: [28.333334]
Isolation_window: 4.0
Ion_mode: P
Num Peaks: 146
59.0495	0.5
67.0547	0.4
69.0338	0.7
70.0654	8.8
71.0494	0.6
71.0688	1.3
72.0448	0.4
72.0811	1.6
74.0239	4.7
74.0603	0.7
81.0337	1.1
81.0701	0.4
82.0655	0.3
83.0493	0.7
84.0446	1.1
84.0810	0.8
85.0286	0.5
85.0650	0.3
86.0238	0.5
86.0603	0.7
87.0442	0.6
91.0544	0.4
93.0701	0.3
95.0494	0.4
95.0605	1.2
97.0285	3.0
97.0649	0.4
98.0601	0.7
99.0441	0.7
100.0757	3.4
101.0597	1.4
102.0551	0.4
105.0700	0.4
107.0492	0.4
109.0282	0.5
109.0649	0.4
111.0440	0.4
111.0805	0.4
112.0757	1.9
113.0233	0.8
113.0597	0.9
113.0709	3.2
114.0550	0.8
114.0913	0.5
115.0391	0.3
116.0706	2.0
117.0700	0.4
121.0648	0.7
124.0757	0.3
125.0232	15.0
125.0708	0.4
126.0006	0.7
126.0265	1.0
126.0549	0.5
126.0912	1.3
127.0388	0.6
128.0705	0.5
129.0697	0.4
130.0497	1.4
130.0649	1.1
130.0860	1.1
131.0852	0.4
132.0806	1.6
133.0645	0.5
135.0803	0.6
137.0596	0.4
138.0911	0.9
139.0864	1.3
140.0704	0.4
140.1065	0.5
141.0545	1.1
142.0498	0.9
142.0860	19.8
143.0728	0.5
143.0894	1.4
144.0653	0.8
144.0687	0.6
144.0712	0.6
144.0806	100.0
144.0899	0.4
144.0925	0.7
144.1019	0.6
145.0839	10.5
152.0704	1.1
152.1067	0.6
154.0861	2.7
154.1225	0.5
156.0653	0.6
156.0806	1.1
156.1017	1.8
157.1012	0.5
158.0597	0.7
159.1166	0.6
160.0755	0.7
169.0971	0.4
170.0808	0.9
170.0962	1.6
170.1173	1.7
171.0914	3.4
171.1163	0.5
172.0962	1.3
172.1329	0.6
173.1071	2.1
174.0910	2.7
174.1117	0.9
180.0653	1.1
181.0966	0.4
182.0808	0.9
182.1538	0.5
188.0703	1.0
197.0913	0.5
198.0757	1.3
198.1121	2.3
198.1485	0.4
199.1067	2.3
200.0705	0.6
200.0913	3.1
200.1277	2.0
200.1639	0.6
201.1021	0.7
201.1266	0.5
202.1096	0.7
215.1021	3.0
215.1182	0.3
215.1381	1.2
216.0653	1.2
216.0865	2.0
216.1017	1.3
216.1047	1.1
216.1125	0.5
216.1225	8.2
216.1341	0.6
216.1588	1.4
217.0631	0.4
217.0886	0.4
217.0968	12.2
217.1080	0.5
217.1176	17.2
218.0813	2.3
218.1012	3.6
218.1176	3.0
218.1379	3.1
218.1745	1.9
219.0760	0.5
219.1123	4.3
219.1372	0.9

Name: 2,3-Dihydroxypropyl 13-methyltetradecanoate
PrecursorMZ: 317.26835
RT: 1.6754
ExactMass: 316.26135963
Spectrum_type: 2
charge: 1
Formula: C18H36O4
SMILES: CC(C)CCCCCCCCCCCC(=O)OCC(CO)O
Method: HCD
Collision_energy: [28.333334]
Isolation_window: 4.0
Ion_mode: P
Num Peaks: 15
67.0546	22.8
71.0495	38.9
72.0811	65.3
81.0702	29.8
86.0967	62.0
95.0857	26.1
97.0651	17.7
121.1011	38.7
135.1169	23.3
143.1178	100.0
146.1175	98.5
158.1175	17.6
171.1127	46.3
263.2368	25.8
281.2470	51.6

Name: 2,3-Dihydroxypropyl 3-hydroxy-13-methyltetradecanoate
PrecursorMZ: 350.28994
RT: 1.0095
ExactMass: 332.25627424
Spectrum_type: 2
charge: 1
Formula: C18H36O5
SMILES: CC(C)CCCCCCCCCC(CC(=O)OCC(CO)O)O
Method: HCD
Collision_energy: [28.333334]
Isolation_window: 4.0
Ion_mode: P
Num Peaks: 10
71.0859	6.8
87.0444	100.0
89.0600	8.4
250.2025	7.0
295.2603	10.3
333.2630	5.0
350.2909	11.3
351.3228	91.9
352.3070	9.5
352.3250	13.1

Name: 2,4(1H,3H)-Pteridinedione, 1,3-dimethyl-
PrecursorMZ: 193.0721
RT: 5.2337
ExactMass: 192.06472551
Spectrum_type: 2
charge: 1
Formula: C8H8N4O2
SMILES: CN1C2=NC=CN=C2C(=O)N(C1=O)C
Method: HCD
Collision_energy: [28.333334]
Isolation_window: 4.0
Ion_mode: P
Num Peaks: 30
85.0652	0.6
95.0605	3.5
97.3987	0.4
107.0606	1.2
120.0657	0.7
122.0714	5.6
133.0397	0.9
148.0506	0.4
150.0662	5.9
151.0695	0.4
165.0773	0.5
174.1125	0.5
175.0865	0.6
177.1022	0.4
191.0815	0.6
192.1025	0.7
192.1132	8.4
193.0534	0.6
193.0576	0.4
193.0720	100.0
193.0865	0.8
193.0955	1.8
193.1157	0.8
194.0752	7.5
194.0931	0.4
194.1175	2.1
194.1285	0.7
195.0770	0.4
195.0876	0.4
195.1127	1.1

Name: 2,4,6-Tri-tert-butylphenol
PrecursorMZ: 263.2367
RT: 0.9078
ExactMass: 262.229665576
Spectrum_type: 2
charge: 1
Formula: C18H30O
SMILES: CC(C)(C)C1=CC(=C(C(=C1)C(C)(C)C)O)C(C)(C)C
Method: HCD
Collision_energy: [28.333334]
Isolation_window: 4.0
Ion_mode: P
Num Peaks: 114
55.0546	2.4
57.0338	1.0
57.0703	12.9
67.0546	38.2
68.0579	1.6
69.0702	19.9
71.0494	2.7
71.0858	16.5
79.0545	12.5
81.0701	66.1
82.0735	3.7
83.0494	3.5
83.0858	19.3
85.0650	10.5
85.1014	5.7
91.0544	9.1
92.0578	1.0
93.0700	19.6
94.0734	1.8
95.0492	1.6
95.0856	69.4
96.0890	4.1
97.0649	7.0
97.1013	13.1
99.0805	5.6
105.0699	11.9
106.0733	1.2
107.0856	25.1
108.0889	2.2
109.0649	2.8
109.1012	47.3
110.1046	3.3
111.0805	5.7
111.1168	4.8
113.0961	4.1
119.0855	18.7
120.0887	1.9
121.1011	29.1
122.1044	2.2
123.0803	3.5
123.1168	26.5
124.1200	1.9
125.0960	2.3
125.1323	1.2
127.1117	3.3
131.0855	1.8
133.1010	24.5
134.1044	2.9
135.1167	20.3
136.1202	2.0
137.0960	5.6
137.1323	9.9
138.1357	1.2
139.1115	1.6
141.1272	9.2
145.1010	2.1
147.1167	19.6
148.1199	2.5
149.0959	1.3
149.1323	18.4
150.1357	2.0
151.1116	5.4
151.1480	6.6
153.1271	1.6
159.1166	2.1
161.1323	16.6
162.1356	2.4
163.1479	13.4
164.1513	1.6
165.1272	2.6
165.1636	6.4
167.1429	1.9
173.1325	1.5
175.1479	11.7
176.1514	1.6
177.1635	4.8
179.1428	1.4
179.1791	4.7
181.1584	1.9
189.1635	6.6
191.1791	2.7
203.1791	3.1
205.1949	3.1
207.1742	1.4
209.0758	1.2
217.1948	2.1
219.2103	5.1
220.2137	1.1
236.0866	1.8
244.2137	1.2
245.1534	1.0
245.2259	57.2
246.2293	11.0
247.1687	1.2
247.2419	5.9
261.2206	1.5
262.0784	1.2
262.1018	2.9
262.2252	3.2
263.1091	4.3
263.1636	3.8
263.1791	1.9
263.2000	5.2
263.2364	100.0
264.0814	7.4
264.1020	2.0
264.1174	2.0
264.2406	17.1
264.2677	3.6
265.0861	2.0
265.1792	3.8
265.1944	1.9
265.2157	3.2
265.2524	15.0

Name: 2,4,6-Trimethylpyridine
PrecursorMZ: 122.0964
RT: 1.32815
ExactMass: 121.089149355
Spectrum_type: 2
charge: 1
Formula: C8H11N
SMILES: CC1=CC(=NC(=C1)C)C
Method: HCD
Collision_energy: [28.333334]
Isolation_window: 4.0
Ion_mode: P
Num Peaks: 11
79.0544	1.2
81.0701	1.6
104.0706	1.0
107.0731	1.4
120.0809	1.1
122.0964	100.0
123.0552	1.3
123.0804	1.7
123.0919	1.1
123.0997	7.8
124.0758	1.7

Name: 2,4,7,9-Tetramethyl-5-decyne-4,7-diol
PrecursorMZ: 191.17937
RT: 1.1131
ExactMass: 226.193280068
Spectrum_type: 2
charge: 1
Formula: C14H26O2
SMILES: CC(C)CC(C)(C#CC(C)(CC(C)C)O)O
Method: HCD
Collision_energy: [28.333334]
Isolation_window: 4.0
Ion_mode: P
Num Peaks: 28
55.0547	3.7
57.0703	5.3
59.0496	3.1
69.0703	8.0
79.0546	3.8
83.0858	18.7
91.0544	4.8
93.0701	15.0
95.0857	5.2
105.0700	5.1
107.0857	32.5
108.0891	2.8
109.1013	4.5
119.0492	9.7
119.0856	15.4
120.0934	2.2
121.1012	27.6
122.1045	2.3
123.1167	1.8
133.1012	3.7
135.1168	100.0
136.1201	9.1
137.0959	1.9
148.1246	2.3
149.1324	11.0
191.1792	24.6
192.1381	10.9
192.1830	2.8

Name: 2,4-Bis(3-methylbut-2-enyl)-5-(2-phenylethyl)benzene-1,3-diol
PrecursorMZ: 368.25833
RT: 6.2788
ExactMass: 350.224580195
Spectrum_type: 2
charge: 1
Formula: C24H30O2
SMILES: CC(=CCC1=C(C(=C(C=C1CCC2=CC=CC=C2)O)CC=C(C)C)O)C
Method: HCD
Collision_energy: [28.333334]
Isolation_window: 4.0
Ion_mode: P
Num Peaks: 68
59.0608	10.5
72.0812	3.3
81.0702	2.3
86.0967	24.4
87.1001	2.3
91.0545	12.4
93.0701	2.1
95.0857	2.4
100.1123	100.0
101.1156	9.4
102.1279	2.1
105.0336	2.9
105.0701	26.0
106.0733	2.0
116.0709	2.3
117.0700	9.3
119.0493	18.6
119.0856	69.2
120.0525	2.4
120.0890	6.2
121.0648	4.1
129.0699	4.3
131.0491	6.7
131.0856	3.0
133.0284	2.0
133.0648	32.6
133.1011	3.0
134.0681	3.0
135.0440	8.5
135.0805	3.6
147.0805	6.1
159.1169	2.0
175.0756	2.8
193.1010	2.1
207.1174	2.5
219.1163	2.1
221.0961	3.5
221.1320	2.1
237.1269	2.8
239.1062	1.9
247.1116	9.2
248.1150	4.8
249.0908	2.7
249.1271	7.4
265.0858	5.9
265.1222	7.8
266.0894	5.7
266.1257	4.2
267.1018	5.7
267.1378	7.5
269.1654	2.7
366.2073	6.6
366.2428	20.7
367.1472	3.3
367.2100	12.9
367.2453	21.1
368.1291	3.0
368.2210	51.9
368.2574	96.2
368.2955	2.0
368.4252	2.6
369.1668	2.1
369.2257	9.0
369.2587	19.6
369.2784	4.7
370.1459	3.4
370.2380	14.8
370.2794	2.8

Name: 2,4-Bis(3-methylbut-2-enyl)-5-pentylbenzene-1,3-diol
PrecursorMZ: 317.24729
RT: 1.6217
ExactMass: 316.240230259
Spectrum_type: 2
charge: 1
Formula: C21H32O2
SMILES: CCCCCC1=CC(=C(C(=C1CC=C(C)C)O)CC=C(C)C)O
Method: HCD
Collision_energy: [28.333334]
Isolation_window: 4.0
Ion_mode: P
Num Peaks: 26
67.0546	9.4
71.0859	12.0
81.0337	12.2
81.0703	7.4
83.0858	7.5
93.0700	6.4
95.0493	8.7
95.0858	7.4
99.0807	6.5
131.0856	6.2
158.1175	40.4
164.0704	7.5
193.1226	10.3
203.1427	15.3
229.1333	15.0
257.1282	100.0
258.1121	29.3
258.1320	12.0
285.1230	45.9
286.1264	7.5
317.1491	37.7
317.2072	8.0
317.2473	48.6
318.1334	7.1
318.1526	6.3
318.2502	8.2

Name: 2,4-Diaminotoluene
PrecursorMZ: 123.09183
RT: 3.0227
ExactMass: 122.084398327
Spectrum_type: 2
charge: 1
Formula: C7H10N2
SMILES: CC1=C(C=C(C=C1)N)N
Method: HCD
Collision_energy: [28.333334]
Isolation_window: 4.0
Ion_mode: P
Num Peaks: 12
80.0498	7.0
96.0684	6.4
97.0763	8.8
107.0731	28.3
122.0966	45.8
123.0554	13.6
123.0918	100.0
124.0758	9.4
124.0871	12.7
124.0950	8.8
125.0711	22.0
125.1074	8.6

Name: 2,4-Dihydroxy-1,4-Benzoxazin-3-One
PrecursorMZ: 182.04472
RT: 5.3389
ExactMass: 181.0375077
Spectrum_type: 2
charge: 1
Formula: C8H7NO4
SMILES: C1=CC=C2C(=C1)N(C(=O)C(O2)O)O
Method: HCD
Collision_energy: [28.333334]
Isolation_window: 4.0
Ion_mode: P
Num Peaks: 29
91.0543	62.3
92.0576	4.6
119.0603	12.5
122.0599	4.5
126.0548	1.8
134.0791	2.0
136.0391	24.8
136.0754	19.6
137.0422	1.8
154.0861	2.2
164.0340	16.4
164.0703	100.0
165.0376	1.5
165.0657	84.1
165.0734	9.6
166.0689	3.1
180.0651	3.4
180.0802	6.0
180.1048	5.9
181.0839	1.6
181.0968	2.3
182.0444	19.2
182.0808	57.3
182.1172	13.3
183.0512	4.6
183.0760	9.2
183.0842	4.6
183.1125	1.8
183.1207	1.4

Name: 2,4-Dihydroxy-6-(6alpha,10-dihydroxy-trans-1-undecenyl)benzoic acid mu-lactone
PrecursorMZ: 321.16936
RT: 1.736
ExactMass: 320.16237386
Spectrum_type: 2
charge: 1
Formula: C18H24O5
SMILES: CC1CCCC(CCCC=CC2=C(C(=CC(=C2)O)O)C(=O)O1)O
Method: HCD
Collision_energy: [28.333334]
Isolation_window: 4.0
Ion_mode: P
Num Peaks: 9
69.1890	11.3
97.4577	9.2
128.1070	20.8
159.1166	12.2
229.1222	9.5
247.1323	17.1
303.1581	23.6
321.1683	100.0
322.1724	22.2

Name: 2,4-Dihydroxyheptadec-16-ynyl acetate
PrecursorMZ: 349.23474
RT: 1.1162
ExactMass: 326.24570956
Spectrum_type: 2
charge: 1
Formula: C19H34O4
SMILES: CC(=O)OCC(CC(CCCCCCCCCCCC#C)O)O
Method: HCD
Collision_energy: [28.333334]
Isolation_window: 4.0
Ion_mode: P
Num Peaks: 34
67.0546	7.5
69.0703	4.0
69.1388	4.7
71.0859	6.9
74.0604	31.0
79.0546	4.4
81.0339	3.7
81.0702	8.0
93.0701	7.7
95.0857	6.6
97.3998	4.0
99.0806	3.3
105.0700	3.7
107.0857	5.7
109.1012	4.6
119.0857	3.4
121.1012	6.1
133.1012	4.6
135.1168	5.2
147.1170	4.0
151.1117	3.2
161.1326	3.1
179.1430	8.4
257.1279	3.9
259.2050	4.2
277.2158	8.2
285.1230	7.5
317.1490	8.4
349.1774	6.2
349.2347	100.0
350.2381	21.4
350.3050	45.3
351.2522	30.3
351.3081	5.8

Name: 2,4-Dimethylaniline
PrecursorMZ: 122.0964
RT: 3.8819
ExactMass: 121.089149355
Spectrum_type: 2
charge: 1
Formula: C8H11N
SMILES: CC1=CC(=C(C=C1)N)C
Method: HCD
Collision_energy: [28.333334]
Isolation_window: 4.0
Ion_mode: P
Num Peaks: 3
107.0732	10.3
122.0967	100.0
123.1001	9.5

Name: 2,5,8,11-Tetramethyl-3,6,9,12-tetraoxapentadecane-1,14-diol
PrecursorMZ: 309.22676
RT: 1.2773833333333333
ExactMass: 308.21988874
Spectrum_type: 2
charge: 1
Formula: C15H32O6
SMILES: CC(CO)OCC(C)OCC(C)OCC(C)OCC(C)O
Method: HCD
Collision_energy: [28.333334]
Isolation_window: 4.0
Ion_mode: P
Num Peaks: 11
57.0339	5.3
59.0496	100.0
60.0529	3.5
99.0807	1.8
115.0755	1.7
117.0910	31.0
118.0944	2.0
175.1327	8.3
193.1436	1.9
309.1302	3.8
309.2264	5.6

Name: 2,5-Diaminopentanoic Acid
PrecursorMZ: 115.08668
RT: 9.4912
ExactMass: 132.08987763
Spectrum_type: 2
charge: 1
Formula: C5H12N2O2
SMILES: C(CC(C(=O)O)N)CN
Method: HCD
Collision_energy: [28.333334]
Isolation_window: 4.0
Ion_mode: P
Num Peaks: 13
70.0654	100.0
71.0688	3.4
74.9378	2.6
79.0545	2.0
86.0602	3.4
96.0809	2.0
97.0761	2.4
98.0601	3.0
113.1072	3.4
114.0913	38.6
115.0865	9.4
115.0946	2.9
116.0706	18.6

Name: 2,5-Piperazinedione
PrecursorMZ: 115.05032
RT: 5.62365
ExactMass: 114.042927438
Spectrum_type: 2
charge: 1
Formula: C4H6N2O2
SMILES: C1C(=O)NCC(=O)N1
Method: HCD
Collision_energy: [28.333334]
Isolation_window: 4.0
Ion_mode: P
Num Peaks: 27
55.0182	1.2
55.0546	0.7
58.0655	3.7
68.0498	0.9
69.0702	1.3
70.0654	7.7
72.0447	1.5
73.0400	4.5
79.0545	1.4
86.0602	3.3
87.0555	1.1
88.0395	2.2
95.0605	5.6
96.0638	0.6
96.0808	1.3
98.0601	3.6
113.0597	2.0
113.0709	2.5
114.0913	33.7
115.0417	0.8
115.0502	100.0
115.0537	1.8
115.0946	2.4
116.0471	0.7
116.0535	4.2
116.0705	9.1
116.1069	6.1

Name: 2,5-Piperazinedione, 3-(1H-indol-3-ylmethyl)-6-(phenylmethyl)-
PrecursorMZ: 334.15464
RT: 2.3517
ExactMass: 333.147726857
Spectrum_type: 2
charge: 1
Formula: C20H19N3O2
SMILES: C1=CC=C(C=C1)CC2C(=O)NC(C(=O)N2)CC3=CNC4=CC=CC=C43
Method: HCD
Collision_energy: [28.333334]
Isolation_window: 4.0
Ion_mode: P
Num Peaks: 12
91.0545	5.6
105.0700	2.8
119.0856	5.1
130.0651	100.0
131.0684	8.3
132.0808	4.7
332.3308	15.0
333.3323	4.7
334.1546	14.0
335.1585	3.2
335.2191	2.8
336.1743	4.5

Name: 2,6-Diethylaniline
PrecursorMZ: 150.12771
RT: 1.1305
ExactMass: 149.120449483
Spectrum_type: 2
charge: 1
Formula: C10H15N
SMILES: CCC1=C(C(=CC=C1)CC)N
Method: HCD
Collision_energy: [28.333334]
Isolation_window: 4.0
Ion_mode: P
Num Peaks: 10
93.0574	7.6
94.0652	3.5
107.0729	1.8
148.1119	0.9
150.0912	1.1
150.1150	0.8
150.1276	100.0
150.1401	0.7
151.1241	0.9
151.1308	11.5

Name: 2,6-Dimethylaniline
PrecursorMZ: 122.0965
RT: 1.3295
ExactMass: 121.089149355
Spectrum_type: 2
charge: 1
Formula: C8H11N
SMILES: CC1=C(C(=CC=C1)C)N
Method: HCD
Collision_energy: [28.333334]
Isolation_window: 4.0
Ion_mode: P
Num Peaks: 4
107.0731	11.7
122.0965	100.0
123.0553	3.3
123.0997	8.3

Name: 2,6-Dimethylmorpholine
PrecursorMZ: 116.10708
RT: 6.4875
ExactMass: 115.099714038
Spectrum_type: 2
charge: 1
Formula: C6H13NO
SMILES: CC1CNCC(O1)C
Method: HCD
Collision_energy: [28.333334]
Isolation_window: 4.0
Ion_mode: P
Num Peaks: 14
58.0655	50.7
59.0496	3.7
59.0689	1.6
59.0733	2.3
70.0655	13.2
98.0965	11.6
114.8930	1.7
115.0503	1.9
115.0947	2.0
115.1230	2.4
116.0706	3.6
116.1070	100.0
117.1103	6.4
118.0862	23.5

Name: 2,6-Dimethylquinoline
PrecursorMZ: 158.09639
RT: 6.4531
ExactMass: 157.089149355
Spectrum_type: 2
charge: 1
Formula: C11H11N
SMILES: CC1=CC2=C(C=C1)N=C(C=C2)C
Method: HCD
Collision_energy: [28.333334]
Isolation_window: 4.0
Ion_mode: P
Num Peaks: 91
60.0448	0.6
69.0339	0.3
69.0702	0.4
70.0291	0.5
70.0403	0.3
70.0654	0.8
71.0495	0.5
72.0560	1.1
83.0131	0.4
84.0447	0.6
84.0810	0.6
85.0286	0.3
86.0602	1.4
88.0395	3.6
91.0543	0.4
93.0574	0.4
95.0493	0.3
95.0856	0.3
96.0526	0.4
97.0286	0.4
97.0649	0.7
98.0601	0.9
99.0079	0.4
99.0442	0.4
100.0505	0.4
100.0757	1.4
102.0663	0.6
111.0552	0.5
111.0806	0.2
112.0757	7.7
112.1121	1.0
113.0598	0.6
113.0790	0.4
114.0662	53.3
114.0745	0.4
114.0914	0.3
114.1277	3.5
115.0543	0.4
115.0634	0.6
115.0695	2.2
116.0342	0.3
116.0706	0.3
117.0573	1.7
117.0698	1.3
118.0651	0.8
118.0862	0.3
126.0297	0.5
128.0818	4.2
129.0697	0.4
129.0770	1.0
129.0848	0.6
130.0650	2.7
131.0491	0.5
131.0683	0.3
131.0854	1.4
132.0805	0.3
139.0751	0.4
140.0704	0.9
140.1068	0.4
141.0696	1.1
142.0860	0.3
143.0728	23.4
144.0761	2.5
156.0759	1.2
156.0811	0.9
156.1018	0.8
156.1575	0.3
157.0719	10.9
157.0851	0.5
157.0889	1.2
157.1698	4.9
158.0311	0.2
158.0556	0.4
158.0752	0.6
158.0818	4.3
158.0913	2.1
158.0962	100.0
158.1070	0.6
158.1098	0.7
158.1172	1.7
158.1537	0.3
158.1607	0.3
158.1730	0.5
159.0850	0.2
159.0928	0.7
159.0995	11.4
159.1158	0.3
160.0754	0.6
160.0965	1.1
160.1029	0.4
160.1330	1.7

Name: 2,6-Lutidine
PrecursorMZ: 108.0808
RT: 14.4025
ExactMass: 107.073499291
Spectrum_type: 2
charge: 1
Formula: C7H9N
SMILES: CC1=NC(=CC=C1)C
Method: HCD
Collision_energy: [28.333334]
Isolation_window: 4.0
Ion_mode: P
Num Peaks: 9
67.0545	2.3
69.6969	1.5
80.0496	9.1
92.0495	1.3
107.0728	4.1
108.0807	100.0
109.0759	2.1
109.0840	7.3
110.0599	2.1

Name: 2,6-Piperidinedicarboxylic acid
PrecursorMZ: 174.07572
RT: 7.3396
ExactMass: 173.06880783
Spectrum_type: 2
charge: 1
Formula: C7H11NO4
SMILES: C1CC(NC(C1)C(=O)O)C(=O)O
Method: HCD
Collision_energy: [28.333334]
Isolation_window: 4.0
Ion_mode: P
Num Peaks: 29
70.0654	1.3
81.0449	0.9
82.0652	11.0
84.0446	1.4
87.0441	6.2
90.0550	1.9
95.0604	4.8
98.9842	5.0
100.0756	1.2
102.0549	3.5
109.0759	2.5
109.1010	1.3
112.0756	10.4
114.0548	8.3
116.0704	1.9
125.0707	1.2
128.0703	100.0
129.0736	7.6
130.0859	3.7
137.0706	5.3
154.0608	1.0
155.0812	4.6
172.0711	2.2
173.0916	11.5
174.0547	1.5
174.0756	9.4
174.1120	0.8
175.0789	0.9
176.0913	4.1

Name: 2,8-Phenazinediamine
PrecursorMZ: 211.09761
RT: 1.5172
Spectrum_type: 2
charge: 1
SMILES: c1cc2c(cc1N)nc3cc(ccc3n2)N
Method: HCD
Collision_energy: [28.333334]
Isolation_window: 4.0
Ion_mode: P
Num Peaks: 9
152.0705	11.3
157.0757	2.2
166.0861	2.0
184.0867	8.5
185.0709	2.5
194.0810	16.4
210.1119	2.4
211.0975	100.0
212.1011	11.9

Name: 2-(((4R)-4-((3R,5R,8R,9S,10S,13R,14S,17R)-3-hydroxy-10,13-dimethyl-2,3,4,5,6,7,8,9,11,12,14,15,16,17-tetradecahydro-1H-cyclopenta(a)phenanthren-17-yl)pentanoyl)amino)acetic acid
PrecursorMZ: 416.31565
RT: 1.2357
ExactMass: 433.31920885
Spectrum_type: 2
charge: 1
Formula: C26H43NO4
SMILES: CC(CCC(=O)NCC(=O)O)C1CCC2C1(CCC3C2CCC4C3(CCC(C4)O)C)C
Method: HCD
Collision_energy: [28.333334]
Isolation_window: 4.0
Ion_mode: P
Num Peaks: 86
58.0656	3.8
67.0546	2.1
69.0702	1.7
70.0655	1.6
76.0397	44.3
81.0702	8.1
83.0858	1.8
85.0651	6.2
88.0760	1.8
89.0600	6.7
93.0701	2.8
95.0857	7.5
97.3988	1.2
105.0701	2.5
107.0857	7.6
109.1013	7.2
112.8958	1.9
114.0915	1.6
118.0863	1.4
119.0856	2.9
121.1012	8.5
123.1169	2.9
124.1121	1.3
126.1277	2.6
131.0854	1.5
132.1020	1.0
133.0859	3.7
133.1012	5.6
135.1168	13.0
139.9146	1.6
145.1012	3.8
147.1168	7.2
149.1325	9.9
151.1118	2.2
158.0812	5.4
159.1169	6.0
161.1325	12.6
163.1117	2.1
163.1481	5.9
172.0968	2.1
173.1325	3.4
175.1480	3.6
177.1122	1.3
177.1273	5.6
177.1636	1.9
187.1480	4.6
189.1636	4.0
191.1429	3.6
199.1482	2.2
201.1637	4.1
203.1793	3.4
205.1585	1.9
213.1637	5.8
215.1793	3.7
217.1951	3.2
226.1434	2.5
227.1793	4.3
229.1950	2.1
231.1742	1.9
240.1590	2.0
241.1947	2.8
243.2108	1.3
245.1902	1.3
252.1589	1.7
255.2105	6.7
273.2210	7.3
280.1905	0.9
294.2062	1.7
320.2221	1.4
323.2730	20.9
324.2764	5.7
341.2836	22.5
342.2869	5.9
352.3206	2.7
398.3413	7.1
399.3455	2.6
416.2251	8.5
416.2925	1.5
416.3159	80.9
416.3521	100.0
417.2274	3.4
417.2378	6.8
417.3192	22.4
417.3555	28.5
418.3231	2.3
418.3574	3.1

Name: 2-(((4R)-4-((3R,7R,8R,9S,10S,12S,13R,14S,17R)-3,7,12-trihydroxy-10,13-dimethyl-2,3,4,5,6,7,8,9,11,12,14,15,16,17-tetradecahydro-1H-cyclopenta(a)phenanthren-17-yl)pentanoyl)amino)acetic acid
PrecursorMZ: 466.31611
RT: 5.8773
ExactMass: 465.30903809
Spectrum_type: 2
charge: 1
Formula: C26H43NO6
SMILES: C[C@H](CCC(=O)NCC(=O)O)[C@H]1CC[C@@H]2[C@@]1([C@H](C[C@H]3[C@H]2[C@@H](CC4[C@@]3(CC[C@H](C4)O)C)O)O)C
Method: HCD
Collision_energy: [28.333334]
Isolation_window: 4.0
Ion_mode: P
Num Peaks: 82
67.0546	5.3
69.0704	4.8
73.0288	9.5
76.0397	26.4
79.0545	4.4
80.0548	4.8
81.0702	10.3
85.0651	6.0
87.0444	9.2
89.0600	50.7
93.0702	5.1
95.0857	11.0
97.3987	4.3
99.0807	4.1
102.0678	5.7
105.0701	7.1
107.0857	8.6
109.1014	6.4
117.0701	4.0
119.0856	7.1
121.1013	6.8
131.0856	6.0
133.0859	31.5
133.1011	11.0
135.1170	5.8
143.0856	4.0
145.1011	7.8
147.1169	6.5
149.0962	4.0
157.1015	4.8
158.0812	14.3
159.1169	8.6
161.1327	5.1
169.1013	4.5
171.1169	5.7
173.1326	4.2
177.1122	10.7
183.1166	4.6
185.1324	5.5
197.1326	5.0
199.1251	5.5
199.1481	10.1
209.1325	21.7
211.1481	6.4
213.1637	13.5
221.1381	7.5
223.1483	4.4
225.1637	6.7
227.1430	14.9
227.1794	8.5
241.1587	4.0
241.1946	4.6
243.1740	4.4
295.2412	4.6
319.2416	24.9
320.2455	6.4
337.2524	44.0
338.2557	11.6
343.1652	14.1
344.1737	6.7
355.2629	4.2
406.1774	4.1
412.2844	100.0
413.2881	27.1
430.2950	49.6
431.2994	13.1
447.2734	4.5
448.3054	10.3
449.1683	3.9
449.2888	4.0
450.2746	6.7
458.7873	5.9
465.2239	4.3
465.2828	5.4
466.1958	32.6
466.2313	5.4
466.3158	6.6
467.2037	10.1
467.2371	5.0
467.3194	4.1
468.2126	5.7
468.2495	11.6

Name: 2-(((6-Carboxyhexanamido)imino)methyl)benzoic acid
PrecursorMZ: 289.11794
RT: 5.2855
ExactMass: 306.12157168
Spectrum_type: 2
charge: 1
Formula: C15H18N2O5
SMILES: C1=CC=C(C(=C1)/C=N/NC(=O)CCCCCC(=O)O)C(=O)O
Method: HCD
Collision_energy: [28.333334]
Isolation_window: 4.0
Ion_mode: P
Num Peaks: 67
62.0604	3.4
67.0545	3.3
70.0653	2.2
71.0493	2.8
72.0811	16.7
74.0602	3.9
79.0543	2.3
81.0339	2.8
81.0701	3.7
86.0602	3.8
86.0967	11.8
93.0699	2.7
95.0855	2.4
101.0708	2.4
107.0494	16.4
107.0607	11.5
107.0853	2.5
109.0648	2.2
111.0441	2.9
114.0912	2.1
118.0861	2.2
119.0603	4.6
121.0759	4.0
123.0438	4.5
123.0802	2.5
126.0548	2.3
129.0657	3.1
129.1021	3.9
131.0812	2.9
132.1015	3.7
139.0750	2.1
143.1176	16.6
145.0964	3.2
147.0437	3.4
147.0553	3.0
159.0760	4.1
164.0704	4.8
165.0546	6.5
165.0655	17.3
166.0859	2.1
171.1120	7.4
171.1487	3.4
173.0911	2.9
173.1283	15.5
189.1226	3.3
201.1223	5.9
225.1018	18.4
226.1051	2.8
235.1322	3.0
236.1639	2.3
237.1476	2.6
252.1588	3.2
254.1744	7.3
270.1690	3.5
271.1070	100.0
272.1107	17.4
272.1596	2.4
272.1849	6.6
288.1068	3.3
288.1220	4.7
289.1173	52.3
289.1780	3.5
290.1011	4.5
290.1209	8.1
290.1376	3.8
290.2682	4.7
291.1957	2.8

Name: 2-(((E)-3-(4-hydroxyphenyl)prop-2-enoyl)amino)benzoic acid
PrecursorMZ: 284.08922
RT: 6.3134
ExactMass: 283.0844579
Spectrum_type: 2
charge: 1
Formula: C16H13NO4
SMILES: C1=CC=C(C(=C1)C(=O)O)NC(=O)/C=C/C2=CC=C(C=C2)O
Method: HCD
Collision_energy: [28.333334]
Isolation_window: 4.0
Ion_mode: P
Num Peaks: 9
160.9011	26.2
176.8751	22.3
283.1284	30.6
284.0886	100.0
284.1118	45.1
284.1480	23.3
284.3307	43.5
285.1220	29.2
285.1438	47.7

Name: 2-((1-(2-hydroxyethyl)-2-methyl-4-oxo-1,4-dihydropyridin-3-yl)oxy)-N-(5-methylpyridin-2-yl)acetamide
PrecursorMZ: 318.14416
RT: 5.0286
ExactMass: 317.1375561
Spectrum_type: 2
charge: 1
Formula: C16H19N3O4
SMILES: CC1=CN=C(C=C1)NC(=O)COC2=C(N(C=CC2=O)CCO)C
Method: HCD
Collision_energy: [28.333334]
Isolation_window: 4.0
Ion_mode: P
Num Peaks: 49
60.0447	54.3
67.0545	2.8
69.5312	2.1
81.0700	2.5
83.0857	2.5
93.0698	2.1
95.0854	3.6
110.0711	27.0
121.0645	44.9
122.0680	3.0
124.0756	2.4
126.0911	2.5
136.0753	2.1
138.0910	2.6
148.0753	12.8
151.0863	2.5
152.0814	21.7
156.0763	15.6
166.0858	20.1
180.0763	8.9
194.0807	7.6
198.0867	100.0
199.0902	7.5
214.1064	3.9
231.1486	3.4
258.1224	7.4
271.1067	2.2
272.1384	25.1
273.1418	3.4
273.1587	5.0
280.2629	2.4
282.2781	7.2
291.1689	3.8
298.2727	3.0
299.1372	2.5
300.1330	16.8
300.2884	6.6
301.1184	2.7
301.1364	2.4
301.1515	4.8
316.2832	13.4
317.1476	3.3
317.2871	4.9
318.1444	19.8
318.2991	29.4
319.1274	6.6
319.1466	3.1
319.1631	6.0
319.3022	6.6

Name: 2-((1-Methylethyl)phenylamino)-2-oxoacetic acid
PrecursorMZ: 208.09662
RT: 8.3757
ExactMass: 207.08954328
Spectrum_type: 2
charge: 1
Formula: C11H13NO3
SMILES: CC(C)N(C1=CC=CC=C1)C(=O)C(=O)O
Method: HCD
Collision_energy: [28.333334]
Isolation_window: 4.0
Ion_mode: P
Num Peaks: 18
96.0445	4.4
101.0597	6.1
109.0760	3.0
110.0600	7.9
120.0807	16.2
126.0912	7.7
144.1017	3.7
162.0912	3.7
165.0782	10.0
170.0921	2.5
206.1173	3.6
207.1123	8.1
208.0964	100.0
209.0916	3.6
209.1000	10.7
209.1281	14.8
210.0787	4.7
210.1120	30.8

Name: 2-((11aS)-5-(4-fluorophenyl)-1,3-dioxo-11,11a-dihydro-1H-imidazo(1',5':1,6)pyrido(3,4-b)indol-2(3H,5H,6H)-yl)-N-(6-methylheptan-2-yl)benzamide (M+H)+
PrecursorMZ: 567.28054
RT: 3.9184
ExactMass: 566.26931915
Spectrum_type: 2
charge: 1
Formula: C34H35FN4O3
SMILES: CC(C)CCCC(C)NC(=O)C1=CC=CC=C1N2C(=O)C3CC4=C(C(N3C2=O)C5=CC=C(C=C5)F)NC6=CC=CC=C46
Method: HCD
Collision_energy: [28.333334]
Isolation_window: 4.0
Ion_mode: P
Num Peaks: 30
57.0702	8.0
118.0651	17.9
120.0807	18.5
127.1116	15.9
136.0755	9.0
146.0599	100.0
147.0632	7.5
156.1381	10.6
165.0544	3.9
175.0864	9.0
177.1020	4.4
182.0808	8.1
184.1329	30.7
193.0970	3.7
203.0812	80.1
204.0846	7.6
219.0764	4.0
236.1066	14.0
239.1022	6.6
265.0853	9.6
282.1118	10.3
293.1275	4.9
303.2059	10.2
327.1332	8.0
329.1855	7.7
339.1334	4.3
384.1545	18.7
386.2066	9.1
567.2806	16.9
568.2838	5.7

Name: 2-((2-Hydroxy-3-methylbutanoyl)amino)-4-methylpentanoic acid
PrecursorMZ: 232.1541
RT: 6.4554
ExactMass: 231.14705815
Spectrum_type: 2
charge: 1
Formula: C11H21NO4
SMILES: CC(C)CC(C(=O)O)NC(=O)C(C(C)C)O
Method: HCD
Collision_energy: [28.333334]
Isolation_window: 4.0
Ion_mode: P
Num Peaks: 41
55.0546	8.6
83.0494	8.0
84.0446	6.9
84.0810	4.2
86.0602	4.1
86.0966	24.4
100.0758	8.9
101.0598	36.8
102.0550	4.4
108.0445	6.4
112.0757	24.8
114.0549	5.7
126.0548	6.9
127.0501	22.9
130.0497	6.0
132.1018	13.8
156.0653	11.6
158.0964	9.0
168.1019	5.0
168.1381	41.3
169.1413	4.4
174.0758	6.3
176.8748	4.5
186.1118	4.7
186.1486	96.9
187.1518	9.8
188.0915	4.8
214.1068	7.3
215.1021	10.1
216.0863	4.4
231.1131	6.4
231.1329	9.0
232.0819	5.0
232.0969	6.7
232.1178	14.1
232.1539	100.0
233.0912	5.0
233.1572	11.1
234.0771	5.0
234.0868	7.4
234.0971	16.5

Name: 2-((2-Oxo-4-hydroquinolyl)methyl)-4,7,3a,7a-tetrahydroisoindole-1,3-dione
PrecursorMZ: 309.12243
RT: 2.0833
ExactMass: 308.11609238
Spectrum_type: 2
charge: 1
Formula: C18H16N2O3
SMILES: C1C=CCC2C1C(=O)N(C2=O)CC3=CC(=O)NC4=CC=CC=C43
Method: HCD
Collision_energy: [28.333334]
Isolation_window: 4.0
Ion_mode: P
Num Peaks: 87
67.0544	0.3
69.0701	0.2
70.0653	0.2
79.0543	0.2
81.0336	0.2
81.0700	0.7
83.0856	0.2
91.0544	0.2
93.0698	0.3
95.0491	0.2
95.0854	0.2
97.0647	0.2
97.1012	0.2
99.0803	0.3
100.1120	1.2
105.0697	0.2
107.0730	0.1
107.0854	0.3
109.0646	0.5
109.1010	0.2
111.0804	0.1
114.1276	0.4
119.0854	0.2
120.0442	0.2
121.1009	0.3
123.0801	0.2
125.0957	0.2
127.0752	0.1
131.0725	0.5
132.0441	0.4
132.0803	0.7
133.1009	0.1
135.0802	0.1
135.1165	0.2
148.0751	0.2
149.0958	0.1
150.0911	0.2
151.0750	0.1
159.0916	0.2
160.0753	1.1
163.1115	0.1
221.1059	0.5
222.1145	2.7
223.1174	0.4
232.0987	0.4
233.1078	0.2
235.0858	0.7
235.1219	0.6
236.0940	0.7
237.1017	0.6
237.1378	0.3
245.1066	0.7
246.0909	0.2
246.1142	1.9
247.1224	1.1
248.0936	0.7
248.1260	0.2
249.1014	5.0
250.1087	1.8
251.0802	0.2
251.1131	0.3
262.1089	0.4
263.1169	4.0
264.1207	0.7
267.1122	0.2
273.1831	0.3
275.1997	0.1
281.1276	0.5
291.1116	1.6
291.1943	0.5
292.1155	0.3
308.1117	0.4
308.1454	0.2
308.9426	0.2
309.0739	0.3
309.0853	0.7
309.0929	0.6
309.1222	100.0
309.1513	0.3
309.1598	0.6
309.1712	0.1
309.1807	0.4
309.2041	0.4
309.2916	0.1
310.1255	19.5
311.1012	0.5
311.1282	1.6

Name: 2-((2E)-2-((3-ethoxy-4-propan-2-yloxyphenyl)methylidene)hydrazinyl)benzoic acid
PrecursorMZ: 343.16552
RT: 7.8734
ExactMass: 342.15795719
Spectrum_type: 2
charge: 1
Formula: C19H22N2O4
SMILES: CCOC1=C(C=CC(=C1)/C=N/NC2=CC=CC=C2C(=O)O)OC(C)C
Method: HCD
Collision_energy: [28.333334]
Isolation_window: 4.0
Ion_mode: P
Num Peaks: 40
55.0547	2.3
70.0655	1.8
83.0494	1.6
96.0810	1.7
101.0599	8.5
114.0916	2.4
118.0864	5.0
120.0809	3.1
134.0963	4.6
135.1043	1.6
150.0912	3.2
152.0706	9.9
162.0915	1.1
179.1180	1.4
180.1018	18.4
181.1051	1.5
209.1649	1.8
210.1684	2.7
221.0920	1.2
224.0917	2.0
226.1070	1.9
242.1020	6.6
252.1228	24.1
253.1265	3.3
297.1594	7.7
299.1747	2.2
323.2520	5.4
324.2555	1.2
341.1522	1.3
341.2626	9.5
342.1543	100.0
342.2648	2.0
343.1288	2.3
343.1649	81.4
344.1317	2.0
344.1500	2.9
344.1678	19.0
344.1960	3.3
345.1433	4.3
345.1771	2.9

Name: 2-((3S)-3-hydroxy-4a,8-dimethyl-2,3,4,5,6,7-hexahydro-1H-naphthalen-2-yl)prop-2-enoic acid
PrecursorMZ: 251.1641
RT: 1.3868
ExactMass: 250.15689456
Spectrum_type: 2
charge: 1
Formula: C15H22O3
SMILES: CC1=C2CC([C@H](CC2(CCC1)C)O)C(=C)C(=O)O
Method: HCD
Collision_energy: [28.333334]
Isolation_window: 4.0
Ion_mode: P
Num Peaks: 46
55.0546	13.6
59.0495	19.3
67.0546	24.8
69.0702	15.0
79.0545	15.7
81.0338	64.8
81.0701	41.7
89.0599	56.7
91.0544	20.0
93.0700	29.6
95.0493	51.0
95.0857	25.1
98.9843	16.4
105.0699	21.2
107.0855	18.3
109.0649	16.3
109.1012	11.3
119.0856	28.7
121.0647	27.4
121.1012	21.8
123.0804	13.0
123.1167	11.2
131.0854	38.5
133.0858	13.8
133.1009	14.9
135.0803	11.9
136.0755	20.8
145.1010	17.7
147.1167	24.6
187.1478	28.1
197.1325	12.5
206.0806	14.1
206.1173	11.4
215.1423	13.9
232.0968	14.5
233.1533	44.7
234.0758	46.5
234.1121	21.6
250.0711	12.9
250.1069	74.3
250.1183	14.8
251.1009	36.5
251.1637	42.5
252.0861	100.0
252.1226	82.1
252.1572	12.3

Name: 2-((3S,3aR,5R,7aS)-3a-acetyl-3-hydroxy-7a-methyl-2,3,4,5,6,7-hexahydro-1H-inden-5-yl)prop-2-enoic acid
PrecursorMZ: 284.18504
RT: 0.8597
ExactMass: 266.15180918
Spectrum_type: 2
charge: 1
Formula: C15H22O4
SMILES: CC(=O)[C@]12C[C@@H](CC[C@]1(CC[C@@H]2O)C)C(=C)C(=O)O
Method: HCD
Collision_energy: [28.333334]
Isolation_window: 4.0
Ion_mode: P
Num Peaks: 8
157.1009	100.0
158.1041	11.8
175.1113	32.8
185.1319	35.2
203.1426	5.9
231.1374	16.1
249.1478	9.6
267.1577	7.3

Name: 2-((4-((2-Amino-4-Oxo-1H-Pteridin-6-Yl)Methylamino)Benzoyl)Amino)Pentanedioic Acid
PrecursorMZ: 464.1296
RT: 9.424
ExactMass: 441.13968135
Spectrum_type: 2
charge: 1
Formula: C19H19N7O6
SMILES: C1=CC(=CC=C1C(=O)NC(CCC(=O)O)C(=O)O)NCC2=CN=C3C(=N2)C(=O)NC(=N3)N
Method: HCD
Collision_energy: [28.333334]
Isolation_window: 4.0
Ion_mode: P
Num Peaks: 28
51.5702	5.5
98.9843	14.7
132.0765	6.3
136.9998	4.5
152.0341	12.8
155.0102	50.1
172.0713	7.5
198.9849	11.1
204.0763	6.9
211.0362	6.4
216.9659	8.7
222.0871	5.1
229.0468	8.3
234.9763	17.9
266.0761	10.9
283.0061	6.5
291.0025	17.3
309.0129	11.4
340.1289	5.0
343.0265	14.4
356.1232	4.2
370.9680	7.2
384.1177	6.6
428.1080	4.7
445.0052	5.5
446.1184	7.9
464.1290	100.0
465.1321	22.8

Name: 2-((4-amino-5-(4-chlorophenyl)-4H-1,2,4-triazol-3-yl)sulfanyl)-N,N-dicyclohexylacetamide
PrecursorMZ: 448.19254
RT: 8.8938
ExactMass: 447.1859595
Spectrum_type: 2
charge: 1
Formula: C22H30ClN5OS
SMILES: C1CCC(CC1)N(C2CCCCC2)C(=O)CSC3=NN=C(N3N)C4=CC=C(C=C4)Cl
Method: HCD
Collision_energy: [28.333334]
Isolation_window: 4.0
Ion_mode: P
Num Peaks: 17
70.0655	10.1
84.0812	11.4
114.0553	12.1
128.0708	5.6
142.0864	8.6
185.0918	4.2
198.1237	8.1
242.1500	6.9
263.1240	4.2
358.1612	5.6
376.2085	5.4
404.2114	4.1
430.1815	7.2
447.1803	4.6
447.2187	7.8
448.1924	100.0
449.1954	20.5

Name: 2-((5-hydroxy-5-(hydroxymethyl)-2-methoxy-3-(((E)-prop-1-enyl)amino)cyclohex-2-en-1-ylidene)amino)acetic acid
PrecursorMZ: 285.14401
RT: 7.0607
ExactMass: 284.13722174
Spectrum_type: 2
charge: 1
Formula: C13H20N2O5
SMILES: C/C=C/NC1=C(C(=NCC(=O)O)CC(C1)(CO)O)OC
Method: HCD
Collision_energy: [28.333334]
Isolation_window: 4.0
Ion_mode: P
Num Peaks: 24
59.0608	1.5
70.0655	1.8
84.0810	1.9
114.0914	4.0
116.0706	1.1
137.0456	1.1
195.1129	1.5
197.0919	23.2
198.0953	2.5
226.1310	11.8
227.1344	1.1
239.1020	2.2
241.0816	13.7
242.0852	1.3
269.1127	1.3
270.1207	12.9
271.1243	1.6
284.0735	1.1
284.1243	2.1
285.1108	3.1
285.1440	100.0
286.1479	13.1
287.1024	2.4
287.1232	3.8

Name: 2-((6-Methyl-2-morpholin-4-ylpyrimidin-4-yl)amino)benzoic acid
PrecursorMZ: 315.14474
RT: 5.1656
ExactMass: 314.13789045
Spectrum_type: 2
charge: 1
Formula: C16H18N4O3
SMILES: CC1=CC(=NC(=N1)N2CCOCC2)NC3=CC=CC=C3C(=O)O
Method: HCD
Collision_energy: [28.333334]
Isolation_window: 4.0
Ion_mode: P
Num Peaks: 25
70.0655	11.3
81.0339	7.5
85.0286	13.9
86.0966	6.2
116.0705	8.5
122.0711	14.5
150.0912	6.9
172.0866	79.2
173.0901	10.8
174.1024	6.2
218.0917	11.1
251.0955	10.5
267.1336	9.2
269.1391	8.1
299.1238	10.4
314.0994	7.5
314.1363	12.9
314.2313	7.9
314.3409	22.6
315.1117	11.2
315.1449	100.0
316.1160	10.5
316.1515	17.0
317.1112	9.0
317.1480	9.1

Name: 2-((6-amino-7H-purin-8-yl)sulfanyl)-N-(4-methylphenyl)acetamide
PrecursorMZ: 337.08475
RT: 5.1079
ExactMass: 314.09498026
Spectrum_type: 2
charge: 1
Formula: C14H14N6OS
SMILES: CC1=CC=C(C=C1)NC(=O)CSC2=NC3=NC=NC(=C3N2)N
Method: HCD
Collision_energy: [28.333334]
Isolation_window: 4.0
Ion_mode: P
Num Peaks: 22
57.0702	3.9
69.0702	5.0
71.0858	3.2
72.0810	3.7
81.0701	3.3
83.0857	6.8
95.0856	3.5
97.1013	4.2
141.0653	3.1
242.1045	2.8
256.1201	24.2
257.1278	100.0
258.1314	15.2
321.3145	3.3
336.1431	4.3
337.0845	35.9
337.1139	4.1
337.1380	4.1
337.3560	3.3
338.0870	6.2
338.3409	20.2
339.1546	2.9

Name: 2-((Hydroxy((2R)-2-hydroxy-3-((1-oxotetracosyl)oxy)propoxy)phosphinyl)oxy)-N,N,N-trimethylethanaminium inner salt
PrecursorMZ: 608.46445
RT: 4.7977
ExactMass: 607.45769044
Spectrum_type: 2
charge: 1
Formula: C32H66NO7P
SMILES: CCCCCCCCCCCCCCCCCCCCCCCC(=O)OC[C@H](COP(=O)([O-])OCC[N+](C)(C)C)O
Method: HCD
Collision_energy: [28.333334]
Isolation_window: 4.0
Ion_mode: P
Num Peaks: 18
60.0812	4.2
67.6075	1.9
70.0654	2.1
86.0966	16.7
97.4577	2.4
104.1070	65.9
105.1104	3.2
115.0866	4.8
124.9997	7.0
176.8751	1.6
184.0730	100.0
185.0764	4.5
590.4534	4.5
608.4622	39.2
608.5014	3.6
609.4655	10.1
609.5060	1.3
610.4680	1.4

Name: 2-(1-(2-Methyl-6-(trifluoromethyl)pyrimidin-4-yl)piperidin-3-yl)-1,3-benzoxazole
PrecursorMZ: 363.14248
RT: 2.8286
ExactMass: 362.13544566
Spectrum_type: 2
charge: 1
Formula: C18H17F3N4O
SMILES: CC1=NC(=CC(=N1)N2CCCC(C2)C3=NC4=CC=CC=C4O3)C(F)(F)F
Method: HCD
Collision_energy: [28.333334]
Isolation_window: 4.0
Ion_mode: P
Num Peaks: 4
120.0808	32.6
362.1729	28.2
363.1415	100.0
365.1558	55.1

Name: 2-(1-(5,6-Dimethyl-(1,2,4)triazolo(1,5-a)pyrimidin-7-yl)azetidin-3-yl)-6-(pyridin-4-yl)-2,3-dihydropyridazin-3-one
PrecursorMZ: 375.16785
RT: 3.0217
ExactMass: 374.16035723
Spectrum_type: 2
charge: 1
Formula: C19H18N8O
SMILES: CC1=C(N2C(=NC=N2)N=C1C)N3CC(C3)N4C(=O)C=CC(=N4)C5=CC=NC=C5
Method: HCD
Collision_energy: [28.333334]
Isolation_window: 4.0
Ion_mode: P
Num Peaks: 3
81.0703	38.5
375.1682	100.0
376.1991	57.9

Name: 2-(1-Carboxyethylamino)-3-phenylpropanoic acid
PrecursorMZ: 238.10714
RT: 1.5237
ExactMass: 237.10010796
Spectrum_type: 2
charge: 1
Formula: C12H15NO4
SMILES: CC(C(=O)O)NC(CC1=CC=CC=C1)C(=O)O
Method: HCD
Collision_energy: [28.333334]
Isolation_window: 4.0
Ion_mode: P
Num Peaks: 136
67.0545	1.8
68.0498	2.9
69.8509	1.7
70.0654	9.1
74.0603	2.5
79.0544	1.9
80.0497	3.1
81.0338	2.4
81.0702	2.7
84.0446	8.4
86.0238	4.9
89.0599	9.2
90.0550	1.8
91.0544	2.5
93.0701	2.4
94.0289	2.0
94.0651	1.8
95.0856	2.4
96.0445	3.6
97.0649	1.7
102.0550	13.3
103.0542	2.5
105.0699	11.3
107.0492	5.2
108.0444	2.5
109.0648	1.6
114.0550	17.9
116.0707	1.7
117.0698	2.0
118.0499	3.2
118.0650	1.5
119.0729	2.6
119.0854	1.9
120.0807	16.2
121.0648	4.9
121.1011	1.7
123.0803	1.8
124.0393	1.7
125.0233	10.7
126.0549	2.0
128.0705	16.4
130.0499	2.8
131.0491	3.7
131.0853	2.2
132.0806	3.1
133.0857	4.2
134.0599	3.1
135.0803	4.8
136.0755	4.6
138.0547	3.1
142.0497	38.4
143.0530	2.4
145.1009	2.3
146.0446	19.1
146.0962	40.6
147.0803	1.7
147.0995	4.7
148.0756	3.1
149.0265	6.5
149.0595	2.6
150.0547	2.1
151.0501	1.8
151.0751	1.9
152.0705	2.7
154.0500	2.0
159.1168	1.8
163.0863	4.9
163.1118	2.1
164.0705	9.4
164.1069	3.4
165.0543	2.0
165.0657	1.9
165.0907	1.9
165.1021	2.4
166.0861	8.4
168.0652	2.1
170.0448	4.7
173.1323	2.2
174.0759	3.9
174.0911	1.7
175.0753	1.9
175.0860	2.8
176.0704	3.3
177.0656	34.1
177.0907	1.7
178.0499	1.8
178.0860	5.8
179.0697	1.8
180.0653	1.6
182.0809	1.7
190.0859	2.1
191.0701	1.7
191.0812	10.5
191.1063	3.4
191.1426	1.6
192.0652	17.9
192.1016	100.0
192.1088	2.3
193.0686	2.1
193.0859	3.4
193.0968	9.4
193.1051	11.1
194.0809	14.8
194.1173	1.9
201.1272	1.8
203.0810	1.9
209.0917	3.9
212.1027	2.8
219.0650	2.0
219.0760	7.3
219.1013	2.1
219.1376	2.6
220.0599	3.8
220.0965	17.1
221.0805	3.6
221.0916	8.1
222.0757	10.3
222.1119	2.7
223.0709	6.4
236.0915	11.2
236.1025	1.6
237.0860	21.0
237.0953	5.7
237.1218	5.2
238.0710	14.2
238.0970	1.7
238.1070	55.9
238.1175	2.5
238.1433	1.6
239.0911	1.9
239.1018	13.6
239.1107	3.3
239.1387	2.1
240.0863	11.0
240.0979	2.0
240.1227	6.1

Name: 2-(1-hydroxy-1-methoxy-3-methylbutyl)-6-methyl-5H-(1,3)dioxolo(4,5-c)pyridin-4-one
PrecursorMZ: 270.13313
RT: 4.6081
ExactMass: 269.12632271
Spectrum_type: 2
charge: 1
Formula: C13H19NO5
SMILES: CC1=CC2=C(C(=O)N1)OC(O2)C(CC(C)C)(O)OC
Method: HCD
Collision_energy: [28.333334]
Isolation_window: 4.0
Ion_mode: P
Num Peaks: 8
152.0231	15.5
196.0966	89.8
237.0981	28.0
238.1072	100.0
269.1258	12.9
270.0312	13.9
270.1332	61.2
272.0486	22.1

Name: 2-(1-hydroxyethyl)-4-(2-hydroxypropyl)-2H-furan-5-one
PrecursorMZ: 204.12288
RT: 1.5896
ExactMass: 186.08920892
Spectrum_type: 2
charge: 1
Formula: C9H14O4
SMILES: CC(CC1=CC(OC1=O)C(C)O)O
Method: HCD
Collision_energy: [28.333334]
Isolation_window: 4.0
Ion_mode: P
Num Peaks: 80
55.0546	1.9
56.0498	1.3
58.0655	1.9
69.0701	2.7
71.0494	1.3
71.0858	3.4
72.0810	1.9
81.0701	2.2
82.0653	1.4
83.0857	4.2
84.0446	2.5
85.0649	1.4
86.0966	11.5
95.0856	3.0
96.0445	3.5
96.0808	4.6
97.0648	3.7
97.4557	1.7
98.0601	6.0
98.0965	1.4
99.0441	1.6
99.0679	8.2
102.0550	1.6
110.0600	11.8
110.0964	33.6
111.0998	2.9
112.0756	3.7
114.0914	2.7
121.0647	4.7
124.0756	1.8
125.0834	5.3
126.0548	3.8
126.0912	14.4
127.0626	9.7
127.0945	1.4
127.0990	7.3
128.0705	1.4
138.0911	100.0
139.0944	8.7
140.1068	12.6
141.0907	1.4
141.1101	1.3
142.0861	5.7
142.1222	1.5
144.0652	1.7
144.1018	1.6
154.0861	2.4
155.0939	11.6
160.0754	1.6
170.1173	81.4
171.1206	7.3
172.0965	8.4
173.0707	2.4
175.0862	1.5
176.0702	2.0
177.1021	2.2
184.0964	2.0
185.0918	2.6
186.0910	1.8
186.1022	2.1
186.1123	1.4
187.0835	3.9
202.1068	4.1
202.1218	1.7
203.0811	3.7
203.1097	1.9
203.1175	57.9
203.1431	1.5
204.0652	4.0
204.1017	5.8
204.1224	12.1
204.1378	1.3
205.0603	3.6
205.0967	9.7
205.1224	2.7
205.1256	1.3
205.1332	5.4
206.0111	1.5
206.0810	2.3
206.1171	5.0

Name: 2-(14-Methylpentadecanoylamino)-3-phenylpropanoic acid
PrecursorMZ: 404.31534
RT: 1.092
ExactMass: 403.30864417
Spectrum_type: 2
charge: 1
Formula: C25H41NO3
SMILES: CC(C)CCCCCCCCCCCCC(=O)NC(CC1=CC=CC=C1)C(=O)O
Method: HCD
Collision_energy: [28.333334]
Isolation_window: 4.0
Ion_mode: P
Num Peaks: 5
120.0808	100.0
121.0842	8.0
166.0863	84.9
167.0896	5.6
404.3145	9.5

Name: 2-(2-((2-(3,4-Dimethoxyphenyl)ethyl)methylamino)ethyl)benzo(c)azoline-1,3-dion e
PrecursorMZ: 391.16282
RT: 1.3867
ExactMass: 368.17360725
Spectrum_type: 2
charge: 1
Formula: C21H24N2O4
SMILES: CN(CCC1=CC(=C(C=C1)OC)OC)CCN2C(=O)C3=CC=CC=C3C2=O
Method: HCD
Collision_energy: [28.333334]
Isolation_window: 4.0
Ion_mode: P
Num Peaks: 5
208.0969	1.4
209.1001	1.4
391.1629	100.0
392.1662	19.7
393.1627	6.0

Name: 2-(2-((2-Acetamido-4-methylpentanoyl)amino)propanoylamino)-3-hydroxypropanoic acid
PrecursorMZ: 332.1811
RT: 6.5851
ExactMass: 331.17433553
Spectrum_type: 2
charge: 1
Formula: C14H25N3O6
SMILES: CC(C)CC(C(=O)NC(C)C(=O)NC(CO)C(=O)O)NC(=O)C
Method: HCD
Collision_energy: [28.333334]
Isolation_window: 4.0
Ion_mode: P
Num Peaks: 172
60.0448	3.3
69.6326	2.8
69.8375	2.6
70.0654	13.0
72.0811	42.6
74.0603	3.7
76.0396	6.4
81.0337	4.5
84.0446	30.6
84.0810	13.3
85.0286	7.2
86.0966	100.0
87.0999	4.4
88.0395	6.6
90.0551	53.6
91.0544	3.0
96.0445	13.3
97.0285	20.6
98.0601	3.3
98.0965	7.7
100.1121	10.6
101.0709	3.0
102.0550	31.9
110.0601	3.9
112.1121	2.8
116.0706	10.3
118.0862	6.7
120.0807	3.4
121.0647	8.6
124.0756	3.5
126.0550	4.9
127.0864	7.5
128.0704	5.7
129.0657	8.8
130.0497	13.3
130.0861	5.5
132.1017	29.7
133.1052	2.5
136.0391	3.1
136.0754	2.5
138.0549	2.9
138.0913	2.9
140.0703	4.0
141.0656	8.8
142.0860	8.3
144.0652	2.8
144.1019	4.3
147.0761	5.8
147.1126	10.3
148.0602	11.9
152.0704	7.8
154.0497	4.3
154.0862	3.1
155.0813	16.1
156.0653	4.2
156.1018	5.9
156.1383	2.8
157.1334	24.3
158.1174	6.7
158.1538	5.2
162.0548	2.3
162.0911	2.6
164.0705	2.8
166.0861	2.6
169.0969	4.9
170.0809	3.6
170.1173	5.3
171.1490	9.8
172.0966	5.4
173.0918	26.2
173.1283	12.1
174.0953	2.4
174.1121	12.3
180.1016	3.1
182.0812	2.9
183.0762	4.2
185.0916	4.7
185.1281	14.2
186.1123	4.5
187.0710	39.2
187.1074	62.8
188.0741	2.5
188.1110	6.2
188.1278	8.4
189.0868	2.8
192.0651	9.5
194.0812	4.3
197.0553	3.9
197.0913	3.6
197.1281	52.1
198.1316	4.4
199.0711	2.2
199.1073	3.4
199.1438	10.2
201.0866	32.4
201.1230	8.4
202.0901	2.4
203.1386	6.6
208.0968	3.1
209.1043	8.6
210.1121	2.8
211.1073	14.2
213.0867	3.3
213.1228	4.9
215.1022	30.6
215.1386	42.0
216.1047	2.8
216.1421	5.2
217.0814	5.0
219.0973	6.3
223.1432	2.7
225.1229	23.0
226.1265	2.7
229.1180	2.7
231.1130	2.8
233.1131	4.0
241.1176	3.5
243.1334	22.7
258.0753	3.6
258.1087	3.3
262.1393	4.5
265.0814	15.3
268.1645	3.0
269.1128	20.8
269.1492	6.2
271.0962	3.0
271.1430	2.8
273.0990	8.9
273.1227	3.7
277.0814	5.0
283.0914	5.5
287.1232	8.2
287.1385	3.4
294.2144	4.4
295.0915	9.0
296.1597	2.7
297.1226	4.4
302.1493	13.4
303.0482	3.3
313.1023	7.2
313.1176	4.6
314.0802	5.9
314.1019	5.1
314.1380	3.2
314.1704	17.1
315.1332	6.2
315.1543	3.2
315.1733	2.5
330.1663	4.1
330.2277	3.2
331.0791	4.5
331.0962	2.8
331.1121	4.1
331.1286	35.6
331.1490	7.5
331.1654	19.5
331.1859	7.9
331.2004	3.4
331.2234	3.5
332.1119	46.8
332.1304	8.4
332.1471	8.4
332.1809	27.2
332.3301	4.0
333.0580	3.7
333.1133	9.8
333.1438	24.2
333.1639	3.2
333.1810	13.8
333.2020	10.9
334.1255	11.7
334.1436	4.3

Name: 2-(2-(2-(Dodecyloxy)ethoxy)ethoxy)ethanol
PrecursorMZ: 319.28402
RT: 0.79018
ExactMass: 318.27700969
Spectrum_type: 2
charge: 1
Formula: C18H38O4
SMILES: CCCCCCCCCCCCOCCOCCOCCO
Method: HCD
Collision_energy: [28.333334]
Isolation_window: 4.0
Ion_mode: P
Num Peaks: 14
57.0703	29.1
71.0859	29.4
72.0892	1.9
73.0651	2.5
85.1015	18.2
89.0600	100.0
90.0633	2.4
97.4003	2.1
107.0704	7.4
133.0859	20.8
151.0965	52.3
152.0997	3.8
319.2839	7.9
320.2871	2.3

Name: 2-(2-(3,5-dimethyl-1H-pyrazol-1-yl)-4-ethyl-6-oxopyrimidin-1(6H)-yl)-N-(2-methoxyethyl)acetamide
PrecursorMZ: 356.16997
RT: 4.6
ExactMass: 333.18008961
Spectrum_type: 2
charge: 1
Formula: C16H23N5O3
SMILES: CCC1=CC(=O)N(C(=N1)N2C(=CC(=N2)C)C)CC(=O)NCCOC
Method: HCD
Collision_energy: [28.333334]
Isolation_window: 4.0
Ion_mode: P
Num Peaks: 87
55.0547	1.8
59.0495	0.9
70.0656	6.5
72.0810	1.0
81.0337	1.3
83.0495	2.4
84.0811	2.6
87.0444	2.2
95.0607	1.1
99.0442	0.9
100.0760	3.6
101.0600	13.6
102.0549	1.3
108.0446	2.4
111.0441	1.0
111.0554	1.9
112.0872	1.2
114.0664	1.1
114.1027	1.3
116.0708	1.3
120.0806	0.9
123.0551	1.7
126.0550	4.9
128.0702	1.1
130.0860	1.7
141.0659	4.8
146.0926	1.1
162.0906	1.0
175.0868	1.2
178.0852	1.4
179.0810	0.9
193.0969	0.9
196.0939	1.3
204.0660	1.2
206.0805	1.0
208.0960	1.0
211.1075	5.5
221.0917	2.3
223.1068	1.6
226.1070	17.0
227.1112	2.4
239.1018	3.5
241.1177	8.4
252.0857	1.4
256.1176	2.3
257.1146	1.1
259.1297	2.7
273.1452	1.0
295.1411	1.9
297.1456	1.0
334.1421	3.2
342.1604	1.1
344.1762	1.1
353.1701	1.0
354.1717	1.1
355.1466	9.1
356.1697	33.1
356.3512	1.3
357.1685	31.2
358.1515	3.9
358.3672	1.0
359.0867	1.1
359.1816	100.0
359.2210	0.9
360.1829	22.6
361.1408	0.9
361.2114	14.0
362.1354	8.6
362.1811	3.5
363.1449	1.0
363.2105	1.6
364.1425	4.1
364.1891	1.1
365.1335	1.4
366.1626	4.4
367.1558	6.3
368.1356	2.5
368.1777	1.8
369.1663	15.7
370.1492	19.0
371.1862	16.9
372.1636	8.2
373.1500	1.9
373.1966	6.8
374.1223	1.0
374.1940	10.1
374.3628	1.0

Name: 2-(2-Amino-3-phenylpropanamido)-3-methylbutanoic acid
PrecursorMZ: 265.15456
RT: 2.979
ExactMass: 264.1473925
Spectrum_type: 2
charge: 1
Formula: C14H20N2O3
SMILES: CC(C)C(C(=O)O)NC(=O)C(CC1=CC=CC=C1)N
Method: HCD
Collision_energy: [28.333334]
Isolation_window: 4.0
Ion_mode: P
Num Peaks: 164
55.0547	1.1
56.0500	0.3
58.0657	0.2
59.0496	0.3
67.0548	0.1
69.0703	0.2
70.0656	1.7
71.0495	0.4
71.0609	0.1
72.0813	0.2
80.0499	3.5
81.0340	0.4
81.0534	0.2
82.0656	0.3
83.0496	1.4
83.0610	0.2
84.0812	3.6
85.0653	0.3
85.0846	0.2
86.0606	0.2
86.0968	0.7
87.0446	0.3
88.0761	0.5
91.0545	0.2
93.0703	0.2
94.0655	2.1
96.0448	0.4
96.0811	0.3
97.0766	0.2
98.0604	0.2
98.0968	1.1
100.0760	0.8
101.0600	5.3
102.0634	0.4
102.0918	0.2
106.0656	0.1
108.0448	0.2
108.0810	0.7
109.0766	0.2
110.0716	0.2
112.0760	1.3
114.0553	2.4
114.0665	1.5
116.0709	1.6
118.0865	0.3
121.0766	0.1
122.0603	0.5
126.0916	2.1
127.0951	0.1
128.0712	0.2
130.0865	5.4
131.0900	0.3
136.0759	4.0
137.0795	0.4
138.0915	0.4
139.0865	0.5
140.0707	0.1
142.0865	0.1
144.1021	3.0
145.1055	0.3
148.0755	0.3
148.1121	0.3
149.1072	0.5
150.0554	0.3
150.0914	0.1
151.0868	0.2
152.0710	0.8
152.1073	0.4
153.1024	0.3
154.0865	3.9
154.1223	0.5
155.0908	0.3
156.1384	0.9
162.0916	0.1
163.0868	0.3
163.1230	0.1
164.0708	0.1
164.1070	0.3
165.1023	1.3
166.0864	0.5
167.0811	0.1
167.1181	1.0
168.1386	0.2
169.0974	0.3
170.0637	0.2
171.1130	1.4
174.1491	0.6
178.0860	0.1
179.0803	0.1
180.1016	0.4
181.0970	0.3
182.0811	0.2
182.1175	1.0
183.1114	0.2
198.1126	0.2
200.1284	0.8
207.1114	0.2
208.0974	0.2
209.1281	0.6
210.1858	0.5
214.1438	1.1
216.1238	0.3
222.1107	0.2
223.1443	0.1
238.1805	1.3
239.1838	0.2
251.1397	0.1
253.1547	0.8
256.1919	0.2
263.1126	0.3
263.1401	0.8
264.1242	0.6
265.1220	0.5
265.1550	3.5
266.1402	1.0
267.1388	0.9
267.1709	2.7
268.1516	1.1
269.1495	1.9
270.1157	1.2
270.1753	0.3
271.0208	0.2
271.0859	0.2
271.1057	0.5
271.1174	0.6
271.1654	100.0
271.2139	0.6
271.2268	0.7
271.2435	0.2
271.2620	0.2
272.0913	0.2
272.1292	0.7
272.1683	14.6
273.1252	0.5
273.1706	1.8
273.2148	0.5
274.1110	0.4
274.1418	0.3
274.2012	12.3
275.1064	0.2
275.1399	0.5
275.2045	1.9
276.1235	2.1
276.1559	0.5
276.2027	0.2
277.0840	0.2
277.1231	0.7
277.1546	7.2
278.1386	1.0
278.1585	0.7
279.1370	1.4
279.1701	15.4
280.1173	0.2
280.1510	0.8
280.1733	2.0
281.1494	4.5
282.1343	0.5
282.1713	3.6
283.1660	3.4
284.1279	0.7
284.1666	0.4
285.1278	0.2
285.1547	0.2
285.1809	0.3

Name: 2-(2-Hydroxyethyl)pyridine
PrecursorMZ: 124.07574
RT: 2.8248
ExactMass: 123.068413911
Spectrum_type: 2
charge: 1
Formula: C7H9NO
SMILES: C1=CC=NC(=C1)CCO
Method: HCD
Collision_energy: [28.333334]
Isolation_window: 4.0
Ion_mode: P
Num Peaks: 11
83.0607	3.0
106.0653	6.1
107.0731	6.2
122.0965	12.1
123.0553	12.4
123.0803	3.2
123.0918	4.0
124.0757	100.0
125.0709	8.5
125.0788	8.1
125.1073	30.6

Name: 2-(2-Hydroxypropylamino)pentanedioic acid
PrecursorMZ: 206.10161
RT: 7.176
ExactMass: 205.09502258
Spectrum_type: 2
charge: 1
Formula: C8H15NO5
SMILES: CC(CNC(CCC(=O)O)C(=O)O)O
Method: HCD
Collision_energy: [28.333334]
Isolation_window: 4.0
Ion_mode: P
Num Peaks: 46
58.0655	16.6
74.0602	3.6
76.0759	3.0
84.0445	71.6
85.0285	5.8
85.0478	3.1
87.0441	8.0
90.0550	4.7
96.0807	26.5
98.0600	2.8
101.0596	3.2
102.0549	7.6
112.0755	2.3
116.0705	2.4
120.0653	3.1
124.0754	39.1
125.0787	2.8
131.0335	2.1
140.1066	5.3
142.0859	79.8
143.0892	6.1
144.0651	11.0
146.0598	8.6
146.0808	1.8
158.0809	2.8
158.1172	6.1
160.0965	100.0
161.0998	6.3
162.0545	8.8
170.0807	89.8
171.0840	8.4
188.0335	2.4
188.0701	14.9
188.0912	20.5
204.0861	3.1
204.0976	2.8
204.1224	4.1
206.0242	2.7
206.0445	2.8
206.0811	7.7
206.1017	80.2
207.0761	2.0
207.1047	7.1
207.1122	1.3
208.0597	2.8
208.0963	9.3

Name: 2-(2-Oxopyrrolidin-1-yl)butanoic acid, (2R)-
PrecursorMZ: 172.09678
RT: 4.7967
ExactMass: 171.08954328
Spectrum_type: 2
charge: 1
Formula: C8H13NO3
SMILES: CC[C@H](C(=O)O)N1CCCC1=O
Method: HCD
Collision_energy: [28.333334]
Isolation_window: 4.0
Ion_mode: P
Num Peaks: 19
55.0546	8.4
67.0546	8.2
69.0339	10.7
83.0858	25.5
89.0710	9.4
98.0965	12.6
109.1012	15.1
126.0912	100.0
127.0946	7.8
128.1068	8.0
146.0600	8.7
154.0860	13.3
156.1017	12.4
170.0809	7.7
171.1489	14.7
172.0965	25.2
173.1168	8.3
173.1647	23.1
174.0548	14.8

Name: 2-(2-methyl-1H-indol-3-yl)ethylurea
PrecursorMZ: 218.12855
RT: 8.7569
ExactMass: 217.12151211
Spectrum_type: 2
charge: 1
Formula: C12H15N3O
SMILES: CC1=C(C2=CC=CC=C2N1)CCNC(=O)N
Method: HCD
Collision_energy: [28.333334]
Isolation_window: 4.0
Ion_mode: P
Num Peaks: 5
62.0605	12.7
130.0651	13.2
144.0809	7.3
218.1285	100.0
219.1322	9.6

Name: 2-(3-(4-Hydroxy-3,5-dimethoxy-phenyl)prop-2-enoyloxy)ethyl-trimethyl-ammonium
PrecursorMZ: 310.16446
RT: 7.4859
ExactMass: 310.16544787
Spectrum_type: 2
charge: 1
Formula: C16H24NO5+
SMILES: C[N+](C)(C)CCOC(=O)C=CC1=CC(=C(C(=C1)OC)O)OC
Method: HCD
Collision_energy: [28.333334]
Isolation_window: 4.0
Ion_mode: P
Num Peaks: 7
126.0913	2.9
175.0388	3.0
207.0649	4.3
251.0910	100.0
252.0944	12.9
310.1643	19.3
311.1675	3.5

Name: 2-(3-(6-Ethyl-2-phenylchromen-4-ylidene)-3-azapropanoylamino)acetic acid
PrecursorMZ: 387.13133
RT: 1.2138
ExactMass: 364.14230712
Spectrum_type: 2
charge: 1
Formula: C21H20N2O4
SMILES: CCC1=CC2=C(C=C1)OC(=CC2=NCC(=O)NCC(=O)O)C3=CC=CC=C3
Method: HCD
Collision_energy: [28.333334]
Isolation_window: 4.0
Ion_mode: P
Num Peaks: 13
81.0702	1.0
95.0857	1.2
340.1547	1.1
355.1051	14.4
356.1079	3.1
357.1805	2.7
369.2797	1.3
371.2943	3.7
385.2735	1.8
387.1314	100.0
388.1349	20.8
389.1306	6.1
389.2082	1.8

Name: 2-(3-Carboxypropanoylamino)-3-methylpentanoic acid
PrecursorMZ: 232.11741
RT: 5.7802
ExactMass: 231.11067264
Spectrum_type: 2
charge: 1
Formula: C10H17NO5
SMILES: CCC(C)C(C(=O)O)NC(=O)CCC(=O)O
Method: HCD
Collision_energy: [28.333334]
Isolation_window: 4.0
Ion_mode: P
Num Peaks: 33
69.0702	7.3
70.0654	9.4
72.0811	14.9
74.0603	6.2
75.0266	4.8
86.0602	11.3
86.0966	100.0
87.0444	5.9
87.0999	4.9
100.0394	23.0
101.0234	32.5
102.0549	5.3
112.0393	6.1
116.0706	4.9
118.0862	8.3
130.0497	10.8
132.1017	20.9
152.0703	7.0
155.0337	23.0
158.0446	85.5
159.0479	5.5
168.1017	30.0
186.0581	13.3
186.0758	9.9
186.1122	31.6
212.0917	6.0
214.1069	16.8
230.2476	4.7
232.0632	20.4
232.0817	4.6
232.0963	5.6
232.1175	6.5
233.0915	10.1

Name: 2-(3-Furyl)-7,8-dihydroxy-6a,7,10b-trimethyldodecahydro-4H-benzo)f(isochromen-4-one
PrecursorMZ: 371.18071
RT: 4.5353
ExactMass: 348.19367399
Spectrum_type: 2
charge: 1
Formula: C20H28O5
SMILES: CC12CCC3C(=O)OC(CC3(C1CCC(C2(C)O)O)C)C4=COC=C4
Method: HCD
Collision_energy: [28.333334]
Isolation_window: 4.0
Ion_mode: P
Num Peaks: 83
70.0668	2.5
83.0510	1.3
84.0826	4.9
100.0776	1.5
101.0543	0.8
101.0616	7.5
111.0461	0.8
111.0573	1.8
112.0776	1.1
116.0726	1.3
118.0869	0.9
121.0779	0.8
126.0569	1.0
129.0554	1.0
129.1026	1.3
130.0869	4.1
132.0774	3.5
135.0573	0.9
153.0660	1.9
155.0820	0.9
168.0779	1.1
170.0568	1.0
180.1042	0.9
183.0878	1.0
184.0735	2.2
194.1179	1.4
195.1156	0.8
196.0969	1.0
211.1080	3.5
213.0869	1.9
219.1142	0.9
223.1076	3.2
224.1149	0.8
225.1257	1.0
226.1099	1.0
235.1080	1.3
244.1179	1.1
245.1502	1.5
249.1246	0.9
253.1184	9.2
254.1226	1.2
255.1335	1.7
258.1087	2.2
273.1446	2.8
285.1476	1.5
299.1706	1.9
311.1605	15.6
312.1637	2.7
313.1075	2.1
324.1681	2.0
325.1759	2.1
353.1812	1.4
355.1182	2.6
357.1760	1.0
369.1631	1.2
370.1497	1.9
370.1940	1.0
371.1888	73.2
372.1916	13.5
373.1975	44.6
374.1581	1.4
374.2004	8.2
375.1873	100.0
376.1905	18.7
377.1926	3.2
378.1651	1.3
378.2001	1.4
379.1540	1.1
379.2033	1.2
380.1388	1.9
380.1902	1.1
381.1660	1.4
382.1522	1.7
382.2017	1.1
383.1819	7.3
384.2095	3.2
385.1972	72.3
386.1473	1.0
386.1971	13.0
387.1273	1.1
387.2062	2.3
388.1617	2.0
389.1948	30.7

Name: 2-(3-Hexyl-4-methyl-2,5-dioxopyrrol-1-yl)-3-hydroxybutanoic acid
PrecursorMZ: 315.19107
RT: 1.1274
ExactMass: 297.15762283
Spectrum_type: 2
charge: 1
Formula: C15H23NO5
SMILES: CCCCCCC1=C(C(=O)N(C1=O)C(C(C)O)C(=O)O)C
Method: HCD
Collision_energy: [28.333334]
Isolation_window: 4.0
Ion_mode: P
Num Peaks: 246
53.0393	0.1
55.0547	0.8
58.0655	0.1
67.0546	0.2
69.0339	0.1
69.0704	0.3
70.0655	1.3
71.0495	0.2
72.0812	1.1
74.0604	0.2
77.0392	0.2
79.0543	0.3
80.0498	0.1
81.0338	0.8
81.0701	0.3
83.0495	0.2
83.0859	1.8
84.0448	0.2
84.0811	0.8
84.0887	0.2
85.0286	0.1
86.0605	0.2
86.0968	2.0
87.0444	0.3
89.0600	0.3
91.0543	0.2
93.0703	0.2
94.0654	0.4
95.0496	0.3
95.0858	0.3
96.0446	0.1
96.0811	0.5
97.0652	0.1
98.0600	0.3
98.0966	0.3
99.0442	0.2
100.0762	0.1
102.0551	0.2
105.0701	0.2
106.0651	1.4
107.0494	0.2
107.0735	0.4
107.0859	0.2
108.0445	0.1
108.0810	5.7
109.0651	0.2
109.0844	0.4
109.1012	0.2
110.0600	0.2
111.0444	0.3
114.0548	0.1
116.0708	0.7
118.0864	0.2
119.0854	0.1
120.0809	1.1
121.0653	0.2
121.1013	0.2
122.0602	0.3
122.0966	0.1
123.0442	0.2
123.0806	0.1
124.0758	12.3
125.0598	0.1
125.0789	0.9
126.0557	0.2
126.0914	7.5
127.0948	0.6
128.0709	0.2
128.1072	0.1
130.0500	0.2
130.0656	0.2
130.0864	2.8
132.0809	3.0
132.1018	0.5
133.0848	0.4
133.1014	0.1
134.0600	1.9
134.0965	0.8
135.0681	2.0
135.0797	0.1
136.0758	4.5
137.0609	0.2
137.0796	0.3
138.0551	0.3
138.0914	2.0
139.0950	0.2
140.0705	0.1
140.1070	0.1
140.1433	0.4
142.0500	0.2
142.1590	0.2
144.1019	0.2
146.0604	0.1
147.0799	0.1
148.0199	0.2
148.0510	0.5
148.0561	0.4
148.0758	92.3
148.0948	0.5
148.1003	0.6
148.1079	0.2
148.1137	0.2
148.1381	0.2
149.0792	9.2
150.0550	0.1
150.0914	7.7
151.0949	0.7
152.0704	0.4
154.0860	0.3
154.1593	0.2
156.1019	2.5
157.1054	0.2
158.0814	0.2
158.1176	0.3
160.0755	0.2
160.0969	0.4
162.0548	0.1
162.0910	0.1
164.0707	7.6
164.1065	0.2
165.0546	0.2
165.0751	0.7
166.0204	0.2
166.0487	0.3
166.0568	0.7
166.0628	0.5
166.0862	100.0
166.1095	0.6
166.1155	0.8
166.1236	0.3
166.1323	0.1
166.1605	0.2
167.0897	9.9
168.0646	0.1
168.1021	8.4
169.1058	0.8
170.0811	0.2
170.1175	0.5
172.0967	0.9
173.1279	0.3
174.1128	0.5
175.0869	0.1
176.0705	4.1
177.0782	1.6
178.0862	8.5
179.0900	0.9
180.0650	0.1
180.1023	0.4
181.0976	0.1
182.0811	9.2
182.1158	0.1
183.0845	0.9
186.1137	0.1
187.1436	0.2
188.0705	0.2
188.1278	0.2
192.1017	0.2
193.0979	0.3
193.9976	0.1
194.0440	0.4
194.0811	56.1
194.1009	0.5
194.1099	0.4
194.1187	0.4
195.0845	6.2
195.1130	0.2
196.0978	2.7
197.1007	0.3
198.1141	0.1
200.0916	0.2
201.1240	0.1
206.1174	0.1
208.0962	0.2
209.1049	0.8
210.1117	0.5
215.1391	0.2
216.1019	0.1
216.1231	0.6
221.0924	0.1
229.1344	0.5
231.1491	3.2
232.1524	0.6
233.1658	0.4
242.1180	0.1
255.1511	0.3
257.1282	0.8
258.1100	0.4
259.1438	3.1
260.1485	0.5
261.1604	0.3
271.1446	0.3
273.1594	22.1
273.2212	0.2
274.1629	4.0
275.0492	0.2
275.1750	2.0
276.1798	0.3
277.1546	0.2
283.1433	1.3
284.1494	0.3
285.1228	0.3
285.1567	0.2
288.1229	0.1
289.1536	0.3
291.1700	3.4
292.1734	0.6
293.1851	0.5
299.1379	0.3
301.1542	23.9
301.2245	0.2
302.1576	4.6
303.1323	0.3
303.1690	2.9
304.1166	0.5
304.1722	0.5
306.1318	0.2
314.1026	0.1
315.1331	0.2
315.1918	1.0
316.1125	0.1
316.1974	0.1
317.1146	0.1
317.1487	0.4
318.1348	0.2
318.1825	0.4
319.1646	14.7
320.1678	2.9
321.1801	2.7
322.1332	0.2
322.1840	0.5
323.1598	0.9
324.1626	0.1
325.1770	0.3
326.2162	0.1
327.1626	0.1
328.1199	0.1
329.1050	0.2
329.1490	0.1
329.2076	0.3
331.1307	0.2
331.1643	0.2
331.1870	0.1
332.1121	0.1
333.1441	0.1
333.1779	0.5
334.1275	0.2

Name: 2-(3-Methoxy-4-hydroxyphenyl)-5-(3,4-dimethoxyphenyl)-3,4-dimethyltetrahydrofuran
PrecursorMZ: 341.17462
RT: 7.0335
ExactMass: 358.17802393
Spectrum_type: 2
charge: 1
Formula: C21H26O5
SMILES: CC1C(C(OC1C2=CC(=C(C=C2)O)OC)C3=CC(=C(C=C3)OC)OC)C
Method: HCD
Collision_energy: [28.333334]
Isolation_window: 4.0
Ion_mode: P
Num Peaks: 100
67.0546	3.8
69.0702	4.0
70.0655	5.5
72.0811	5.2
76.0396	2.2
79.0545	3.5
81.0702	3.2
84.0447	4.8
86.0967	9.1
91.0543	2.6
93.0701	5.3
95.0857	5.8
96.0809	10.1
100.0395	3.4
105.0700	2.8
107.0857	4.0
109.1013	2.3
111.0805	2.2
113.1075	5.2
114.0915	13.9
116.0707	7.3
119.0855	3.5
120.0809	3.8
121.1013	3.4
124.0758	5.6
125.0597	2.2
131.0854	2.6
133.0604	4.0
133.0650	2.8
133.1011	12.7
135.0803	2.3
136.0757	2.9
137.0960	2.3
145.0647	18.5
147.0809	3.1
147.1168	2.3
149.0597	6.5
149.0959	2.8
159.0804	11.3
161.0597	29.5
162.0630	3.3
163.0866	5.9
164.0706	2.2
166.0866	2.8
166.1227	3.1
168.1019	5.4
171.0805	3.6
173.0959	4.8
175.0753	72.7
175.1116	9.2
176.0786	8.0
182.0809	2.6
183.1129	2.4
184.1080	11.7
187.0752	21.7
188.0789	2.7
189.0909	9.5
191.0814	28.2
192.0849	2.8
193.1222	3.4
196.0967	2.2
198.1123	2.3
199.0752	27.2
200.0785	3.6
201.0908	22.4
202.0941	3.4
205.0860	3.1
209.1647	24.5
210.1679	2.8
213.0909	5.9
215.1065	9.6
217.0858	2.2
226.1912	3.8
227.1752	12.0
250.1180	3.9
279.1368	3.4
281.1533	10.9
295.1410	4.1
295.1685	6.9
305.1241	9.0
305.1529	12.2
306.1566	2.9
322.1282	2.7
322.2484	33.1
323.1354	11.6
323.1638	43.3
323.2518	7.3
324.1671	9.8
339.2685	2.6
340.1177	2.3
340.1392	5.1
340.1546	2.2
340.2590	57.4
341.1460	11.4
341.1743	100.0
341.2625	11.6
342.1331	2.8
342.1527	3.1
342.1779	21.4
343.1670	3.3

Name: 2-(3-carboxypropanoylamino)hexanoic Acid
PrecursorMZ: 232.11781
RT: 5.3366
ExactMass: 231.11067264
Spectrum_type: 2
charge: 1
Formula: C10H17NO5
SMILES: CCCCC(C(=O)O)NC(=O)CCC(=O)O
Method: HCD
Collision_energy: [28.333334]
Isolation_window: 4.0
Ion_mode: P
Num Peaks: 63
56.0499	7.4
57.0703	13.5
58.0656	3.6
69.0703	2.3
69.3166	2.7
69.6919	2.1
69.8311	2.2
70.0655	5.3
72.0811	20.6
74.0603	100.0
84.0446	27.4
85.0650	12.4
86.0602	2.7
86.0966	65.4
87.0998	2.4
100.0394	3.4
101.0233	4.8
101.0710	4.1
102.0550	23.2
109.0284	2.8
113.0234	2.6
116.0706	3.1
120.0655	2.8
123.0439	2.3
126.0551	2.1
130.0498	83.8
131.0531	3.9
132.1018	35.7
133.0607	2.1
137.0230	7.4
148.0603	73.0
149.0637	3.7
152.0705	2.7
155.0337	47.0
156.0368	3.2
158.0446	27.9
159.0482	2.2
165.0545	2.1
167.0338	3.3
168.1017	5.4
169.1336	2.3
179.0336	3.7
184.0965	4.5
185.0441	12.3
186.0579	3.0
186.1120	5.8
187.1438	23.7
194.0810	2.3
197.0441	6.4
212.0914	6.2
214.1071	2.4
215.1387	7.4
230.2474	14.6
231.0761	2.9
231.2513	2.8
232.0605	3.0
232.0631	6.9
232.0809	2.7
232.0966	5.3
232.1174	3.0
233.0917	4.0
233.1491	18.3
234.0754	2.7

Name: 2-(4-(1-ethyl-1H-imidazol-2-yl)piperazin-1-yl)-N-(2-methoxyethyl)acetamide dihydrochloride
PrecursorMZ: 296.20778
RT: 10.043
ExactMass: 367.1541805
Spectrum_type: 2
charge: 1
Formula: C14H27Cl2N5O2
SMILES: CCN1C=CN=C1N2CCN(CC2)CC(=O)NCCOC.Cl.Cl
Method: HCD
Collision_energy: [28.333334]
Isolation_window: 4.0
Ion_mode: P
Num Peaks: 65
55.0546	2.2
67.0546	1.7
69.0703	2.2
69.2859	2.3
70.0654	3.3
81.0701	2.5
83.0494	1.7
83.0858	2.2
84.0810	3.1
85.0286	1.2
95.0856	2.5
97.1012	1.7
97.4565	2.5
98.0602	1.4
100.0758	1.7
101.0598	4.7
109.1012	2.2
111.0441	1.5
112.0757	1.6
116.0706	4.6
118.0863	3.1
121.1011	1.3
123.1167	1.4
126.0549	2.4
130.0862	2.9
134.0446	1.4
135.1166	1.2
139.0390	1.2
163.1229	4.6
166.0861	1.5
195.1125	4.6
201.1383	3.3
218.1649	2.7
219.1488	15.2
220.1523	2.1
237.1593	36.0
238.1181	2.8
238.1631	5.0
244.1440	6.5
254.1859	2.2
261.1705	6.5
262.1546	12.9
263.1584	2.1
277.1541	2.2
278.1240	2.1
279.1812	7.0
295.1277	5.8
295.1644	25.6
296.1124	3.6
296.1329	4.8
296.1486	4.1
296.1692	4.2
296.2076	100.0
297.0733	2.0
297.1429	9.2
297.1659	2.8
297.1797	10.8
297.2110	13.8
297.2413	7.1
298.1266	4.2
298.1639	1.5
298.1750	1.7
298.1858	2.9
298.1879	4.0
298.2122	3.1

Name: 2-(4-(2-(furan-2-yl)-2-hydroxyethyl)piperazin-1-yl)-N-(furan-2-ylmethyl)acetamide dihydrochloride
PrecursorMZ: 334.17563
RT: 7.6692
ExactMass: 405.1222117
Spectrum_type: 2
charge: 1
Formula: C17H25Cl2N3O4
SMILES: C1CN(CCN1CC(C2=CC=CO2)O)CC(=O)NCC3=CC=CO3.Cl.Cl
Method: HCD
Collision_energy: [28.333334]
Isolation_window: 4.0
Ion_mode: P
Num Peaks: 24
70.0654	3.0
72.0811	4.4
80.0498	13.7
84.0811	2.6
85.0650	2.9
100.0758	2.5
114.0914	4.6
143.0815	25.3
144.0850	2.2
170.0811	3.9
209.1284	12.2
275.0911	2.5
333.1444	9.5
333.1801	18.0
334.1287	10.2
334.1458	2.7
334.1762	100.0
334.2124	4.9
335.1604	8.9
335.1791	16.8
335.1971	7.5
336.1434	7.1
336.1628	2.6
336.1941	8.9

Name: 2-(4-(3,4-dihydro-2H-1,5-benzodioxepin-7-yl)-5-methyl-1H-pyrazol-3-yl)-5-methoxyphenol
PrecursorMZ: 375.13098
RT: 5.0289
ExactMass: 352.14230712
Spectrum_type: 2
charge: 1
Formula: C20H20N2O4
SMILES: CC1=C(C(=NN1)C2=C(C=C(C=C2)OC)O)C3=CC4=C(C=C3)OCCCO4
Method: HCD
Collision_energy: [28.333334]
Isolation_window: 4.0
Ion_mode: P
Num Peaks: 17
81.0702	3.1
86.0966	3.0
93.0700	2.2
95.0857	2.4
107.0856	3.0
109.1012	2.4
355.2622	4.8
356.2661	3.1
373.2724	3.9
374.2826	4.0
375.1313	100.0
375.1517	4.4
375.2527	2.1
376.1349	16.5
376.2998	5.7
377.1264	4.9
377.1478	2.3

Name: 2-(4-(4-(4-(Hydroxydiphenylmethyl)piperidin-1-yl)butanoyl)phenyl)-2-methylpropanoic acid
PrecursorMZ: 500.27924
RT: 2.7571
ExactMass: 499.27225866
Spectrum_type: 2
charge: 1
Formula: C32H37NO4
SMILES: CC(C)(C1=CC=C(C=C1)C(=O)CCCN2CCC(CC2)C(C3=CC=CC=C3)(C4=CC=CC=C4)O)C(=O)O
Method: HCD
Collision_energy: [28.333334]
Isolation_window: 4.0
Ion_mode: P
Num Peaks: 31
53.5856	3.3
55.4784	2.8
55.5868	5.0
91.0543	5.3
105.0336	3.3
129.0698	3.2
131.0854	8.0
143.0855	4.0
171.1166	45.7
172.1200	10.9
191.0699	3.9
205.1010	13.0
217.1221	2.5
231.1165	3.8
233.1168	30.0
234.1202	21.0
246.1484	16.4
247.1518	2.9
248.1431	2.7
438.2420	8.9
464.2571	5.4
481.2561	7.2
481.2920	20.2
482.2680	67.6
483.2715	20.7
499.2660	20.6
499.3027	54.2
500.2779	100.0
500.3047	6.5
501.2818	30.7
502.2948	2.8

Name: 2-(4-(6-cyclopropylpyridazin-3-yl)piperazin-1-yl)-N-(4-fluorobenzyl)acetamide
PrecursorMZ: 370.20431
RT: 3.3177
ExactMass: 369.19648857
Spectrum_type: 2
charge: 1
Formula: C20H24FN5O
SMILES: C1CC1C2=NN=C(C=C2)N3CCN(CC3)CC(=O)NCC4=CC=C(C=C4)F
Method: HCD
Collision_energy: [28.333334]
Isolation_window: 4.0
Ion_mode: P
Num Peaks: 18
67.0545	5.1
81.0701	6.9
83.0857	5.0
86.0061	6.1
95.0856	5.6
116.0706	13.0
124.0756	5.6
126.0912	14.9
132.0112	36.9
186.0906	5.7
246.1118	6.9
264.1775	7.5
310.1827	18.0
324.1983	12.7
370.2037	100.0
371.2072	18.3
372.1643	5.2
372.2189	13.1

Name: 2-(4-hydroxy-3-methoxybenzylidene)-1H-indene-1,3(2H)-dione
PrecursorMZ: 281.08046
RT: 1.7743
ExactMass: 280.07355886
Spectrum_type: 2
charge: 1
Formula: C17H12O4
SMILES: COC1=C(C=CC(=C1)C=C2C(=O)C3=CC=CC=C3C2=O)O
Method: HCD
Collision_energy: [28.333334]
Isolation_window: 4.0
Ion_mode: P
Num Peaks: 13
81.0701	2.0
95.0856	1.3
121.0283	100.0
122.0317	7.3
131.0490	1.3
159.0438	1.7
225.0906	2.8
253.0853	9.9
254.0886	1.8
280.0724	4.0
281.0801	27.7
282.0837	5.6
282.2783	2.9

Name: 2-(4-oxoquinazolin-3(4H)-yl)ethyl isobutyrate
PrecursorMZ: 261.13069
RT: 1.7832
ExactMass: 260.11609238
Spectrum_type: 2
charge: 1
Formula: C14H16N2O3
SMILES: CC(C)C(=O)OCCN1C=NC2=CC=CC=C2C1=O
Method: HCD
Collision_energy: [28.333334]
Isolation_window: 4.0
Ion_mode: P
Num Peaks: 4
214.2165	6.7
261.1308	100.0
262.1339	10.8
262.2375	19.0

Name: 2-(6,8-dimethyl-4-oxo-4H-chromen-2-yl)benzoic acid
PrecursorMZ: 295.09657
RT: 8.1169
ExactMass: 294.08920892
Spectrum_type: 2
charge: 1
Formula: C18H14O4
SMILES: CC1=CC(=C2C(=C1)C(=O)C=C(O2)C3=CC=CC=C3C(=O)O)C
Method: HCD
Collision_energy: [28.333334]
Isolation_window: 4.0
Ion_mode: P
Num Peaks: 51
107.0493	0.6
121.0285	15.2
122.0319	1.3
145.0650	0.4
147.0440	1.0
149.0598	0.3
166.0497	0.6
173.0598	2.4
175.0755	0.5
189.0544	0.7
201.0545	0.9
207.0806	0.5
211.0753	16.3
212.0787	2.4
215.0699	0.7
221.0960	2.0
225.0910	2.7
226.0949	0.5
231.0804	1.0
233.0808	0.5
235.0754	1.6
236.0832	1.0
249.0558	0.6
249.0909	8.7
250.0944	1.5
252.0781	1.2
253.0858	36.1
254.0892	6.1
255.0916	0.5
259.0750	1.1
260.0825	0.6
267.1015	14.3
268.1048	2.4
271.0964	3.1
272.1000	0.4
277.0542	0.5
277.0608	0.4
277.0858	59.9
277.1173	0.4
278.0891	10.8
279.0918	0.8
280.0726	0.4
294.0971	0.7
295.0611	0.8
295.0688	0.5
295.0963	100.0
295.1252	1.0
295.1300	1.1
295.1649	0.3
296.0996	19.0
297.1025	1.5

Name: 2-(7-Hydroxy-6-methyloctyl)-2H-furan-5-one
PrecursorMZ: 209.15343
RT: 1.0601
ExactMass: 226.15689456
Spectrum_type: 2
charge: 1
Formula: C13H22O3
SMILES: CC(CCCCCC1C=CC(=O)O1)C(C)O
Method: HCD
Collision_energy: [28.333334]
Isolation_window: 4.0
Ion_mode: P
Num Peaks: 23
67.0546	41.2
69.0701	11.6
79.0544	18.0
81.0701	92.7
83.0857	12.4
91.0543	11.9
93.0700	32.6
95.0856	100.0
97.0648	13.9
107.0855	50.6
109.1012	30.6
111.0804	9.8
121.1010	17.5
131.0854	29.4
133.1010	9.8
147.1166	17.5
149.1323	27.4
163.1479	13.8
173.1322	75.1
191.1427	42.9
208.1690	19.3
209.1532	40.3
210.0790	34.9

Name: 2-(7-hydroxy-4,8-dimethyl-2-oxo-2H-chromen-3-yl)-N-)3-(4-morpholinyl)propyl(acetamide
PrecursorMZ: 375.19124
RT: 7.5532
ExactMass: 374.18417193
Spectrum_type: 2
charge: 1
Formula: C20H26N2O5
SMILES: CC1=C(C(=O)OC2=C1C=CC(=C2C)O)CC(=O)NCCCN3CCOCC3
Method: HCD
Collision_energy: [28.333334]
Isolation_window: 4.0
Ion_mode: P
Num Peaks: 20
57.0705	2.8
71.0860	3.1
84.0812	46.9
85.0846	3.0
86.0967	2.2
89.0602	2.0
130.0865	16.8
149.0236	15.5
167.0341	2.7
185.0834	4.7
186.0914	9.0
246.1128	37.9
247.1164	5.6
314.1625	3.6
315.1692	1.8
330.1704	12.9
331.1735	3.4
375.1920	100.0
376.1953	23.8
377.1988	3.6

Name: 2-(7-hydroxy-4,8-dimethyl-2-oxochromen-3-yl)-N-(3-morpholin-4-ylpropyl)acetamide
PrecursorMZ: 375.19226
RT: 1.1687
ExactMass: 374.18417193
Spectrum_type: 2
charge: 1
Formula: C20H26N2O5
SMILES: CC1=C(C(=O)OC2=C1C=CC(=C2C)O)CC(=O)NCCCN3CCOCC3
Method: HCD
Collision_energy: [28.333334]
Isolation_window: 4.0
Ion_mode: P
Num Peaks: 3
375.1918	100.0
376.1952	21.0
377.1901	4.3

Name: 2-(8-oxo-1,5,6,8-tetrahydro-2H-1,5-methanopyrido(1,2-a)(1,5)diazocin-3(4H)-yl)acetamide
PrecursorMZ: 248.13905
RT: 8.1929
ExactMass: 247.132076794
Spectrum_type: 2
charge: 1
Formula: C13H17N3O2
SMILES: C1C2CN(CC1C3=CC=CC(=O)N3C2)CC(=O)N
Method: HCD
Collision_energy: [28.333334]
Isolation_window: 4.0
Ion_mode: P
Num Peaks: 6
62.0604	10.5
160.0755	20.1
216.0889	9.4
248.1388	100.0
249.0885	4.2
249.1423	12.7

Name: 2-(9-Chloro-1h-Phenanthro(9,10-D)imidazol-2-Yl)benzene-1,3-Dicarbonitrile
PrecursorMZ: 379.07413
RT: 1.2865
ExactMass: 378.0672241
Spectrum_type: 2
charge: 1
Formula: C23H11ClN4
SMILES: C1=CC=C2C(=C1)C3=C(C=CC(=C3)Cl)C4=C2N=C(N4)C5=C(C=CC=C5C#N)C#N
Method: HCD
Collision_energy: [28.333334]
Isolation_window: 4.0
Ion_mode: P
Num Peaks: 8
270.0903	0.7
297.1014	1.9
298.1091	3.9
299.1137	0.9
352.0631	2.0
379.0736	100.0
380.0770	22.1
381.0675	2.4

Name: 2-(Butanoylamino)-3-(4-hydroxyphenyl)propanoic acid
PrecursorMZ: 252.1227
RT: 8.2978
ExactMass: 251.11575802
Spectrum_type: 2
charge: 1
Formula: C13H17NO4
SMILES: CCCC(=O)NC(CC1=CC=C(C=C1)O)C(=O)O
Method: HCD
Collision_energy: [28.333334]
Isolation_window: 4.0
Ion_mode: P
Num Peaks: 26
55.0546	2.5
101.0598	5.5
112.0758	3.7
123.0916	20.6
130.0862	5.4
136.0756	9.7
152.0705	8.7
153.1021	5.1
176.8751	5.4
205.1333	6.7
233.1282	7.9
234.1596	5.2
251.1020	8.6
251.1385	69.2
251.1746	11.6
252.1226	100.0
252.1321	2.8
252.1429	7.5
252.1583	6.5
252.1703	4.2
253.1162	21.5
253.1270	13.6
253.1540	22.1
253.1653	3.6
254.1019	20.6
254.1383	3.7

Name: 2-(Butanoylamino)-3-hydroxypropanoic acid
PrecursorMZ: 176.09164
RT: 7.5563
ExactMass: 175.0844579
Spectrum_type: 2
charge: 1
Formula: C7H13NO4
SMILES: CCCC(=O)NC(CO)C(=O)O
Method: HCD
Collision_energy: [28.333334]
Isolation_window: 4.0
Ion_mode: P
Num Peaks: 37
70.0654	6.8
84.0810	20.5
85.0399	13.0
86.0433	6.6
86.0602	4.6
87.0443	6.3
87.0554	4.6
88.0394	4.0
98.0601	6.7
102.0551	5.3
114.0550	8.4
116.0706	8.4
118.0499	5.3
120.0808	4.5
128.0705	22.0
129.0738	10.7
130.0861	100.0
131.0450	9.5
131.0895	5.8
132.0485	5.6
132.0654	12.9
133.0606	4.0
134.0601	4.6
138.0742	4.0
149.0232	3.9
150.0549	4.2
156.0846	4.2
174.0953	6.4
174.1121	5.8
175.0579	6.6
175.0715	4.9
176.0704	6.2
176.0916	10.1
177.0658	8.2
178.0495	7.3
178.0701	5.6
178.0859	7.5

Name: 2-(Butanoylamino)-5-(diaminomethylideneamino)pentanoic acid
PrecursorMZ: 245.16037
RT: 8.09323
ExactMass: 244.15354051
Spectrum_type: 2
charge: 1
Formula: C10H20N4O3
SMILES: CCCC(=O)NC(CCCN=C(N)N)C(=O)O
Method: HCD
Collision_energy: [28.333334]
Isolation_window: 4.0
Ion_mode: P
Num Peaks: 65
60.0562	3.3
70.0656	13.2
71.0496	2.2
72.0812	2.2
84.0812	6.6
88.0762	3.0
108.0447	1.4
112.0871	5.9
113.0713	4.4
114.1029	2.8
115.0869	10.3
116.0708	12.1
124.0393	1.7
126.0553	1.3
130.0865	1.7
130.0977	2.2
142.1229	3.0
157.1088	1.3
158.0816	1.3
158.0926	22.9
159.0968	2.0
167.1182	1.4
170.0811	2.1
175.1192	19.0
181.0977	1.4
181.1337	2.8
185.1284	7.4
186.1126	20.0
187.1155	2.0
188.0709	1.5
199.1080	2.2
199.1439	5.1
227.1508	1.6
228.1343	16.8
229.1371	1.9
236.0919	1.3
244.0960	2.2
244.1194	1.4
244.1514	1.8
245.1611	100.0
246.1123	2.1
246.1642	11.3
248.1271	2.4
249.1239	2.6
250.1047	2.9
251.1027	7.8
251.1393	1.6
252.1235	10.1
253.1183	4.7
254.1021	25.9
254.1402	3.2
255.1059	3.4
255.1355	4.0
256.1178	13.0
257.1231	2.6
257.1635	2.2
258.1125	1.4
258.1349	1.2
260.1125	4.8
261.1217	1.8
261.1813	5.3
262.1079	1.4
263.1395	1.7
264.1211	2.6
265.1197	6.0

Name: 2-(Butanoylamino)hexanedioic acid
PrecursorMZ: 232.11777
RT: 3.25
ExactMass: 231.11067264
Spectrum_type: 2
charge: 1
Formula: C10H17NO5
SMILES: CCCC(=O)NC(CCCC(=O)O)C(=O)O
Method: HCD
Collision_energy: [28.333334]
Isolation_window: 4.0
Ion_mode: P
Num Peaks: 7
69.2550	12.9
84.0446	32.3
97.4569	10.1
102.0550	15.7
144.0653	100.0
162.0760	26.1
186.0910	24.8

Name: 2-(Butylamido)-4-hydroxybutanoic acid
PrecursorMZ: 190.10738
RT: 5.7559
ExactMass: 189.10010796
Spectrum_type: 2
charge: 1
Formula: C8H15NO4
SMILES: CCCC(=O)NC(CCO)C(=O)O
Method: HCD
Collision_energy: [28.333334]
Isolation_window: 4.0
Ion_mode: P
Num Peaks: 71
58.0656	2.0
60.0448	8.7
67.0546	2.0
70.0655	2.4
71.0496	1.7
72.0812	46.1
81.0702	2.1
83.0494	1.4
84.0811	27.9
85.0651	32.2
86.0603	2.7
86.0684	1.6
86.0967	10.8
87.0444	2.1
88.0760	5.2
90.0551	1.7
91.0545	1.4
97.3988	2.3
98.0602	4.2
100.0759	4.4
101.0599	11.3
102.0915	48.5
103.0949	2.4
105.0702	1.6
112.0758	3.8
115.0755	2.3
116.0707	9.0
118.0864	13.9
122.0601	1.5
124.0757	4.6
125.0598	2.0
126.0914	2.6
128.0706	2.9
130.0498	2.1
130.0863	6.4
131.0855	1.6
132.1019	4.4
142.0863	8.6
143.1179	7.0
144.1019	100.0
145.0495	3.3
145.1055	5.6
146.0600	7.6
148.0758	2.2
148.0968	23.0
152.0706	2.7
154.0862	4.0
158.0811	3.1
161.0961	2.3
164.0706	1.6
170.0812	5.3
170.1007	2.9
172.0968	8.0
188.0916	4.9
188.1279	4.0
188.1642	2.9
189.0657	5.5
189.0910	1.6
189.1024	4.3
189.1231	1.8
189.1387	1.8
190.0864	3.7
190.1073	40.5
190.1222	1.6
190.1435	3.3
190.1591	1.9
191.0815	4.2
191.1109	1.4
191.1180	1.8
192.0655	15.7
192.1018	3.3

Name: 2-(Diethylamino)ethyl acrylate
PrecursorMZ: 172.13289
RT: 9.3686
ExactMass: 171.125928785
Spectrum_type: 2
charge: 1
Formula: C9H17NO2
SMILES: CCN(CC)CCOC(=O)C=C
Method: HCD
Collision_energy: [28.333334]
Isolation_window: 4.0
Ion_mode: P
Num Peaks: 26
67.0545	2.4
72.0811	2.2
84.0810	2.1
85.0762	9.9
87.0442	2.9
89.0710	2.8
96.0808	3.8
109.1011	5.2
111.0552	2.5
111.0665	3.8
128.1068	4.2
153.0769	8.3
154.1224	7.4
170.1174	6.6
171.0872	24.5
171.1125	59.6
171.1207	3.7
171.1489	4.5
172.0965	2.0
172.1167	5.8
172.1329	100.0
172.1693	8.3
173.1069	2.4
173.1362	10.9
174.0913	2.7
174.1122	22.6

Name: 2-(Dimethylamino)-5,6-dimethyl-1H-pyrimidin-4-one
PrecursorMZ: 168.1134
RT: 1.0684
ExactMass: 167.105862047
Spectrum_type: 2
charge: 1
Formula: C8H13N3O
SMILES: CC1=C(N=C(NC1=O)N(C)C)C
Method: HCD
Collision_energy: [28.333334]
Isolation_window: 4.0
Ion_mode: P
Num Peaks: 206
56.0500	0.2
57.0340	1.1
57.0704	1.0
58.0657	7.4
59.0496	0.2
59.0691	0.3
67.0549	0.2
68.0499	0.2
69.0340	1.6
69.0705	0.2
70.0657	0.6
71.0497	0.1
71.0861	1.8
72.0449	0.1
72.0813	0.3
72.0894	0.1
73.0111	0.1
74.0606	0.3
76.0762	6.6
77.0797	0.2
79.0546	0.2
81.0342	0.2
81.0452	0.7
81.0703	0.3
82.0533	0.1
82.0658	0.2
83.0497	0.1
83.0608	0.6
83.0861	0.2
84.0811	0.1
85.0653	0.1
86.0561	0.1
86.0605	5.4
86.0969	0.2
87.0446	2.1
87.0636	0.2
89.0488	0.1
89.0601	18.5
89.0715	0.1
90.0634	0.7
93.0704	0.2
94.0658	0.1
95.0318	0.3
95.0444	0.2
95.0484	0.6
95.0505	0.6
95.0608	100.0
95.0708	0.5
95.0734	0.7
95.0771	0.2
95.0804	0.1
95.0857	0.3
95.0937	0.2
96.0448	1.8
96.0580	0.7
96.0639	5.6
96.0811	0.8
96.9956	0.3
97.0481	0.1
97.0657	0.3
97.1016	0.2
98.0603	0.2
98.0968	0.1
100.0760	0.1
100.1123	0.2
107.0607	0.2
107.0706	0.7
107.0857	0.3
108.0812	0.2
109.0651	0.2
109.0765	0.9
109.1016	0.3
110.0606	0.2
110.0968	0.1
111.0557	0.1
111.0810	0.1
112.0502	0.1
112.0713	0.3
112.0747	0.3
112.0873	44.3
112.0995	0.1
112.1040	0.3
112.1130	0.1
112.1288	0.1
113.0843	0.3
113.0907	2.4
113.1071	0.3
114.0917	0.5
115.0756	0.1
118.0865	0.1
121.1015	0.1
122.0605	0.2
122.0716	1.2
122.0966	0.1
123.0807	0.2
124.0759	1.0
124.1125	0.1
125.0713	0.7
125.0961	0.2
126.0552	0.4
126.0916	0.4
128.1070	0.2
128.1437	0.1
130.0864	0.6
132.1022	0.1
133.0861	1.8
136.0759	0.5
136.0869	0.1
136.1122	0.1
138.0666	0.1
138.0914	0.3
139.0755	0.1
139.0868	0.1
139.0980	2.4
140.0710	0.1
142.1233	0.1
147.0111	0.2
149.0709	0.2
150.0555	0.1
150.0777	0.2
150.0824	0.1
150.1028	29.5
150.1280	0.2
151.0762	0.1
151.0868	0.2
151.0967	6.0
151.1062	1.8
152.0710	0.3
152.1003	0.4
152.1085	0.2
153.0908	0.1
153.1023	0.4
153.1387	0.4
154.0864	0.1
154.1229	1.4
155.1264	0.1
156.1020	0.1
163.0871	0.1
164.0708	0.8
164.0817	0.1
164.1076	0.2
165.0217	5.3
165.0666	0.1
165.1015	0.2
166.0228	0.3
166.0865	1.2
166.0979	0.1
166.1215	0.2
167.0816	3.1
167.0932	3.8
167.1187	0.2
168.0449	0.1
168.0691	0.6
168.0833	0.4
168.0895	0.3
168.1134	59.8
168.1516	0.2
168.1909	0.1
169.0972	1.0
169.1165	5.2
170.0810	0.3
170.1180	1.0
171.1128	0.3
171.1493	5.8
172.0971	0.1
172.1530	0.6
172.2057	0.1
173.0795	0.3
174.1128	1.1
174.1854	1.0
175.0868	0.3
176.0696	0.2
177.0661	0.5
177.1128	1.1
178.0852	0.3
178.1227	0.2
179.0812	0.3
179.1187	0.1
180.0657	6.9
180.0809	2.5
180.1029	2.4
181.0689	0.6
181.0838	0.3
181.0984	0.5
181.1331	0.4
182.0813	4.1
182.1158	0.7
182.1309	0.2
183.0766	0.2
183.0837	0.3
183.1123	0.8
183.1495	0.1
184.0976	0.5
184.1102	0.1
184.1335	0.1
184.1695	0.2
185.0711	0.2
185.1285	0.5
186.1123	0.2
186.2224	0.2
187.1450	0.1
188.0710	0.1
188.1296	0.2
188.2011	4.1
189.1022	0.4
189.2044	0.5

Name: 2-(Furan-2-yl)-5-(3,4,5-triethoxyphenyl)-1,3,4-oxadiazole
PrecursorMZ: 345.14401
RT: 4.5103333333333335
ExactMass: 344.13722174
Spectrum_type: 2
charge: 1
Formula: C18H20N2O5
SMILES: CCOC1=CC(=CC(=C1OCC)OCC)C2=NN=C(O2)C3=CC=CO3
Method: HCD
Collision_energy: [28.333334]
Isolation_window: 4.0
Ion_mode: P
Num Peaks: 37
69.0081	2.3
69.2360	1.4
69.8350	1.1
86.0966	2.2
138.0547	5.0
162.0912	2.7
164.0703	1.3
166.0497	4.7
180.1016	6.2
187.1438	5.3
213.1017	1.8
215.1386	2.2
220.0962	1.2
226.2160	3.2
239.1175	1.0
266.1171	4.1
267.1116	1.9
270.0992	1.8
281.1276	2.5
284.1275	3.1
285.1226	11.4
286.1265	2.0
291.1321	1.3
299.1383	6.7
301.1538	1.6
302.1746	1.1
309.1228	1.9
317.1490	5.6
327.1331	24.2
328.1365	4.9
330.1690	1.2
343.1646	1.2
345.1436	100.0
346.1470	17.9
347.1491	1.2
347.1615	1.2
347.1957	2.8

Name: 2-(Heptanoylamino)-3-hydroxybutanoic acid
PrecursorMZ: 232.15405
RT: 5.5074
ExactMass: 231.14705815
Spectrum_type: 2
charge: 1
Formula: C11H21NO4
SMILES: CCCCCCC(=O)NC(C(C)O)C(=O)O
Method: HCD
Collision_energy: [28.333334]
Isolation_window: 4.0
Ion_mode: P
Num Peaks: 71
56.0499	4.6
58.0655	3.1
62.0604	22.7
67.0546	1.2
69.0702	1.2
70.0654	4.5
71.0687	2.1
72.0811	4.0
74.0603	84.7
75.0636	1.1
81.0700	1.3
83.0857	1.8
84.0446	3.8
86.0602	10.0
86.0966	17.7
87.0554	2.9
90.0550	12.3
97.1012	4.7
98.0965	1.9
100.0756	3.1
101.0709	3.0
102.0550	7.0
104.0706	6.1
107.0856	1.9
114.0547	1.5
114.0913	3.8
116.0705	22.6
118.0862	1.4
124.1119	3.8
125.0959	5.5
127.0864	3.5
130.0497	1.7
132.1017	26.3
142.1223	1.3
144.0653	8.1
152.0704	8.0
152.1066	1.3
153.0738	1.2
156.0654	2.5
168.1380	1.1
169.1333	3.0
170.1173	2.4
173.0917	6.8
174.0757	10.7
186.1233	1.5
187.1437	16.7
189.1117	1.9
196.0964	1.4
196.1328	49.3
197.1166	1.3
197.1361	5.8
198.0755	6.7
198.1121	1.5
213.1225	1.6
214.1078	2.2
214.1432	100.0
215.1021	7.2
215.1271	2.8
215.1382	4.3
215.1467	9.6
216.0863	3.0
216.1222	3.0
231.1334	1.1
232.0961	3.5
232.1318	1.5
232.1538	4.1
233.0914	1.4
233.1121	2.5
233.1490	15.5
234.0752	1.9
234.1335	1.7

Name: 2-(Heptanoylamino)-4-methylpentanoic acid
PrecursorMZ: 244.1905
RT: 2.0276
ExactMass: 243.18344366
Spectrum_type: 2
charge: 1
Formula: C13H25NO3
SMILES: CCCCCCC(=O)NC(CC(C)C)C(=O)O
Method: HCD
Collision_energy: [28.333334]
Isolation_window: 4.0
Ion_mode: P
Num Peaks: 9
86.0967	100.0
97.3998	12.9
113.0961	9.1
126.0914	7.8
132.1018	49.8
215.0336	38.6
216.0369	8.5
243.0288	21.2
245.1279	16.2

Name: 2-(Hexadecanoylamino)-4-methylpentanoic acid
PrecursorMZ: 370.33121
RT: 1.1889500000000002
ExactMass: 369.32429423
Spectrum_type: 2
charge: 1
Formula: C22H43NO3
SMILES: CCCCCCCCCCCCCCCC(=O)NC(CC(C)C)C(=O)O
Method: HCD
Collision_energy: [28.333334]
Isolation_window: 4.0
Ion_mode: P
Num Peaks: 20
56.0499	2.7
57.0703	3.4
71.0859	4.7
72.0811	10.0
81.0701	2.4
83.0858	1.9
85.1015	2.5
86.0967	100.0
87.1000	4.7
95.0857	3.7
109.1013	2.0
118.0863	10.0
132.1018	87.9
133.1052	5.2
324.3258	3.4
352.3200	2.3
368.4246	3.8
369.4285	2.7
370.3310	9.1
371.3339	2.1

Name: 2-(Hexanoylamino)butanedioic acid
PrecursorMZ: 214.10736
RT: 2.4271
ExactMass: 231.11067264
Spectrum_type: 2
charge: 1
Formula: C10H17NO5
SMILES: CCCCCC(=O)NC(CC(=O)O)C(=O)O
Method: HCD
Collision_energy: [28.333334]
Isolation_window: 4.0
Ion_mode: P
Num Peaks: 190
57.0340	3.4
58.0658	1.9
60.0449	3.2
67.0547	2.2
68.0499	2.6
69.0339	2.8
69.0704	2.8
70.0656	29.2
71.0497	4.8
72.0449	5.1
72.0813	8.8
74.0606	7.2
80.0499	2.9
81.0340	8.6
82.0656	2.4
83.0496	4.3
84.0448	43.1
84.0813	6.4
85.0288	5.0
85.0652	4.6
86.0605	17.1
86.0968	7.0
87.0445	5.4
88.0397	2.9
90.0554	25.7
93.0703	2.5
95.0496	3.0
96.0448	6.4
97.0287	6.1
98.0604	5.7
98.0966	2.3
98.9846	2.9
99.0444	3.1
100.0393	2.6
100.0761	9.5
101.0601	4.3
102.0553	11.7
103.0393	2.5
105.0701	2.2
107.0858	2.6
108.0446	3.2
110.0604	6.8
111.0444	4.7
111.0557	9.2
112.0760	3.3
114.0553	9.3
116.0709	100.0
117.0745	4.6
118.0864	2.2
121.0651	2.6
122.0604	2.5
124.0395	2.1
124.0760	7.0
125.0607	2.1
126.0551	10.7
127.0392	1.9
128.0709	9.5
129.0548	2.3
130.0501	34.4
130.0867	2.3
131.0859	3.4
132.0658	3.5
134.0602	1.9
136.0760	4.6
137.0711	1.8
138.0552	7.0
138.0914	6.3
140.0345	10.9
140.0707	4.5
142.0498	3.0
142.0863	4.6
144.0658	20.7
144.1022	3.0
145.1009	2.0
146.0812	2.4
147.1171	3.8
149.0712	3.8
149.0963	27.7
150.0553	2.7
150.0914	2.0
152.0708	11.1
153.0661	2.0
154.0864	4.4
154.1231	1.8
156.0658	7.4
156.1020	4.4
158.0819	3.0
159.0767	2.1
160.0614	4.3
161.0719	2.5
162.0553	68.1
163.0583	6.6
163.1120	10.1
164.0708	9.8
165.0549	3.5
166.0865	36.5
166.1229	17.8
167.0696	2.3
167.0899	4.1
168.0657	6.9
168.1021	85.6
169.1068	7.9
170.0812	10.7
171.0767	1.8
171.1124	2.0
172.0613	2.2
172.0971	9.6
172.1334	2.9
173.0923	7.3
174.0764	13.8
174.1126	12.9
176.0707	4.9
178.0864	6.1
179.0819	3.8
180.0655	8.1
180.1006	2.5
181.0974	9.7
182.0811	6.9
184.0607	9.8
184.0963	6.8
184.1083	18.9
185.0916	2.7
186.0761	3.3
186.1121	4.5
188.0917	4.8
188.1280	4.0
191.0834	2.6
191.1063	7.3
192.0656	2.2
194.0813	11.6
195.0769	2.4
196.0608	5.4
196.0966	4.4
197.0926	5.2
198.0763	17.9
198.1117	2.2
199.1086	2.4
200.0921	3.7
202.1077	5.8
204.0660	1.9
204.0866	2.7
206.0813	2.0
207.0767	3.0
208.0606	8.3
208.1330	2.7
209.0923	6.8
209.1172	10.8
210.0758	2.5
212.0918	13.3
213.0873	13.6
213.1224	5.1
214.0704	2.9
214.0901	3.0
214.1075	71.5
215.0709	4.7
215.1024	18.7
216.0872	10.9
216.1232	16.4
217.1177	5.1
218.1025	11.3
218.1380	3.7
219.1339	4.0
220.1181	14.3
222.0765	13.9
223.0716	5.2
223.1065	3.0
224.0935	6.8
224.1284	9.8
225.0879	5.1
225.1239	2.1
226.0171	36.6
226.0709	10.1
226.1103	7.8
226.1438	72.5
227.0199	3.9
227.1028	27.8
227.1476	8.6
228.0853	9.4
228.1031	2.2
229.0953	3.1
229.1176	10.3
230.0997	9.1
230.1375	10.8
231.0976	5.1
231.1335	3.5
232.0614	3.7
232.1179	9.6
233.1131	6.2
234.0969	4.0
234.1341	4.7

Name: 2-(Hexanoylamino)pentanedioic acid
PrecursorMZ: 246.1335
RT: 6.0674
ExactMass: 245.12632271
Spectrum_type: 2
charge: 1
Formula: C11H19NO5
SMILES: CCCCCC(=O)NC(CCC(=O)O)C(=O)O
Method: HCD
Collision_energy: [28.333334]
Isolation_window: 4.0
Ion_mode: P
Num Peaks: 36
69.0703	1.9
71.0859	22.8
84.0447	27.8
84.0811	3.4
86.0967	6.9
87.0556	5.2
95.0605	2.9
99.0443	2.0
99.0806	18.2
102.0551	31.2
114.0914	2.0
130.0498	100.0
131.0530	4.5
132.1019	2.9
140.0342	2.8
141.1021	6.0
148.0604	83.4
149.0639	4.7
158.0599	2.0
166.0863	7.8
174.1025	10.4
187.1075	7.2
199.0869	2.6
200.0819	4.1
200.1280	4.1
200.1391	2.5
201.1021	3.5
202.0974	4.9
212.0915	9.9
228.1017	3.5
228.1228	3.7
229.1175	5.1
245.1131	2.9
246.0869	15.9
246.1335	7.9
247.1075	4.0

Name: 2-(Hydroxymethyl)-2-(methoxymethyl)-1-azabicyclo(2.2.2)octan-3-one
PrecursorMZ: 200.1279
RT: 0.8387
ExactMass: 199.1208434
Spectrum_type: 2
charge: 1
Formula: C10H17NO3
SMILES: COCC1(C(=O)C2CCN1CC2)CO
Method: HCD
Collision_energy: [28.333334]
Isolation_window: 4.0
Ion_mode: P
Num Peaks: 394
55.0181	0.4
55.0546	1.6
56.0499	1.9
57.0341	0.4
57.0703	1.1
58.0656	1.0
59.0496	1.1
60.0449	1.6
62.0605	0.3
67.0547	1.6
68.0499	0.4
69.0339	0.6
69.0703	4.7
70.0656	7.0
70.0737	0.3
71.0496	1.1
71.0689	0.4
72.0449	0.4
72.0812	35.5
73.0111	0.4
73.0288	1.3
73.0652	1.9
73.0845	1.4
74.0605	4.1
79.0546	0.9
80.0498	0.5
81.0339	9.9
81.0703	2.4
82.0371	0.6
82.0655	2.6
83.0495	1.4
83.0605	0.4
83.0860	1.8
84.0448	1.3
84.0811	2.3
85.0289	0.4
85.0652	2.4
86.0604	9.6
86.0968	36.4
87.0444	2.6
87.0559	0.3
87.0636	0.3
87.0683	1.1
87.1000	1.8
88.0396	0.7
88.0760	3.7
89.0600	7.5
90.0553	1.3
90.0636	0.4
91.0545	1.2
93.0702	1.7
94.0653	0.9
95.0495	1.7
95.0605	0.9
95.0858	1.7
96.0447	29.2
96.0810	1.1
97.0287	0.3
97.0479	1.6
97.0650	1.8
97.1014	0.3
98.0603	2.1
98.0966	0.8
99.0443	1.0
99.0807	0.5
100.0396	0.3
100.0760	4.3
101.0599	2.9
101.0712	0.5
101.0964	0.6
102.0552	1.3
102.0917	0.6
103.0755	0.5
104.0708	0.9
105.0701	1.9
107.0494	1.0
107.0857	1.7
108.0446	1.7
108.0810	0.4
109.0286	0.5
109.0650	1.1
109.0761	1.1
109.1014	0.9
110.0603	2.1
110.0716	1.6
110.0841	0.9
110.0966	0.6
111.0442	1.3
111.0556	0.9
111.0808	0.5
112.0759	3.0
112.1122	0.5
113.0599	0.7
114.0553	1.0
114.0664	2.9
114.0918	0.6
115.0509	0.3
115.0756	0.3
116.0708	5.6
116.1071	1.5
117.0688	0.7
118.0864	2.1
119.0858	2.1
120.0660	0.7
120.0811	0.8
121.0650	1.2
121.0763	0.4
121.1014	1.4
122.0600	1.1
122.0966	0.4
123.0444	0.5
123.0806	0.9
123.1170	0.6
124.0394	1.2
124.0759	1.9
125.0234	0.5
125.0614	0.6
125.0709	0.8
125.0963	0.5
126.0552	1.6
126.0914	5.0
127.0392	0.6
127.0501	0.4
128.0707	3.3
128.1072	0.6
129.0700	0.6
130.0501	0.9
130.0862	1.0
131.0857	1.4
131.1179	0.4
132.0815	0.4
132.1019	9.6
133.0649	0.7
133.0761	0.3
133.0859	1.6
133.1006	1.5
134.0599	0.6
134.0968	0.4
135.0806	1.5
135.0916	0.5
135.1167	0.7
136.0396	0.3
136.0758	1.8
136.1112	0.4
137.0459	0.3
137.0597	0.6
137.0710	0.5
137.0961	0.8
138.0551	0.9
138.0913	2.8
139.0503	0.3
139.0753	0.5
139.0865	0.7
140.0708	1.9
140.1070	1.7
140.1434	0.9
141.0664	0.4
142.0864	5.3
143.0864	0.7
144.0657	0.9
144.1020	4.8
145.0649	0.5
145.1010	1.6
145.1337	0.4
146.0271	0.4
146.0603	0.6
147.0800	1.0
147.0920	0.5
147.1169	2.3
148.0610	0.4
148.0758	1.1
148.1109	0.4
149.0599	0.8
149.0712	0.4
149.0962	1.2
149.1328	0.6
150.0548	0.6
150.0913	2.8
151.0753	0.6
151.0866	1.1
151.0968	0.7
151.1112	0.6
152.0707	3.0
152.0821	2.3
152.1069	2.4
153.0661	0.3
153.0899	0.4
153.1010	1.0
154.0501	0.4
154.0865	1.9
154.1227	4.2
155.0810	1.2
156.0656	0.5
156.0773	0.5
156.1020	5.1
156.1382	1.5
157.1011	1.3
157.1334	2.5
158.0603	0.4
158.0816	0.5
158.1176	2.2
158.1539	2.5
159.0787	0.4
159.0919	1.7
159.1169	1.3
160.0762	2.6
160.0962	1.0
161.0594	0.3
161.0713	0.5
161.0956	0.9
161.1325	0.9
162.0551	0.9
162.0910	2.2
162.1026	0.3
163.0752	0.6
163.0870	0.8
163.1119	0.8
164.0702	2.0
164.0818	0.3
164.1069	2.8
165.0545	0.3
165.0906	0.4
165.1026	1.9
165.1254	0.5
166.0504	0.4
166.0861	2.7
166.0979	3.2
166.1220	2.1
167.0818	0.6
167.1182	1.2
168.0647	0.5
168.0771	0.4
168.1020	2.3
168.1139	0.6
168.1378	0.6
169.0963	1.0
170.0807	0.9
170.0935	0.5
170.1176	2.1
170.1540	0.8
171.0785	0.3
171.1143	1.0
171.1487	0.8
172.0976	0.6
172.1332	2.1
173.0956	0.7
173.1292	1.8
174.0544	0.5
174.0894	0.6
174.1139	0.8
175.0749	0.3
175.0872	1.8
175.1110	0.9
176.0702	0.8
176.1073	0.3
177.1023	2.4
177.1276	0.4
178.0855	1.0
179.0817	0.5
179.1061	0.3
179.1197	0.4
180.0653	2.3
180.1016	2.4
181.0750	0.6
181.0969	1.5
181.1340	0.3
182.0795	1.0
182.0953	0.5
182.1175	6.7
183.0876	0.3
183.1148	1.1
184.0953	1.1
184.1192	0.5
184.1338	0.7
185.1042	1.6
185.1284	1.2
186.0576	0.8
186.0881	0.5
186.1122	0.5
186.1486	0.5
187.1103	0.3
187.1447	0.5
188.0705	0.7
188.1049	0.3
189.1041	0.6
189.1274	0.3
190.0859	1.8
191.0823	0.6
191.1065	0.6
191.1189	0.5
191.1433	0.3
192.0654	1.7
192.1016	3.6
193.0969	4.2
194.0804	2.2
194.0993	0.4
194.1174	3.5
195.0752	0.4
195.1105	2.5
196.0603	0.4
196.0962	2.2
196.1332	0.8
197.0917	1.3
198.0738	3.2
198.1128	3.4
198.1474	0.6
199.0541	3.5
199.0873	0.8
199.1069	4.6
199.1453	0.9
200.0729	0.6
200.1040	3.1
200.1284	4.0
201.0679	0.4
201.0877	1.1
201.1039	0.9
201.1269	2.0
201.1638	0.3
202.0503	0.8
202.0871	1.7
202.1075	3.8
202.1442	1.7
202.1807	0.6
203.0820	0.9
203.1057	0.6
203.1390	2.0
204.0655	2.4
204.1023	1.0
204.1231	3.8
204.1594	1.9
205.0629	0.4
205.1001	0.8
205.1247	0.6
205.1599	0.4
206.0813	5.9
206.1160	1.3
207.0760	3.0
207.1137	3.1
207.1379	0.4
208.0622	1.2
208.0802	0.4
208.0965	8.8
208.1341	0.7
209.0943	1.7
209.1290	2.2
209.1540	0.4
210.0232	0.3
210.0584	0.3
210.0774	6.3
210.0970	1.7
210.1123	100.0
210.1540	0.6
211.0766	0.6
211.1128	11.8
211.1473	0.5
212.0378	0.5
212.1031	10.8
212.1281	4.5
213.0688	1.4
213.0883	1.6
213.1052	0.8
213.1231	7.8
214.0716	0.7
214.1047	5.9
214.1247	0.7
214.1445	1.2
214.2526	0.5
215.1016	3.6
215.1398	0.9
215.1766	0.3
216.0684	0.5
216.0983	9.8
216.1229	5.9
216.1564	1.5
217.0695	0.7
217.0992	1.8
217.1222	1.6
217.1556	2.0
218.0813	3.2
218.1154	1.7
218.1387	0.8
218.1778	0.5
218.2111	3.7
219.0809	0.9
219.1131	1.5
219.1364	1.9
219.2146	0.5
220.0617	2.0
220.0970	6.5
220.1176	2.0
220.1361	0.3
221.0926	3.8
221.1280	1.3
221.1533	0.6

Name: 2-(Hydroxymethyl)-5-(6-((4-hydroxy-3-methylbut-2-enyl)amino)purin-9-yl)oxolane-3,4-diol
PrecursorMZ: 352.16002
RT: 6.9901
ExactMass: 351.15426879
Spectrum_type: 2
charge: 1
Formula: C15H21N5O5
SMILES: CC(=CCNC1=C2C(=NC=N1)N(C=N2)C3C(C(C(O3)CO)O)O)CO
Method: HCD
Collision_energy: [28.333334]
Isolation_window: 4.0
Ion_mode: P
Num Peaks: 16
70.0654	1.7
81.0336	1.3
83.0493	1.7
111.0440	7.0
154.0860	4.4
160.0612	1.4
202.1081	3.4
220.1187	100.0
221.1226	8.9
228.1228	1.2
246.1332	3.6
351.2112	4.8
352.1605	47.8
353.1652	7.3
353.1844	1.2
354.1677	2.2

Name: 2-(Hydroxymethyl)-5-)6-)(4-hydroxy-3-methylbut-2-enyl)amino(purin-9-yl(oxolane-3,4-diol
PrecursorMZ: 352.16057
RT: 2.2872
ExactMass: 351.15426879
Spectrum_type: 2
charge: 1
Formula: C15H21N5O5
SMILES: CC(=CCNC1=C2C(=NC=N1)N(C=N2)C3C(C(C(O3)CO)O)O)CO
Method: HCD
Collision_energy: [28.333334]
Isolation_window: 4.0
Ion_mode: P
Num Peaks: 24
70.0655	1.2
148.0617	2.5
216.1231	1.8
220.1192	100.0
221.1224	10.7
222.1252	1.0
235.1440	0.8
342.1549	1.0
351.1616	0.9
352.1619	37.0
353.1658	7.3
354.1651	1.8
355.1513	0.8
356.1741	0.8
357.1719	1.1
358.1311	1.3
359.1833	0.8
360.1655	5.2
360.2271	0.9
361.1714	1.2
362.1265	1.0
362.1850	1.8
364.1370	1.4
369.1676	0.9

Name: 2-(Hydroxymethyl)-8-(2-hydroxypropan-2-yl)-1-methyltetracyclo(4.4.0.02,4.03,7)decan-5-ol
PrecursorMZ: 235.169
RT: 5.4595
ExactMass: 252.17254462
Spectrum_type: 2
charge: 1
Formula: C15H24O3
SMILES: CC12CCC(C3C1C(C4C3C24CO)O)C(C)(C)O
Method: HCD
Collision_energy: [28.333334]
Isolation_window: 4.0
Ion_mode: P
Num Peaks: 115
55.0547	2.8
59.0496	2.0
67.0546	4.0
69.0339	3.5
69.0703	13.3
71.0495	4.7
73.0652	9.5
74.0604	18.3
75.0638	2.9
79.0545	5.6
81.0702	22.2
83.0858	11.7
85.0651	6.0
86.0967	6.5
87.0807	2.7
87.1000	2.4
91.0544	4.3
93.0701	28.6
94.0734	1.9
95.0495	1.5
95.0606	9.0
95.0857	34.3
96.0891	1.8
97.0650	4.5
97.1014	2.6
99.0806	3.4
105.0700	14.9
107.0493	1.7
107.0606	2.2
107.0857	59.9
108.0445	4.2
108.0890	4.6
109.0649	2.8
109.1013	12.3
111.0805	3.2
113.0599	3.2
115.0754	3.4
119.0856	45.3
120.0809	2.5
120.0889	4.9
121.0648	2.8
121.1012	37.3
122.1045	3.0
123.0805	7.5
123.1167	2.3
125.0596	1.9
125.0961	2.2
127.0753	2.0
130.0498	2.3
131.0855	3.3
132.1019	3.0
133.1011	33.5
133.1050	1.3
134.1044	3.6
135.0805	3.0
135.1168	36.4
136.1201	4.0
137.0960	7.3
141.0909	2.5
143.0854	3.6
145.1010	5.4
147.1167	14.6
148.1201	1.4
149.0959	1.5
149.1326	2.5
151.1115	2.0
157.1011	7.5
159.1168	6.1
160.0869	2.7
161.0960	4.0
161.1323	4.1
162.1027	17.4
163.1061	2.0
163.1117	2.9
166.0862	1.8
171.1169	4.5
173.1324	23.1
174.1357	3.3
175.1117	14.2
175.1480	55.1
176.1514	9.7
177.1273	11.6
179.1064	3.1
188.0814	2.4
188.1476	1.3
189.1273	4.5
189.1636	16.0
190.1670	2.2
191.0814	2.9
191.1429	27.3
192.1462	3.9
199.1480	15.6
200.1513	1.8
205.0494	3.6
206.0920	3.3
215.1470	1.9
216.0767	1.3
217.0971	1.3
217.1222	1.3
217.1585	29.0
218.1618	5.0
234.0781	3.8
234.0873	4.0
234.1527	1.6
235.1082	2.7
235.1191	1.3
235.1340	2.2
235.1440	1.6
235.1690	100.0
236.0919	3.9
236.1030	1.7
236.1725	15.0
237.0867	18.3
237.1233	1.6
237.1482	3.1

Name: 2-(Icosa-5,8,11,14,17-pentaenoylamino)-3-methylbutanoic acid
PrecursorMZ: 424.28171
RT: 4.9912
ExactMass: 401.29299411
Spectrum_type: 2
charge: 1
Formula: C25H39NO3
SMILES: CCC=CCC=CCC=CCC=CCC=CCCCC(=O)NC(C(C)C)C(=O)O
Method: HCD
Collision_energy: [28.333334]
Isolation_window: 4.0
Ion_mode: P
Num Peaks: 184
55.0546	0.9
56.0499	0.8
57.0339	0.8
57.0703	2.2
58.0655	2.5
59.0495	0.7
59.0608	1.2
62.0604	1.5
67.0546	3.6
69.0338	0.7
69.0702	4.9
69.2758	1.2
70.0654	2.8
71.0494	1.2
71.0858	2.2
72.0811	1.2
73.0651	0.6
74.0603	0.8
75.0443	0.8
79.0545	1.2
81.0337	3.3
81.0701	4.3
83.0494	1.4
83.0858	4.6
84.0810	11.0
85.0286	2.3
85.0650	1.2
85.1014	1.1
86.0966	1.9
87.0442	1.1
89.0599	0.9
91.0543	0.9
93.0700	2.1
95.0493	1.9
95.0605	9.8
95.0857	5.4
97.0285	0.8
97.0649	1.5
97.1013	3.0
97.4563	0.9
98.0965	1.7
98.9842	1.9
99.0441	3.9
99.0806	1.0
100.0758	0.6
101.0598	1.9
101.0962	0.6
105.0700	1.0
107.0856	2.3
108.0808	0.5
109.0285	0.9
109.0649	0.9
109.1012	3.2
111.0441	1.6
111.0554	4.8
111.0806	0.7
111.1169	1.0
112.0506	1.1
112.1120	0.7
113.0602	1.1
113.0710	66.6
114.0743	2.2
116.0706	1.8
117.0699	0.6
119.0856	1.7
120.0808	0.7
121.0648	0.8
121.1012	1.9
123.0804	0.7
123.1167	1.0
124.0756	1.4
125.0597	1.2
125.0961	1.7
126.0912	1.0
127.0389	0.9
127.0502	0.7
127.0752	0.8
128.0704	1.3
131.0854	1.1
133.0858	0.8
133.1011	1.8
135.0803	0.8
135.1167	2.0
136.0616	0.9
136.0756	0.7
137.0962	0.6
138.0912	1.0
139.1114	0.6
141.0546	1.2
141.1272	0.7
142.0262	2.4
143.0701	1.2
145.1010	1.3
147.1166	0.8
149.0959	0.7
149.1324	0.7
150.0912	2.4
151.1115	0.7
152.0704	0.6
155.0102	7.3
155.0701	3.6
157.1012	0.7
159.1168	0.9
161.0958	0.6
161.1324	0.8
162.0913	0.7
163.1117	0.7
164.0705	0.6
164.1069	0.6
166.0859	0.6
168.1018	0.8
169.1224	0.6
170.1174	0.9
171.1166	0.6
173.0806	0.6
173.1169	0.7
173.1323	0.8
178.0862	0.7
180.1018	0.8
183.1741	0.7
185.1322	0.6
192.1016	0.9
194.0810	0.5
194.1176	0.6
198.0522	1.6
199.0964	0.6
220.0968	0.5
222.1123	0.6
236.1391	0.9
240.2318	35.4
241.1331	0.6
241.2353	5.9
252.2410	0.6
252.2681	100.0
252.2954	0.8
253.2715	17.4
254.2751	1.0
255.1487	1.2
257.1645	4.0
270.2786	37.4
271.2821	7.0
275.1753	1.2
283.1438	1.2
285.2419	1.4
299.1386	1.7
301.1541	13.9
303.1698	0.7
350.2447	5.4
351.2481	0.6
353.2467	1.0
363.1888	1.2
364.2015	1.3
367.1640	0.6
371.2573	2.7
372.2606	0.7
375.2396	0.7
381.2391	2.4
390.2647	0.6
405.2018	1.9
406.2075	1.0
406.2710	17.3
407.2724	3.6
408.1825	0.7
422.2892	1.8
423.1548	0.9
423.1848	0.7
423.2113	2.5
423.2537	0.9
423.2861	18.0
423.3230	0.6
424.1733	1.0
424.1779	0.7
424.1890	0.7
424.2219	2.8
424.2815	79.9
425.1689	1.2
425.2053	1.0
425.2280	0.6
425.3034	41.5
425.3452	0.7
426.1549	0.9
426.2007	2.6
426.2374	4.5
426.3049	8.5

Name: 2-(N-ethyl-m-toluidino)ethanol
PrecursorMZ: 180.138
RT: 8.3927
ExactMass: 179.131014166
Spectrum_type: 2
charge: 1
Formula: C11H17NO
SMILES: CCN(CCO)C1=CC=CC(=C1)C
Method: HCD
Collision_energy: [28.333334]
Isolation_window: 4.0
Ion_mode: P
Num Peaks: 36
58.0655	11.1
60.0811	10.5
78.9846	1.5
87.0441	0.6
91.0543	6.0
96.0444	0.6
96.9952	12.4
97.9948	0.7
115.0056	0.7
120.0109	0.6
120.0806	4.7
121.0840	1.0
121.0884	6.0
122.0918	1.2
135.1040	3.4
136.1072	1.0
136.1118	2.6
163.0865	0.9
178.1223	25.5
178.8731	8.0
179.0922	1.3
179.1179	1.6
179.1255	14.0
179.1539	1.5
180.0805	9.0
180.0877	0.8
180.1047	100.0
180.1109	1.7
180.1378	24.3
180.8709	0.8
181.0839	1.2
181.1079	4.5
181.1330	1.9
181.1413	2.7
182.0995	7.5
182.1167	1.5

Name: 2-(Nonadecanoylamino)propanoic acid
PrecursorMZ: 370.33123
RT: 0.523
ExactMass: 369.32429423
Spectrum_type: 2
charge: 1
Formula: C22H43NO3
SMILES: CCCCCCCCCCCCCCCCCCC(=O)NC(C)C(=O)O
Method: HCD
Collision_energy: [28.333334]
Isolation_window: 4.0
Ion_mode: P
Num Peaks: 178
57.0703	63.1
58.0656	4.6
58.0737	3.6
59.0496	22.2
59.0608	10.7
67.0546	68.0
68.0580	3.6
69.0703	42.2
70.0655	10.1
71.0496	7.8
71.0859	54.3
73.0472	43.7
74.0603	4.6
79.0545	8.1
81.0702	66.6
82.0734	4.6
83.0494	4.6
83.0858	45.2
84.0892	3.4
85.0289	4.6
85.0652	12.9
85.1015	29.3
87.0444	8.1
88.0760	58.8
89.0600	87.1
91.0578	90.6
92.0564	4.1
93.0701	22.0
95.0493	5.9
95.0857	73.6
96.0892	5.0
97.0650	9.8
97.1013	34.0
98.9843	4.5
99.0445	3.6
99.0806	9.0
100.0759	4.5
101.0598	7.2
105.0700	8.5
106.0864	43.2
107.0707	5.4
107.0854	20.2
109.0652	3.6
109.1013	100.0
110.1047	9.3
111.0441	5.3
111.0805	11.0
111.1169	19.5
113.0599	6.7
113.0964	3.5
114.0734	11.9
114.0917	3.7
115.0757	4.7
115.0869	3.6
116.0709	3.6
117.0913	3.9
119.0856	13.9
121.0649	25.1
121.1012	25.1
123.0807	7.0
123.1168	26.6
125.0963	9.1
125.1326	4.2
127.1117	7.3
129.0545	7.0
129.0914	3.5
131.0856	4.2
133.0861	31.4
133.1014	15.2
135.0808	3.4
135.1168	27.8
137.0960	8.6
137.1326	12.1
139.1117	6.3
141.1276	8.5
145.1012	5.4
147.0653	5.8
147.0806	5.3
147.1168	13.4
149.0236	5.9
149.0600	3.5
149.1325	12.7
151.0968	11.6
151.1119	5.2
151.1479	5.0
153.1276	5.5
155.1068	6.8
159.1165	5.6
161.1323	11.9
163.1122	3.7
163.1481	8.9
165.0908	16.7
165.1270	6.8
165.1641	3.6
167.0562	5.1
171.1377	15.0
173.1175	13.1
173.1326	5.8
175.1479	9.2
177.1125	7.9
177.1637	4.4
179.1430	5.7
185.1544	3.6
189.1635	5.0
191.1063	4.0
191.1790	7.0
193.1580	6.1
195.1228	21.1
195.1385	4.0
199.1325	20.1
199.1684	12.0
207.1006	4.2
212.2006	6.2
214.1801	6.9
221.1166	4.4
226.1799	4.8
227.1276	34.7
227.2004	29.1
228.1308	4.7
228.1952	10.4
247.1693	5.1
255.2322	6.0
263.1635	9.8
268.9777	7.3
271.1532	9.0
285.0093	46.8
286.0098	12.4
287.0067	7.5
295.1532	4.1
299.0617	7.0
303.0206	5.7
309.2774	8.0
317.2830	6.4
319.2992	9.9
333.2766	4.8
334.3141	4.7
335.2932	20.4
336.3284	15.5
340.3561	4.7
350.3051	4.4
351.2163	19.3
352.2226	4.3
352.3212	34.8
353.2690	3.5
353.3239	6.2
354.3358	23.1
355.0695	55.4
355.3275	4.1
356.0705	16.9
357.0682	11.6
359.0292	9.3
361.3348	4.0
363.3098	39.0
364.3163	9.0
368.3137	5.3
368.3897	3.5
369.2239	3.4
369.3033	5.0
370.3319	33.1
371.0988	6.2
371.3333	8.1
372.1028	3.7
372.3469	10.0
373.0847	4.6
374.3041	20.7
374.3630	9.4
375.3088	4.1
376.3182	49.1
377.3236	14.8
379.3555	23.3
380.3580	10.5
381.3127	7.8
383.2421	35.8
383.3266	10.4
384.2462	7.8
385.2941	10.9
386.2528	6.6
386.3384	8.1

Name: 2-(Nonanoylamino)butanedioic acid
PrecursorMZ: 238.14347
RT: 8.620666666666667
ExactMass: 273.15762283
Spectrum_type: 2
charge: 1
Formula: C13H23NO5
SMILES: CCCCCCCCC(=O)NC(CC(=O)O)C(=O)O
Method: HCD
Collision_energy: [28.333334]
Isolation_window: 4.0
Ion_mode: P
Num Peaks: 19
55.0546	8.7
101.0597	19.4
109.0759	11.5
120.0806	7.9
130.0860	7.2
137.1071	10.1
138.0911	32.1
236.6124	4.4
237.1111	4.1
237.1224	31.6
237.1591	36.7
238.1071	31.0
238.1432	100.0
238.1612	5.9
239.1374	22.9
239.1483	10.5
240.0861	5.6
240.1228	15.5
240.1448	6.8

Name: 2-(Octadec-9-enoylamino)-3-phenylpropanoic acid
PrecursorMZ: 430.33123
RT: 1.05395
ExactMass: 429.32429423
Spectrum_type: 2
charge: 1
Formula: C27H43NO3
SMILES: CCCCCCCCC=CCCCCCCCC(=O)NC(CC1=CC=CC=C1)C(=O)O
Method: HCD
Collision_energy: [28.333334]
Isolation_window: 4.0
Ion_mode: P
Num Peaks: 14
57.0703	2.3
81.0703	2.6
89.0600	3.7
95.0858	2.7
120.0809	100.0
121.0842	8.7
130.0652	3.9
149.0597	3.2
166.0863	91.1
167.0895	5.9
384.3254	2.1
430.3311	8.7
431.3328	2.7
432.1922	2.6

Name: 2-(Pentanoylamino)pentanedioic acid
PrecursorMZ: 232.11746
RT: 5.9755666666666665
ExactMass: 231.11067264
Spectrum_type: 2
charge: 1
Formula: C10H17NO5
SMILES: CCCCC(=O)NC(CCC(=O)O)C(=O)O
Method: HCD
Collision_energy: [28.333334]
Isolation_window: 4.0
Ion_mode: P
Num Peaks: 28
57.0703	12.8
70.0655	11.1
72.0811	8.4
74.0604	3.8
84.0447	27.4
85.0650	14.7
86.0603	7.2
87.0555	3.6
102.0551	26.0
116.0705	8.2
126.0549	9.9
127.0866	5.1
130.0498	100.0
131.0532	5.7
138.0910	4.4
148.0603	71.2
152.0705	10.7
170.0811	4.3
173.0919	4.3
184.0966	19.3
185.1001	4.3
186.0759	3.8
198.0758	9.9
212.0915	28.1
213.0951	9.6
215.1027	4.2
232.1175	4.4
233.0920	3.6

Name: 2-(Undecanoylamino)pentanedioic acid
PrecursorMZ: 316.21166
RT: 7.3126
ExactMass: 315.20457303
Spectrum_type: 2
charge: 1
Formula: C16H29NO5
SMILES: CCCCCCCCCCC(=O)NC(CCC(=O)O)C(=O)O
Method: HCD
Collision_energy: [28.333334]
Isolation_window: 4.0
Ion_mode: P
Num Peaks: 79
55.0546	1.0
70.0655	1.3
72.0812	1.3
83.0495	1.0
84.0448	1.4
84.0812	22.5
85.0845	1.0
86.0604	1.0
86.0968	0.9
87.0444	2.0
90.0554	1.2
96.0447	1.3
100.0760	2.8
101.0599	10.3
102.0551	1.0
112.0759	33.5
113.0793	2.0
114.0666	1.4
116.0707	1.2
118.0863	1.0
126.0915	5.8
130.0864	100.0
131.0896	6.2
140.1071	0.9
143.1180	2.2
144.1020	9.3
146.0922	1.5
148.0606	1.1
152.1071	2.3
158.1178	1.1
164.0708	1.0
170.1178	2.3
172.1333	1.8
217.0973	2.3
227.1026	1.5
228.0978	2.2
239.1026	1.1
251.1025	1.5
252.1959	1.0
264.1960	1.1
269.1864	1.0
270.1447	1.1
283.1405	2.6
284.1598	1.2
287.1965	8.4
288.2000	1.2
297.1086	0.9
297.1436	1.2
298.1283	1.6
298.1412	0.9
298.1764	1.5
298.2014	1.2
299.1235	0.9
300.1071	1.0
300.1233	1.1
300.2168	2.7
315.1078	4.5
315.1344	2.8
315.1539	3.8
315.1679	8.8
315.1918	16.6
316.1015	1.3
316.1179	6.6
316.1374	1.7
316.1522	4.6
316.1683	1.0
316.1881	8.8
316.2120	43.2
317.1138	1.7
317.1337	3.8
317.1497	16.0
317.1703	1.0
317.1857	2.8
317.2152	7.7
318.0975	1.1
318.1329	7.6
318.1526	3.7
318.2035	2.1
318.2275	8.0

Name: 2-(furan-3-yl)-7,8-dihydroxy-6a,7,10b-trimethyl-octahydro-1H-naphtho(2,1-c)pyran-4-one (M+H)+
PrecursorMZ: 349.20086
RT: 1.4161
ExactMass: 348.19367399
Spectrum_type: 2
charge: 1
Formula: C20H28O5
SMILES: CC12CCC3C(=O)OC(CC3(C1CCC(C2(C)O)O)C)C4=COC=C4
Method: HCD
Collision_energy: [28.333334]
Isolation_window: 4.0
Ion_mode: P
Num Peaks: 27
57.0703	17.3
69.0703	16.2
71.0495	8.7
85.0652	14.6
98.0966	11.4
146.0965	25.1
158.1177	62.8
187.1115	8.0
192.1021	16.3
206.1175	78.4
229.1223	9.4
245.1173	12.4
247.1329	12.0
261.1486	9.5
263.1278	15.1
275.1277	15.4
291.1702	11.0
313.1796	20.5
331.1900	29.4
332.1932	8.3
333.1695	7.9
347.1839	8.5
349.1257	8.5
349.1623	18.9
349.2005	100.0
350.2047	24.1
351.1920	57.9

Name: 2-(hydroxymethyl)-5-methoxy-4H-pyran-4-one
PrecursorMZ: 157.04963
RT: 8.1859
ExactMass: 156.04225873
Spectrum_type: 2
charge: 1
Formula: C7H8O4
SMILES: COC1=COC(=CC1=O)CO
Method: HCD
Collision_energy: [28.333334]
Isolation_window: 4.0
Ion_mode: P
Num Peaks: 26
55.0182	1.3
67.0547	2.4
70.0656	5.5
74.0969	1.1
83.0495	8.8
84.0529	0.5
84.0812	0.6
111.0363	0.8
111.0379	0.6
111.0443	100.0
111.0522	0.6
111.0550	0.7
112.0476	6.5
112.0759	7.9
112.0870	1.7
116.0708	2.0
129.0547	5.6
130.0580	0.5
130.0630	0.8
139.0390	0.8
140.0707	1.1
156.0422	8.1
157.1701	0.7
158.0404	0.6
158.0818	1.8
158.0924	6.1

Name: 2-)(4-Amino-4-carboxybutanoyl)amino(pentanedioic acid
PrecursorMZ: 277.10276
RT: 4.2821
ExactMass: 276.09575085
Spectrum_type: 2
charge: 1
Formula: C10H16N2O7
SMILES: C(CC(=O)NC(CCC(=O)O)C(=O)O)C(C(=O)O)N
Method: HCD
Collision_energy: [28.333334]
Isolation_window: 4.0
Ion_mode: P
Num Peaks: 43
69.5680	5.6
70.0654	3.3
84.0446	60.6
84.0810	59.8
90.0551	3.8
97.4566	3.4
98.0601	3.3
102.0550	24.1
118.0863	5.9
130.0498	46.9
130.0862	30.6
131.0532	3.3
132.0766	16.8
138.0550	2.8
144.0654	4.4
148.0603	61.8
149.0637	3.2
163.0613	36.2
168.0653	5.4
170.0559	3.3
176.0816	18.8
186.0870	6.1
195.1124	4.3
213.1230	16.1
214.0706	7.3
232.0714	12.1
241.0816	7.4
249.0979	6.4
258.1079	13.0
259.0922	10.1
259.1283	10.4
260.0761	5.9
276.1187	100.0
276.1433	3.7
276.1556	10.7
277.0908	22.8
277.1042	6.8
277.1216	11.2
277.1388	20.6
277.1547	6.0
278.1234	5.5
279.1340	3.3
279.1700	3.2

Name: 2-))5-hydroxy-5-(hydroxymethyl)-2-methoxy-3-))(E)-prop-1-enyl(amino(cyclohex-2-en-1-ylidene(amino(acetic acid
PrecursorMZ: 285.14447
RT: 5.7702
ExactMass: 284.13722174
Spectrum_type: 2
charge: 1
Formula: C13H20N2O5
SMILES: C/C=C/NC1=C(C(=NCC(=O)O)CC(C1)(CO)O)OC
Method: HCD
Collision_energy: [28.333334]
Isolation_window: 4.0
Ion_mode: P
Num Peaks: 13
70.0656	8.1
89.0601	10.7
122.0815	10.6
132.0445	18.8
168.0692	7.2
195.1130	36.2
284.3310	7.7
285.1448	100.0
286.0719	13.7
286.1473	15.2
286.3105	7.8
302.1017	10.0
304.2997	9.0

Name: 2-)5-(2-Hydroxypropyl)oxolan-2-YL(propanoic acid
PrecursorMZ: 342.15435
RT: 0.7899666666666667
ExactMass: 202.12050905
Spectrum_type: 2
charge: 1
Formula: C10H18O4
SMILES: CC(CC1CCC(O1)C(C)C(=O)O)O
Method: HCD
Collision_energy: [28.333334]
Isolation_window: 4.0
Ion_mode: P
Num Peaks: 127
57.0341	14.9
59.0610	22.5
69.0339	17.7
70.0656	90.9
71.0496	15.0
72.0813	19.0
80.0500	12.5
81.0340	100.0
81.0703	13.1
83.0495	28.4
84.0812	13.7
85.0652	14.1
86.0968	41.7
89.0601	54.9
95.0494	30.7
96.0448	18.0
97.0650	15.8
98.0605	14.2
98.0967	16.3
99.0444	27.8
100.0764	13.0
103.0392	25.7
104.0709	13.3
105.0702	12.6
108.0813	14.3
109.0651	16.8
110.0604	23.3
111.0444	88.7
112.0760	19.6
116.0710	18.5
118.0868	19.0
120.0810	18.5
121.0651	19.9
122.0602	16.4
123.0444	19.8
124.0758	15.1
126.0551	13.1
126.0915	35.6
127.0393	38.2
130.0651	16.4
133.0859	28.2
134.0602	14.2
136.0758	19.2
137.0601	20.0
138.0549	14.5
138.0916	27.2
140.0708	18.5
149.0602	12.4
150.0553	14.5
150.0913	16.2
152.0705	22.5
153.0551	12.4
156.1024	12.6
160.0761	15.0
161.0599	16.7
162.0918	14.0
163.0753	12.9
164.0708	22.6
165.0552	14.2
166.0866	26.2
170.1178	63.7
178.0859	20.0
180.0653	16.4
180.1018	17.7
182.0810	19.2
184.0976	15.7
188.0713	16.5
190.0863	14.4
194.0807	18.4
196.0970	21.8
207.0651	28.7
208.0971	55.3
210.1132	18.2
212.0904	15.8
217.0981	34.5
220.0971	12.8
232.0971	17.9
262.1072	14.8
276.1233	61.8
304.1187	13.1
306.1345	21.5
324.1449	69.2
325.1475	12.7
327.2007	34.8
330.1323	15.1
332.1146	13.7
332.1515	14.4
334.1286	30.9
335.1954	14.6
336.1448	15.6
340.1406	20.4
340.1839	14.7
341.1447	18.3
341.1863	22.7
342.1588	68.5
343.1322	36.9
343.1669	44.7
344.1082	24.3
344.1489	39.6
345.1445	37.8
345.1863	16.1
346.1298	56.7
346.1671	40.6
347.1216	15.6
347.1618	65.4
348.1441	69.7
349.1411	32.6
349.1844	19.3
350.1167	27.9
350.1633	52.6
351.1537	35.4
352.1398	80.5
352.1769	20.3
353.1696	15.4
353.2110	43.3
354.1536	37.1
354.3139	15.5
356.1435	22.6
356.1750	21.2
357.1408	17.0
357.1885	18.5
358.1319	21.0
358.1660	29.8
359.1613	30.3
360.1468	28.5
360.1870	48.3
361.1789	13.7

Name: 2-Acetoxy-6-pentadecylbenzoic acid
PrecursorMZ: 413.26593
RT: 2.7846
ExactMass: 390.27700969
Spectrum_type: 2
charge: 1
Formula: C24H38O4
SMILES: CCCCCCCCCCCCCCCC1=C(C(=CC=C1)OC(=O)C)C(=O)O
Method: HCD
Collision_energy: [28.333334]
Isolation_window: 4.0
Ion_mode: P
Num Peaks: 11
120.0810	3.2
358.2819	3.0
397.3095	3.1
412.3209	23.8
413.2661	100.0
413.3258	7.4
414.2695	27.5
414.3007	6.3
414.3361	23.2
415.2818	35.0
415.3393	3.5

Name: 2-Amino-2-Deoxy-Hexose
PrecursorMZ: 162.07587
RT: 10.5531
ExactMass: 179.07937252
Spectrum_type: 2
charge: 1
Formula: C6H13NO5
SMILES: C(C1C(C(C(C(O1)O)N)O)O)O
Method: HCD
Collision_energy: [28.333334]
Isolation_window: 4.0
Ion_mode: P
Num Peaks: 37
55.0182	2.7
56.0498	3.6
57.0338	3.0
60.0447	13.3
69.0338	23.1
70.0654	4.4
72.0447	12.4
73.0287	4.5
80.0496	2.4
81.0337	5.6
84.0446	19.6
85.0285	18.2
96.0444	32.8
97.0284	100.0
98.0318	5.3
98.0600	10.2
99.0440	4.2
100.0393	3.0
102.0550	3.3
103.0390	3.7
108.0443	2.5
109.0282	2.0
114.0548	2.6
115.0389	27.8
116.0705	2.6
118.0861	6.2
125.0596	2.0
126.0547	8.7
127.0387	27.1
144.0652	65.3
145.0492	6.0
145.0685	5.0
160.0965	3.2
162.0758	50.6
163.0791	3.0
164.0522	2.6
164.0914	2.3

Name: 2-Amino-2-deoxymannose
PrecursorMZ: 162.07616
RT: 5.2509
ExactMass: 179.07937252
Spectrum_type: 2
charge: 1
Formula: C6H13NO5
SMILES: C([C@H]([C@H]([C@@H]([C@@H](C=O)N)O)O)O)O
Method: HCD
Collision_energy: [28.333334]
Isolation_window: 4.0
Ion_mode: P
Num Peaks: 50
60.0450	8.9
60.0813	4.8
69.0340	15.7
70.0656	21.5
72.0449	9.6
74.0242	5.2
81.0339	3.4
84.0448	16.9
85.0288	11.9
86.0607	3.2
86.0971	3.8
88.0398	5.6
96.0447	20.3
96.0813	3.3
96.9955	5.7
97.0287	55.2
98.0321	3.6
98.0604	6.8
99.0443	4.8
100.0248	5.5
102.0551	5.5
113.0712	27.7
114.0552	10.5
115.0393	20.4
115.0869	10.5
116.0709	10.5
118.0866	6.9
120.0810	10.1
123.0113	3.2
126.0550	7.4
127.0391	19.8
140.0707	6.1
144.0657	61.7
145.0496	6.3
145.0687	3.2
159.0766	68.5
160.0805	5.1
160.0965	4.5
162.0762	65.1
163.0789	5.5
164.0927	3.6
165.0215	7.9
166.0889	8.0
168.0684	36.7
170.0450	3.6
176.0906	5.9
180.0814	16.8
180.1050	100.0
181.1078	9.5
184.0606	11.6

Name: 2-Amino-2-methyl-1-propanol
PrecursorMZ: 90.0916
RT: 10.454
ExactMass: 89.084063974
Spectrum_type: 2
charge: 1
Formula: C4H11NO
SMILES: CC(C)(CO)N
Method: HCD
Collision_energy: [28.333334]
Isolation_window: 4.0
Ion_mode: P
Num Peaks: 15
53.0390	2.6
55.0546	49.8
56.0580	3.4
57.0577	3.7
72.0447	3.4
72.0811	100.0
73.0651	29.4
73.0844	5.3
74.0603	1.7
74.0684	1.3
88.0759	1.8
89.0711	2.4
90.0551	2.8
90.0915	14.2
91.0544	6.7

Name: 2-Amino-3-hydroxybutanoic acid
PrecursorMZ: 120.06559
RT: 8.9034
ExactMass: 119.058243149
Spectrum_type: 2
charge: 1
Formula: C4H9NO3
SMILES: CC(C(C(=O)O)N)O
Method: HCD
Collision_energy: [28.333334]
Isolation_window: 4.0
Ion_mode: P
Num Peaks: 11
55.0183	9.1
56.0499	46.7
72.0811	92.0
73.0845	8.7
74.0603	100.0
75.0637	3.6
84.0446	3.8
102.0550	24.1
118.0862	14.2
120.0655	6.9
120.0808	2.8

Name: 2-Amino-4,6-dimethylnicotinic acid
PrecursorMZ: 167.08165
RT: 6.1369
ExactMass: 166.074227566
Spectrum_type: 2
charge: 1
Formula: C8H10N2O2
SMILES: CC1=CC(=NC(=C1C(=O)O)N)C
Method: HCD
Collision_energy: [28.333334]
Isolation_window: 4.0
Ion_mode: P
Num Peaks: 17
74.0241	2.2
120.0809	1.9
121.0761	2.3
122.0601	1.6
123.0112	2.1
149.0710	2.2
150.0551	4.3
151.0867	2.1
165.0664	1.1
166.0619	1.2
166.0861	7.5
166.1228	1.5
167.0816	100.0
167.1541	1.2
168.0687	13.5
168.0848	7.6
169.0972	9.3

Name: 2-Amino-4-hydroxy-5-((1-(4-methoxy-6-oxopyran-2-yl)-3-methylbutyl)amino)-5-oxopentanoic acid
PrecursorMZ: 339.15466
RT: 8.1516
ExactMass: 356.15835111
Spectrum_type: 2
charge: 1
Formula: C16H24N2O7
SMILES: CC(C)CC(C1=CC(=CC(=O)O1)OC)NC(=O)C(CC(C(=O)O)N)O
Method: HCD
Collision_energy: [28.333334]
Isolation_window: 4.0
Ion_mode: P
Num Peaks: 20
55.0546	4.1
83.0493	2.0
83.0857	2.4
97.1014	1.9
100.0757	1.8
101.0598	8.8
140.0342	2.3
149.0708	13.2
193.0969	3.2
211.1071	3.0
221.0916	3.3
239.1022	100.0
240.1056	12.4
338.1357	3.2
338.3411	6.7
339.1193	1.8
339.1543	64.1
339.3445	2.2
340.1581	11.0
341.1342	1.9

Name: 2-Amino-4-hydroxy-5-))1-(4-methoxy-6-oxopyran-2-yl)-3-methylbutyl(amino(-5-oxopentanoic acid
PrecursorMZ: 339.15483
RT: 4.6439
ExactMass: 356.15835111
Spectrum_type: 2
charge: 1
Formula: C16H24N2O7
SMILES: CC(C)CC(C1=CC(=CC(=O)O1)OC)NC(=O)C(CC(C(=O)O)N)O
Method: HCD
Collision_energy: [28.333334]
Isolation_window: 4.0
Ion_mode: P
Num Peaks: 28
55.0547	0.8
70.0656	1.2
83.0495	0.8
101.0599	2.9
132.0448	0.9
147.0551	1.1
148.0634	0.9
161.0708	1.6
175.1187	0.8
239.1025	6.6
240.1059	0.9
248.1155	7.9
249.1208	1.9
338.1541	0.9
339.0696	0.8
339.1551	100.0
340.1578	18.3
341.1611	3.4
343.1874	3.3
344.1509	0.8
344.1868	0.9
347.2030	1.7
348.1431	1.5
350.1856	2.2
353.1708	2.3
354.1572	1.0
355.1883	1.9
356.1762	0.7

Name: 2-Amino-4-methoxy-6-methyl-1,3,5-triazine
PrecursorMZ: 141.07706
RT: 2.7547
ExactMass: 140.06981089
Spectrum_type: 2
charge: 1
Formula: C5H8N4O
SMILES: CC1=NC(=NC(=N1)OC)N
Method: HCD
Collision_energy: [28.333334]
Isolation_window: 4.0
Ion_mode: P
Num Peaks: 4
83.0242	97.8
100.0506	37.1
141.0657	31.9
141.0769	100.0

Name: 2-Amino-5-(2-((2,3-dihydroxy-2-(1-hydroxyethyl)butanoyl)oxymethyl)-4-hydroxyanilino)-5-oxopentanoic acid
PrecursorMZ: 415.1706
RT: 4.8179
ExactMass: 414.16383041
Spectrum_type: 2
charge: 1
Formula: C18H26N2O9
SMILES: CC(C(C(C)O)(C(=O)OCC1=C(C=CC(=C1)O)NC(=O)CCC(C(=O)O)N)O)O
Method: HCD
Collision_energy: [28.333334]
Isolation_window: 4.0
Ion_mode: P
Num Peaks: 67
57.0338	4.3
69.6459	5.5
70.0654	9.8
72.0811	15.5
75.0443	5.4
81.0337	7.1
86.0966	5.8
89.0598	15.3
93.0547	4.7
96.0445	14.1
106.0652	5.6
107.0491	9.4
110.0712	6.0
112.0757	5.1
120.0807	9.9
121.0647	10.5
132.0442	24.5
133.0857	7.1
136.0755	42.4
138.0546	6.5
150.0550	4.6
168.0653	19.0
172.0964	6.4
177.1117	5.8
179.0335	9.1
182.0924	4.3
184.0600	4.7
187.0750	9.9
198.0910	7.3
210.1483	5.4
214.0858	16.9
216.0859	5.3
220.1330	9.1
236.0913	4.8
236.1274	6.5
237.1594	10.2
244.0961	4.8
250.1072	4.6
253.1179	15.7
253.1540	6.3
255.0968	7.1
262.1067	6.4
267.1343	4.7
280.1172	12.1
331.1279	100.0
332.1313	18.5
361.1384	13.0
379.1490	59.0
380.1522	11.0
397.1590	28.9
398.1626	7.3
413.3236	34.2
414.1745	9.7
414.3261	10.2
414.3357	16.6
415.1448	5.3
415.1680	16.5
415.1903	10.6
415.3387	4.9
416.1710	7.2
416.1750	5.1
416.2382	6.1
416.2788	12.2
416.3134	9.2
417.1244	4.7
417.1645	23.8
417.2007	4.7

Name: 2-Amino-6-(hydroxymethyl)-4-(4-isopropylphenyl)-8-oxo-4,8-dihydropyrano(3,2-b)pyran-3-carbonitrile
PrecursorMZ: 339.13305
RT: 2.071
ExactMass: 338.12665706
Spectrum_type: 2
charge: 1
Formula: C19H18N2O4
SMILES: CC(C)C1=CC=C(C=C1)C2C(=C(OC3=C2OC(=CC3=O)CO)N)C#N
Method: HCD
Collision_energy: [28.333334]
Isolation_window: 4.0
Ion_mode: P
Num Peaks: 41
67.0544	0.6
69.0701	0.7
81.0335	0.6
81.0700	1.1
83.0856	0.9
95.0856	1.3
100.1120	9.3
101.1154	0.7
107.0855	1.1
109.1011	1.0
121.1009	0.7
122.0598	1.2
124.0753	1.9
133.1006	0.6
145.0518	1.4
164.0701	1.8
182.0806	1.7
237.1015	0.8
247.0853	0.7
251.1169	1.5
261.1012	2.1
262.1064	0.6
264.0886	1.5
265.0962	9.8
266.1001	1.3
278.1037	1.3
279.1118	3.7
280.1164	0.7
321.1228	1.7
324.1091	10.7
325.1124	2.2
338.1030	0.7
338.3401	1.1
339.0903	0.6
339.0992	0.7
339.1326	100.0
339.1899	1.6
339.2423	1.8
340.1176	1.2
340.1360	19.8
341.1385	1.4

Name: 2-Amino-6-methylpyridine
PrecursorMZ: 109.07617
RT: 3.1224
ExactMass: 108.068748264
Spectrum_type: 2
charge: 1
Formula: C6H8N2
SMILES: CC1=NC(=CC=C1)N
Method: HCD
Collision_energy: [28.333334]
Isolation_window: 4.0
Ion_mode: P
Num Peaks: 13
80.0498	0.8
81.0450	2.5
82.0654	4.9
92.0497	1.0
108.0558	1.3
108.0809	4.7
109.0684	0.7
109.0762	100.0
109.0840	0.9
110.0602	4.1
110.0795	6.0
111.0554	1.0
111.0918	2.0

Name: 2-Amino-9H-pyrido(2,3-b)indole
PrecursorMZ: 184.08683
RT: 3.279
ExactMass: 183.0796473
Spectrum_type: 2
charge: 1
Formula: C11H9N3
SMILES: C1=CC=C2C(=C1)C3=C(N2)N=C(C=C3)N
Method: HCD
Collision_energy: [28.333334]
Isolation_window: 4.0
Ion_mode: P
Num Peaks: 35
72.0810	2.3
83.0241	2.2
86.0966	2.3
91.0544	16.7
92.0577	2.8
95.0604	2.3
98.0601	3.2
124.0755	5.0
125.0234	3.1
128.0453	13.6
136.0755	3.5
137.0707	3.0
138.0549	2.6
138.0912	2.3
140.0162	2.4
140.0705	4.6
154.0245	34.1
155.0701	3.9
156.0652	4.6
157.0759	3.4
162.0548	2.2
165.0658	2.6
166.0497	2.6
166.0860	3.4
182.1173	3.8
183.0509	2.6
183.0757	6.2
183.0803	8.1
183.0914	56.3
183.1122	2.5
184.0602	9.9
184.0867	100.0
184.0951	9.2
185.0901	13.1
186.0758	2.7

Name: 2-Aminobenzenesulfonic acid
PrecursorMZ: 174.0219
RT: 6.1188
ExactMass: 173.01466426
Spectrum_type: 2
charge: 1
Formula: C6H7NO3S
SMILES: C1=CC=C(C(=C1)N)S(=O)(=O)O
Method: HCD
Collision_energy: [28.333334]
Isolation_window: 4.0
Ion_mode: P
Num Peaks: 38
68.0498	3.7
72.0811	4.2
81.0702	0.9
85.0763	1.6
86.0602	1.7
93.0573	0.7
100.0758	0.6
110.0601	1.8
111.0442	1.8
113.0346	0.8
113.0710	0.5
114.0550	1.8
125.0471	1.8
127.0753	0.8
127.0866	0.5
128.0706	3.0
131.0814	59.3
132.0847	3.6
137.0597	0.8
146.0599	0.6
155.0704	0.5
155.0813	2.9
156.0655	2.0
156.1018	1.9
173.0712	0.8
173.0919	8.9
173.1116	0.9
174.0061	0.6
174.0218	100.0
174.0549	0.5
174.0759	1.2
174.0902	0.6
174.0965	0.6
175.0254	5.9
175.0864	0.9
175.1116	0.8
176.0175	1.2
176.1068	0.8

Name: 2-Aminoisovaleric acid
PrecursorMZ: 118.08631
RT: 7.939
ExactMass: 117.078978594
Spectrum_type: 2
charge: 1
Formula: C5H11NO2
SMILES: CC(C)[C@@H](C(=O)[O-])[NH3+]
Method: HCD
Collision_energy: [28.333334]
Isolation_window: 4.0
Ion_mode: P
Num Peaks: 27
55.0182	1.0
55.0546	2.9
58.0655	10.7
59.0495	0.8
59.0733	10.7
60.0767	0.4
60.0812	0.6
69.7457	0.4
70.0654	18.1
71.0687	2.2
72.0774	0.6
72.0811	89.3
72.0852	0.6
73.0844	3.9
91.0543	1.2
97.4571	0.4
100.1121	1.2
116.0706	3.6
117.0738	0.6
118.0651	0.5
118.0774	0.6
118.0862	100.0
118.0949	0.7
118.1226	5.0
119.0491	0.5
119.0895	5.4
120.0807	0.7

Name: 2-Aminooctadec-8-ene-1,3,4-triol
PrecursorMZ: 316.28424
RT: 4.9544
ExactMass: 315.27734404
Spectrum_type: 2
charge: 1
Formula: C18H37NO3
SMILES: CCCCCCCCCC=CCCCC(C(C(CO)N)O)O
Method: HCD
Collision_energy: [28.333334]
Isolation_window: 4.0
Ion_mode: P
Num Peaks: 17
60.0448	100.0
67.0547	5.3
69.0702	4.4
81.0701	6.7
95.0857	6.0
106.0652	5.2
109.1013	4.8
112.8957	6.4
114.0913	9.5
176.8751	18.9
225.1018	9.6
280.2631	7.8
298.2736	13.7
314.3413	7.9
316.2841	67.3
317.2878	14.3
318.3005	11.2

Name: 2-Aminooctadecane-1,3,4-triol
PrecursorMZ: 318.2999
RT: 2.2891
ExactMass: 317.29299411
Spectrum_type: 2
charge: 1
Formula: C18H39NO3
SMILES: CCCCCCCCCCCCCCC(C(C(CO)N)O)O
Method: HCD
Collision_energy: [28.333334]
Isolation_window: 4.0
Ion_mode: P
Num Peaks: 11
70.0654	2.5
88.0760	7.2
102.0915	5.3
114.8930	1.8
256.2633	34.2
257.2666	5.8
300.2893	2.8
318.3000	100.0
319.1150	1.6
319.3034	19.6
320.3055	2.3

Name: 2-Aminooctanoic acid
PrecursorMZ: 160.13311
RT: 6.3788
ExactMass: 159.125928785
Spectrum_type: 2
charge: 1
Formula: C8H17NO2
SMILES: CCCCCCC(C(=O)O)N
Method: HCD
Collision_energy: [28.333334]
Isolation_window: 4.0
Ion_mode: P
Num Peaks: 33
58.0655	1.0
60.0812	1.0
69.0702	0.8
70.0655	2.1
72.0810	0.7
84.0446	3.6
100.0758	0.8
101.0598	1.4
102.0550	1.4
113.0710	1.8
114.0550	1.1
114.0663	1.4
114.0913	0.9
114.1193	0.7
114.1278	100.0
114.1360	0.6
115.1311	8.3
116.0529	1.4
116.0706	1.8
120.0114	0.8
142.0860	0.7
144.0654	2.0
158.1538	0.6
159.0915	0.8
160.0968	1.3
160.1331	53.1
160.9013	2.0
161.0708	0.7
161.1364	4.1
162.0545	1.8
162.0582	0.6
162.0655	0.9
162.1124	1.1

Name: 2-Aminophenol
PrecursorMZ: 110.0602
RT: 1.9809
ExactMass: 109.052763847
Spectrum_type: 2
charge: 1
Formula: C6H7NO
SMILES: C1=CC=C(C(=C1)N)O
Method: HCD
Collision_energy: [28.333334]
Isolation_window: 4.0
Ion_mode: P
Num Peaks: 12
65.0390	3.9
82.0654	4.8
92.0497	22.2
93.0450	4.5
108.0810	10.8
109.0762	15.1
110.0602	100.0
110.0712	5.2
111.0443	5.8
111.0554	25.0
111.0635	6.3
111.0918	10.2

Name: 2-Aminopyridine
PrecursorMZ: 95.06048
RT: 2.0081
ExactMass: 94.0530982
Spectrum_type: 2
charge: 1
Formula: C5H6N2
SMILES: C1=CC=NC(=C1)N
Method: HCD
Collision_energy: [28.333334]
Isolation_window: 4.0
Ion_mode: P
Num Peaks: 25
54.0341	6.4
55.0293	1.2
55.0420	1.6
56.0372	1.1
56.0498	2.7
66.0341	1.3
67.0544	0.9
68.0497	6.6
69.0449	0.8
70.0653	1.0
78.0340	0.7
80.0495	1.3
81.0448	7.6
93.0447	2.4
94.0651	2.3
94.9296	0.7
95.0603	100.0
95.0666	0.7
96.0443	9.1
96.0554	2.7
96.0637	2.4
96.0681	26.6
96.0806	1.5
97.0634	1.0
97.0759	12.2

Name: 2-Azaniumyl-6-oxohexanoate
PrecursorMZ: 146.08114
RT: 5.8534
ExactMass: 145.07389321
Spectrum_type: 2
charge: 1
Formula: C6H11NO3
SMILES: C(CC=O)CC(C(=O)O)N
Method: HCD
Collision_energy: [28.333334]
Isolation_window: 4.0
Ion_mode: P
Num Peaks: 5
86.0967	23.2
100.0759	37.8
121.9663	51.7
123.9644	44.5
128.0707	100.0

Name: 2-Azaspiro(4.5)decan-3-one
PrecursorMZ: 154.12267
RT: 0.6767
ExactMass: 153.115364102
Spectrum_type: 2
charge: 1
Formula: C9H15NO
SMILES: C1CCC2(CC1)CC(=O)NC2
Method: HCD
Collision_energy: [28.333334]
Isolation_window: 4.0
Ion_mode: P
Num Peaks: 58
58.0656	100.0
59.0496	2.7
59.0690	3.3
67.0547	1.9
69.0703	2.4
74.0605	1.3
83.0495	9.2
85.0651	1.8
86.0604	52.4
87.0444	4.8
87.0637	2.5
89.0601	43.4
90.0633	4.2
93.0702	3.0
95.0495	1.9
95.0859	3.7
97.0651	3.0
97.1015	1.4
98.0603	1.6
99.0443	1.8
99.0919	1.8
100.0247	2.8
105.0337	1.7
107.0706	2.4
107.0857	3.9
109.0650	2.3
109.1014	2.7
111.0806	2.4
114.0916	2.0
115.9642	4.6
116.9621	1.6
117.9595	1.6
123.0805	1.6
125.0964	2.7
126.0914	1.3
130.0864	3.0
133.0859	5.2
135.0810	1.5
136.0757	3.1
138.0913	1.9
151.0966	24.4
152.0995	1.3
153.0910	2.2
154.1227	21.9
155.1073	1.8
155.1276	1.9
156.1021	13.5
156.1384	39.8
157.1420	3.7
158.1175	2.1
158.1542	2.8
166.0881	1.7
167.1061	1.5
168.0688	12.8
170.1176	2.1
171.1493	1.4
172.1332	1.3
174.1126	16.1

Name: 2-Azaspiro(4.5)decane-1,3-dione
PrecursorMZ: 168.10187
RT: 2.6631
ExactMass: 167.094628657
Spectrum_type: 2
charge: 1
Formula: C9H13NO2
SMILES: C1CCC2(CC1)CC(=O)NC2=O
Method: HCD
Collision_energy: [28.333334]
Isolation_window: 4.0
Ion_mode: P
Num Peaks: 11
81.0702	10.6
89.0600	26.6
109.0650	46.6
123.0111	12.4
123.0805	93.4
124.0839	9.3
126.0914	56.7
151.0966	13.9
167.1543	65.6
168.0690	100.0
168.1019	17.7

Name: 2-Benzyl-4-oxo-3-azaheptanedioic acid
PrecursorMZ: 266.10206
RT: 6.0545
ExactMass: 265.09502258
Spectrum_type: 2
charge: 1
Formula: C13H15NO5
SMILES: C1=CC=C(C=C1)CC(C(=O)O)NC(=O)CCC(=O)O
Method: HCD
Collision_energy: [28.333334]
Isolation_window: 4.0
Ion_mode: P
Num Peaks: 28
70.0655	11.9
72.0811	14.6
100.0758	46.0
101.0598	12.4
116.0706	19.5
118.0863	12.2
124.0757	11.0
130.0497	12.0
149.0231	28.2
151.0388	7.1
160.0391	8.7
166.0531	28.8
168.0654	7.2
186.0546	10.0
197.0553	10.6
202.0858	7.7
220.0968	7.4
230.0808	27.9
248.0913	18.3
249.0853	7.2
265.1179	24.0
266.1014	19.2
266.1133	100.0
267.0971	30.5
267.1162	12.3
267.1329	21.0
268.0934	9.8
268.1172	24.6

Name: 2-Butanamido-3-methylbutanoic acid
PrecursorMZ: 188.12807
RT: 5.0183
ExactMass: 187.1208434
Spectrum_type: 2
charge: 1
Formula: C9H17NO3
SMILES: CCCC(=O)NC(C(C)C)C(=O)O
Method: HCD
Collision_energy: [28.333334]
Isolation_window: 4.0
Ion_mode: P
Num Peaks: 29
71.0495	2.7
84.0447	0.6
86.0604	0.5
88.0759	0.5
97.0285	0.4
100.0690	0.7
100.0705	0.4
100.0759	100.0
100.0813	0.6
100.0827	0.7
101.0599	3.3
101.0792	4.8
114.0914	0.5
116.0708	0.6
118.0864	5.2
126.0913	0.3
128.1071	0.6
130.0501	0.4
144.0656	0.6
156.0894	0.3
170.1177	0.4
186.0869	0.5
186.1124	0.5
188.0703	0.5
188.1068	0.4
188.1279	0.6
189.0909	0.3
189.1017	0.4
189.1270	0.4

Name: 2-Carboxy-3-hydroxy-5-methoxy-L-phenylalanine
PrecursorMZ: 256.08139
RT: 6.6531
ExactMass: 255.07428713
Spectrum_type: 2
charge: 1
Formula: C11H13NO6
SMILES: COC1=CC(=C(C(=C1)O)C(=O)O)C[C@@H](C(=O)O)N
Method: HCD
Collision_energy: [28.333334]
Isolation_window: 4.0
Ion_mode: P
Num Peaks: 79
69.0338	1.9
70.0654	2.4
71.0494	1.3
81.0338	2.3
84.0446	7.6
84.0810	1.3
96.0446	2.5
97.0285	100.0
98.0319	4.3
99.0442	1.7
109.0283	3.5
114.0550	7.5
116.0706	2.8
121.0397	1.4
121.0649	1.7
122.0601	1.2
123.0553	4.3
126.0547	1.5
127.0389	6.1
128.0707	1.4
130.0497	13.3
138.0547	1.6
139.0500	11.9
140.0704	1.1
141.0657	1.4
142.0497	12.5
148.0756	2.1
149.0710	1.1
152.0706	1.7
154.0498	2.9
156.0766	2.6
164.0705	3.1
166.0496	2.4
166.0608	1.5
166.0860	3.1
168.0653	2.1
174.0549	2.2
176.0703	1.4
178.0860	1.2
180.0653	2.9
181.0967	1.4
192.0653	7.8
193.0606	1.4
194.0810	3.1
196.0713	1.9
208.0604	1.3
208.0965	1.6
209.0917	4.5
210.0758	11.1
210.1121	2.3
211.1071	2.3
212.0914	6.8
220.0600	2.1
226.0706	8.6
236.0914	3.6
237.0862	4.6
237.1482	1.2
238.0706	19.5
238.1067	2.1
239.0750	2.2
239.1021	8.3
254.1021	5.6
254.1131	2.1
254.1219	2.1
255.0968	24.3
255.1333	8.8
256.0811	16.0
256.0938	1.7
256.1013	1.7
256.1174	8.2
256.1292	5.1
257.0823	1.5
257.1127	35.5
257.1274	2.4
257.1476	1.7
258.0756	1.8
258.0969	2.9
258.1087	2.3
258.1333	1.1

Name: 2-Cyclohexen-1-one, 3,5,5-trimethyl-4-(3-((6-O-beta-D-xylopyranosyl-beta-D-glucopyranosyl)oxy)butyl)-
PrecursorMZ: 527.24629
RT: 4.7227
ExactMass: 504.25706209
Spectrum_type: 2
charge: 1
Formula: C24H40O11
SMILES: CC1=CC(=O)CC(C1CCC(C)O[C@H]2[C@@H]([C@H]([C@@H]([C@H](O2)CO[C@H]3[C@@H]([C@H]([C@@H](CO3)O)O)O)O)O)O)(C)C
Method: HCD
Collision_energy: [28.333334]
Isolation_window: 4.0
Ion_mode: P
Num Peaks: 6
58.5816	1.6
58.5832	4.9
70.0655	1.6
527.2460	100.0
528.2487	23.8
529.2489	2.1

Name: 2-Dec-4-enyl-3-hydroxypentanedioic acid
PrecursorMZ: 287.18491
RT: 4.6587
ExactMass: 286.17802393
Spectrum_type: 2
charge: 1
Formula: C15H26O5
SMILES: CCCCCC=CCCCC(C(CC(=O)O)O)C(=O)O
Method: HCD
Collision_energy: [28.333334]
Isolation_window: 4.0
Ion_mode: P
Num Peaks: 62
55.0546	2.5
57.0339	18.9
67.0546	65.9
68.0579	3.3
69.0702	12.7
69.4761	4.2
71.0494	4.7
75.0443	11.3
79.0545	14.6
81.0701	92.9
82.0734	4.8
83.0494	6.3
83.0858	16.5
85.0650	7.5
91.0543	8.7
93.0700	53.5
94.0733	4.0
95.0493	3.5
95.0856	33.0
96.0890	2.3
97.0649	18.9
97.4570	2.7
99.0805	8.1
103.0390	24.9
105.0699	4.6
107.0855	25.1
109.0647	3.1
109.1011	5.0
111.0805	11.6
113.0597	2.6
117.0698	12.5
119.0854	4.7
121.1011	20.4
131.0854	10.7
133.1010	22.0
134.1043	2.0
135.0803	3.6
135.1166	45.6
136.1198	3.8
139.1114	2.8
149.1323	96.4
150.1356	10.7
151.1115	2.5
159.1166	75.4
160.1200	8.7
161.1322	11.9
167.1430	2.2
177.1271	59.3
178.1305	6.9
179.1426	13.8
195.1376	100.0
196.1410	11.1
213.1481	18.2
214.1514	2.0
226.2162	16.1
269.1741	27.7
270.1773	6.5
286.1060	3.5
287.1848	5.5
287.2689	6.3
288.1211	2.9
289.1399	2.3

Name: 2-Decanamido-3-methylbutanoic acid
PrecursorMZ: 272.22168
RT: 0.6141
ExactMass: 271.21474379
Spectrum_type: 2
charge: 1
Formula: C15H29NO3
SMILES: CCCCCCCCCC(=O)NC(C(C)C)C(=O)O
Method: HCD
Collision_energy: [28.333334]
Isolation_window: 4.0
Ion_mode: P
Num Peaks: 202
56.0490	1.9
57.0694	7.7
57.0726	1.9
58.0646	4.1
58.0679	1.0
60.0439	5.1
60.0473	1.1
62.0595	2.6
67.0536	3.4
69.0328	1.0
69.0692	3.1
70.0645	2.2
71.0485	1.9
71.0849	3.5
72.0802	1.3
74.0594	5.7
81.0327	1.2
81.0691	4.7
83.0847	2.9
84.0800	2.5
85.0640	3.6
85.1004	2.4
86.0592	2.0
86.0956	1.5
87.0432	1.2
88.0748	5.9
89.0589	2.0
90.0541	20.7
90.0602	1.7
91.0535	1.1
93.0690	2.3
95.0482	1.2
95.0846	8.2
97.0639	2.4
97.1004	1.7
98.0591	1.8
99.0431	1.5
99.0795	1.1
100.0746	1.1
101.0588	1.0
104.0696	1.7
105.0701	1.2
106.0641	1.6
106.0864	4.5
107.0492	1.1
107.0856	2.5
109.0638	1.1
109.1014	5.2
111.0443	1.4
111.0807	1.8
112.0760	1.0
113.0600	2.8
115.0751	1.1
116.0709	2.8
118.0863	3.0
119.0851	1.8
120.0810	5.7
121.0275	1.0
121.0650	1.5
121.1013	3.2
122.0812	8.6
122.0951	1.0
123.0801	2.4
123.1170	2.7
124.0758	2.7
125.0961	1.6
126.0552	1.2
126.0915	1.4
131.0855	1.1
133.0498	1.4
133.1011	1.8
134.0968	1.2
135.1168	2.4
136.0755	1.2
137.0598	1.3
137.0963	1.1
137.1313	0.9
138.0912	1.3
139.1118	1.0
144.0808	1.6
145.1002	1.0
147.1168	1.4
148.0757	13.0
149.0234	18.6
149.0788	1.3
149.0950	1.0
149.1324	1.1
150.0268	1.9
150.0914	2.9
152.1058	0.9
155.1054	0.9
157.0497	8.4
159.1163	1.3
161.0962	1.1
163.1115	1.4
164.0704	2.1
164.1070	1.8
168.0687	1.9
173.1312	1.0
174.0914	1.1
177.1275	2.0
178.0866	1.6
187.0875	1.3
188.0703	1.2
189.1025	4.1
190.0861	3.7
192.1016	3.0
195.1379	1.9
204.1023	1.1
212.2368	1.3
214.0865	1.6
215.0921	1.0
217.0974	2.8
218.1031	2.4
219.1128	11.5
220.1147	0.9
224.1864	1.5
226.2168	1.6
228.1032	1.3
230.0820	1.1
230.2476	5.4
231.1116	1.9
231.2503	1.0
232.0965	3.3
233.1901	1.2
234.1850	8.4
235.1898	1.3
240.2321	1.2
240.2682	1.2
242.2477	28.1
243.1138	1.1
243.2510	4.2
244.0965	5.2
245.0991	1.0
245.1274	1.7
245.1658	1.3
249.1226	1.0
254.1752	2.4
254.2463	1.2
255.1754	1.1
256.1188	1.9
256.2634	1.1
257.1283	1.4
258.2791	2.0
268.2628	1.2
270.0755	3.9
270.2190	1.0
270.2791	11.2
271.1083	1.6
271.1437	7.2
271.2832	2.2
272.0914	1.8
272.2226	1.6
272.2579	8.3
273.1232	4.0
273.1591	11.5
273.1857	1.3
273.2194	1.5
273.2597	1.3
274.1069	7.9
274.1631	1.0
274.2162	14.5
274.2739	4.3
274.7351	2.0
275.1091	1.4
275.1388	2.3
275.2183	2.5
276.1225	5.6
276.1600	1.0
276.1945	3.6
278.1423	1.3
279.0928	1.1
280.2490	14.4
281.1250	1.1
281.2519	3.6
282.2788	4.0
284.2380	1.9
284.2943	4.7
284.3307	2.7
285.1228	2.0
285.2940	1.7
286.1073	1.1
286.1436	0.9
286.2154	1.6
286.2737	4.1
286.3095	2.5
287.1393	1.7
287.2745	1.0
288.0861	7.7
288.1215	1.9
288.2530	8.1
288.2889	3.6
289.1186	11.0
289.1533	1.4
289.2557	1.8
290.1384	2.0
290.2687	100.0
291.1337	45.2
291.2719	17.0
292.1378	6.2
292.2272	1.4
292.2740	1.5

Name: 2-Ethoxy-2'-ethyloxanilide
PrecursorMZ: 313.15433
RT: 6.9781
ExactMass: 312.1473925
Spectrum_type: 2
charge: 1
Formula: C18H20N2O3
SMILES: CCC1=CC=CC=C1NC(=O)C(=O)NC2=CC=CC=C2OCC
Method: HCD
Collision_energy: [28.333334]
Isolation_window: 4.0
Ion_mode: P
Num Peaks: 57
55.0547	0.4
70.0655	0.4
87.0444	0.5
101.0599	0.8
120.0808	5.0
121.0761	1.0
121.0843	0.5
121.0886	8.1
122.0601	0.4
122.0920	0.8
122.0965	0.4
130.0499	0.7
148.0757	2.6
164.0707	0.3
165.1022	1.8
166.0863	23.5
167.0896	2.2
168.0655	0.8
178.1101	0.7
182.0812	0.6
202.0864	0.5
215.0638	0.8
222.0997	1.4
224.0917	3.2
254.1043	0.6
267.1490	13.8
268.1527	2.7
269.1648	3.2
270.1679	0.6
294.1139	0.5
294.1339	0.3
296.1136	0.4
311.1387	0.5
311.1958	1.3
312.0867	0.3
312.0967	1.9
312.1071	2.6
312.1236	3.6
312.1437	4.3
312.1602	0.9
312.1809	3.3
312.1984	0.4
313.1175	2.6
313.1228	0.5
313.1544	100.0
313.1841	0.8
313.1919	0.5
313.2117	0.5
314.1024	1.0
314.1229	14.3
314.1385	2.1
314.1576	19.2
314.1746	1.0
315.1163	1.6
315.1329	1.7
315.1584	1.4
315.1702	1.5

Name: 2-Ethoxyethyl 3a,8b-dihydroxy-2-methyl-4-oxo-1,3a,4,8b-tetrahydroindeno(1,2-b)pyrrole-3-carboxylate
PrecursorMZ: 334.12822
RT: 1.5246
ExactMass: 333.12123733
Spectrum_type: 2
charge: 1
Formula: C17H19NO6
SMILES: CCOCCOC(=O)C1=C(NC2(C1(C(=O)C3=CC=CC=C32)O)O)C
Method: HCD
Collision_energy: [28.333334]
Isolation_window: 4.0
Ion_mode: P
Num Peaks: 15
110.0966	6.4
112.0759	5.4
138.0915	8.9
148.0756	8.8
180.1020	26.8
193.0497	10.0
208.0967	12.0
260.1280	6.9
288.1228	12.4
298.1071	8.3
316.1178	100.0
317.1216	18.7
333.1820	6.5
334.1284	78.5
335.1318	13.8

Name: 2-Ethoxyethyl 3a,8b-dihydroxy-2-methyl-4-oxo-1,3a,4,8b-tetrahydroindeno)1,2-b(pyrrole-3-carboxylate
PrecursorMZ: 334.12835
RT: 3.9582
ExactMass: 333.12123733
Spectrum_type: 2
charge: 1
Formula: C17H19NO6
SMILES: CCOCCOC(=O)C1=C(NC2(C1(C(=O)C3=CC=CC=C32)O)O)C
Method: HCD
Collision_energy: [28.333334]
Isolation_window: 4.0
Ion_mode: P
Num Peaks: 90
58.0657	0.6
70.0656	1.9
72.0813	1.4
81.0338	0.9
81.0451	0.6
83.0496	1.5
84.0812	2.8
89.0601	0.6
95.0606	1.3
96.0812	0.5
98.0968	1.1
100.0759	0.5
101.0599	1.5
109.0764	0.6
111.0444	5.3
112.0870	0.6
114.1029	0.8
120.0813	0.9
122.0716	18.3
123.0749	0.8
130.0865	1.1
132.0446	2.5
149.0712	0.6
154.0865	0.8
162.0914	0.9
184.0801	0.7
207.1121	0.7
212.0742	15.7
213.0774	1.7
220.1334	1.2
224.0916	3.7
225.0957	0.5
230.0372	0.8
230.0470	0.6
230.0848	89.9
230.1326	0.5
231.0879	9.8
232.0794	2.9
233.1289	0.5
236.1394	1.0
240.1350	2.4
240.2327	0.5
249.1235	5.7
250.1271	0.9
259.1443	0.5
287.1384	0.7
291.1717	0.5
297.1242	1.0
332.1546	2.0
333.1477	1.7
333.1831	2.3
333.7231	0.5
334.1287	1.4
334.1745	3.3
335.1609	3.5
335.1980	1.2
336.1451	1.5
336.1917	3.8
337.1759	3.8
337.2088	0.6
338.1624	1.4
338.2091	1.6
339.1921	2.1
340.1544	0.6
340.2302	1.2
341.1513	1.1
341.1718	0.5
341.2076	1.0
342.1363	0.7
342.1756	0.6
343.1669	1.7
343.2252	1.1
344.1506	1.2
345.1497	1.2
345.1876	1.7
346.1683	2.0
346.3323	1.5
347.1600	2.5
347.1987	0.5
348.1535	1.9
348.1906	2.2
349.0863	0.7
349.1761	100.0
350.1791	20.8
351.1495	3.4
351.1885	3.4
352.1487	0.6
352.1876	1.6
353.1692	1.6
353.2096	1.0

Name: 2-Ethylaniline
PrecursorMZ: 122.0964
RT: 7.6754
ExactMass: 121.089149355
Spectrum_type: 2
charge: 1
Formula: C8H11N
SMILES: CCC1=CC=CC=C1N
Method: HCD
Collision_energy: [28.333334]
Isolation_window: 4.0
Ion_mode: P
Num Peaks: 24
56.0499	6.8
57.0339	2.6
79.0545	1.9
82.0140	1.9
93.0700	2.2
94.0652	1.7
100.0244	14.5
103.0542	9.1
104.0577	2.1
104.0706	11.0
105.0699	100.0
106.0733	11.1
118.0349	5.0
120.0807	20.2
120.0900	2.1
121.0841	5.8
122.0599	1.8
122.0713	2.2
122.0811	8.1
122.0963	4.9
123.0552	2.5
123.0803	8.2
124.0392	8.8
124.0756	4.5

Name: 2-Hexenoic acid, (2E)-
PrecursorMZ: 115.07544
RT: 5.46505
ExactMass: 114.068079557
Spectrum_type: 2
charge: 1
Formula: C6H10O2
SMILES: CCC/C=C/C(=O)O
Method: HCD
Collision_energy: [28.333334]
Isolation_window: 4.0
Ion_mode: P
Num Peaks: 10
58.0655	44.0
69.0702	65.1
70.0736	4.2
73.0651	11.3
97.0649	3.1
98.0966	2.8
114.0914	29.5
114.8929	10.5
115.0754	4.6
116.1070	100.0

Name: 2-Hydroxy-4,5',8a'-trimethyl-1'-oxo-4-vinyloctahydro-1'H-spiro(cyclopentane-1,2'-naphthalene)-5'-carboxylic acid
PrecursorMZ: 335.22155
RT: 4.9387
ExactMass: 334.21440943
Spectrum_type: 2
charge: 1
Formula: C20H30O4
SMILES: CC12CCCC(C1CCC3(C2=O)CC(CC3O)(C)C=C)(C)C(=O)O
Method: HCD
Collision_energy: [28.333334]
Isolation_window: 4.0
Ion_mode: P
Num Peaks: 99
55.0547	1.7
60.0449	1.8
67.0546	2.4
69.0703	2.4
71.0495	1.4
79.0546	1.4
81.0702	5.4
83.0859	5.3
85.0652	1.4
91.0545	1.7
93.0701	8.6
95.0494	1.9
95.0858	5.1
97.0651	2.1
97.3996	1.1
99.0443	1.7
99.0806	1.1
105.0701	3.0
107.0857	4.3
109.0650	3.8
109.1013	2.9
111.0806	4.8
114.0915	6.7
119.0857	3.8
121.0650	1.5
121.1013	3.1
123.0806	2.4
124.0757	1.1
125.0962	1.7
126.0914	5.8
131.0856	2.4
133.1012	4.3
135.0804	2.2
135.1169	2.5
136.0756	2.1
137.0960	2.1
143.0856	1.2
144.1018	1.4
145.1012	3.5
147.0805	1.4
147.1170	2.6
149.0962	2.5
150.0915	1.1
151.0391	2.8
151.1117	1.7
157.1013	2.0
159.1169	2.9
161.0961	1.7
161.1327	1.9
163.1118	2.6
164.0707	3.7
171.1169	2.1
173.1327	1.6
175.1117	1.5
176.8754	1.4
177.1275	1.7
178.0499	1.4
179.0339	7.2
182.0447	1.9
182.0812	3.1
185.1326	1.2
187.1119	1.6
187.1483	1.1
189.1274	2.5
191.1430	1.7
192.1021	1.1
196.0600	1.5
197.0444	1.2
205.1223	7.0
207.1380	2.9
210.1124	100.0
211.1159	11.5
217.1224	2.0
223.1330	2.7
235.1329	2.7
253.1433	2.1
287.2006	1.4
299.2005	4.1
305.2109	2.9
316.1024	6.0
317.2110	5.5
318.1822	1.8
318.2142	1.2
319.2270	1.3
333.2057	1.6
333.2421	4.4
334.1114	1.9
334.1276	3.0
334.2452	1.6
334.2606	1.6
335.1610	1.8
335.1964	21.1
335.2212	7.4
336.1429	2.7
336.1975	3.7
336.2257	1.5
337.1420	1.3
337.1760	1.2
337.2364	1.9

Name: 2-Hydroxy-4,7-dimethoxy-2H-1,4-benzoxazin-3(4H)-one
PrecursorMZ: 226.07085
RT: 7.1373
ExactMass: 225.06372245
Spectrum_type: 2
charge: 1
Formula: C10H11NO5
SMILES: COC1=CC2=C(C=C1)N(C(=O)C(O2)O)OC
Method: HCD
Collision_energy: [28.333334]
Isolation_window: 4.0
Ion_mode: P
Num Peaks: 207
59.0608	0.4
68.0498	6.1
69.6646	0.7
69.7488	0.6
69.8577	0.6
70.0654	11.7
71.0495	0.4
71.0687	0.6
72.0449	0.4
76.0395	0.4
79.0545	0.5
80.0497	4.6
82.0654	1.0
83.0494	0.5
84.0446	16.4
84.0810	2.1
85.0286	40.1
85.0480	0.6
86.0320	1.5
86.0602	1.2
86.0966	0.5
87.0442	26.6
88.0397	0.5
88.0476	1.4
89.0602	0.4
94.0288	4.9
94.0652	6.7
95.0605	1.9
95.0688	0.4
96.0381	0.6
96.0445	88.5
96.0508	0.6
97.0285	19.1
97.0478	4.3
97.0761	4.7
97.4570	0.5
98.0319	0.8
98.0601	0.8
101.0598	0.6
102.0550	1.2
103.0391	1.8
107.0492	1.1
108.0683	0.6
109.0760	1.4
110.0601	3.8
111.0552	0.6
112.0393	3.3
113.0233	11.0
113.0345	0.7
114.0268	0.6
114.0550	1.6
115.0502	1.1
116.0706	7.4
119.0160	0.5
119.0603	0.8
119.0856	1.0
120.0443	8.9
121.0477	0.5
121.1011	4.1
122.0237	0.6
122.0600	1.6
123.0438	0.8
123.0552	0.7
124.0392	7.7
124.0758	0.5
125.0344	0.6
125.0425	0.4
125.0595	0.7
126.0548	0.6
128.0706	0.6
130.0497	58.3
131.0337	22.0
131.0530	3.3
132.0371	1.0
132.0806	3.6
133.0839	1.0
134.0599	1.3
134.0963	0.6
135.0438	0.6
135.0551	0.7
135.0632	0.7
135.0915	2.1
136.0394	0.9
136.0755	2.0
137.0708	15.0
138.0548	5.1
138.0740	1.1
139.0500	2.9
139.0583	0.4
140.0228	0.8
140.0340	100.0
140.0431	0.6
140.0453	0.7
141.0373	6.6
141.0657	1.7
142.0497	1.3
145.1011	0.5
147.0803	1.0
148.0392	1.6
149.0709	0.7
152.0705	1.0
155.0701	0.7
161.0707	1.3
161.0959	1.9
161.1071	1.1
162.0548	19.6
162.0912	0.4
163.0502	1.6
163.0580	2.1
163.0749	0.6
163.0864	1.9
163.1115	1.4
164.0340	6.4
164.0704	1.6
165.0375	0.4
165.0657	2.9
165.0909	0.9
166.0497	31.1
167.0530	2.5
167.0700	0.4
178.0497	0.6
178.0719	0.6
178.0860	6.3
179.0531	0.7
179.0701	1.1
179.0813	7.6
179.0893	2.1
179.1061	0.7
179.1177	1.7
180.0514	0.5
180.0652	7.4
180.0846	0.7
180.1016	0.8
181.0605	4.3
181.0684	0.9
181.0855	0.9
181.0969	16.7
181.1221	0.5
181.1333	0.6
182.0480	1.4
182.0809	2.5
182.1001	0.8
182.1175	0.7
183.0649	1.3
183.0761	19.4
184.0602	6.6
184.0796	1.7
189.0907	1.5
190.0496	16.1
191.0447	0.8
191.0529	1.9
191.0812	3.7
191.1064	1.5
192.0289	2.4
198.1122	5.7
204.0164	0.8
206.0445	0.6
206.0808	0.9
207.0479	1.1
207.0760	11.2
207.1013	0.9
208.0526	0.6
208.0601	29.3
208.0794	1.2
208.0962	0.8
209.0442	1.9
209.0553	13.9
209.0636	3.3
209.0804	0.7
209.0916	4.1
209.1168	0.5
210.0393	1.4
210.0592	1.2
210.0756	2.8
210.0868	0.9
224.0553	0.6
224.0777	0.6
224.0913	7.9
224.1278	0.8
225.0617	1.5
225.0864	48.2
225.0949	1.8
225.1104	0.6
225.1225	1.9
226.0706	63.3
226.0815	6.9
226.0899	5.4
226.1069	4.9
226.1183	1.8
226.1434	0.9
227.0546	0.7
227.0657	3.2
227.0742	6.5
227.0850	0.7
227.0925	1.0
227.1021	47.3
227.1107	0.7
227.1251	0.7
227.1383	1.2
227.2113	1.5
228.0321	2.7
228.0532	0.7
228.0756	0.6
228.0866	3.3
228.0974	1.5
228.1062	2.4
228.1224	2.2

Name: 2-Hydroxy-4-Methoxy-3,6-Dimethylbenzoic Acid
PrecursorMZ: 197.08083
RT: 5.9055
ExactMass: 196.07355886
Spectrum_type: 2
charge: 1
Formula: C10H12O4
SMILES: CC1=CC(=C(C(=C1C(=O)O)O)C)OC
Method: HCD
Collision_energy: [28.333334]
Isolation_window: 4.0
Ion_mode: P
Num Peaks: 16
89.0600	4.9
95.0858	9.0
105.0701	4.0
108.0810	3.2
123.0806	11.9
151.0754	97.6
152.0710	4.0
152.0786	8.8
169.0860	100.0
170.0893	10.9
179.1543	10.2
180.0656	3.5
196.0968	13.6
197.0808	43.7
197.1075	7.0
198.0844	4.2

Name: 2-Hydroxy-6-(8Z,11Z)-8,11,14-pentadecatrien-1-ylbenzoic acid
PrecursorMZ: 365.20852
RT: 0.7681
ExactMass: 342.21949481
Spectrum_type: 2
charge: 1
Formula: C22H30O3
SMILES: C=CC/C=C\C/C=C\CCCCCCCC1=C(C(=CC=C1)O)C(=O)O
Method: HCD
Collision_energy: [28.333334]
Isolation_window: 4.0
Ion_mode: P
Num Peaks: 8
81.0702	16.1
95.0856	20.9
363.2436	23.1
364.3205	34.0
365.1573	13.3
365.2086	100.0
366.2123	24.0
366.3000	20.2

Name: 2-Hydroxy-N-phenylacetamide
PrecursorMZ: 152.07056
RT: 7.8043
ExactMass: 151.06332853
Spectrum_type: 2
charge: 1
Formula: C8H9NO2
SMILES: C1=CC=C(C=C1)NC(=O)CO
Method: HCD
Collision_energy: [28.333334]
Isolation_window: 4.0
Ion_mode: P
Num Peaks: 8
70.0042	4.4
96.9951	5.3
134.0629	8.4
152.0573	5.6
152.0703	100.0
153.0737	8.2
154.0496	5.0
154.0861	7.8

Name: 2-Hydroxyquinoline
PrecursorMZ: 146.06002
RT: 3.5726
ExactMass: 145.052763847
Spectrum_type: 2
charge: 1
Formula: C9H7NO
SMILES: C1=CC=C2C(=C1)C=CC(=O)N2
Method: HCD
Collision_energy: [28.333334]
Isolation_window: 4.0
Ion_mode: P
Num Peaks: 4
118.0650	4.1
146.0598	100.0
147.0551	6.8
147.0632	11.1

Name: 2-Hydroxyquinoline-4-carboxylic acid
PrecursorMZ: 190.04979
RT: 5.0218
ExactMass: 189.042593085
Spectrum_type: 2
charge: 1
Formula: C10H7NO3
SMILES: C1=CC=C2C(=C1)C(=CC(=O)N2)C(=O)O
Method: HCD
Collision_energy: [28.333334]
Isolation_window: 4.0
Ion_mode: P
Num Peaks: 15
116.0495	0.4
128.0495	0.5
146.0602	0.3
161.0710	0.8
162.0550	1.4
172.0393	0.5
189.0659	0.1
190.0320	0.6
190.0498	100.0
190.0637	0.4
190.0678	0.6
190.0730	0.2
190.1341	0.3
191.0531	10.1
192.0553	0.5

Name: 2-Imino-1-methyl-4-imidazolidinone
PrecursorMZ: 114.06631
RT: 8.2915
ExactMass: 113.058911855
Spectrum_type: 2
charge: 1
Formula: C4H7N3O
SMILES: CN1CC(=O)NC1=N
Method: HCD
Collision_energy: [28.333334]
Isolation_window: 4.0
Ion_mode: P
Num Peaks: 13
58.0656	4.7
70.0655	10.7
74.9378	4.2
79.0545	6.3
86.0603	7.7
96.0809	4.7
98.0965	4.1
113.1074	9.5
114.0662	45.1
114.0914	100.0
115.0947	7.7
115.1230	30.4
116.1070	9.4

Name: 2-Isopropyl-6-methyl-4-pyrimidinol
PrecursorMZ: 153.10222
RT: 2.0559
ExactMass: 152.094963011
Spectrum_type: 2
charge: 1
Formula: C8H12N2O
SMILES: CC1=CC(=O)NC(=N1)C(C)C
Method: HCD
Collision_energy: [28.333334]
Isolation_window: 4.0
Ion_mode: P
Num Peaks: 3
123.0916	15.2
135.0915	82.1
153.1020	100.0

Name: 2-Mercaptoethanol
PrecursorMZ: 79.02148
RT: 2.0363
ExactMass: 78.01393598
Spectrum_type: 2
charge: 1
Formula: C2H6OS
SMILES: C(CS)O
Method: HCD
Collision_energy: [28.333334]
Isolation_window: 4.0
Ion_mode: P
Num Peaks: 5
61.0110	26.1
62.0187	5.4
63.9980	80.3
79.0214	100.0
80.0496	75.9

Name: 2-Methoxy-5-Methylaniline
PrecursorMZ: 138.09129
RT: 2.648
ExactMass: 137.084063974
Spectrum_type: 2
charge: 1
Formula: C8H11NO
SMILES: CC1=CC(=C(C=C1)OC)N
Method: HCD
Collision_energy: [28.333334]
Isolation_window: 4.0
Ion_mode: P
Num Peaks: 8
98.0238	7.2
123.0678	7.7
137.0707	4.7
138.0548	10.4
138.0911	100.0
139.0753	4.9
139.0864	16.4
139.0943	10.0

Name: 2-Methoxydecanoic acid
PrecursorMZ: 589.30191
RT: 4.8855
ExactMass: 202.15689456
Spectrum_type: 2
charge: 1
Formula: C11H22O3
SMILES: CCCCCCCCC(C(=O)O)OC
Method: HCD
Collision_energy: [28.333334]
Isolation_window: 4.0
Ion_mode: P
Num Peaks: 121
51.5799	3.6
51.6918	1.4
51.8039	1.3
65.2544	0.6
65.3659	0.9
65.4783	5.6
65.5898	1.9
65.7023	0.8
69.0702	0.5
70.0655	1.0
72.0812	0.6
81.0703	0.8
83.0860	0.6
86.0968	1.6
93.0699	0.5
95.0858	0.7
97.3983	0.6
108.0809	1.0
116.0707	0.8
120.0809	1.0
121.0887	1.6
121.1013	0.6
123.1044	0.5
126.0914	0.6
134.0965	0.6
136.0758	0.6
164.0705	0.5
167.0943	0.9
173.1075	1.0
178.0863	0.6
180.1019	1.9
211.1229	1.6
225.1385	0.8
227.1180	0.6
229.1338	0.8
239.1175	0.8
240.1259	0.5
241.1329	0.5
245.1283	4.4
246.1316	0.5
253.1333	1.3
255.1127	1.3
255.1490	1.5
256.1187	0.5
257.1285	0.8
269.1280	0.7
271.1439	1.9
273.1231	1.4
273.1597	1.3
281.1280	1.4
283.1439	1.6
284.1507	0.9
285.1221	0.6
285.1593	0.9
287.1387	0.8
288.1466	0.7
289.1544	0.6
297.1234	2.4
298.1273	0.5
299.1388	59.2
300.1423	18.3
301.1550	19.0
302.1581	3.4
303.1709	0.9
314.1617	0.8
331.1647	0.5
332.1750	1.4
333.1833	14.5
334.1871	3.6
342.1811	1.0
343.1649	0.8
346.1912	29.4
347.1946	6.8
348.2069	31.3
349.2101	7.2
362.2227	1.5
374.1860	1.2
375.1911	0.5
376.2380	0.7
385.2143	0.9
386.1866	0.7
387.1929	0.9
388.2014	1.2
391.1883	0.5
392.1966	14.2
393.2003	3.2
404.1959	1.8
405.2043	8.9
406.2120	23.5
407.2157	5.3
408.2176	0.7
418.2121	1.1
419.2180	0.5
420.2278	1.4
421.2357	12.9
422.2390	3.3
429.2047	0.9
447.2149	6.6
448.2188	1.8
450.2015	2.1
462.2024	0.7
463.2061	0.5
463.2345	1.4
464.2178	62.3
465.2237	37.8
466.2324	27.9
467.2371	2.2
571.2912	2.3
572.2773	0.9
587.2864	12.8
587.3303	0.5
588.2893	17.6
588.4095	1.4
589.2026	0.7
589.3019	100.0
589.3436	1.5
589.4015	0.7
590.3052	35.8
590.4042	0.5
591.3161	17.2
591.3637	0.8

Name: 2-Methoxyresorcinol
PrecursorMZ: 141.05458
RT: 7.0173
ExactMass: 140.047344113
Spectrum_type: 2
charge: 1
Formula: C7H8O3
SMILES: COC1=C(C=CC=C1O)O
Method: HCD
Collision_energy: [28.333334]
Isolation_window: 4.0
Ion_mode: P
Num Peaks: 5
81.0337	49.4
109.0284	54.8
141.0545	29.1
141.0656	100.0
143.1539	29.9

Name: 2-Methyl-4-methoxyaniline
PrecursorMZ: 138.09133
RT: 1.3302
ExactMass: 137.084063974
Spectrum_type: 2
charge: 1
Formula: C8H11NO
SMILES: CC1=C(C=CC(=C1)OC)N
Method: HCD
Collision_energy: [28.333334]
Isolation_window: 4.0
Ion_mode: P
Num Peaks: 35
79.0545	0.7
84.0810	0.6
91.0544	1.0
93.0700	2.4
94.0652	1.0
95.0730	2.2
95.0856	0.5
96.0444	0.6
96.0809	0.5
110.0600	0.5
110.0964	3.0
111.0440	0.5
112.0756	0.8
118.0650	0.4
122.0599	0.9
123.0678	10.5
124.0391	1.4
124.0710	0.7
136.0213	0.5
136.0755	2.1
136.1119	0.9
137.0249	0.5
137.0594	0.8
137.1072	1.3
138.0547	1.7
138.0911	100.0
138.0998	0.5
138.1021	0.6
138.1276	0.5
139.0752	0.8
139.0864	1.7
139.0944	9.8
139.1226	1.5
140.0703	2.0
140.1067	3.2

Name: 2-Methyl-5-hydroxypyridine
PrecursorMZ: 110.06021
RT: 2.6838
ExactMass: 109.052763847
Spectrum_type: 2
charge: 1
Formula: C6H7NO
SMILES: CC1=NC=C(C=C1)O
Method: HCD
Collision_energy: [28.333334]
Isolation_window: 4.0
Ion_mode: P
Num Peaks: 5
82.0655	2.8
110.0603	100.0
111.0636	6.6
124.0759	27.3
125.0793	1.6

Name: 2-Methyl-8-hydroxyquinoline
PrecursorMZ: 160.07566
RT: 11.009
ExactMass: 159.068413911
Spectrum_type: 2
charge: 1
Formula: C10H9NO
SMILES: CC1=NC2=C(C=CC=C2O)C=C1
Method: HCD
Collision_energy: [28.333334]
Isolation_window: 4.0
Ion_mode: P
Num Peaks: 9
86.0966	12.1
97.4323	4.7
132.0807	4.5
142.1225	9.5
159.1491	10.8
160.0756	100.0
160.9012	7.6
161.0710	5.0
161.0789	13.2

Name: 2-Methylamino-1-(3,4-methylenedioxyphenyl)butan-1-one
PrecursorMZ: 222.11218
RT: 8.4587
ExactMass: 221.10519334
Spectrum_type: 2
charge: 1
Formula: C12H15NO3
SMILES: CCC(C(=O)C1=CC2=C(C=C1)OCO2)NC
Method: HCD
Collision_energy: [28.333334]
Isolation_window: 4.0
Ion_mode: P
Num Peaks: 14
58.0655	10.2
119.0491	7.5
178.1224	11.4
221.0916	27.3
221.1284	20.1
222.1123	100.0
222.1235	14.6
222.1334	7.8
222.1484	8.7
223.1066	24.3
223.1170	10.3
223.1436	18.3
224.0915	14.3
224.1279	16.6

Name: 2-Methylbenzimidazole
PrecursorMZ: 133.07601
RT: 2.0879
ExactMass: 132.068748264
Spectrum_type: 2
charge: 1
Formula: C8H8N2
SMILES: CC1=NC2=CC=CC=C2N1
Method: HCD
Collision_energy: [28.333334]
Isolation_window: 4.0
Ion_mode: P
Num Peaks: 3
133.0760	100.0
134.0713	5.2
134.0793	9.2

Name: 2-Methylimidazole
PrecursorMZ: 83.06067
RT: 2.3554
ExactMass: 82.0530982
Spectrum_type: 2
charge: 1
Formula: C4H6N2
SMILES: CC1=NC=CN1
Method: HCD
Collision_energy: [28.333334]
Isolation_window: 4.0
Ion_mode: P
Num Peaks: 6
56.0499	6.5
81.0531	4.1
83.0606	100.0
84.0639	4.6
84.0810	5.4
84.9115	6.6

Name: 2-Methylpropanal oxime
PrecursorMZ: 88.07594
RT: 1.3021
ExactMass: 87.068413911
Spectrum_type: 2
charge: 1
Formula: C4H9NO
SMILES: CC(C)/C=N/O
Method: HCD
Collision_energy: [28.333334]
Isolation_window: 4.0
Ion_mode: P
Num Peaks: 10
55.0546	4.4
56.0499	1.4
58.0655	1.4
60.0447	1.7
70.0654	9.8
71.0733	1.3
86.0966	0.9
86.9088	4.2
88.0758	100.0
89.0791	4.8

Name: 2-Methylpyrrolidine
PrecursorMZ: 86.0966
RT: 6.7963
ExactMass: 85.089149355
Spectrum_type: 2
charge: 1
Formula: C5H11N
SMILES: CC1CCCN1
Method: HCD
Collision_energy: [28.333334]
Isolation_window: 4.0
Ion_mode: P
Num Peaks: 14
53.0026	5.6
56.0498	9.6
57.0577	21.7
58.0655	9.7
69.0701	100.0
69.7270	4.2
70.0654	4.9
70.0735	4.2
84.0809	51.8
85.0761	6.2
85.0842	6.0
86.0601	15.1
86.0965	94.2
87.0999	5.7

Name: 2-Methylquinoline
PrecursorMZ: 144.08067
RT: 1.2885
ExactMass: 143.073499291
Spectrum_type: 2
charge: 1
Formula: C10H9N
SMILES: CC1=NC2=CC=CC=C2C=C1
Method: HCD
Collision_energy: [28.333334]
Isolation_window: 4.0
Ion_mode: P
Num Peaks: 5
62.9295	11.1
103.9556	10.1
121.9661	96.3
144.0806	100.0
145.0838	10.9

Name: 2-Monolinolenin
PrecursorMZ: 353.268
RT: 1.1559
ExactMass: 352.26135963
Spectrum_type: 2
charge: 1
Formula: C21H36O4
SMILES: CC/C=C\C/C=C\C/C=C\CCCCCCCC(=O)OC(CO)CO
Method: HCD
Collision_energy: [28.333334]
Isolation_window: 4.0
Ion_mode: P
Num Peaks: 52
57.0701	3.5
67.0546	33.6
69.0702	10.1
71.0858	4.5
79.0544	10.6
81.0701	48.2
83.0858	8.0
85.0650	3.5
91.0543	5.1
93.0700	22.4
95.0856	41.7
97.1013	5.9
99.0806	3.9
105.0699	7.6
107.0855	25.7
109.1012	34.3
110.1045	3.4
117.0698	4.6
119.0854	9.1
121.1011	33.1
123.1167	20.0
131.0854	11.7
133.1010	11.1
135.1166	27.1
136.1199	3.0
137.1322	8.3
145.1009	12.4
147.1165	12.8
149.1322	23.0
151.1477	3.0
153.1269	3.3
159.1166	11.9
161.1322	10.2
163.1478	15.3
173.1321	16.0
175.1479	3.8
177.1633	5.3
187.1478	9.7
201.1635	4.1
233.2260	4.2
243.2102	26.5
244.2135	4.2
245.2261	5.5
261.2206	100.0
262.2242	17.4
263.2362	5.3
279.2312	3.5
335.2571	9.7
352.2533	18.3
353.2083	5.1
353.2674	92.1
354.2706	22.0

Name: 2-Morpholinoethanol
PrecursorMZ: 132.10197
RT: 3.4755
ExactMass: 131.094628657
Spectrum_type: 2
charge: 1
Formula: C6H13NO2
SMILES: C1COCCN1CCO
Method: HCD
Collision_energy: [28.333334]
Isolation_window: 4.0
Ion_mode: P
Num Peaks: 5
87.0445	100.0
88.0478	6.5
114.0916	41.0
132.1020	76.2
133.1058	7.0

Name: 2-Nitroaniline
PrecursorMZ: 139.05014
RT: 9.1456
ExactMass: 138.042927438
Spectrum_type: 2
charge: 1
Formula: C6H6N2O2
SMILES: C1=CC=C(C(=C1)N)[N+](=O)[O-]
Method: HCD
Collision_energy: [28.333334]
Isolation_window: 4.0
Ion_mode: P
Num Peaks: 7
120.0475	14.0
121.0396	100.0
121.1012	13.8
138.1276	55.9
139.0500	76.4
139.1228	15.1
140.0704	12.8

Name: 2-O-Glucosyloxy-4-methoxycinnamic acid
PrecursorMZ: 357.12
RT: 4.9013
ExactMass: 356.11073221
Spectrum_type: 2
charge: 1
Formula: C16H20O9
SMILES: COC1=CC(=C(C=C1)/C=C/C(=O)O)O[C@H]2[C@@H]([C@H]([C@@H]([C@H](O2)CO)O)O)O
Method: HCD
Collision_energy: [28.333334]
Isolation_window: 4.0
Ion_mode: P
Num Peaks: 4
309.1794	8.0
357.1197	100.0
358.1229	18.9
359.1193	5.4

Name: 2-O-Methylcytosine
PrecursorMZ: 126.06624
RT: 2.0437
ExactMass: 125.058911855
Spectrum_type: 2
charge: 1
Formula: C5H7N3O
SMILES: COC1=NC=CC(=N1)N
Method: HCD
Collision_energy: [28.333334]
Isolation_window: 4.0
Ion_mode: P
Num Peaks: 12
83.0607	2.6
95.0242	2.3
109.0398	13.4
124.0758	4.4
125.0710	3.0
125.1074	5.3
126.0662	100.0
126.0914	2.9
127.0694	4.6
127.0866	6.2
127.1229	8.2
128.0705	2.9

Name: 2-Octenoyl carnitine
PrecursorMZ: 286.20097
RT: 7.2409
ExactMass: 285.19400834
Spectrum_type: 2
charge: 1
Formula: C15H27NO4
SMILES: CCCCC/C=C/C(=O)O[C@H](CC(=O)[O-])C[N+](C)(C)C
Method: HCD
Collision_energy: [28.333334]
Isolation_window: 4.0
Ion_mode: P
Num Peaks: 8
130.0862	7.2
137.0960	9.0
165.0910	10.9
227.1274	100.0
228.1309	10.2
286.2008	79.8
287.2050	13.2
287.2323	31.2

Name: 2-Oxaspiro(4.5)decan-3-one
PrecursorMZ: 155.10645
RT: 1.1092
ExactMass: 154.099379685
Spectrum_type: 2
charge: 1
Formula: C9H14O2
SMILES: C1CCC2(CC1)CC(=O)OC2
Method: HCD
Collision_energy: [28.333334]
Isolation_window: 4.0
Ion_mode: P
Num Peaks: 15
57.0337	8.8
67.0546	10.1
68.9972	13.7
72.0809	8.9
85.0285	17.4
95.0855	16.4
97.0648	10.9
98.9841	22.3
99.0440	20.6
109.1011	11.5
133.0490	18.2
137.0957	15.2
155.1063	100.0
156.0419	19.8
156.1093	12.1

Name: 2-Palmitoyl-sn-glycero-3-phosphocholine
PrecursorMZ: 496.33956
RT: 4.8566
ExactMass: 495.33248993
Spectrum_type: 2
charge: 1
Formula: C24H50NO7P
SMILES: CCCCCCCCCCCCCCCC(=O)O[C@H](CO)COP(=O)([O-])OCC[N+](C)(C)C
Method: HCD
Collision_energy: [28.333334]
Isolation_window: 4.0
Ion_mode: P
Num Peaks: 73
55.1492	1.4
57.0703	0.4
58.0651	0.4
60.0812	2.5
67.0547	0.6
69.0703	0.6
70.0655	0.5
71.0733	0.5
71.0859	0.5
72.0811	0.4
81.0702	1.2
83.0858	0.4
84.0811	0.5
85.0652	0.4
85.1014	0.3
86.0967	9.6
87.1001	0.5
93.0703	0.5
95.0858	1.1
97.3994	0.7
99.0808	0.5
102.0551	0.4
104.1072	41.0
105.1105	2.0
107.0858	0.4
109.1014	0.5
110.0602	0.4
111.0443	0.4
116.0707	0.6
119.0857	0.4
120.0445	0.4
124.9999	4.0
131.0702	0.8
133.1014	0.4
137.0597	0.4
145.1016	0.4
163.0155	0.4
175.0754	1.2
184.0563	0.7
184.0596	0.5
184.0733	100.0
184.0867	0.5
184.0902	0.7
185.0767	4.6
186.0777	0.4
201.0544	0.3
219.0651	0.6
244.0965	0.6
258.1099	0.6
259.0962	2.3
313.2735	1.2
314.2773	0.3
416.2789	0.4
441.2993	0.3
453.3432	0.9
459.3107	0.5
477.3199	0.5
478.3288	2.9
479.3332	0.9
481.2808	0.5
495.1396	0.4
495.2354	0.5
495.3319	0.6
496.1604	1.5
496.2061	0.5
496.2418	0.4
496.3396	27.5
497.1603	0.4
497.2373	0.8
497.2460	0.3
497.3425	7.5
498.2171	0.4
498.3446	0.8

Name: 2-Palmitoylaminoproprionic acid
PrecursorMZ: 328.28418
RT: 0.5412
ExactMass: 327.27734404
Spectrum_type: 2
charge: 1
Formula: C19H37NO3
SMILES: CCCCCCCCCCCCCCCC(=O)NC(C)C(=O)O
Method: HCD
Collision_energy: [28.333334]
Isolation_window: 4.0
Ion_mode: P
Num Peaks: 171
56.0500	1.7
57.0703	11.3
58.0656	2.3
59.0496	4.2
60.0449	13.2
67.0547	5.6
69.0339	0.9
69.0703	6.9
70.0656	1.2
71.0496	1.0
71.0859	10.5
72.0449	1.7
72.0812	0.8
73.0653	1.0
74.0518	0.8
74.0604	100.0
75.0637	3.1
76.0395	0.8
79.0546	1.6
81.0339	1.0
81.0702	7.1
83.0496	0.9
83.0859	6.8
84.0812	0.6
85.0652	2.3
85.1015	7.6
86.0603	1.7
86.0968	2.0
87.0444	1.3
87.0807	1.5
88.0761	1.4
89.0600	14.1
90.0634	0.7
91.0544	4.1
93.0702	3.9
95.0494	0.9
95.0858	13.3
96.0892	0.7
97.0650	2.5
97.1014	4.3
98.9844	7.1
99.0443	0.8
99.0807	1.2
99.1172	0.8
100.0759	0.7
101.0600	0.8
103.0757	1.9
105.0700	1.5
107.0704	1.2
107.0857	5.5
109.0652	0.9
109.1014	8.7
110.1047	0.9
111.0443	1.0
111.0806	2.1
111.1171	1.9
113.0599	1.2
119.0856	2.1
121.0649	1.1
121.1013	6.3
122.1050	0.7
123.0805	1.0
123.1170	3.2
124.0759	0.8
125.0963	1.7
130.0863	0.8
132.0446	1.3
133.0860	4.9
133.1011	2.3
135.0441	0.7
135.0809	0.8
135.1168	15.8
136.1204	1.6
137.0960	1.1
137.1327	1.5
138.0910	0.9
139.1118	0.7
147.0807	1.4
147.1167	1.4
149.0601	0.7
149.0963	1.5
149.1325	2.9
151.0756	0.7
151.0967	3.6
151.1115	0.7
151.1485	0.7
153.0914	0.7
153.1274	4.0
159.1171	0.7
161.1324	0.9
163.0755	0.8
164.0703	2.2
171.1379	2.6
173.1328	0.7
174.9923	1.4
175.1477	0.8
177.1133	0.8
190.0858	0.9
191.1793	11.7
192.1829	1.9
195.1224	1.4
208.0975	0.7
209.1894	1.5
219.1135	1.1
227.2001	0.9
231.1132	0.9
233.1294	0.7
240.2685	2.0
255.1134	2.0
256.0960	0.8
257.1282	3.1
267.1131	1.3
269.1282	7.5
271.1442	0.6
271.2623	1.3
280.2516	0.8
280.2613	0.8
282.2789	2.0
284.2946	0.7
285.1244	0.8
287.1379	1.1
291.1334	4.6
292.1377	0.9
294.2788	0.9
297.1233	1.7
298.2738	0.6
299.1388	1.6
300.1447	1.0
300.2899	0.8
301.1540	1.3
301.2902	0.7
302.3054	1.2
310.2743	0.8
310.3103	0.9
312.2891	0.9
314.0415	1.3
315.1341	2.7
319.2823	2.2
326.3049	1.3
326.3777	3.9
327.1340	1.0
327.3818	1.7
328.2846	13.9
328.3202	1.3
329.0653	3.7
329.1487	1.3
329.2863	3.2
330.0368	2.4
330.3002	12.2
330.3356	0.7
331.1651	2.5
331.3027	2.8
332.3316	7.3
333.1472	1.0
333.3342	2.1
335.2819	2.1
336.3120	14.9
337.3148	3.3
338.3451	1.3
341.1511	0.7
342.1403	1.2
342.3023	0.9
342.3740	0.7
343.1276	1.3
343.1657	0.8
344.3173	1.1
345.0601	7.0
345.1446	1.8
346.0641	1.3
346.3317	2.3
347.1604	4.5

Name: 2-Palmitoylglycerol
PrecursorMZ: 331.28391
RT: 2.99
ExactMass: 330.27700969
Spectrum_type: 2
charge: 1
Formula: C19H38O4
SMILES: CCCCCCCCCCCCCCCC(=O)OC(CO)CO
Method: HCD
Collision_energy: [28.333334]
Isolation_window: 4.0
Ion_mode: P
Num Peaks: 7
57.0703	81.0
71.0858	63.7
81.0702	46.9
95.0856	56.6
109.1012	46.3
146.0600	47.7
313.2730	100.0

Name: 2-Pentanamido-3-phenylpropanoic acid
PrecursorMZ: 250.14363
RT: 2.374633333333333
ExactMass: 249.13649347
Spectrum_type: 2
charge: 1
Formula: C14H19NO3
SMILES: CCCCC(=O)NC(CC1=CC=CC=C1)C(=O)O
Method: HCD
Collision_energy: [28.333334]
Isolation_window: 4.0
Ion_mode: P
Num Peaks: 6
57.0703	9.8
85.0651	12.1
120.0808	100.0
166.0863	68.8
249.1577	7.1
250.1436	14.6

Name: 2-Propenal, 3-(2-(3,4-dihydroxyphenyl)-2,3-dihydro-3-(hydroxymethyl)-1,4-benzodioxin-6-yl)-
PrecursorMZ: 329.10111
RT: 4.5086
ExactMass: 328.09468823
Spectrum_type: 2
charge: 1
Formula: C18H16O6
SMILES: C1=CC2=C(C=C1/C=C/C=O)OC(C(O2)C3=CC(=C(C=C3)O)O)CO
Method: HCD
Collision_energy: [28.333334]
Isolation_window: 4.0
Ion_mode: P
Num Peaks: 46
69.2312	10.2
70.0653	14.4
72.0810	18.5
81.0336	6.9
81.0699	10.8
83.0857	6.1
84.0809	5.6
86.0965	25.5
93.0699	7.4
95.0855	7.9
97.4571	7.4
107.0489	5.9
107.0854	7.7
112.0756	29.2
116.0704	10.2
121.0646	7.0
121.1010	7.5
136.0753	29.6
165.0540	10.7
182.0807	19.1
185.1643	16.3
213.1590	15.2
223.0746	10.3
241.0849	8.0
251.0694	100.0
252.0726	16.2
255.1008	8.5
265.0844	9.2
269.0800	83.4
270.0836	12.5
283.0951	9.1
291.1948	10.0
293.0793	45.5
294.0830	8.3
301.1053	6.3
311.0894	20.7
327.1344	6.8
328.1155	14.4
328.1864	14.9
329.0992	12.5
329.1459	18.9
329.1493	13.9
330.0950	8.8
330.1311	17.8
331.1283	9.3
331.1640	19.1

Name: 2-Propylpiperidine
PrecursorMZ: 128.14317
RT: 8.4493
ExactMass: 127.136099547
Spectrum_type: 2
charge: 1
Formula: C8H17N
SMILES: CCCC1CCCCN1
Method: HCD
Collision_energy: [28.333334]
Isolation_window: 4.0
Ion_mode: P
Num Peaks: 8
57.0702	9.9
69.0701	31.5
74.0966	8.8
88.1121	9.4
128.1431	100.0
129.1383	13.0
129.1463	12.5
130.1587	51.7

Name: 2-Pyridineethanamine
PrecursorMZ: 123.09179
RT: 1.4017
ExactMass: 122.084398327
Spectrum_type: 2
charge: 1
Formula: C7H10N2
SMILES: C1=CC=NC(=C1)CCN
Method: HCD
Collision_energy: [28.333334]
Isolation_window: 4.0
Ion_mode: P
Num Peaks: 12
82.0655	3.3
96.0811	0.4
107.0732	0.5
122.0966	5.2
123.0800	0.5
123.0821	0.7
123.0918	100.0
123.0992	0.9
123.1007	0.5
124.0886	0.7
124.0951	7.8
124.0989	0.4

Name: 2-acetamido-3-(1,3-benzodioxol-5-yl)-N-(phenylmethyl)-2-propenamide
PrecursorMZ: 361.11561
RT: 5.5569
ExactMass: 338.12665706
Spectrum_type: 2
charge: 1
Formula: C19H18N2O4
SMILES: CC(=O)NC(=CC1=CC2=C(C=C1)OCO2)C(=O)NCC3=CC=CC=C3
Method: HCD
Collision_energy: [28.333334]
Isolation_window: 4.0
Ion_mode: P
Num Peaks: 23
69.2783	1.9
70.0654	1.9
81.0701	1.9
86.0966	2.6
95.0856	2.3
107.0856	2.2
114.0914	2.7
121.1012	1.9
133.1011	1.8
198.1123	2.4
230.1208	4.2
360.1075	10.7
360.1438	3.8
360.1648	4.7
360.2541	2.1
361.1155	100.0
361.1350	3.1
361.2367	2.5
362.1192	18.1
362.2412	17.1
362.2678	2.6
363.1132	4.7
363.2437	2.1

Name: 2-chloro-N-(2-(1H-imidazol-4-yl)ethyl)-5-(2-methylpropyl)-1,3-thiazole-4-carboxamide
PrecursorMZ: 313.08821
RT: 6.3356
ExactMass: 312.08116
Spectrum_type: 2
charge: 1
Formula: C13H17ClN4OS
SMILES: CC(C)CC1=C(N=C(S1)Cl)C(=O)NCCC2=CN=CN2
Method: HCD
Collision_energy: [28.333334]
Isolation_window: 4.0
Ion_mode: P
Num Peaks: 26
56.0499	34.2
70.0654	13.2
74.0603	32.8
84.0811	13.4
157.0606	47.3
166.0535	18.1
166.0974	11.2
168.0651	12.8
185.0918	57.7
221.0586	32.2
231.0786	12.0
249.0898	63.6
295.0773	14.0
296.1115	13.2
311.1596	19.4
312.1062	17.3
312.1421	20.9
312.1788	18.0
313.0881	99.4
313.1176	22.9
313.1388	16.1
314.0901	13.3
314.1221	57.1
314.1403	12.9
314.3411	12.3
315.1907	100.0

Name: 2-ethoxy-N-(3-methyl-1-(4-oxo-4,5,6,7-tetrahydro-3H-cyclopenta(d)pyrimidin-2-yl)-1H-pyrazol-5-yl)acetamide
PrecursorMZ: 318.15578
RT: 8.0451
ExactMass: 317.14878949
Spectrum_type: 2
charge: 1
Formula: C15H19N5O3
SMILES: CCOCC(=O)NC1=CC(=NN1C2=NC3=C(CCC3)C(=O)N2)C
Method: HCD
Collision_energy: [28.333334]
Isolation_window: 4.0
Ion_mode: P
Num Peaks: 18
114.0663	100.0
115.0697	3.4
188.0704	4.2
205.0974	2.1
276.1337	1.8
300.1440	2.1
302.1237	2.6
317.1155	1.6
317.1500	7.1
317.1706	2.5
318.1336	4.6
318.1556	27.2
318.1702	1.9
319.1287	3.0
319.1654	5.6
320.1335	8.8
320.1498	2.9
320.1844	4.6

Name: 2-heptylhexanedioic Acid
PrecursorMZ: 289.13895
RT: 8.1825
ExactMass: 244.16745924
Spectrum_type: 2
charge: 1
Formula: C13H24O4
SMILES: CCCCCCCC(CCCC(=O)O)C(=O)O
Method: HCD
Collision_energy: [28.333334]
Isolation_window: 4.0
Ion_mode: P
Num Peaks: 10
121.0759	3.1
146.0922	18.5
181.0969	5.5
199.1074	14.4
271.1286	4.7
288.1062	3.1
288.1195	6.7
289.1389	100.0
290.1166	34.4
290.1346	14.7

Name: 2-hydroxy-N-phenylpropanamide
PrecursorMZ: 166.08621
RT: 8.0125
ExactMass: 165.078978594
Spectrum_type: 2
charge: 1
Formula: C9H11NO2
SMILES: CC(C(=O)NC1=CC=CC=C1)O
Method: HCD
Collision_energy: [28.333334]
Isolation_window: 4.0
Ion_mode: P
Num Peaks: 11
73.0652	2.0
96.0445	6.7
96.9953	2.9
120.0807	2.3
123.0110	10.8
148.0792	4.6
166.0856	25.6
167.0895	2.8
167.1543	1.9
168.0688	100.0
168.1017	8.0

Name: 2-methoxy-4-acetylphenol 1-O-alpha-rhamnopyranosyl-(1''->6')-beta-glucopyranoside
PrecursorMZ: 497.16241
RT: 7.145
ExactMass: 474.17372639
Spectrum_type: 2
charge: 1
Formula: C21H30O12
SMILES: C[C@H]1[C@@H]([C@H]([C@H]([C@@H](O1)OC[C@@H]2[C@H]([C@@H]([C@H]([C@@H](O2)OC3=C(C=C(C=C3)C(=O)C)OC)O)O)O)O)O)O
Method: HCD
Collision_energy: [28.333334]
Isolation_window: 4.0
Ion_mode: P
Num Peaks: 9
55.2406	4.7
84.0810	5.2
126.0550	4.4
276.1074	3.7
313.1172	4.4
453.3426	4.0
497.1624	100.0
498.1657	17.4
499.1624	6.1

Name: 2-methoxy-6-methyl-5-(phenylmethoxy)-2H-3,4,5,6-tetrahydropyran-3,4-diol
PrecursorMZ: 291.12038
RT: 1.5505
ExactMass: 268.13107373
Spectrum_type: 2
charge: 1
Formula: C14H20O5
SMILES: CC1C(C(C(C(O1)OC)O)O)OCC2=CC=CC=C2
Method: HCD
Collision_energy: [28.333334]
Isolation_window: 4.0
Ion_mode: P
Num Peaks: 11
122.0602	3.8
138.0913	4.1
150.0549	5.9
169.0858	4.1
289.1542	4.9
290.1579	3.5
291.0878	3.3
291.1202	100.0
291.1325	2.8
292.1236	12.0
293.1172	5.9

Name: 2-methoxyethyl 2-amino-7,7-dimethyl-5-oxo-4-(pyridin-3-yl)-5,6,7,8-tetrahydro-4H-chromene-3-carboxylate
PrecursorMZ: 373.1753
RT: 6.5158
ExactMass: 372.16852187
Spectrum_type: 2
charge: 1
Formula: C20H24N2O5
SMILES: CC1(CC2=C(C(C(=C(O2)N)C(=O)OCCOC)C3=CN=CC=C3)C(=O)C1)C
Method: HCD
Collision_energy: [28.333334]
Isolation_window: 4.0
Ion_mode: P
Num Peaks: 13
55.0546	3.8
83.0493	2.5
101.0597	9.1
209.1068	12.5
227.1173	3.4
255.1123	45.7
256.1158	6.9
273.1231	4.2
372.1427	2.3
373.1752	100.0
374.1566	3.0
374.1778	21.8
375.1893	3.4

Name: 2-methoxyethyl N-(3-aminophenyl)carbamate
PrecursorMZ: 211.10756
RT: 8.9218
ExactMass: 210.10044231
Spectrum_type: 2
charge: 1
Formula: C10H14N2O3
SMILES: COCCOC(=O)NC1=CC=CC(=C1)N
Method: HCD
Collision_energy: [28.333334]
Isolation_window: 4.0
Ion_mode: P
Num Peaks: 22
87.0444	2.4
96.0446	3.3
101.0598	3.0
110.0601	3.8
110.0838	4.1
123.0916	4.9
124.0754	2.5
151.0864	3.7
152.0818	2.4
165.1133	2.6
168.1130	3.6
194.0921	4.4
210.1122	21.9
210.1324	2.6
211.1075	100.0
211.1179	9.1
211.1431	3.5
212.0914	19.6
212.1027	17.0
212.1111	7.8
212.1281	7.0
213.1232	2.0

Name: 2-oxo-1H,2H,5H,6H,7H-cyclopenta(b)pyridine-3-carbonitrile
PrecursorMZ: 161.07081
RT: 2.4292
ExactMass: 160.063662883
Spectrum_type: 2
charge: 1
Formula: C9H8N2O
SMILES: C1CC2=C(C1)NC(=O)C(=C2)C#N
Method: HCD
Collision_energy: [28.333334]
Isolation_window: 4.0
Ion_mode: P
Num Peaks: 14
55.0545	2.1
60.0811	6.7
69.7277	2.3
98.0965	5.2
101.0597	10.4
134.0599	3.6
160.0755	30.0
160.0966	14.1
160.1329	32.4
161.0604	8.6
161.0707	100.0
161.0780	2.9
161.1366	2.2
162.0739	10.0

Name: 20-Oxopregnane-3,12-diyl diacetate
PrecursorMZ: 319.12827
RT: 1.3661
ExactMass: 418.27192431
Spectrum_type: 2
charge: 1
Formula: C25H38O5
SMILES: CC(=O)C1CCC2C1(C(CC3C2CCC4C3(CCC(C4)OC(=O)C)C)OC(=O)C)C
Method: HCD
Collision_energy: [28.333334]
Isolation_window: 4.0
Ion_mode: P
Num Peaks: 190
58.0655	0.9
69.0339	1.2
69.0703	0.7
70.0655	8.5
72.0812	3.4
74.0604	0.9
80.0497	0.8
81.0339	4.1
81.0702	0.9
82.0655	0.7
83.0495	1.1
83.0858	0.8
84.0447	2.2
84.0811	4.9
86.0603	0.7
86.0967	6.1
95.0494	0.8
95.0856	0.7
96.0445	1.0
96.0810	1.4
97.0285	1.1
98.0602	5.0
98.0965	1.2
99.0441	0.8
100.0758	0.7
110.0603	1.6
110.0714	0.8
111.0442	3.9
112.0760	1.3
112.1122	0.8
113.0595	0.9
114.0549	0.8
114.0917	1.0
116.0707	4.7
118.0862	0.9
120.0809	4.1
121.0649	1.4
122.0602	2.8
122.0712	1.8
124.0757	25.8
125.0792	2.2
126.0550	3.1
126.0913	14.0
127.0947	1.2
128.0709	1.1
128.1073	1.2
130.0652	3.5
130.0860	1.6
132.1020	1.5
136.0756	8.9
138.0551	1.1
138.0913	6.7
139.0967	1.0
140.0709	1.2
144.0809	1.1
144.1020	0.9
145.0317	0.9
146.0598	1.9
148.0756	3.2
150.0551	3.8
150.0911	1.6
152.0706	3.5
154.0861	2.7
158.1176	1.8
161.1074	1.7
162.0550	0.7
164.0706	87.0
164.1066	1.6
165.0742	8.6
166.0865	6.0
167.0900	0.8
168.0650	1.7
168.1018	2.0
170.0813	0.9
173.1292	0.8
175.0865	0.8
176.0702	0.7
178.0853	1.6
178.1226	0.8
179.1180	0.8
180.0651	2.7
180.1018	1.3
181.0971	1.3
182.0811	100.0
182.1150	1.0
183.0846	9.8
183.1485	0.9
187.1441	1.0
188.0700	1.0
190.0861	0.8
192.0653	1.1
194.0809	4.1
196.0963	1.0
197.1289	0.8
198.0747	0.8
198.0881	1.4
204.1026	1.0
206.0810	0.8
207.1129	1.0
208.0962	1.3
210.1116	1.9
211.0866	5.6
211.1071	0.7
211.1432	1.5
212.0901	1.7
212.1267	1.0
213.1231	3.2
214.1072	0.8
215.1393	0.7
217.0970	0.7
217.1187	0.8
220.1188	2.1
221.0921	0.8
222.1118	1.1
223.0862	0.8
223.1087	0.8
224.1271	1.0
232.0964	0.8
241.0973	0.8
245.1280	0.7
249.1223	1.2
250.1068	2.6
258.1345	3.3
259.1080	0.8
259.1422	0.8
263.1385	1.0
264.1229	0.8
267.1336	3.1
272.1400	0.9
273.1605	1.0
274.1071	1.7
281.1497	1.4
285.1215	1.2
287.1391	2.1
288.1233	0.8
289.1537	2.2
291.1342	0.8
292.1173	3.2
301.1187	6.9
301.1541	1.4
302.1203	0.8
303.1332	1.4
304.1135	1.0
305.1493	2.0
306.1317	1.4
307.1282	1.5
307.1647	1.3
308.1605	2.6
310.1305	0.9
317.1133	0.8
317.1492	2.0
318.1364	2.9
319.1285	11.1
319.1652	3.8
320.1143	1.5
320.1475	2.9
321.1463	4.1
321.1808	1.3
321.2167	0.8
322.1316	2.5
322.1756	3.2
323.1605	5.4
324.1463	2.5
325.1452	2.0
325.1794	2.4
326.1698	3.4
326.2081	0.8
327.1265	2.9
327.1668	2.8
328.1193	2.1
328.1562	1.2
329.1145	0.9
329.1485	2.7
329.1836	1.1
330.1297	1.9
330.2069	1.2
331.1335	1.2
331.1670	1.5
332.1073	1.4
332.1521	1.5
333.1447	3.3
333.1799	1.7
334.1245	2.2
334.1852	4.2
335.1252	0.9
335.1608	2.7
336.1677	3.1
337.1386	1.3
337.1783	2.8
338.1761	1.3

Name: 21-Hydroxy-10-methoxy-1,4,14,19,19-pentamethyl-2,7,18-trioxapentacyclo)11.9.0.03,11.05,9.014,20(docosa-3(11),4,9-triene-8,17-dione
PrecursorMZ: 467.20425
RT: 1.4385
ExactMass: 444.21480336
Spectrum_type: 2
charge: 1
Formula: C25H32O7
SMILES: CC1=C2COC(=O)C2=C(C3=C1OC4(CC(C5C(OC(=O)CCC5(C4C3)C)(C)C)O)C)OC
Method: HCD
Collision_energy: [28.333334]
Isolation_window: 4.0
Ion_mode: P
Num Peaks: 194
51.9128	3.7
59.0609	8.2
60.0813	8.0
67.0547	7.7
69.0340	4.2
69.0704	8.1
70.0656	32.4
71.0496	3.6
71.0859	3.2
72.0813	16.2
73.0289	7.8
79.0547	3.9
81.0339	8.3
81.0703	13.4
83.0496	4.3
83.0860	5.5
84.0450	3.5
84.0812	17.3
85.0289	23.3
85.0653	5.3
86.0604	9.4
86.0969	39.8
87.0445	14.4
89.0601	86.3
90.0635	3.6
91.0544	3.4
93.0702	7.9
95.0495	5.0
95.0859	13.6
96.0447	4.6
96.0811	2.8
97.0650	4.2
97.1013	3.6
98.0604	5.6
98.0968	4.0
99.0443	4.1
99.0807	4.3
100.0760	2.7
103.0394	3.0
104.1073	94.5
105.0701	6.3
105.1105	3.9
107.0858	10.3
109.0651	2.7
109.1015	10.1
110.0603	4.4
110.0716	9.8
111.0443	9.2
112.0761	5.3
112.0872	2.5
113.0601	2.7
114.0915	3.2
116.0709	22.3
119.0859	6.4
120.0810	10.0
121.0651	4.1
121.1014	9.2
122.0602	3.5
123.0556	6.9
123.0807	4.3
123.1173	4.4
124.0756	9.2
125.0600	2.6
125.0962	5.0
126.0914	6.1
128.0707	3.8
129.1022	4.5
130.0502	2.9
130.0863	8.1
131.0704	3.2
131.0854	4.5
132.1021	2.6
133.0861	46.3
133.1008	7.0
134.0893	3.0
135.0805	3.8
135.1173	5.4
136.0758	6.1
137.0599	4.3
137.0964	3.5
138.0914	7.4
139.1119	2.7
141.0658	7.9
144.1022	4.0
145.1012	6.4
147.0796	3.0
147.1172	6.3
148.0756	3.8
149.0965	3.6
149.1329	3.0
150.0907	4.7
151.0756	3.3
151.1119	2.9
152.0707	5.1
154.0864	9.9
156.0769	8.0
157.1000	3.5
159.1170	5.5
161.0958	2.9
161.1328	4.5
164.0706	9.9
164.1069	5.0
165.0910	8.3
166.0859	7.9
167.0824	3.0
168.0677	2.6
169.0992	3.0
171.1142	4.9
173.0951	2.8
173.1317	3.3
177.1131	11.1
180.1015	8.2
181.0985	2.8
182.0811	8.6
183.1158	3.2
184.0735	28.1
185.1317	2.6
187.1104	4.4
187.1476	3.4
193.0975	3.2
195.1133	3.1
197.1295	5.1
201.1263	3.0
209.1299	3.1
211.1467	2.9
213.1231	7.0
215.1401	7.6
216.1228	2.6
221.1356	3.6
229.1333	3.4
229.1558	5.7
257.1288	8.4
271.1077	4.7
271.1427	3.0
273.1237	4.1
277.2163	2.7
283.1736	3.1
285.1232	5.2
285.1945	2.5
287.1385	8.9
289.1538	3.1
299.1390	11.8
301.1545	11.8
303.1341	8.8
315.1337	7.8
327.2035	2.6
334.1541	2.6
335.1621	2.8
343.1340	3.8
343.1615	4.5
344.1690	14.5
345.1397	14.4
345.2131	11.3
346.1433	3.5
348.1698	2.6
359.1578	4.2
390.1817	2.6
394.1763	2.9
404.2815	3.6
406.1741	7.6
408.1918	19.0
409.1960	5.1
450.2764	3.0
452.1826	2.8
459.2803	22.3
460.2846	5.0
466.1903	19.4
467.2066	100.0
468.2091	49.2
468.3109	7.5
469.2162	11.2
469.2920	9.8
470.2310	8.2
470.3096	4.4
471.2658	5.3
472.2491	4.8
472.3282	11.1
473.2537	3.5
474.2114	2.6
474.3442	5.1
475.2497	3.3
476.2470	3.7
476.3101	8.3
477.2640	5.9
478.3043	3.0
479.2333	3.4
480.2058	5.2
480.3046	2.9
481.2052	3.8
481.2675	3.4
482.2327	7.7
483.1854	9.4
483.2460	2.7
484.1831	3.3

Name: 21345 1
PrecursorMZ: 371.22675
RT: 2.7489
Spectrum_type: 2
charge: 1
Method: HCD
Collision_energy: [28.333334]
Isolation_window: 4.0
Ion_mode: P
Num Peaks: 20
69.3987	1.6
70.0654	2.2
86.0966	3.3
87.0443	4.0
89.0598	100.0
90.0632	3.4
107.0703	1.9
112.0756	1.7
126.0913	2.6
133.0857	51.6
134.0890	3.0
140.1431	3.3
177.1119	16.4
178.1153	2.0
221.1380	2.1
283.1739	1.9
327.1997	2.5
370.2111	1.6
371.2268	19.1
372.2290	5.7

Name: 22-Hydoxy-2-hopen-1-one
PrecursorMZ: 441.37209
RT: 1.11735
ExactMass: 440.36543077
Spectrum_type: 2
charge: 1
Formula: C30H48O2
SMILES: C[C@]12CC[C@@H]([C@@H]1CC[C@@]3([C@@H]2CC[C@H]4[C@]3(CCC5[C@@]4(C(=O)C=CC5(C)C)C)C)C)C(C)(C)O
Method: HCD
Collision_energy: [28.333334]
Isolation_window: 4.0
Ion_mode: P
Num Peaks: 145
55.0545	2.9
57.0702	2.8
59.0495	12.4
67.0546	10.5
69.0702	12.6
69.3592	5.3
69.7627	4.4
71.0858	2.6
79.0544	3.8
81.0701	33.4
82.0733	2.5
83.0857	8.2
89.0599	6.9
91.0543	3.7
93.0700	17.1
95.0856	100.0
96.0889	6.4
97.1012	6.0
97.4576	4.1
99.0804	3.1
105.0699	12.7
107.0856	42.5
108.0888	2.8
109.1012	60.5
110.1046	4.0
111.0805	36.2
111.1168	3.6
112.0837	2.7
117.0910	6.0
119.0855	24.4
120.0888	2.4
121.1011	38.9
122.1044	4.4
123.1168	30.4
125.0961	4.1
131.0854	6.4
133.0857	2.6
133.1010	26.3
134.1043	3.0
135.1167	42.9
136.1200	5.4
137.0958	3.3
137.1323	13.3
139.1115	17.9
139.9144	4.9
145.1010	10.9
147.1167	22.7
149.0960	4.3
149.1323	35.1
150.1357	3.1
151.0752	3.8
151.1116	5.0
151.1480	2.8
153.1272	4.0
159.1167	16.2
161.1323	34.1
162.1357	3.5
163.1116	3.0
163.1480	42.5
164.1513	4.2
165.0908	80.1
165.1273	7.5
171.1166	3.0
173.1323	15.1
175.1479	28.2
176.1513	3.4
177.0908	3.8
177.1271	3.1
177.1635	27.9
178.1671	4.1
185.1322	3.4
187.1478	15.6
189.1635	25.9
190.1669	4.3
191.1064	3.3
191.1427	2.6
191.1791	14.9
193.1583	11.9
195.1741	23.4
196.1775	3.0
199.1479	4.0
201.1635	22.5
202.1670	4.3
203.1059	4.6
203.1791	46.2
204.1826	7.3
205.1221	5.6
205.1584	4.3
205.1947	3.8
207.1741	15.7
208.1773	2.6
213.1636	6.7
215.1791	27.6
216.1825	3.6
217.1947	19.7
218.1980	3.1
219.1739	19.1
220.1774	2.7
221.1896	20.4
222.1928	2.6
227.1791	12.0
229.1947	31.6
230.1980	4.7
231.2104	2.9
233.1896	18.4
234.1929	3.1
235.2052	3.0
240.8660	2.4
241.1949	4.8
243.2105	7.8
245.1892	5.5
247.2052	20.8
248.2087	5.1
255.2102	7.9
257.2257	9.6
258.2296	2.4
259.2049	4.0
261.2208	6.1
267.2110	2.4
269.2259	8.8
271.2417	3.7
273.2205	4.8
275.2364	7.1
283.2416	6.3
285.2209	2.7
287.2364	7.1
301.2522	4.9
313.2523	2.9
329.2831	3.7
365.3195	4.5
369.3145	4.2
383.3305	6.0
405.3508	8.3
406.3535	3.0
411.3608	5.7
423.3613	79.6
424.3646	22.5
425.3094	5.1
425.3406	8.9
425.3691	2.4
441.3371	3.8
441.3719	93.1
442.3753	30.4
443.3506	11.6
443.3795	3.5

Name: 25S-Inokosterone
PrecursorMZ: 503.29806
RT: 5.0994
ExactMass: 480.30870374
Spectrum_type: 2
charge: 1
Formula: C27H44O7
SMILES: C[C@@H](CC[C@H]([C@@](C)([C@H]1CC[C@@]2([C@@]1(CC[C@H]3C2=CC(=O)[C@H]4[C@@]3(C[C@@H]([C@@H](C4)O)O)C)C)O)O)O)CO
Method: HCD
Collision_energy: [28.333334]
Isolation_window: 4.0
Ion_mode: P
Num Peaks: 31
51.8084	3.6
51.9199	1.3
53.8096	1.4
55.8092	1.4
55.8108	5.3
55.9223	2.0
87.0443	2.9
89.0599	4.2
91.0543	2.5
129.0697	1.8
131.0854	10.6
132.0888	1.2
133.0859	2.3
171.1166	39.0
172.1200	5.2
176.8750	3.9
189.1272	1.1
233.1171	3.6
250.1587	2.1
260.1648	1.4
262.1586	6.8
263.1622	1.3
466.2734	67.4
467.2767	25.2
468.2798	4.2
484.2838	27.2
485.2872	11.4
486.2915	1.2
502.2945	100.0
503.2978	38.5
504.3009	6.4

Name: 2H-(1,6)Dioxacycloundecino(2,3,4-gh)pyrrolizine-2,6(3H)-dione, 4,5,8,10,12,13,13a,13b-octahydro-3,4-dihydroxy-3,4,5-trimethyl-, 11-oxide
PrecursorMZ: 342.15467
RT: 5.6095
ExactMass: 341.14745207
Spectrum_type: 2
charge: 1
Formula: C16H23NO7
SMILES: CC1C(=O)OCC2=CC[N+]3(C2C(CC3)OC(=O)C(C1(C)O)(C)O)[O-]
Method: HCD
Collision_energy: [28.333334]
Isolation_window: 4.0
Ion_mode: P
Num Peaks: 128
69.0340	2.8
69.0703	2.7
70.0656	56.5
71.0689	2.0
72.0812	1.2
80.0498	1.5
81.0339	4.2
83.0494	1.4
84.0812	2.9
86.0968	2.1
95.0131	0.9
95.0494	2.2
96.0811	13.4
97.0287	8.4
97.0845	1.4
99.0443	1.3
108.0446	1.6
108.0811	3.6
110.0716	2.7
110.0967	1.1
111.0443	4.1
112.0759	3.3
113.1076	5.8
114.0916	21.1
115.0392	3.5
115.0755	1.3
115.0949	2.2
120.0810	11.0
121.0286	3.3
122.0966	3.2
123.0442	22.3
124.0476	1.5
125.0234	1.3
126.0914	1.4
136.0758	1.7
138.0914	6.1
143.0340	3.2
146.0967	5.3
147.0442	1.1
148.0759	3.4
150.0915	31.3
151.0947	2.5
156.1020	2.3
162.0916	2.2
163.0866	2.2
164.1069	1.3
165.0547	7.1
166.0865	0.9
170.0925	4.7
174.0916	6.1
176.0706	1.4
177.0548	1.9
180.1020	2.7
181.0973	6.9
184.0968	1.9
186.0915	1.4
189.0547	4.8
191.0702	4.6
192.1021	5.5
194.0814	0.9
198.0913	1.5
201.1232	1.5
202.1074	3.1
209.0810	1.6
209.1649	26.3
210.1126	21.4
210.1684	5.0
211.1156	2.3
212.0919	1.4
216.1022	1.5
219.0653	6.9
226.1915	3.5
227.1754	10.7
227.1949	1.1
228.1599	1.4
228.1790	2.2
235.1192	5.0
237.0758	16.4
238.0790	1.7
240.1232	1.5
249.1233	1.3
255.0866	1.1
264.1230	3.9
276.1229	3.2
282.1337	3.5
288.1230	1.9
306.1335	5.3
322.2489	33.9
323.1612	1.9
323.2523	13.5
324.1441	31.4
324.1927	2.3
324.2563	1.4
325.1418	1.6
325.1479	4.4
326.1613	1.6
340.1379	1.3
340.1759	1.3
340.1979	1.2
340.2595	59.9
340.3937	1.1
341.1214	1.5
341.1493	2.7
341.1700	9.0
341.1851	3.3
341.2032	1.5
341.2081	1.4
341.2202	1.4
341.2628	22.9
342.0949	2.9
342.1170	2.1
342.1340	5.4
342.1544	100.0
342.1702	1.9
342.1893	2.0
342.2652	2.9
343.1294	3.3
343.1505	6.0
343.1575	17.5
343.1654	2.0
343.1862	4.1
343.2223	3.0
344.1117	3.5
344.1260	2.1
344.1324	5.1
344.1498	6.3
344.1693	6.0
344.1729	5.7

Name: 2H-)1,6(Dioxacycloundecino)2,3,4-gh(pyrrolizine-2,6(3H)-dione, 4,5,8,10,12,13,13a,13b-octahydro-3,4-dihydroxy-3,4,5-trimethyl-, 11-oxide
PrecursorMZ: 342.15495
RT: 1.3794
ExactMass: 341.14745207
Spectrum_type: 2
charge: 1
Formula: C16H23NO7
SMILES: CC1C(=O)OCC2=CC[N+]3(C2C(CC3)OC(=O)C(C1(C)O)(C)O)[O-]
Method: HCD
Collision_energy: [28.333334]
Isolation_window: 4.0
Ion_mode: P
Num Peaks: 159
59.0610	3.3
67.0548	5.9
69.0341	2.9
69.0704	3.9
70.0656	11.4
71.0498	3.8
72.0814	4.5
79.0547	3.0
81.0339	6.9
81.0703	12.2
83.0858	4.4
84.0812	10.1
85.0654	2.5
86.0607	2.3
86.0969	5.4
89.0603	2.4
91.0547	2.9
93.0703	4.7
95.0495	2.3
95.0859	11.2
97.0653	2.5
97.1016	3.1
98.0606	3.2
99.0446	3.4
105.0703	3.0
107.0496	2.8
107.0858	5.9
109.1016	8.6
110.0606	2.7
111.0445	5.8
111.0810	3.0
112.0764	2.7
116.0710	7.5
119.0859	4.8
120.0812	6.0
121.0652	2.6
121.1015	9.3
123.0808	2.9
123.1173	2.7
124.0762	2.9
125.0967	2.7
126.0553	2.4
126.0919	2.7
128.0709	4.3
130.0867	3.1
131.0856	4.2
132.0446	5.3
132.1024	2.3
133.1014	5.7
135.0810	2.6
135.1170	5.0
136.0760	4.0
137.0598	2.8
137.0963	2.7
139.1118	3.3
140.0343	3.0
140.0707	3.4
144.1023	2.3
145.1014	5.5
147.1171	7.0
148.0752	3.1
149.0964	3.7
149.1332	2.3
150.0914	3.7
152.0709	4.5
153.0915	5.4
159.1173	5.0
161.1327	2.5
162.0914	5.4
164.0705	4.9
165.0550	3.1
166.0864	11.5
167.1061	3.4
168.0673	2.3
170.0818	2.9
173.1179	4.1
173.1326	2.8
177.1278	2.7
178.0861	3.0
180.1022	3.9
182.0806	3.0
182.1182	2.3
188.0713	3.7
191.0822	3.7
193.0973	14.6
194.0818	2.9
194.1052	31.1
195.1121	6.0
204.1027	2.9
206.0814	2.7
208.0972	4.8
209.0924	27.5
223.1080	49.0
224.0927	8.4
224.1142	42.1
225.1227	13.7
229.0978	2.4
229.1341	2.3
239.1789	3.1
240.2321	4.1
247.2061	3.7
250.1079	2.9
257.1907	6.1
265.1179	3.0
265.2168	5.8
267.1359	2.5
275.2009	31.3
276.1242	2.4
276.2035	4.4
293.2114	70.2
294.2142	11.3
296.1497	2.8
298.1551	3.6
299.1365	4.5
306.1334	4.6
311.2220	34.4
312.2254	7.9
316.1659	40.1
317.1715	7.3
318.1811	17.3
324.1445	10.8
325.1463	3.3
326.1199	3.5
330.0374	16.8
331.0407	3.3
331.1273	4.6
341.1416	6.1
341.1788	3.2
342.1557	100.0
343.1596	22.2
344.1296	2.6
344.1657	3.1
345.0608	44.4
345.1220	4.9
345.1490	2.3
346.0624	8.2
346.1328	8.2
346.3307	5.1
347.1277	4.8
348.1057	3.9
348.1482	6.0
348.1931	11.0
349.1390	6.4
350.1301	5.0
350.2073	20.4
351.1562	8.0
351.2114	2.8
352.1464	5.3
353.1288	9.6
353.1759	3.0
354.1629	5.6
355.1592	4.0
356.1793	6.7
356.3530	4.1
358.1320	6.1
358.1661	2.6
358.3685	3.0
359.1519	4.2
360.1421	4.6

Name: 2H-Pyrazino(2,1-b)quinazoline-3,6(1H,4H)-dione, 10-hydroxy-4-(1-methylethyl)-1-(2-methylpropylidene)-, (1Z,4S)-
PrecursorMZ: 328.16522
RT: 5.0361
ExactMass: 327.15829154
Spectrum_type: 2
charge: 1
Formula: C18H21N3O3
SMILES: CC(C)/C=C\1/C2=NC3=C(C=CC=C3O)C(=O)N2C(C(=O)N1)C(C)C
Method: HCD
Collision_energy: [28.333334]
Isolation_window: 4.0
Ion_mode: P
Num Peaks: 66
70.0656	2.1
81.0339	4.1
84.0811	2.2
89.0601	3.6
97.3989	1.6
98.0966	2.7
98.9847	1.5
100.0759	9.9
114.0663	4.0
114.0915	7.3
116.0708	2.6
125.0714	1.5
133.0760	2.0
133.0860	2.0
136.0759	1.8
144.0807	1.9
152.0708	1.4
156.0809	17.3
157.0841	2.0
158.0965	6.0
168.0809	5.5
171.0761	2.0
183.0917	11.2
185.1074	2.8
186.2217	2.7
207.1130	1.3
229.0971	100.0
230.1006	12.0
231.0890	5.2
246.0758	1.3
248.0916	11.5
255.1491	2.0
268.1203	3.7
305.0558	3.4
309.1222	1.3
310.1070	1.5
311.1382	2.5
326.1219	2.2
326.1385	2.9
326.1532	1.5
326.1960	2.5
326.2154	1.9
326.3779	49.1
327.1331	28.5
327.1698	7.6
327.1888	1.7
327.3813	16.6
328.1169	45.2
328.1357	5.8
328.1516	4.4
328.1657	18.7
328.2221	1.7
328.2601	3.0
328.3845	1.3
329.1124	3.9
329.1187	8.4
329.1492	9.8
329.1718	6.8
329.1870	7.6
329.2067	1.7
330.0968	4.2
330.1164	1.3
330.1328	8.4
330.1674	2.0
330.1807	3.4
330.1844	4.7

Name: 3'-Amino-4'-methoxyacetanilide
PrecursorMZ: 181.09705
RT: 4.2991
ExactMass: 180.08987763
Spectrum_type: 2
charge: 1
Formula: C9H12N2O2
SMILES: CC(=O)NC1=CC(=C(C=C1)OC)N
Method: HCD
Collision_energy: [28.333334]
Isolation_window: 4.0
Ion_mode: P
Num Peaks: 8
91.0544	25.7
110.0966	12.1
138.0913	100.0
139.0944	7.5
150.0550	13.9
164.0706	15.7
181.0970	17.3
182.1175	8.3

Name: 3'-Aminoacetophenone
PrecursorMZ: 136.07567
RT: 9.5481
ExactMass: 135.068413911
Spectrum_type: 2
charge: 1
Formula: C8H9NO
SMILES: CC(=O)C1=CC(=CC=C1)N
Method: HCD
Collision_energy: [28.333334]
Isolation_window: 4.0
Ion_mode: P
Num Peaks: 7
91.0544	61.9
119.0491	42.5
121.0648	37.8
135.0915	18.7
136.0616	46.7
136.0755	76.0
137.0456	100.0

Name: 3'-Hydroxy-5,6,7,4'-tetramethoxyflavone
PrecursorMZ: 359.11196
RT: 1.4024
ExactMass: 358.10525291
Spectrum_type: 2
charge: 1
Formula: C19H18O7
SMILES: COC1=C(C=C(C=C1)C2=CC(=O)C3=C(C(=C(C=C3O2)OC)OC)OC)O
Method: HCD
Collision_energy: [28.333334]
Isolation_window: 4.0
Ion_mode: P
Num Peaks: 34
67.0545	2.0
81.0702	4.8
95.0856	4.3
97.3995	3.7
107.0855	2.7
109.1013	3.4
121.1012	3.9
133.1011	2.1
135.1166	4.8
147.1167	3.1
149.1325	2.8
161.1323	2.9
163.1478	2.3
175.1480	1.8
201.1638	1.8
215.1794	2.3
261.1844	2.6
298.0833	4.6
313.0702	8.1
314.0745	2.0
315.0865	5.3
325.0699	2.4
326.0774	3.2
329.0650	14.4
330.0678	2.2
343.0808	4.3
344.0884	8.7
357.2784	22.6
358.2815	9.7
359.1120	100.0
359.2945	3.7
360.1154	20.4
360.2250	2.2
361.1177	2.5

Name: 3'-Hydroxycotinine, trans-
PrecursorMZ: 193.09712
RT: 3.571
ExactMass: 192.08987763
Spectrum_type: 2
charge: 1
Formula: C10H12N2O2
SMILES: CN1[C@@H](C[C@H](C1=O)O)C2=CN=CC=C2
Method: HCD
Collision_energy: [28.333334]
Isolation_window: 4.0
Ion_mode: P
Num Peaks: 88
51.0260	0.1
51.1511	0.1
58.0651	0.1
70.0656	0.1
72.0806	0.1
80.0498	0.1
83.0489	0.0
87.0442	0.0
89.0600	0.1
92.0493	0.1
93.0567	0.1
94.0652	0.0
95.0607	0.1
96.0446	0.0
101.0593	0.0
102.0917	0.1
107.0729	0.8
108.0805	0.1
109.0756	0.0
111.0443	0.1
114.0916	0.1
134.0604	0.2
135.0451	0.1
136.0754	0.0
139.1228	0.0
141.0653	0.0
144.0808	0.2
145.0870	0.0
146.0963	0.0
151.1228	0.0
158.0961	0.2
159.1040	0.1
165.1023	0.1
168.0690	0.0
173.0849	0.0
174.0918	0.1
176.1067	0.1
186.0910	0.2
187.0991	0.3
188.1012	0.0
191.1182	0.3
192.1014	0.2
192.1201	0.1
192.1381	0.1
193.0831	0.0
193.0974	1.6
193.1336	0.5
194.1007	0.1
194.1178	0.2
194.1362	0.1
195.1144	0.0
195.1491	0.3
198.1479	0.1
201.1039	0.0
202.0986	0.1
202.1800	0.2
203.0968	0.1
203.1187	0.1
204.0084	0.2
204.0283	0.1
204.0391	0.1
204.0505	0.2
204.0621	0.7
204.0714	0.6
204.1020	100.0
204.1338	0.6
204.1417	0.7
204.1535	0.2
204.1647	0.1
204.1767	0.1
204.1858	0.1
204.2064	0.1
205.0649	0.1
205.1051	13.3
205.1363	0.1
205.1460	0.1
206.1058	1.1
207.1097	0.1
207.1481	0.2
208.1326	0.5
209.1272	0.1
210.0791	0.6
210.1123	0.1
210.1485	0.3
211.0821	0.0
211.1425	0.2
212.1099	0.0
212.1670	0.1

Name: 3'-Methyl-3-(4-methyl-5-oxooxolan-2-yl)spiro(1,2,3,5,6,7,8,9a-octahydropyrrolo(1,2-a)azepine-9,5'-oxolane)-2'-one
PrecursorMZ: 322.20072
RT: 8.074766666666667
ExactMass: 321.19400834
Spectrum_type: 2
charge: 1
Formula: C18H27NO4
SMILES: CC1CC(OC1=O)C2CCC3N2CCCCC34CC(C(=O)O4)C
Method: HCD
Collision_energy: [28.333334]
Isolation_window: 4.0
Ion_mode: P
Num Peaks: 24
55.0546	6.6
59.0495	1.8
83.0493	4.3
101.0598	18.0
140.0705	4.6
182.0810	5.6
203.0923	4.9
204.1379	24.7
205.1413	3.5
221.1028	2.3
222.1484	21.0
223.1424	2.2
223.1530	2.2
304.1385	9.7
305.1600	1.6
321.1563	15.2
321.1826	2.5
322.1275	2.3
322.1488	7.0
322.2005	100.0
323.1704	21.2
323.2009	16.8
324.1412	3.4
324.1758	2.9

Name: 3,3'-(2-Oxopropane-1,3-diyl)bis(3-hydroxy-1,3-dihydro-2H-indol-2-one)
PrecursorMZ: 317.09276
RT: 5.6057
ExactMass: 352.10592162
Spectrum_type: 2
charge: 1
Formula: C19H16N2O5
SMILES: C1=CC=C2C(=C1)C(C(=O)N2)(CC(=O)CC3(C4=CC=CC=C4NC3=O)O)O
Method: HCD
Collision_energy: [28.333334]
Isolation_window: 4.0
Ion_mode: P
Num Peaks: 11
70.0654	19.1
72.0811	22.8
94.9297	8.8
116.0706	93.4
173.1282	26.7
176.8751	18.1
178.8731	15.2
201.1232	15.1
225.1017	9.0
317.0926	100.0
318.0967	10.3

Name: 3,3'-Dityrosine
PrecursorMZ: 361.13898
RT: 5.5862
ExactMass: 360.13213636
Spectrum_type: 2
charge: 1
Formula: C18H20N2O6
SMILES: C1=CC(=C(C=C1C[C@@H](C(=O)O)N)C2=C(C=CC(=C2)C[C@@H](C(=O)O)N)O)O
Method: HCD
Collision_energy: [28.333334]
Isolation_window: 4.0
Ion_mode: P
Num Peaks: 11
229.0964	8.1
273.0864	5.9
283.1069	5.1
285.0862	3.6
286.0940	8.1
287.1018	6.6
301.1175	18.9
302.1235	4.4
343.1284	3.9
361.1386	100.0
362.1424	18.3

Name: 3,3'-Iminodipropionitrile
PrecursorMZ: 124.08674
RT: 1.2555
ExactMass: 123.0796473
Spectrum_type: 2
charge: 1
Formula: C6H9N3
SMILES: C(CNCCC#N)C#N
Method: HCD
Collision_energy: [28.333334]
Isolation_window: 4.0
Ion_mode: P
Num Peaks: 11
68.0496	4.2
69.1111	9.0
81.0448	4.1
82.0526	6.5
83.0605	12.8
122.0710	11.0
122.0960	8.5
124.0866	100.0
125.0818	6.9
125.0898	7.2
126.1022	9.6

Name: 3,4,5-triethoxy-N-pyridin-3-ylbenzamide
PrecursorMZ: 331.16488
RT: 4.5085
ExactMass: 330.15795719
Spectrum_type: 2
charge: 1
Formula: C18H22N2O4
SMILES: CCOC1=CC(=CC(=C1OCC)OCC)C(=O)NC2=CN=CC=C2
Method: HCD
Collision_energy: [28.333334]
Isolation_window: 4.0
Ion_mode: P
Num Peaks: 8
229.1329	3.4
256.1200	4.8
271.1439	3.2
316.1408	6.4
331.1292	3.5
331.1644	100.0
332.1127	2.7
332.1677	19.5

Name: 3,4-Diethoxy-N-)7-hydroxy-5-methyl-)1,2,4(triazolo)1,5-A(pyrimidin-6-YLbenzamide
PrecursorMZ: 380.13368
RT: 4.9468
ExactMass: 357.1437041
Spectrum_type: 2
charge: 1
Formula: C17H19N5O4
SMILES: CCOC1=C(C=C(C=C1)C(=O)NC2=C(N=C3N=CNN3C2=O)C)OCC
Method: HCD
Collision_energy: [28.333334]
Isolation_window: 4.0
Ion_mode: P
Num Peaks: 36
70.0656	10.6
83.0496	18.8
84.0813	5.5
89.0603	6.5
100.0760	12.5
111.0443	100.0
112.0477	6.7
132.0443	4.2
149.0234	11.4
195.1125	6.7
198.1121	6.6
214.1227	4.0
216.1228	9.3
270.0971	53.6
271.1002	5.3
360.1643	6.7
377.2049	6.0
378.1746	30.2
379.1799	12.2
379.2224	9.7
380.1322	28.3
380.1757	17.0
381.1713	9.7
382.1426	5.9
383.1853	5.9
384.1591	4.6
385.2054	5.6
386.1998	5.6
387.1807	5.8
393.2068	10.5
394.1572	4.5
394.2015	4.1
395.2206	21.3
396.1669	5.8
396.2217	4.9
398.2022	16.1

Name: 3,4-Dihydroxyallylbenzene 3,4-di-O-glucoside
PrecursorMZ: 497.16243
RT: 2.4825
ExactMass: 474.17372639
Spectrum_type: 2
charge: 1
Formula: C21H30O12
SMILES: C=CCC1=CC(=C(C=C1)O[C@H]2[C@@H]([C@H]([C@@H]([C@H](O2)CO)O)O)O)O[C@H]3[C@@H]([C@H]([C@@H]([C@H](O3)CO)O)O)O
Method: HCD
Collision_energy: [28.333334]
Isolation_window: 4.0
Ion_mode: P
Num Peaks: 35
55.2411	5.5
59.0609	3.6
70.0656	11.7
72.0810	4.2
81.0339	4.3
84.0812	6.3
85.0288	4.3
86.0968	4.6
87.0443	3.0
89.0600	6.8
104.0706	5.3
111.0442	5.2
113.0598	4.1
116.0706	5.0
122.0812	35.8
143.0704	6.1
154.0859	4.6
194.1176	4.0
463.2362	4.5
497.1622	100.0
497.2253	5.2
498.1625	22.0
499.1537	11.2
500.1976	3.3
501.1926	52.1
502.1936	12.5
503.1919	8.4
504.1951	4.3
506.1910	3.7
507.1932	3.8
508.1900	4.3
509.2090	4.2
510.2008	4.4
511.1989	3.4
513.2075	3.3

Name: 3,4-Dimethoxydalbergione
PrecursorMZ: 285.11197
RT: 6.0043
ExactMass: 284.10485899
Spectrum_type: 2
charge: 1
Formula: C17H16O4
SMILES: COC1=C(C(=O)C(=CC1=O)[C@H](C=C)C2=CC=CC=C2)OC
Method: HCD
Collision_energy: [28.333334]
Isolation_window: 4.0
Ion_mode: P
Num Peaks: 78
70.0655	12.0
71.0688	0.4
74.0604	0.4
81.0338	0.5
84.0447	0.8
107.0493	6.1
108.0526	0.4
110.0603	0.7
114.0914	0.5
116.0708	2.2
119.0493	0.8
123.0442	1.6
124.1121	0.5
125.0961	0.4
131.0492	8.6
132.0525	0.8
145.0649	2.1
153.0546	0.4
156.0657	3.6
156.0808	12.3
157.0841	1.7
161.0594	0.7
163.0754	0.7
165.0548	0.8
169.0648	0.5
173.0598	3.9
179.0856	1.3
191.0703	1.4
197.0962	1.0
207.0662	1.1
207.0804	10.0
208.0834	1.3
210.0673	0.9
211.1439	0.8
212.0555	0.5
221.0962	0.8
223.0750	0.6
224.0791	0.4
225.0678	0.6
225.0726	0.5
225.0909	100.0
225.1090	0.5
225.1139	0.6
226.0711	0.6
226.0942	16.2
227.0973	1.1
237.1601	0.5
238.1437	1.5
239.1065	2.5
239.1382	1.2
240.1593	2.7
249.0759	0.5
249.0908	2.7
250.0944	0.5
257.1494	0.6
266.1389	0.5
267.0869	0.9
267.1013	15.7
267.1319	0.6
268.1049	2.6
268.1540	2.0
283.1651	6.7
284.0585	0.4
284.0762	2.8
284.0917	0.7
284.1242	2.5
284.1685	2.0
284.3312	0.7
285.0770	0.6
285.1117	7.8
285.1241	2.2
285.1443	4.8
286.0715	0.4
286.1165	1.2
286.1278	0.7
286.1430	0.5
286.1647	0.9
287.1022	1.1

Name: 3,4-Methylenedioxyethylamphetamine
PrecursorMZ: 208.13311
RT: 6.9409
ExactMass: 193.110278721
Spectrum_type: 2
charge: 1
Formula: C11H15NO2
SMILES: CCNC(C)C1=CC2=C(C=C1)OCO2
Method: HCD
Collision_energy: [28.333334]
Isolation_window: 4.0
Ion_mode: P
Num Peaks: 63
67.0546	4.5
70.0655	5.1
72.0812	20.6
79.0545	3.1
81.0702	3.6
86.0966	2.6
87.0443	2.9
91.0545	2.9
93.0701	3.5
95.0858	3.8
96.0810	4.7
97.3990	2.5
100.1124	3.0
105.0700	3.2
106.0864	3.4
107.0494	10.4
111.0441	8.0
119.0856	5.8
120.0810	3.5
121.1013	9.8
125.0598	8.7
133.1011	2.9
135.0440	93.6
135.0803	5.5
135.1168	3.2
136.0474	7.3
136.0757	4.7
145.1014	4.0
147.0804	5.2
149.0596	3.7
149.0959	3.5
161.0962	6.6
162.0550	7.5
163.0755	11.9
163.1117	8.6
164.0706	3.6
167.0703	4.2
173.0962	2.7
181.0858	4.2
181.0967	3.9
182.0810	3.1
189.0910	4.5
191.0700	3.2
191.1065	7.2
192.0658	3.2
207.0651	3.5
207.0766	3.3
207.1014	7.4
207.1128	3.3
208.0603	3.8
208.0967	12.6
208.1331	100.0
208.1695	9.1
208.1806	2.7
209.0807	6.0
209.0920	5.3
209.1170	6.7
209.1282	4.6
209.1369	10.7
209.1647	3.7
210.0759	5.9
210.1123	4.6
210.1331	3.8

Name: 3,4-Methylenedioxymethamphetamine
PrecursorMZ: 194.11736
RT: 11.6712
ExactMass: 193.110278721
Spectrum_type: 2
charge: 1
Formula: C11H15NO2
SMILES: CC(CC1=CC2=C(C=C1)OCO2)NC
Method: HCD
Collision_energy: [28.333334]
Isolation_window: 4.0
Ion_mode: P
Num Peaks: 34
58.0655	0.6
70.0654	2.9
86.0602	0.5
89.0599	0.6
98.0601	2.9
107.0729	1.1
108.0807	0.7
114.0912	0.6
122.0963	0.5
125.0708	4.8
133.0886	0.7
134.0962	2.6
135.0439	1.3
163.0612	0.5
167.1177	10.0
177.1020	0.4
192.1128	0.7
192.1225	0.7
193.0969	1.5
193.1333	2.5
194.1026	0.6
194.1172	70.4
194.1273	2.0
194.1366	0.7
195.0939	0.7
195.0977	0.6
195.1125	100.0
195.1205	7.9
195.1314	0.8
195.1488	0.5
196.0968	1.9
196.1160	5.0
196.1260	0.5
196.1327	22.9

Name: 3,4-dihydro-papaveraldine
PrecursorMZ: 378.1306
RT: 3.0366
Spectrum_type: 2
charge: 1
SMILES: O=C(C1=NCCC=2C=C(OC)C(OC)=CC12)C3=CC=C(OC)C(OC)=C3
Method: HCD
Collision_energy: [28.333334]
Isolation_window: 4.0
Ion_mode: P
Num Peaks: 3
120.0807	24.0
378.1308	100.0
379.1325	15.8

Name: 3,4-dimethoxy-N-((2-methylquinolin-4-yl)methyl)benzamide
PrecursorMZ: 359.13642
RT: 5.087466666666667
ExactMass: 336.1473925
Spectrum_type: 2
charge: 1
Formula: C20H20N2O3
SMILES: CC1=NC2=CC=CC=C2C(=C1)CNC(=O)C3=CC(=C(C=C3)OC)OC
Method: HCD
Collision_energy: [28.333334]
Isolation_window: 4.0
Ion_mode: P
Num Peaks: 4
176.8752	35.4
358.2818	45.6
359.1372	100.0
360.3615	36.0

Name: 3,4-dimethoxy-N-(1-propan-2-ylpyrazol-4-yl)benzamide
PrecursorMZ: 312.13181
RT: 1.815
ExactMass: 289.14264148
Spectrum_type: 2
charge: 1
Formula: C15H19N3O3
SMILES: CC(C)N1C=C(C=N1)NC(=O)C2=CC(=C(C=C2)OC)OC
Method: HCD
Collision_energy: [28.333334]
Isolation_window: 4.0
Ion_mode: P
Num Peaks: 7
70.0655	16.7
135.0440	25.1
161.0962	21.9
201.1232	20.7
311.1628	22.8
312.1315	100.0
312.3624	32.6

Name: 3,4-dimethoxy-N-(2-(5-methoxy-2-methyl-1H-indol-3-yl)ethyl)benzamide
PrecursorMZ: 391.1623
RT: 1.4031
ExactMass: 368.17360725
Spectrum_type: 2
charge: 1
Formula: C21H24N2O4
SMILES: CC1=C(C2=C(N1)C=CC(=C2)OC)CCNC(=O)C3=CC(=C(C=C3)OC)OC
Method: HCD
Collision_energy: [28.333334]
Isolation_window: 4.0
Ion_mode: P
Num Peaks: 4
165.0546	9.9
248.1281	9.5
391.1621	100.0
392.1650	20.8

Name: 3,4-dimethyl-9-phenyl-7H-furo(2,3-f)chromen-7-one
PrecursorMZ: 313.07918
RT: 7.3523499999999995
ExactMass: 290.094294304
Spectrum_type: 2
charge: 1
Formula: C19H14O3
SMILES: CC1=CC2=C(C(=CC(=O)O2)C3=CC=CC=C3)C4=C1C(=CO4)C
Method: HCD
Collision_energy: [28.333334]
Isolation_window: 4.0
Ion_mode: P
Num Peaks: 18
70.0654	6.2
84.0810	9.7
116.0706	5.2
182.1174	8.5
213.0631	4.6
250.1074	4.3
266.1019	4.4
295.1284	4.1
312.1421	27.7
312.1922	4.8
313.0793	100.0
313.1369	12.9
313.1749	27.9
314.0824	13.2
314.1223	7.9
314.1357	6.0
314.1746	18.4
314.2072	6.8

Name: 3,5-Bis(acetylamino)benzoic acid
PrecursorMZ: 237.08675
RT: 2.8269
ExactMass: 236.07970687
Spectrum_type: 2
charge: 1
Formula: C11H12N2O4
SMILES: CC(=O)NC1=CC(=CC(=C1)C(=O)O)NC(=O)C
Method: HCD
Collision_energy: [28.333334]
Isolation_window: 4.0
Ion_mode: P
Num Peaks: 8
137.0706	7.5
163.0864	9.5
191.0812	41.2
219.0759	20.9
237.0865	100.0
237.1594	6.9
238.0900	10.2
238.1071	8.0

Name: 3,5-Dihydroxyflavone
PrecursorMZ: 255.06492
RT: 2.9347
ExactMass: 254.0579088
Spectrum_type: 2
charge: 1
Formula: C15H10O4
SMILES: C1=CC=C(C=C1)C2=C(C(=O)C3=C(C=CC=C3O2)O)O
Method: HCD
Collision_energy: [28.333334]
Isolation_window: 4.0
Ion_mode: P
Num Peaks: 3
199.0752	2.7
255.0650	100.0
256.0684	16.2

Name: 3,5-Dimethoxybenzyl alcohol
PrecursorMZ: 151.0754
RT: 1.1438
ExactMass: 168.078644241
Spectrum_type: 2
charge: 1
Formula: C9H12O3
SMILES: COC1=CC(=CC(=C1)CO)OC
Method: HCD
Collision_energy: [28.333334]
Isolation_window: 4.0
Ion_mode: P
Num Peaks: 24
67.0547	3.8
79.0546	5.1
81.0702	4.9
91.0545	2.6
93.0701	2.7
95.0494	1.8
95.0858	10.2
105.0701	18.1
106.0735	1.1
107.0493	1.4
107.0857	2.1
109.0651	1.8
120.0446	1.0
123.0805	100.0
124.0838	7.9
133.0648	3.7
150.0915	7.0
150.1278	12.8
151.0754	11.0
151.1229	1.1
151.1310	1.4
152.0707	2.4
152.0777	1.1
152.1069	2.3

Name: 3,5-Dimethoxyphenol
PrecursorMZ: 155.07029
RT: 2.0294
ExactMass: 154.062994177
Spectrum_type: 2
charge: 1
Formula: C8H10O3
SMILES: COC1=CC(=CC(=C1)O)OC
Method: HCD
Collision_energy: [28.333334]
Isolation_window: 4.0
Ion_mode: P
Num Peaks: 5
95.0493	100.0
127.0751	20.2
155.0703	33.7
156.0421	21.0
156.1017	20.2

Name: 3,6,9,12-Tetraoxatetracosan-1-ol
PrecursorMZ: 363.30959
RT: 0.7869
ExactMass: 362.30322444
Spectrum_type: 2
charge: 1
Formula: C20H42O5
SMILES: CCCCCCCCCCCCOCCOCCOCCOCCO
Method: HCD
Collision_energy: [28.333334]
Isolation_window: 4.0
Ion_mode: P
Num Peaks: 11
57.0702	26.2
71.0857	24.3
85.1012	16.7
89.0597	100.0
107.0701	6.3
133.0855	30.3
151.0960	7.5
177.1115	8.8
195.1221	28.5
363.3091	31.1
364.3123	7.1

Name: 3,6-Dibenzyl-9,12-di(propan-2-yl)-1,4,7,10-tetrazacyclododecane-2,5,8,11-tetrone
PrecursorMZ: 493.28
RT: 7.7499
ExactMass: 492.27365564
Spectrum_type: 2
charge: 1
Formula: C28H36N4O4
SMILES: CC(C)C1C(=O)NC(C(=O)NC(C(=O)NC(C(=O)N1)CC2=CC=CC=C2)CC3=CC=CC=C3)C(C)C
Method: HCD
Collision_energy: [28.333334]
Isolation_window: 4.0
Ion_mode: P
Num Peaks: 20
54.8091	5.0
84.0809	7.9
98.0964	7.6
100.0756	4.0
112.1120	16.6
129.1384	14.2
155.1175	11.6
176.8748	6.1
198.1595	5.8
212.1754	7.8
229.2019	6.2
240.1697	5.8
251.0694	7.9
265.0852	9.0
464.2534	5.0
476.2534	10.1
492.1457	16.2
493.2795	100.0
494.2830	30.1
495.2948	5.4

Name: 3,7,3'-Trimethoxyflavone
PrecursorMZ: 313.10673
RT: 6.9266
ExactMass: 312.09977361
Spectrum_type: 2
charge: 1
Formula: C18H16O5
SMILES: COC1=CC2=C(C=C1)C(=O)C(=C(O2)C3=CC(=CC=C3)OC)OC
Method: HCD
Collision_energy: [28.333334]
Isolation_window: 4.0
Ion_mode: P
Num Peaks: 13
97.0285	7.3
136.0616	6.9
221.0957	14.5
225.0905	7.1
249.0905	27.8
250.0940	6.3
267.1010	61.4
268.1045	10.0
277.0846	7.2
295.0958	100.0
296.0991	19.2
312.0957	4.8
314.1227	3.3

Name: 3,7-Dihydroxy-3',4'-dimethoxyflavone
PrecursorMZ: 315.08602
RT: 9.8004
ExactMass: 314.07903816
Spectrum_type: 2
charge: 1
Formula: C17H14O6
SMILES: COC1=C(C=C(C=C1)C2=C(C(=O)C3=C(O2)C=C(C=C3)O)O)OC
Method: HCD
Collision_energy: [28.333334]
Isolation_window: 4.0
Ion_mode: P
Num Peaks: 16
236.9409	11.7
243.0652	4.3
254.9515	13.8
255.0651	19.3
256.0706	4.4
269.0805	5.8
283.0596	4.7
313.0705	10.7
314.0747	5.8
314.1024	18.7
314.1376	7.0
315.0861	100.0
315.1049	5.2
315.1337	5.8
316.0900	16.5
316.1175	19.3

Name: 3-(((Tert-butoxy)carbonyl)((pyridin-3-yl)methyl)amino)propanoic acid
PrecursorMZ: 281.14917
RT: 8.5878
ExactMass: 280.14230712
Spectrum_type: 2
charge: 1
Formula: C14H20N2O4
SMILES: CC(C)(C)OC(=O)N(CCC(=O)O)CC1=CN=CC=C1
Method: HCD
Collision_energy: [28.333334]
Isolation_window: 4.0
Ion_mode: P
Num Peaks: 23
55.0546	5.9
59.0495	1.5
83.0494	2.7
83.0606	3.2
87.0441	0.9
101.0598	15.8
102.0631	0.9
135.0915	1.9
163.0865	6.3
164.1068	1.0
165.1018	0.9
181.0969	11.2
182.1173	21.8
183.1126	6.8
280.1165	2.4
280.1383	0.9
280.1531	3.0
281.1489	45.5
282.1331	3.9
282.1522	6.0
282.1692	100.0
282.1812	1.9
283.1644	40.6

Name: 3-((2-hydroxy-3a,4,5,6,7,7a-hexahydro-3H-furo(3,2-b)pyridin-2-yl)methyl)quinazolin-4-one
PrecursorMZ: 302.1498
RT: 6.2784
ExactMass: 301.14264148
Spectrum_type: 2
charge: 1
Formula: C16H19N3O3
SMILES: C1CC2C(CC(O2)(CN3C=NC4=CC=CC=C4C3=O)O)NC1
Method: HCD
Collision_energy: [28.333334]
Isolation_window: 4.0
Ion_mode: P
Num Peaks: 78
70.0656	7.7
72.0812	1.3
81.0337	0.8
84.0811	6.7
86.0967	3.3
96.0446	1.8
111.0443	1.0
112.0871	1.4
116.0708	2.1
121.0761	1.6
124.0758	0.8
128.0706	1.7
130.0864	1.1
132.0806	1.0
133.0608	1.9
141.1023	1.0
142.0863	2.1
144.1019	2.4
147.0555	1.1
148.0756	0.8
154.0862	0.9
157.0971	1.3
158.1176	1.5
166.0975	0.9
169.0972	1.1
171.1129	0.8
174.0911	1.1
180.1017	1.1
185.0925	1.0
190.0822	0.9
210.0874	3.3
210.1237	32.4
211.1275	2.7
214.0974	0.7
225.1026	2.2
228.1127	1.5
229.1211	3.3
229.1546	0.9
239.1178	4.5
240.1221	1.0
241.1334	1.8
242.1283	3.0
243.1126	0.8
243.1366	1.4
254.0922	0.9
255.1125	3.7
255.1342	0.9
256.1436	1.2
257.1281	3.4
258.1592	2.4
267.1123	2.3
269.1157	6.8
270.1198	1.2
272.1029	3.5
274.1549	0.9
284.1391	14.8
285.1233	4.3
285.1426	2.9
287.1262	4.7
300.1197	1.6
300.1569	1.2
301.1186	13.9
301.1390	2.7
301.1534	5.1
301.1757	3.7
301.2116	0.7
302.1024	4.0
302.1217	2.9
302.1499	100.0
302.1704	6.3
303.1341	4.8
303.1535	23.0
303.1706	2.6
304.1170	3.8
304.1374	0.9
304.1526	3.3
304.2268	0.7
304.2995	1.2

Name: 3-((3-Methylphenyl)methylidene)-6-(2-methylpropyl)piperazine-2,5-dione
PrecursorMZ: 273.1596
RT: 1.3045666666666667
ExactMass: 272.152477885
Spectrum_type: 2
charge: 1
Formula: C16H20N2O2
SMILES: CC1=CC(=CC=C1)C=C2C(=O)NC(C(=O)N2)CC(C)C
Method: HCD
Collision_energy: [28.333334]
Isolation_window: 4.0
Ion_mode: P
Num Peaks: 36
94.0653	1.5
97.3981	0.6
120.0809	21.1
121.0843	1.7
122.0601	0.8
122.0966	0.7
124.0758	6.1
126.0914	1.7
136.0758	0.6
138.0913	0.8
148.0757	50.1
149.0788	4.6
149.0837	0.6
150.0914	6.4
180.0656	2.3
200.1069	1.9
202.1225	0.6
240.0866	1.4
245.1647	6.1
246.1686	0.9
254.2477	0.7
272.1112	1.1
272.1473	0.9
272.2584	0.7
273.1097	0.6
273.1268	0.6
273.1291	0.6
273.1375	1.7
273.1592	37.2
273.1676	100.0
273.1881	0.8
274.1066	0.8
274.1622	5.8
274.1714	12.6
275.0890	2.7
275.1734	1.3

Name: 3-((4-Amino-2-methylpyrimidin-5-yl)methyl)-5-(2-hydroxyethyl)-4-methylthiazol-3-ium chloride
PrecursorMZ: 265.11114
RT: 14.16
ExactMass: 300.08116
Spectrum_type: 2
charge: 1
Formula: C12H17ClN4OS
SMILES: CC1=C(SC=[N+]1CC2=CN=C(N=C2N)C)CCO.[Cl-]
Method: HCD
Collision_energy: [28.333334]
Isolation_window: 4.0
Ion_mode: P
Num Peaks: 19
69.5676	2.5
69.5722	2.4
69.6735	2.4
81.0449	3.1
84.0809	23.6
104.1069	41.5
122.0710	100.0
123.0744	6.9
130.0859	11.3
137.1070	5.5
144.0474	25.2
248.1123	2.3
264.1439	3.4
264.1800	1.4
265.1533	2.1
265.1903	1.8
266.1591	70.6
266.1851	10.5
267.1621	2.7

Name: 3-((4R)-4-((3R,5R,9S,10S,12S,13R,14S,17R)-3,12-dihydroxy-10,13-dimethylhexadecahydro-1H-cyclopenta(a)phenanthren-17-yl)pentanamido)propanoic acid
PrecursorMZ: 446.32593
RT: 5.8881
ExactMass: 463.32977354
Spectrum_type: 2
charge: 1
Formula: C27H45NO5
SMILES: C[C@H](CCC(=O)NCCC(=O)O)[C@H]1CC[C@@H]2[C@@]1([C@H](C[C@H]3[C@H]2CC[C@H]4[C@@]3(CC[C@H](C4)O)C)O)C
Method: HCD
Collision_energy: [28.333334]
Isolation_window: 4.0
Ion_mode: P
Num Peaks: 16
81.0337	0.6
86.0966	0.8
100.0758	2.2
128.0705	14.8
140.1069	1.0
156.1018	1.0
161.1323	1.6
255.2103	1.8
273.2209	2.7
412.3196	0.6
428.3152	7.1
429.3188	1.6
430.3307	100.0
430.3784	0.5
430.3918	0.5
448.3404	2.0

Name: 3-((4R)-4-((3R,5R,9S,10S,12S,13R,14S,17R)-3,12-dihydroxy-10,13-dimethylhexadecahydro-1H-cyclopenta)a(phenanthren-17-yl)pentanamido)propanoic acid
PrecursorMZ: 446.32606
RT: 0.6780999999999999
ExactMass: 463.32977354
Spectrum_type: 2
charge: 1
Formula: C27H45NO5
SMILES: C[C@H](CCC(=O)NCCC(=O)O)[C@H]1CC[C@@H]2[C@@]1([C@H](C[C@H]3[C@H]2CC[C@H]4[C@@]3(CC[C@H](C4)O)C)O)C
Method: HCD
Collision_energy: [28.333334]
Isolation_window: 4.0
Ion_mode: P
Num Peaks: 54
70.0654	0.2
81.0339	0.6
82.0653	0.2
84.0811	0.3
89.0601	0.5
95.0859	0.3
100.0760	2.2
107.0857	0.3
109.1014	0.2
110.0604	0.2
110.0970	0.2
114.0919	0.2
116.0708	0.7
121.1014	0.2
128.0708	17.6
129.0742	1.2
130.0863	0.2
133.0860	0.3
133.1009	0.2
135.1166	0.3
140.1071	1.8
145.1017	0.2
147.1170	0.5
156.1021	1.1
158.1177	0.4
159.1166	0.3
161.1326	1.6
173.1328	0.2
255.2107	1.4
256.2149	0.3
273.2212	2.2
274.2241	0.5
383.2916	0.3
412.3206	0.4
428.3156	2.0
429.3189	0.6
430.1759	0.3
430.2108	0.8
430.2352	0.7
430.3317	100.0
430.4299	0.5
430.4554	0.7
430.4892	0.2
431.2139	0.2
431.3346	30.3
431.4568	0.2
432.3379	4.7
433.3404	0.6
444.3111	0.3
446.3263	1.7
447.3285	0.5
448.3415	2.6
449.3444	0.7
459.2862	0.4

Name: 3-((Dimethylamino)methyl)-4-(3-methyl-4-(methylthio)phenoxy)benzenesulfonamide
PrecursorMZ: 367.11505
RT: 8.2796
ExactMass: 366.10718492
Spectrum_type: 2
charge: 1
Formula: C17H22N2O3S2
SMILES: CC1=C(C=CC(=C1)OC2=C(C=C(C=C2)S(=O)(=O)N)CN(C)C)SC
Method: HCD
Collision_energy: [28.333334]
Isolation_window: 4.0
Ion_mode: P
Num Peaks: 15
164.0708	11.9
233.1398	10.6
251.1502	22.0
261.1348	16.7
279.1448	10.2
365.1358	11.6
365.1710	10.3
367.1145	100.0
367.1485	15.2
367.1873	25.6
368.1150	22.2
368.1339	28.8
368.1895	13.1
368.2170	11.8
369.1317	20.6

Name: 3-((Dimethylsulfamoyl)amino)phenyl piperidine-1-carboxylate
PrecursorMZ: 328.13245
RT: 6.0323
ExactMass: 327.12527733
Spectrum_type: 2
charge: 1
Formula: C14H21N3O4S
SMILES: CN(C)S(=O)(=O)NC1=CC(=CC=C1)OC(=O)N2CCCCC2
Method: HCD
Collision_energy: [28.333334]
Isolation_window: 4.0
Ion_mode: P
Num Peaks: 21
70.0656	3.4
80.0499	5.8
98.9844	6.7
111.0265	7.6
112.0759	5.9
114.0916	9.3
120.0809	2.2
140.0529	2.1
142.0687	2.6
146.0600	1.8
168.0479	4.3
213.1234	1.8
236.0738	2.0
280.8119	4.3
310.1216	2.6
327.1708	9.4
328.1325	100.0
328.1709	2.1
328.2596	2.1
329.1355	15.0
330.1273	2.9

Name: 3-((E)-3,4-dihydroxy-3,5-dimethylhept-1-enyl)-7,8-dihydroxy-7-methyl-8,8a-dihydro-1H-isochromen-6-one
PrecursorMZ: 353.19571
RT: 0.87075
ExactMass: 352.18858861
Spectrum_type: 2
charge: 1
Formula: C19H28O6
SMILES: CCC(C)C(C(C)(/C=C/C1=CC2=CC(=O)C(C(C2CO1)O)(C)O)O)O
Method: HCD
Collision_energy: [28.333334]
Isolation_window: 4.0
Ion_mode: P
Num Peaks: 27
57.0704	25.2
69.0703	26.3
81.0702	27.1
83.0495	31.0
85.0651	40.0
109.0650	36.3
113.0600	14.5
155.0340	14.5
167.0339	74.4
193.0493	16.4
211.0600	84.2
223.0964	88.5
227.1278	13.4
233.1172	19.3
241.1071	25.9
247.1331	20.8
265.1435	20.1
267.1225	23.7
279.1589	15.9
283.1540	13.4
285.1332	45.6
297.1331	37.5
305.1742	27.3
317.1750	29.1
335.1852	100.0
336.1888	17.6
353.1957	79.3

Name: 3-((Imidazo(1,2-A)pyrazin-3-YL)amino)-N-(2-(1,2,3,4-tetrahydroisoquinolin-2-YL)ethyl)propanamide
PrecursorMZ: 365.20853
RT: 1.0185
ExactMass: 364.20115941
Spectrum_type: 2
charge: 1
Formula: C20H24N6O
SMILES: C1CN(CC2=CC=CC=C21)CCNC(=O)CCNC3=CN=C4N3C=CN=C4
Method: HCD
Collision_energy: [28.333334]
Isolation_window: 4.0
Ion_mode: P
Num Peaks: 3
90.0551	27.8
365.2086	100.0
366.2127	25.7

Name: 3-((benzylsulfanyl)methyl)-6-(5-(2-methylpropyl)-1H-pyrazol-3-yl)(1,2,4)triazolo(3,4-b)(1,3,4)thiadiazole
PrecursorMZ: 385.12582
RT: 8.5653
ExactMass: 384.11908701
Spectrum_type: 2
charge: 1
Formula: C18H20N6S2
SMILES: CC(C)CC1=CC(=NN1)C2=NN3C(=NN=C3S2)CSCC4=CC=CC=C4
Method: HCD
Collision_energy: [28.333334]
Isolation_window: 4.0
Ion_mode: P
Num Peaks: 5
384.1073	11.5
384.1793	10.3
385.1257	100.0
385.1973	12.4
386.1262	23.5

Name: 3-(1,3-Benzodioxol-5-yl)-1-(2,3-dihydro-1,4-benzodioxin-6-yl)prop-2-en-1-one
PrecursorMZ: 311.09099
RT: 6.283
ExactMass: 310.08412354
Spectrum_type: 2
charge: 1
Formula: C18H14O5
SMILES: C1COC2=C(O1)C=CC(=C2)C(=O)C=CC3=CC4=C(C=C3)OCO4
Method: HCD
Collision_energy: [28.333334]
Isolation_window: 4.0
Ion_mode: P
Num Peaks: 13
121.0284	8.8
147.0438	19.0
223.0750	24.5
237.0906	17.1
249.0907	7.2
251.0697	100.0
252.0732	19.4
265.0851	13.1
293.0803	11.1
310.1279	6.7
311.0538	13.7
311.0898	26.1
312.0870	7.9

Name: 3-(1,3-benzothiazol-2-yl)-2-methyl-4-oxo-8-(pyrrolidinium-1-ylmethyl)-4H-chromen-7-olate
PrecursorMZ: 415.11086
RT: 8.5213
ExactMass: 392.11946368
Spectrum_type: 2
charge: 1
Formula: C22H20N2O3S
SMILES: CC1=C(C(=O)C2=C(O1)C(=C(C=C2)[O-])C[NH+]3CCCC3)C4=NC5=CC=CC=C5S4
Method: HCD
Collision_energy: [28.333334]
Isolation_window: 4.0
Ion_mode: P
Num Peaks: 31
70.0654	4.2
72.0811	1.0
81.0338	0.9
84.0810	4.2
86.0966	1.2
97.0284	1.0
104.0707	0.9
111.0441	0.9
112.0870	1.4
116.0707	1.0
127.0389	0.9
129.1022	1.4
130.0861	1.5
154.0862	1.0
175.1184	1.5
413.1893	2.1
414.1377	2.3
414.1731	0.9
414.1967	1.0
414.2255	1.8
415.1106	100.0
415.1667	7.8
415.2052	1.0
416.1139	15.0
416.1547	4.8
416.2104	1.6
416.2628	2.9
417.1062	4.2
417.1596	0.9
417.1875	0.9
417.2432	1.0

Name: 3-(1-adamantyl)-1-benzyl-7,9-dimethyl-1,4-dihydro(1,2,4)triazino(3,4-f)purine-6,8(7H,9H)-dione
PrecursorMZ: 459.25014
RT: 1.4866
ExactMass: 458.24302422
Spectrum_type: 2
charge: 1
Formula: C26H30N6O2
SMILES: CN1C2=C(C(=O)N(C1=O)C)N3CC(=NN(C3=N2)CC4=CC=CC=C4)C56CC7CC(C5)CC(C7)C6
Method: HCD
Collision_energy: [28.333334]
Isolation_window: 4.0
Ion_mode: P
Num Peaks: 3
165.0905	15.4
459.2500	100.0
460.2538	25.1

Name: 3-(1H-indol-3-yl)-2-(octadec-9-enoylamino)propanoic acid
PrecursorMZ: 469.34212
RT: 1.3073
ExactMass: 468.33519327
Spectrum_type: 2
charge: 1
Formula: C29H44N2O3
SMILES: CCCCCCCCC=CCCCCCCCC(=O)NC(CC1=CNC2=CC=CC=C21)C(=O)O
Method: HCD
Collision_energy: [28.333334]
Isolation_window: 4.0
Ion_mode: P
Num Peaks: 10
130.0650	6.3
146.0599	12.0
159.0915	39.0
160.0949	3.9
188.0703	100.0
189.0736	9.1
205.0968	49.1
423.3361	4.5
469.3421	11.8
470.3459	3.2

Name: 3-(1H-indol-3-yl)-2-(pentanoylamino)propanoic acid
PrecursorMZ: 289.15423
RT: 3.0536
ExactMass: 288.1473925
Spectrum_type: 2
charge: 1
Formula: C16H20N2O3
SMILES: CCCCC(=O)NC(CC1=CNC2=CC=CC=C21)C(=O)O
Method: HCD
Collision_energy: [28.333334]
Isolation_window: 4.0
Ion_mode: P
Num Peaks: 11
57.0703	9.7
130.0651	10.4
146.0599	13.1
159.0914	42.9
164.0702	10.6
188.0702	100.0
189.0738	12.4
205.0967	53.6
243.1485	9.1
288.0859	11.7
289.1543	12.2

Name: 3-(2,4-Dihydroxypentyl)-6,8-dimethoxyisochromen-1-one
PrecursorMZ: 309.13245
RT: 1.3489
ExactMass: 308.12598835
Spectrum_type: 2
charge: 1
Formula: C16H20O6
SMILES: CC(CC(CC1=CC2=CC(=CC(=C2C(=O)O1)OC)OC)O)O
Method: HCD
Collision_energy: [28.333334]
Isolation_window: 4.0
Ion_mode: P
Num Peaks: 12
59.0495	17.6
69.8986	7.5
81.0337	72.3
152.1067	11.7
177.0542	10.6
203.0699	20.2
219.0647	41.2
273.1110	9.9
291.1219	100.0
292.1251	18.2
309.1324	8.2
311.1954	10.0

Name: 3-(2-(2,3-dihydroxy-5,6,8a-trimethyloctahydro-2H-spiro(naphthalene-1,2'-oxiran)-5-yl)ethyl)-5-hydroxyfuran-2(5H)-one
PrecursorMZ: 389.19138
RT: 10.2132
ExactMass: 366.20423867
Spectrum_type: 2
charge: 1
Formula: C20H30O6
SMILES: CC1CCC2(C(C1(C)CCC3=CC(OC3=O)O)CC(C(C24CO4)O)O)C
Method: HCD
Collision_energy: [28.333334]
Isolation_window: 4.0
Ion_mode: P
Num Peaks: 19
55.0547	3.4
69.3506	1.4
83.0494	1.4
97.3990	1.5
101.0599	9.1
149.0232	1.8
175.0866	1.4
199.1076	3.6
217.0967	1.8
235.1079	1.7
253.1181	1.2
271.1286	2.4
289.1390	9.0
299.1597	21.5
300.1630	3.3
388.1589	5.0
389.1913	100.0
390.1948	18.1
391.1975	2.1

Name: 3-(2-(6,7-dihydroxy-1,2,4a-trimethylspiro(3,4,6,7,8,8a-hexahydro-2H-naphthalene-5,2'-oxirane)-1-yl)ethyl)-2-hydroxy-2H-furan-5-one
PrecursorMZ: 408.23808
RT: 1.0146
ExactMass: 366.20423867
Spectrum_type: 2
charge: 1
Formula: C20H30O6
SMILES: CC1CCC2(C(C1(C)CCC3=CC(=O)OC3O)CC(C(C24CO4)O)O)C
Method: HCD
Collision_energy: [28.333334]
Isolation_window: 4.0
Ion_mode: P
Num Peaks: 9
57.0704	23.9
71.0860	18.9
227.2003	23.8
345.1693	16.0
363.1802	73.8
364.1839	14.6
407.3854	15.5
408.2380	100.0
409.2416	21.1

Name: 3-(2-Chlorophenyl)-5-methyl-7-(pyrrolidin-1-yl)pyrazolo)1,5-a(pyrimidine
PrecursorMZ: 313.12099
RT: 3.4634
ExactMass: 312.1141743
Spectrum_type: 2
charge: 1
Formula: C17H17ClN4
SMILES: CC1=NC2=C(C=NN2C(=C1)N3CCCC3)C4=CC=CC=C4Cl
Method: HCD
Collision_energy: [28.333334]
Isolation_window: 4.0
Ion_mode: P
Num Peaks: 242
55.0547	1.4
57.0341	0.6
58.0658	0.9
59.0497	0.6
60.0450	1.4
67.0547	0.7
68.0499	0.6
69.0340	1.1
70.0657	5.7
71.0495	1.2
72.0448	0.9
72.0813	1.3
80.0500	0.7
81.0340	1.8
82.0655	1.1
83.0495	2.5
83.0607	1.1
84.0449	1.7
84.0812	5.7
85.0288	3.2
85.0652	0.7
86.0605	1.8
87.0445	2.7
90.0553	0.6
94.0656	0.7
95.0495	0.8
96.0448	3.4
96.0811	0.7
97.0287	2.4
98.0605	1.6
99.0445	1.4
100.0760	1.9
101.0600	12.4
102.0554	0.9
103.0394	0.7
108.0446	1.1
109.0765	0.7
110.0605	1.5
110.0718	0.7
111.0444	1.3
112.0398	0.9
112.0760	3.8
114.0553	2.5
114.0665	4.1
114.0916	0.7
114.1033	1.1
116.0709	2.7
118.0865	2.9
120.0808	0.8
122.0602	3.0
123.0445	1.0
124.0397	1.2
124.0762	0.7
126.0552	3.1
126.0917	1.1
127.0392	1.3
128.0709	1.9
129.0549	1.8
129.1026	1.8
130.0500	1.9
130.0865	8.0
132.0776	0.9
134.0605	0.7
136.0758	1.4
138.0550	2.7
140.0346	1.6
140.0710	2.9
141.0658	3.6
142.0865	4.2
144.0658	2.7
144.1022	2.5
145.0495	1.3
146.0812	0.7
146.0928	1.7
147.1125	0.9
148.0970	1.9
150.0551	3.2
150.0914	1.6
152.0227	1.3
152.0711	2.3
153.0660	0.7
154.0868	1.1
156.0655	1.0
156.0774	0.6
157.0974	1.1
158.0815	1.6
160.0971	9.9
162.0554	0.7
162.0764	1.5
162.0918	1.4
164.0705	1.4
164.0924	0.7
166.0494	1.1
166.0617	0.7
166.0862	1.8
167.0821	0.6
168.0656	5.8
168.1019	0.9
170.0813	1.2
171.0761	1.4
172.0969	3.4
174.0764	0.6
176.0707	0.9
176.0922	0.9
176.1073	2.0
178.0855	1.3
180.0651	2.2
180.1013	1.6
181.0969	0.7
182.0793	1.3
182.0933	0.7
183.1123	3.4
184.0603	0.8
184.0968	3.1
186.0761	13.8
186.1125	0.7
187.0789	1.0
192.0646	0.9
192.1014	1.1
193.0972	2.2
194.0813	1.7
194.1184	0.8
195.0770	0.7
195.1124	1.7
196.0962	2.9
197.0900	0.9
197.1294	0.7
198.0758	0.7
198.1130	0.9
199.1067	0.9
200.0916	1.5
200.1049	1.1
202.1076	1.7
204.0865	1.8
204.1038	1.6
206.0812	0.8
208.0958	1.7
210.1094	1.0
214.1072	4.3
220.0970	0.9
222.0752	0.8
222.1110	1.7
223.1109	0.6
224.0906	1.9
225.1238	0.6
226.1065	2.2
227.1159	3.7
232.1174	1.8
234.1127	0.9
236.0918	1.4
238.1070	1.3
240.0876	1.1
240.1234	0.8
241.1202	0.8
242.0997	0.8
244.1172	1.3
248.0930	0.7
250.1083	0.7
252.1254	0.7
253.1204	0.8
254.1046	0.8
255.1101	1.9
256.1182	1.0
258.1081	1.0
258.1345	1.0
262.1283	0.7
265.1212	0.7
266.1010	1.3
267.1338	1.8
268.1179	4.8
269.1302	2.4
270.1121	2.0
270.1444	3.4
276.1191	1.1
278.1004	0.9
279.1345	0.8
282.1002	0.6
283.1379	1.4
284.1135	3.5
284.1496	0.6
286.1287	7.5
287.1322	1.3
288.1068	2.3
295.1284	1.6
296.1148	3.0
298.1029	2.1
298.1392	1.1
299.1350	1.4
300.1465	1.7
301.1415	1.6
302.1243	3.4
302.1595	1.0
303.1294	0.7
303.1582	0.6
304.1394	80.9
305.1431	12.2
306.1184	4.5
306.1484	1.6
307.1239	1.1
309.1470	0.6
311.1271	2.5
311.1606	1.6
312.1094	7.0
312.1531	7.7
313.1198	50.4
314.0740	3.5
314.1249	23.2
314.1547	1.2
315.1262	7.8
315.1580	8.9
316.1207	2.6
316.1490	15.8
317.1458	14.7
318.1290	4.6
318.1600	5.1
319.1525	5.6
319.1971	1.9
320.1339	9.3
320.1699	8.8
321.1038	0.9
321.1334	1.7
321.1682	3.1
322.1503	100.0
323.1246	3.1
323.1529	16.0
324.1104	3.1
324.1585	5.1
325.1408	7.5
325.1751	1.1
326.1258	7.0
326.1679	1.9
327.1003	1.2
327.1290	0.9
327.1580	8.3
328.1394	14.0
329.1419	7.7
329.1725	4.6
330.1188	11.0
330.1569	5.6
330.3363	0.8
331.1603	17.5
332.1354	21.6

Name: 3-(2-Hydroxy-3-methoxyphenyl)-1,5-dimethyl-4,6-dioxooctahydropyrrolo(3,4-c)pyrrole-1-carboxylic acid
PrecursorMZ: 335.12339
RT: 4.9479
ExactMass: 334.1164863
Spectrum_type: 2
charge: 1
Formula: C16H18N2O6
SMILES: CC1(C2C(C(N1)C3=C(C(=CC=C3)OC)O)C(=O)N(C2=O)C)C(=O)O
Method: HCD
Collision_energy: [28.333334]
Isolation_window: 4.0
Ion_mode: P
Num Peaks: 29
69.4332	4.6
84.0447	3.2
86.0967	6.5
97.4570	3.2
120.0808	9.7
126.0912	5.3
148.0753	3.5
159.0915	6.3
164.0705	14.6
166.0861	7.5
177.1021	3.0
182.0810	17.1
188.0704	9.4
204.1016	59.0
205.0968	5.6
205.1055	6.7
257.1279	4.2
289.0634	6.3
289.1178	3.7
294.0790	3.8
303.1331	3.0
307.1282	100.0
308.1318	16.0
334.1284	3.5
335.1230	36.2
335.1571	5.9
336.1065	3.9
336.1253	6.4
337.1385	3.4

Name: 3-(2-Hydroxypropyl)-6,8-dimethoxyisochromen-1-one
PrecursorMZ: 265.10712
RT: 2.5256
ExactMass: 264.09977361
Spectrum_type: 2
charge: 1
Formula: C14H16O5
SMILES: CC(CC1=CC2=CC(=CC(=C2C(=O)O1)OC)OC)O
Method: HCD
Collision_energy: [28.333334]
Isolation_window: 4.0
Ion_mode: P
Num Peaks: 104
57.0340	3.6
58.0657	1.3
69.0703	2.6
72.0812	7.2
81.0702	2.9
83.0495	1.6
91.0544	1.5
93.0702	2.0
95.0495	1.4
95.0858	1.9
100.0760	1.3
105.0700	2.6
107.0859	1.6
109.0524	1.5
109.0649	1.4
117.0701	1.9
118.0865	2.3
119.0857	2.7
120.0810	84.8
121.0650	2.1
121.0843	5.7
121.1015	1.4
123.1169	2.0
125.0598	2.3
131.0856	1.8
133.0649	2.1
133.1014	2.6
135.0805	4.9
137.0599	1.3
137.0963	2.1
139.0391	15.8
140.0707	4.1
145.0651	1.5
145.1013	5.6
147.0440	1.8
147.0806	1.4
149.0598	12.9
149.0963	2.5
151.0392	3.7
151.1119	6.0
153.0548	3.4
159.0806	3.2
161.0599	2.1
161.0962	1.3
162.0915	7.7
163.0755	8.8
163.1119	1.9
165.0548	59.6
165.0908	1.4
166.0580	5.9
167.0341	2.1
167.0702	1.5
168.0658	2.1
173.0962	6.4
175.1118	1.4
177.0546	3.9
177.0911	4.4
178.1227	2.8
179.0703	4.5
179.1068	1.6
187.0754	3.3
191.0701	2.4
191.1067	11.1
192.1102	1.6
193.0495	1.5
201.0911	9.2
202.0499	8.4
203.1066	3.1
203.1177	1.4
205.0495	1.6
205.0859	26.6
206.0810	8.2
206.0897	3.0
206.1174	2.1
207.0649	1.3
219.1017	28.7
219.1122	1.7
219.1491	3.0
220.0606	3.5
220.1057	3.3
220.1332	2.3
223.0965	100.0
224.0998	14.3
229.0860	6.7
230.0448	8.9
237.1122	11.3
246.1121	2.4
247.0965	18.2
248.0553	9.3
248.1021	2.5
248.1277	2.6
263.1111	1.5
263.1387	2.1
264.0861	2.8
264.1230	6.7
264.1955	3.4
265.1063	12.9
265.1184	5.8
265.1309	9.7
265.1541	9.5
266.0652	3.5
266.1009	6.2
266.1383	9.5
267.1338	2.2

Name: 3-(2-Methyl-1-piperidyl)-1-(2,3,5-trimethylphenoxy)-2-propanol
PrecursorMZ: 292.22673
RT: 1.6127
ExactMass: 291.219829168
Spectrum_type: 2
charge: 1
Formula: C18H29NO2
SMILES: CC1CCCCN1CC(COC2=CC(=CC(=C2C)C)C)O
Method: HCD
Collision_energy: [28.333334]
Isolation_window: 4.0
Ion_mode: P
Num Peaks: 85
55.0546	0.4
67.0546	0.9
69.0702	0.8
69.1842	0.4
71.0494	0.5
79.0545	0.6
81.0337	0.7
81.0701	1.6
83.0857	1.0
85.0649	0.7
91.0543	0.5
93.0700	1.2
95.0492	1.2
95.0856	1.8
97.0649	0.6
97.1011	0.5
99.0440	0.4
99.0805	0.6
105.0698	0.8
107.0856	1.4
109.0648	0.7
109.1012	1.2
111.0805	0.5
117.0698	0.4
119.0855	0.8
120.0805	0.4
121.0647	0.4
121.1011	1.2
123.0804	0.5
123.1168	0.7
124.0755	0.4
125.0960	0.6
126.0913	1.3
131.0853	0.6
133.1010	0.9
135.0804	0.5
135.1166	0.7
137.0958	0.6
145.1010	0.5
147.0802	0.5
147.1166	0.7
149.0960	0.8
149.1322	0.5
150.0910	0.4
151.1116	1.9
159.1165	0.7
163.1115	0.6
165.0910	0.5
166.0861	0.7
168.1018	0.4
173.0957	0.4
177.1269	0.6
203.0697	0.4
232.0961	0.6
246.2212	1.5
247.1434	0.7
265.1540	0.6
273.1843	0.7
274.1067	0.6
274.2159	15.4
275.1999	1.4
275.2194	3.1
291.1212	0.6
291.1343	2.1
291.1702	1.9
291.1948	1.9
291.2133	0.5
291.2311	0.5
291.2675	0.4
292.1169	1.9
292.1528	1.2
292.1916	1.2
292.1989	0.5
292.2264	100.0
292.2537	0.6
292.2604	0.7
293.1491	2.7
293.1858	1.0
293.2108	3.5
293.2296	19.4
294.0967	0.5
294.1325	1.2
294.1679	0.9
294.2062	0.5
294.2315	1.3

Name: 3-(2-Methylpropyl)-3a,4,5,6-tetrahydro-2-benzofuran-1(3h)-one
PrecursorMZ: 177.12699
RT: 2.2033
ExactMass: 194.130679813
Spectrum_type: 2
charge: 1
Formula: C12H18O2
SMILES: CC(C)CC1C2CCCC=C2C(=O)O1
Method: HCD
Collision_energy: [28.333334]
Isolation_window: 4.0
Ion_mode: P
Num Peaks: 26
67.0545	24.1
69.6252	11.5
79.0543	24.2
81.0700	54.1
83.0855	13.4
91.0542	25.1
93.0698	70.4
95.0855	21.5
97.0647	11.7
105.0697	13.7
107.0854	13.7
117.0697	20.0
119.0853	12.6
121.1008	11.9
131.0851	22.3
133.1008	50.6
135.1164	17.5
149.1320	17.5
159.1164	72.9
160.1197	10.5
161.1318	16.0
176.8747	13.5
177.1268	100.0
178.0859	10.1
178.1304	12.7
179.1424	26.6

Name: 3-(3,4-dihydro-2H-benzo(b)(1,4)dioxepin-7-yl)-2,8-dimethyl-4-oxo-4H-chromen-7-yl acetate
PrecursorMZ: 403.11013
RT: 0.83424
ExactMass: 380.12598835
Spectrum_type: 2
charge: 1
Formula: C22H20O6
SMILES: CC1=C(C=CC2=C1OC(=C(C2=O)C3=CC4=C(C=C3)OCCCO4)C)OC(=O)C
Method: HCD
Collision_energy: [28.333334]
Isolation_window: 4.0
Ion_mode: P
Num Peaks: 4
401.2657	7.5
403.1096	100.0
404.1128	19.7
405.1076	10.2

Name: 3-(3,4-dimethoxyphenyl)-6-hydroxy-4-methyl-2H-chromen-2-one
PrecursorMZ: 313.10696
RT: 8.1125
ExactMass: 312.09977361
Spectrum_type: 2
charge: 1
Formula: C18H16O5
SMILES: CC1=C(C(=O)OC2=C1C=C(C=C2)O)C3=CC(=C(C=C3)OC)OC
Method: HCD
Collision_energy: [28.333334]
Isolation_window: 4.0
Ion_mode: P
Num Peaks: 149
69.0339	0.5
70.0654	5.5
72.0812	0.8
84.0446	2.0
84.0810	0.5
85.0287	0.8
90.0552	0.5
96.0446	0.4
97.3980	0.4
98.0596	0.5
101.0600	0.9
102.0549	0.8
107.0417	0.7
107.0493	100.0
107.0569	0.8
108.0527	6.6
110.0603	1.6
110.0709	0.5
114.0550	0.6
116.0707	3.4
121.0285	6.5
122.0601	0.9
123.0438	0.6
124.0757	0.7
124.0870	1.8
126.0550	0.7
130.0499	1.0
130.0863	0.5
136.0759	0.7
137.0709	0.9
138.0551	1.4
138.0915	0.9
140.0340	0.6
140.0707	1.8
147.0441	3.1
149.0056	1.4
149.0598	0.5
150.0551	0.9
152.0706	3.1
154.0500	0.9
154.0865	0.7
156.0656	0.7
162.0551	0.8
164.0706	0.9
165.0546	0.5
165.0661	1.0
166.0865	0.6
167.0706	0.6
168.0656	2.6
168.1020	1.8
170.0813	2.7
170.0923	1.2
171.0765	0.9
173.0597	1.2
178.0864	0.7
180.0656	1.6
181.0319	1.0
182.0813	1.2
183.0760	0.5
184.0605	1.4
189.0546	6.2
190.0582	0.7
194.0808	0.5
195.1130	0.3
196.0608	0.5
196.0969	0.5
198.0762	4.5
199.0712	0.3
199.0791	0.5
199.1078	1.1
200.1029	0.5
201.0551	0.6
206.0815	0.5
207.0805	1.6
211.0753	5.7
212.0786	0.6
221.0961	10.2
222.0993	1.2
223.0754	1.4
223.1075	1.6
224.0920	0.7
225.0911	4.0
226.0712	0.7
226.0945	0.8
235.0752	0.6
236.0919	0.5
239.1070	0.8
247.0385	1.1
249.0909	19.1
250.0946	2.8
250.1072	0.7
250.1185	0.4
251.1025	3.7
252.0778	0.5
252.0981	0.5
253.0858	19.2
254.0894	2.9
255.1013	2.5
265.0856	0.4
265.1185	0.9
266.1017	0.7
267.1015	45.4
267.1315	1.2
268.1052	7.2
268.1179	0.8
269.1137	1.0
269.1246	0.5
271.0965	1.2
277.0858	30.2
278.0892	5.6
279.0915	0.3
279.0977	1.5
285.1118	0.5
294.0958	0.9
295.0616	0.6
295.0826	0.7
295.0964	81.2
295.1255	0.5
295.1301	0.8
296.0997	13.9
296.1122	0.8
296.1236	0.5
297.1014	1.2
297.1133	1.0
311.0918	0.5
311.1235	2.2
312.0872	0.6
312.1069	3.5
312.1233	1.0
312.1432	1.2
312.1919	2.0
313.0322	0.5
313.0691	0.6
313.0800	4.5
313.1063	5.6
313.1379	2.9
313.1754	0.9
314.0813	5.3
314.1011	1.0
314.1052	0.9
314.1216	2.6
314.1366	0.7
314.1721	0.3
315.0852	1.3
315.1008	0.5
315.1198	1.8
315.1317	0.9
315.1541	1.9
315.1913	4.7

Name: 3-(3,5-Dimethoxyphenyl)-2-propenoic acid
PrecursorMZ: 209.08087
RT: 2.288
ExactMass: 208.07355886
Spectrum_type: 2
charge: 1
Formula: C11H12O4
SMILES: COC1=CC(=CC(=C1)C=CC(=O)O)OC
Method: HCD
Collision_energy: [28.333334]
Isolation_window: 4.0
Ion_mode: P
Num Peaks: 9
89.0601	15.4
163.0755	27.9
167.0705	13.9
181.0861	16.6
191.0703	30.6
208.0971	23.4
209.0809	100.0
210.0844	10.8
210.1125	62.6

Name: 3-(3-(3-Butoxypropoxy)propoxy)propan-1-ol
PrecursorMZ: 249.20573
RT: 1.0931
ExactMass: 248.19875937
Spectrum_type: 2
charge: 1
Formula: C13H28O4
SMILES: CCCCOCCCOCCCOCCCO
Method: HCD
Collision_energy: [28.333334]
Isolation_window: 4.0
Ion_mode: P
Num Peaks: 25
57.0339	1.3
57.0703	11.3
59.0495	100.0
60.0529	3.5
81.0701	1.5
87.0443	1.3
89.0599	4.6
98.9842	10.3
101.0597	1.8
107.0858	1.3
115.1117	6.0
117.0910	3.6
119.0856	1.6
135.1167	1.4
173.1535	2.8
175.1479	2.8
218.0805	1.5
231.1743	1.5
248.1274	1.7
248.1635	1.7
249.1228	5.0
249.1601	2.2
249.1844	3.1
250.1440	1.4
251.0470	1.3

Name: 3-(3-Amino-5,6-dimethoxyphenyl)propanoic acid
PrecursorMZ: 208.09674
RT: 4.2708
ExactMass: 225.10010796
Spectrum_type: 2
charge: 1
Formula: C11H15NO4
SMILES: COC1=CC(=CC(=C1OC)CCC(=O)O)N
Method: HCD
Collision_energy: [28.333334]
Isolation_window: 4.0
Ion_mode: P
Num Peaks: 23
86.0608	1.0
101.0600	1.5
107.0732	3.7
124.0760	1.5
136.0760	1.8
148.0760	5.2
151.0870	2.1
162.0917	2.7
165.0552	0.8
190.0865	6.1
191.0901	0.9
208.0558	0.7
208.0971	100.0
208.1373	0.7
209.1004	12.3
209.1281	0.8
210.0796	2.6
210.1026	0.9
210.1338	1.1
222.1114	0.7
224.1283	8.4
225.1305	1.0
226.1079	1.9

Name: 3-(3-Chlorophenyl)-6-methyl-5-(4-methylpiperidin-1-yl)-1,2,4-triazine
PrecursorMZ: 303.13717
RT: 2.521
ExactMass: 302.1298243
Spectrum_type: 2
charge: 1
Formula: C16H19ClN4
SMILES: CC1CCN(CC1)C2=C(N=NC(=N2)C3=CC(=CC=C3)Cl)C
Method: HCD
Collision_energy: [28.333334]
Isolation_window: 4.0
Ion_mode: P
Num Peaks: 22
88.0218	5.2
99.0555	10.6
103.0214	6.9
124.0757	3.1
132.0478	5.2
142.0863	10.7
144.1383	10.0
159.0587	32.0
160.0621	1.8
173.1283	3.0
174.0583	4.8
175.0536	7.2
184.0967	8.2
201.0691	7.8
261.1264	3.7
285.1231	4.1
287.1017	2.1
303.1370	100.0
303.2275	4.2
304.1404	14.6
304.2998	1.8
305.1574	10.6

Name: 3-(3-Hydroxyphenyl)-2-propenoic acid
PrecursorMZ: 147.04397
RT: 8.034175000000001
ExactMass: 164.047344113
Spectrum_type: 2
charge: 1
Formula: C9H8O3
SMILES: C1=CC(=CC(=C1)O)C=CC(=O)O
Method: HCD
Collision_energy: [28.333334]
Isolation_window: 4.0
Ion_mode: P
Num Peaks: 11
84.0446	13.3
84.0810	7.4
91.0544	19.3
100.0758	9.8
103.0543	5.9
119.0491	100.0
120.0523	7.7
123.9643	6.4
147.0439	18.5
148.0966	14.3
149.0231	7.4

Name: 3-(4-Hydroxyphenyl)-2-(octadec-9-enoylamino)propanoic acid
PrecursorMZ: 446.32592
RT: 1.2004
ExactMass: 445.31920885
Spectrum_type: 2
charge: 1
Formula: C27H43NO4
SMILES: CCCCCCCCC=CCCCCCCCC(=O)NC(CC1=CC=C(C=C1)O)C(=O)O
Method: HCD
Collision_energy: [28.333334]
Isolation_window: 4.0
Ion_mode: P
Num Peaks: 49
70.0656	6.9
72.0812	3.3
81.0339	4.6
84.0447	2.0
84.0812	6.5
86.0969	3.2
89.0601	1.9
100.0761	4.8
107.0493	1.4
110.0604	1.6
110.0715	1.4
111.0444	4.2
116.0708	9.6
120.0811	1.4
126.0915	1.5
128.0709	28.5
130.0502	2.0
130.0863	2.6
137.0600	1.8
140.0707	1.6
140.1071	2.5
152.0707	1.6
156.1021	2.3
182.0808	1.6
185.0931	2.1
195.0778	2.7
214.1067	3.2
223.0715	6.5
223.1064	1.7
253.1955	1.7
269.1149	2.0
271.2058	2.8
322.1405	3.1
430.3319	30.3
431.3348	9.5
432.3405	1.6
444.3112	6.7
445.3153	3.4
446.1737	1.8
446.3265	100.0
447.3297	27.4
448.1668	2.4
448.3370	8.6
449.3433	1.8
451.1772	2.5
452.1774	1.7
459.2857	7.0
460.1713	1.5
460.2893	2.6

Name: 3-(4-Methyl-1-(2-methylpropanoyl)-3-oxocyclohexyl)butanoic acid
PrecursorMZ: 269.17459
RT: 1.3918
ExactMass: 268.16745924
Spectrum_type: 2
charge: 1
Formula: C15H24O4
SMILES: CC1CCC(CC1=O)(C(C)CC(=O)O)C(=O)C(C)C
Method: HCD
Collision_energy: [28.333334]
Isolation_window: 4.0
Ion_mode: P
Num Peaks: 132
67.0546	5.6
69.0338	3.2
69.0702	8.6
69.6957	2.8
70.0654	7.0
71.0494	4.4
72.0811	3.3
79.0545	4.4
81.0336	2.0
81.0701	16.4
83.0494	3.8
83.0857	3.0
84.0445	2.0
85.0649	3.3
89.0599	5.3
91.0542	2.3
93.0700	15.4
95.0492	5.4
95.0857	16.3
97.0649	8.1
97.1013	4.4
97.4568	3.4
99.0440	2.7
99.0805	3.8
105.0700	7.6
107.0856	14.8
109.0648	8.1
109.1012	11.8
110.0601	5.6
111.0439	2.4
111.0804	5.0
112.0757	2.2
113.0598	4.0
114.0661	5.0
115.0753	4.0
116.0705	6.4
119.0854	7.0
121.0646	4.4
121.1011	8.1
123.0803	8.1
123.1168	3.8
124.0755	2.2
125.0596	3.1
125.0959	4.2
131.0854	5.6
133.1010	15.3
135.0802	19.8
135.1166	4.2
136.0755	3.4
137.0960	5.0
138.0911	5.8
139.0752	2.9
139.0863	2.5
140.0702	3.1
141.0908	2.7
145.1011	7.6
147.0802	3.1
147.1167	10.2
149.0960	7.4
149.1322	5.2
151.0751	2.3
151.1116	14.0
154.0862	4.0
157.1009	2.9
158.0808	4.1
159.0806	3.4
159.1166	4.8
161.0960	2.4
161.1324	5.3
163.0751	3.0
163.1116	6.2
163.1479	7.0
165.0909	2.2
166.0972	25.2
168.1126	2.2
171.1164	2.3
173.0957	2.9
173.1322	11.4
175.1115	11.9
175.1477	3.1
177.1270	2.6
177.1633	2.7
179.1063	20.4
180.1091	3.1
187.1477	9.1
189.1119	3.9
189.1269	7.6
191.1063	2.5
191.1427	16.4
192.1463	2.4
193.1220	14.6
195.1377	2.1
197.1168	8.6
197.1318	2.2
203.1427	3.7
205.1583	11.0
206.1535	3.2
207.1374	5.0
208.1325	3.6
215.1426	12.6
216.1459	2.4
217.1219	2.9
221.1532	4.5
223.1685	2.7
224.1640	3.0
229.1291	15.7
233.1532	35.1
234.1462	4.8
234.1586	5.2
235.1322	6.4
250.1070	3.7
250.1424	4.6
251.1271	2.0
251.1636	24.3
252.1224	3.1
252.1586	85.0
253.1287	4.9
253.1626	8.0
268.1173	13.5
268.1534	16.5
269.1120	3.8
269.1497	2.9
269.1526	3.7
269.1741	100.0
269.1852	2.7
270.0965	4.2
270.1125	3.6
270.1323	5.6
270.1448	4.1
270.1686	88.1
271.1395	56.5
271.1719	7.8

Name: 3-(4-Morpholinyl)-1-(2-propoxyphenyl)-2,5-pyrrolidinedione
PrecursorMZ: 319.16466
RT: 0.9603
ExactMass: 318.15795719
Spectrum_type: 2
charge: 1
Formula: C17H22N2O4
SMILES: CCCOC1=CC=CC=C1N2C(=O)CC(C2=O)N3CCOCC3
Method: HCD
Collision_energy: [28.333334]
Isolation_window: 4.0
Ion_mode: P
Num Peaks: 47
70.0655	2.4
72.0812	2.1
83.0858	2.3
84.0812	2.2
86.0967	4.3
96.0446	2.1
108.0808	6.7
111.0444	2.1
120.0811	2.4
124.0758	23.3
126.0914	10.1
132.0811	2.1
134.0600	2.1
136.0757	7.6
138.0914	2.7
148.0757	91.5
149.0790	9.4
150.0914	9.4
164.0706	27.3
165.0738	2.1
166.0863	100.0
167.0898	10.9
168.1020	13.0
176.0704	4.9
178.0860	7.7
182.0811	29.9
183.0844	3.0
194.0811	63.3
195.0845	6.6
196.0978	3.3
231.1488	4.2
259.1438	4.0
273.1596	26.0
274.1631	5.1
275.1746	2.5
283.1433	2.7
291.1699	7.2
301.1544	35.6
302.1581	5.1
303.1690	4.4
319.1646	24.1
320.1700	4.6
321.1799	5.5
323.1964	6.7
327.1698	2.9
333.1451	2.3
336.2533	4.9

Name: 3-(4-Oxopentyl)-8-hydroxy-3,4-dihydro-1H-2-benzopyran-1-one
PrecursorMZ: 213.0908
RT: 7.4299
ExactMass: 248.10485899
Spectrum_type: 2
charge: 1
Formula: C14H16O4
SMILES: CC(=O)CCCC1CC2=C(C(=CC=C2)O)C(=O)O1
Method: HCD
Collision_energy: [28.333334]
Isolation_window: 4.0
Ion_mode: P
Num Peaks: 5
185.0959	9.3
195.0802	12.6
212.0913	9.3
213.0906	100.0
214.0942	13.2

Name: 3-(4-chlorophenyl)-2-methyl-5,6,7,8-tetrahydropyrazolo(5,1-b)quinazolin-9(4H)-one
PrecursorMZ: 314.10548
RT: 7.0454
ExactMass: 313.0981898
Spectrum_type: 2
charge: 1
Formula: C17H16ClN3O
SMILES: CC1=C(C2=NC3=C(CCCC3)C(=O)N2N1)C4=CC=C(C=C4)Cl
Method: HCD
Collision_energy: [28.333334]
Isolation_window: 4.0
Ion_mode: P
Num Peaks: 110
55.0547	4.3
59.0496	1.1
70.0656	1.3
75.0556	1.3
83.0495	2.7
84.0448	1.0
84.0811	1.8
87.0443	0.8
100.0759	2.0
101.0599	14.2
111.0443	1.2
112.0758	1.3
114.0665	1.5
118.0864	1.0
123.0555	0.9
126.0551	1.0
126.0914	10.7
130.0863	3.8
140.1070	3.1
144.1020	21.8
145.1053	1.4
152.0166	1.1
154.0322	2.8
158.1177	1.3
162.0916	1.2
166.0323	5.0
166.0865	1.5
167.0818	1.1
170.1177	1.2
172.1333	3.6
178.0322	1.8
180.1021	2.9
184.0969	6.4
184.1336	1.6
186.1126	1.2
190.0864	1.1
192.1020	2.6
196.0428	7.8
196.0969	1.3
198.0875	2.1
204.1232	0.9
208.0968	4.9
210.1127	1.0
214.0533	6.5
217.0971	1.3
218.0814	3.4
232.0966	1.0
234.1122	0.9
235.1075	2.9
236.0917	11.5
237.0949	1.7
239.1496	1.2
248.1473	0.9
250.1074	3.0
252.0689	0.8
253.0766	9.0
253.1182	4.3
254.0847	3.4
254.1385	1.6
260.0916	7.1
261.0947	1.2
266.0845	14.7
267.0879	2.2
269.1857	2.6
276.1427	0.8
277.1178	1.8
278.0863	0.8
278.1021	9.2
279.1063	1.2
280.1175	1.2
283.1401	3.8
287.1965	17.0
288.2004	1.5
294.1333	1.2
295.1653	2.8
296.0951	10.1
296.1128	2.1
297.0967	1.3
297.1812	0.9
298.1281	2.2
312.1071	1.9
312.1239	0.9
312.1439	2.5
312.1621	3.2
312.1925	5.4
313.1180	3.1
313.1393	5.8
313.1548	1.7
313.1753	17.8
313.1913	1.2
313.2114	5.2
314.0753	2.3
314.1056	100.0
314.1207	3.7
314.1370	4.9
314.1730	4.7
314.1959	2.1
315.1087	13.4
315.1332	2.8
315.1541	1.6
315.1670	15.6
315.1715	2.8
315.1912	40.1
316.1002	2.5
316.1175	5.0
316.1378	1.9
316.1539	2.7
316.1691	1.9
316.1941	3.7
316.2118	1.6

Name: 3-(5,7-Dimethoxy-4-oxochromen-2-yl)propanoic acid
PrecursorMZ: 279.0862
RT: 8.4204
ExactMass: 278.07903816
Spectrum_type: 2
charge: 1
Formula: C14H14O6
SMILES: COC1=CC2=C(C(=C1)OC)C(=O)C=C(O2)CCC(=O)O
Method: HCD
Collision_energy: [28.333334]
Isolation_window: 4.0
Ion_mode: P
Num Peaks: 9
149.0234	5.9
191.0703	14.6
205.0854	7.2
215.0702	9.4
233.0807	100.0
234.0841	15.9
261.0756	70.6
262.0793	11.8
279.0868	16.4

Name: 3-(6-hydroxy-7-methyloctyl)-3,6-dihydro-1H-furo(3,4-c)furan-4-one
PrecursorMZ: 251.16413
RT: 5.1195
ExactMass: 268.16745924
Spectrum_type: 2
charge: 1
Formula: C15H24O4
SMILES: CC(C)C(CCCCCC1C2=C(CO1)COC2=O)O
Method: HCD
Collision_energy: [28.333334]
Isolation_window: 4.0
Ion_mode: P
Num Peaks: 68
55.0547	1.2
67.0547	2.9
69.0703	4.6
71.0496	1.0
79.0546	1.7
81.0703	4.8
83.0495	1.5
83.0859	1.1
85.0652	0.9
89.0601	1.8
91.0545	1.2
93.0702	3.3
95.0494	0.9
95.0858	4.5
97.0650	6.9
97.1014	2.5
105.0701	1.6
107.0858	3.6
109.0652	1.2
109.1014	7.4
119.0856	1.6
121.0649	1.1
121.1013	3.4
123.0805	1.0
123.1168	1.3
125.0598	100.0
125.0962	1.8
126.0632	6.5
127.1119	2.2
131.0857	1.8
133.1013	1.7
135.0805	2.1
135.1169	1.7
143.0704	9.5
145.1012	1.2
147.1169	1.6
149.0962	1.4
177.1638	1.0
187.1482	1.7
192.1018	1.1
204.1018	1.2
205.0857	0.9
205.1588	2.9
206.0812	1.5
206.1175	1.2
215.1432	1.4
217.1221	1.0
232.0965	1.2
233.1538	4.5
234.1124	1.4
239.1030	1.2
249.1581	1.5
249.1850	2.3
250.0711	1.4
250.1071	3.3
250.1889	1.0
251.0912	0.9
251.1027	2.3
251.1273	1.2
251.1410	1.5
251.1641	12.6
251.2005	1.9
252.0866	2.8
252.1229	4.8
252.1346	1.9
252.1693	1.4
253.1186	1.3
253.1572	1.1

Name: 3-(6-methoxy-1,3,4,9-tetrahydro-2H-beta-carbolin-2-yl)-1-methylpyrrolidine-2,5-dione
PrecursorMZ: 336.12998
RT: 8.2151
ExactMass: 313.14264148
Spectrum_type: 2
charge: 1
Formula: C17H19N3O3
SMILES: CN1C(=O)CC(C1=O)N2CCC3=C(C2)NC4=C3C=C(C=C4)OC
Method: HCD
Collision_energy: [28.333334]
Isolation_window: 4.0
Ion_mode: P
Num Peaks: 27
70.0656	1.8
84.0811	3.7
101.0599	1.7
123.0442	1.3
128.0707	2.2
130.0864	2.7
187.0993	1.9
232.1184	1.8
317.1744	1.3
318.1191	1.6
320.1486	1.6
334.1260	2.8
334.1627	1.3
334.1833	3.4
335.1240	5.0
335.1434	2.0
335.1612	8.0
335.1832	2.0
335.1979	2.1
336.0886	2.3
336.1299	100.0
337.1355	20.7
337.1753	5.4
338.1225	1.4
338.1384	2.5
338.1600	2.2
338.1739	1.4

Name: 3-(9H-pyrido(3,4-b)indol-1-yl)propanoic acid
PrecursorMZ: 241.09711
RT: 4.6966
ExactMass: 240.08987763
Spectrum_type: 2
charge: 1
Formula: C14H12N2O2
SMILES: C1=CC=C2C(=C1)C3=C(N2)C(=NC=C3)CCC(=O)O
Method: HCD
Collision_energy: [28.333334]
Isolation_window: 4.0
Ion_mode: P
Num Peaks: 9
89.0601	2.2
114.0915	6.2
181.0763	3.7
223.0866	70.9
224.0902	11.7
240.0873	2.9
241.0971	100.0
242.0819	4.7
242.1008	15.8

Name: 3-(Benzoyloxy)-2-hydroxypropyl beta-d-glucopyranosiduronic acid
PrecursorMZ: 395.09456
RT: 7.5938
ExactMass: 372.10564683
Spectrum_type: 2
charge: 1
Formula: C16H20O10
SMILES: C1=CC=C(C=C1)C(=O)OCC(CO[C@H]2[C@@H]([C@H]([C@@H]([C@H](O2)C(=O)O)O)O)O)O
Method: HCD
Collision_energy: [28.333334]
Isolation_window: 4.0
Ion_mode: P
Num Peaks: 4
395.0944	100.0
395.1498	31.0
395.2041	8.6
396.0969	12.1

Name: 3-(Benzylamino-methyl)-6-methoxy-1H-quinolin-2-one
PrecursorMZ: 317.12584
RT: 2.74965
ExactMass: 294.136827821
Spectrum_type: 2
charge: 1
Formula: C18H18N2O2
SMILES: COC1=CC2=C(C=C1)NC(=O)C(=C2)CNCC3=CC=CC=C3
Method: HCD
Collision_energy: [28.333334]
Isolation_window: 4.0
Ion_mode: P
Num Peaks: 6
86.0966	16.1
112.8957	14.9
114.8929	22.1
139.9145	14.0
317.1259	100.0
318.1298	20.7

Name: 3-(Dimethylamino)phenol
PrecursorMZ: 138.09129
RT: 2.7723
ExactMass: 137.084063974
Spectrum_type: 2
charge: 1
Formula: C8H11NO
SMILES: CN(C)C1=CC(=CC=C1)O
Method: HCD
Collision_energy: [28.333334]
Isolation_window: 4.0
Ion_mode: P
Num Peaks: 4
123.0678	10.9
138.0912	100.0
139.0864	7.9
139.0943	6.9

Name: 3-(Pyrrolidin-2-yl)pyridine
PrecursorMZ: 149.10731
RT: 7.8714
ExactMass: 148.100048391
Spectrum_type: 2
charge: 1
Formula: C9H12N2
SMILES: C1CC(NC1)C2=CN=CC=C2
Method: HCD
Collision_energy: [28.333334]
Isolation_window: 4.0
Ion_mode: P
Num Peaks: 30
70.0655	1.6
80.0497	1.2
88.0759	1.9
107.0604	2.3
107.0730	7.3
108.0808	0.8
114.0913	1.0
121.0758	1.2
123.0915	1.9
132.0806	0.7
132.1017	4.7
134.0838	1.0
139.0864	3.1
147.0916	1.9
148.0755	5.9
148.0949	1.0
148.1119	7.1
149.0232	1.3
149.0789	0.7
149.1072	100.0
150.0372	1.7
150.0774	12.2
150.0911	31.5
150.1028	4.0
150.1111	12.5
150.1274	1.1
151.0613	1.1
151.0864	3.4
151.0944	1.2
151.1227	12.5

Name: 3-(benzo)d()1,3(dioxol-5-yl)-8-((dimethylamino)methyl)-7-hydroxy-2-methyl-6-propyl-4H-chromen-4-one hydrochloride
PrecursorMZ: 432.14937
RT: 10.5511
ExactMass: 431.1499506
Spectrum_type: 2
charge: 1
Formula: C23H26ClNO5
SMILES: CCCC1=CC2=C(C(=C1O)CN(C)C)OC(=C(C2=O)C3=CC4=C(C=C3)OCO4)C.Cl
Method: HCD
Collision_energy: [28.333334]
Isolation_window: 4.0
Ion_mode: P
Num Peaks: 37
70.0656	3.5
71.0858	2.6
73.0287	2.8
80.0547	1.9
84.0810	2.0
87.0443	3.6
89.0600	25.3
133.0860	13.5
149.0232	5.0
177.1122	4.7
192.0656	6.4
224.0930	2.7
252.0863	4.4
269.1137	4.2
270.0967	20.4
271.1008	2.7
272.1129	7.9
311.1232	2.7
341.1344	1.7
342.1157	4.2
343.1482	2.0
415.2529	3.7
428.2614	4.4
431.1658	41.4
432.1496	100.0
433.1544	16.9
434.1646	54.9
435.1652	7.5
435.2076	5.3
436.1888	3.3
437.2163	1.9
438.2115	3.1
445.1813	4.5
445.2402	2.5
447.2011	4.5
448.1954	1.9
449.1826	4.1

Name: 3-)(2-hydroxy-3a,4,5,6,7,7a-hexahydro-3H-furo)3,2-b(pyridin-2-yl)methyl(quinazolin-4-one
PrecursorMZ: 302.14975
RT: 0.6317
ExactMass: 301.14264148
Spectrum_type: 2
charge: 1
Formula: C16H19N3O3
SMILES: C1CC2C(CC(O2)(CN3C=NC4=CC=CC=C4C3=O)O)NC1
Method: HCD
Collision_energy: [28.333334]
Isolation_window: 4.0
Ion_mode: P
Num Peaks: 74
83.0859	1.7
86.0968	0.8
89.0601	0.8
106.0648	1.1
108.0810	4.9
120.0811	0.6
122.0601	0.5
124.0758	8.4
125.0788	0.7
126.0915	6.9
132.0808	2.2
133.0858	0.6
134.0598	1.3
134.0966	0.5
135.0680	2.7
136.0758	4.4
138.0913	3.0
144.1020	2.8
148.0757	100.0
148.1002	0.7
149.0792	8.8
150.0915	9.4
164.0707	2.2
166.0575	0.6
166.0863	97.8
166.1155	0.7
167.0898	9.9
168.1022	9.0
176.0707	3.9
177.0782	1.6
178.0863	8.3
180.1019	6.0
181.1056	0.7
182.0811	0.9
194.0811	59.5
195.0846	5.9
196.0978	3.2
214.1226	0.8
229.1335	5.6
230.1368	0.7
231.1492	4.3
233.1648	0.6
245.1279	0.5
255.1125	1.1
255.1486	0.8
257.1283	32.5
257.1601	0.6
258.1111	1.7
258.1318	4.4
259.1440	6.5
260.1480	1.0
271.1437	0.6
273.1596	36.2
274.1630	6.5
275.1750	3.9
283.1440	2.1
285.1235	5.8
286.1312	1.2
287.1382	0.9
289.1535	1.1
291.1701	9.2
292.1733	1.8
293.1849	1.4
299.1380	0.8
301.1544	47.8
302.1577	8.8
303.1334	11.5
303.1687	6.6
304.1175	2.2
304.1404	0.8
317.1494	1.0
319.1649	24.6
320.1685	4.8
321.1801	5.2

Name: 3-)(4-Hydroxyphenyl)methyl(-2,3,6,7,8,8a-hexahydropyrrolo)1,2-a(pyrazine-1,4-dione
PrecursorMZ: 261.123
RT: 1.0662
ExactMass: 260.11609238
Spectrum_type: 2
charge: 1
Formula: C14H16N2O3
SMILES: C1CC2C(=O)NC(C(=O)N2C1)CC3=CC=C(C=C3)O
Method: HCD
Collision_energy: [28.333334]
Isolation_window: 4.0
Ion_mode: P
Num Peaks: 426
55.0184	1.6
55.0548	1.6
56.0500	4.2
57.0340	2.1
58.0658	2.6
60.0450	1.7
67.0547	5.1
68.0499	2.0
69.0340	5.6
69.0703	7.9
70.0656	24.7
71.0496	5.1
72.0448	1.6
72.0812	26.3
73.0289	1.8
74.0240	1.6
74.0605	14.0
76.0399	1.7
79.0548	3.4
80.0498	1.7
81.0339	11.8
81.0703	6.7
82.0655	2.1
83.0495	4.6
83.0608	1.6
83.0859	2.0
84.0448	8.5
84.0812	100.0
85.0288	6.7
85.0651	3.2
85.0844	5.1
86.0605	4.1
86.0968	44.7
87.0444	4.8
87.1002	2.6
88.0397	9.0
88.0763	2.0
89.0601	4.2
90.0554	1.8
91.0545	4.8
93.0702	6.0
94.0655	3.2
95.0495	5.1
95.0607	2.8
95.0859	6.3
96.0447	3.9
96.0811	1.9
97.0288	4.9
97.0651	4.4
97.1015	1.7
98.0603	5.4
98.0967	14.9
99.0444	15.1
100.0760	4.8
101.0234	1.7
101.0600	2.5
102.0553	9.7
102.0916	35.4
103.0393	3.8
103.0950	2.2
105.0701	5.1
106.0654	2.4
107.0494	6.4
107.0858	5.0
108.0447	2.7
109.0287	2.6
109.0650	4.0
109.1015	3.1
110.0604	5.0
110.0716	4.5
111.0443	10.2
111.0808	2.8
112.0396	2.0
112.0759	4.3
112.1123	8.7
113.0600	2.2
114.0552	3.6
114.0915	2.2
115.0394	2.1
115.0756	1.5
115.0868	1.5
116.0709	51.3
116.1075	1.5
117.0553	2.2
117.0701	1.5
117.0743	1.9
118.0865	3.7
119.0495	2.0
119.0857	5.0
120.0450	1.5
120.0810	36.4
121.0286	1.7
121.0649	7.3
121.0840	3.3
121.1012	5.0
122.0607	4.0
122.0705	3.0
122.0966	1.6
123.0443	3.4
123.0553	1.5
123.0808	3.2
123.1167	1.6
124.0390	1.7
124.0761	4.4
125.0236	1.8
125.0599	3.6
125.0962	2.1
126.0551	6.1
126.0914	3.8
126.1280	1.9
127.0391	9.4
127.0755	2.4
128.0707	6.9
128.1072	3.4
129.0551	2.3
129.0698	1.6
130.0500	28.6
130.0643	2.7
130.0864	20.7
131.0341	1.7
131.0500	1.5
131.0853	4.6
132.0655	1.6
132.0811	3.1
132.1020	12.2
133.0648	4.1
133.0859	2.8
133.1010	4.5
134.0599	3.4
134.0965	2.4
135.0448	1.8
135.0682	1.9
135.0806	6.2
135.1169	2.8
136.0758	35.8
136.1119	2.0
137.0598	4.5
137.0796	1.7
137.0960	2.4
138.0551	5.0
138.0916	2.1
139.0398	2.0
139.0755	3.8
140.0707	4.8
140.1070	4.5
141.0547	1.7
141.0667	1.7
141.1019	3.3
142.0498	2.5
142.0863	3.1
143.0703	1.9
143.0856	2.2
143.1178	2.8
144.0656	4.9
144.0810	4.9
144.1021	25.5
145.0500	4.5
145.0637	1.8
145.1010	5.7
146.0603	2.9
146.0957	2.2
147.0447	2.0
147.0765	11.2
147.1168	3.6
148.0758	56.7
149.0238	2.4
149.0610	3.3
149.0803	4.8
149.0962	6.8
150.0550	3.7
150.0661	1.8
150.0913	5.1
151.0402	1.8
151.0613	1.5
151.0754	2.7
151.1118	2.3
152.0705	6.1
152.1068	2.3
153.0546	2.1
153.0662	3.0
153.0911	2.4
153.1277	1.4
154.0500	2.0
154.0864	2.4
155.0849	1.9
156.0113	3.2
156.0657	2.1
156.1020	1.6
157.0762	2.5
157.1011	2.6
158.0457	1.8
158.0601	1.4
158.0828	1.7
158.1177	47.8
159.0803	2.2
159.0923	1.5
159.1190	5.6
160.0758	2.3
161.0585	3.2
161.0959	3.7
161.1334	1.8
162.0548	2.0
162.0915	2.7
163.0748	3.6
163.1120	4.8
164.0704	5.0
164.1063	3.4
165.0547	7.0
165.0910	2.6
166.0527	9.3
166.0859	7.0
167.0562	1.6
168.0655	3.7
168.1017	3.0
169.1004	2.8
169.1336	2.3
170.0811	1.7
170.1177	1.6
171.0768	6.9
171.1152	3.9
172.0605	2.7
172.0763	1.7
172.1334	6.3
173.0957	5.2
173.1323	2.7
174.0549	1.5
174.0897	2.8
175.0877	3.1
175.1096	1.8
176.0704	2.5
177.0541	1.8
177.0898	1.9
177.1274	3.4
178.0501	1.6
178.0860	4.5
178.1218	4.4
179.0689	2.3
180.0647	2.3
180.1017	2.4
181.0999	1.5
181.1214	3.8
182.0815	4.9
182.1175	13.1
183.1179	1.7
184.0603	1.6
184.0967	1.9
185.1318	1.5
186.0937	1.5
186.1126	41.6
187.1126	6.6
187.1476	1.5
188.0704	3.0
188.1302	1.9
189.0886	2.4
189.1272	3.4
190.0709	5.3
190.0867	2.4
191.0707	1.7
191.1061	8.6
192.0648	2.2
192.0999	2.5
194.0489	1.5
194.0804	2.5
195.1379	2.3
196.0970	1.6
196.1308	1.9
197.1294	3.5
198.1127	4.9
199.1113	1.8
200.1281	11.0
201.0885	2.2
201.1258	3.3
202.0499	16.6
202.0858	3.3
203.0529	2.0
203.1056	3.7
203.1431	1.6
204.0652	1.8
204.1020	2.4
205.0841	5.3
205.1210	4.2
206.0800	3.2
206.1169	3.8
207.1018	2.6
207.1353	2.3
208.0966	3.3
209.1174	2.6
210.1119	3.5
210.1493	1.5
211.1091	2.0
212.1281	4.2
213.1279	2.3
214.0868	2.1
214.1065	9.3
214.1435	1.9
215.1060	5.5
215.1389	12.8
216.0674	1.8
216.1023	3.6
216.1230	6.2
217.0993	1.5
217.1233	3.1
218.0805	3.2
218.1187	2.1
218.1380	2.1
219.0989	4.0
219.1384	2.9
220.0608	5.3
220.0958	4.2
220.1314	2.1
221.0805	2.0
221.1316	1.5
222.1105	2.1
223.1295	3.0
224.0911	2.3
224.1276	8.2
225.1251	2.4
226.1072	1.6
227.1036	3.2
227.1278	9.0
228.1020	2.3
228.1223	11.5
229.1549	9.9
230.0447	18.2
230.0816	1.6
230.1039	2.9
230.1385	29.8
231.0470	2.2
231.1024	1.8
231.1415	5.5
232.0963	5.0
233.1165	3.1
233.1324	2.5
234.0756	2.0
234.1118	4.7
235.1086	2.5
237.1229	1.5
241.1211	1.6
241.1442	1.7
242.0825	1.9
242.1474	2.3
243.1114	1.5
243.1361	3.9
244.0970	3.7
244.1181	1.9
245.0924	2.2
245.1541	2.3
246.0769	1.6
246.1141	1.7
246.1337	27.6
247.0948	5.6
247.1372	3.8
248.0555	17.0
248.0911	2.5
248.1265	5.3
249.0382	1.5
249.1257	1.6
250.1061	3.4
250.1438	1.7
251.1299	3.0
252.1222	5.1
253.1210	4.4
254.1394	1.6
256.1180	2.4
258.1338	10.1
259.1072	3.6
259.1373	4.8
260.0906	9.3
260.1284	1.6
260.1493	2.3
261.0913	1.7
261.1235	19.9
261.1492	1.8
262.0720	1.8
262.1038	9.7
262.1334	3.7
263.1031	5.8
263.1385	9.2
263.1651	1.5
264.0846	3.9
264.1226	4.8
264.1474	8.9
265.1192	7.3
265.1537	3.8
266.0656	7.3
266.1035	7.0
266.1390	8.5
267.0688	1.6
267.1003	2.3
267.1358	6.4
268.1168	6.1
268.1567	3.4
269.1234	1.7
269.1504	8.6
270.0953	3.7
270.1321	5.5
271.1069	3.3
271.1671	2.8
272.1095	1.9
272.1268	2.4
272.1587	2.6
273.1234	5.2
273.1590	9.3
273.1851	2.4
274.0700	1.5
274.1060	4.1
274.1285	8.1
274.1627	1.5
275.0484	37.0
275.1022	3.5
275.1359	4.1
275.1606	10.0
276.0510	5.8
276.0865	3.6
276.1453	19.4
277.1177	5.4
277.1481	6.2
278.1032	7.4
278.1397	4.6
279.1005	1.7
279.1332	15.1
280.1186	9.4
280.1581	3.4
281.0833	2.5
281.1150	3.1
281.1508	9.4

Name: 3-)2-(2,3-dihydroxy-5,6,8a-trimethyloctahydro-2H-spiro)naphthalene-1,2'-oxiran(-5-yl)ethyl(-5-hydroxyfuran-2(5H)-one
PrecursorMZ: 389.19151
RT: 5.9444
ExactMass: 366.20423867
Spectrum_type: 2
charge: 1
Formula: C20H30O6
SMILES: CC1CCC2(C(C1(C)CCC3=CC(OC3=O)O)CC(C(C24CO4)O)O)C
Method: HCD
Collision_energy: [28.333334]
Isolation_window: 4.0
Ion_mode: P
Num Peaks: 14
55.0546	3.7
74.0967	1.7
101.0598	7.9
149.0232	7.9
199.1075	5.3
217.0971	2.6
271.1284	2.3
289.1390	8.3
299.1596	20.9
300.1630	3.3
389.1715	2.0
389.1911	100.0
390.1945	17.9
391.1778	2.8

Name: 3-)2-(6,7-dihydroxy-1,2,4a-trimethylspiro)3,4,6,7,8,8a-hexahydro-2H-naphthalene-5,2'-oxirane(-1-yl)ethyl(-2-hydroxy-2H-furan-5-one
PrecursorMZ: 367.2117
RT: 0.6335
ExactMass: 366.20423867
Spectrum_type: 2
charge: 1
Formula: C20H30O6
SMILES: CC1CCC2(C(C1(C)CCC3=CC(=O)OC3O)CC(C(C24CO4)O)O)C
Method: HCD
Collision_energy: [28.333334]
Isolation_window: 4.0
Ion_mode: P
Num Peaks: 252
59.0608	11.6
67.0547	24.3
69.0340	12.5
69.0704	17.9
70.0656	66.1
71.0496	23.1
72.0813	52.7
79.0547	15.2
81.0339	40.9
81.0703	37.3
82.0656	12.2
83.0496	24.3
83.0858	12.7
84.0448	34.9
84.0812	38.3
85.0289	15.9
85.0653	18.4
86.0606	12.6
86.0968	61.8
87.0443	22.3
88.0397	9.9
91.0545	19.0
93.0703	29.3
95.0495	18.4
95.0859	32.4
96.0447	14.1
96.0810	13.0
97.0651	22.2
97.1015	10.2
98.0603	13.2
98.0968	23.9
99.0444	19.9
100.0762	12.8
101.0601	39.5
102.0553	24.9
105.0702	24.2
107.0494	21.5
107.0859	21.1
109.0649	14.7
109.1018	15.3
110.0603	10.6
110.0718	15.8
111.0444	32.9
111.0810	13.7
112.0759	13.3
113.0600	16.8
114.0553	37.3
116.0709	100.0
117.0692	13.4
118.0864	11.1
119.0858	30.4
120.0812	20.8
121.0650	32.8
121.1015	15.3
122.0601	9.9
123.0444	13.0
123.0806	20.6
124.0760	14.9
125.0601	23.0
125.0964	13.1
126.0551	15.4
126.0915	30.1
128.0710	34.2
129.0555	13.7
129.0700	9.7
130.0501	27.0
130.0865	41.0
131.0853	25.3
132.1021	19.9
133.0644	11.5
133.1013	21.4
135.0807	32.8
135.1174	9.5
136.0762	19.7
137.0599	21.3
137.0963	14.4
138.0553	15.2
138.0911	9.2
139.0759	14.1
140.0709	17.5
142.0501	80.0
142.0863	11.3
143.0858	9.7
144.1021	53.7
145.1014	28.0
147.0799	19.1
147.1172	13.3
148.0606	29.9
149.0962	19.3
150.0551	9.5
150.0916	13.2
151.0756	14.3
152.0709	11.0
153.0549	11.3
153.0911	13.3
154.0861	17.3
155.0853	9.6
156.0658	14.3
156.0772	10.1
156.1022	9.5
157.1013	21.0
159.0807	9.9
159.1168	18.2
161.0602	10.2
161.0962	17.2
163.0754	12.5
163.1117	12.5
164.0706	15.2
165.0548	11.9
166.0859	25.7
168.0657	15.0
168.1021	10.7
169.1009	17.7
170.0453	12.0
171.0791	12.2
171.1173	20.4
172.0969	9.9
173.0955	17.8
173.1322	19.0
175.0753	9.5
175.1115	16.9
177.0549	9.7
177.0914	11.2
178.0866	10.2
180.0648	11.8
181.1000	12.7
182.0807	28.8
183.1165	25.0
185.0956	16.3
185.1326	10.1
187.1118	21.3
189.0900	14.8
189.1272	12.1
191.0704	11.0
191.1068	11.1
192.0650	20.5
192.1009	12.5
193.1225	10.3
194.0801	21.1
195.1160	12.5
197.0949	16.0
197.1296	18.0
198.1118	11.7
199.1117	19.8
201.0902	9.5
201.1276	32.8
203.1063	16.3
205.1208	12.8
207.1146	14.4
208.0960	15.8
209.1320	9.5
210.0753	22.3
210.1116	21.0
211.1111	17.2
213.1254	16.2
215.1063	22.1
215.1403	14.7
217.1214	24.2
219.1381	28.7
223.1082	10.0
223.1485	9.6
225.0899	13.0
225.1274	16.0
225.1644	10.5
227.1050	10.5
228.0848	18.3
229.1217	18.5
231.1380	10.4
232.1181	17.8
234.1340	43.0
235.1337	11.5
237.0890	11.8
237.1256	9.4
237.1494	16.7
239.1044	15.5
239.1415	14.2
241.1218	9.3
241.1587	9.8
245.1904	9.1
251.1433	9.4
253.1579	10.1
255.1597	42.8
259.1699	14.3
267.1750	9.6
271.1701	22.2
277.1178	20.3
277.1827	13.3
281.1530	12.5
283.1693	16.3
285.1841	16.8
289.1802	20.3
295.1686	17.6
297.1844	12.5
299.1651	14.6
299.2000	10.4
301.1818	15.6
303.1969	16.5
305.1766	13.8
309.1845	12.1
311.1628	11.7
311.1998	10.3
313.1793	32.3
315.1955	15.5
317.1786	25.2
319.1910	24.0
323.1900	9.2
324.1554	9.7
327.1957	15.5
329.1732	13.4
331.1908	39.8
333.2055	11.0
335.1858	9.9
337.2040	18.5
341.2026	9.5
343.1904	10.4
345.1695	15.6
345.2063	19.8
347.1838	10.9
347.2225	11.8
349.2033	30.1
362.1980	11.7
363.2131	9.6
366.1645	47.5
367.1494	30.1
367.1921	9.5
368.1387	15.9
368.1830	9.7
369.1666	15.2
369.2085	25.6
370.1593	24.5
371.1498	27.2
372.1796	10.7
373.1340	12.1
374.1246	9.7
374.1650	11.4
375.1212	11.3
375.1578	11.7
376.1416	24.2
377.1802	40.1
378.1518	12.4
378.1932	15.3
379.1471	22.7
379.1927	16.5
380.1684	11.3
380.2106	20.4
381.1239	12.2
381.1661	16.1
382.1552	29.5
382.1946	9.7
383.1891	14.8
384.1787	13.0
385.1646	14.1

Name: 3-)2-))3-(2-carboxyethyl)-5-)(4-ethyl-3-methyl-5-oxopyrrolidin-2-yl)methyl(-4-methyl-1H-pyrrol-2-yl(methylidene(-5-)(3-ethyl-4-methyl-5-oxopyrrolidin-2-yl)methyl(-4-methylpyrrol-3-yl(propanoic acid
PrecursorMZ: 595.34844
RT: 0.9659
ExactMass: 594.3417352
Spectrum_type: 2
charge: 1
Formula: C33H46N4O6
SMILES: CCC1C(C(=O)NC1CC2=NC(=CC3=C(C(=C(N3)CC4C(C(C(=O)N4)CC)C)C)CCC(=O)O)C(=C2C)CCC(=O)O)C
Method: HCD
Collision_energy: [28.333334]
Isolation_window: 4.0
Ion_mode: P
Num Peaks: 86
52.2518	4.1
52.3633	0.9
55.0546	1.6
66.1482	1.4
66.1502	4.8
66.2596	0.4
66.2617	1.5
67.0546	0.4
69.0130	0.6
69.0702	0.5
69.4707	0.4
81.0701	0.8
83.0857	6.2
84.0891	0.4
93.0700	0.3
95.0856	0.5
97.4552	0.3
107.0855	0.3
108.0808	1.6
109.1012	0.4
112.0756	0.3
119.0855	0.4
121.1011	0.3
122.0964	0.6
124.0756	1.0
126.0912	9.7
127.0945	0.7
134.0962	0.9
138.0911	0.3
150.0912	1.0
152.0704	1.6
166.0860	17.7
167.0893	1.4
178.0860	3.0
180.1016	8.1
181.1049	0.8
194.0807	0.9
209.1041	0.4
210.1122	1.0
271.1435	0.7
272.1511	0.6
273.1595	0.7
285.1591	3.2
286.1633	0.6
291.1702	0.5
299.1746	0.3
300.1816	0.5
301.1547	0.7
301.1902	1.9
302.1583	0.4
302.1938	0.3
303.1697	3.5
304.1731	0.5
327.1695	1.7
328.1726	0.4
343.1646	2.6
344.1720	8.6
345.1360	0.7
345.1458	0.4
345.1799	100.0
345.2150	0.4
345.2241	0.6
346.1833	18.0
347.1860	1.7
426.2749	0.7
452.2542	0.3
468.2488	0.9
469.2533	1.3
470.1945	0.6
470.2082	0.4
470.2640	74.4
470.3195	0.5
470.3336	0.5
471.2672	18.5
472.2703	2.5
563.3212	0.6
593.3325	2.4
594.2786	0.4
594.3349	3.8
595.2479	0.5
595.3477	91.2
595.4265	0.6
595.4464	0.7
596.3510	28.5
596.3882	0.4
597.3542	4.8

Name: 3-Acetylindole
PrecursorMZ: 160.07562
RT: 3.1061
ExactMass: 159.068413911
Spectrum_type: 2
charge: 1
Formula: C10H9NO
SMILES: CC(=O)C1=CNC2=CC=CC=C21
Method: HCD
Collision_energy: [28.333334]
Isolation_window: 4.0
Ion_mode: P
Num Peaks: 35
60.0812	0.3
70.0654	0.4
86.0602	1.9
96.0808	0.3
98.0601	10.4
98.0965	0.8
99.0633	0.4
100.0757	0.4
101.0598	0.5
112.0757	0.5
114.0913	0.4
118.0650	2.6
124.0756	1.4
130.0649	4.5
131.0683	1.2
132.0808	0.4
142.0860	17.4
143.0894	1.3
144.0441	1.5
158.0598	0.8
159.0916	0.3
160.0431	0.6
160.0615	0.7
160.0647	0.4
160.0754	100.0
160.0863	0.6
160.0893	0.6
160.0964	8.9
160.1329	1.7
161.0596	0.5
161.0708	4.8
161.0787	10.4
161.0999	0.4
161.1071	0.9
162.0546	1.7

Name: 3-Amino-4-hydroxybenzoate
PrecursorMZ: 154.04984
RT: 7.1984
ExactMass: 152.034768053
Spectrum_type: 2
charge: 1
Formula: C7H6NO3-
SMILES: C1=CC(=C(C=C1C(=O)O)N)[O-]
Method: HCD
Collision_energy: [28.333334]
Isolation_window: 4.0
Ion_mode: P
Num Peaks: 36
67.0546	0.3
69.5145	0.4
69.5485	0.2
95.0493	0.7
95.0604	0.2
96.0445	0.6
108.0443	0.3
109.0521	1.2
109.0759	0.4
110.0600	1.0
110.0965	0.3
124.0391	0.3
126.0547	0.4
127.0863	0.3
136.0391	0.9
136.0754	0.4
137.0708	0.5
152.0565	0.3
152.0703	1.6
153.0658	0.3
153.0738	0.4
153.1021	0.2
153.9877	0.3
154.0328	0.3
154.0368	0.6
154.0392	0.7
154.0497	100.0
154.0600	0.6
154.0627	0.9
154.0859	0.9
155.0470	0.4
155.0529	7.2
155.0700	0.3
155.0812	0.6
156.0540	0.2
156.1017	0.6

Name: 3-Amino-4-methylbenzamide
PrecursorMZ: 151.08658
RT: 2.3076
ExactMass: 150.079312947
Spectrum_type: 2
charge: 1
Formula: C8H10N2O
SMILES: CC1=C(C=C(C=C1)C(=O)N)N
Method: HCD
Collision_energy: [28.333334]
Isolation_window: 4.0
Ion_mode: P
Num Peaks: 4
134.0599	68.1
151.0865	100.0
152.0705	8.8
152.0898	7.5

Name: 3-Amino-5-hydroxybenzoic acid
PrecursorMZ: 154.04991
RT: 5.0714
ExactMass: 153.042593085
Spectrum_type: 2
charge: 1
Formula: C7H7NO3
SMILES: C1=C(C=C(C=C1N)O)C(=O)O
Method: HCD
Collision_energy: [28.333334]
Isolation_window: 4.0
Ion_mode: P
Num Peaks: 44
65.0390	0.3
67.0546	0.6
71.0494	0.7
79.0545	0.2
81.0337	0.4
82.0654	0.3
94.0652	0.3
95.0492	9.6
96.0525	0.4
96.0571	0.3
97.0649	1.0
107.0731	0.3
108.0444	0.3
109.0760	0.9
110.0601	1.9
112.0519	0.3
112.0757	0.2
123.0440	0.3
124.0757	0.3
125.0596	0.9
125.0708	0.4
126.0548	1.6
126.0914	0.3
127.0752	2.3
152.0705	4.5
153.0659	0.5
153.0739	0.9
153.9879	0.3
154.0328	0.2
154.0365	0.7
154.0395	0.5
154.0497	100.0
154.0600	0.7
154.0626	0.6
154.0665	0.2
154.0857	1.0
154.1128	0.3
155.0470	0.3
155.0529	7.5
155.0700	3.5
156.0536	0.3
156.0653	0.2
156.0733	0.2
156.1016	2.1

Name: 3-Aminophenol
PrecursorMZ: 110.06028
RT: 2.753
ExactMass: 109.052763847
Spectrum_type: 2
charge: 1
Formula: C6H7NO
SMILES: C1=CC(=CC(=C1)O)N
Method: HCD
Collision_energy: [28.333334]
Isolation_window: 4.0
Ion_mode: P
Num Peaks: 6
67.0422	1.1
82.0656	2.9
104.0707	0.9
110.0604	100.0
111.0637	7.1
118.0867	1.4

Name: 3-Carbethoxy-2-piperidone
PrecursorMZ: 172.09679
RT: 4.75
ExactMass: 171.08954328
Spectrum_type: 2
charge: 1
Formula: C8H13NO3
SMILES: CCOC(=O)C1CCCNC1=O
Method: HCD
Collision_energy: [28.333334]
Isolation_window: 4.0
Ion_mode: P
Num Peaks: 35
55.0547	3.5
56.0499	1.0
69.0338	4.2
70.0655	1.4
72.0811	1.5
83.0494	2.4
83.0858	12.3
84.0447	2.1
86.0967	2.0
87.0555	1.0
90.0551	1.1
98.0965	2.6
100.1121	1.0
102.0551	1.7
116.0705	1.1
125.0791	2.3
126.0548	1.3
126.0913	100.0
127.0946	7.1
130.0498	1.3
130.0863	1.2
144.0806	1.1
145.0760	1.3
146.0600	1.9
156.1019	2.1
171.0761	1.8
171.0830	3.3
171.0916	2.6
171.1489	1.1
172.0602	2.5
172.0763	1.1
172.0967	41.6
173.0708	9.0
173.1001	3.6
174.0548	1.1

Name: 3-Carboxy-1-methylpyridinium
PrecursorMZ: 138.055
RT: 16.2757
ExactMass: 138.055503498
Spectrum_type: 2
charge: 1
Formula: C7H8NO2+
SMILES: C[N+]1=CC=CC(=C1)C(=O)O
Method: HCD
Collision_energy: [28.333334]
Isolation_window: 4.0
Ion_mode: P
Num Peaks: 31
91.0545	1.3
93.0449	0.9
94.0654	3.7
95.0606	2.0
96.0446	3.6
96.9953	1.9
98.0602	0.9
107.0733	0.9
110.0350	1.0
110.0602	4.5
112.0395	4.4
120.0477	4.4
120.0809	0.9
121.0397	11.6
136.0618	5.3
136.0756	2.4
137.0458	39.3
137.0707	1.2
137.1073	0.9
138.0436	1.2
138.0550	100.0
138.0659	1.0
138.0913	17.5
139.0501	18.6
139.0583	7.4
139.0865	3.0
139.0946	1.8
140.0342	9.9
140.0533	1.2
140.0706	16.8
140.0818	1.0

Name: 3-Carboxysalsolinol
PrecursorMZ: 224.09137
RT: 6.048
ExactMass: 223.0844579
Spectrum_type: 2
charge: 1
Formula: C11H13NO4
SMILES: CC1C2=CC(=C(C=C2CC(N1)C(=O)O)O)O
Method: HCD
Collision_energy: [28.333334]
Isolation_window: 4.0
Ion_mode: P
Num Peaks: 15
112.0394	14.0
134.0963	16.5
140.0340	73.4
160.0756	45.1
162.0547	22.6
162.0911	27.1
176.1068	40.1
178.0863	16.7
188.0703	58.3
204.1014	24.6
206.0808	66.2
207.0762	22.9
223.0592	16.4
224.0915	100.0
226.1070	19.3

Name: 3-Ethylhexahydropyrrolo(1,2-a)pyrazine-1,4-dione
PrecursorMZ: 183.11267
RT: 3.8882
ExactMass: 182.105527694
Spectrum_type: 2
charge: 1
Formula: C9H14N2O2
SMILES: CCC1C(=O)N2CCCC2C(=O)N1
Method: HCD
Collision_energy: [28.333334]
Isolation_window: 4.0
Ion_mode: P
Num Peaks: 13
91.0544	51.8
95.0856	8.4
96.0809	13.6
124.0757	35.3
138.0912	40.0
139.0753	9.4
140.1070	15.6
155.1178	100.0
156.1212	7.8
166.0862	31.2
167.0702	13.2
182.1175	11.8
183.1127	35.2

Name: 3-Hexylserine
PrecursorMZ: 190.14383
RT: 8.7083
ExactMass: 189.13649347
Spectrum_type: 2
charge: 1
Formula: C9H19NO3
SMILES: CCCCCCC(C(C(=O)O)N)O
Method: HCD
Collision_energy: [28.333334]
Isolation_window: 4.0
Ion_mode: P
Num Peaks: 93
55.0547	2.8
56.0499	0.9
58.0657	0.6
59.0495	0.7
70.0656	1.0
72.0812	13.5
73.0652	4.1
73.0845	0.6
80.0499	0.9
82.0655	4.4
83.0495	2.1
84.0447	1.1
84.0811	9.0
85.0844	0.6
86.0604	1.1
86.0967	1.9
87.1001	1.1
88.0396	0.7
89.0712	0.9
90.0916	8.4
96.0684	0.7
98.0967	0.6
100.0759	7.4
101.0599	20.9
101.0711	1.7
102.0551	1.4
102.0632	0.9
112.0759	3.2
115.0868	1.8
116.0708	0.8
118.0864	2.4
126.0914	20.6
126.1278	1.1
127.0867	1.2
127.0948	1.8
128.0707	1.2
128.1070	1.8
129.1023	0.9
130.0499	2.9
130.0863	3.6
132.0655	0.8
143.0302	0.5
143.1179	1.8
144.0655	1.1
144.1020	6.7
144.1387	0.6
146.0601	0.5
146.0813	0.7
146.1175	0.6
147.0633	0.8
147.1130	0.6
148.0604	1.0
154.0863	1.3
154.1227	17.2
155.1261	1.9
165.0214	0.6
171.1129	1.0
171.1573	0.8
172.0969	3.0
172.1333	20.4
173.0923	0.7
173.1367	2.0
174.0761	0.6
188.1113	0.7
188.1179	0.4
188.1281	1.5
188.1839	1.6
189.0659	0.5
189.0740	0.5
189.0869	1.1
189.1022	0.8
189.1234	17.1
189.1597	2.9
189.5924	1.1
190.0498	0.4
190.0863	2.8
190.0974	0.7
190.1074	11.8
190.1198	1.0
190.1266	1.0
190.1438	100.0
190.1618	0.8
191.0816	1.7
191.1025	1.3
191.1107	0.7
191.1180	1.3
191.1471	9.5
191.1539	0.5
192.0652	1.0
192.0869	1.3
192.1019	4.7
192.1228	1.6
192.1381	1.8

Name: 3-Hydroxy-10,13-dimethyl-17-(1-(3-methyl-2,3,4,5-tetrahydropyridin-6-yl)ethyl)-1,2,3,4,5,7,8,9,11,12,14,15,16,17-tetradecahydrocyclopenta(a)phenanthren-6-one
PrecursorMZ: 414.33637
RT: 2.9969
ExactMass: 413.329379614
Spectrum_type: 2
charge: 1
Formula: C27H43NO2
SMILES: CC1CCC(=NC1)C(C)C2CCC3C2(CCC4C3CC(=O)C5C4(CCC(C5)O)C)C
Method: HCD
Collision_energy: [28.333334]
Isolation_window: 4.0
Ion_mode: P
Num Peaks: 16
97.3992	0.4
98.0966	0.4
273.2215	0.4
412.3208	0.6
413.2667	1.2
413.3247	1.8
414.2784	0.6
414.3366	100.0
414.3951	0.6
415.2817	5.1
415.2947	0.4
415.3399	28.8
416.2791	0.8
416.2849	1.2
416.3460	1.1
416.3518	9.3

Name: 3-Hydroxy-1a,5-bis(hydroxymethyl)-5,6b-dimethyl-1,3,3a,4,6,6a-hexahydrocyclopropa(e)inden-2-one
PrecursorMZ: 255.15879
RT: 1.4469
ExactMass: 254.15180918
Spectrum_type: 2
charge: 1
Formula: C14H22O4
SMILES: CC1(CC2C(C1)C3(CC3(C(=O)C2O)CO)C)CO
Method: HCD
Collision_energy: [28.333334]
Isolation_window: 4.0
Ion_mode: P
Num Peaks: 64
67.0546	12.9
69.0337	7.1
69.0703	15.4
71.0495	22.1
79.0545	9.0
81.0702	28.1
83.0494	8.2
83.0858	7.5
85.0651	11.3
87.0443	21.3
89.0600	24.1
91.0543	7.5
93.0700	16.6
95.0858	13.0
97.0650	15.8
99.0443	19.9
99.0806	12.0
105.0700	19.6
107.0857	29.7
109.0650	7.7
111.0441	9.7
111.0805	9.8
113.0600	9.0
115.0391	13.3
117.0698	7.4
119.0856	10.4
121.0647	9.0
122.0598	7.2
123.0803	8.6
125.0598	9.6
125.0961	9.3
131.0854	9.0
133.0859	13.5
135.0804	11.9
137.0958	7.3
139.0750	7.4
139.1116	15.7
140.0706	11.0
153.0909	6.9
159.1168	12.3
166.0973	8.3
173.1325	10.3
183.1169	12.0
191.1426	7.1
194.0920	7.5
201.1271	16.4
210.1232	13.2
212.1029	10.7
219.1378	18.7
220.1075	13.8
227.1749	9.6
236.0915	16.7
237.1484	35.0
238.1067	6.8
238.1181	23.9
239.1482	15.8
254.1022	38.2
254.1380	16.6
255.1116	6.9
255.1324	10.2
255.1704	13.2
256.0967	40.7
256.1173	10.8
256.1290	100.0

Name: 3-Hydroxy-2-((3-(3-hydroxy-6-methylheptanoyl)oxy-8-methylnonanoyl)amino)propanoic acid
PrecursorMZ: 418.27951
RT: 5.267
ExactMass: 417.27265258
Spectrum_type: 2
charge: 1
Formula: C21H39NO7
SMILES: CC(C)CCCCC(CC(=O)NC(CO)C(=O)O)OC(=O)CC(CCC(C)C)O
Method: HCD
Collision_energy: [28.333334]
Isolation_window: 4.0
Ion_mode: P
Num Peaks: 23
60.0448	29.3
70.0655	13.9
71.0858	6.2
72.0811	11.5
86.0603	5.9
86.0966	19.3
88.0395	28.8
106.0499	100.0
116.0704	5.0
125.0960	7.0
132.0653	9.1
147.0763	5.6
173.1284	6.9
189.1117	6.6
228.1590	15.1
229.1541	7.5
236.1276	7.1
253.1546	5.1
277.2153	7.5
300.1800	16.6
400.2688	10.4
417.2024	7.2
418.2788	6.5

Name: 3-Hydroxy-2-(octadecanoylamino)propanoic acid
PrecursorMZ: 372.31046
RT: 1.132
ExactMass: 371.30355879
Spectrum_type: 2
charge: 1
Formula: C21H41NO4
SMILES: CCCCCCCCCCCCCCCCCC(=O)NC(CO)C(=O)O
Method: HCD
Collision_energy: [28.333334]
Isolation_window: 4.0
Ion_mode: P
Num Peaks: 59
55.0546	8.1
57.0703	16.7
60.0448	60.7
67.0546	44.7
69.0703	35.0
71.0859	45.7
79.0545	9.2
81.0701	78.7
83.0858	28.1
86.0967	71.8
89.0599	19.0
93.0701	20.2
95.0857	70.0
97.1013	27.2
99.0806	34.3
105.0700	9.3
107.0857	18.6
109.1013	45.3
111.1169	8.4
116.1071	11.7
119.0855	12.0
121.1012	23.1
123.1168	26.8
133.0860	9.9
133.1011	15.7
135.1167	18.5
137.1324	10.1
146.1174	18.9
147.1169	24.7
149.0959	12.2
149.1325	15.7
153.1274	13.3
161.1324	8.9
163.1480	16.2
165.1272	8.9
173.1172	8.9
199.1801	20.1
227.1750	24.9
243.2106	12.3
245.2263	22.0
252.2682	34.7
261.2209	19.9
263.2366	31.0
270.2787	18.6
279.2315	46.8
280.2355	10.0
294.2790	14.2
312.2892	100.0
313.2925	18.2
337.2733	13.8
353.2681	79.9
354.2713	24.3
354.2995	29.7
355.2841	30.3
371.2569	8.1
371.2776	21.3
371.2953	9.5
372.3461	14.8
374.2872	9.7

Name: 3-Hydroxy-3,5,5-trimethyl-4-(3-oxo-1-buten-1-ylidene)cyclohexyl beta-D-glucopyranoside
PrecursorMZ: 409.18317
RT: 3.0488
ExactMass: 386.19406791
Spectrum_type: 2
charge: 1
Formula: C19H30O8
SMILES: CC(=O)C=C=C1C(CC(CC1(C)O)O[C@H]2[C@@H]([C@H]([C@@H]([C@H](O2)CO)O)O)O)(C)C
Method: HCD
Collision_energy: [28.333334]
Isolation_window: 4.0
Ion_mode: P
Num Peaks: 9
89.0598	2.6
111.0440	2.7
166.0721	7.3
408.1650	2.8
409.1459	26.3
409.1824	100.0
410.1484	3.3
410.1854	18.1
411.1822	2.8

Name: 3-Hydroxy-6,2',3'-trimethoxyflavone
PrecursorMZ: 329.10183
RT: 4.9381
ExactMass: 328.09468823
Spectrum_type: 2
charge: 1
Formula: C18H16O6
SMILES: COC1=CC2=C(C=C1)OC(=C(C2=O)O)C3=C(C(=CC=C3)OC)OC
Method: HCD
Collision_energy: [28.333334]
Isolation_window: 4.0
Ion_mode: P
Num Peaks: 33
98.9845	0.7
114.0916	2.5
183.0917	1.9
226.0625	0.9
241.0859	3.6
253.0860	0.7
255.0652	5.4
256.0691	0.9
268.0730	8.0
269.0808	70.6
270.0842	11.2
271.0858	0.9
283.0964	9.3
284.1000	1.7
296.0677	3.7
297.0719	0.9
300.0628	0.9
311.0540	0.7
311.0614	0.6
311.0913	99.2
311.1284	0.7
312.0947	20.6
313.0970	1.9
314.0785	3.3
328.1168	0.8
328.1657	2.1
328.2594	0.8
329.0611	0.6
329.1018	100.0
329.1460	1.2
330.1053	19.1
330.1312	0.6
331.1077	1.9

Name: 3-Hydroxy-6,3',4'-trimethoxyflavone
PrecursorMZ: 329.10158
RT: 2.9988
ExactMass: 328.09468823
Spectrum_type: 2
charge: 1
Formula: C18H16O6
SMILES: COC1=CC2=C(C=C1)OC(=C(C2=O)O)C3=CC(=C(C=C3)OC)OC
Method: HCD
Collision_energy: [28.333334]
Isolation_window: 4.0
Ion_mode: P
Num Peaks: 13
136.0389	2.7
223.0750	7.4
251.0699	26.5
252.0735	4.2
265.0853	4.4
269.0804	100.0
270.0837	18.4
283.0960	11.9
284.0985	2.9
293.0805	9.1
311.0909	23.3
312.0945	4.5
329.1003	7.8

Name: 3-Hydroxy-hexanoyl-DL-homoserine lactone
PrecursorMZ: 216.12297
RT: 5.3451
ExactMass: 215.11575802
Spectrum_type: 2
charge: 1
Formula: C10H17NO4
SMILES: CCCC(CC(=O)NC1CCOC1=O)O
Method: HCD
Collision_energy: [28.333334]
Isolation_window: 4.0
Ion_mode: P
Num Peaks: 22
68.0498	2.6
69.0703	8.4
70.0656	3.0
72.0812	3.8
84.0447	24.6
85.0651	2.1
114.0551	50.8
114.0915	13.5
115.0582	2.5
130.0499	33.4
142.0499	100.0
143.0532	5.7
157.1014	3.0
160.9012	3.1
170.1175	2.1
184.1082	2.6
198.1124	61.7
199.1165	6.2
215.1436	4.0
216.1230	33.6
217.1218	6.8
217.1588	2.2

Name: 3-Hydroxybenzyl alcohol
PrecursorMZ: 107.04923
RT: 8.157
ExactMass: 124.052429494
Spectrum_type: 2
charge: 1
Formula: C7H8O2
SMILES: C1=CC(=CC(=C1)O)CO
Method: HCD
Collision_energy: [28.333334]
Isolation_window: 4.0
Ion_mode: P
Num Peaks: 9
53.0390	2.2
69.8344	1.4
79.0544	5.4
95.0492	5.4
105.0447	1.6
107.0491	100.0
108.0524	7.0
108.0807	2.6
109.0760	2.1

Name: 3-Hydroxycarbofuran
PrecursorMZ: 238.10706
RT: 9.046
ExactMass: 237.10010796
Spectrum_type: 2
charge: 1
Formula: C12H15NO4
SMILES: CC1(C(C2=C(O1)C(=CC=C2)OC(=O)NC)O)C
Method: HCD
Collision_energy: [28.333334]
Isolation_window: 4.0
Ion_mode: P
Num Peaks: 19
74.0604	5.0
107.0731	4.1
115.9642	3.4
136.0756	2.1
141.0659	4.1
193.0428	3.0
220.0968	7.1
237.1231	5.7
237.1511	3.8
238.1071	100.0
238.1172	3.0
238.1281	5.4
238.1434	2.2
239.0480	7.2
239.1021	9.1
239.1113	9.6
239.1386	6.4
240.0862	4.3
240.1232	2.9

Name: 3-Hydroxyimino-10,13-dimethyl-1,2,4,5,6,7,8,9,11,12,14,15,16,17-tetradecahydrocyclopenta(a)phenanthren-17-ol
PrecursorMZ: 306.24222
RT: 6.0798000000000005
ExactMass: 305.235479232
Spectrum_type: 2
charge: 1
Formula: C19H31NO2
SMILES: CC12CCC(=NO)CC1CCC3C2CCC4(C3CCC4O)C
Method: HCD
Collision_energy: [28.333334]
Isolation_window: 4.0
Ion_mode: P
Num Peaks: 26
69.0703	2.7
70.0655	1.6
80.0498	31.7
81.0531	1.3
83.0858	1.6
86.0968	1.9
96.0446	1.3
97.0650	1.4
116.0707	2.1
261.1597	1.3
271.1106	1.5
289.1545	1.8
304.2996	18.7
305.1494	2.6
305.3029	8.0
306.1307	3.0
306.1520	1.3
306.1843	1.3
306.2424	100.0
307.1278	3.3
307.1648	7.7
307.2025	2.1
307.2458	20.1
308.1127	1.4
308.1717	2.5
308.2481	1.3

Name: 3-Hydroxylidocaine
PrecursorMZ: 251.17508
RT: 7.3974
ExactMass: 250.168127949
Spectrum_type: 2
charge: 1
Formula: C14H22N2O2
SMILES: CCN(CC)CC(=O)NC1=C(C=CC(=C1C)O)C
Method: HCD
Collision_energy: [28.333334]
Isolation_window: 4.0
Ion_mode: P
Num Peaks: 12
55.0546	15.2
89.0598	9.1
101.0597	31.6
151.1227	42.5
250.1065	11.1
250.1427	15.1
250.1792	13.6
251.0462	8.9
251.1375	12.2
251.1746	100.0
252.1223	16.7
252.1783	15.8

Name: 3-Hydroxypyridine-2-methanol
PrecursorMZ: 126.05498
RT: 2.0611
ExactMass: 125.047678466
Spectrum_type: 2
charge: 1
Formula: C6H7NO2
SMILES: C1=CC(=C(N=C1)CO)O
Method: HCD
Collision_energy: [28.333334]
Isolation_window: 4.0
Ion_mode: P
Num Peaks: 83
57.0704	8.7
58.0657	0.3
58.0737	0.6
69.0340	0.4
69.0705	0.4
70.0657	0.2
72.0813	0.4
74.0969	17.8
75.1002	0.8
80.0499	0.4
81.0451	0.7
82.0656	0.6
84.0810	0.4
86.0604	0.3
86.0969	0.8
95.0607	6.1
96.0447	0.3
96.0687	1.4
96.0811	0.6
97.0764	0.5
98.0967	0.3
108.0446	2.6
108.0810	0.7
112.0759	0.3
120.0481	0.4
121.0399	2.4
121.9664	1.7
123.0555	2.1
123.9646	0.8
124.0394	0.3
124.0756	0.3
125.0713	0.8
126.0480	0.5
126.0551	26.1
126.0916	0.3
127.0586	1.7
127.0867	0.4
128.0708	0.5
128.1435	1.8
130.1103	0.3
130.1390	0.6
130.1434	0.6
130.1516	1.5
130.1592	91.1
130.1754	0.4
130.1798	0.5
131.1626	8.0
132.1656	0.3
136.0621	1.0
136.0759	6.2
137.0461	0.3
137.0709	0.5
137.0803	0.4
138.0553	2.7
138.0914	0.9
138.1279	1.0
139.0503	4.8
139.0868	0.3
140.0539	0.3
140.0822	0.4
141.0110	0.3
141.0367	0.2
141.0433	0.8
141.0477	0.7
141.0659	100.0
141.0844	0.4
141.0890	0.7
141.1024	0.3
142.0697	6.1
142.1225	0.3
143.0709	0.5
143.0818	0.6
143.1542	0.6
144.0808	10.4
144.1023	0.5
144.9822	0.3
145.0848	1.0
146.0713	0.2
146.1176	0.5
148.0870	0.3
148.0973	0.4
149.0238	0.3
149.0710	0.4

Name: 3-Indol-3-yl-2-(2-(2-methylphenoxy)acetylamino)propanoic acid
PrecursorMZ: 375.13131
RT: 5.4763
ExactMass: 352.14230712
Spectrum_type: 2
charge: 1
Formula: C20H20N2O4
SMILES: CC1=CC=CC=C1OCC(=O)NC(CC2=CNC3=CC=CC=C32)C(=O)O
Method: HCD
Collision_energy: [28.333334]
Isolation_window: 4.0
Ion_mode: P
Num Peaks: 9
176.8753	4.0
181.0737	7.0
189.0525	4.3
227.0790	5.6
375.1315	100.0
375.1774	5.4
376.1356	22.8
376.2009	8.8
377.1497	9.1

Name: 3-Indoleacrylic acid
PrecursorMZ: 188.07063
RT: 8.04
ExactMass: 187.06332853
Spectrum_type: 2
charge: 1
Formula: C11H9NO2
SMILES: C1=CC=C2C(=C1)C(=CN2)/C=C/C(=O)O
Method: HCD
Collision_energy: [28.333334]
Isolation_window: 4.0
Ion_mode: P
Num Peaks: 13
98.0603	12.5
116.0708	7.9
128.0707	3.6
141.0547	4.1
142.0652	17.3
142.0863	12.9
144.0656	19.9
145.0690	3.6
170.0601	100.0
171.0634	11.7
188.0706	44.1
188.0918	5.9
189.0742	3.7

Name: 3-Ketocholanic acid
PrecursorMZ: 375.28888
RT: 4.6246
ExactMass: 374.28209507
Spectrum_type: 2
charge: 1
Formula: C24H38O3
SMILES: CC(CCC(=O)O)C1CCC2C1(CCC3C2CCC4C3(CCC(=O)C4)C)C
Method: HCD
Collision_energy: [28.333334]
Isolation_window: 4.0
Ion_mode: P
Num Peaks: 93
67.0546	3.6
69.0701	4.0
69.4035	3.1
70.0655	17.8
72.0811	5.4
81.0337	5.3
81.0701	11.9
83.0858	4.1
84.0446	9.1
84.0810	3.9
85.0650	3.9
86.0966	100.0
87.0999	5.3
93.0700	5.7
95.0857	12.8
99.0442	3.3
102.0550	8.6
105.0699	5.7
107.0856	8.4
109.1012	12.4
111.0442	3.1
116.0706	9.1
119.0854	6.6
120.0807	12.2
121.1011	9.2
123.1167	3.1
129.0658	5.6
132.1018	52.5
133.1010	9.3
135.1166	17.9
145.1009	3.1
147.1166	14.1
149.1323	12.2
159.1169	4.1
161.1323	13.0
163.1477	6.9
166.0861	3.2
175.1479	10.6
181.1223	3.0
187.1477	4.1
189.1636	6.6
193.1220	5.7
195.1379	5.8
197.1280	24.5
198.1317	3.0
199.1802	6.0
201.1633	8.2
203.1790	4.1
207.1376	4.3
215.1386	36.8
215.1790	11.0
216.1421	3.2
218.1377	4.2
221.1531	4.3
225.1229	5.4
227.1752	8.8
229.1552	6.7
229.1947	5.1
230.1381	5.3
243.1335	24.3
243.2104	5.0
244.1369	3.9
245.1859	3.0
247.1688	5.2
250.1070	5.2
261.1844	6.3
275.2007	3.7
311.2730	10.5
312.2757	3.4
321.2571	13.8
322.2601	3.4
339.2675	35.3
340.2710	9.9
356.2173	5.8
357.2781	99.6
358.1255	3.7
358.2814	22.5
359.0760	3.6
374.1199	6.9
374.1557	7.9
374.1777	3.6
374.2267	8.6
374.3618	2.9
375.1540	11.9
375.1920	7.4
375.2882	21.7
376.1367	11.3
376.1862	5.5
376.2233	5.1
376.2915	5.3
377.1340	3.6
377.1684	5.8
377.2297	4.3

Name: 3-Methoxycatechol
PrecursorMZ: 141.05459
RT: 3.4065
ExactMass: 140.047344113
Spectrum_type: 2
charge: 1
Formula: C7H8O3
SMILES: COC1=CC=CC(=C1O)O
Method: HCD
Collision_energy: [28.333334]
Isolation_window: 4.0
Ion_mode: P
Num Peaks: 7
81.0338	25.0
109.0284	18.6
124.0755	20.7
139.0864	25.9
141.0545	17.3
141.0656	100.0
141.1022	18.3

Name: 3-Methoxypropylamine
PrecursorMZ: 90.09159
RT: 9.3905
ExactMass: 89.084063974
Spectrum_type: 2
charge: 1
Formula: C4H11NO
SMILES: COCCCN
Method: HCD
Collision_energy: [28.333334]
Isolation_window: 4.0
Ion_mode: P
Num Peaks: 5
58.0656	100.0
72.0447	11.5
73.0651	35.5
90.0551	64.3
91.0544	16.9

Name: 3-Methyl-1-propylpyridin-1-ium
PrecursorMZ: 136.11205
RT: 1.1722000000000001
ExactMass: 136.112624451
Spectrum_type: 2
charge: 1
Formula: C9H14N+
SMILES: CCC[N+]1=CC=CC(=C1)C
Method: HCD
Collision_energy: [28.333334]
Isolation_window: 4.0
Ion_mode: P
Num Peaks: 5
93.0575	4.5
94.0654	2.5
136.0757	1.5
136.1120	100.0
137.1153	10.9

Name: 3-Methyl-2-((2,3,4-trihydroxy-5-(hydroxymethyl)oxolan-2-yl)methylamino)pentanoic acid
PrecursorMZ: 276.14359
RT: 6.146
ExactMass: 293.14745207
Spectrum_type: 2
charge: 1
Formula: C12H23NO7
SMILES: CCC(C)C(C(=O)O)NCC1(C(C(C(O1)CO)O)O)O
Method: HCD
Collision_energy: [28.333334]
Isolation_window: 4.0
Ion_mode: P
Num Peaks: 139
57.0338	1.0
57.0702	1.5
59.0369	1.4
69.0338	7.2
69.0701	2.4
69.7167	0.8
69.9145	0.9
69.9250	1.2
69.9357	1.2
70.0653	8.3
72.0810	2.4
73.0286	0.9
80.0496	7.7
81.0336	5.3
82.0652	1.3
83.0493	2.6
84.0445	1.1
84.0809	3.3
85.0285	7.4
86.0965	44.7
87.0316	7.8
87.0999	2.5
88.0394	29.3
96.0443	1.4
96.0808	2.3
97.0284	14.5
97.4570	1.0
98.0600	2.6
98.0964	9.4
99.0441	3.8
100.1121	0.8
110.0599	1.6
111.0440	2.6
112.0392	6.8
114.0548	12.9
115.0389	1.2
116.0704	8.6
116.1069	3.1
126.0547	2.0
127.0387	12.0
128.0420	0.7
128.0703	16.5
128.1068	5.4
129.0656	1.3
130.0859	1.4
132.1016	31.7
133.1050	2.0
138.0546	4.4
140.1066	2.0
141.0656	1.1
142.0316	1.2
142.0496	0.7
143.0574	14.4
144.0653	1.5
144.0805	1.9
144.1016	13.4
145.0492	3.2
145.1051	0.9
152.1066	2.2
153.0781	1.0
154.0496	1.2
154.0860	0.9
156.0652	2.6
158.0265	3.0
158.0807	1.5
159.0274	2.7
159.0759	1.5
161.0679	15.3
164.0704	0.9
164.1067	7.5
165.1102	0.7
166.1223	0.9
167.0811	0.8
168.1016	3.6
170.1172	2.1
174.0756	0.8
174.1121	1.1
176.8749	1.7
182.1171	2.4
183.1125	1.6
184.0599	1.5
186.0214	1.8
186.1123	1.1
194.1171	2.6
198.1120	0.9
202.0704	1.9
210.1119	14.2
211.1150	1.5
212.1275	28.1
213.1017	1.1
213.1309	3.1
220.0810	3.8
228.1228	2.2
230.1380	92.1
231.1119	1.2
231.1414	10.3
232.1180	1.1
233.1893	1.1
234.1845	7.3
235.1880	1.2
240.1223	1.0
248.1271	0.8
248.1485	13.5
249.1520	1.5
257.0582	2.9
257.1126	1.0
258.1125	3.6
258.1328	88.1
259.1362	11.1
260.1021	4.4
260.1124	1.4
260.1390	0.7
274.1060	1.5
274.1391	1.4
274.1426	1.0
274.1800	1.3
275.1015	2.3
275.1100	1.9
275.1234	2.0
275.1380	5.0
275.1598	1.1
276.0858	1.5
276.1222	16.9
276.1434	100.0
276.1576	1.6
276.1939	2.1
277.0747	5.4
277.1173	4.2
277.1466	12.9
277.1542	40.5
278.0157	1.6
278.0897	2.2
278.1006	4.0
278.1123	8.5
278.1248	3.3
278.1373	5.1
278.1497	4.6
278.1577	2.0
278.1608	7.5

Name: 3-Methyl-2-(methylamino)pentanoic acid
PrecursorMZ: 146.1175
RT: 1.287
ExactMass: 145.110278721
Spectrum_type: 2
charge: 1
Formula: C7H15NO2
SMILES: CCC(C)C(C(=O)O)NC
Method: HCD
Collision_energy: [28.333334]
Isolation_window: 4.0
Ion_mode: P
Num Peaks: 6
69.0702	7.4
86.0966	100.0
87.1000	8.4
145.1006	2.1
146.0597	5.2
146.1174	2.2

Name: 3-Methyl-2-))2,3,4-trihydroxy-5-(hydroxymethyl)oxolan-2-yl(methylamino(pentanoic acid
PrecursorMZ: 276.14408
RT: 1.8916
ExactMass: 293.14745207
Spectrum_type: 2
charge: 1
Formula: C12H23NO7
SMILES: CCC(C)C(C(=O)O)NCC1(C(C(C(O1)CO)O)O)O
Method: HCD
Collision_energy: [28.333334]
Isolation_window: 4.0
Ion_mode: P
Num Peaks: 85
60.0813	1.6
69.0340	2.7
69.0703	0.9
70.0657	1.1
72.0812	1.2
81.0340	1.5
84.0812	2.0
85.0289	2.8
86.0969	21.5
87.0319	2.0
87.1001	1.0
88.0397	8.4
97.0288	6.6
98.0968	3.7
99.0443	1.8
100.1125	0.8
111.0441	0.7
112.0396	1.8
116.0709	1.6
116.1073	1.2
118.0867	1.2
126.0554	0.7
127.0393	6.5
128.0708	0.8
128.1071	2.5
130.0865	1.9
132.1021	20.0
133.1057	1.3
136.0760	0.9
138.0553	1.1
143.0579	5.3
144.0659	0.8
144.1022	9.5
145.0499	1.6
148.0394	2.1
156.0659	1.0
161.0686	5.0
164.0710	0.9
164.1075	2.2
168.1021	1.1
170.1176	0.8
174.0389	3.2
174.1131	0.8
182.1179	1.3
194.1178	1.0
198.1129	0.9
210.1126	5.3
212.1284	12.3
213.1318	1.6
216.1231	3.4
220.0816	1.5
230.1389	52.4
231.1423	6.3
240.1360	0.7
244.1179	2.8
246.1339	0.7
248.1496	10.9
249.1526	1.3
258.1338	52.7
259.1372	7.4
260.1399	0.6
262.1288	6.0
263.1311	0.8
264.0655	1.8
267.1342	0.7
276.1444	100.0
277.1212	0.6
277.1476	12.7
278.0894	0.7
278.1490	1.1
279.1342	7.3
280.1399	1.5
281.1135	1.2
283.1296	1.0
284.1206	1.2
285.1458	1.6
286.1367	1.4
287.1280	1.1
287.1612	0.9
288.1146	0.7
289.1417	3.1
293.1121	0.7
294.1553	5.8
295.1291	0.9
295.1596	0.7

Name: 3-Methyl-2-pyrazolin-5-one
PrecursorMZ: 99.05541
RT: 5.63338
ExactMass: 98.048012819
Spectrum_type: 2
charge: 1
Formula: C4H6N2O
SMILES: CC1=NNC(=O)C1
Method: HCD
Collision_energy: [28.333334]
Isolation_window: 4.0
Ion_mode: P
Num Peaks: 18
54.0343	3.0
55.0183	2.3
55.0547	2.3
56.0499	2.4
69.0338	12.2
70.0655	2.2
71.0494	10.5
71.0607	28.2
82.0290	12.8
82.0654	4.2
83.0858	2.7
98.0713	2.3
99.0442	11.9
99.0554	100.0
99.0918	27.6
100.0394	2.8
100.0588	4.8
100.0758	13.8

Name: 3-Methyl-3,4-dihydro-2H-1,4-benzoxazine
PrecursorMZ: 150.09145
RT: 1.8576
ExactMass: 149.084063974
Spectrum_type: 2
charge: 1
Formula: C9H11NO
SMILES: CC1COC2=CC=CC=C2N1
Method: HCD
Collision_energy: [28.333334]
Isolation_window: 4.0
Ion_mode: P
Num Peaks: 9
108.0448	1.1
109.0529	1.1
120.0808	1.4
126.0550	2.8
150.0915	100.0
151.0950	10.9
158.1544	0.9
166.0888	0.8
168.0689	2.6

Name: 3-Methyl-5-(5,5,8a-trimethyl-2-methylene-7-oxodecahydro-1-naphthalenyl)pentyl acetate
PrecursorMZ: 349.27389
RT: 0.5516
ExactMass: 348.26644501
Spectrum_type: 2
charge: 1
Formula: C22H36O3
SMILES: CC(CCC1C(=C)CCC2C1(CC(=O)CC2(C)C)C)CCOC(=O)C
Method: HCD
Collision_energy: [28.333334]
Isolation_window: 4.0
Ion_mode: P
Num Peaks: 225
57.0341	8.2
57.0705	17.7
59.0497	46.6
59.0608	3.3
62.0607	3.8
67.0548	52.4
69.0340	3.9
69.0704	32.0
71.0496	11.2
71.0861	14.7
73.0472	6.3
79.0547	23.8
81.0340	4.5
81.0704	87.6
82.0737	5.2
83.0496	10.2
83.0860	27.9
85.0289	13.5
85.0653	15.1
85.1017	5.3
86.0969	7.2
87.0445	19.1
89.0601	11.2
91.0547	11.8
91.0581	3.6
93.0703	49.4
94.0737	3.5
95.0495	7.8
95.0859	92.3
96.0890	6.1
97.0652	13.8
97.1015	16.6
99.0444	11.1
99.0808	16.6
101.0601	13.5
105.0703	24.1
107.0495	7.9
107.0859	52.7
108.0891	4.9
109.0652	13.3
109.1015	63.2
110.1050	5.7
111.0445	4.9
111.0808	12.6
111.1170	5.8
112.0760	4.3
113.0599	7.1
113.0964	6.9
115.0757	6.4
117.0704	10.7
117.0913	13.6
119.0858	35.6
120.0892	3.4
121.0651	7.6
121.1015	55.6
122.1048	4.7
123.0808	17.6
123.1171	36.1
124.1202	3.8
125.0598	4.4
125.0963	11.0
127.0755	6.2
127.1123	4.8
129.0183	5.0
129.0548	3.4
129.0705	3.7
131.0857	21.7
133.0869	3.8
133.1014	38.7
134.1047	4.1
135.0444	4.5
135.0808	12.8
135.1171	50.2
136.1206	5.9
137.0601	14.5
137.0962	11.9
137.1326	16.4
139.0755	5.2
139.1117	6.7
141.0915	3.5
141.1274	4.4
143.0856	5.5
143.1071	4.1
145.1014	29.0
146.1046	3.2
147.0807	10.5
147.1171	38.8
148.1205	3.2
149.0964	13.3
149.1327	38.0
150.1364	5.5
151.0757	15.2
151.0966	4.8
151.1118	10.5
151.1486	4.6
153.0914	6.0
153.1279	3.7
154.1593	5.0
155.1072	4.4
156.1750	9.9
157.1014	6.9
159.1171	27.0
161.0967	7.0
161.1328	29.7
162.1363	4.8
163.0757	6.4
163.1121	10.8
163.1483	25.0
164.0708	3.6
165.0911	20.5
165.1278	10.6
166.0963	4.8
167.0704	8.7
167.1072	5.2
169.1013	3.6
171.1171	10.9
173.0965	3.4
173.1327	24.8
174.1367	4.1
175.1118	9.6
175.1334	4.7
175.1484	14.0
177.0913	8.3
177.1276	11.4
177.1642	9.6
179.1067	5.4
179.1432	7.7
181.0859	3.0
181.1226	4.6
183.1174	3.3
185.1328	7.8
185.1517	5.1
187.1122	3.0
187.1482	12.5
189.0912	3.3
189.1277	5.3
189.1642	5.6
191.1067	7.9
191.1434	13.3
193.1226	6.5
195.1025	3.3
195.1369	4.5
197.1329	3.8
199.1486	4.7
199.1693	3.3
201.1295	3.6
201.1643	7.2
203.1071	6.2
203.1799	4.2
205.0855	4.1
205.1227	5.4
205.1589	4.3
207.1384	3.9
208.1699	3.6
211.1484	3.2
213.1647	4.3
215.1429	3.2
215.1792	4.3
217.1228	3.0
219.1742	3.5
221.1171	9.0
231.1748	3.0
231.2109	3.6
233.1293	3.6
233.2269	3.2
241.1954	6.8
243.2113	22.1
244.2147	4.6
247.1694	3.1
249.1856	3.7
257.1295	5.2
259.2062	18.9
260.2087	3.3
261.2216	73.5
262.2251	14.1
263.2340	3.8
275.2009	7.3
277.1803	7.4
277.2151	5.7
279.2324	9.1
285.0102	4.9
285.1233	5.4
289.1556	4.5
297.1227	3.0
297.2456	3.6
299.2005	3.6
301.2168	3.4
303.2679	23.5
304.2713	5.0
315.1967	3.1
317.1497	5.5
317.2477	3.4
319.2631	5.3
329.2477	7.5
330.2122	3.1
331.1915	4.1
331.2634	100.0
332.2664	23.4
335.2579	9.0
337.2752	3.2
347.2217	3.3
347.2586	5.3
348.2230	7.3
348.2599	3.2
349.1986	5.8
349.2361	3.3
349.2742	18.5
350.2730	5.3
351.2133	10.2
351.2534	35.2
352.2566	6.8
352.3079	10.9
353.2079	4.9
353.2697	50.3
354.2716	11.3
355.0718	5.7
355.2690	5.8
356.2812	10.9
357.2809	10.3
359.0756	4.8
359.2250	3.4
361.2380	7.5
363.2552	5.3
365.2720	3.1
367.2693	7.3

Name: 3-Methyl-L-Histidine
PrecursorMZ: 170.09233
RT: 10.1347
ExactMass: 169.085126602
Spectrum_type: 2
charge: 1
Formula: C7H11N3O2
SMILES: CN1C=NC=C1C[C@@H](C(=O)O)N
Method: HCD
Collision_energy: [28.333334]
Isolation_window: 4.0
Ion_mode: P
Num Peaks: 15
95.0605	13.1
96.0683	32.7
97.0762	15.3
109.0761	40.1
126.1025	27.0
152.0705	24.3
168.0686	53.2
168.0766	13.3
170.0816	15.3
170.0922	100.0
170.1174	20.6
171.0763	22.4
171.1125	19.8
171.1493	14.9
172.1331	28.7

Name: 3-Methyladenine
PrecursorMZ: 150.07751
RT: 5.5576
ExactMass: 149.07014524
Spectrum_type: 2
charge: 1
Formula: C6H7N5
SMILES: CN1C=NC(=N)C2=C1N=CN2
Method: HCD
Collision_energy: [28.333334]
Isolation_window: 4.0
Ion_mode: P
Num Peaks: 18
108.0557	3.4
109.0510	1.6
110.0349	5.4
122.0599	1.9
124.0757	2.0
133.0508	11.6
149.0232	2.1
150.0550	2.0
150.0665	2.0
150.0773	59.3
150.0901	2.2
151.0613	100.0
151.0739	2.2
151.0804	4.0
152.0454	2.8
152.0646	4.6
152.0705	10.3
152.1069	1.6

Name: 3-Methylcatechol
PrecursorMZ: 125.05966
RT: 8.4796
ExactMass: 124.052429494
Spectrum_type: 2
charge: 1
Formula: C7H8O2
SMILES: CC1=C(C(=CC=C1)O)O
Method: HCD
Collision_energy: [28.333334]
Isolation_window: 4.0
Ion_mode: P
Num Peaks: 8
79.0544	100.0
95.0491	9.1
107.0491	15.7
124.0391	22.9
124.0756	25.0
125.0595	9.7
125.0708	19.6
126.0547	11.3

Name: 3-Methylcytidine
PrecursorMZ: 258.10761
RT: 10.3175
ExactMass: 257.10117059
Spectrum_type: 2
charge: 1
Formula: C10H15N3O5
SMILES: CN1C(=N)C=CN(C1=O)[C@H]2[C@@H]([C@@H]([C@H](O2)CO)O)O
Method: HCD
Collision_energy: [28.333334]
Isolation_window: 4.0
Ion_mode: P
Num Peaks: 18
70.0654	10.6
100.0757	6.8
114.0913	13.5
126.0660	100.0
174.9721	7.9
197.1280	17.4
256.1543	12.0
256.1760	30.1
257.1475	5.9
257.1789	6.8
258.0818	22.7
258.1440	30.1
258.1810	4.6
258.2167	17.6
259.1280	14.8
259.1433	8.1
260.1278	4.8
260.1495	20.9

Name: 3-Methylglutaconic acid
PrecursorMZ: 127.03897
RT: 9.0674
ExactMass: 144.04225873
Spectrum_type: 2
charge: 1
Formula: C6H8O4
SMILES: C/C(=C\C(=O)O)/CC(=O)O
Method: HCD
Collision_energy: [28.333334]
Isolation_window: 4.0
Ion_mode: P
Num Peaks: 50
53.0390	12.8
55.0183	4.5
55.0546	4.3
56.0499	2.8
57.0339	3.1
58.0654	2.6
69.0338	88.2
70.0372	4.6
70.0655	6.4
71.0494	8.0
79.0545	3.1
81.0337	50.3
81.0450	14.4
81.0701	7.0
82.0370	3.2
82.0654	23.0
83.0130	2.8
83.0607	5.5
83.0857	2.4
84.0446	5.2
84.0810	13.2
85.0286	4.4
86.0602	4.4
97.0285	8.1
98.0602	18.5
98.0964	4.5
99.0442	14.1
100.0758	12.1
108.0444	7.7
108.0808	3.1
109.0285	100.0
109.0395	6.3
109.0648	4.0
110.0318	7.3
110.0601	3.8
125.0709	6.4
125.1073	7.2
126.0549	32.7
126.0661	34.9
126.0912	60.6
127.0389	30.2
127.0500	8.8
127.0582	2.4
127.0725	3.6
127.0753	2.4
127.0866	3.8
127.0945	5.6
128.0705	19.2
128.0816	4.1
128.1069	13.4

Name: 3-Methylpyrazole
PrecursorMZ: 83.06057
RT: 3.5681
ExactMass: 82.0530982
Spectrum_type: 2
charge: 1
Formula: C4H6N2
SMILES: CC1=CC=NN1
Method: HCD
Collision_energy: [28.333334]
Isolation_window: 4.0
Ion_mode: P
Num Peaks: 4
56.0498	5.4
83.0605	100.0
84.0638	4.7
84.9113	16.3

Name: 3-Morpholin-4-yl-1-(2-propoxyphenyl)pyrrolidine-2,5-dione
PrecursorMZ: 319.16487
RT: 4.6555
ExactMass: 318.15795719
Spectrum_type: 2
charge: 1
Formula: C17H22N2O4
SMILES: CCCOC1=CC=CC=C1N2C(=O)CC(C2=O)N3CCOCC3
Method: HCD
Collision_energy: [28.333334]
Isolation_window: 4.0
Ion_mode: P
Num Peaks: 69
67.0546	1.8
93.0699	0.7
94.0652	3.8
95.0856	7.9
96.0445	1.0
96.0890	0.5
97.4553	0.5
106.0651	2.2
107.0730	1.2
108.0807	1.5
110.0599	0.6
110.0964	2.0
120.0805	0.5
122.0600	0.4
124.0756	2.3
126.0912	1.4
132.0806	0.6
134.0598	2.1
135.0677	3.4
136.0755	13.3
137.0788	1.1
138.0911	18.0
139.0944	1.5
148.0632	0.4
148.0755	56.3
148.0878	0.4
149.0788	4.7
149.0835	1.5
150.0915	0.7
152.0704	3.3
154.0861	2.1
164.0704	0.7
166.0714	0.7
166.0743	0.5
166.0860	100.0
166.0973	0.5
166.1008	0.7
167.0893	9.2
168.1016	0.9
176.0703	1.5
176.1065	0.4
178.0862	0.4
182.0808	1.6
194.0808	15.6
195.0841	1.7
196.0966	0.4
203.1538	1.6
204.1012	0.4
214.1220	0.4
231.1487	21.5
232.1522	3.0
245.1642	1.2
246.1484	0.5
257.1641	0.6
259.1435	6.3
260.1471	0.9
263.1744	0.5
273.1591	29.2
274.1626	5.0
275.1649	0.4
291.1696	24.5
292.1731	4.3
301.1539	11.1
302.1573	1.9
304.1536	0.4
318.1327	0.4
319.1644	13.5
320.1681	2.2
321.1812	1.6

Name: 3-O-Caffeoylquinic acid methyl ester
PrecursorMZ: 369.11773
RT: 4.6988
ExactMass: 368.11073221
Spectrum_type: 2
charge: 1
Formula: C17H20O9
SMILES: COC(=O)[C@@]1(C[C@H]([C@H]([C@@H](C1)OC(=O)/C=C/C2=CC(=C(C=C2)O)O)O)O)O
Method: HCD
Collision_energy: [28.333334]
Isolation_window: 4.0
Ion_mode: P
Num Peaks: 21
70.0654	3.1
81.0337	3.4
86.0966	3.0
116.0704	3.7
120.0807	3.3
136.0755	2.3
137.0595	2.2
149.0598	2.5
163.0388	4.3
177.0544	100.0
178.0577	10.7
179.0697	2.6
182.0809	2.2
194.0809	5.8
212.0912	3.8
268.2629	4.0
368.1110	3.1
368.1481	2.9
369.1440	6.1
370.1252	6.0
371.1594	5.0

Name: 3-Phenyl-2-((pyridin-3-yl)formamido)propanoic acid
PrecursorMZ: 271.1075
RT: 1.8552
ExactMass: 270.10044231
Spectrum_type: 2
charge: 1
Formula: C15H14N2O3
SMILES: C1=CC=C(C=C1)CC(C(=O)O)NC(=O)C2=CN=CC=C2
Method: HCD
Collision_energy: [28.333334]
Isolation_window: 4.0
Ion_mode: P
Num Peaks: 6
94.9298	7.0
207.0914	25.1
208.0947	3.4
225.1020	25.4
271.1073	100.0
272.1106	14.9

Name: 3-Pyridinemthanol
PrecursorMZ: 110.0602
RT: 2.6516
Spectrum_type: 2
charge: 1
SMILES: C1=CC(=CN=C1)CO
Method: HCD
Collision_energy: [28.333334]
Isolation_window: 4.0
Ion_mode: P
Num Peaks: 11
69.0451	2.8
80.0498	1.0
82.0654	1.7
83.0606	0.7
93.0449	8.8
93.0574	0.6
110.0601	100.0
110.0680	0.7
111.0553	15.4
111.0634	6.7
111.0917	1.1

Name: 3-Tyrosine, DL-
PrecursorMZ: 182.08117
RT: 5.6608
ExactMass: 181.07389321
Spectrum_type: 2
charge: 1
Formula: C9H11NO3
SMILES: C1=CC(=CC(=C1)O)CC(C(=O)O)N
Method: HCD
Collision_energy: [28.333334]
Isolation_window: 4.0
Ion_mode: P
Num Peaks: 38
55.0547	1.7
59.0496	2.0
82.0290	4.3
91.0545	33.2
92.0579	2.7
96.0447	1.7
98.0602	2.3
100.0758	2.9
101.0599	9.2
108.0811	2.0
110.0602	1.8
122.0601	3.0
123.0441	2.1
124.0757	1.9
136.0505	5.4
136.0757	69.2
137.0709	6.2
137.0788	5.5
138.0550	2.5
138.0913	11.5
140.0706	2.2
153.1026	1.9
154.0863	2.9
164.0455	6.0
164.0706	100.0
165.0659	26.5
165.0740	9.5
166.0862	7.7
180.0657	2.1
180.1053	9.4
181.0721	15.2
181.0969	6.7
182.0812	29.8
182.1176	8.4
183.0764	9.1
183.0846	2.3
183.0921	4.1
184.0968	20.9

Name: 3-Ureidoisobutyric acid; AIF; CE0; CorrDec
PrecursorMZ: 147.07638
RT: 6.8667
Spectrum_type: 2
charge: 1
SMILES: CC(CNC(=N)O)C(=O)O
Method: HCD
Collision_energy: [28.333334]
Isolation_window: 4.0
Ion_mode: P
Num Peaks: 11
84.0446	2.8
86.0603	100.0
87.0443	6.0
87.0637	6.8
100.1122	58.1
101.1156	5.4
123.9644	4.7
146.0598	3.5
146.1175	5.5
148.0756	2.8
149.0233	3.5

Name: 3-acetyl-2-(1,3-benzodioxol-5-yl)-4-hydroxy-1-(3-morpholin-4-ylpropyl)-2H-pyrrol-5-one
PrecursorMZ: 389.17161
RT: 1.3806
ExactMass: 388.16343649
Spectrum_type: 2
charge: 1
Formula: C20H24N2O6
SMILES: CC(=O)C1=C(C(=O)N(C1C2=CC3=C(C=C2)OCO3)CCCN4CCOCC4)O
Method: HCD
Collision_energy: [28.333334]
Isolation_window: 4.0
Ion_mode: P
Num Peaks: 11
121.0650	3.1
208.0968	31.5
209.0999	3.0
265.1543	3.5
314.1378	3.4
371.1619	2.3
388.1755	3.4
389.0953	2.5
389.1723	100.0
390.1753	19.1
391.1631	9.2

Name: 3-amino-6,7,8,8a-tetrahydroimidazo(1,5-a)pyridin-1(5H)-one
PrecursorMZ: 154.09757
RT: 3.813
ExactMass: 153.090211983
Spectrum_type: 2
charge: 1
Formula: C7H11N3O
SMILES: C1CCN2C(C1)C(=O)N=C2N
Method: HCD
Collision_energy: [28.333334]
Isolation_window: 4.0
Ion_mode: P
Num Peaks: 26
72.0812	5.2
82.0655	3.0
84.0811	6.6
86.0968	14.4
125.0709	4.2
126.1027	2.6
127.0504	2.8
128.1182	4.7
135.0918	4.4
136.0758	14.5
137.0710	11.8
137.1074	7.6
152.0707	5.3
152.0820	4.3
153.0661	6.7
153.1024	16.0
153.1388	13.0
154.0864	100.0
154.0974	49.4
155.0816	9.8
155.0897	7.6
155.1003	3.7
155.1180	10.2
156.0422	6.8
156.1022	2.9
156.1132	30.4

Name: 3-amino-6-methyl-N-(1,3,4-thiadiazol-2-yl)-5,6,7,8-tetrahydrothieno(2,3-b)(1,6)naphthyridine-2-carboxamide
PrecursorMZ: 347.07351
RT: 6.8274
ExactMass: 346.06705144
Spectrum_type: 2
charge: 1
Formula: C14H14N6OS2
SMILES: CN1CCC2=NC3=C(C=C2C1)C(=C(S3)C(=O)NC4=NN=CS4)N
Method: HCD
Collision_energy: [28.333334]
Isolation_window: 4.0
Ion_mode: P
Num Peaks: 10
221.1284	11.4
295.0964	11.7
301.1180	10.7
346.1474	8.3
346.2122	10.6
347.0733	100.0
347.0935	28.9
347.1232	43.4
348.0761	13.3
348.1275	8.8

Name: 3-amino-N-(2-(1H-indol-3-yl)ethyl)-6-(pyridin-2-yl)thieno(2,3-b)pyridine-2-carboxamide
PrecursorMZ: 436.12068
RT: 7.7477
ExactMass: 413.13103142
Spectrum_type: 2
charge: 1
Formula: C23H19N5OS
SMILES: C1=CC=C2C(=C1)C(=CN2)CCNC(=O)C3=C(C4=C(S3)N=C(C=C4)C5=CC=CC=N5)N
Method: HCD
Collision_energy: [28.333334]
Isolation_window: 4.0
Ion_mode: P
Num Peaks: 24
70.0654	3.1
81.0337	6.4
84.0810	2.9
85.0285	4.3
97.0284	2.8
111.0440	6.5
127.0388	2.7
230.1380	3.9
256.1284	4.3
258.1325	3.9
273.1437	10.9
276.1433	8.6
289.1385	3.2
418.1727	3.2
434.1605	6.2
435.1685	2.8
435.1957	8.6
436.1202	100.0
436.1786	6.2
437.1023	7.4
437.1295	12.1
437.1751	6.1
438.1180	4.8
438.1981	5.6

Name: 3-fluoro-1-(9-((oxolan-2-yl)methyl)-9H-purin-6-yl)pyrrolidine-3-carboxamide
PrecursorMZ: 335.16296
RT: 6.7312
ExactMass: 334.15535203
Spectrum_type: 2
charge: 1
Formula: C15H19FN6O2
SMILES: C1CC(OC1)CN2C=NC3=C2N=CN=C3N4CCC(C4)(C(=O)N)F
Method: HCD
Collision_energy: [28.333334]
Isolation_window: 4.0
Ion_mode: P
Num Peaks: 34
70.0654	6.3
83.0493	36.0
90.0373	5.6
100.0757	47.5
101.0597	6.2
108.0443	5.0
127.0499	5.7
150.0913	5.9
154.0861	7.6
172.0788	16.4
180.1014	7.2
186.0580	48.3
190.0893	46.5
200.0735	7.6
204.0683	14.9
208.0964	21.8
210.1120	20.3
276.1335	4.0
286.1101	6.9
288.1699	9.3
304.1206	8.5
333.1428	6.7
334.1287	10.3
334.1443	8.5
334.1778	10.0
335.1206	6.6
335.1622	100.0
335.1960	5.7
336.1055	4.6
336.1435	11.6
336.1657	45.7
336.2158	9.5
337.1374	8.9
337.1739	5.8

Name: 3-fluoro-N-(6-((2-(pyrrolidin-1-yl)ethyl)thio)pyridazin-3-yl)benzamide
PrecursorMZ: 347.13444
RT: 8.32
ExactMass: 346.12636058
Spectrum_type: 2
charge: 1
Formula: C17H19FN4OS
SMILES: C1CCN(C1)CCSC2=NN=C(C=C2)NC(=O)C3=CC(=CC=C3)F
Method: HCD
Collision_energy: [28.333334]
Isolation_window: 4.0
Ion_mode: P
Num Peaks: 22
101.0597	7.2
109.0760	22.2
124.0867	12.5
150.1025	5.9
152.0704	6.0
153.0656	19.2
180.1129	16.4
194.0921	9.8
224.1024	39.9
231.1125	8.2
246.1120	10.6
249.1227	5.2
285.1354	23.7
286.1398	5.5
303.1443	54.7
304.1479	7.7
346.1638	100.0
347.1336	42.2
347.1657	20.8
348.1369	7.5
348.1907	9.5
349.1746	45.1

Name: 3-hydroxy-N-(2-oxooxolan-3-yl)decanamide
PrecursorMZ: 272.18544
RT: 3.0985
ExactMass: 271.17835828
Spectrum_type: 2
charge: 1
Formula: C14H25NO4
SMILES: CCCCCCCC(CC(=O)NC1CCOC1=O)O
Method: HCD
Collision_energy: [28.333334]
Isolation_window: 4.0
Ion_mode: P
Num Peaks: 28
69.0703	2.6
70.0655	42.3
93.0701	2.7
112.0759	6.0
116.0708	100.0
117.0741	5.4
121.1013	3.2
126.0913	2.8
127.0392	4.2
139.1119	4.2
140.0705	6.5
148.0758	3.0
168.0655	4.9
198.0913	5.6
225.0868	2.7
226.0862	4.9
226.1799	5.3
243.0973	7.8
244.0967	13.8
254.1749	26.0
255.1786	4.5
271.0926	7.7
272.0914	3.2
272.1125	2.7
272.1854	25.2
273.1891	3.5
274.1065	2.5
274.1186	6.2

Name: 3-hydroxynonanoyl proline (M+H)+
PrecursorMZ: 272.18542
RT: 4.6559
Spectrum_type: 2
charge: 1
SMILES: CCCCCCC(O)CC(=O)N1CCC[C@H]1C(=O)O
Method: HCD
Collision_energy: [28.333334]
Isolation_window: 4.0
Ion_mode: P
Num Peaks: 50
69.0703	3.1
70.0655	40.9
71.0688	1.7
72.0812	1.3
81.0702	2.2
86.0967	1.2
93.0701	2.5
95.0857	1.6
97.1012	1.6
99.0442	1.2
111.1168	1.4
112.0758	7.2
116.0707	100.0
117.0547	1.7
117.0739	4.3
121.1013	3.4
126.0914	1.4
127.0390	3.0
130.0864	1.3
139.1116	3.9
140.0706	5.5
148.0756	11.7
165.0659	1.4
181.0647	1.3
198.0912	9.6
199.0948	1.2
208.1693	1.5
226.0861	6.2
226.1798	3.9
226.2529	1.2
227.1757	1.1
231.1485	1.4
244.0966	18.4
245.1008	2.7
254.1747	31.4
255.1785	3.9
271.0955	1.1
272.0911	3.1
272.1124	1.4
272.1274	1.5
272.1854	25.6
273.0881	1.4
273.1227	1.7
273.1592	2.9
273.1672	1.5
273.1887	3.7
274.0710	1.4
274.1052	1.8
274.1184	3.7
274.1411	1.7

Name: 3-methyl-2-(pentanoylamino)butanoic Acid
PrecursorMZ: 202.14364
RT: 4.7985
ExactMass: 201.13649347
Spectrum_type: 2
charge: 1
Formula: C10H19NO3
SMILES: CCCCC(=O)NC(C(C)C)C(=O)O
Method: HCD
Collision_energy: [28.333334]
Isolation_window: 4.0
Ion_mode: P
Num Peaks: 12
57.0703	3.6
85.0650	2.5
100.0758	100.0
101.0598	4.4
101.0791	6.5
118.0863	7.6
186.0582	4.9
201.1275	2.0
202.0860	1.5
202.1799	1.8
203.0811	1.4
203.1428	3.1

Name: 3-methyl-3,4-dihydro-1H-1,4-benzodiazepine-2,5-dione
PrecursorMZ: 191.08134
RT: 3.0266
ExactMass: 190.074227566
Spectrum_type: 2
charge: 1
Formula: C10H10N2O2
SMILES: CC1C(=O)NC2=CC=CC=C2C(=O)N1
Method: HCD
Collision_energy: [28.333334]
Isolation_window: 4.0
Ion_mode: P
Num Peaks: 23
118.0650	12.1
120.0442	36.9
128.0492	24.5
130.0649	42.1
132.0442	15.2
144.0805	70.4
145.0757	18.7
146.0597	71.3
146.0835	15.1
148.0390	25.4
162.0912	32.8
162.1022	67.2
172.0755	14.3
173.0706	40.8
174.0785	100.0
174.1484	12.1
190.0494	13.9
190.0856	24.7
190.0979	15.2
191.0810	48.1
191.1171	22.1
192.1382	13.1
192.1587	17.3

Name: 3-oxo-N-(tetrahydro-2-oxo-3-furanyl)hexanamide
PrecursorMZ: 214.1072
RT: 6.259
ExactMass: 213.10010796
Spectrum_type: 2
charge: 1
Formula: C10H15NO4
SMILES: CCCC(=O)CC(=O)NC1CCOC1=O
Method: HCD
Collision_energy: [28.333334]
Isolation_window: 4.0
Ion_mode: P
Num Peaks: 63
70.0655	17.4
72.0811	16.6
81.0338	4.9
84.0447	10.2
85.0651	7.1
86.0967	6.0
87.0443	17.9
95.0606	6.8
96.0446	17.8
97.0286	13.8
98.0602	6.9
100.0759	64.1
101.0598	8.7
110.0714	13.0
112.0757	6.4
113.0712	5.1
114.0551	5.3
114.0914	17.0
116.0707	34.5
124.0757	5.4
126.0662	20.0
126.0914	8.3
144.1020	5.9
149.0709	5.3
150.0913	34.8
152.0705	9.9
154.0499	4.7
156.0767	6.3
161.0712	5.4
166.0864	4.6
166.0974	8.4
167.0815	7.6
168.0653	5.2
168.0767	4.7
168.1018	27.7
169.0972	5.8
170.0812	4.6
178.0861	16.6
179.0814	8.4
194.0811	9.5
194.0924	4.5
195.0763	6.1
195.1125	20.8
196.0603	4.8
196.0967	100.0
196.1074	8.0
197.0919	12.3
197.1003	11.1
198.0759	19.6
198.1122	16.4
212.0917	12.3
212.1030	46.7
212.1275	6.8
213.0860	9.6
213.1075	8.0
213.1229	30.8
214.0713	5.6
214.1074	22.4
214.1186	10.6
215.1021	26.8
215.1383	8.3
216.0865	6.5
216.1226	6.4

Name: 3.alpha.,7.alpha.,12alpha-Trihydroxycholestanoic acid
PrecursorMZ: 468.36818
RT: 4.64298
Spectrum_type: 2
charge: 1
Method: HCD
Collision_energy: [28.333334]
Isolation_window: 4.0
Ion_mode: P
Num Peaks: 37
81.0702	5.3
89.0600	7.5
95.0857	5.4
97.1013	3.4
97.3999	3.2
105.0699	3.7
107.0857	4.0
109.1014	3.3
119.0858	3.5
133.0857	3.4
133.1012	3.7
135.1167	3.7
145.1011	9.2
147.1168	4.5
159.1168	8.1
161.1326	3.5
171.1169	3.1
199.1481	5.7
213.1636	6.4
215.1788	3.3
227.1793	5.8
241.1950	4.9
255.2107	5.0
287.2008	4.1
379.2988	3.3
397.3097	100.0
398.3131	29.7
399.3152	3.6
415.3203	55.5
416.3235	18.4
466.7180	7.6
467.1877	3.3
467.2199	4.6
468.3682	19.3
469.2124	13.4
469.3710	6.5
470.2166	5.3

Name: 3Beta,7beta,12beta-trihydroxy-5beta-cholan-24-oic acid
PrecursorMZ: 373.27391
RT: 0.6049
ExactMass: 408.28757437
Spectrum_type: 2
charge: 1
Formula: C24H40O5
SMILES: C[C@H](CCC(=O)O)[C@H]1CC[C@@H]2[C@@]1([C@@H](C[C@H]3[C@H]2[C@H](C[C@H]4[C@@]3(CC[C@@H](C4)O)C)O)O)C
Method: HCD
Collision_energy: [28.333334]
Isolation_window: 4.0
Ion_mode: P
Num Peaks: 149
59.0496	0.7
59.0609	0.8
67.0547	2.4
69.0704	1.3
70.0656	4.1
79.0546	1.3
81.0339	0.9
81.0703	6.4
83.0860	2.6
84.0812	1.0
85.0653	1.5
86.0969	4.0
89.0601	1.9
91.0544	1.3
93.0703	4.4
95.0859	8.0
99.0443	1.6
101.0600	1.5
105.0702	4.7
107.0858	9.3
109.1015	8.6
111.0442	0.7
111.0805	0.9
113.0601	0.6
116.0708	1.1
117.0700	0.9
119.0858	6.3
120.0811	1.1
121.1015	6.7
123.0807	1.0
123.1172	2.1
125.0963	1.6
126.1279	0.7
131.0858	3.5
133.0866	1.4
133.1013	6.0
135.0806	0.8
135.1170	5.8
139.0755	0.6
143.0855	1.5
145.1014	50.6
146.1049	3.3
146.1178	2.4
147.1171	9.8
148.1208	0.7
149.0964	0.6
149.1327	20.0
150.1359	1.0
151.1118	0.9
153.0914	1.0
157.1015	2.5
159.1171	7.6
161.1327	7.4
163.1484	4.2
167.1065	0.6
169.1006	0.9
171.1170	2.6
173.1326	3.4
175.1118	0.7
175.1484	2.8
177.1276	0.6
177.1645	1.2
183.1166	1.8
183.1502	1.1
185.1327	3.4
187.1484	3.3
189.1640	1.8
191.1065	0.9
193.1223	2.1
197.1320	1.5
199.1484	11.2
200.1527	0.8
201.1640	9.7
202.1673	0.8
203.1796	1.5
205.1223	1.4
207.1377	1.0
209.1328	3.4
211.1474	3.1
213.1640	9.4
214.1676	0.7
215.1430	1.6
215.1798	12.5
216.1831	1.0
219.1353	0.8
221.1542	0.6
223.1485	1.8
224.1400	0.8
225.1637	3.0
227.1438	4.4
227.1793	6.9
228.1832	0.7
229.1588	3.2
229.1945	0.8
231.1744	0.7
233.1523	0.9
237.1640	1.7
239.1791	1.3
241.1591	1.1
241.1953	2.3
243.1356	0.7
243.1737	1.2
245.1536	6.5
247.1694	2.5
253.1957	1.3
254.2026	0.7
255.1744	5.1
255.2109	1.5
259.1695	3.5
261.1854	2.6
263.1800	1.1
267.2111	0.7
269.1901	0.6
273.1857	1.9
277.1959	0.6
279.2106	1.3
281.1901	1.0
293.2269	1.6
295.2062	1.5
295.2419	0.8
297.2217	1.4
299.2004	0.9
309.1845	0.7
309.2578	100.0
309.3318	0.7
310.2612	9.0
311.2657	1.1
313.2162	0.7
319.2423	10.3
320.2458	1.4
327.2687	4.1
337.2530	26.9
338.2563	2.6
339.2666	0.7
355.2635	76.1
356.2668	7.4
357.2770	2.4
362.2232	0.9
373.1788	0.7
373.2741	76.2
374.2766	3.6
375.2820	0.7
378.2018	0.6
379.2285	1.1
381.2133	0.9
383.2263	1.0
385.2481	0.9
390.3002	1.3
391.2845	16.7

Name: 3a,4b,7a,12a-Tetrahydroxy-5b-cholanoic acid
PrecursorMZ: 407.27808
RT: 4.8609
ExactMass: 424.28248899
Spectrum_type: 2
charge: 1
Formula: C24H40O6
SMILES: C[C@H](CCC(=O)O)[C@H]1CC[C@@H]2[C@@]1([C@H](C[C@H]3[C@H]2[C@@H](C[C@H]4[C@@]3(CC[C@H]([C@@H]4O)O)C)O)O)C
Method: HCD
Collision_energy: [28.333334]
Isolation_window: 4.0
Ion_mode: P
Num Peaks: 9
213.1631	35.0
307.2406	33.6
335.2360	29.1
353.2462	98.7
354.2486	30.1
371.2565	100.0
372.2601	37.5
389.2669	83.9
406.2344	28.8

Name: 3a,5a,5b,8,8,11a-hexamethyl-1-prop-1-en-2-yl-2,3,4,5,6,7,7a,11b,12,13,13a,13b-dodecahydro-1H-cyclopenta(a)chrysen-9-one
PrecursorMZ: 423.36117
RT: 0.9038
ExactMass: 422.354866087
Spectrum_type: 2
charge: 1
Formula: C30H46O
SMILES: CC(=C)C1CCC2(C1C3CCC4C(C3(CC2)C)(CCC5C4(C=CC(=O)C5(C)C)C)C)C
Method: HCD
Collision_energy: [28.333334]
Isolation_window: 4.0
Ion_mode: P
Num Peaks: 30
57.0701	12.0
69.4961	18.1
81.0700	22.3
93.0699	13.3
95.0854	45.5
97.4558	11.9
107.0853	25.1
109.1010	40.7
119.0853	19.5
121.0645	11.6
121.1009	24.6
123.1165	19.1
133.1008	23.6
135.1165	22.9
147.1165	17.8
149.1321	19.8
159.1165	20.8
161.1320	17.9
163.1477	15.8
173.1319	13.6
175.1478	18.8
177.1635	12.4
189.1634	22.5
191.1788	11.2
201.1630	18.4
203.1787	26.0
215.1790	14.4
217.1941	14.4
423.3604	100.0
424.3634	32.1

Name: 3a,7b,12a-Trihydroxyoxocholanyl-Glycine
PrecursorMZ: 448.30512
RT: 3.063
ExactMass: 465.30903809
Spectrum_type: 2
charge: 1
Formula: C26H43NO6
SMILES: C[C@H](CCC(=O)NCC(=O)O)[C@H]1CC[C@@H]2[C@@]1([C@H](C[C@H]3[C@H]2[C@H](C[C@H]4[C@@]3(CC[C@H](C4)O)C)O)O)C
Method: HCD
Collision_energy: [28.333334]
Isolation_window: 4.0
Ion_mode: P
Num Peaks: 125
57.0702	1.3
67.0545	3.0
69.0701	1.4
70.0654	1.4
71.0858	1.3
76.0395	6.4
79.0544	2.6
81.0701	6.5
83.0858	1.9
85.0650	1.6
86.0061	1.9
86.0966	2.9
88.0395	3.5
91.0543	2.9
93.0700	5.6
95.0856	8.4
99.0440	1.2
102.0550	1.8
105.0699	5.6
107.0855	9.2
109.1012	6.8
116.0706	3.0
117.0699	1.3
119.0855	6.4
120.0806	1.4
121.1011	9.1
122.0600	1.3
123.1167	2.7
124.0756	1.1
131.0854	3.7
132.0112	9.8
133.1010	7.1
135.1166	7.8
143.0854	2.1
145.1010	8.3
147.1166	16.9
148.1200	1.7
149.1322	8.1
151.1116	1.1
157.1009	2.9
158.0810	3.2
159.1166	6.2
161.1322	16.6
162.1357	1.8
163.1479	4.2
170.0811	1.4
171.1166	2.7
173.1322	4.2
175.1480	4.7
176.0914	3.3
177.1632	1.6
183.1167	1.3
185.1321	3.4
187.1478	4.8
189.1633	1.9
193.1219	2.2
197.1322	1.3
199.1478	8.4
200.1510	1.1
201.1635	9.7
202.1668	1.3
203.1427	1.4
203.1790	1.9
207.1374	1.3
209.1319	2.4
211.1477	2.7
213.1634	7.9
214.1665	1.2
215.1790	16.4
216.1823	2.8
217.1584	1.3
223.1479	1.9
225.1633	2.9
227.1427	2.4
227.1790	4.8
229.1583	3.2
231.1739	1.4
233.1533	2.1
233.1894	1.1
237.1633	1.7
239.1785	1.6
239.2361	1.7
241.1584	1.8
241.1946	2.8
243.1743	1.6
245.1531	5.2
247.1688	2.6
253.1944	1.3
255.1737	4.2
259.1686	3.9
261.1842	1.3
273.1840	1.3
279.2103	1.2
281.1892	1.1
297.2201	1.3
309.2569	28.0
310.2603	5.8
319.2412	8.3
320.2446	2.5
325.1537	1.4
326.2683	5.7
327.2675	29.0
328.2708	6.3
337.2517	21.4
338.2551	4.3
355.2624	38.3
356.2657	9.5
373.2728	20.6
374.2763	4.3
388.2278	1.1
402.2438	1.4
412.2833	5.8
430.2951	5.4
430.3308	1.9
431.2977	1.6
446.3469	4.2
447.3496	3.3
448.2487	2.1
448.2550	15.9
448.3050	100.0
448.3398	1.2
449.2143	1.0
449.2539	4.3
449.3080	27.3
450.3114	2.3

Name: 3a-(3,4-Dimethoxyphenyl)-1,2,3,3a,4,5-hexahydro-1-methyl-6H-indol-6-one
PrecursorMZ: 305.18549
RT: 6.575
ExactMass: 287.15214353
Spectrum_type: 2
charge: 1
Formula: C17H21NO3
SMILES: CN1CCC2(C1=CC(=O)CC2)C3=CC(=C(C=C3)OC)OC
Method: HCD
Collision_energy: [28.333334]
Isolation_window: 4.0
Ion_mode: P
Num Peaks: 71
58.0655	1.8
69.4563	1.3
69.5527	1.2
70.0654	2.0
81.0337	1.1
84.0810	13.4
86.0966	1.0
91.0543	5.1
95.0605	1.7
98.0965	2.5
103.0542	3.0
108.0442	1.8
110.0713	1.7
111.0553	1.3
114.1277	4.1
125.0233	2.4
129.1385	1.5
130.0861	2.8
130.1224	2.3
131.0490	96.2
132.0523	9.0
133.0758	1.9
139.0500	1.8
140.1069	1.2
152.0818	1.3
171.1853	1.1
172.0964	1.8
174.1850	2.3
175.1438	16.1
176.1470	1.3
183.0916	0.8
202.0972	2.9
214.0817	2.0
214.1223	1.1
214.1798	2.5
217.1080	6.2
223.1200	1.7
224.1277	3.2
259.1188	3.1
263.1134	2.8
287.1595	1.2
287.1742	1.9
288.0860	1.1
288.1070	1.2
304.0838	2.5
304.1003	0.8
304.1165	3.0
304.1375	2.8
304.1536	3.3
304.1678	2.7
304.2266	1.7
304.2992	3.8
305.1119	0.8
305.1244	10.4
305.1481	3.7
305.1852	100.0
305.3027	1.2
306.0972	1.8
306.1162	1.6
306.1321	3.4
306.1448	1.2
306.1510	1.1
306.1688	3.5
306.1885	17.4
306.2060	2.1
306.2416	9.3
307.1071	2.4
307.1278	1.8
307.1408	6.2
307.1641	2.1
307.2016	1.6

Name: 3alpha,6beta,7beta,12alpha-Tetrahydroxy-5beta-cholan-24-oic Acid
PrecursorMZ: 389.26735
RT: 5.3877
ExactMass: 424.28248899
Spectrum_type: 2
charge: 1
Formula: C24H40O6
SMILES: C[C@H](CCC(=O)O)[C@H]1CC[C@@H]2[C@@]1([C@H](C[C@H]3[C@H]2[C@H]([C@H]([C@H]4[C@@]3(CC[C@H](C4)O)C)O)O)O)C
Method: HCD
Collision_energy: [28.333334]
Isolation_window: 4.0
Ion_mode: P
Num Peaks: 10
145.1010	13.9
159.1162	18.7
211.1474	16.1
335.2355	34.1
353.2459	100.0
354.2493	24.3
371.2565	61.5
372.2595	15.8
389.2668	62.2
390.2698	19.7

Name: 3alpha,7beta-Dihydroxy-12-oxo-5beta-cholan-24-oic Acid
PrecursorMZ: 407.27864
RT: 4.7684
ExactMass: 406.27192431
Spectrum_type: 2
charge: 1
Formula: C24H38O5
SMILES: C[C@H](CCC(=O)O)[C@H]1CC[C@@H]2[C@@]1(C(=O)C[C@H]3[C@H]2[C@H](C[C@H]4[C@@]3(CC[C@H](C4)O)C)O)C
Method: HCD
Collision_energy: [28.333334]
Isolation_window: 4.0
Ion_mode: P
Num Peaks: 92
67.0546	4.5
70.0654	13.8
72.0810	6.4
81.0337	4.8
81.0701	10.1
83.0493	5.3
86.0966	22.4
93.0701	5.8
95.0856	13.1
96.0445	10.2
99.0442	4.7
101.0597	4.5
104.0706	4.0
105.0698	9.5
107.0855	11.2
109.1012	8.4
116.0706	13.2
119.0854	6.4
120.0807	16.1
121.1011	8.4
123.0804	4.1
124.0752	3.7
130.0497	6.3
131.0852	5.3
133.1010	9.1
135.1165	5.6
136.0754	5.4
143.0853	4.4
145.1010	17.2
147.0761	16.3
147.1167	16.1
152.0707	4.9
152.1068	6.4
157.1011	12.7
159.1166	12.9
161.1324	10.9
164.0704	5.8
164.1065	6.0
166.0865	4.1
168.1377	3.6
171.1166	5.3
173.1321	5.6
185.1320	7.2
192.1013	4.2
197.1323	10.2
199.1477	13.6
209.1320	5.6
211.1478	11.0
213.1634	16.8
215.1428	4.5
225.1633	4.9
227.1427	8.2
229.1580	4.7
230.1377	3.7
231.1738	10.0
243.1375	5.7
245.1531	8.6
263.1747	14.0
271.1689	5.0
271.2006	4.2
282.1327	5.3
307.2415	15.2
308.2444	4.6
311.1979	4.1
317.2260	8.3
323.1960	14.5
325.2519	41.8
326.2549	9.5
335.2360	20.8
336.2391	5.9
343.2621	4.6
353.2467	95.8
354.2500	25.7
371.2157	6.8
371.2572	100.0
372.2607	26.0
389.2676	80.2
390.2713	21.2
406.1454	7.5
406.1922	5.8
406.2312	27.9
406.2602	4.2
406.2932	9.6
407.1566	4.4
407.1888	14.2
407.2325	12.1
407.2770	32.0
408.1604	4.7
408.2110	5.8
408.2425	4.0
408.2807	13.6
409.1747	4.8

Name: 3b,12a-Dihydroxy-5a-cholanoic acid
PrecursorMZ: 357.27833
RT: 1.4722
ExactMass: 392.29265975
Spectrum_type: 2
charge: 1
Formula: C24H40O4
SMILES: C[C@H](CCC(=O)O)[C@H]1CC[C@@H]2[C@@]1([C@H](C[C@H]3[C@H]2CC[C@@H]4[C@@]3(CC[C@@H](C4)O)C)O)C
Method: HCD
Collision_energy: [28.333334]
Isolation_window: 4.0
Ion_mode: P
Num Peaks: 45
67.0546	2.8
81.0701	9.8
83.0858	3.4
93.0700	4.2
95.0857	10.9
99.0441	2.3
101.0598	2.8
105.0699	4.3
107.0856	7.1
109.1012	11.8
119.0854	4.7
121.1012	8.5
123.1169	2.4
133.1011	5.8
135.1167	12.0
147.1167	8.9
149.0960	1.9
149.1323	8.3
159.1168	2.9
161.1324	7.8
163.1480	5.2
173.1325	2.4
175.1479	4.9
181.1224	2.0
187.1478	2.7
189.1637	3.3
195.1375	5.5
201.1634	5.3
203.1795	2.1
207.1377	2.5
211.1477	2.4
215.1791	10.0
221.1531	4.3
229.1948	2.5
235.1689	2.9
243.2102	3.9
247.1688	6.9
249.1846	2.1
261.1845	7.9
275.2000	3.9
321.2566	2.7
339.2679	5.2
356.2658	4.2
357.2782	100.0
358.2815	24.8

Name: 3beta,7alpha-Dihydroxy-12-oxo-5beta-cholan-24-oic Acid
PrecursorMZ: 371.25707
RT: 2.3434
ExactMass: 406.27192431
Spectrum_type: 2
charge: 1
Formula: C24H38O5
SMILES: C[C@H](CCC(=O)O)[C@H]1CC[C@@H]2[C@@]1(C(=O)C[C@H]3[C@H]2[C@@H](C[C@H]4[C@@]3(CC[C@@H](C4)O)C)O)C
Method: HCD
Collision_energy: [28.333334]
Isolation_window: 4.0
Ion_mode: P
Num Peaks: 48
81.0699	7.2
93.0698	7.3
95.0854	11.9
101.0595	5.3
105.0697	9.4
107.0854	15.0
109.1010	7.0
119.0853	12.0
121.1009	8.5
131.0851	5.5
133.1007	12.6
135.1161	5.3
145.1007	16.4
147.1164	12.5
157.1008	8.0
159.1165	14.3
161.1069	7.4
161.1321	9.1
169.1005	4.4
171.1161	5.2
173.1320	6.7
183.1163	5.5
185.1320	6.5
187.1473	5.5
197.1318	5.2
199.1473	15.2
211.1473	7.7
213.1631	13.9
225.1629	5.8
227.1422	6.3
227.1787	4.2
229.1579	6.0
245.1528	9.4
247.1684	11.8
259.1682	5.8
261.1839	12.6
325.2511	12.5
335.2359	12.3
337.2511	8.3
353.2462	34.9
354.2494	8.5
355.2618	100.0
370.1751	7.9
371.1591	4.5
371.2566	82.9
372.1443	4.3
372.2599	22.5
373.2723	78.1

Name: 3beta,7beta-Dihydroxy-12-oxo-5beta-cholan-24-oic Acid
PrecursorMZ: 389.26763
RT: 2.5108
ExactMass: 406.27192431
Spectrum_type: 2
charge: 1
Formula: C24H38O5
SMILES: C[C@H](CCC(=O)O)[C@H]1CC[C@@H]2[C@@]1(C(=O)C[C@H]3[C@H]2[C@H](C[C@H]4[C@@]3(CC[C@@H](C4)O)C)O)C
Method: HCD
Collision_energy: [28.333334]
Isolation_window: 4.0
Ion_mode: P
Num Peaks: 31
70.0653	10.1
81.0700	10.3
93.0696	11.2
95.0855	18.9
97.4566	10.6
105.0697	10.8
107.0855	11.0
116.0704	9.6
119.0853	10.4
145.1009	11.5
147.1165	12.1
157.1006	13.8
159.1166	13.4
211.1475	13.5
227.1419	12.5
307.2413	9.7
317.2255	10.1
325.2513	9.7
335.2360	28.0
342.2054	22.7
344.2208	52.0
353.2463	82.9
354.2495	23.3
355.2628	15.2
371.2569	68.8
372.2603	18.6
388.2106	22.3
389.1692	10.8
389.2673	100.0
390.2262	58.0
390.2701	22.6

Name: 3beta-Hydroxy-12-oxo-5beta-cholanoic acid
PrecursorMZ: 373.27334
RT: 0.6322
ExactMass: 390.27700969
Spectrum_type: 2
charge: 1
Formula: C24H38O4
SMILES: C[C@H](CCC(=O)O)[C@H]1CC[C@@H]2[C@@]1(C(=O)C[C@H]3[C@H]2CC[C@H]4[C@@]3(CC[C@@H](C4)O)C)C
Method: HCD
Collision_energy: [28.333334]
Isolation_window: 4.0
Ion_mode: P
Num Peaks: 263
67.0547	7.0
69.0338	1.4
69.0703	4.9
70.0656	6.7
71.0495	1.9
71.0859	1.1
72.0812	9.8
79.0546	3.6
81.0339	9.9
81.0703	15.7
82.0735	1.1
83.0496	2.6
83.0859	4.9
84.0448	1.1
84.0811	4.5
85.0288	4.0
85.0651	3.1
86.0604	1.2
86.0968	14.7
87.0444	1.5
89.0601	15.2
91.0545	3.6
93.0702	9.4
95.0494	2.9
95.0858	16.9
97.0651	2.8
97.1015	2.3
97.3314	1.4
98.0605	1.7
98.0967	6.5
99.0444	2.9
99.0809	1.9
100.0760	1.2
101.0600	2.7
105.0701	7.8
107.0493	1.9
107.0858	15.0
109.0649	2.0
109.1014	15.3
110.0603	1.3
110.1049	1.1
111.0443	4.3
111.0807	3.0
112.0761	1.3
113.0600	1.5
115.0868	2.1
116.0708	5.6
117.0695	1.9
119.0858	11.4
120.0810	6.5
121.0651	2.3
121.1013	12.8
122.0601	1.2
123.0807	2.8
123.1170	4.8
124.0758	2.7
125.0599	1.2
125.0962	3.6
126.0551	1.3
126.1279	1.2
127.0754	1.2
128.1070	2.0
130.0656	1.4
131.0856	6.1
132.1019	2.3
133.0860	9.0
133.1013	10.4
135.0806	2.4
135.1169	11.4
136.0755	1.5
137.0601	2.4
137.0962	1.9
137.1327	1.3
138.0915	1.7
139.0755	1.2
139.1118	1.2
140.0706	1.2
140.1071	1.3
143.0856	3.8
145.1013	58.3
146.1047	3.0
146.1176	2.6
147.0804	1.8
147.1170	16.7
148.1216	1.3
149.0966	2.6
149.1326	23.8
150.0907	1.2
150.1366	1.7
151.0758	1.9
151.1121	2.1
152.0705	1.5
152.1072	1.2
153.0915	1.6
154.0864	1.4
155.0859	1.4
157.1013	5.0
159.1169	11.3
161.0962	1.5
161.1326	11.9
163.0754	1.1
163.1112	1.6
163.1483	6.2
164.0704	1.6
164.1063	2.0
166.0860	2.9
167.1060	1.5
168.1022	1.9
169.1014	2.1
171.1166	4.6
173.1324	5.1
175.0753	1.1
175.1105	1.7
175.1483	5.0
177.1122	2.3
177.1276	1.8
177.1638	1.7
179.1059	1.2
180.1020	1.5
181.1203	1.2
183.1166	3.0
185.1326	6.9
187.1480	5.5
189.1276	1.2
189.1640	3.8
190.0863	1.1
191.1047	1.5
192.1012	1.7
193.1210	2.3
194.0815	1.1
195.1197	1.6
195.1380	1.5
197.1320	3.1
199.1482	14.3
201.1259	1.4
201.1639	12.4
203.1429	1.7
203.1796	2.1
205.1224	1.3
207.1382	1.5
208.0972	1.2
209.1328	4.5
210.1126	1.2
211.1477	4.2
213.1637	12.9
214.1673	1.4
215.1434	2.4
215.1794	14.9
217.1583	1.1
219.1380	1.5
220.1325	1.6
221.1324	1.2
221.1542	1.6
223.1484	2.8
225.1638	4.3
227.1436	5.1
227.1792	9.3
229.1575	4.7
229.1938	1.8
230.1180	1.1
231.1732	1.3
233.1540	1.2
235.1457	1.2
237.1632	3.6
239.1795	2.3
241.1575	1.5
241.1949	3.2
243.1026	1.2
243.1725	2.0
245.1284	1.1
245.1524	6.6
247.1693	3.7
249.1626	1.3
251.1804	1.3
253.1948	2.8
255.1739	6.6
255.2106	2.4
257.1284	1.2
259.1693	3.8
261.1845	3.6
263.1786	1.1
268.2631	1.5
269.1894	1.3
273.1852	2.1
275.2013	1.2
279.2101	1.6
281.1903	1.3
281.2265	1.1
285.1220	1.6
293.2269	1.8
295.2011	1.5
295.2401	1.5
297.2210	1.7
301.1528	1.2
309.2297	2.2
309.2575	100.0
310.2610	8.9
311.2674	1.1
313.2162	1.2
319.2419	9.1
320.2439	1.1
323.1966	1.7
327.1329	1.9
327.2676	4.7
337.2525	27.0
338.2557	2.9
339.2683	2.4
353.2484	1.6
355.2631	80.0
356.2660	6.9
357.2780	8.8
358.2816	1.7
359.1592	2.2
361.2844	2.0
363.3025	1.3
365.3181	1.5
368.1956	1.2
371.2235	6.3
371.2604	1.3
372.1420	2.1
372.1888	2.6
372.3469	5.1
373.1762	3.0
373.2738	70.8
373.3513	1.7
374.1640	2.0
374.2319	4.1
374.2767	4.9
375.1486	1.8
375.1955	2.1
376.1831	1.4
376.2493	14.8
376.2871	1.1
377.1725	1.9
377.2478	3.3
378.3035	1.3
379.0743	1.1
379.1599	1.5
379.2973	5.2
380.1530	1.4
380.2998	1.1
381.1730	1.4
381.3156	2.2
382.1678	3.0
383.1554	2.2
383.2889	1.4
384.1396	2.4
384.1931	2.3
385.1771	2.6
385.3090	4.4
386.1624	2.6
386.2063	4.5
387.1534	1.1
387.1994	2.6
388.1766	2.3
388.2241	1.5
389.1712	2.6
389.2149	1.1
389.2637	1.9
390.1963	1.1
390.3066	1.3
391.1868	1.2
391.2840	15.6

Name: 3k, 12a 1-propanol (CCS=227.50411987304688)
PrecursorMZ: 433.33085
RT: 1.0041
Spectrum_type: 2
charge: 1
SMILES: CCCOC(=O)CC[C@@H](C)[C@H]1CC[C@H]2[C@@H]3CC[C@@H]4CC(=O)CC[C@]4(C)[C@H]3C[C@H](O)[C@]12C
Method: HCD
Collision_energy: [28.333334]
Isolation_window: 4.0
Ion_mode: P
Num Peaks: 18
57.0703	40.3
71.0859	100.0
72.0892	3.7
83.0858	2.7
85.1015	85.0
86.1047	3.8
97.3986	3.9
99.1171	4.5
109.1013	2.2
120.0808	4.1
123.1170	1.9
127.1482	5.3
141.1638	4.8
149.0233	62.0
150.0267	5.3
166.0864	3.8
167.0337	4.4
433.3309	1.9

Name: 4',4''-Methylenebis(acetanilide)
PrecursorMZ: 283.14371
RT: 6.6788
ExactMass: 282.136827821
Spectrum_type: 2
charge: 1
Formula: C17H18N2O2
SMILES: CC(=O)NC1=CC=C(C=C1)CC2=CC=C(C=C2)NC(=O)C
Method: HCD
Collision_energy: [28.333334]
Isolation_window: 4.0
Ion_mode: P
Num Peaks: 43
70.0654	1.0
81.0337	1.3
105.0699	0.8
111.0440	1.8
121.0648	1.6
134.0808	0.8
134.0963	1.5
141.1020	1.1
152.0704	0.9
155.0811	0.8
163.0863	0.9
169.0969	2.2
181.0494	0.8
193.0733	0.8
225.0753	10.2
239.1174	7.9
240.1211	1.1
247.1071	0.7
265.1175	1.7
266.1378	2.6
267.1328	1.0
281.1276	1.2
281.1840	1.0
282.1121	5.5
282.1325	6.5
282.1467	2.7
282.1568	4.3
282.1696	1.9
283.1289	7.2
283.1433	100.0
283.1610	2.0
283.1666	1.4
283.1771	1.5
284.1119	5.4
284.1275	18.2
284.1468	21.8
284.1623	3.8
284.1842	0.9
284.1973	0.7
285.1209	0.9
285.1302	1.1
285.1441	3.5
285.1589	6.1

Name: 4',6,7-Trimethoxyisoflavone
PrecursorMZ: 313.10669
RT: 3.2473
ExactMass: 312.09977361
Spectrum_type: 2
charge: 1
Formula: C18H16O5
SMILES: COC1=CC=C(C=C1)C2=COC3=CC(=C(C=C3C2=O)OC)OC
Method: HCD
Collision_energy: [28.333334]
Isolation_window: 4.0
Ion_mode: P
Num Peaks: 45
70.0656	0.9
81.0340	0.7
84.0812	1.0
107.0492	1.0
121.0286	9.7
122.0322	0.7
125.0233	0.9
130.0499	0.7
144.1021	0.7
147.0442	4.4
149.0599	0.8
173.0594	0.9
201.0551	0.8
211.0754	6.7
212.0785	1.1
221.0963	1.0
225.0909	1.5
236.0825	0.9
239.0711	1.3
249.0912	4.8
250.0940	0.9
253.0859	29.0
254.0892	5.1
267.1016	9.8
268.1053	2.1
271.0967	1.3
277.0860	43.9
277.1301	1.1
278.0894	8.3
279.0909	1.1
295.0965	100.0
296.0999	19.6
297.1037	2.1
302.1260	0.8
304.1398	1.2
313.1074	6.5
314.1074	1.3
317.1447	1.4
319.1534	1.7
322.1499	2.2
323.1562	0.8
325.1753	2.6
327.0859	1.4
331.1238	3.3
331.1602	1.8

Name: 4',6-Dihydroxyflavone
PrecursorMZ: 255.06085
RT: 9.0149
ExactMass: 254.0579088
Spectrum_type: 2
charge: 1
Formula: C15H10O4
SMILES: C1=CC(=CC=C1C2=CC(=O)C3=C(O2)C=CC(=C3)O)O
Method: HCD
Collision_energy: [28.333334]
Isolation_window: 4.0
Ion_mode: P
Num Peaks: 4
121.0397	6.4
237.0503	100.0
238.0542	10.6
255.0608	15.6

Name: 4',7-Dihydroxyflavanone
PrecursorMZ: 257.08068
RT: 10.1417
ExactMass: 256.07355886
Spectrum_type: 2
charge: 1
Formula: C15H12O4
SMILES: C1C(OC2=C(C1=O)C=CC(=C2)O)C3=CC=C(C=C3)O
Method: HCD
Collision_energy: [28.333334]
Isolation_window: 4.0
Ion_mode: P
Num Peaks: 6
114.0915	12.5
211.0753	100.0
212.0787	14.9
256.1174	5.9
257.0804	4.9
258.0829	10.2

Name: 4',7-Dimethoxyisoflavone
PrecursorMZ: 305.07988
RT: 6.5973
ExactMass: 282.08920892
Spectrum_type: 2
charge: 1
Formula: C17H14O4
SMILES: COC1=CC=C(C=C1)C2=COC3=C(C2=O)C=CC(=C3)OC
Method: HCD
Collision_energy: [28.333334]
Isolation_window: 4.0
Ion_mode: P
Num Peaks: 62
61.0288	1.0
70.0656	0.9
81.0339	1.3
86.0061	0.8
96.0446	0.9
98.0601	0.8
99.0443	1.0
112.0217	1.2
114.0551	1.0
116.0709	1.7
120.0445	0.9
123.0555	2.2
128.0708	1.5
137.0711	3.0
144.1017	0.9
151.0867	5.0
158.1177	1.1
163.0505	1.0
167.0452	7.3
169.0609	8.8
171.0224	0.8
177.0659	1.6
179.0816	9.6
180.0850	1.0
180.1020	2.3
181.0608	15.6
182.0643	1.3
184.0427	0.8
188.0707	0.8
189.0328	2.0
195.0765	1.2
197.0554	0.8
197.0921	11.3
198.0955	0.9
205.0608	1.4
211.0711	1.0
215.0485	4.1
215.1024	1.6
217.0971	0.8
223.0714	13.3
224.0751	1.5
241.0819	20.4
242.0853	2.4
257.0592	2.6
259.0924	100.0
260.0960	10.2
261.0980	1.0
269.0592	0.9
277.0848	2.7
287.0696	4.0
303.1347	1.4
304.1181	1.4
305.0801	63.6
305.1123	1.3
305.1496	3.2
305.1728	1.0
306.0833	7.8
306.1324	1.6
306.1704	1.1
307.0745	2.3
307.1281	1.8
307.1649	3.3

Name: 4'-Methoxy-8-methylflavone
PrecursorMZ: 289.08348
RT: 1.0951
ExactMass: 266.094294304
Spectrum_type: 2
charge: 1
Formula: C17H14O3
SMILES: CC1=C2C(=CC=C1)C(=O)C=C(O2)C3=CC=C(C=C3)OC
Method: HCD
Collision_energy: [28.333334]
Isolation_window: 4.0
Ion_mode: P
Num Peaks: 14
57.0340	8.2
57.0704	3.4
59.0496	3.1
71.0860	3.8
73.0652	2.2
85.1015	3.2
89.0600	8.0
112.8960	2.2
151.0965	4.4
157.1225	2.0
289.0835	100.0
289.1412	2.0
290.0871	15.7
291.0808	5.0

Name: 4'-O-Methylsigmoidin
PrecursorMZ: 371.14899
RT: 1.5685
ExactMass: 370.14163842
Spectrum_type: 2
charge: 1
Formula: C21H22O6
SMILES: CC(=CCC1=C(C(=CC(=C1)C2CC(=O)C3=C(C=C(C=C3O2)O)O)OC)O)C
Method: HCD
Collision_energy: [28.333334]
Isolation_window: 4.0
Ion_mode: P
Num Peaks: 41
89.0600	1.4
94.9299	1.6
107.0491	1.4
114.1278	1.9
147.0441	5.3
167.0341	2.0
174.0551	1.2
176.8753	1.5
179.0339	100.0
180.0373	9.1
191.0338	3.8
193.0495	1.6
197.0445	15.4
198.0478	1.3
201.0659	2.8
233.0809	24.9
234.0842	3.0
235.0963	2.6
242.0922	2.4
251.0914	17.0
252.0948	2.0
253.1068	2.9
257.0809	1.8
270.0875	1.4
286.0822	1.2
299.0913	35.2
300.0947	7.3
311.0912	3.1
313.0933	1.8
327.1086	6.3
353.1381	13.7
354.1413	3.0
355.1523	1.5
369.4279	1.1
370.1137	7.3
370.1287	2.2
370.1652	1.2
371.1188	1.2
371.1486	58.3
372.1520	13.2
373.1645	9.7

Name: 4,5-Bis(2-methoxyanilino)cyclopent-2-en-1-one
PrecursorMZ: 325.15437
RT: 3.4499
ExactMass: 324.1473925
Spectrum_type: 2
charge: 1
Formula: C19H20N2O3
SMILES: COC1=CC=CC=C1NC2C=CC(=O)C2NC3=CC=CC=C3OC
Method: HCD
Collision_energy: [28.333334]
Isolation_window: 4.0
Ion_mode: P
Num Peaks: 9
130.0650	100.0
131.0685	10.7
139.9145	16.3
156.0807	86.8
157.0841	11.9
174.0913	42.1
307.1436	14.5
325.1541	57.8
326.1567	11.6

Name: 4,5-Dichloro-2-n-octyl-4-isothiazolin-3-one
PrecursorMZ: 282.04833
RT: 7.36795
ExactMass: 281.0407907
Spectrum_type: 2
charge: 1
Formula: C11H17Cl2NOS
SMILES: CCCCCCCCN1C(=O)C(=C(S1)Cl)Cl
Method: HCD
Collision_energy: [28.333334]
Isolation_window: 4.0
Ion_mode: P
Num Peaks: 3
152.0564	22.2
282.0484	100.0
283.1073	54.7

Name: 4,5-Dihydroxy-1,3-dimethylimidazolidin-2-one
PrecursorMZ: 147.07642
RT: 5.48266
ExactMass: 146.06914219
Spectrum_type: 2
charge: 1
Formula: C5H10N2O3
SMILES: CN1C(C(N(C1=O)C)O)O
Method: HCD
Collision_energy: [28.333334]
Isolation_window: 4.0
Ion_mode: P
Num Peaks: 12
64.9277	2.2
72.0448	100.0
73.0481	3.8
75.0556	9.6
105.9538	2.2
123.9643	17.2
146.0600	5.4
146.0811	2.9
147.0551	4.6
147.0763	23.0
148.0867	2.0
149.0233	3.2

Name: 4,5-Dihydroxy-4,5,6-trimethyl-2,8-dioxa-13-azatricyclo)8.5.1.013,16(hexadec-10-ene-3,7-dione
PrecursorMZ: 326.15948
RT: 1.6466
ExactMass: 325.15253745
Spectrum_type: 2
charge: 1
Formula: C16H23NO6
SMILES: CC1C(=O)OCC2=CCN3C2C(CC3)OC(=O)C(C1(C)O)(C)O
Method: HCD
Collision_energy: [28.333334]
Isolation_window: 4.0
Ion_mode: P
Num Peaks: 117
58.0656	4.8
70.0657	42.7
72.0813	4.9
80.0499	8.0
81.0340	13.9
83.0496	8.4
84.0812	13.0
87.0444	13.9
95.0609	4.8
96.0450	9.4
96.0814	5.3
98.0966	6.0
100.0761	7.5
101.0602	7.3
108.0813	7.1
110.0604	11.1
111.0444	37.1
114.0552	16.5
114.0666	6.9
121.0649	5.8
122.0604	5.4
126.0553	7.3
130.0865	6.0
132.0444	4.6
134.0604	5.9
136.0764	7.3
137.0601	8.3
147.0444	4.8
148.0759	4.6
150.0553	4.6
150.0778	8.0
150.0916	5.2
152.0707	8.9
152.1072	7.7
153.1020	6.1
154.0865	6.6
162.0916	7.9
164.0707	5.5
166.0864	5.7
171.1127	9.9
178.0853	5.6
179.1176	5.3
186.1114	5.4
191.0688	8.0
192.1022	6.8
196.1107	8.2
204.0656	13.6
206.0930	7.1
220.0970	5.1
221.0801	10.9
228.0854	6.9
234.0763	18.8
238.1200	12.5
240.1348	11.4
251.1032	19.6
258.1100	4.9
276.1225	11.7
279.1357	5.6
288.1600	12.3
289.1213	6.2
295.1044	7.3
306.1336	31.8
307.1352	14.9
308.1511	8.5
309.1487	6.1
311.1040	6.2
311.1610	6.5
314.1393	7.2
316.1196	5.7
317.1532	5.5
321.1452	6.4
324.1450	66.1
325.1429	48.7
325.1783	27.5
326.1189	13.3
326.1615	63.1
327.1000	5.5
327.1618	42.9
328.1391	29.0
328.1787	21.7
329.1119	10.7
329.1784	57.1
330.1206	62.6
331.1280	35.3
331.1632	5.5
331.1879	6.1
332.1139	16.2
332.1487	100.0
333.1101	4.7
333.1485	39.5
333.1804	7.1
334.1300	62.8
334.1656	67.1
335.1273	13.2
335.1630	75.9
336.1513	33.9
337.1419	26.5
337.1743	20.8
338.1234	33.1
338.1696	24.4
339.1568	45.2
339.1932	12.9
340.1176	8.2
340.1503	18.8
340.1828	12.0
341.1405	11.5
341.1740	14.7
341.2108	33.3
342.1560	38.3
342.2073	9.0
343.1320	14.4
343.1521	13.9
343.1956	64.8
344.1132	13.3
344.1497	14.5
344.2021	7.6
345.1419	14.8

Name: 4,5-alpha-Epoxy-6-beta-hydroxygermacra-1(10),11(13)-dien-12-oic acid gamma-lactone
PrecursorMZ: 287.06867
RT: 4.5639
ExactMass: 248.1412445
Spectrum_type: 2
charge: 1
Formula: C15H20O3
SMILES: C/C/1=C\CC[C@@]2([C@H](O2)[C@@H]3[C@@H](CC1)C(=C)C(=O)O3)C
Method: HCD
Collision_energy: [28.333334]
Isolation_window: 4.0
Ion_mode: P
Num Peaks: 19
60.0446	13.7
69.8456	6.8
98.0599	20.2
116.0705	9.6
125.0706	18.4
126.0369	6.7
138.0368	49.0
156.0472	6.8
229.0635	16.9
241.0632	32.8
245.1274	7.4
259.0737	100.0
260.0778	9.2
270.2785	13.5
286.1064	7.5
287.0686	26.4
287.1380	12.5
288.2885	9.3
289.1175	13.5

Name: 4,5-dihydroxy-4,5,6-trimethyl-2,8-dioxa-13-azatricyclo(8.5.1.0¹³,¹⁶)hexadec-10-ene-3,7-dione
PrecursorMZ: 326.15912
RT: 2.6142
Spectrum_type: 2
charge: 1
SMILES: CC1C(=O)OCC2=CCN3CCC(OC(=O)C(C)(O)C1(C)O)C23
Method: HCD
Collision_energy: [28.333334]
Isolation_window: 4.0
Ion_mode: P
Num Peaks: 66
69.0337	9.0
69.6700	6.9
70.0654	10.9
71.0494	10.5
72.0810	6.1
73.0287	8.3
81.0337	40.0
81.0700	6.3
83.0493	11.2
86.0965	19.1
89.0598	84.8
95.0492	8.9
99.0441	27.7
108.0807	11.0
111.0440	34.2
115.0864	12.7
117.0545	26.0
120.0807	6.0
133.0857	49.2
134.0598	51.4
148.0754	8.1
150.0912	7.4
160.0751	8.5
161.1070	30.0
162.0910	6.0
163.0865	7.0
164.0706	7.3
165.1020	10.1
166.0861	16.7
167.0813	6.3
177.1120	10.1
184.1076	13.0
192.1015	9.5
197.0915	7.4
210.1120	60.2
211.1156	7.9
215.1022	6.6
234.0868	6.3
236.0911	6.6
236.1275	7.5
250.1067	100.0
251.1102	14.2
261.0074	5.5
264.1221	21.7
281.1242	9.4
282.1331	11.6
290.1370	7.6
294.1080	7.5
307.1282	6.8
307.1651	5.8
308.1116	9.7
308.1474	8.6
308.1610	37.4
309.1442	8.6
310.1269	8.2
325.1375	27.9
325.1729	16.6
325.1766	6.4
325.1882	16.8
326.1216	27.3
326.1569	94.7
327.1532	23.2
327.1932	7.8
327.2019	13.0
328.1379	31.2
328.1741	6.0

Name: 4,6-Dihydroxy-3-(3-hydroxy-2,5-dimethylphenoxy)-5-methoxy-2,5-dimethylcyclohex-2-en-1-one
PrecursorMZ: 345.13003
RT: 6.8037
ExactMass: 322.14163842
Spectrum_type: 2
charge: 1
Formula: C17H22O6
SMILES: CC1=CC(=C(C(=C1)OC2=C(C(=O)C(C(C2O)(C)OC)O)C)C)O
Method: HCD
Collision_energy: [28.333334]
Isolation_window: 4.0
Ion_mode: P
Num Peaks: 25
70.0655	1.7
72.0811	1.6
84.0810	0.9
86.0352	1.0
111.0553	1.2
116.0707	1.1
132.0443	6.6
133.0608	1.1
134.0600	1.2
166.0974	1.2
194.0671	1.5
201.1232	0.8
229.1176	0.9
232.1083	1.5
242.0916	1.4
259.1187	7.9
260.1222	0.9
284.1134	4.4
302.1243	8.9
303.1275	1.3
327.1185	2.7
345.1300	100.0
346.1331	15.4
347.0734	1.5
347.1356	1.1

Name: 4,6-Dihydroxy-4-(hydroxymethyl)-3,4a,8,8-tetramethyl-5,6,7,8a-tetrahydronaphthalen-1-one
PrecursorMZ: 269.17459
RT: 5.7627
ExactMass: 268.16745924
Spectrum_type: 2
charge: 1
Formula: C15H24O4
SMILES: CC1=CC(=O)C2C(CC(CC2(C1(CO)O)C)O)(C)C
Method: HCD
Collision_energy: [28.333334]
Isolation_window: 4.0
Ion_mode: P
Num Peaks: 73
67.0546	4.1
69.0703	4.0
71.0494	4.9
81.0336	3.1
81.0702	10.5
85.0649	3.3
93.0701	7.7
95.0493	4.0
95.0857	10.0
97.0650	5.6
98.0602	3.7
99.0806	5.0
100.0759	5.2
101.0598	5.7
105.0700	5.0
107.0857	7.2
109.0649	5.3
109.1014	7.8
110.0602	4.0
111.0808	3.5
119.0857	5.0
121.0648	3.4
121.1011	5.3
123.0804	3.9
125.0961	5.1
126.0550	4.0
126.0910	3.4
131.0853	3.7
133.1011	6.7
135.0804	10.7
135.1167	3.5
138.0551	3.5
140.0706	22.6
145.1012	3.3
147.1169	3.4
149.1325	3.8
151.1116	3.6
152.0707	4.8
171.1166	3.6
173.1327	4.5
175.1117	4.5
179.1066	18.3
184.0603	4.2
189.1275	4.0
191.1427	4.5
193.1224	7.6
197.1172	25.4
205.1586	3.9
210.1125	5.4
217.1221	3.2
233.1536	8.1
234.1485	4.2
235.1329	11.2
250.1070	3.4
250.1430	4.0
251.1643	6.6
252.1228	16.4
252.1592	52.1
252.1704	18.1
253.1434	4.5
253.1633	4.8
268.1170	7.3
268.1534	9.1
269.1130	12.6
269.1511	15.4
269.1744	100.0
270.0959	5.6
270.1332	8.5
270.1456	3.3
270.1688	56.3
270.1796	24.1
271.1511	3.2
271.1699	4.7

Name: 4,6-Dimethyl-1,2,4-triazine-3,5(2H,4H)-dione
PrecursorMZ: 142.0611
RT: 1.6344166666666666
ExactMass: 141.053826475
Spectrum_type: 2
charge: 1
Formula: C5H7N3O2
SMILES: CC1=NNC(=O)N(C1=O)C
Method: HCD
Collision_energy: [28.333334]
Isolation_window: 4.0
Ion_mode: P
Num Peaks: 19
57.0421	0.3
57.0451	41.2
58.0291	4.2
58.0421	0.4
58.0484	1.3
76.0395	0.4
85.0398	1.2
141.0657	0.4
142.0057	0.3
142.0493	0.7
142.0516	0.6
142.0609	100.0
142.0698	0.5
142.0724	0.6
142.0758	0.2
143.0580	1.3
143.0640	6.6
144.0566	1.0
144.0806	0.4

Name: 4,7,8-Trimethoxy-3,5-dimethylchromen-2-one
PrecursorMZ: 265.10695
RT: 1.4703
ExactMass: 264.09977361
Spectrum_type: 2
charge: 1
Formula: C14H16O5
SMILES: CC1=CC(=C(C2=C1C(=C(C(=O)O2)C)OC)OC)OC
Method: HCD
Collision_energy: [28.333334]
Isolation_window: 4.0
Ion_mode: P
Num Peaks: 162
67.0546	2.0
69.0338	1.4
69.0702	5.1
70.0654	50.6
71.0687	2.4
72.0811	6.6
74.0603	3.2
79.0544	1.2
81.0337	1.6
81.0701	3.8
83.0493	2.6
84.0446	1.4
84.0810	1.5
91.0543	2.8
93.0700	2.6
95.0491	1.3
95.0857	2.0
98.0601	1.3
101.0234	1.8
102.0914	2.3
105.0699	4.9
107.0491	29.1
107.0855	1.9
108.0526	2.4
109.0284	2.0
109.0648	1.8
109.1012	1.2
111.0441	1.3
116.0705	100.0
117.0698	3.8
117.0739	6.2
119.0491	1.5
119.0854	3.9
120.0807	18.7
121.0647	5.8
121.0841	1.6
121.1013	1.8
122.0599	2.0
123.0440	3.4
123.1167	5.2
124.0756	2.3
125.0231	4.1
127.0387	2.1
130.0498	5.0
130.0860	7.3
131.0490	1.5
131.0853	3.0
133.0646	4.5
133.1009	4.4
135.0803	9.9
136.0754	2.3
137.0595	1.2
137.0959	5.9
139.0386	2.5
141.0543	2.8
143.0853	1.2
145.0645	3.3
145.1010	13.5
146.1043	1.4
147.0438	3.1
147.0806	3.2
147.1165	1.3
149.0594	5.4
149.0959	4.7
150.0547	4.9
151.0387	12.0
151.0752	1.3
151.1115	14.9
152.0705	1.4
155.0850	1.9
159.0438	2.2
159.0803	5.3
161.0594	4.7
161.0960	2.4
162.0914	1.2
163.0751	14.0
163.1115	6.2
164.0787	1.4
165.0543	58.1
165.0906	2.5
166.0581	5.1
166.0860	3.8
167.0336	4.7
169.0492	3.1
173.0959	14.9
174.0548	1.2
174.0993	2.2
174.1272	1.9
175.0752	1.2
175.1113	3.1
176.0703	2.1
177.0543	8.7
177.0907	6.5
178.0860	1.3
179.0699	9.3
179.1063	1.6
183.0804	1.5
184.0965	1.3
187.0750	8.1
188.0703	1.8
188.0927	1.5
190.0717	1.9
190.0858	1.4
191.0698	3.2
191.1062	33.5
192.0653	1.3
192.1097	4.5
193.0489	2.5
194.0807	1.2
201.0906	23.4
201.1220	2.0
202.0857	1.5
202.0942	2.2
203.1062	6.3
204.0650	1.2
205.0490	1.6
205.0855	52.5
206.0888	5.1
218.0676	2.2
218.0808	3.0
218.1171	14.4
219.1012	73.9
219.1120	5.1
220.0959	3.8
220.1048	9.8
220.1326	5.0
221.0915	1.5
221.1280	1.5
223.0960	25.0
223.1068	1.5
224.0999	2.1
229.0855	17.3
230.0893	2.5
237.1117	26.2
237.1230	1.7
238.1163	3.3
245.0915	1.4
246.0752	2.6
246.1119	1.9
247.0705	1.5
247.0959	46.3
247.1066	2.4
247.1324	1.3
248.0904	3.1
248.0996	4.6
263.1025	1.4
263.1385	3.3
264.0718	8.4
264.0860	7.9
264.1086	3.0
264.1222	29.6
265.0813	1.5
265.1061	23.6
265.1190	6.0
265.1265	1.5
265.1569	5.5
266.0804	2.0
266.0997	7.4
266.1122	1.2
266.1379	8.2
267.0977	2.5
267.1331	6.0

Name: 4,7-Dihydroxymellein
PrecursorMZ: 211.06011
RT: 7.3736
ExactMass: 210.05282342
Spectrum_type: 2
charge: 1
Formula: C10H10O5
SMILES: C[C@H]1[C@H](C2=C(C(=C(C=C2)O)O)C(=O)O1)O
Method: HCD
Collision_energy: [28.333334]
Isolation_window: 4.0
Ion_mode: P
Num Peaks: 17
96.0810	8.4
106.0865	8.0
109.0650	9.0
137.0234	34.9
137.0597	11.2
165.0548	51.9
166.0580	4.2
176.0707	6.0
193.0497	17.0
194.0813	5.3
209.1649	6.7
210.0762	23.1
210.1123	5.8
210.1336	6.6
211.0535	100.0
212.0573	9.2
212.0916	7.1

Name: 4,7-diamino-5-(3-fluorophenyl)-2-(prop-2-yn-1-ylsulfanyl)-5H-pyrano(2,3-d)pyrimidine-6-carbonitrile
PrecursorMZ: 376.06443
RT: 7.5895
ExactMass: 353.07465936
Spectrum_type: 2
charge: 1
Formula: C17H12FN5OS
SMILES: C#CCSC1=NC(=C2C(C(=C(OC2=N1)N)C#N)C3=CC(=CC=C3)F)N
Method: HCD
Collision_energy: [28.333334]
Isolation_window: 4.0
Ion_mode: P
Num Peaks: 25
69.5452	6.0
70.0654	6.3
84.0810	4.4
98.0601	10.4
100.0757	32.6
142.0861	18.0
144.0653	52.0
187.0008	9.6
189.0165	40.0
191.0119	8.2
205.0114	21.0
215.0067	5.4
233.0063	21.6
251.0167	11.2
304.0434	5.4
311.1236	10.0
332.0745	6.3
374.1575	5.6
375.1363	7.4
376.0641	100.0
377.0631	13.3
377.0668	11.5
377.0802	5.8
377.1323	6.7
378.0594	24.1

Name: 4-(((4-(4-Fluorophenyl)-1-methyl-3-piperidinyl)methyl)sulfanyl)phenyl methyl ether
PrecursorMZ: 346.16428
RT: 8.280899999999999
ExactMass: 345.15626372
Spectrum_type: 2
charge: 1
Formula: C20H24FNOS
SMILES: CN1CCC(C(C1)CSC2=CC=C(C=C2)OC)C3=CC=C(C=C3)F
Method: HCD
Collision_energy: [28.333334]
Isolation_window: 4.0
Ion_mode: P
Num Peaks: 12
55.0546	2.0
101.0598	5.6
185.0832	2.4
186.0911	4.6
246.1120	9.3
284.1277	2.0
285.1354	18.8
286.1406	4.5
345.2006	4.6
346.1642	100.0
347.1672	21.3
347.1955	4.4

Name: 4-((2-((E)-1-hydroxybut-2-enyl)-5-oxooxolan-3-yl)amino)benzoic acid
PrecursorMZ: 292.11773
RT: 6.5753
ExactMass: 291.11067264
Spectrum_type: 2
charge: 1
Formula: C15H17NO5
SMILES: C/C=C/C(C1C(CC(=O)O1)NC2=CC=C(C=C2)C(=O)O)O
Method: HCD
Collision_energy: [28.333334]
Isolation_window: 4.0
Ion_mode: P
Num Peaks: 55
55.0547	3.9
59.0496	0.9
70.0655	1.7
81.0338	1.5
83.0495	2.5
87.0444	25.1
88.0475	1.3
96.0445	2.3
100.0759	1.7
101.0599	9.9
111.0442	1.1
112.0758	2.1
114.0551	2.5
114.0916	1.6
115.0393	1.3
116.0708	1.8
122.0237	3.8
160.0755	1.0
166.0864	0.9
174.0550	13.4
175.0584	1.0
188.0706	33.4
189.0741	3.4
192.0655	12.4
193.0686	1.2
204.1383	5.6
206.0811	23.7
207.0846	2.4
222.1489	5.4
246.1487	2.3
274.1071	9.8
274.1433	6.5
275.1122	1.2
276.0866	1.5
290.1023	2.3
290.1379	1.9
290.2100	1.1
291.1073	1.6
291.1330	2.6
291.1695	3.4
291.2058	1.6
291.2429	2.4
292.1177	100.0
292.1533	18.9
292.1883	1.0
292.1912	1.8
292.2269	27.5
293.1218	16.1
293.1476	10.8
293.1849	1.6
293.2318	3.9
294.0968	3.5
294.1347	6.6
294.1519	1.5
294.1686	2.5

Name: 4-((3R,5S,8S)-3-ethyl-4-oxa-1-azatricyclo(4.4.0.03,8)decan-5-yl)quinolin-6-ol
PrecursorMZ: 311.17508
RT: 4.6132
ExactMass: 310.168127949
Spectrum_type: 2
charge: 1
Formula: C19H22N2O2
SMILES: CC[C@]12CN3CC[C@H]1CC3[C@@H](O2)C4=C5C=C(C=CC5=NC=C4)O
Method: HCD
Collision_energy: [28.333334]
Isolation_window: 4.0
Ion_mode: P
Num Peaks: 43
70.0655	3.9
72.0811	1.0
81.0337	1.9
83.0858	2.3
86.0966	1.1
95.0857	0.9
98.0964	0.9
107.0491	1.1
116.0706	10.2
116.1070	2.1
122.0712	1.3
126.0913	6.1
162.1123	2.8
166.0860	0.9
166.1224	1.2
168.1017	1.6
169.0969	4.2
181.0758	3.5
182.0831	1.1
264.1589	1.3
265.1696	0.9
293.1499	1.0
293.1642	21.4
294.1677	4.3
310.1155	4.3
310.1434	1.3
310.1621	3.3
310.1776	1.0
310.2128	0.8
310.2366	1.1
311.1043	1.1
311.1230	2.3
311.1377	1.3
311.1748	100.0
312.0877	1.2
312.1413	1.1
312.1564	3.5
312.1779	21.2
312.2524	1.2
313.1180	1.3
313.1386	1.5
313.1555	1.3
313.1781	2.8

Name: 4-((4-(2-Furylcarbonyl)piperazinyl)methyl)-5,7-dimethylchromen-2-one
PrecursorMZ: 389.14665
RT: 4.672375
ExactMass: 366.15795719
Spectrum_type: 2
charge: 1
Formula: C21H22N2O4
SMILES: CC1=CC(=C2C(=CC(=O)OC2=C1)CN3CCN(CC3)C(=O)C4=CC=CO4)C
Method: HCD
Collision_energy: [28.333334]
Isolation_window: 4.0
Ion_mode: P
Num Peaks: 47
81.0700	1.3
86.0967	3.0
89.0599	4.1
95.0857	1.3
98.0965	1.8
133.0647	23.0
133.0858	2.0
134.0681	2.1
146.1173	1.4
149.0234	1.0
165.0547	1.3
177.0544	7.1
193.0492	2.4
205.0493	10.2
206.0522	1.4
232.0942	4.2
238.1070	5.5
250.1070	8.6
251.1107	1.2
253.0849	1.4
263.1750	1.6
269.0804	1.7
285.1119	1.4
297.1116	3.5
311.0910	5.7
325.1067	2.9
329.1014	42.3
330.1046	7.5
331.1067	1.3
357.1775	1.5
370.1643	8.8
371.1116	5.3
371.1692	1.9
375.1540	1.0
388.1369	1.8
388.1749	14.8
388.2571	1.7
388.2612	1.4
389.0938	1.2
389.1268	2.0
389.1468	100.0
389.1685	2.4
389.1738	3.6
389.2033	2.2
389.2680	1.5
390.1502	19.7
391.1462	4.7

Name: 4-((4-(2-chloro-4-fluorobenzyl)piperazin-1-yl)methyl)-7-methyl-2H-chromen-2-one
PrecursorMZ: 423.1258
RT: 5.6104
ExactMass: 400.1353838
Spectrum_type: 2
charge: 1
Formula: C22H22ClFN2O2
SMILES: CC1=CC2=C(C=C1)C(=CC(=O)O2)CN3CCN(CC3)CC4=C(C=C(C=C4)F)Cl
Method: HCD
Collision_energy: [28.333334]
Isolation_window: 4.0
Ion_mode: P
Num Peaks: 8
81.0701	6.2
89.0599	8.7
133.0858	4.8
136.0616	3.5
387.2516	4.5
423.1255	100.0
423.1752	4.5
424.1289	13.8

Name: 4-((4-(Diethylamino)-1-methylbutyl)amino)-6-fluoro-2-(methylsulfanyl)-3-quinolinecarbonitrile
PrecursorMZ: 375.2009
RT: 6.4443
ExactMass: 374.19404621
Spectrum_type: 2
charge: 1
Formula: C20H27FN4S
SMILES: CCN(CC)CCCC(C)NC1=C(C(=NC2=C1C=C(C=C2)F)SC)C#N
Method: HCD
Collision_energy: [28.333334]
Isolation_window: 4.0
Ion_mode: P
Num Peaks: 61
67.0546	10.1
70.0655	13.4
74.0603	11.7
81.0701	13.8
84.0446	13.8
84.0811	14.8
86.0966	28.7
87.0555	11.2
95.0857	12.6
102.0550	14.4
116.0706	15.4
121.0648	13.9
130.0498	9.4
130.0863	12.1
133.0606	10.2
135.0803	16.4
147.0759	19.3
152.0705	12.2
153.0911	11.0
173.1325	15.9
181.0966	20.2
191.1065	16.0
191.1428	11.3
193.0970	19.4
194.0810	11.7
196.0967	13.6
200.1392	10.0
201.1268	14.2
209.1170	11.2
209.1532	16.3
219.1376	24.7
227.1276	13.3
234.1333	17.8
237.1482	27.3
244.0926	22.2
250.1676	9.2
255.1587	72.4
256.1624	12.7
259.1692	9.4
305.1741	10.7
311.1386	10.7
323.1845	15.7
339.1786	10.4
341.1948	9.8
357.1419	19.1
357.2076	10.4
374.1196	20.0
374.1239	19.7
374.1700	46.3
374.1740	19.7
375.1183	10.8
375.1544	100.0
375.2163	11.9
376.1372	25.6
376.1396	23.7
376.1569	14.0
376.1875	10.2
377.1314	16.6
377.1360	9.9
377.1696	16.1
377.1907	18.8

Name: 4-((E)-3-Hydroxy-8,10-dimethyl-2-(methylamino)dodec-6-enyl)phenol
PrecursorMZ: 334.27351
RT: 5.6487
ExactMass: 333.266779359
Spectrum_type: 2
charge: 1
Formula: C21H35NO2
SMILES: CCC(C)CC(C)/C=C/CCC(C(CC1=CC=C(C=C1)O)NC)O
Method: HCD
Collision_energy: [28.333334]
Isolation_window: 4.0
Ion_mode: P
Num Peaks: 20
69.0702	1.4
80.0497	17.1
81.0531	1.4
86.0966	1.9
116.0707	2.3
210.1121	2.6
287.1391	1.2
333.1421	2.1
333.1820	1.6
334.1278	2.0
334.2401	1.3
334.2736	100.0
335.1093	11.7
335.1604	2.4
335.1982	1.9
335.2388	1.4
335.2769	22.9
336.1115	1.6
336.1443	1.4
336.2798	1.7

Name: 4-(1,4-Dioxa-8-azaspiro)4.5(decan-8-ylmethyl)-5,7-dimethylchromen-2-one
PrecursorMZ: 330.16965
RT: 2.8671
ExactMass: 329.16270821
Spectrum_type: 2
charge: 1
Formula: C19H23NO4
SMILES: CC1=CC(=C2C(=CC(=O)OC2=C1)CN3CCC4(CC3)OCCO4)C
Method: HCD
Collision_energy: [28.333334]
Isolation_window: 4.0
Ion_mode: P
Num Peaks: 136
55.0547	4.7
59.0496	2.3
62.0606	8.8
70.0656	12.1
72.0812	2.9
83.0496	6.3
84.0812	10.5
87.0444	1.9
91.0547	2.0
94.0655	2.1
95.0607	2.9
96.0447	8.9
96.0810	2.2
100.0760	8.6
101.0600	28.8
106.0655	3.1
107.0493	3.1
107.0731	3.2
110.0715	2.5
111.0556	3.0
112.0760	10.8
116.0709	3.6
118.0865	4.8
120.0809	2.9
122.0813	6.8
123.0443	7.6
123.0552	2.2
130.0864	13.3
130.1223	2.0
132.0444	4.6
133.1010	2.4
134.0963	2.0
136.0759	2.4
137.0601	2.8
139.0505	2.1
139.0868	3.1
146.0930	2.0
151.1119	7.1
171.0921	2.3
171.1127	1.9
175.1202	2.6
178.0856	2.8
191.1181	1.9
194.1171	2.3
198.1121	4.5
199.0863	2.3
207.1275	2.7
209.1291	1.9
210.0776	2.8
212.1071	23.1
212.1642	6.6
213.1107	3.6
216.0779	2.2
217.0960	4.7
219.1128	2.2
220.1336	2.0
221.1282	3.5
222.1122	1.9
224.1044	2.6
226.1190	14.4
227.1217	2.0
230.1167	4.1
231.1123	2.4
233.1277	2.6
234.0762	7.9
235.1059	2.5
236.1029	3.9
237.1240	2.5
239.1139	6.8
239.1393	9.3
249.1234	2.2
250.1800	13.7
251.1833	2.4
259.1086	1.9
276.1345	10.4
277.1177	19.1
278.1201	3.3
282.1117	2.0
291.1806	1.9
293.2227	8.0
297.1236	2.3
302.1416	2.0
310.1421	2.1
311.2334	5.4
312.1243	2.5
319.1362	2.6
328.1176	6.5
328.1966	4.3
329.1207	11.4
329.1523	7.5
329.2066	3.0
329.2434	23.5
330.1337	14.4
330.1701	58.8
330.2302	6.8
330.3354	2.4
331.1362	16.2
331.1702	20.0
332.1508	17.2
332.2305	3.1
333.1462	16.7
333.1817	11.6
334.1288	26.3
334.1717	13.8
335.1302	2.1
335.1638	36.7
335.1964	4.2
336.1665	42.6
337.1767	37.2
338.1591	3.8
338.1949	10.2
339.1603	14.1
339.1922	50.0
340.1140	4.0
340.1627	2.5
340.2004	9.9
341.1798	17.6
341.2123	18.2
342.1321	29.8
342.1769	2.3
342.2141	2.6
343.1358	8.1
343.1854	16.7
344.1504	14.1
344.2173	3.1
345.1455	9.3
345.1836	2.6
346.1669	12.5
346.3319	2.6
347.1612	28.3
347.2015	2.8
347.2539	100.0
348.1449	6.6
348.1884	5.2
348.2569	18.8
349.1792	19.2

Name: 4-(1H-benzimidazol-2-yl)-5-imino-1-(3-(3-(propan-2-yl)-1,2,4-oxadiazol-5-yl)propyl)-2,5-dihydro-1H-pyrrol-3-ol
PrecursorMZ: 367.18767
RT: 4.6528
ExactMass: 366.18042397
Spectrum_type: 2
charge: 1
Formula: C19H22N6O2
SMILES: CC(C)C1=NOC(=N1)CCCN2CC(=C(C2=N)C3=NC4=CC=CC=C4N3)O
Method: HCD
Collision_energy: [28.333334]
Isolation_window: 4.0
Ion_mode: P
Num Peaks: 3
367.1869	100.0
367.2086	83.2
368.4239	53.1

Name: 4-(2,5-Diethoxy-4-nitrophenyl)morpholine
PrecursorMZ: 297.14427
RT: 7.7451
ExactMass: 296.13722174
Spectrum_type: 2
charge: 1
Formula: C14H20N2O5
SMILES: CCOC1=CC(=C(C=C1N2CCOCC2)OCC)[N+](=O)[O-]
Method: HCD
Collision_energy: [28.333334]
Isolation_window: 4.0
Ion_mode: P
Num Peaks: 86
55.0547	3.7
70.0655	2.5
72.0812	1.8
83.0495	4.2
84.0811	2.0
87.0444	2.2
88.0396	4.1
90.0552	3.3
96.0446	14.9
98.0602	8.0
100.0759	2.8
101.0599	16.2
102.0552	1.9
108.0446	8.3
110.0602	2.6
114.0663	3.1
116.0708	2.6
120.0655	1.5
125.0710	1.5
126.0550	27.9
136.0393	18.1
138.0550	5.4
139.0582	2.8
148.0392	2.5
150.0551	4.5
150.0914	3.8
151.0629	7.0
152.0707	1.8
162.0915	2.6
164.0703	1.7
166.0500	4.0
166.0863	4.0
168.0656	4.1
169.0736	5.2
178.0863	9.5
179.0895	1.8
180.0478	10.6
180.0653	3.6
180.1018	1.9
183.0766	1.8
190.0861	2.3
195.0770	1.9
196.0604	2.6
196.0967	2.5
198.0582	2.7
208.0969	2.9
218.0811	5.1
220.0969	2.3
224.0918	2.4
232.0964	1.5
234.1118	1.8
236.0917	8.5
238.1073	1.8
249.1233	4.1
250.1074	3.7
251.1389	8.0
253.1181	1.7
260.0916	7.0
277.1542	5.2
278.1020	10.4
279.1073	2.3
279.1321	2.6
280.1002	13.2
280.1170	1.8
280.1311	2.3
280.1657	4.5
295.1280	12.3
295.1650	35.9
296.1122	14.2
296.1305	5.2
296.1488	8.6
296.1679	9.1
296.1852	1.9
297.1082	6.2
297.1176	1.7
297.1442	100.0
297.1804	10.6
298.0919	1.8
298.1102	52.4
298.1277	13.6
298.1460	12.1
298.1641	3.2
298.1767	9.6
298.1989	3.0
299.1146	2.7
299.1356	1.7

Name: 4-(2-((1R,4aS,5R,6R,8aS)-6-hydroxy-5-(hydroxymethyl)-5,8a-dimethyl-2-methylidene-3,4,4a,6,7,8-hexahydro-1H-naphthalen-1-yl)acetyl)-2H-furan-5-one
PrecursorMZ: 349.20078
RT: 0.8947
ExactMass: 348.19367399
Spectrum_type: 2
charge: 1
Formula: C20H28O5
SMILES: C[C@@]12CC[C@H]([C@@]([C@H]1CCC(=C)[C@H]2CC(=O)C3=CCOC3=O)(C)CO)O
Method: HCD
Collision_energy: [28.333334]
Isolation_window: 4.0
Ion_mode: P
Num Peaks: 37
57.0704	17.4
69.0703	64.4
71.0495	17.7
83.0495	36.4
97.0650	23.5
109.0649	13.9
113.0599	39.4
179.0701	13.9
203.0707	14.2
207.0651	13.0
211.0600	16.4
217.1224	22.8
225.0756	27.2
235.1327	22.0
245.1175	27.5
257.1169	22.6
259.1327	20.0
261.1124	15.2
261.1486	23.7
263.1276	34.7
273.1120	17.5
273.1482	12.9
275.1276	29.6
279.1590	31.5
281.1383	26.6
311.1635	13.7
313.1796	45.4
329.1742	19.5
330.1776	15.9
331.1905	100.0
332.1939	21.4
333.1693	12.8
347.1852	62.6
348.1880	37.8
349.2008	76.3
350.2051	14.1
351.1798	19.7

Name: 4-(2-Ethylanilino)-4-oxo-2-(oxolan-2-ylmethylamino)butanoic acid
PrecursorMZ: 321.1807
RT: 3.0755
ExactMass: 320.17360725
Spectrum_type: 2
charge: 1
Formula: C17H24N2O4
SMILES: CCC1=CC=CC=C1NC(=O)CC(C(=O)O)NCC2CCCO2
Method: HCD
Collision_energy: [28.333334]
Isolation_window: 4.0
Ion_mode: P
Num Peaks: 13
111.0555	7.1
179.1179	7.5
196.0968	100.0
197.1005	9.5
275.1755	8.9
305.1742	10.4
321.1286	7.1
321.1818	24.3
322.1274	8.5
322.1762	15.7
322.2490	11.3
323.1622	8.6
323.1811	7.1

Name: 4-(2-Oxopyrrolidin-1-yl)butanoic acid
PrecursorMZ: 154.08636
RT: 1.2875
ExactMass: 171.08954328
Spectrum_type: 2
charge: 1
Formula: C8H13NO3
SMILES: C1CC(=O)N(C1)CCCC(=O)O
Method: HCD
Collision_energy: [28.333334]
Isolation_window: 4.0
Ion_mode: P
Num Peaks: 20
81.0702	16.6
95.0496	6.1
96.0810	10.0
108.0810	12.3
109.0650	14.2
112.0759	7.9
124.0758	6.7
126.0914	100.0
127.0948	7.1
134.0965	6.3
140.0343	7.7
152.0707	17.8
152.1070	18.3
153.1024	5.7
153.1386	17.0
154.0863	79.4
154.1227	10.2
156.0421	15.2
156.1020	11.5
156.1384	9.9

Name: 4-(2-amino-4-ethyl-5-(1H-indazol-5-yl)-3-pyridyl)phenol
PrecursorMZ: 331.15454
RT: 1.5009
ExactMass: 330.14806121
Spectrum_type: 2
charge: 1
Formula: C20H18N4O
SMILES: CCC1=C(C(=NC=C1C2=CC3=C(C=C2)NN=C3)N)C4=CC=C(C=C4)O
Method: HCD
Collision_energy: [28.333334]
Isolation_window: 4.0
Ion_mode: P
Num Peaks: 64
70.0656	2.7
72.0812	1.6
81.0339	2.4
84.0812	3.2
96.0811	2.2
101.0601	4.3
111.0444	2.6
121.0652	1.7
122.0811	2.6
130.0863	2.4
132.0445	1.9
144.0811	2.5
146.0603	2.5
180.1019	1.5
181.0973	8.5
229.1337	2.5
260.1183	4.2
275.0916	1.6
286.1337	3.2
297.1234	1.6
302.1292	4.9
314.1285	15.7
315.1327	4.2
329.1497	2.5
329.1909	4.5
330.1335	5.4
330.1841	3.2
330.3368	2.0
331.1560	100.0
332.1571	29.5
333.1487	5.7
333.1827	5.9
334.1717	7.1
335.1634	4.8
335.1963	3.3
336.1466	1.6
336.1892	3.3
336.2319	2.6
337.1776	3.7
338.1449	2.3
338.1965	2.6
339.1331	2.1
339.1683	2.1
339.1948	1.8
340.1146	1.7
340.1535	3.0
341.1453	5.1
342.1313	4.8
342.1740	2.8
343.1334	2.2
343.1695	4.9
344.1500	5.8
344.1933	2.0
345.1433	4.4
345.1876	5.0
346.1664	5.2
346.3316	2.4
347.1578	5.5
347.1965	3.5
348.1410	1.8
348.1853	4.2
349.1784	5.7
349.2212	2.8
350.1567	1.8

Name: 4-(2-hydroxy-7-methylquinolin-3-yl)-6,7-dimethyl-4,6-dihydro-2H-pyrano(3,2-c)pyridine-2,5(3H)-dione
PrecursorMZ: 373.12071
RT: 0.8465
ExactMass: 350.12665706
Spectrum_type: 2
charge: 1
Formula: C20H18N2O4
SMILES: CC1=CC2=C(C=C1)C=C(C(=O)N2)C3CC(=O)OC4=C3C(=O)N(C(=C4)C)C
Method: HCD
Collision_energy: [28.333334]
Isolation_window: 4.0
Ion_mode: P
Num Peaks: 6
371.1616	7.5
372.1812	9.5
373.1209	100.0
374.1244	14.7
375.0791	87.8
375.1186	7.3

Name: 4-(3-(beta-D-Glucopyranosyloxy)butyl)-3,5,5-trimethyl-2-cyclohexen-1-one
PrecursorMZ: 373.22181
RT: 7.8336
ExactMass: 372.21480336
Spectrum_type: 2
charge: 1
Formula: C19H32O7
SMILES: CC1=CC(=O)CC(C1CCC(C)O[C@H]2[C@@H]([C@H]([C@@H]([C@H](O2)CO)O)O)O)(C)C
Method: HCD
Collision_energy: [28.333334]
Isolation_window: 4.0
Ion_mode: P
Num Peaks: 91
67.0547	10.6
69.0703	10.3
70.0656	18.2
72.0811	8.1
81.0702	28.3
83.0495	9.9
83.0859	9.4
84.0447	15.1
85.0650	9.4
86.0968	16.1
93.0701	13.0
95.0858	28.9
97.0651	10.1
101.0600	11.2
102.0550	9.5
105.0701	13.2
107.0494	11.4
107.0857	21.6
109.1014	15.9
111.0443	8.5
115.0755	8.0
116.0708	43.1
117.0700	8.9
119.0856	17.0
121.0649	12.2
121.1013	15.3
123.0806	11.9
125.0597	8.2
130.0498	10.0
131.0857	15.8
133.1013	17.8
135.0805	9.1
135.1169	18.0
137.0597	10.0
137.0961	7.9
145.1013	15.3
147.1169	13.9
149.0962	9.6
149.1327	9.6
157.1013	7.8
159.1169	15.6
161.0962	8.5
161.1326	11.3
163.1117	9.3
171.1172	14.0
173.1325	13.2
175.1117	15.2
175.1481	7.8
189.1278	8.6
191.1066	19.2
193.1222	10.3
199.1121	11.9
201.1278	8.8
201.1638	8.0
203.1070	10.3
207.1378	9.2
209.1174	8.0
211.1480	9.4
215.1795	9.3
217.1222	19.1
219.1380	7.9
235.1329	12.4
235.1692	8.7
237.1636	18.4
239.1428	8.4
255.1742	11.6
257.1532	10.4
259.1692	9.9
265.1584	13.8
273.1849	22.0
283.1693	36.1
284.1725	8.4
291.1955	10.8
301.1797	57.4
302.1832	8.3
303.1587	12.4
319.1904	71.6
320.1940	19.2
321.1689	24.3
336.1889	7.7
337.2006	100.0
338.2043	18.2
339.1798	13.3
355.2111	17.7
371.2943	53.5
372.1429	7.8
372.2976	31.2
373.2006	9.0
374.1234	17.2
374.1445	7.7
375.2153	13.2

Name: 4-(3-methyl-5-(5,6,7-trihydroxy-1,2,4a,5-tetramethyl-3,4,6,7,8,8a-hexahydro-2H-naphthalen-1-yl)pentoxy)-4-oxobutanoic acid
PrecursorMZ: 425.28982
RT: 2.2191
ExactMass: 442.29305367
Spectrum_type: 2
charge: 1
Formula: C24H42O7
SMILES: CC1CCC2(C(C1(C)CCC(C)CCOC(=O)CCC(=O)O)CC(C(C2(C)O)O)O)C
Method: HCD
Collision_energy: [28.333334]
Isolation_window: 4.0
Ion_mode: P
Num Peaks: 25
69.0703	15.4
81.0702	37.2
93.0701	16.0
95.0858	39.5
97.3992	15.0
99.0808	16.5
101.0599	34.7
107.0857	29.1
109.1015	24.5
111.0442	34.4
113.0600	16.6
121.1014	16.1
129.0547	20.1
133.1010	15.9
149.0962	16.8
159.1170	14.4
168.1384	14.5
371.2579	20.9
389.2681	30.7
407.2791	41.7
424.2775	13.7
424.3207	100.0
425.2894	32.7
425.3241	32.9
426.2960	30.5

Name: 4-(4-(1,3-Benzothiazol-2-yl)-1-piperidinyl)tetrahydro-3-thiophenol 1,1-dioxide
PrecursorMZ: 353.09909
RT: 7.3679
ExactMass: 352.09153485
Spectrum_type: 2
charge: 1
Formula: C16H20N2O3S2
SMILES: C1CN(CCC1C2=NC3=CC=CC=C3S2)C4CS(=O)(=O)CC4O
Method: HCD
Collision_energy: [28.333334]
Isolation_window: 4.0
Ion_mode: P
Num Peaks: 3
353.0989	100.0
353.1342	6.7
354.1016	22.5

Name: 4-(4-(2,3-dihydrobenzo(b)(1,4)dioxin-6-yl)-5-methyl-1H-pyrazol-3-yl)-6-propylbenzene-1,3-diol
PrecursorMZ: 367.15955
RT: 3.1763
ExactMass: 366.15795719
Spectrum_type: 2
charge: 1
Formula: C21H22N2O4
SMILES: CCCC1=CC(=C(C=C1O)O)C2=NNC(=C2C3=CC4=C(C=C3)OCCO4)C
Method: HCD
Collision_energy: [28.333334]
Isolation_window: 4.0
Ion_mode: P
Num Peaks: 5
74.0604	27.1
99.0443	23.6
155.0702	71.5
334.1392	83.5
368.4248	100.0

Name: 4-(4-(8-oxa-3-azabicyclo(3.2.1)octan-3-yl)-1-(1,4-dioxaspiro(4.5)decan-8-yl)-1H-pyrazolo(3,4-d)pyrimidin-6-yl)aniline
PrecursorMZ: 463.24563
RT: 1.6979
ExactMass: 462.23793884
Spectrum_type: 2
charge: 1
Formula: C25H30N6O3
SMILES: C1CC2CN(CC1O2)C3=NC(=NC4=C3C=NN4C5CCC6(CC5)OCCO6)C7=CC=C(C=C7)N
Method: HCD
Collision_energy: [28.333334]
Isolation_window: 4.0
Ion_mode: P
Num Peaks: 5
461.2301	10.2
462.2325	6.9
463.2452	100.0
464.2484	24.9
465.2616	54.8

Name: 4-(4-Methylphenyl)-2-oxo-6-(3,4,5-trimethoxyphenyl)hydropyridine-3-carbonitril e
PrecursorMZ: 377.149
RT: 5.1957
ExactMass: 376.14230712
Spectrum_type: 2
charge: 1
Formula: C22H20N2O4
SMILES: CC1=CC=C(C=C1)C2=C(C(=O)NC(=C2)C3=CC(=C(C(=C3)OC)OC)OC)C#N
Method: HCD
Collision_energy: [28.333334]
Isolation_window: 4.0
Ion_mode: P
Num Peaks: 13
176.8750	13.6
178.8729	5.8
257.1068	27.5
271.1226	6.7
299.1173	45.2
300.1209	11.4
317.1277	96.1
318.1313	17.3
341.1280	7.8
359.1379	6.9
377.1490	48.8
378.1522	12.8
378.2145	100.0

Name: 4-(5-(3,4-Dimethoxyphenyl)-3,4-dimethyloxolan-2-yl)phenol
PrecursorMZ: 311.16399
RT: 2.9406
ExactMass: 328.16745924
Spectrum_type: 2
charge: 1
Formula: C20H24O4
SMILES: CC1C(C(OC1C2=CC=C(C=C2)O)C3=CC(=C(C=C3)OC)OC)C
Method: HCD
Collision_energy: [28.333334]
Isolation_window: 4.0
Ion_mode: P
Num Peaks: 19
120.0809	6.7
131.0858	4.8
137.0597	4.6
147.0441	45.1
161.0597	8.0
213.0912	4.9
237.1276	7.0
241.1223	9.4
251.1435	5.8
253.1222	7.3
255.1377	5.3
265.1222	8.2
265.1588	7.4
275.1430	4.8
293.1535	28.5
294.1568	5.8
311.1640	100.0
312.1678	23.4
312.3626	9.9

Name: 4-(Carbamoylamino)Butanoic Acid
PrecursorMZ: 169.06073
RT: 1.5268
ExactMass: 146.06914219
Spectrum_type: 2
charge: 1
Formula: C5H10N2O3
SMILES: C(CC(=O)O)CNC(=O)N
Method: HCD
Collision_energy: [28.333334]
Isolation_window: 4.0
Ion_mode: P
Num Peaks: 76
67.0546	1.6
68.0501	1.4
69.0702	1.7
70.0657	1.4
74.0239	2.2
79.0548	1.1
80.0497	2.3
81.0701	1.2
82.0657	1.1
84.0446	2.9
85.0650	1.6
89.0598	2.6
93.0700	1.5
94.0653	1.4
95.0491	1.2
95.0605	3.1
95.0856	4.0
96.0444	1.5
96.0809	3.1
97.0649	2.0
97.0761	4.9
97.1012	1.7
107.0855	2.5
108.0446	1.1
109.0647	1.2
110.0601	4.6
110.0964	4.1
111.0553	1.8
114.0372	2.1
114.0549	5.3
121.0840	1.1
122.0600	4.3
123.0110	1.2
123.0440	1.7
123.0552	18.7
123.0802	1.3
123.0916	1.2
124.0756	51.7
124.1119	1.1
125.0597	1.3
125.0708	100.0
125.0785	1.8
125.0959	1.5
126.0549	1.3
126.0741	5.5
127.1116	1.5
138.0911	9.8
139.0751	4.7
140.0704	6.7
140.1067	3.9
142.0319	8.9
142.0496	3.8
142.0861	2.2
150.0547	2.9
151.0500	13.0
151.0864	6.5
151.0957	1.3
152.0340	1.3
152.0703	4.7
167.0563	1.3
167.0701	4.0
167.0806	2.9
167.1540	2.5
168.0649	26.7
168.0680	4.2
168.1016	5.2
169.0605	67.6
169.0679	2.6
169.0750	3.0
169.0966	5.2
169.1008	1.6
170.0267	1.7
170.0445	1.3
170.0644	4.4
170.0808	24.1
170.1172	9.2

Name: 4-(Diethylamino)-2-hydroxybenzaldehyde
PrecursorMZ: 194.11756
RT: 3.0654
ExactMass: 193.110278721
Spectrum_type: 2
charge: 1
Formula: C11H15NO2
SMILES: CCN(CC)C1=CC(=C(C=C1)C=O)O
Method: HCD
Collision_energy: [28.333334]
Isolation_window: 4.0
Ion_mode: P
Num Peaks: 38
89.0601	0.8
102.0917	1.2
107.0729	0.9
108.0811	1.4
116.9721	1.7
118.9674	0.8
131.9954	1.0
134.0966	1.2
135.0443	1.7
142.0351	6.3
143.0363	0.9
144.0322	1.0
157.9749	1.7
158.9724	0.8
160.0460	0.9
175.9853	4.5
176.1071	0.7
176.9835	0.9
177.9805	2.0
193.1338	15.4
194.1178	100.0
194.1334	2.7
194.1657	1.0
195.1212	11.4
196.1347	2.7
202.1802	4.0
206.1152	1.9
207.1126	1.2
208.1329	2.5
209.1279	1.5
210.0795	9.9
210.1101	1.4
210.1328	0.7
210.1606	4.6
211.0831	0.7
211.1446	2.6
214.1553	1.1
215.1183	0.7

Name: 4-(Diethylamino)benzaldehyde
PrecursorMZ: 178.12243
RT: 7.0036
ExactMass: 177.115364102
Spectrum_type: 2
charge: 1
Formula: C11H15NO
SMILES: CCN(CC)C1=CC=C(C=C1)C=O
Method: HCD
Collision_energy: [28.333334]
Isolation_window: 4.0
Ion_mode: P
Num Peaks: 35
60.0811	6.0
70.0654	4.0
70.1307	1.0
78.9847	1.0
88.0757	1.5
96.9951	7.1
112.0869	2.1
120.0806	8.8
121.0884	13.8
122.0917	1.1
135.1039	10.3
136.1072	0.9
176.0974	1.0
176.1068	1.0
176.8749	5.9
177.0656	0.9
177.1018	1.7
177.1382	10.8
178.0493	1.9
178.0865	1.3
178.0970	1.5
178.1066	3.9
178.1222	100.0
178.1329	3.1
178.1421	0.9
178.8729	1.4
179.0563	1.7
179.0922	1.9
179.1175	2.4
179.1252	10.9
179.1539	1.8
180.0650	4.1
180.0810	1.7
180.1045	64.0
180.1377	5.0

Name: 4-(Dimethylamino)Benzaldehyde
PrecursorMZ: 150.09126
RT: 7.7573
ExactMass: 149.084063974
Spectrum_type: 2
charge: 1
Formula: C9H11NO
SMILES: CN(C)C1=CC=C(C=C1)C=O
Method: HCD
Collision_energy: [28.333334]
Isolation_window: 4.0
Ion_mode: P
Num Peaks: 6
134.0631	7.0
149.0231	7.4
150.0660	4.7
150.0911	100.0
151.0943	11.9
152.0702	6.1

Name: 4-(Dimethylamino)pyridine
PrecursorMZ: 123.09183
RT: 9.7036
ExactMass: 122.084398327
Spectrum_type: 2
charge: 1
Formula: C7H10N2
SMILES: CN(C)C1=CC=NC=C1
Method: HCD
Collision_energy: [28.333334]
Isolation_window: 4.0
Ion_mode: P
Num Peaks: 27
56.0500	4.6
57.0340	1.2
80.0498	1.2
82.0141	0.9
82.0655	1.7
100.0246	8.8
101.0254	1.1
102.0221	1.0
104.0708	7.0
107.0732	8.2
108.0683	1.6
118.0351	4.0
119.0191	1.1
119.0358	0.8
122.0602	2.0
122.0716	1.3
122.0814	5.9
122.0966	70.6
123.0555	1.8
123.0918	100.0
123.0998	6.3
124.0758	5.6
124.0871	1.3
124.0951	7.0
125.0597	0.9
125.0712	1.7
125.1074	13.6

Name: 4-(Formylamino)antipyrine
PrecursorMZ: 232.10796
RT: 7.3012
ExactMass: 231.100776666
Spectrum_type: 2
charge: 1
Formula: C12H13N3O2
SMILES: CC1=C(C(=O)N(N1C)C2=CC=CC=C2)NC=O
Method: HCD
Collision_energy: [28.333334]
Isolation_window: 4.0
Ion_mode: P
Num Peaks: 13
74.0603	3.5
114.0916	4.1
146.0712	6.6
150.0550	3.9
214.0975	57.5
215.1012	5.4
230.0813	20.7
231.0853	8.8
232.0971	7.0
232.1079	100.0
233.0917	4.7
233.1118	11.0
234.0762	19.8

Name: 4-(Trimethylammonio)pentanoate
PrecursorMZ: 160.13313
RT: 9.8341
ExactMass: 159.125928785
Spectrum_type: 2
charge: 1
Formula: C8H17NO2
SMILES: CC(CCC(=O)[O-])[N+](C)(C)C
Method: HCD
Collision_energy: [28.333334]
Isolation_window: 4.0
Ion_mode: P
Num Peaks: 30
55.0546	3.2
59.0495	1.0
60.0811	25.8
61.0845	0.8
70.0654	27.9
71.0688	1.4
83.0494	3.4
84.0446	0.7
86.0602	1.0
100.0756	0.6
101.0597	37.8
102.0551	0.6
102.0631	1.8
113.0709	21.9
114.0549	5.3
114.0743	1.0
114.0913	0.6
115.0865	1.7
116.0705	1.2
158.1175	1.6
158.1536	0.5
159.0762	6.0
159.1211	0.6
160.0966	1.8
160.1187	0.5
160.1330	100.0
160.1465	0.6
161.1363	8.6
162.0871	1.5
162.1122	1.7

Name: 4-))2-)(E)-1-hydroxybut-2-enyl(-5-oxooxolan-3-yl(amino(benzoic acid
PrecursorMZ: 309.14417
RT: 1.8755
ExactMass: 291.11067264
Spectrum_type: 2
charge: 1
Formula: C15H17NO5
SMILES: C/C=C/C(C1C(CC(=O)O1)NC2=CC=C(C=C2)C(=O)O)O
Method: HCD
Collision_energy: [28.333334]
Isolation_window: 4.0
Ion_mode: P
Num Peaks: 278
59.0610	9.5
67.0548	6.4
69.0339	6.9
69.0704	9.2
70.0656	42.6
71.0496	7.4
72.0812	11.1
74.0605	6.9
81.0339	24.8
81.0703	13.8
82.0657	6.6
83.0496	10.0
83.0860	6.2
84.0448	5.6
84.0812	18.1
85.0289	13.5
85.0653	5.3
86.0604	14.5
86.0968	13.3
87.0444	10.5
88.0395	5.1
91.0545	5.0
93.0701	11.6
94.0653	5.3
95.0494	7.3
95.0859	12.0
96.0447	8.0
96.0811	8.7
97.0288	7.6
97.0652	7.1
98.0603	51.0
99.0443	8.1
100.0760	33.9
101.0600	16.9
103.0393	5.2
105.0704	7.9
107.0495	5.7
107.0859	8.4
108.0446	12.0
109.0651	5.6
109.1014	5.7
110.0603	7.2
110.0715	9.2
111.0443	15.8
111.0805	4.4
112.0761	13.2
114.0554	6.1
114.0665	36.6
116.0709	20.3
118.0864	7.0
119.0857	8.6
120.0808	6.2
121.0647	5.5
121.1012	6.8
122.0603	9.8
123.0443	24.2
123.0805	7.0
124.0395	18.0
124.0759	16.3
125.0596	4.8
125.0960	4.4
126.0551	42.1
126.0914	10.2
127.0392	8.3
128.0709	13.8
130.0503	6.4
130.0652	7.5
130.0863	7.9
131.0857	8.7
133.1013	8.5
134.0601	6.5
135.0802	8.7
135.1168	4.7
136.0759	17.7
137.0459	15.9
137.0604	7.5
137.0960	6.4
138.0553	9.8
138.0915	9.6
139.0753	4.6
140.0341	12.5
140.0709	13.2
140.1068	6.3
141.0648	8.8
142.0863	18.5
144.0658	8.0
144.0810	8.6
144.1018	6.5
145.1011	8.2
146.0602	36.1
147.0789	4.5
147.1170	5.8
148.0757	14.7
149.0593	4.9
149.0961	6.0
150.0551	10.0
150.0914	11.6
151.0750	4.6
152.0705	11.8
152.1071	12.3
154.0518	4.8
154.0866	15.3
154.1226	5.2
156.0769	5.1
156.1020	6.2
157.1007	6.1
158.0598	5.0
158.0809	5.3
159.1171	8.3
160.0758	57.2
161.0788	5.4
162.0546	4.8
162.0909	9.8
164.0707	17.9
164.1067	6.5
166.0720	83.3
166.0861	25.5
168.0659	6.7
168.1018	17.1
170.0809	5.0
170.1170	5.6
171.1155	5.8
173.0939	6.6
173.1287	12.6
175.1107	4.6
176.0697	5.9
177.1027	20.5
178.0862	19.6
180.0653	6.4
180.1018	28.1
181.0964	6.0
182.0796	8.6
182.1172	6.3
183.0782	5.0
183.1149	4.5
184.0967	8.4
186.0884	4.5
187.1112	4.9
187.1449	5.4
188.0707	71.3
189.0728	6.2
189.1259	4.9
190.0862	7.4
191.0685	5.8
192.0640	5.6
192.1021	7.3
194.0807	9.6
194.1176	4.4
195.1136	12.5
196.0721	6.8
196.0964	14.0
197.0925	5.3
197.1308	4.6
198.1122	5.8
199.1091	5.5
200.0908	4.4
201.0899	4.6
201.1239	8.2
204.1026	7.1
206.0805	5.8
208.0967	8.0
210.1096	4.7
211.0757	8.4
213.1249	7.9
214.1067	14.9
215.1421	5.5
218.0827	5.9
218.1180	5.8
220.0289	27.2
220.0969	4.7
222.1110	5.2
223.1082	5.1
224.1288	8.7
227.0712	5.8
228.1034	6.0
229.0860	29.9
230.0819	5.6
232.0972	8.9
234.1125	4.9
236.0912	11.2
244.0976	6.4
245.1288	13.8
246.1126	7.6
247.1433	6.1
248.0908	4.8
248.1265	5.2
250.1074	9.1
253.1182	6.6
258.1116	8.7
260.0910	6.3
260.1276	7.1
261.1574	8.7
262.1069	6.5
263.1044	4.7
263.1382	9.6
264.1236	5.9
267.1341	7.0
271.1698	5.2
272.0904	13.8
272.1314	4.7
273.1849	5.3
274.1073	8.0
274.1432	14.1
275.1411	5.6
276.1233	7.4
277.1494	6.2
278.1028	8.8
278.1401	5.0
280.1197	5.3
288.1225	6.7
289.1506	4.4
290.1015	8.0
290.1277	5.3
291.1323	9.0
291.1922	4.8
292.1191	6.2
293.1486	14.6
294.1349	7.7
295.1292	5.3
295.1650	41.3
296.0914	5.7
300.1190	8.2
301.1193	5.9
302.1369	5.3
303.1354	6.3
304.1126	4.9
304.1442	11.2
305.0898	12.8
305.1451	6.7
306.1321	6.3
307.1303	17.1
307.1641	42.1
308.1126	85.2
308.1490	17.2
309.0818	7.2
309.1146	12.0
309.1458	83.6
309.1806	6.1
310.1166	100.0
310.1641	25.0
311.1223	27.0
311.1605	29.2
312.1110	6.7
312.1461	29.8
313.1170	17.8
313.1432	16.1
313.1764	22.8
314.0990	4.6
314.1325	33.9
314.1669	8.1
315.0921	7.0
315.1304	6.7
315.1588	15.0
316.1113	16.6
316.1510	9.7
317.1106	20.4
317.1449	6.5
318.0977	9.4
318.1326	65.6
319.1266	23.6
320.1087	23.2
320.1458	12.8
321.1445	43.1
322.1285	30.9
323.0999	97.7
323.1587	20.4
324.1041	27.5
324.1436	82.4
325.1038	6.2
325.1420	30.8
325.1755	16.9
326.1239	17.5
326.1593	52.9
327.1252	7.6
327.1581	19.6
328.0532	18.4
328.1410	17.5
328.1800	8.0

Name: 4-)2-)(5-Phenyl-)1,2,4(triazolo)1,5-a(pyrimidin-7-yl)sulfanyl(ethyl(morpholine
PrecursorMZ: 342.13905
RT: 3.5133
ExactMass: 341.13103142
Spectrum_type: 2
charge: 1
Formula: C17H19N5OS
SMILES: C1COCCN1CCSC2=CC(=NC3=NC=NN23)C4=CC=CC=C4
Method: HCD
Collision_energy: [28.333334]
Isolation_window: 4.0
Ion_mode: P
Num Peaks: 179
57.0340	0.8
69.0340	2.4
70.0656	5.9
71.0495	0.9
72.0811	1.1
74.0604	0.7
81.0339	3.2
82.0654	0.7
83.0495	1.2
84.0448	2.2
84.0812	5.6
85.0287	3.9
86.0604	1.2
86.0968	1.3
87.0444	1.7
88.0395	0.8
95.0494	1.1
96.0446	1.0
97.0287	5.1
98.0602	1.6
99.0444	2.6
100.0759	2.1
101.0599	0.8
102.0552	1.9
107.0494	2.2
108.0811	0.9
109.0287	1.6
110.0603	1.2
111.0442	3.6
112.0760	0.9
114.0553	1.3
114.0666	1.4
115.0393	0.9
116.0708	8.5
117.0548	1.9
122.0603	1.1
123.0443	1.6
124.0757	0.9
125.0236	1.1
126.0551	1.8
127.0391	5.2
127.0867	0.9
128.0707	3.1
129.0547	1.0
130.0500	2.3
130.0864	5.0
132.0657	1.1
133.0500	1.3
136.0759	1.2
137.0596	0.7
138.0550	2.7
139.0393	1.7
140.0705	1.3
142.0498	1.2
142.0864	0.9
144.0654	1.6
145.0497	2.4
146.0812	1.2
147.0444	0.9
148.0603	1.2
149.0597	0.8
150.0550	0.9
151.0392	1.4
152.0707	2.4
153.0550	2.6
154.0497	0.7
154.0862	0.8
156.0653	1.4
157.0494	0.7
158.0811	0.8
162.0547	0.7
163.0390	1.3
163.0603	0.7
164.0701	1.1
165.0546	1.7
166.0857	0.9
167.0816	0.9
168.0654	3.1
170.0812	7.3
172.0966	0.7
173.0923	2.4
177.0540	1.3
179.0824	0.8
180.0652	0.8
181.0972	0.9
182.0810	7.6
183.0878	0.7
184.0966	1.8
185.0915	0.7
186.0762	1.3
192.0646	1.1
193.0496	0.9
194.0805	1.2
195.0635	1.5
196.0591	1.0
197.0921	1.7
197.9879	1.0
202.1076	0.9
206.0812	0.7
207.0807	1.2
208.0968	0.7
212.0907	0.8
221.0959	4.3
222.0759	0.8
223.0599	0.8
225.0917	2.6
231.0990	0.9
232.1180	1.0
237.0969	2.0
239.1048	1.1
241.9781	1.4
242.9766	1.2
243.9732	1.1
249.0911	9.6
250.0929	1.6
252.0868	0.7
255.1077	1.2
260.1135	1.1
260.9867	1.8
265.0849	1.1
267.1014	38.2
268.1047	6.8
269.1097	1.0
271.0794	1.1
275.9830	0.8
277.0856	3.6
283.0976	1.2
285.1117	3.6
289.0913	2.4
295.0963	100.0
296.0993	19.3
297.0745	1.0
297.1040	2.5
303.9777	1.6
304.9771	1.8
305.9739	1.1
307.1014	0.8
308.1149	0.7
311.1240	2.9
313.1068	32.0
314.1097	7.4
315.1145	0.9
321.9887	5.7
322.9880	1.9
323.1238	0.7
323.9847	2.8
325.1074	1.0
326.1250	1.5
327.1217	1.0
331.1177	2.4
340.1460	1.4
341.1385	3.9
342.1187	1.7
342.1609	0.8
343.1134	0.7
343.1524	3.7
344.1423	3.0
345.1338	4.0
345.1708	1.2
346.1633	2.7
347.1547	5.2
348.1438	8.0
349.1598	2.3
350.1264	1.2
351.1155	1.2
351.1746	1.1
352.1466	1.1
353.1353	1.9
354.1215	1.3
354.1695	0.9
355.1511	6.7
356.1415	2.2
357.0895	0.8
357.1247	0.9
357.1731	1.5
358.1626	1.9
359.1482	1.5
360.1277	1.5
360.1686	0.8

Name: 4-Acetamidobutyric acid
PrecursorMZ: 146.08096
RT: 6.0067
ExactMass: 145.07389321
Spectrum_type: 2
charge: 1
Formula: C6H11NO3
SMILES: CC(=O)NCCCC(=O)O
Method: HCD
Collision_energy: [28.333334]
Isolation_window: 4.0
Ion_mode: P
Num Peaks: 8
60.0811	15.3
84.0810	86.0
87.0442	28.1
101.0598	15.7
128.0704	12.7
146.0598	14.2
146.0809	100.0
146.1172	28.8

Name: 4-Acetyl-3-hydroxy-5-methylphenyl beta-D-glucopyranoside
PrecursorMZ: 351.10503
RT: 6.1129
ExactMass: 328.11581759
Spectrum_type: 2
charge: 1
Formula: C15H20O8
SMILES: CC1=CC(=CC(=C1C(=O)C)O)O[C@H]2[C@@H]([C@H]([C@@H]([C@H](O2)CO)O)O)O
Method: HCD
Collision_energy: [28.333334]
Isolation_window: 4.0
Ion_mode: P
Num Peaks: 13
114.0665	3.8
114.0915	2.9
136.0757	3.1
331.1286	3.0
349.1367	3.0
350.1212	4.4
351.1048	100.0
351.1543	4.1
352.1076	12.9
352.1365	3.1
353.1014	4.7
353.1322	4.5
353.1686	2.7

Name: 4-Amino-2-hydroxy-5-))1-hydroxy-1-(2-oxo-1-bicyclo)4.1.0(hept-3-enyl)propan-2-yl(amino(-5-oxopentanoic acid
PrecursorMZ: 327.15501
RT: 2.8421
ExactMass: 326.14778643
Spectrum_type: 2
charge: 1
Formula: C15H22N2O6
SMILES: CC(C(C12CC1CC=CC2=O)O)NC(=O)C(CC(C(=O)O)O)N
Method: HCD
Collision_energy: [28.333334]
Isolation_window: 4.0
Ion_mode: P
Num Peaks: 51
70.0657	15.8
81.0340	100.0
83.0498	8.2
84.0812	17.3
89.0602	10.1
96.0447	18.5
98.9846	9.7
104.0710	5.8
111.0444	33.0
116.0709	7.0
121.0284	9.7
122.0815	39.4
130.0866	7.0
132.0447	18.8
166.0863	5.4
178.0863	6.4
182.0817	9.2
210.0796	26.7
216.0860	7.2
240.2321	10.0
297.1240	7.1
325.1408	13.8
325.1741	26.5
326.1249	23.4
326.1726	20.7
327.1558	70.4
327.1997	5.6
328.1391	20.1
329.1722	9.8
330.1561	11.5
330.3362	10.9
331.1298	6.3
332.1105	7.5
332.1720	5.8
334.1282	18.0
335.1272	9.4
336.1473	16.3
337.1410	15.5
338.1281	22.8
338.1642	5.9
339.1566	36.2
340.1423	26.5
341.1346	8.7
341.1806	7.8
342.1540	35.1
343.1533	19.5
344.1276	9.2
344.1776	14.6
345.1404	6.9
346.1326	10.2
346.3319	5.7

Name: 4-Amino-5-(5-hydroxy-2',6-dimethyl-5'-prop-1-en-2-ylspiro(7-oxabicyclo(4.1.0)heptane-3,1'-cyclopentane)-2-yl)oxy-5-oxopentanoic acid
PrecursorMZ: 382.22195
RT: 1.3141
ExactMass: 381.21513771
Spectrum_type: 2
charge: 1
Formula: C20H31NO6
SMILES: CC1CCC(C12CC(C3(C(C2OC(=O)C(CCC(=O)O)N)O3)C)O)C(=C)C
Method: HCD
Collision_energy: [28.333334]
Isolation_window: 4.0
Ion_mode: P
Num Peaks: 18
79.0545	4.9
81.0701	6.0
91.0543	4.9
105.0700	12.1
107.0857	10.1
119.0855	16.4
121.1012	16.1
130.0860	8.7
147.1167	100.0
148.1201	11.7
165.1273	40.9
175.1116	9.5
193.1220	74.6
194.1254	6.2
304.1898	4.5
322.2007	71.8
323.2040	11.1
383.2170	8.4

Name: 4-Amino-N-((1-ethyl-1-oxido-2-pyrrolidinyl)methyl)-5-(ethylsulfonyl)-2-methoxybenzamide
PrecursorMZ: 386.17375
RT: 5.8185
ExactMass: 385.16714214
Spectrum_type: 2
charge: 1
Formula: C17H27N3O5S
SMILES: CC[N+]1(CCCC1CNC(=O)C2=CC(=C(C=C2OC)N)S(=O)(=O)CC)[O-]
Method: HCD
Collision_energy: [28.333334]
Isolation_window: 4.0
Ion_mode: P
Num Peaks: 4
112.0757	9.0
368.1632	12.9
386.1737	100.0
387.1769	19.0

Name: 4-Aminoantipyrine
PrecursorMZ: 250.17996
RT: 7.6768
ExactMass: 203.105862047
Spectrum_type: 2
charge: 1
Formula: C11H13N3O
SMILES: CC1=C(C(=O)N(N1C)C2=CC=CC=C2)N
Method: HCD
Collision_energy: [28.333334]
Isolation_window: 4.0
Ion_mode: P
Num Peaks: 15
72.0813	1.2
86.0968	30.1
87.1001	1.8
97.3987	1.3
100.1123	63.2
101.1157	3.2
101.1201	4.7
119.0493	1.6
147.0805	1.6
149.0598	81.3
150.0632	6.2
248.2015	1.3
250.1801	100.0
250.2161	1.2
251.1836	16.3

Name: 4-Aminobenzamide
PrecursorMZ: 137.0709
RT: 2.7219
ExactMass: 136.063662883
Spectrum_type: 2
charge: 1
Formula: C7H8N2O
SMILES: C1=CC(=CC=C1C(=O)N)N
Method: HCD
Collision_energy: [28.333334]
Isolation_window: 4.0
Ion_mode: P
Num Peaks: 8
92.0496	10.7
120.0443	100.0
121.0477	8.5
137.0707	72.7
138.0547	1.8
138.0740	5.4
138.0911	8.1
139.0863	1.6

Name: 4-Aminobenzoate
PrecursorMZ: 138.05533
RT: 10.4756
ExactMass: 136.039853434
Spectrum_type: 2
charge: 1
Formula: C7H6NO2-
SMILES: C1=CC(=CC=C1C(=O)[O-])N
Method: HCD
Collision_energy: [28.333334]
Isolation_window: 4.0
Ion_mode: P
Num Peaks: 49
58.0656	20.2
69.0339	5.1
72.0811	23.7
78.9849	4.7
84.0809	4.7
86.0603	3.4
86.0967	3.6
89.0596	3.8
95.0606	4.9
96.0116	4.8
96.9954	60.3
98.0965	8.2
100.1123	3.5
104.0709	5.0
110.0269	3.5
110.0602	3.6
110.0714	11.7
111.0556	3.4
112.1120	3.9
115.9643	5.9
120.0111	4.6
120.0476	62.5
121.0397	4.2
121.9662	10.6
122.0444	4.1
123.9644	5.6
134.0632	100.0
135.0638	4.7
136.0611	7.6
137.0458	73.4
138.0559	22.6
138.0911	5.7
139.0501	8.2
139.0865	9.0
139.1228	3.4
140.0706	8.6
140.1433	21.2
141.0655	3.6
142.1590	8.2
144.1020	13.9
147.0556	3.8
148.0968	10.9
149.0237	5.1
152.0733	35.6
154.0863	9.5
156.0770	3.4
157.1699	42.2
158.1540	26.7
158.1735	4.2

Name: 4-Aminophenol
PrecursorMZ: 110.06022
RT: 2.7225
ExactMass: 109.052763847
Spectrum_type: 2
charge: 1
Formula: C6H7NO
SMILES: C1=CC(=CC=C1N)O
Method: HCD
Collision_energy: [28.333334]
Isolation_window: 4.0
Ion_mode: P
Num Peaks: 15
65.0390	0.3
67.0421	1.2
80.0499	0.6
82.0655	3.3
110.0445	0.7
110.0478	0.6
110.0603	100.0
110.0729	0.5
110.0761	0.7
110.0803	0.3
110.0966	0.3
111.0579	0.3
111.0636	7.1
112.0396	0.9
112.0657	0.3

Name: 4-Aminophenylalanine
PrecursorMZ: 181.0969
RT: 2.557
ExactMass: 180.08987763
Spectrum_type: 2
charge: 1
Formula: C9H12N2O2
SMILES: C1=CC(=CC=C1C[C@@H](C(=O)O)N)N
Method: HCD
Collision_energy: [28.333334]
Isolation_window: 4.0
Ion_mode: P
Num Peaks: 21
91.0542	13.0
95.0603	3.2
109.0760	0.7
112.0867	1.6
135.0914	2.4
136.0753	73.4
137.0786	3.6
140.0704	1.8
164.0559	0.8
164.0702	100.0
164.1175	0.7
165.0736	5.4
180.0803	8.3
180.1023	0.9
181.0842	1.4
181.0966	21.5
182.0807	1.7
182.1000	2.4
182.1171	2.4
182.1283	2.0
183.0801	3.0

Name: 4-Aminosalicylic Acid
PrecursorMZ: 154.04966
RT: 5.8736
ExactMass: 153.042593085
Spectrum_type: 2
charge: 1
Formula: C7H7NO3
SMILES: C1=CC(=C(C=C1N)O)C(=O)O
Method: HCD
Collision_energy: [28.333334]
Isolation_window: 4.0
Ion_mode: P
Num Peaks: 18
67.0545	0.6
95.0602	0.7
108.0442	1.7
110.0599	1.0
126.0546	1.7
134.0628	0.4
136.0390	0.4
153.0654	0.5
154.0364	0.7
154.0390	0.5
154.0494	100.0
154.0599	0.6
154.0624	0.7
154.0855	0.8
154.0967	0.5
155.0466	0.5
155.0527	7.3
156.0416	0.8

Name: 4-Butyloxyaniline
PrecursorMZ: 166.12239
RT: 11.9414
ExactMass: 165.115364102
Spectrum_type: 2
charge: 1
Formula: C10H15NO
SMILES: CCCCOC1=CC=C(C=C1)N
Method: HCD
Collision_energy: [28.333334]
Isolation_window: 4.0
Ion_mode: P
Num Peaks: 48
60.0447	1.0
67.0545	1.3
69.0701	1.4
69.9006	0.6
70.0654	1.5
72.0811	1.4
74.0238	1.9
74.0603	1.6
80.0496	4.1
95.0603	0.9
96.9951	3.6
97.4575	0.7
98.0600	1.9
107.0728	2.0
108.0807	1.5
120.0806	5.5
121.0839	0.7
121.0883	5.5
123.0108	2.1
123.0438	0.7
123.0915	1.4
124.0756	2.1
130.0859	0.9
137.1073	0.9
140.0702	1.9
148.0786	6.0
148.0965	2.7
149.1073	1.5
164.1066	3.6
165.0209	1.0
165.1019	37.1
165.1100	2.8
166.0719	0.9
166.0892	10.5
166.0970	1.6
166.1048	3.4
166.1074	10.4
166.1223	100.0
166.1337	0.8
166.1367	0.7
167.0812	2.0
167.0890	0.7
167.1175	19.4
167.1256	11.3
167.1538	6.1
168.0688	12.1
168.1015	17.0
168.1128	2.7

Name: 4-Carbamoyl-2-acetamidobutanoic acid
PrecursorMZ: 189.08664
RT: 5.6304
ExactMass: 188.07970687
Spectrum_type: 2
charge: 1
Formula: C7H12N2O4
SMILES: CC(=O)NC(CCC(=O)N)C(=O)O
Method: HCD
Collision_energy: [28.333334]
Isolation_window: 4.0
Ion_mode: P
Num Peaks: 53
56.0498	2.7
60.0447	7.6
67.0545	2.3
69.0337	1.4
69.2440	2.3
72.0809	1.3
74.0237	1.3
82.0652	2.8
83.0492	6.1
83.0604	1.9
84.0444	22.3
84.0808	2.0
85.0649	2.3
86.0601	4.3
88.0393	2.9
97.4555	1.2
98.0599	3.0
100.0392	2.3
100.0756	14.0
101.0596	9.4
101.0708	1.8
102.0548	1.6
102.0913	2.3
104.0705	1.2
111.0439	1.4
112.0755	3.2
116.0703	4.7
128.0702	1.3
129.0543	2.5
129.0655	3.3
130.0495	100.0
131.0528	5.4
132.0440	1.3
142.0858	20.6
143.0810	2.2
143.0895	1.6
144.0650	1.3
144.1015	8.6
146.0807	38.9
147.0759	5.6
147.0840	2.7
154.0858	10.0
160.0388	2.8
162.0910	1.3
165.0208	2.5
170.0805	1.6
172.0598	4.9
172.0963	9.7
188.0335	10.5
188.0911	6.0
189.0367	1.3
190.0494	2.0
190.1066	2.3

Name: 4-Carboxy-N,N,N-trimethylbutan-1-aminium
PrecursorMZ: 160.13322
RT: 4.6872
ExactMass: 160.133753817
Spectrum_type: 2
charge: 1
Formula: C8H18NO2+
SMILES: C[N+](C)(C)CCCCC(=O)O
Method: HCD
Collision_energy: [28.333334]
Isolation_window: 4.0
Ion_mode: P
Num Peaks: 8
55.0547	3.2
60.0813	20.3
83.0495	3.4
101.0600	31.6
102.0632	1.7
160.1334	100.0
161.1368	8.7
173.1647	2.9

Name: 4-Epivulgarin
PrecursorMZ: 265.14055
RT: 6.9167
ExactMass: 264.13615911
Spectrum_type: 2
charge: 1
Formula: C15H20O4
SMILES: C[C@H]1[C@@H]2CC[C@@]3([C@@H]([C@H]2OC1=O)[C@@](C=CC3=O)(C)O)C
Method: HCD
Collision_energy: [28.333334]
Isolation_window: 4.0
Ion_mode: P
Num Peaks: 81
58.0657	0.2
70.0656	0.5
80.0499	2.3
81.0533	0.2
82.0654	0.1
86.0605	0.2
89.0602	0.2
93.0576	0.3
98.0965	0.2
100.0759	0.2
110.0716	0.5
112.0873	0.2
120.0808	0.4
122.0717	0.3
126.0552	0.3
128.0708	0.2
131.0494	0.4
135.0442	0.4
146.0807	0.2
149.0238	0.2
149.0597	1.0
157.0890	0.4
164.0704	0.2
177.0548	0.8
185.0837	0.7
186.0903	0.2
194.0826	0.2
195.0648	0.4
201.0912	0.2
206.0926	0.9
213.1009	0.2
214.0866	6.2
214.1097	0.8
215.0610	0.2
215.0941	21.4
216.0974	2.8
217.0993	0.3
226.1075	0.3
234.1497	0.2
244.0781	0.2
244.0969	9.4
245.1005	1.3
260.1288	0.3
264.1219	0.2
265.1415	0.4
266.1400	0.3
267.1331	0.5
268.1168	0.7
269.1495	0.7
270.1343	0.3
271.1055	0.7
271.1320	0.3
271.1652	0.5
272.0917	2.9
272.1203	0.5
272.1515	0.2
273.0985	2.6
273.1242	3.2
273.1551	0.2
273.9565	0.2
274.0275	0.2
274.0452	0.7
274.0594	0.6
274.1074	100.0
274.1574	0.6
274.1688	0.8
274.1883	0.2
274.2418	0.1
274.2751	0.2
275.1106	16.7
276.1134	2.1
277.1189	0.3
278.1385	2.5
279.1398	0.5
280.1543	1.8
281.1539	0.5
282.1321	0.4
283.1654	0.3
284.1500	0.3
285.1185	0.2
285.1456	0.4

Name: 4-Ethoxyaniline
PrecursorMZ: 138.09141
RT: 6.8912
ExactMass: 137.084063974
Spectrum_type: 2
charge: 1
Formula: C8H11NO
SMILES: CCOC1=CC=C(C=C1)N
Method: HCD
Collision_energy: [28.333334]
Isolation_window: 4.0
Ion_mode: P
Num Peaks: 7
110.0603	16.2
121.0398	11.3
137.0458	11.4
138.0550	12.7
138.0914	100.0
139.0503	16.8
139.0948	9.0

Name: 4-Hexylaniline
PrecursorMZ: 178.15898
RT: 1.0852
ExactMass: 177.15174961
Spectrum_type: 2
charge: 1
Formula: C12H19N
SMILES: CCCCCCC1=CC=C(C=C1)N
Method: HCD
Collision_energy: [28.333334]
Isolation_window: 4.0
Ion_mode: P
Num Peaks: 4
176.8751	32.1
178.1588	100.0
178.8732	8.7
179.1623	11.3

Name: 4-Hydroxy-6-(2-(2-methyl-1,2,4a,5,6,7,8,8a-octahydronaphthalen-1-yl)ethyl)oxan-2-one
PrecursorMZ: 275.20049
RT: 5.3026
ExactMass: 292.20384475
Spectrum_type: 2
charge: 1
Formula: C18H28O3
SMILES: CC1C=CC2CCCCC2C1CCC3CC(CC(=O)O3)O
Method: HCD
Collision_energy: [28.333334]
Isolation_window: 4.0
Ion_mode: P
Num Peaks: 50
67.0547	8.9
69.0703	6.3
79.0545	8.9
81.0702	11.5
83.0858	4.6
91.0545	11.2
93.0701	11.3
95.0857	13.3
105.0700	15.9
107.0857	12.4
109.1014	9.6
114.0914	6.2
117.0701	4.6
119.0857	13.8
121.1013	12.6
123.0803	4.7
131.0855	9.0
133.1011	24.5
135.0803	4.8
135.1168	8.6
145.1012	12.6
147.1169	16.2
149.0959	5.5
159.1168	9.4
161.0962	5.1
161.1326	6.6
163.1117	7.1
171.1167	5.3
173.1324	6.2
176.8755	5.3
177.1273	6.0
183.1169	4.6
185.1324	4.6
234.1852	14.8
239.1793	4.3
257.1900	9.7
273.1847	6.7
274.1065	14.9
274.1887	10.0
275.1034	5.7
275.1395	5.8
275.2004	100.0
276.0854	6.3
276.1215	9.7
276.2055	14.5
277.1045	5.1
277.1183	9.0
277.1551	10.5
277.1797	6.3
277.2161	15.6

Name: 4-Hydroxybenzotriazole
PrecursorMZ: 136.05052
RT: 4.6199
ExactMass: 135.043261791
Spectrum_type: 2
charge: 1
Formula: C6H5N3O
SMILES: C1=CC2=NNN=C2C(=C1)O
Method: HCD
Collision_energy: [28.333334]
Isolation_window: 4.0
Ion_mode: P
Num Peaks: 8
91.0418	8.5
91.0543	9.2
136.0213	44.4
136.0503	100.0
136.0754	10.1
136.1118	11.2
137.0456	6.6
137.0537	6.9

Name: 4-Hydroxycinnamaldehyde
PrecursorMZ: 149.05973
RT: 6.7537
ExactMass: 148.052429494
Spectrum_type: 2
charge: 1
Formula: C9H8O2
SMILES: C1=CC(=CC=C1/C=C/C=O)O
Method: HCD
Collision_energy: [28.333334]
Isolation_window: 4.0
Ion_mode: P
Num Peaks: 16
70.0654	9.7
79.0545	8.9
88.0758	11.5
91.0543	9.6
93.0700	10.2
103.0543	33.5
107.0492	12.3
119.0490	8.9
121.0648	7.2
132.1018	24.5
147.0441	8.0
149.0231	10.3
149.0595	100.0
150.0546	8.4
150.0626	7.7
150.1123	34.5

Name: 4-Hydroxyisoleucine
PrecursorMZ: 148.09658
RT: 8.5688
ExactMass: 147.08954328
Spectrum_type: 2
charge: 1
Formula: C6H13NO3
SMILES: C[C@H]([C@@H](C(=O)O)N)C(C)O
Method: HCD
Collision_energy: [28.333334]
Isolation_window: 4.0
Ion_mode: P
Num Peaks: 47
56.0497	2.2
57.0339	9.3
58.0655	2.9
61.0110	11.1
62.0604	9.6
62.9902	3.9
65.0059	27.8
69.5259	3.3
70.0654	10.4
71.0494	58.1
72.0446	2.7
72.0527	3.2
80.0496	5.4
82.0653	5.7
84.0445	100.0
84.0809	43.9
85.0285	5.1
85.0478	4.9
86.0602	4.5
87.0442	27.9
87.0554	2.8
88.0394	63.6
88.0758	16.5
89.0427	2.2
90.0550	5.2
100.0757	4.3
101.0168	2.9
101.0791	2.9
102.0549	31.4
102.0913	94.1
103.0947	5.9
104.0706	5.6
108.0807	3.5
112.0756	5.4
121.0316	12.9
130.0496	19.7
130.0860	4.2
148.0423	3.4
148.0601	8.2
148.0965	30.9
148.1117	8.0
149.0228	4.6
149.0265	75.7
149.0999	2.7
150.0547	2.9
150.0910	9.0
150.1274	17.9

Name: 4-Hydroxyproline
PrecursorMZ: 132.06553
RT: 9.3386
ExactMass: 131.058243149
Spectrum_type: 2
charge: 1
Formula: C5H9NO3
SMILES: C1C(CNC1C(=O)O)O
Method: HCD
Collision_energy: [28.333334]
Isolation_window: 4.0
Ion_mode: P
Num Peaks: 13
68.0499	8.0
85.0480	6.4
85.0843	7.2
86.0603	33.6
86.0966	48.1
88.0758	5.0
90.0551	100.0
91.0584	3.0
131.0893	3.3
132.0655	20.0
132.0766	70.2
132.1017	3.8
133.0798	4.9

Name: 4-Hydroxypyridine
PrecursorMZ: 96.04447
RT: 6.4501
ExactMass: 95.037113783
Spectrum_type: 2
charge: 1
Formula: C5H5NO
SMILES: C1=CNC=CC1=O
Method: HCD
Collision_energy: [28.333334]
Isolation_window: 4.0
Ion_mode: P
Num Peaks: 10
68.0498	1.8
69.0450	1.5
94.0652	8.7
95.0604	3.5
95.0685	0.9
96.0444	100.0
96.0508	0.7
97.0395	3.0
97.0477	5.4
97.0760	1.0

Name: 4-Hydroxyquinoline
PrecursorMZ: 146.06
RT: 1.995
ExactMass: 145.052763847
Spectrum_type: 2
charge: 1
Formula: C9H7NO
SMILES: C1=CC=C2C(=C1)C(=O)C=CN2
Method: HCD
Collision_energy: [28.333334]
Isolation_window: 4.0
Ion_mode: P
Num Peaks: 5
128.0494	3.9
145.0759	17.1
146.0598	100.0
147.0551	12.2
147.0631	9.7

Name: 4-Isopropylaniline
PrecursorMZ: 136.11206
RT: 1.1717666666666666
ExactMass: 135.104799419
Spectrum_type: 2
charge: 1
Formula: C9H13N
SMILES: CC(C)C1=CC=C(C=C1)N
Method: HCD
Collision_energy: [28.333334]
Isolation_window: 4.0
Ion_mode: P
Num Peaks: 5
93.0573	5.7
94.0654	4.2
136.0216	4.7
136.1119	100.0
137.1152	9.9

Name: 4-Methyl-2,6-dimethoxyphenol
PrecursorMZ: 169.08597
RT: 1.1671
ExactMass: 168.078644241
Spectrum_type: 2
charge: 1
Formula: C9H12O3
SMILES: CC1=CC(=C(C(=C1)OC)O)OC
Method: HCD
Collision_energy: [28.333334]
Isolation_window: 4.0
Ion_mode: P
Num Peaks: 51
55.0183	1.1
67.0547	4.5
71.0496	1.4
79.0546	4.2
81.0338	0.9
81.0703	27.5
82.0655	1.0
82.0736	2.0
83.0495	1.3
85.0652	1.5
91.0545	4.3
93.0702	6.8
95.0494	2.2
95.0858	6.1
97.0650	1.4
99.0807	2.3
100.0759	1.0
105.0701	1.7
107.0858	2.5
109.0650	85.7
109.1013	4.7
110.0683	6.4
111.0442	2.4
111.0806	1.1
119.0493	4.4
119.0857	1.4
123.0806	8.1
127.0755	3.0
130.1227	0.9
137.0598	100.0
137.0960	2.1
138.0631	7.3
141.0545	1.6
142.0863	1.0
149.0961	1.0
151.0754	3.1
154.0501	1.0
167.1068	1.2
167.1543	13.2
168.0478	1.5
168.0697	2.5
168.1019	3.1
168.1576	2.6
169.0763	1.4
169.0860	14.5
170.0810	1.3
170.0893	1.4
170.0966	0.9
170.1176	5.9
171.1166	1.7
171.1493	1.8

Name: 4-Methyl-2-(octadec-9-enoylamino)pentanoic acid
PrecursorMZ: 396.34672
RT: 1.0174
ExactMass: 395.3399443
Spectrum_type: 2
charge: 1
Formula: C24H45NO3
SMILES: CCCCCCCCC=CCCCCCCCC(=O)NC(CC(C)C)C(=O)O
Method: HCD
Collision_energy: [28.333334]
Isolation_window: 4.0
Ion_mode: P
Num Peaks: 12
69.0701	4.8
69.2083	5.8
81.0700	3.2
86.0966	100.0
87.0999	5.6
95.0855	3.9
97.4559	3.0
132.1017	73.0
133.1049	3.8
350.3414	3.1
396.3462	12.6
397.3507	3.9

Name: 4-Methyl-2-(octadeca-9,12-dienoylamino)pentanoic acid
PrecursorMZ: 394.33099
RT: 1.095
ExactMass: 393.32429423
Spectrum_type: 2
charge: 1
Formula: C24H43NO3
SMILES: CCCCCC=CCC=CCCCCCCCC(=O)NC(CC(C)C)C(=O)O
Method: HCD
Collision_energy: [28.333334]
Isolation_window: 4.0
Ion_mode: P
Num Peaks: 6
72.0811	10.8
100.0757	19.4
118.0862	46.2
393.2951	11.0
394.3307	100.0
395.3341	27.7

Name: 4-Methyl-2-(pentadecanoylamino)pentanoic acid
PrecursorMZ: 356.31561
RT: 1.1943000000000001
ExactMass: 355.30864417
Spectrum_type: 2
charge: 1
Formula: C21H41NO3
SMILES: CCCCCCCCCCCCCCC(=O)NC(CC(C)C)C(=O)O
Method: HCD
Collision_energy: [28.333334]
Isolation_window: 4.0
Ion_mode: P
Num Peaks: 12
57.0703	7.2
71.0858	6.9
72.0811	97.6
81.0701	5.1
85.1014	5.2
86.0966	97.1
95.0858	6.6
118.0862	100.0
132.1018	77.2
310.3095	7.5
356.3151	20.5
357.3182	5.1

Name: 4-Methyl-2-(pentanoylamino)pentanoic acid
PrecursorMZ: 216.15931
RT: 2.5434666666666668
ExactMass: 215.15214353
Spectrum_type: 2
charge: 1
Formula: C11H21NO3
SMILES: CCCCC(=O)NC(CC(C)C)C(=O)O
Method: HCD
Collision_energy: [28.333334]
Isolation_window: 4.0
Ion_mode: P
Num Peaks: 9
57.0703	14.7
72.0812	23.2
85.0649	15.7
86.0967	100.0
114.8930	21.8
118.0864	18.0
126.0914	15.2
132.1018	57.6
216.1588	14.9

Name: 4-Methyl-2-(undec-10-enoylamino)pentanoic acid
PrecursorMZ: 315.26407
RT: 4.9303
ExactMass: 297.23039385
Spectrum_type: 2
charge: 1
Formula: C17H31NO3
SMILES: CC(C)CC(C(=O)O)NC(=O)CCCCCCCCC=C
Method: HCD
Collision_energy: [28.333334]
Isolation_window: 4.0
Ion_mode: P
Num Peaks: 71
57.0703	0.5
58.0657	0.6
71.0860	0.9
72.0812	0.6
77.0060	0.5
81.0339	1.5
81.0702	0.9
85.1017	0.6
86.0968	6.5
94.0323	0.6
95.0858	0.8
98.0967	1.0
111.0442	0.6
140.1434	3.5
155.1432	3.9
156.1385	1.1
157.1337	3.8
170.1176	0.5
170.1540	0.6
172.1333	1.1
182.0497	0.5
185.1286	1.9
199.1805	1.4
201.0657	0.8
207.0225	0.9
212.1795	0.7
212.2009	100.0
212.2222	0.6
213.2043	13.7
214.2076	0.6
227.0815	3.0
227.1755	1.0
235.0176	0.6
251.0814	1.3
255.0762	1.2
263.0811	1.0
267.0433	0.8
270.1121	0.5
281.0917	1.0
296.1129	0.6
296.1490	0.6
297.1234	0.6
298.1064	1.2
298.1281	0.4
299.1023	7.9
299.1376	0.9
314.1017	1.8
314.1224	1.9
314.1384	2.6
314.1558	0.9
314.1592	3.0
314.1750	0.7
314.2078	2.4
315.0640	0.8
315.1327	3.3
315.1697	2.3
315.1903	1.2
315.2077	1.1
315.2269	0.8
315.2640	4.2
316.1173	6.2
316.1332	0.5
316.1382	1.9
316.1541	2.1
316.1707	0.5
316.2236	0.5
316.2668	0.7
317.1121	5.7
317.1486	2.5
317.1853	2.1
317.2062	0.9

Name: 4-Methyl-7-diethylaminocoumarin
PrecursorMZ: 232.13313
RT: 3.0989
ExactMass: 231.125928785
Spectrum_type: 2
charge: 1
Formula: C14H17NO2
SMILES: CCN(CC)C1=CC2=C(C=C1)C(=CC(=O)O2)C
Method: HCD
Collision_energy: [28.333334]
Isolation_window: 4.0
Ion_mode: P
Num Peaks: 45
107.0733	2.0
122.0967	2.8
134.0967	1.7
137.1076	1.1
147.0918	4.1
162.0784	2.0
162.0925	2.1
164.1184	4.6
166.0504	1.3
177.1391	1.9
179.1180	2.5
180.1023	2.3
181.1449	1.6
197.1290	1.1
204.1163	1.2
204.1384	1.9
222.1242	6.5
230.1183	2.1
231.1122	2.6
232.0957	2.0
232.1336	100.0
233.1371	15.8
234.1125	2.7
234.1359	4.2
235.1435	4.5
236.1280	2.9
236.1652	10.3
236.1867	1.2
237.1598	14.4
238.1408	1.1
238.1651	2.1
239.1507	25.9
240.1538	3.0
242.1175	1.0
244.0972	13.9
244.1330	2.1
245.0988	2.0
245.1247	1.8
247.1442	1.8
248.1282	38.0
249.1311	6.1
249.1599	2.8
250.1433	1.9
251.1392	20.3
252.1391	2.0

Name: 4-Methylacetanilide
PrecursorMZ: 150.09119
RT: 7.6824
ExactMass: 149.084063974
Spectrum_type: 2
charge: 1
Formula: C9H11NO
SMILES: CC1=CC=C(C=C1)NC(=O)C
Method: HCD
Collision_energy: [28.333334]
Isolation_window: 4.0
Ion_mode: P
Num Peaks: 30
67.0293	0.7
69.6879	0.7
69.7776	0.7
80.0496	1.8
84.0445	0.9
88.0394	0.8
91.0544	0.7
96.9952	1.7
102.0914	0.7
108.0443	0.6
108.0807	0.7
109.0523	0.7
110.0714	0.7
111.0791	1.6
122.0598	5.5
124.0755	0.6
126.0547	2.3
134.0630	3.4
148.0868	0.7
149.0230	0.8
149.0820	0.9
150.0546	0.9
150.0782	2.0
150.0910	100.0
150.1036	0.7
151.0866	0.7
151.0943	10.5
152.0566	3.2
152.0702	17.7
153.0403	0.7

Name: 4-Methylphthalic anhydride
PrecursorMZ: 163.03885
RT: 1.0862
ExactMass: 162.031694049
Spectrum_type: 2
charge: 1
Formula: C9H6O3
SMILES: CC1=CC2=C(C=C1)C(=O)OC2=O
Method: HCD
Collision_energy: [28.333334]
Isolation_window: 4.0
Ion_mode: P
Num Peaks: 12
79.0545	1.3
95.0492	1.0
133.0282	10.7
134.0314	1.0
135.0438	9.7
136.0472	0.9
163.0245	0.8
163.0387	100.0
163.0528	0.7
164.0420	9.8
164.1067	0.9
164.1432	1.7

Name: 4-Methylpyrimidine
PrecursorMZ: 95.06057
RT: 6.0944
ExactMass: 94.0530982
Spectrum_type: 2
charge: 1
Formula: C5H6N2
SMILES: CC1=NC=NC=C1
Method: HCD
Collision_energy: [28.333334]
Isolation_window: 4.0
Ion_mode: P
Num Peaks: 8
54.0342	15.9
67.0545	5.8
68.0498	37.7
69.7773	5.2
94.0652	8.6
95.0605	100.0
96.0445	25.9
96.0638	4.9

Name: 4-Methylquinoline-2-carboxylic acid
PrecursorMZ: 188.07053
RT: 5.413550000000001
ExactMass: 187.06332853
Spectrum_type: 2
charge: 1
Formula: C11H9NO2
SMILES: CC1=CC(=NC2=CC=CC=C12)C(=O)O
Method: HCD
Collision_energy: [28.333334]
Isolation_window: 4.0
Ion_mode: P
Num Peaks: 39
60.0448	2.4
70.0654	4.9
72.0811	3.3
82.0653	0.8
84.0810	1.0
86.0966	15.0
98.0601	1.2
100.0394	1.8
101.0598	1.3
111.0440	1.9
116.0706	2.0
117.0698	1.0
118.0651	16.2
119.0684	1.2
124.0756	1.1
126.0911	2.5
128.0704	3.4
140.0706	0.8
142.0649	2.2
142.0861	7.8
143.0729	1.9
144.0806	18.9
145.0838	1.3
146.0478	0.7
146.0598	100.0
146.0718	0.8
147.0631	9.8
159.1127	1.0
160.0755	0.8
168.1020	0.7
170.0598	5.6
170.0808	5.2
171.0635	0.9
186.0756	0.8
186.1121	2.5
188.0376	1.0
188.0702	33.4
188.0911	3.4
189.0736	4.0

Name: 4-Nitrophenol
PrecursorMZ: 140.03423
RT: 8.0521
ExactMass: 139.026943022
Spectrum_type: 2
charge: 1
Formula: C6H5NO3
SMILES: C1=CC(=CC=C1[N+](=O)[O-])O
Method: HCD
Collision_energy: [28.333334]
Isolation_window: 4.0
Ion_mode: P
Num Peaks: 6
112.0395	50.0
138.0548	13.0
139.1230	23.6
140.0342	100.0
141.0376	7.7
141.0658	34.7

Name: 4-Nitroquinoline 1-Oxide
PrecursorMZ: 191.04502
RT: 4.3957
ExactMass: 190.03784206
Spectrum_type: 2
charge: 1
Formula: C9H6N2O3
SMILES: C1=CC=C2C(=C1)C(=CC=[N+]2[O-])[N+](=O)[O-]
Method: HCD
Collision_energy: [28.333334]
Isolation_window: 4.0
Ion_mode: P
Num Peaks: 12
135.0553	7.8
146.0601	2.6
162.0550	6.1
163.0502	17.6
177.0419	6.3
189.0292	5.1
190.0499	11.0
191.0450	100.0
192.0292	4.6
192.0481	8.2
192.0654	21.6
207.0397	2.5

Name: 4-Oxo-4-(3-oxodecan-2-ylamino)butanoic acid
PrecursorMZ: 289.21212
RT: 2.279
ExactMass: 271.17835828
Spectrum_type: 2
charge: 1
Formula: C14H25NO4
SMILES: CCCCCCCC(=O)C(C)NC(=O)CCC(=O)O
Method: HCD
Collision_energy: [28.333334]
Isolation_window: 4.0
Ion_mode: P
Num Peaks: 50
70.0656	18.2
81.0339	4.1
83.0496	6.7
84.0813	19.2
85.0652	3.3
89.0601	5.9
96.0447	20.9
102.0916	3.1
111.0444	3.2
114.0553	33.3
116.0709	20.7
122.0814	11.7
124.1123	6.0
130.0866	17.4
132.0447	8.6
142.1229	9.4
152.1076	6.1
154.0868	6.2
168.0690	9.0
187.1446	13.8
200.1284	93.7
201.1321	9.2
205.1551	12.5
271.2018	9.1
288.0883	3.7
288.1233	5.2
289.1206	3.2
289.2124	76.7
290.1019	7.3
290.2159	13.5
291.1350	3.6
292.1172	8.7
292.1717	3.6
293.1215	3.9
293.1498	100.0
294.1569	14.4
295.1300	13.5
296.1146	8.3
296.1530	3.4
297.1449	12.0
298.1311	10.0
299.1616	4.8
300.1523	4.2
302.1014	4.0
304.1162	6.3
304.3007	7.2
305.1203	3.6
306.1357	6.9
307.1323	4.9
308.1215	5.7

Name: 4-Oxo-4-(p-tolylamino)butanoic acid
PrecursorMZ: 190.08613
RT: 2.1607
ExactMass: 207.08954328
Spectrum_type: 2
charge: 1
Formula: C11H13NO3
SMILES: CC1=CC=C(C=C1)NC(=O)CCC(=O)O
Method: HCD
Collision_energy: [28.333334]
Isolation_window: 4.0
Ion_mode: P
Num Peaks: 8
91.0544	26.8
117.0699	12.2
134.0599	14.9
144.0807	83.0
162.0913	17.7
172.0755	14.3
190.0860	100.0
191.0895	12.4

Name: 4-Oxododecanedioic acid
PrecursorMZ: 262.16487
RT: 6.1167
ExactMass: 244.13107373
Spectrum_type: 2
charge: 1
Formula: C12H20O5
SMILES: C(CCCC(=O)CCC(=O)O)CCCC(=O)O
Method: HCD
Collision_energy: [28.333334]
Isolation_window: 4.0
Ion_mode: P
Num Peaks: 108
67.0547	6.8
69.0703	2.2
70.0657	3.0
71.0498	2.0
79.0546	4.7
81.0339	3.2
81.0703	6.7
83.0495	3.2
84.0448	2.3
86.0968	6.5
87.0444	2.5
91.0546	3.0
93.0701	5.9
95.0858	2.9
97.0651	4.1
99.0444	2.4
100.0760	2.1
102.0555	1.9
105.0701	4.5
107.0495	2.5
107.0858	5.2
109.0651	2.7
109.1014	8.7
111.0443	27.5
111.0807	5.3
117.0701	3.6
119.0857	5.7
121.0651	3.3
121.1013	5.8
123.0809	1.9
125.0602	2.0
129.0700	3.0
130.0499	15.0
131.0856	7.0
133.0647	3.0
133.1012	5.4
135.0806	4.5
135.1168	6.7
143.0858	2.6
145.1013	7.2
147.0759	7.8
147.0810	4.2
147.1169	4.7
149.0962	6.9
150.0919	2.8
151.0755	2.2
153.0548	2.7
153.1275	10.4
157.1012	2.5
159.0809	1.8
161.0963	3.3
163.0756	1.9
163.1119	27.2
164.1153	2.5
165.0912	1.9
173.0598	3.7
173.0965	6.0
181.1224	37.3
182.1258	4.0
183.1170	2.2
185.1325	2.8
188.0915	2.9
191.1067	52.8
192.1102	5.8
197.1325	1.8
199.1123	2.1
199.1481	3.3
201.0546	6.6
201.1276	2.6
202.0863	3.1
209.1173	22.0
209.1318	2.1
210.1210	3.3
215.1029	2.4
215.1428	3.5
217.1335	1.8
217.1589	4.3
218.0813	2.3
218.0925	2.1
227.1278	100.0
227.1432	3.5
228.1312	11.3
236.1280	2.3
243.1378	6.2
244.0603	3.5
245.1184	2.1
245.1386	2.0
245.1535	15.3
246.0871	4.3
261.0755	14.9
261.1106	1.8
261.1236	3.7
261.1482	9.4
261.1611	2.4
261.1851	6.5
262.0700	3.0
262.1071	12.6
262.1308	2.7
262.1804	1.9
263.1017	5.8
263.1397	4.9
263.1639	18.9
263.1761	3.0
263.1991	2.2
264.0860	3.3
264.0981	2.5
264.1222	5.7
264.1952	3.4

Name: 4-Pentylaniline
PrecursorMZ: 164.1433
RT: 7.7137
ExactMass: 163.136099547
Spectrum_type: 2
charge: 1
Formula: C11H17N
SMILES: CCCCCC1=CC=C(C=C1)N
Method: HCD
Collision_energy: [28.333334]
Isolation_window: 4.0
Ion_mode: P
Num Peaks: 9
100.0243	2.3
105.0335	7.6
105.0699	3.7
163.0751	2.3
164.1069	5.1
164.1432	100.0
165.0213	3.2
165.1464	10.8
166.0892	2.9

Name: 4-Piperidinecarboxamide
PrecursorMZ: 129.10233
RT: 2.0686
ExactMass: 128.094963011
Spectrum_type: 2
charge: 1
Formula: C6H12N2O
SMILES: C1CNCCC1C(=O)N
Method: HCD
Collision_energy: [28.333334]
Isolation_window: 4.0
Ion_mode: P
Num Peaks: 5
69.0703	29.3
86.0967	66.1
112.0759	71.0
129.1023	100.0
130.1591	53.8

Name: 4-Quinolinecarboxylic acid
PrecursorMZ: 174.05492
RT: 4.6868
ExactMass: 173.047678466
Spectrum_type: 2
charge: 1
Formula: C10H7NO2
SMILES: C1=CC=C2C(=C1)C(=CC=N2)C(=O)O
Method: HCD
Collision_energy: [28.333334]
Isolation_window: 4.0
Ion_mode: P
Num Peaks: 50
55.0546	0.6
60.0447	0.4
69.0338	0.5
69.0703	0.8
70.0654	1.6
71.0494	0.6
83.0494	0.8
83.0857	4.0
84.0891	0.4
86.0966	0.9
87.0553	0.7
95.0856	0.5
97.0649	0.5
98.0965	1.2
112.0757	0.8
116.0707	0.4
117.0698	0.5
126.0912	21.4
127.0946	3.2
128.0491	0.8
128.0705	0.6
128.1070	0.7
130.0650	0.7
132.0441	0.9
138.0912	0.5
144.0806	1.5
146.0478	0.7
146.0503	0.6
146.0598	100.0
146.0718	0.7
147.0570	0.6
147.0631	9.3
156.1018	9.2
157.1051	0.5
158.0601	0.9
172.0756	1.7
172.0966	6.6
173.0707	1.9
173.0793	0.7
173.1000	0.9
174.0391	0.6
174.0422	0.4
174.0547	77.9
174.0757	0.6
174.0912	0.6
174.1120	1.0
175.0513	0.5
175.0580	8.6
175.0865	1.4
176.0704	0.9

Name: 4-Tert-butyl-5-fluoro-6-(4-(5-methyl-1,3,4-thiadiazol-2-yl)piperazin-1-yl)pyrimidine
PrecursorMZ: 337.16126
RT: 7.116
ExactMass: 336.15324403
Spectrum_type: 2
charge: 1
Formula: C15H21FN6S
SMILES: CC1=NN=C(S1)N2CCN(CC2)C3=NC=NC(=C3F)C(C)(C)C
Method: HCD
Collision_energy: [28.333334]
Isolation_window: 4.0
Ion_mode: P
Num Peaks: 30
96.0446	2.0
96.0683	2.0
97.0762	1.2
109.0762	22.4
110.0797	1.4
114.0663	5.3
124.0869	1.5
126.0662	1.5
126.0914	1.2
126.1026	3.7
144.1018	2.2
153.0659	2.9
168.0767	14.1
170.0924	16.9
180.1131	16.1
181.0971	6.6
206.0920	3.3
224.1028	91.5
225.1065	9.6
336.1434	1.9
336.1636	1.8
337.1183	2.1
337.1421	3.5
337.1613	100.0
338.1193	1.8
338.1644	15.0
338.3414	4.7
339.1509	3.4
339.1700	1.3
339.1911	2.2

Name: 4-Trimethylammoniobutanoate
PrecursorMZ: 146.11762
RT: 4.5912
ExactMass: 146.118103753
Spectrum_type: 2
charge: 1
Formula: C7H16NO2+
SMILES: C[N+](C)(C)CCCC(=O)O
Method: HCD
Collision_energy: [28.333334]
Isolation_window: 4.0
Ion_mode: P
Num Peaks: 58
53.0390	0.1
55.0547	3.1
56.0581	0.2
58.0624	0.1
58.0659	0.5
59.0496	0.8
59.0737	0.2
60.0674	0.1
60.0732	0.1
60.0749	0.2
60.0763	0.1
60.0813	27.0
60.0860	0.1
60.0877	0.2
60.0895	0.1
60.0971	0.1
61.0784	0.1
61.0846	1.0
61.0876	0.1
69.0339	0.1
83.0495	2.1
84.0529	0.1
87.0445	0.1
96.9957	0.1
101.0297	0.1
101.0421	0.1
101.0464	0.3
101.0600	40.3
101.0705	0.1
101.0744	0.3
101.0782	0.1
101.0945	0.1
102.0633	2.1
103.0640	0.2
105.0334	0.1
134.0636	0.2
148.0785	0.1
149.0238	0.1
158.1533	0.1
160.0577	0.1
160.0729	0.2
160.0827	0.1
160.0904	0.1
160.0980	0.2
160.1059	0.8
160.1115	0.7
160.1334	100.0
160.1557	0.4
160.1615	0.7
160.1692	0.2
160.1769	0.1
160.1854	0.1
160.2020	0.3
161.1367	9.2
162.1383	0.7
165.0214	0.1
166.0894	0.2
168.0687	0.4

Name: 4-Vinylpyridine
PrecursorMZ: 106.06507
RT: 2.511
ExactMass: 105.057849228
Spectrum_type: 2
charge: 1
Formula: C7H7N
SMILES: C=CC1=CC=NC=C1
Method: HCD
Collision_energy: [28.333334]
Isolation_window: 4.0
Ion_mode: P
Num Peaks: 6
69.6016	11.8
79.0543	29.2
95.0490	10.0
106.0649	100.0
107.0727	9.7
108.0806	9.8

Name: 4-amino-N-(4-(1,3-benzoxazol-2-yl)phenyl)benzamide
PrecursorMZ: 330.12383
RT: 5.5273
ExactMass: 329.11642673
Spectrum_type: 2
charge: 1
Formula: C20H15N3O2
SMILES: C1=CC=C2C(=C1)N=C(O2)C3=CC=C(C=C3)NC(=O)C4=CC=C(C=C4)N
Method: HCD
Collision_energy: [28.333334]
Isolation_window: 4.0
Ion_mode: P
Num Peaks: 17
72.0812	3.3
98.9845	4.0
114.0916	10.4
173.1286	12.5
188.0708	2.8
201.1235	6.2
284.1182	28.8
285.1220	6.2
329.1497	4.8
329.1686	2.5
329.1862	5.1
330.1235	100.0
330.1821	2.5
331.0873	3.5
331.1268	25.5
331.1650	3.3
332.1122	3.9

Name: 4-anilino-7-methyl-5,6,7,8-tetrahydropyrido)4',3':4,5(thieno)2,3-d(pyrimidine-2(1H)-thione
PrecursorMZ: 328.08083
RT: 2.4161
ExactMass: 328.08163887
Spectrum_type: 2
charge: 1
Formula: C16H16N4S2
SMILES: CN1CCC2=C(C1)SC3=NC(=S)NC(=C23)NC4=CC=CC=C4
Method: HCD
Collision_energy: [28.333334]
Isolation_window: 4.0
Ion_mode: P
Num Peaks: 58
57.0703	2.6
58.0655	2.9
70.0656	6.9
72.0811	2.7
84.0811	3.7
85.0650	3.0
87.0444	3.2
89.0600	21.0
90.0552	2.1
98.9844	52.0
100.0757	2.4
103.0391	2.0
104.0708	12.5
105.0338	2.4
114.0915	2.3
116.0708	2.6
120.0478	4.1
122.0813	100.0
123.0852	4.6
132.0444	9.8
133.0860	14.3
163.0752	4.4
174.9922	8.6
176.9883	2.8
177.1127	2.3
178.0854	2.4
202.0492	2.0
209.1648	3.7
210.0793	57.9
211.0830	4.8
212.0735	2.9
240.2319	4.2
244.0595	2.3
250.9999	2.8
254.0801	2.9
268.0602	5.6
269.1414	3.3
282.0756	7.0
286.0702	5.4
297.1224	4.4
310.0703	4.9
322.2489	6.4
326.1241	3.5
327.1604	2.4
327.2013	11.8
328.0802	14.5
328.2052	2.1
329.0807	3.3
330.1700	17.9
330.3365	6.1
331.1483	2.4
338.3406	2.0
340.2594	9.2
342.0938	3.9
345.0588	3.4
346.0912	6.2
346.3310	6.4
347.1259	2.7

Name: 4-bromo-1-))1-(1,2,3,4-tetrahydronaphthalene-1-carbonyl)azetidin-3-yl(methyl-1H-pyrazole
PrecursorMZ: 374.08661
RT: 5.0853
ExactMass: 373.07897
Spectrum_type: 2
charge: 1
Formula: C18H20BrN3O
SMILES: C1CC(C2=CC=CC=C2C1)C(=O)N3CC(C3)CN4C=C(C=N4)Br
Method: HCD
Collision_energy: [28.333334]
Isolation_window: 4.0
Ion_mode: P
Num Peaks: 43
70.0656	11.9
72.0814	6.3
84.0811	8.5
100.0760	15.3
111.0445	6.7
132.0445	6.0
149.0235	16.3
244.0613	6.3
267.0777	11.2
268.0597	32.7
270.0747	8.9
282.0754	8.4
292.0600	13.0
296.0549	6.0
297.0861	9.6
310.0707	37.7
311.0532	48.4
312.0552	7.9
312.0871	6.2
313.0828	12.1
314.0651	45.4
315.0491	7.6
328.0800	6.8
338.0654	17.7
356.0733	14.1
357.0599	32.7
360.1639	7.0
373.1031	20.1
374.0863	100.0
375.0908	19.5
376.0987	7.9
378.1753	30.6
379.1749	7.5
379.2264	16.0
380.1713	19.1
380.2179	9.5
381.1637	6.7
382.1930	7.4
383.1815	6.1
384.1586	7.7
386.1611	18.3
387.1762	10.4
389.0981	17.7

Name: 4-methoxy-2,3-dihydro-1H-indole
PrecursorMZ: 150.09132
RT: 7.1434
ExactMass: 149.084063974
Spectrum_type: 2
charge: 1
Formula: C9H11NO
SMILES: COC1=CC=CC2=C1CCN2
Method: HCD
Collision_energy: [28.333334]
Isolation_window: 4.0
Ion_mode: P
Num Peaks: 49
70.0655	2.3
71.0858	1.0
80.0497	8.2
88.0759	2.9
91.0544	0.5
94.0652	0.5
103.0542	0.8
107.0730	1.1
108.0444	0.6
108.0808	1.1
109.0522	1.7
110.0348	0.8
114.0913	1.2
119.0491	0.5
121.0884	0.5
122.0599	0.5
123.0916	1.3
124.0392	0.5
126.0549	4.2
128.0453	0.8
132.1018	6.9
133.0506	0.6
133.1052	0.5
134.0631	0.9
135.0300	0.6
148.1119	1.7
149.0231	1.5
149.1072	4.5
149.1153	0.7
150.0550	0.6
150.0727	0.5
150.0775	30.1
150.0912	100.0
150.1012	0.5
150.1035	0.6
150.1122	11.5
150.1275	24.2
151.0613	1.1
151.0750	0.9
151.0806	2.0
151.0869	0.8
151.0944	10.1
151.1157	0.9
151.1227	15.6
151.1308	2.9
152.0564	26.3
152.0702	7.3
152.1068	0.9
153.0404	3.9

Name: 4-methyl-2-(3-methyl-11-(4-methyl-5-oxooxolan-2-yl)-5-oxa-10-azatricyclo(8.3.0.02,6)tridecan-4-yl)-2H-furan-5-one
PrecursorMZ: 390.22731
RT: 6.2587
ExactMass: 389.22022309
Spectrum_type: 2
charge: 1
Formula: C22H31NO5
SMILES: CC1CC(OC1=O)C2CCC3N2CCCC4C3C(C(O4)C5C=C(C(=O)O5)C)C
Method: HCD
Collision_energy: [28.333334]
Isolation_window: 4.0
Ion_mode: P
Num Peaks: 35
57.0703	1.9
71.0858	1.2
114.0895	1.3
114.0915	2.7
149.0207	3.4
149.0234	5.4
149.0275	1.8
181.0968	1.9
217.0972	1.4
245.0920	2.2
326.2112	1.9
342.2069	1.8
343.2099	1.4
344.2155	20.0
344.2219	71.8
344.2386	4.7
345.2187	4.8
345.2253	16.1
346.2279	1.2
372.2166	2.0
373.1394	1.8
373.1647	1.4
388.2122	2.0
389.1739	2.4
389.2332	1.5
390.1650	3.9
390.2200	28.7
390.2274	100.0
390.2480	6.3
391.1514	3.6
391.2099	1.3
391.2231	7.0
391.2305	24.1
391.2515	1.4
392.2336	2.7

Name: 5'-(furan-3-yl)-4a-hydroxy-4,7-dimethylspiro(5,6,7,8a-tetrahydro-1H-naphthalene-8,3'-oxolane)-2,2'-dione
PrecursorMZ: 331.1538
RT: 0.857
ExactMass: 330.1467238
Spectrum_type: 2
charge: 1
Formula: C19H22O5
SMILES: CC1CCC2(C(C13CC(OC3=O)C4=COC=C4)CC(=O)C=C2C)O
Method: HCD
Collision_energy: [28.333334]
Isolation_window: 4.0
Ion_mode: P
Num Peaks: 12
141.0547	13.0
173.0963	23.2
201.0910	100.0
202.0943	12.0
261.1121	31.2
277.1221	17.6
295.1328	59.4
296.1363	12.7
313.1434	52.0
314.1466	11.3
331.1540	62.6
332.1571	12.6

Name: 5'-Thymidylic acid
PrecursorMZ: 323.0632
RT: 4.9835
ExactMass: 322.05660244
Spectrum_type: 2
charge: 1
Formula: C10H15N2O8P
SMILES: CC1=CN(C(=O)NC1=O)[C@H]2C[C@@H]([C@H](O2)COP(=O)(O)O)O
Method: HCD
Collision_energy: [28.333334]
Isolation_window: 4.0
Ion_mode: P
Num Peaks: 28
69.0702	13.2
81.0337	94.7
83.0857	6.2
86.0965	19.2
96.0444	50.1
108.0807	15.5
110.0600	10.3
124.0755	6.9
126.0911	13.6
127.0499	4.4
130.0860	7.3
132.1016	11.7
136.0754	9.2
150.0910	22.0
151.0946	4.7
164.0703	16.7
168.1016	21.2
178.0858	12.3
182.0808	14.6
196.0964	7.0
275.1749	8.1
303.1697	9.9
321.1805	10.4
322.1279	4.7
323.1597	4.6
323.1957	100.0
324.1992	17.5
325.1173	4.4

Name: 5,10-Dimethyl-8,14,16-trioxatetracyclo(10.2.2.01,13.07,11)hexadeca-4,7(11),9-trien-15-one
PrecursorMZ: 261.10962
RT: 1.3718
ExactMass: 260.10485899
Spectrum_type: 2
charge: 1
Formula: C15H16O4
SMILES: CC1=CCCC23C(O2)C(C4=C(C1)OC=C4C)OC3=O
Method: HCD
Collision_energy: [28.333334]
Isolation_window: 4.0
Ion_mode: P
Num Peaks: 6
259.1514	100.0
259.1803	6.6
260.1547	23.1
261.1106	16.1
261.1330	7.5
261.1592	9.7

Name: 5,11,17,19-Tetrahydroxy-15-methyl-2-oxapentacyclo)9.8.0.01,3.04,9.012,17(nonadeca-4(9),5,7-triene-10,13-dione
PrecursorMZ: 378.15408
RT: 2.7398
ExactMass: 360.12090297
Spectrum_type: 2
charge: 1
Formula: C19H20O7
SMILES: CC1CC(=O)C2C(C1)(CC(C34C2(C(=O)C5=C(C3O4)C(=CC=C5)O)O)O)O
Method: HCD
Collision_energy: [28.333334]
Isolation_window: 4.0
Ion_mode: P
Num Peaks: 386
55.0184	2.3
56.0499	3.0
57.0339	2.2
67.0547	3.6
69.0340	8.3
69.0703	3.3
70.0656	29.3
71.0497	5.8
72.0812	14.4
74.0606	3.9
79.0546	3.2
81.0339	20.3
81.0703	6.1
82.0656	4.0
83.0495	7.3
84.0448	10.0
84.0812	26.7
85.0288	8.6
85.0652	4.9
86.0605	7.7
86.0968	14.1
87.0445	5.6
88.0397	13.1
90.0553	3.1
91.0546	3.0
93.0703	5.7
94.0652	3.1
95.0495	7.6
95.0858	5.1
96.0447	5.5
96.0810	4.6
97.0287	7.0
97.0651	4.5
98.0603	9.3
99.0443	8.7
100.0759	5.2
101.0601	6.0
102.0554	7.5
103.0392	2.1
105.0702	3.7
107.0495	5.7
107.0859	3.5
108.0446	3.7
109.0288	3.8
109.0649	3.8
109.0765	2.1
109.1013	3.2
110.0603	8.1
110.0716	4.4
111.0443	11.4
111.0808	2.4
112.0761	5.2
113.0598	2.7
114.0552	7.8
114.0665	6.2
115.0392	3.8
116.0709	40.5
117.0548	4.6
117.0742	2.3
118.0865	23.1
119.0491	2.3
119.0854	5.4
120.0810	6.3
121.0286	13.2
121.0650	28.3
122.0600	4.5
122.0683	2.5
123.0443	23.1
123.0809	5.4
124.0393	3.5
124.0761	5.7
125.0237	3.5
125.0598	4.4
126.0553	6.9
126.0918	3.2
127.0392	12.9
128.0708	18.3
129.0547	4.0
130.0500	8.7
130.0654	2.8
130.0864	17.0
132.0661	4.5
132.1020	43.9
133.0640	2.7
133.1024	2.9
134.0601	3.1
134.0961	3.4
135.0439	3.2
135.0807	5.0
136.0757	9.0
137.0237	3.6
137.0597	12.6
137.0960	2.3
138.0549	6.7
138.0910	3.2
139.0394	11.9
139.0753	2.8
140.0340	2.4
140.0707	6.2
141.0545	3.7
141.0657	2.3
142.0501	4.5
142.0865	5.1
144.0655	4.3
144.0808	2.6
144.1021	6.3
145.1004	3.2
146.0600	3.2
146.0813	7.0
147.0442	28.9
147.0766	4.1
147.1150	2.4
148.0480	2.3
148.0754	4.0
149.0238	3.9
149.0597	6.6
149.0962	2.6
150.0551	4.2
150.0908	3.3
151.0391	3.0
151.0754	4.1
152.0706	7.8
153.0546	6.3
153.0910	2.2
154.0498	4.2
154.0864	5.0
156.0656	3.4
156.0771	2.8
157.1003	2.7
158.0816	2.8
159.0789	2.3
159.1166	2.2
160.0758	2.5
160.0970	2.5
161.0597	4.5
161.0952	3.7
162.0549	3.0
162.0765	2.4
162.0916	3.2
163.0392	15.1
163.0754	4.2
163.1115	2.1
164.0704	10.2
164.1072	2.5
165.0547	16.3
166.0512	4.5
166.0863	9.3
167.0700	2.6
167.0823	2.2
168.0656	15.4
168.1018	3.0
169.0491	2.7
169.0618	2.3
169.1003	2.3
170.0806	3.9
171.1165	2.6
173.0937	4.3
174.0918	2.6
175.0389	3.7
175.0748	2.9
175.1110	2.5
176.0690	3.6
177.0543	13.4
178.0856	4.4
179.0698	16.7
180.0656	3.6
180.1010	4.6
181.0490	9.4
181.0981	3.6
182.0807	9.7
183.1161	3.1
184.0956	3.6
185.0937	3.0
186.0759	2.6
187.0734	3.5
187.1112	2.7
188.0698	4.8
189.0539	8.1
189.0892	3.3
190.0854	3.4
191.0685	5.3
191.1062	2.2
192.0637	5.0
192.1010	3.2
193.0494	2.5
193.0983	3.0
194.0806	6.3
195.0636	8.1
195.1146	2.1
196.0608	2.2
196.0953	5.6
197.0947	2.8
197.1305	2.4
198.0762	2.8
198.1125	2.2
199.0736	3.4
199.1101	3.6
200.0917	3.4
201.0546	2.8
201.1262	2.6
202.0512	2.6
202.0862	3.3
203.0680	5.5
204.0643	3.4
204.1018	3.2
205.0489	6.2
205.0855	3.5
206.0798	5.4
207.1154	4.2
208.0602	3.8
208.0961	9.9
209.0933	7.1
210.0739	5.4
210.1106	5.4
211.0738	2.2
211.1100	3.6
212.0921	3.4
213.0903	3.7
213.1236	4.6
214.1075	2.8
215.0696	4.3
215.1053	3.0
216.0867	2.4
216.1229	3.6
217.1224	2.6
218.0814	3.5
219.0637	6.0
220.0645	2.3
220.0977	2.9
221.0928	2.8
221.1290	2.4
222.0750	4.4
223.0744	2.6
223.1092	3.0
224.0898	5.0
225.0908	3.5
225.1245	3.7
226.0716	2.3
226.1082	2.7
227.0699	3.0
227.1034	3.3
229.0862	2.4
229.1217	2.1
229.1556	3.0
230.0813	2.9
230.1030	3.9
231.0650	35.0
232.0665	4.8
232.0976	2.1
232.1174	7.4
234.0770	2.2
234.1334	8.6
236.0919	3.0
237.0917	7.4
239.1029	4.7
240.0999	2.3
241.0861	3.9
241.1203	3.0
243.0635	3.9
243.1021	2.1
243.1357	2.7
244.0966	3.8
246.0764	3.3
247.0747	2.3
248.0924	2.9
248.1501	3.4
249.0782	4.0
251.1036	4.0
252.0871	2.1
253.1198	3.2
254.1018	3.3
255.1015	7.4
257.0816	4.3
258.1118	2.1
260.0893	3.2
262.1110	2.6
265.0850	7.9
267.0652	2.6
267.0979	3.8
267.1350	2.4
269.0823	2.4
269.1159	2.8
271.0962	2.1
271.1694	4.5
272.0930	2.3
273.1456	2.2
275.0959	2.8
276.0959	5.0
277.1201	2.1
279.1001	4.9
281.0799	2.4
283.0965	58.7
283.1646	2.2
284.0981	13.5
285.0754	3.7
288.0870	2.2
289.0677	4.9
289.1801	2.3
290.0981	3.4
292.1217	2.6
295.0978	2.1
297.1129	7.4
298.1103	2.2
299.0917	5.9
300.0895	2.2
300.1223	2.6
301.1083	6.9
302.1042	4.0
303.0835	3.2
304.1214	2.2
307.0964	37.8
308.0967	8.5
309.0756	5.1
313.1079	3.4
314.1015	3.1
315.1243	4.3
316.1195	2.3
317.1070	2.2
317.1776	5.2
318.1365	2.2
323.0919	2.2
325.1071	100.0
326.1092	25.0
327.0821	8.3
327.1196	4.2
328.1201	2.3
332.1197	2.6
334.1292	3.4
336.1519	2.3
338.1311	2.6
341.1044	2.8
341.1773	2.5
342.0991	2.2
343.1177	85.0
344.1200	18.8
345.0973	4.4
345.1703	3.4
347.1227	2.1
349.1416	2.2
350.1266	2.5
355.1183	2.2
359.1167	4.2
360.1114	2.6
361.1379	4.0
362.1374	3.5
363.1084	8.3
363.1798	3.0
364.1454	3.3
368.1384	2.3
369.1326	2.1
370.1246	2.3
371.1148	2.3
373.1411	2.2
374.1288	3.5
376.1394	4.3
377.1332	12.6
377.1890	2.3
378.1189	8.8
378.1651	8.4
379.1532	19.0
380.1347	15.0
381.1259	6.1
381.1750	5.3
382.1594	15.5
383.1451	8.2
383.1859	2.3
384.1282	5.0
384.1724	7.8
385.1698	8.1
386.1262	5.4
386.1553	5.3
387.1273	2.2
387.1885	12.8
388.1355	8.9
389.1280	6.0
389.2081	3.6
390.1596	9.8
391.1572	16.8
391.2078	7.1
392.1344	9.2
393.1259	2.9
393.1759	8.2
394.1526	9.6
395.1464	6.6
396.1208	4.6
396.1793	4.1

Name: 5,6,7,4'-Tetramethoxyflavone
PrecursorMZ: 365.10064
RT: 4.7274
ExactMass: 342.11033829
Spectrum_type: 2
charge: 1
Formula: C19H18O6
SMILES: COC1=CC=C(C=C1)C2=CC(=O)C3=C(C(=C(C=C3O2)OC)OC)OC
Method: HCD
Collision_energy: [28.333334]
Isolation_window: 4.0
Ion_mode: P
Num Peaks: 5
112.8958	15.0
114.8928	7.1
176.8751	9.4
365.1005	100.0
366.1043	19.1

Name: 5,6,7-Trimethoxycoumarin
PrecursorMZ: 237.07547
RT: 5.7077
ExactMass: 236.06847348
Spectrum_type: 2
charge: 1
Formula: C12H12O5
SMILES: COC1=C(C(=C2C=CC(=O)OC2=C1)OC)OC
Method: HCD
Collision_energy: [28.333334]
Isolation_window: 4.0
Ion_mode: P
Num Peaks: 86
55.0182	14.0
55.0547	13.1
67.0546	21.3
69.0339	71.3
69.0703	14.6
70.0655	12.5
79.0545	19.0
81.0338	31.3
81.0702	27.2
83.0495	43.9
85.0650	9.6
87.0444	24.3
91.0544	12.9
93.0701	33.1
95.0493	51.1
95.0857	35.2
97.0285	11.1
99.0443	16.0
101.0599	10.2
105.0700	21.6
107.0493	31.7
107.0857	41.0
108.0446	18.5
109.0285	32.0
109.0648	10.7
109.1013	17.6
111.0442	64.9
113.0598	27.4
117.0700	10.8
119.0856	30.9
121.0648	39.2
121.1012	25.1
123.0441	36.4
123.0805	9.4
124.0393	10.7
125.0233	91.7
127.0391	15.2
131.0855	10.5
133.0647	10.8
133.1012	22.3
135.0440	14.8
135.0804	21.7
135.1166	19.2
137.0233	20.4
139.0390	10.0
145.0646	13.4
147.0441	14.1
147.1167	12.2
149.0597	22.6
151.0389	74.9
157.1011	10.5
159.1168	11.5
161.0598	13.7
163.0390	35.9
163.0755	15.0
173.0594	11.9
173.1324	15.7
175.1116	10.7
175.1480	27.5
177.0546	19.6
179.0699	21.5
190.0860	15.1
191.0701	27.2
191.0810	12.6
191.1430	13.9
193.0493	11.3
195.1123	26.6
201.1274	10.1
207.0650	12.4
217.1584	10.9
218.0810	59.0
219.0651	30.2
219.1378	15.8
235.1690	41.0
236.0918	47.3
236.1736	11.7
237.0756	100.0
237.0870	50.2
237.1230	22.4
237.1483	21.5
237.1598	18.4
238.0810	20.0
238.1072	77.2
238.1185	12.6
238.1437	14.1
239.1388	31.0

Name: 5,6-Dimethoxy-2-(2-methoxyphenyl)-4H-1-benzopyran-4-one
PrecursorMZ: 313.10682
RT: 6.4059
ExactMass: 312.09977361
Spectrum_type: 2
charge: 1
Formula: C18H16O5
SMILES: COC1=C(C2=C(C=C1)OC(=CC2=O)C3=CC=CC=C3OC)OC
Method: HCD
Collision_energy: [28.333334]
Isolation_window: 4.0
Ion_mode: P
Num Peaks: 57
70.0655	2.0
72.0811	0.8
84.0447	0.6
103.0392	1.0
107.0493	3.6
111.0552	0.7
116.0707	1.8
138.0913	0.7
140.0341	1.0
144.1020	0.6
168.0657	0.8
168.1019	3.0
170.0812	1.0
198.0762	1.3
210.1490	0.7
221.0960	6.1
222.0995	0.9
223.0753	0.8
225.0910	3.2
231.0803	4.2
232.0839	0.8
235.0755	0.9
249.0640	0.7
249.0908	100.0
249.1122	0.6
249.1183	0.7
250.0942	17.5
251.0702	1.2
251.0972	1.0
252.0745	0.7
253.0859	1.6
255.1013	0.7
267.1005	0.7
267.1337	0.7
267.1698	0.8
269.0588	3.9
271.0968	0.9
277.0860	0.8
295.0962	13.3
296.0999	2.2
311.1233	1.8
311.1587	1.3
312.0869	1.4
312.1232	1.2
312.1440	1.0
313.0696	1.1
313.0851	5.7
313.1061	3.1
313.1390	1.2
313.1756	1.8
314.0864	0.7
314.1031	1.4
314.1230	0.7
314.1374	0.7
315.0468	1.2
315.0829	1.5
315.1544	0.9

Name: 5,6-Dimethoxy-3H-isobenzofuran-1-one
PrecursorMZ: 195.06514
RT: 1.5997
ExactMass: 194.0579088
Spectrum_type: 2
charge: 1
Formula: C10H10O4
SMILES: COC1=C(C=C2C(=C1)COC2=O)OC
Method: HCD
Collision_energy: [28.333334]
Isolation_window: 4.0
Ion_mode: P
Num Peaks: 30
55.0182	1.1
107.0493	3.4
111.0442	1.3
121.0285	1.7
121.0648	3.2
125.0597	10.2
131.0491	2.3
136.0756	2.1
139.0753	1.9
149.0597	19.1
150.0630	1.5
152.0707	0.9
153.0546	26.7
154.0580	2.0
164.0706	2.5
167.0702	5.7
177.0545	31.5
178.0579	3.5
178.1225	2.8
194.0811	1.8
194.1175	1.8
194.1539	0.9
195.0651	100.0
195.1855	2.8
196.0425	2.1
196.0683	10.1
196.0967	2.6
196.1330	2.6
197.0445	0.9
197.0703	0.9

Name: 5,7-Dihydroxy-4-methylcoumarin
PrecursorMZ: 193.04957
RT: 6.0151
ExactMass: 192.04225873
Spectrum_type: 2
charge: 1
Formula: C10H8O4
SMILES: CC1=CC(=O)OC2=CC(=CC(=C12)O)O
Method: HCD
Collision_energy: [28.333334]
Isolation_window: 4.0
Ion_mode: P
Num Peaks: 18
109.0649	3.4
121.0649	10.8
145.0397	3.9
147.0441	5.0
148.0756	4.5
152.0707	4.2
163.0866	6.9
166.0862	4.1
168.0656	15.1
191.0451	10.4
192.0657	7.4
192.1018	6.1
193.0495	100.0
194.0527	11.7
194.0812	17.2
194.1175	8.0
195.0762	16.2
196.0602	3.3

Name: 5,8-Dihydroxy-3,5,8-trimethyl-4a,5,6,7,7a,8,9,9a-octahydroazuleno(6,5-b)furan-2(4h)-one
PrecursorMZ: 231.13758
RT: 0.86765
ExactMass: 266.15180918
Spectrum_type: 2
charge: 1
Formula: C15H22O4
SMILES: CC1=C2CC3C(CCC3(C)O)C(CC2OC1=O)(C)O
Method: HCD
Collision_energy: [28.333334]
Isolation_window: 4.0
Ion_mode: P
Num Peaks: 9
119.0854	10.5
142.0775	4.3
143.0853	3.7
157.1009	100.0
158.1039	10.3
175.1112	5.4
185.1320	30.3
186.1355	5.3
231.1373	12.6

Name: 5,8-Dimethoxyquinoline-2-carbaldehyde
PrecursorMZ: 218.08095
RT: 8.795866666666667
ExactMass: 217.07389321
Spectrum_type: 2
charge: 1
Formula: C12H11NO3
SMILES: COC1=C2C=CC(=NC2=C(C=C1)OC)C=O
Method: HCD
Collision_energy: [28.333334]
Isolation_window: 4.0
Ion_mode: P
Num Peaks: 18
84.0810	8.7
98.0965	8.7
100.0758	54.8
101.0791	3.4
130.0863	5.8
143.1178	11.3
160.0604	3.4
161.1284	8.1
217.1180	5.5
217.1544	47.3
218.0809	100.0
218.0908	3.6
218.1017	7.1
218.1173	3.3
218.1384	20.9
218.1578	5.6
219.0846	13.5
219.1126	10.9

Name: 5,9-dihydroxy-5,7,7-trimethyl-4,5a,6,8,8a,9-hexahydro-1H-azuleno(5,6-c)furan-3-one
PrecursorMZ: 289.14069
RT: 1.2493333333333334
ExactMass: 266.15180918
Spectrum_type: 2
charge: 1
Formula: C15H22O4
SMILES: CC1(CC2C(C1)C(CC3=C(C2O)COC3=O)(C)O)C
Method: HCD
Collision_energy: [28.333334]
Isolation_window: 4.0
Ion_mode: P
Num Peaks: 60
67.0546	0.5
69.0702	1.6
79.0545	0.5
81.0700	0.5
87.0441	0.5
88.0759	1.2
91.0544	3.5
93.0700	0.8
95.0857	0.5
97.0649	0.6
99.0441	0.5
106.0863	2.2
107.0856	0.8
109.1011	0.5
121.0647	0.7
124.0754	0.5
135.0438	0.7
135.1167	1.5
136.0472	0.4
140.1068	0.9
153.1271	0.6
177.0542	0.8
201.0542	0.8
202.0576	2.5
203.0603	0.7
215.1790	0.4
225.1481	0.6
229.1331	0.8
243.1587	4.7
244.1621	1.3
257.1280	2.3
258.1323	0.5
259.1437	1.3
270.2421	0.5
287.1466	3.1
287.1847	5.3
287.1997	0.8
288.0862	0.8
288.1216	1.2
288.1479	1.2
288.1589	1.3
288.1870	1.7
288.1933	0.5
288.2527	0.6
288.2889	2.7
289.1068	0.7
289.1140	0.5
289.1181	0.5
289.1405	100.0
289.1544	1.0
289.1675	0.5
289.1743	0.7
289.2150	1.6
289.2920	0.7
290.0071	0.6
290.1014	0.4
290.1407	0.4
290.1439	12.9
290.1737	1.3
291.1378	2.9

Name: 5-((2-Chlorophenyl)methylamino)-2-pentan-3-yl-1,3-oxazole-4-carbonitrile
PrecursorMZ: 304.12132
RT: 6.5309
ExactMass: 303.1138399
Spectrum_type: 2
charge: 1
Formula: C16H18ClN3O
SMILES: CCC(CC)C1=NC(=C(O1)NCC2=CC=CC=C2Cl)C#N
Method: HCD
Collision_energy: [28.333334]
Isolation_window: 4.0
Ion_mode: P
Num Peaks: 14
69.0339	6.4
99.0442	4.6
101.0600	3.3
180.1020	6.9
206.0847	3.8
286.1097	4.1
303.1325	4.7
303.1693	5.7
304.1210	100.0
304.2998	3.1
305.1252	17.5
305.1478	5.7
306.1171	2.9
306.1323	3.8

Name: 5-((3AS,4R,6AR)-2-Oxohexahydro-1H-thieno(3,4-D)imidazol-4-YL)pentanoic acid
PrecursorMZ: 245.0953
RT: 6.1058
ExactMass: 244.08816355
Spectrum_type: 2
charge: 1
Formula: C10H16N2O3S
SMILES: C1[C@H]2[C@@H]([C@H](S1)CCCCC(=O)O)NC(=O)N2
Method: HCD
Collision_energy: [28.333334]
Isolation_window: 4.0
Ion_mode: P
Num Peaks: 49
70.0656	1.2
71.0495	0.9
84.0448	1.2
86.0604	6.4
86.0968	2.4
97.0398	2.1
98.0603	4.9
98.0968	1.0
100.0759	3.3
102.0553	1.5
112.0759	1.3
112.8959	1.5
114.0915	8.0
115.0948	0.9
123.0263	1.0
129.0660	1.0
132.1019	1.0
138.0914	2.2
139.0574	1.0
152.0707	1.0
166.0685	2.2
166.0864	3.4
167.0526	1.5
180.1016	1.0
183.1129	1.1
184.0791	1.6
198.1125	9.1
199.0898	2.2
207.1127	4.0
209.0739	2.4
209.0918	1.4
225.1233	3.7
226.1074	5.4
226.1801	1.4
227.0848	100.0
227.1029	3.0
228.0885	11.0
229.0804	3.0
243.1338	7.9
243.1703	1.0
244.1181	3.9
244.1330	1.9
244.1388	1.8
244.2018	1.3
245.0952	16.8
245.1132	1.2
245.1497	1.0
246.0987	1.9
246.1125	1.5

Name: 5-((4-Benzylpiperidin-1-yl)methyl)-2,6-dioxo-1,2,3,6-tetrahydropyrimidine-4-carboxylic acid
PrecursorMZ: 366.14219
RT: 1.9922
ExactMass: 343.15320616
Spectrum_type: 2
charge: 1
Formula: C18H21N3O4
SMILES: C1CN(CCC1CC2=CC=CC=C2)CC3=C(NC(=O)NC3=O)C(=O)O
Method: HCD
Collision_energy: [28.333334]
Isolation_window: 4.0
Ion_mode: P
Num Peaks: 5
112.8958	12.2
114.8930	9.0
139.9145	7.6
366.1420	100.0
367.1458	17.1

Name: 5-((Z)-14-(3,5-Dihydroxyphenyl)Tetradec-10-Enyl)Benzene-1,3-Diol
PrecursorMZ: 435.24988
RT: 2.5835
ExactMass: 412.26135963
Spectrum_type: 2
charge: 1
Formula: C26H36O4
SMILES: C1=C(C=C(C=C1O)O)CCCCCCCCC/C=C\CCCC2=CC(=CC(=C2)O)O
Method: HCD
Collision_energy: [28.333334]
Isolation_window: 4.0
Ion_mode: P
Num Peaks: 21
57.0339	10.4
57.0703	20.5
67.0545	6.3
69.0702	11.0
71.0858	18.7
81.0701	11.9
83.0857	8.2
85.1013	9.2
95.0857	20.1
98.9843	25.8
109.1012	10.1
136.9997	59.4
140.9947	14.9
155.0102	60.3
193.0258	9.4
197.0206	26.3
211.0361	8.8
299.2573	29.4
300.2608	8.5
435.2497	100.0
436.2522	23.0

Name: 5-(2-(3-Hydroxy-5-methoxyphenyl)ethyl)-2-methoxyphenol
PrecursorMZ: 297.10965
RT: 3.2274
ExactMass: 274.12050905
Spectrum_type: 2
charge: 1
Formula: C16H18O4
SMILES: COC1=C(C=C(C=C1)CCC2=CC(=CC(=C2)OC)O)O
Method: HCD
Collision_energy: [28.333334]
Isolation_window: 4.0
Ion_mode: P
Num Peaks: 3
154.0864	100.0
297.1093	73.8
297.1443	74.0

Name: 5-(2-(Furan-3-YL)ethyl)-8-hydroxy-5,6,8A-trimethyl-3,4,4A,6,7,8-hexahydronaphthalene-1-carboxylic acid
PrecursorMZ: 315.19544
RT: 1.4057
ExactMass: 332.19875937
Spectrum_type: 2
charge: 1
Formula: C20H28O4
SMILES: CC1CC(C2(C(C1(C)CCC3=COC=C3)CCC=C2C(=O)O)C)O
Method: HCD
Collision_energy: [28.333334]
Isolation_window: 4.0
Ion_mode: P
Num Peaks: 46
72.0811	4.6
86.0968	28.0
93.0701	49.9
94.0736	3.7
95.0858	23.6
105.0700	7.6
107.0857	9.7
112.8959	8.0
119.0857	12.9
121.0649	16.1
121.1013	27.9
123.0805	6.0
131.0856	5.6
132.1019	9.2
133.1012	8.9
143.0856	3.6
145.1013	8.0
147.0804	7.2
147.1169	4.4
149.0962	17.3
157.1013	6.5
159.1169	5.3
161.0962	6.1
171.1170	4.6
173.0962	5.0
175.0754	17.0
175.1118	18.7
185.1648	5.0
201.1274	5.6
203.1067	11.6
206.1177	8.0
213.1594	4.8
251.1792	3.8
269.1898	14.1
279.1741	8.7
297.1847	34.3
298.1880	5.4
314.1027	3.8
315.1331	4.3
315.1952	100.0
316.1174	6.6
316.1538	3.8
316.1988	20.5
317.1129	7.4
317.1488	3.8
317.1929	12.1

Name: 5-(2-Methyl-3-(pyridin-3-yl)-1H-indol-1-yl)pentanoic acid
PrecursorMZ: 309.15953
RT: 6.7192
ExactMass: 308.152477885
Spectrum_type: 2
charge: 1
Formula: C19H20N2O2
SMILES: CC1=C(C2=CC=CC=C2N1CCCCC(=O)O)C3=CN=CC=C3
Method: HCD
Collision_energy: [28.333334]
Isolation_window: 4.0
Ion_mode: P
Num Peaks: 34
55.0547	5.7
59.0496	3.4
70.0655	4.3
83.0493	2.8
84.0811	2.8
101.0599	9.2
208.0971	3.9
209.1072	33.8
210.1110	4.4
292.1155	2.6
307.1646	9.5
307.2006	10.5
308.1114	8.8
308.1145	7.8
308.1305	2.5
308.1483	25.9
308.1848	4.8
308.1985	7.6
308.2216	14.2
309.1225	5.2
309.1452	4.1
309.1591	100.0
309.1797	21.4
309.2150	5.1
309.2183	4.1
310.1073	3.5
310.1277	20.2
310.1447	3.1
310.1629	27.3
310.1795	3.5
311.1044	4.1
311.1380	7.0
311.1615	3.8
311.1948	7.2

Name: 5-(3,3-Dimethylguanidino)-2-oxopentanoic acid
PrecursorMZ: 202.11833
RT: 10.3921
ExactMass: 201.11134135
Spectrum_type: 2
charge: 1
Formula: C8H15N3O3
SMILES: CN(C)C(=NCCCC(=O)C(=O)O)N
Method: HCD
Collision_energy: [28.333334]
Isolation_window: 4.0
Ion_mode: P
Num Peaks: 13
70.0654	100.0
71.0494	15.9
72.0810	6.5
84.0809	14.0
88.0757	6.6
90.0551	8.3
114.0914	6.8
130.0859	6.0
201.1021	9.2
202.1068	11.9
202.1182	30.7
202.1797	7.5
204.1330	7.0

Name: 5-(5-Hydroxy-3-(hydroxymethyl)pentyl)-8a-(hydroxymethyl)-5,6-dimethyl-3,4,4a,6,7,8-hexahydronaphthalene-1-carboxylic acid
PrecursorMZ: 355.24788
RT: 4.716
ExactMass: 354.24062418
Spectrum_type: 2
charge: 1
Formula: C20H34O5
SMILES: CC1CCC2(C(C1(C)CCC(CCO)CO)CCC=C2C(=O)O)CO
Method: HCD
Collision_energy: [28.333334]
Isolation_window: 4.0
Ion_mode: P
Num Peaks: 74
67.0547	24.8
69.0703	34.0
71.0496	16.6
79.0546	15.1
81.0703	74.4
83.0859	14.7
85.0651	30.7
86.0968	21.8
89.0600	26.9
93.0702	43.1
95.0494	17.4
95.0858	62.6
97.0650	19.4
97.1014	20.7
99.0443	13.3
99.0807	26.8
105.0701	23.2
107.0857	44.7
109.1014	46.1
111.0807	19.8
114.0915	100.0
119.0856	29.2
121.0649	13.2
121.1014	36.2
123.0804	16.5
123.1168	22.7
125.0963	23.3
127.1119	13.8
131.0855	16.9
133.1012	30.7
135.0803	16.3
135.1169	33.1
137.0961	18.6
145.1012	23.0
147.1168	35.9
149.0963	14.2
149.1325	18.4
151.1119	14.3
159.1168	23.2
161.0963	15.3
161.1327	19.5
163.1115	20.4
169.1013	14.0
171.1165	17.4
173.1327	15.9
175.1481	14.3
177.1277	15.9
185.1326	14.9
187.1484	14.9
208.1331	14.7
209.1644	21.7
212.0918	14.3
232.0946	30.0
298.1077	19.4
301.2162	27.3
303.2316	16.6
309.1800	17.3
319.2267	34.9
337.2365	39.9
338.2433	41.0
339.2521	16.1
340.2093	12.9
354.1705	14.5
354.2363	14.1
355.1650	17.0
355.1874	17.7
355.2261	18.2
355.2476	23.1
356.1690	21.6
356.2173	13.6
356.2546	28.7
357.1449	19.4
357.2047	17.2
357.2424	28.0

Name: 5-(5-methoxycarbonyl-5,8a-dimethyl-2-methylidene-3,4,4a,6,7,8-hexahydro-1H-naphthalen-1-yl)-3-methylpentanoic acid
PrecursorMZ: 351.25237
RT: 1.2065333333333335
ExactMass: 350.24570956
Spectrum_type: 2
charge: 1
Formula: C21H34O4
SMILES: CC(CCC1C(=C)CCC2C1(CCCC2(C)C(=O)OC)C)CC(=O)O
Method: HCD
Collision_energy: [28.333334]
Isolation_window: 4.0
Ion_mode: P
Num Peaks: 82
55.0546	4.0
57.0339	9.4
57.0703	2.4
67.0546	17.7
69.0702	11.7
71.0859	15.3
79.0545	13.2
81.0337	3.9
81.0701	25.4
83.0494	3.4
83.0858	9.2
85.0650	3.4
91.0544	8.6
93.0700	22.0
95.0493	6.9
95.0857	21.2
97.0650	3.3
97.1013	4.5
99.0806	11.2
105.0700	10.9
107.0856	18.8
109.0648	2.6
109.1013	11.7
111.0803	2.6
113.0962	1.9
117.0699	3.2
119.0856	10.2
121.1012	18.1
123.0804	2.9
123.1168	4.8
125.0961	3.4
131.0854	5.9
133.1011	13.5
135.1167	15.6
137.0961	2.1
143.0855	1.8
145.1010	6.1
147.1167	12.9
149.0960	2.1
149.1324	10.0
151.1117	14.1
153.1274	3.1
159.1167	6.0
161.1324	10.2
163.1117	2.7
163.1481	3.6
165.1273	3.3
171.1167	2.7
173.1321	4.1
175.1480	4.3
177.1274	2.0
179.1428	13.6
180.1017	18.8
181.1049	2.2
185.1324	3.5
187.1479	3.2
189.1272	1.8
196.0967	4.3
199.1479	2.0
226.1436	3.3
228.1229	2.2
231.2105	2.2
241.1948	6.1
243.2106	2.8
259.2052	19.5
260.2082	2.9
261.2211	12.3
277.2158	29.8
278.2193	6.6
279.2318	3.3
333.2418	1.9
335.2572	2.2
349.2375	2.5
349.2727	7.0
350.2403	2.8
350.2755	2.8
351.1946	2.4
351.2290	7.4
351.2524	100.0
351.2875	1.9
352.2557	22.8
353.2680	20.4

Name: 5-(6-(3-Hydroxy-4-methoxyphenyl)-1,3,3a,4,6,6a-hexahydrofuro(3,4-c)furan-3-yl)-2-methoxyphenol
PrecursorMZ: 376.17512
RT: 1.3899
ExactMass: 358.14163842
Spectrum_type: 2
charge: 1
Formula: C20H22O6
SMILES: COC1=C(C=C(C=C1)C2C3COC(C3CO2)C4=CC(=C(C=C4)OC)O)O
Method: HCD
Collision_energy: [28.333334]
Isolation_window: 4.0
Ion_mode: P
Num Peaks: 63
69.0703	3.0
81.0703	2.7
83.0494	4.1
95.0857	1.9
105.0701	1.9
107.0493	100.0
107.0856	2.3
108.0526	6.6
121.1012	3.0
131.0491	3.6
137.0597	5.1
145.0648	6.4
148.0733	4.2
159.1169	2.1
173.0598	3.1
189.0546	7.0
218.0786	19.1
219.0821	2.0
223.0751	7.3
224.0785	2.8
225.0908	33.2
226.0942	4.1
231.0654	2.1
233.0809	2.3
235.0962	2.9
249.0761	2.4
249.0910	10.6
250.0947	2.2
251.0702	1.9
251.0916	2.1
263.0913	7.8
264.0946	3.5
265.0855	3.6
267.1013	40.3
268.1048	6.4
277.0860	1.8
285.1118	2.3
293.0804	3.6
294.0847	2.3
295.0962	37.6
296.0995	6.8
297.1126	5.8
298.1153	3.6
299.1276	30.0
300.1310	4.6
321.1332	2.3
327.1223	38.7
328.1257	8.3
346.2010	4.5
359.1487	5.5
359.1847	5.5
360.1522	2.0
374.1600	1.8
375.1890	91.2
375.2150	1.9
376.1928	18.4
376.2135	2.2
377.1391	3.9
377.1778	38.8
377.1965	12.0
378.1314	10.4
378.1802	2.5
378.2143	26.6

Name: 5-(8,11,14-Pentadecatrienyl)resorcinol
PrecursorMZ: 337.21332
RT: 1.4693
ExactMass: 314.224580195
Spectrum_type: 2
charge: 1
Formula: C21H30O2
SMILES: C=CC/C=C/C/C=C/CCCCCCCC1=CC(=CC(=C1)O)O
Method: HCD
Collision_energy: [28.333334]
Isolation_window: 4.0
Ion_mode: P
Num Peaks: 102
55.0546	2.2
57.0339	2.1
57.0703	2.2
67.0546	6.3
69.0702	5.8
71.0858	2.9
72.0811	3.4
79.0545	3.5
81.0337	5.6
81.0701	10.1
83.0494	1.7
83.0858	4.5
86.0967	2.2
93.0700	5.2
95.0492	2.7
95.0605	4.6
95.0857	9.7
97.0647	1.7
97.1013	3.3
99.0805	1.9
105.0698	2.0
107.0856	3.7
109.0649	1.9
109.1012	4.7
112.0870	4.1
119.0855	2.5
120.0808	6.6
121.0649	6.9
121.1012	5.6
123.1168	2.4
124.0756	14.3
125.0835	2.4
126.0912	3.7
132.1020	2.0
133.1009	2.7
135.0440	3.7
135.1167	3.3
136.0756	1.7
138.0911	3.4
140.0376	1.9
147.0437	1.7
147.1166	2.0
149.1324	2.5
162.0198	1.8
164.0705	31.3
165.1273	2.5
168.1018	18.9
169.1052	2.0
177.0543	1.7
180.1016	1.7
196.0965	26.8
198.1490	2.0
201.0545	16.5
202.0582	1.8
204.1018	2.0
210.1119	3.1
212.1272	1.7
214.1073	1.7
219.1486	2.5
235.1074	2.3
245.1278	2.0
247.1442	2.0
277.1545	2.0
283.0597	17.6
288.1946	2.0
295.1654	2.8
305.1857	4.7
306.2058	5.5
317.2471	3.2
318.2495	1.6
319.2260	1.8
319.2628	1.6
335.2574	9.2
336.0000	3.3
336.1627	2.3
336.2174	2.9
336.2508	2.3
336.2563	5.4
336.2624	2.0
336.2873	2.4
336.3006	5.1
337.1759	2.7
337.2134	100.0
337.2352	2.2
337.2527	5.6
337.2693	5.3
337.2729	11.0
338.1384	12.3
338.1591	6.6
338.2174	19.5
338.2321	2.8
338.2687	5.8
338.3158	5.1
338.3415	2.3
339.1214	7.9
339.1416	2.2
339.1723	2.4
339.1914	1.8
339.2110	5.6
339.2502	2.0
339.2679	3.2
339.2886	10.2

Name: 5-(8Z,11Z)-8,11-Pentadecadien-1-yl-1,3-benzenediol
PrecursorMZ: 339.22883
RT: 1.5492
ExactMass: 316.240230259
Spectrum_type: 2
charge: 1
Formula: C21H32O2
SMILES: CCC/C=C\C/C=C\CCCCCCCC1=CC(=CC(=C1)O)O
Method: HCD
Collision_energy: [28.333334]
Isolation_window: 4.0
Ion_mode: P
Num Peaks: 105
55.0546	4.6
57.0339	3.3
57.0703	7.3
62.0604	3.2
67.0546	12.3
69.0703	21.5
71.0495	3.9
71.0859	11.7
72.0811	3.4
74.0240	13.7
76.0396	9.4
79.0545	5.7
81.0702	21.9
83.0494	3.1
83.0858	23.1
85.0650	5.3
86.0603	3.2
86.0967	4.6
91.0544	5.9
93.0700	13.5
95.0857	20.0
96.0810	9.9
97.0649	4.8
97.1013	9.8
99.0554	9.6
99.0806	6.4
105.0700	8.3
107.0857	11.9
109.0648	4.6
109.1013	14.2
111.0441	4.5
111.0805	6.7
113.1073	6.1
114.0914	12.7
119.0856	11.4
121.0650	3.6
121.1012	16.8
123.0804	6.3
123.1168	6.9
124.0756	3.7
125.0962	4.5
126.0913	26.7
128.0707	4.2
130.0862	27.1
131.0855	4.9
133.1012	5.3
135.0803	3.5
135.1167	9.4
136.0756	7.0
137.0960	4.2
147.1168	19.6
149.0960	6.6
149.1326	4.3
153.1274	4.2
159.1168	3.4
161.1325	3.7
163.1114	4.3
164.0705	100.0
165.0738	10.4
165.0909	3.4
165.1275	8.1
175.1116	5.5
179.1429	5.4
181.1222	13.0
182.0811	4.6
191.1066	5.7
193.1221	10.5
196.0966	81.9
197.1000	7.7
209.1646	20.9
212.1279	5.8
214.1072	6.4
227.1750	11.7
265.1793	3.3
284.0630	3.9
303.2313	8.6
305.2101	3.2
320.1848	5.7
321.2416	21.9
321.2577	3.5
322.2015	7.5
322.2482	31.9
323.2513	4.4
337.2348	13.4
337.2855	9.3
338.1095	38.6
338.2376	8.1
338.2888	3.4
339.1125	7.0
339.1334	7.8
339.1550	5.4
339.1909	7.3
339.2291	6.3
339.2504	24.0
339.2686	9.3
339.2886	29.6
340.1172	3.9
340.1375	4.7
340.1754	3.5
340.2098	4.1
340.2590	48.7
340.2859	6.9
340.3933	11.7
341.2310	3.5
341.2620	6.1

Name: 5-(Carbamoylamino)-2-)(2-phenylacetyl)amino(pentanoic acid
PrecursorMZ: 294.1447
RT: 4.2354
ExactMass: 293.1375561
Spectrum_type: 2
charge: 1
Formula: C14H19N3O4
SMILES: C1=CC=C(C=C1)CC(=O)NC(CCCNC(=O)N)C(=O)O
Method: HCD
Collision_energy: [28.333334]
Isolation_window: 4.0
Ion_mode: P
Num Peaks: 39
60.0561	2.3
70.0656	3.3
84.0811	1.8
91.0542	1.9
98.0604	4.7
116.0710	4.8
120.0810	2.9
121.0890	3.1
132.0445	3.9
137.0599	4.1
148.0759	11.1
166.0865	41.0
167.0905	4.1
217.1340	11.0
244.1449	3.8
245.1288	58.8
246.1318	8.7
248.1398	4.4
249.1236	30.1
250.1270	4.0
250.1553	3.3
277.1186	9.9
278.1216	1.9
287.1508	7.8
292.1217	2.5
292.1550	10.3
293.1568	3.8
294.1452	100.0
295.1486	15.1
296.1508	5.1
297.1481	1.9
304.1771	82.1
304.2976	1.8
305.1803	14.4
306.1341	2.8
309.1438	2.6
310.1323	3.8
312.1418	2.4
313.1767	2.5

Name: 5-(Diaminomethylideneamino)-2-(hexanoylamino)pentanoic acid
PrecursorMZ: 273.19169
RT: 6.981744444444445
ExactMass: 272.18484064
Spectrum_type: 2
charge: 1
Formula: C12H24N4O3
SMILES: CCCCCC(=O)NC(CCCN=C(N)N)C(=O)O
Method: HCD
Collision_energy: [28.333334]
Isolation_window: 4.0
Ion_mode: P
Num Peaks: 68
60.0560	3.4
70.0654	15.4
81.0337	3.9
84.0446	3.3
84.0810	3.4
86.0601	2.2
97.0285	7.3
98.0601	3.0
99.0805	3.0
100.0757	24.8
101.0597	4.7
109.0284	2.4
111.0441	2.9
112.0757	10.6
112.0869	6.5
113.0709	3.4
114.0549	3.8
114.0661	4.4
114.1025	2.7
115.0866	10.8
116.0705	16.0
118.0862	3.2
130.0497	9.1
130.0861	7.3
130.0971	2.8
140.0704	9.7
142.0496	5.2
152.0704	2.4
155.0448	5.3
158.0922	30.2
164.0704	2.5
175.1187	20.0
184.0712	7.5
192.0652	3.2
196.0966	2.6
210.0869	4.4
213.1595	5.4
214.1433	16.6
226.0707	2.2
226.1068	4.5
226.1183	2.3
228.0975	2.2
236.1024	3.2
238.0708	7.6
238.1067	3.0
254.1015	6.2
254.1131	7.8
255.0968	2.5
256.0804	2.9
256.0925	6.2
256.1172	3.7
256.1289	2.3
256.1649	14.5
257.1277	5.2
272.1117	17.6
272.1238	23.4
273.1078	3.1
273.1266	2.4
273.1439	7.3
273.1914	100.0
274.0906	2.4
274.1039	8.8
274.1277	5.9
274.1397	7.8
274.1757	2.3
274.1946	12.7
275.0697	2.4
275.1388	3.6

Name: 5-(Diaminomethylideneamino)-2-(octadecanoylamino)pentanoic acid
PrecursorMZ: 441.37949
RT: 5.1122
ExactMass: 440.37264141
Spectrum_type: 2
charge: 1
Formula: C24H48N4O3
SMILES: CCCCCCCCCCCCCCCCCC(=O)NC(CCCN=C(N)N)C(=O)O
Method: HCD
Collision_energy: [28.333334]
Isolation_window: 4.0
Ion_mode: P
Num Peaks: 25
57.0703	2.9
60.0560	4.8
70.0654	16.7
71.0858	3.8
81.0701	2.4
84.0810	9.2
95.0856	2.6
112.0869	7.7
114.1026	2.8
115.0866	8.6
116.0705	15.6
130.0859	2.2
130.0972	2.5
158.0922	26.1
175.1187	15.4
299.2576	8.0
316.1529	2.4
381.3468	2.2
382.3303	7.8
383.3343	2.4
424.3515	8.2
440.3662	3.3
441.3788	100.0
442.3822	25.6
443.3848	3.0

Name: 5-(Hydroxymethyl)furfural
PrecursorMZ: 109.02855
RT: 5.8216
ExactMass: 126.031694049
Spectrum_type: 2
charge: 1
Formula: C6H6O3
SMILES: C1=C(OC(=C1)C=O)CO
Method: HCD
Collision_energy: [28.333334]
Isolation_window: 4.0
Ion_mode: P
Num Peaks: 10
53.0390	10.5
55.0182	13.4
67.0546	3.3
81.0337	90.3
81.0701	2.0
82.0370	4.2
109.0284	100.0
110.0317	6.3
110.0600	10.8
111.0441	8.5

Name: 5-)(8aS)-2,5,5,8a-tetramethyl-3-oxo-4a,6,7,8-tetrahydro-4H-naphthalen-1-yl(-3-methylpentanoic acid
PrecursorMZ: 321.2423
RT: 0.5507
ExactMass: 320.23514488
Spectrum_type: 2
charge: 1
Formula: C20H32O3
SMILES: CC1=C([C@]2(CCCC(C2CC1=O)(C)C)C)CCC(C)CC(=O)O
Method: HCD
Collision_energy: [28.333334]
Isolation_window: 4.0
Ion_mode: P
Num Peaks: 405
55.0185	0.5
55.0547	4.6
57.0340	1.5
57.0704	3.5
58.0657	0.7
59.0497	8.7
62.0605	0.7
67.0548	5.7
69.0340	2.4
69.0704	8.3
70.0657	2.3
71.0497	4.0
71.0861	2.3
72.0812	0.9
73.0653	0.7
79.0546	3.4
81.0340	3.0
81.0704	15.8
82.0736	1.1
83.0496	4.4
83.0860	32.0
84.0811	0.8
84.0892	0.5
85.0288	1.0
85.0653	5.6
85.1017	1.3
86.0605	1.1
86.0969	3.5
87.0445	2.7
88.0762	1.1
89.0601	3.4
91.0546	3.5
93.0703	13.4
94.0734	1.1
95.0495	4.8
95.0859	17.2
96.0892	1.3
97.0651	5.5
97.1015	3.1
98.0605	0.6
98.9845	1.9
99.0444	4.5
99.0808	3.7
100.0761	0.6
101.0600	2.8
102.0918	0.6
105.0702	7.0
106.0735	0.6
107.0496	1.5
107.0859	14.3
108.0893	1.4
109.0651	6.5
109.1015	14.3
110.0603	0.8
110.1048	1.1
111.0444	2.3
111.0808	6.6
111.1173	1.3
112.0762	2.8
112.0840	0.5
113.0601	3.3
113.0964	1.6
115.0393	1.2
115.0757	6.0
116.0708	0.5
117.0701	1.7
117.0913	2.7
119.0494	0.5
119.0858	9.4
120.0811	0.5
120.0893	0.9
121.0652	3.9
121.1015	12.3
122.0602	0.7
122.1049	1.1
123.0445	1.1
123.0807	5.8
123.1171	10.3
124.0762	2.6
124.0843	0.5
124.1205	0.9
125.0601	2.3
125.0964	4.3
126.0720	0.7
126.0916	100.0
126.1105	0.5
127.0389	0.6
127.0756	2.8
127.1119	2.0
128.0708	1.3
129.0551	1.6
129.0700	1.1
129.0912	1.4
130.0864	0.5
131.0858	5.0
133.0652	1.2
133.0866	1.4
133.1014	9.9
134.0963	0.7
134.1050	1.2
135.0443	0.5
135.0807	5.1
135.1170	7.5
136.0750	0.6
136.0842	0.5
136.1118	0.5
136.1209	0.7
137.0600	2.4
137.0963	6.3
137.1327	2.4
138.0913	1.6
138.1002	0.6
139.0755	2.5
139.1119	2.8
140.1064	0.6
141.0550	0.7
141.0912	2.3
141.1272	0.8
143.0707	0.7
143.0857	2.8
143.1063	0.8
145.0649	0.7
145.1014	7.7
146.1051	1.0
147.0807	3.1
147.1171	7.0
148.0759	0.5
148.1215	0.9
149.0602	1.3
149.0963	6.7
149.1327	4.5
150.0546	0.8
150.0897	0.8
150.1005	0.5
151.0759	2.3
151.0971	1.0
151.1119	4.0
151.1481	0.7
152.0708	0.5
152.1065	0.8
153.0554	0.6
153.0913	2.8
153.1276	1.5
155.0728	1.0
155.0855	1.1
155.1069	2.2
157.0868	0.6
157.1013	4.4
158.1051	0.5
159.0808	1.7
159.1170	6.6
160.1210	0.7
161.0601	0.6
161.0963	3.5
161.1327	4.2
162.0895	0.8
162.1380	0.6
163.0756	1.6
163.1119	4.5
163.1482	1.7
164.0702	0.9
164.1054	1.5
165.0912	4.0
165.1276	1.9
166.0848	1.2
166.1223	2.5
167.0706	0.8
167.1067	2.0
167.1433	0.5
168.1378	0.7
169.0862	0.9
169.1014	2.2
169.1225	2.1
170.0813	0.6
171.0807	0.7
171.1020	0.6
171.1169	3.5
172.1211	0.7
173.0963	1.7
173.1176	0.7
173.1324	4.9
174.1375	0.6
175.0755	1.1
175.1120	3.5
175.1331	0.6
175.1484	2.6
176.1073	0.6
177.0910	2.0
177.1273	2.5
177.1638	1.2
178.0857	0.6
178.1222	2.5
179.0705	0.8
179.1062	2.3
179.1434	0.6
180.1029	1.4
180.1384	11.4
181.0860	0.7
181.0992	0.9
181.1220	1.4
181.1414	1.0
182.1180	2.9
183.1016	0.9
183.1174	2.0
185.0963	1.4
185.1327	3.3
187.0759	0.5
187.1120	2.8
187.1483	2.8
189.0908	1.0
189.1276	3.0
189.1643	1.4
190.0865	0.5
191.0702	0.5
191.1067	1.8
191.1433	1.9
191.1799	0.6
192.1010	1.2
192.1368	0.6
193.1219	1.7
193.1591	0.5
194.1178	2.6
194.1538	1.0
195.1012	0.7
195.1184	1.1
195.1384	0.9
196.0969	2.6
196.1336	1.1
197.0981	0.6
197.1168	0.5
197.1326	1.9
199.1121	1.6
199.1484	2.6
201.0914	0.6
201.1279	2.5
201.1642	1.6
203.1062	1.3
203.1433	1.9
203.1803	0.7
204.1031	0.5
205.1224	3.7
205.1586	1.1
206.1175	1.1
207.1134	4.1
207.1381	2.3
208.0967	0.6
208.1189	0.6
208.1346	3.8
209.1318	1.9
209.1544	0.5
210.1129	3.4
211.1157	0.9
211.1486	1.8
212.1284	7.8
213.1368	1.7
213.1645	1.4
215.1082	1.0
215.1442	1.3
215.1792	0.8
217.1221	2.0
217.1580	0.9
218.1202	0.5
219.1375	2.6
219.1733	1.1
220.1338	0.8
221.1524	1.2
223.1327	1.3
223.1491	1.0
225.1295	0.7
225.1652	1.2
227.1441	1.2
227.1793	1.0
229.1235	1.0
229.1587	1.3
231.1377	1.1
231.1746	0.7
233.1511	0.8
235.1302	1.2
235.1664	0.6
236.1279	0.9
237.1491	0.8
239.1434	0.8
239.1814	0.7
241.1591	1.0
241.1956	0.5
242.2486	0.8
243.1374	0.6
243.1753	1.0
245.1540	1.0
245.1903	0.5
247.1329	0.5
247.1699	1.1
248.1295	0.5
249.1860	0.5
251.1827	0.6
255.1750	0.9
256.2632	0.5
257.1541	0.8
257.1913	0.7
257.2665	2.0
259.1354	0.5
259.1688	0.9
261.1854	1.1
262.1441	0.9
263.2011	0.5
269.1538	0.5
269.1895	1.0
271.1696	1.1
272.2586	0.7
273.1509	0.6
273.1852	1.6
275.1676	0.7
275.2010	1.1
276.1604	0.6
277.2166	0.5
278.1397	0.5
279.1732	0.5
281.1896	0.5
283.1697	0.6
285.1850	1.3
285.2212	0.7
286.1832	0.5
287.1662	0.7
287.2006	2.0
288.2039	0.6
289.1527	0.8
289.1806	1.3
289.2163	0.7
291.1960	1.5
293.2121	0.7
295.2011	0.5
297.1849	0.9
299.2008	1.6
301.1807	0.6
301.2161	2.1
302.2188	0.9
303.1641	0.7
303.1959	1.5
303.2319	2.7
304.2324	0.7
305.1760	0.8
305.2112	1.6
305.2472	0.9
307.1902	1.3
309.2262	1.3
313.2162	0.6
315.1955	2.7
316.1943	1.1
317.2121	3.0
318.2090	1.3
319.1918	0.6
319.2264	2.3
319.3036	4.8
320.1599	0.7
320.1917	0.5
320.2265	1.5
320.3057	1.1
321.1765	1.7
321.2079	1.1
321.2419	3.2
322.1646	0.7
322.2032	0.8
322.2423	1.2
323.1934	0.9
323.2587	0.7
325.2148	1.1
326.3781	2.0
327.1945	0.7
327.2315	2.4
327.3815	0.5
328.2301	0.5
329.1786	0.7
329.2113	1.2
329.2471	1.6
330.1724	0.5
330.2090	1.0
330.3365	2.3
331.1635	0.8
331.1917	1.0
331.2271	1.2
331.2957	0.7
331.3403	0.5
332.1502	0.7
332.1897	0.9
332.2254	1.2
332.3322	0.7
333.1750	0.8
333.2064	2.9
333.2429	0.7
334.2074	1.2
334.2954	4.7
335.1602	3.3
335.1922	0.8
335.2274	2.4
335.2962	1.3
336.2235	1.1
336.3145	0.6
337.1716	0.8
337.2008	0.8
337.2447	1.2
338.1744	0.9
338.3422	0.6
339.2229	0.8
339.2586	2.2
340.1756	38.5

Name: 5-)(E)-3-hydroxybut-1-enyl(-4-)4-)(E)-3-oxobut-1-enyl(anilino(oxolan-2-one
PrecursorMZ: 333.18073
RT: 2.2938
ExactMass: 315.14705815
Spectrum_type: 2
charge: 1
Formula: C18H21NO4
SMILES: CC(/C=C/C1C(CC(=O)O1)NC2=CC=C(C=C2)/C=C/C(=O)C)O
Method: HCD
Collision_energy: [28.333334]
Isolation_window: 4.0
Ion_mode: P
Num Peaks: 138
55.0546	2.0
58.0656	2.6
70.0657	6.7
72.0813	17.4
81.0339	6.4
83.0496	5.2
84.0813	6.6
86.0605	1.8
86.0968	2.3
89.0602	2.2
94.0655	1.9
95.0608	1.8
96.0446	2.8
96.0812	4.9
98.0968	3.8
100.0760	2.1
101.0601	10.1
109.0760	2.4
110.0606	2.5
110.0716	2.2
111.0444	8.2
114.0664	2.6
120.0810	2.1
121.0652	3.6
122.0604	2.3
123.0443	2.4
124.0763	1.8
124.0873	3.7
126.0915	2.7
130.0864	2.8
132.0446	6.1
134.0604	1.9
136.0758	2.9
144.1020	3.4
147.0922	1.9
148.0755	2.2
149.1079	2.0
150.0915	2.2
152.0710	4.7
152.0821	1.9
154.0866	5.7
160.0759	2.8
162.0912	2.1
169.0976	2.6
170.0931	2.7
171.1128	5.8
178.0849	2.7
180.1012	3.5
190.0858	3.4
194.0938	4.7
196.0719	5.1
201.0907	3.1
206.0937	3.8
207.1131	3.3
209.1289	3.3
215.0701	9.9
215.1169	5.1
224.1062	4.6
225.1240	2.6
226.0862	3.9
227.0710	2.1
233.1276	2.5
235.1068	2.4
237.1229	2.1
240.0660	2.4
240.2329	2.0
244.0972	3.9
245.0805	6.1
273.0754	4.5
274.0831	5.5
275.0915	100.0
276.0949	17.7
277.0981	1.9
278.0805	2.5
279.0889	4.7
280.0956	3.9
285.1230	4.5
286.1668	4.5
294.1106	2.1
297.1240	2.7
310.1082	2.7
322.1077	20.6
323.1090	4.2
324.1552	5.6
330.1566	25.0
331.1643	7.6
331.2346	9.4
332.1483	30.5
332.2382	3.1
332.3312	1.9
333.1495	14.5
333.1820	22.1
334.1284	11.7
334.1714	18.9
334.2101	7.6
335.1628	19.5
335.1996	6.1
336.1440	5.6
336.1945	4.3
337.1805	9.8
337.2147	3.0
338.1594	9.2
338.2030	5.4
339.1318	6.8
339.1628	2.7
339.1934	4.8
339.2306	2.0
340.1176	23.6
340.1560	4.2
340.1926	5.2
341.1181	3.6
341.1509	12.0
341.2075	1.9
342.1294	10.6
342.1749	5.6
343.1319	5.0
343.1669	13.5
344.1494	39.9
344.1875	2.6
345.1492	20.0
345.1838	10.1
346.1299	3.0
346.1661	31.9
346.3325	5.6
347.1624	17.8
347.1990	4.7
348.1433	2.8
348.1872	8.1
348.2762	2.3
349.1775	16.8
349.2149	3.8
350.1638	9.9
350.2071	15.9
351.1601	2.5
351.1963	5.4
352.1204	2.7
352.1758	2.5
352.2150	13.2

Name: 5-)2-(Furan-3-YL)ethyl(-8-hydroxy-5,6,8A-trimethyl-3,4,4A,6,7,8-hexahydronaphthalene-1-carboxylic acid
PrecursorMZ: 315.1955
RT: 0.5627
ExactMass: 332.19875937
Spectrum_type: 2
charge: 1
Formula: C20H28O4
SMILES: CC1CC(C2(C(C1(C)CCC3=COC=C3)CCC=C2C(=O)O)C)O
Method: HCD
Collision_energy: [28.333334]
Isolation_window: 4.0
Ion_mode: P
Num Peaks: 301
55.0546	2.3
57.0340	2.0
57.0703	6.7
59.0496	4.3
67.0547	10.1
69.0339	4.4
69.0704	12.3
70.0656	2.1
71.0496	7.5
71.0860	2.5
72.0812	3.5
79.0546	7.1
81.0339	3.5
81.0703	24.5
83.0495	12.3
83.0859	8.3
85.0288	1.4
85.0652	9.8
86.0968	11.0
87.0444	2.9
88.0760	1.7
89.0601	2.2
91.0544	6.7
93.0702	58.3
94.0734	4.5
95.0494	8.5
95.0858	47.3
96.0892	3.7
97.0650	10.3
97.1014	4.4
98.9844	2.2
99.0443	12.5
99.0807	4.9
101.0600	3.4
105.0700	18.8
106.0734	1.5
107.0494	3.1
107.0858	32.1
108.0891	2.8
109.0650	11.1
109.1014	20.4
110.1047	1.7
111.0443	2.8
111.0806	8.6
112.0757	2.9
113.0600	3.9
113.0964	2.4
115.0392	1.6
115.0755	3.4
117.0699	3.7
119.0857	28.5
120.0809	1.8
120.0891	2.7
121.0649	20.9
121.1013	44.1
122.0684	1.5
122.1046	3.6
123.0441	1.8
123.0806	16.4
123.1169	9.1
124.0756	1.7
125.0601	3.2
125.0962	7.7
126.0915	4.5
127.0754	3.7
127.1119	2.6
129.0550	1.7
129.0698	2.7
131.0856	13.6
133.0649	3.2
133.1012	26.7
134.1043	2.4
135.0441	1.6
135.0805	10.9
135.1169	16.3
136.1207	1.6
137.0599	3.8
137.0961	9.7
137.1325	2.6
139.0752	5.7
139.1117	3.8
141.0910	4.0
143.0856	8.0
145.0645	1.8
145.1013	26.3
146.1049	2.6
146.1176	1.9
147.0806	11.7
147.1169	17.9
148.1209	2.2
149.0600	2.2
149.0962	27.1
149.1326	6.6
150.1007	2.5
151.0756	3.2
151.1119	7.9
153.0546	1.4
153.0912	3.0
153.1278	1.8
155.0857	1.9
155.1068	1.8
157.1013	13.3
158.1049	2.2
159.0807	4.9
159.1169	23.5
160.1207	2.5
161.0599	1.6
161.0962	12.6
161.1325	9.5
163.0755	3.4
163.1118	13.3
163.1482	4.3
164.1069	1.7
165.0912	4.9
165.1276	3.7
167.0340	1.5
167.0704	1.4
167.1066	5.9
169.0861	1.4
169.1012	4.4
171.0805	1.7
171.1167	9.4
173.0963	8.8
173.1326	14.4
174.1015	1.5
174.1363	2.0
175.0754	19.4
175.1117	28.1
175.1476	4.5
176.0801	2.1
176.1166	3.0
177.0912	7.3
177.1273	7.4
177.1635	1.5
179.0710	1.6
179.1064	3.9
179.1426	1.7
180.1013	1.7
181.0856	1.7
181.1012	2.2
181.1220	3.0
182.1181	2.2
183.1169	5.6
185.0963	4.5
185.1324	13.4
186.1365	2.1
187.1118	6.3
187.1482	9.0
189.0909	4.7
189.1274	7.1
189.1636	4.3
191.1064	3.6
191.1431	5.5
192.1012	1.8
193.0857	1.5
193.1223	5.4
194.1179	2.0
195.1010	1.4
195.1171	3.6
195.1381	1.5
196.0970	6.6
197.0965	1.4
197.1326	4.9
199.1123	4.9
199.1483	6.4
201.0907	3.2
201.1274	10.6
201.1639	3.9
202.1322	2.0
203.1066	12.6
203.1432	4.6
203.1793	1.6
205.1224	5.3
205.1586	2.1
207.1381	4.1
209.0445	3.5
209.1325	4.5
211.1118	1.6
211.1488	5.3
213.1284	4.4
213.1636	8.2
215.1079	2.8
215.1431	3.4
215.1783	2.1
217.0861	1.4
217.1218	3.7
217.1579	2.4
219.1378	13.7
220.1414	2.1
221.1145	2.0
221.1502	2.3
223.0963	1.5
223.1494	4.4
224.1541	1.5
225.1291	2.3
225.1637	3.1
227.1076	1.9
227.1431	5.6
227.1783	2.7
229.1212	2.2
229.1579	2.5
229.1954	1.4
231.1377	3.0
233.1527	3.3
237.0757	1.6
237.1267	1.5
237.1461	6.9
239.1441	2.1
241.1221	1.5
241.1592	5.6
241.1951	2.4
243.1353	1.9
243.1743	1.5
245.1169	2.8
245.1530	2.2
247.1686	2.8
249.1486	1.4
251.1800	4.8
255.1379	1.5
255.1746	2.6
255.2114	1.9
256.2635	9.0
257.1268	3.7
257.1543	2.1
257.2665	1.4
259.1304	2.1
259.1690	1.9
261.1866	1.8
269.1540	1.4
269.1897	14.8
270.1931	3.2
271.1692	2.8
271.2050	1.6
273.1504	1.6
273.1850	3.5
273.2209	1.6
275.1639	1.5
275.2000	1.9
279.1740	8.3
280.1776	1.7
283.1689	1.4
283.2053	4.3
285.1245	3.3
285.2198	1.4
287.1657	2.3
287.2003	15.6
288.2039	2.4
289.1803	2.4
291.1939	2.3
297.1503	1.8
297.1845	30.5
298.1880	6.1
299.0626	1.6
299.1996	4.3
301.1802	2.1
301.2157	20.7
302.2191	4.2
303.1954	2.7
303.2313	4.4
305.1775	2.1
305.2423	1.9
307.1901	3.0
313.1791	2.0
313.2145	1.7
315.1637	4.0
315.1954	100.0
315.2291	4.9
316.1577	1.6
316.1981	22.0
317.1473	2.6
317.2115	11.0
317.2482	1.4
318.2146	3.6
318.3002	23.8
319.1673	2.2
319.1920	2.5
319.2263	18.1
319.3032	4.3
320.2286	3.6
321.1772	3.9
321.2079	1.8
321.2404	5.2
323.1903	2.0
323.2566	2.1
325.2150	2.5
327.1959	1.5
327.2315	12.2
328.2340	2.5
329.1757	3.2
329.2112	2.4
329.2427	3.3
330.1360	1.6
330.1739	1.6
330.2109	1.6
330.3354	2.0
331.1905	3.9
331.2260	2.7
332.1870	2.2
333.1708	2.9
333.2059	8.6
334.2048	2.2

Name: 5-Acetamido-4-oxohexanoic acid
PrecursorMZ: 188.09166
RT: 5.4804
ExactMass: 187.0844579
Spectrum_type: 2
charge: 1
Formula: C8H13NO4
SMILES: CC(C(=O)CCC(=O)O)NC(=O)C
Method: HCD
Collision_energy: [28.333334]
Isolation_window: 4.0
Ion_mode: P
Num Peaks: 45
60.0448	8.3
70.0654	9.5
72.0810	8.3
83.0606	7.8
84.0446	5.1
85.0649	9.8
86.0603	7.2
86.0966	20.8
88.0394	4.4
96.0809	5.2
98.0602	8.2
100.0757	100.0
101.0597	6.8
101.0710	21.7
102.0913	4.4
111.0441	5.5
116.0706	5.4
124.0756	34.8
126.0912	8.2
128.0704	8.7
129.0657	14.3
130.0497	35.4
137.0706	5.7
140.1067	6.5
142.0861	28.9
143.0813	3.9
144.0807	4.4
144.1017	4.8
146.0598	23.2
147.0762	30.7
148.0964	4.3
152.0704	19.7
155.0813	13.6
165.0213	4.5
169.0424	4.1
170.0268	3.9
170.0809	75.7
171.0648	4.5
171.0843	6.1
186.0759	5.1
186.1121	14.3
187.1076	6.3
188.0373	7.1
188.0702	9.3
188.0914	23.6

Name: 5-Acetylamino-6-amino-3-methyluracil
PrecursorMZ: 199.0825
RT: 5.5258
ExactMass: 198.07529019
Spectrum_type: 2
charge: 1
Formula: C7H10N4O3
SMILES: CC(=O)NC1=C(NC(=O)N(C1=O)C)N
Method: HCD
Collision_energy: [28.333334]
Isolation_window: 4.0
Ion_mode: P
Num Peaks: 19
74.0967	18.3
98.0965	22.9
100.0758	6.2
112.0756	5.5
139.0613	100.0
140.0645	6.0
160.9012	7.7
181.0717	48.1
181.0968	4.9
182.1173	6.0
198.0754	5.7
198.1105	15.8
198.1314	5.3
199.0821	70.3
199.1063	5.6
199.1226	7.5
199.1803	8.4
200.0929	28.0
201.1230	10.6

Name: 5-Amino-2-(butanoylamino)pentanoic acid
PrecursorMZ: 203.13884
RT: 8.374
ExactMass: 202.13174244
Spectrum_type: 2
charge: 1
Formula: C9H18N2O3
SMILES: CCCC(=O)NC(CCCN)C(=O)O
Method: HCD
Collision_energy: [28.333334]
Isolation_window: 4.0
Ion_mode: P
Num Peaks: 43
70.0655	71.4
71.0494	8.2
71.0688	2.8
76.0396	3.8
84.0811	9.9
86.0602	2.7
87.0443	8.2
96.0445	5.9
98.0602	3.0
100.0758	3.3
101.0597	3.3
104.0707	4.7
108.0445	4.4
114.0662	4.0
115.0867	100.0
116.0707	22.5
116.0899	4.8
126.0549	4.1
126.0912	3.9
128.0704	2.7
130.0862	2.6
133.0971	8.5
140.0704	2.7
140.1069	17.5
142.0862	3.1
144.1018	6.7
156.1019	2.7
157.1335	3.5
158.0813	3.7
158.1175	6.3
167.1179	9.1
185.0916	3.2
185.1283	14.0
186.1124	14.9
202.1072	10.6
202.1184	6.7
203.0816	4.6
203.1024	30.3
203.1388	18.3
204.0864	4.3
204.0972	25.5
204.1227	23.9
204.1591	4.0

Name: 5-Amino-2-methylphenol
PrecursorMZ: 124.07575
RT: 3.1461
ExactMass: 123.068413911
Spectrum_type: 2
charge: 1
Formula: C7H9NO
SMILES: CC1=C(C=C(C=C1)N)O
Method: HCD
Collision_energy: [28.333334]
Isolation_window: 4.0
Ion_mode: P
Num Peaks: 27
79.0546	0.6
80.0498	0.3
81.0577	0.7
82.0654	0.4
94.0652	0.3
95.0606	0.3
96.0684	0.4
96.0810	2.0
97.0763	0.7
106.0653	0.2
107.0606	0.3
109.0524	0.3
122.0603	0.3
123.0553	0.5
123.0918	2.0
124.0311	0.3
124.0663	0.6
124.0758	100.0
124.0832	0.5
124.0853	0.6
124.0880	0.3
125.0713	2.1
125.0790	8.4
125.1073	3.6
126.0551	0.5
126.0913	0.5
141.0659	0.5

Name: 5-Amino-3-methyl-1-phenylpyrazole
PrecursorMZ: 174.10247
RT: 8.8039
ExactMass: 173.095297364
Spectrum_type: 2
charge: 1
Formula: C10H11N3
SMILES: CC1=NN(C(=C1)N)C2=CC=CC=C2
Method: HCD
Collision_energy: [28.333334]
Isolation_window: 4.0
Ion_mode: P
Num Peaks: 7
70.0654	6.4
112.0757	11.5
130.0650	35.0
157.0760	17.8
174.1023	100.0
175.0865	6.3
175.1057	10.3

Name: 5-Aminosalicylic Acid
PrecursorMZ: 154.04995
RT: 7.4477
ExactMass: 153.042593085
Spectrum_type: 2
charge: 1
Formula: C7H7NO3
SMILES: C1=CC(=C(C=C1N)C(=O)O)O
Method: HCD
Collision_energy: [28.333334]
Isolation_window: 4.0
Ion_mode: P
Num Peaks: 10
96.0446	10.9
96.9954	20.8
108.0446	33.4
124.0758	7.1
126.0550	27.3
134.0633	37.6
136.0394	19.1
154.0499	100.0
155.0531	6.5
156.0422	13.2

Name: 5-Chloro-6-((2,5-dimethoxyanilino)methyl)quinazoline-2,4-diamine
PrecursorMZ: 360.12166
RT: 7.6903
ExactMass: 359.1149025
Spectrum_type: 2
charge: 1
Formula: C17H18ClN5O2
SMILES: COC1=CC(=C(C=C1)OC)NCC2=C(C3=C(C=C2)N=C(N=C3N)N)Cl
Method: HCD
Collision_energy: [28.333334]
Isolation_window: 4.0
Ion_mode: P
Num Peaks: 20
70.0655	3.6
72.0810	3.7
84.0809	3.0
100.0757	3.0
186.1230	3.0
214.1177	3.2
242.1130	4.1
280.1111	4.3
324.1006	2.6
332.1268	12.8
342.1116	3.5
358.1616	3.3
359.1563	4.6
360.1217	100.0
360.1390	6.1
360.1618	2.6
361.1036	2.9
361.1232	15.0
361.1736	2.6
362.1220	3.7

Name: 5-Demethylnobiletin
PrecursorMZ: 389.1224
RT: 1.2922
ExactMass: 388.11581759
Spectrum_type: 2
charge: 1
Formula: C20H20O8
SMILES: COC1=C(C=C(C=C1)C2=CC(=O)C3=C(C(=C(C(=C3O2)OC)OC)OC)O)OC
Method: HCD
Collision_energy: [28.333334]
Isolation_window: 4.0
Ion_mode: P
Num Peaks: 19
97.3987	1.1
126.0660	1.0
313.0706	2.5
325.0691	1.2
328.0933	1.0
341.0650	5.1
343.0806	2.0
344.0517	1.1
356.0887	2.1
359.0754	64.8
360.0788	12.4
361.0814	1.3
373.0913	3.2
374.0989	17.2
375.1024	4.1
389.1223	100.0
390.1258	21.0
391.1280	2.3
391.1611	1.1

Name: 5-Dimethylamino-6-azauracil
PrecursorMZ: 157.07184
RT: 6.1347
ExactMass: 156.06472551
Spectrum_type: 2
charge: 1
Formula: C5H8N4O2
SMILES: CN(C)C1=NNC(=O)NC1=O
Method: HCD
Collision_energy: [28.333334]
Isolation_window: 4.0
Ion_mode: P
Num Peaks: 81
56.0498	0.9
67.0544	0.6
68.0497	0.6
69.0337	0.7
69.0700	0.6
70.0402	1.7
70.0653	7.4
71.0494	0.7
72.0558	9.2
72.0810	0.8
82.0652	1.4
84.0445	2.6
84.0810	0.7
86.0601	3.2
86.0965	0.7
88.0506	1.0
88.0757	0.6
95.0491	1.3
95.0604	2.7
96.0443	0.8
97.0284	1.6
97.0647	0.6
98.0348	2.3
98.0600	18.2
98.0964	0.7
99.0440	1.4
99.0552	1.7
99.0634	0.7
100.0505	3.1
102.0661	6.0
110.0599	2.4
110.0711	0.8
110.0964	0.6
111.0552	1.4
112.0504	1.2
112.0756	7.7
112.1119	4.1
113.0708	0.7
114.0548	3.6
114.0660	2.7
116.0704	17.8
117.0737	0.7
121.0757	0.7
126.0295	3.9
128.0451	0.6
128.0703	1.9
128.0817	1.8
129.0768	9.9
130.0648	1.5
137.0706	4.8
138.0546	1.6
138.0738	1.2
139.0862	2.5
140.0702	4.0
141.0642	4.1
143.0726	1.6
155.0560	5.8
155.0811	2.6
156.0593	2.1
156.0651	6.1
156.0764	1.4
156.0807	0.6
156.0877	2.3
156.1016	1.6
157.0584	0.6
157.0609	1.0
157.0716	100.0
157.0851	0.8
157.0962	1.9
157.1695	8.5
158.0601	1.6
158.0687	1.2
158.0749	5.2
158.0808	6.5
158.0918	2.1
158.0961	7.3
158.1171	3.7
158.1535	0.6
158.1728	0.7
158.1899	1.6
159.0757	1.6

Name: 5-Hydroxy-1-(4-Hydroxy-3-Methoxyphenyl)Decan-3-One
PrecursorMZ: 317.17024
RT: 10.3768
ExactMass: 294.18310931
Spectrum_type: 2
charge: 1
Formula: C17H26O4
SMILES: CCCCCC(CC(=O)CCC1=CC(=C(C=C1)O)OC)O
Method: HCD
Collision_energy: [28.333334]
Isolation_window: 4.0
Ion_mode: P
Num Peaks: 26
98.9846	2.7
102.0552	5.5
122.0812	4.8
199.1076	1.8
210.0791	2.8
227.1390	26.4
228.1420	3.2
239.1384	1.8
243.1340	8.0
272.1369	1.8
315.1568	2.4
316.1385	3.4
317.1708	100.0
318.1787	16.0
319.1585	3.8
323.1823	3.4
324.1460	2.2
329.1714	14.1
330.1525	4.5
330.3359	4.1
331.1515	3.8
332.1084	1.7
332.1721	2.9
333.1701	3.0
335.1870	1.7
336.1655	29.2

Name: 5-Hydroxy-2-hydroxymethylpyridine
PrecursorMZ: 126.05499
RT: 4.8143
ExactMass: 125.047678466
Spectrum_type: 2
charge: 1
Formula: C6H7NO2
SMILES: C1=CC(=NC=C1O)CO
Method: HCD
Collision_energy: [28.333334]
Isolation_window: 4.0
Ion_mode: P
Num Peaks: 33
80.0497	2.2
81.0338	1.3
81.0449	1.4
82.0289	1.3
82.0654	2.8
83.0494	1.3
83.0606	1.8
84.0446	19.7
84.0810	1.0
85.0762	1.2
96.0444	2.0
100.0758	4.1
107.0604	6.0
108.0444	100.0
108.0554	1.5
109.0284	2.1
109.0396	4.9
109.0477	7.0
109.0761	6.7
110.0237	15.0
111.0441	1.7
124.0392	1.4
125.0708	5.9
126.0548	99.4
126.0659	26.3
126.0912	1.9
127.0391	2.3
127.0500	54.7
127.0579	6.5
127.0691	1.3
127.0865	2.5
128.0704	3.5
149.0708	2.8

Name: 5-Hydroxy-3,7,4'-trimethoxyflavone
PrecursorMZ: 329.10193
RT: 3.0746
ExactMass: 328.09468823
Spectrum_type: 2
charge: 1
Formula: C18H16O6
SMILES: COC1=CC=C(C=C1)C2=C(C(=O)C3=C(C=C(C=C3O2)OC)O)OC
Method: HCD
Collision_energy: [28.333334]
Isolation_window: 4.0
Ion_mode: P
Num Peaks: 13
114.0925	22.9
241.0863	3.3
255.0651	6.7
268.0729	8.6
269.0808	67.8
270.0842	9.8
283.0962	8.1
296.0676	4.6
311.0913	100.0
312.0948	20.2
328.2596	11.0
329.1016	96.5
330.1050	15.7

Name: 5-Hydroxy-7-(hydroxymethyl)-2-methyl-2-(5-oxooxolan-2-yl)-3H-chromen-4-one
PrecursorMZ: 293.1017
RT: 8.1963
ExactMass: 292.09468823
Spectrum_type: 2
charge: 1
Formula: C15H16O6
SMILES: CC1(CC(=O)C2=C(C=C(C=C2O1)CO)O)C3CCC(=O)O3
Method: HCD
Collision_energy: [28.333334]
Isolation_window: 4.0
Ion_mode: P
Num Peaks: 85
67.0546	3.8
70.0656	4.1
79.0546	3.8
81.0702	3.6
83.0859	3.4
86.0604	4.5
86.0967	7.0
93.0700	3.3
101.0599	4.6
105.0700	3.3
108.0809	5.2
111.0442	4.0
112.0758	4.6
113.0599	4.8
117.0700	3.3
119.0855	4.3
121.0652	3.5
123.0441	5.7
126.0914	3.5
130.0497	3.4
131.0857	3.6
135.0803	3.3
137.0233	62.4
137.0596	3.5
138.0267	5.6
139.0389	5.3
139.0753	7.8
145.1015	3.5
147.0803	3.6
163.0390	4.9
165.0547	32.9
166.0579	3.3
166.0865	6.7
168.1019	16.2
175.0753	4.4
177.0910	3.3
181.0496	3.9
187.0754	4.0
191.0702	4.1
213.1276	4.3
215.0704	3.5
229.0855	3.6
229.1225	3.7
230.1384	4.4
231.0653	7.6
231.1379	8.8
232.0694	3.5
232.0967	3.3
233.0807	89.5
234.0754	4.2
234.0854	12.8
247.0966	3.4
248.0912	3.6
249.0902	4.1
249.1482	5.6
253.0856	7.0
257.0807	3.4
257.1530	4.7
258.1331	3.7
259.1328	7.1
267.1010	3.5
273.1484	4.4
274.1080	3.3
274.1288	5.4
275.0912	100.0
275.1263	6.3
275.1638	7.0
276.0535	9.2
276.0958	14.7
276.1440	11.6
277.0856	8.8
277.1432	15.8
291.1576	5.4
292.0813	5.6
292.1171	10.6
292.1415	6.9
292.1549	3.7
293.0796	3.3
293.1011	18.1
293.1137	3.5
293.1366	7.5
294.0960	7.6
294.1327	6.7
295.0957	21.8
295.1533	4.9

Name: 5-Hydroxyculmorin
PrecursorMZ: 237.18476
RT: 4.8655
ExactMass: 254.18819469
Spectrum_type: 2
charge: 1
Formula: C15H26O3
SMILES: C[C@@]12CC[C@H](C([C@H]3[C@@H]1[C@@H](C[C@@]2([C@@H]3O)C)O)(C)C)O
Method: HCD
Collision_energy: [28.333334]
Isolation_window: 4.0
Ion_mode: P
Num Peaks: 84
55.0546	1.4
57.0704	2.5
67.0547	6.6
69.0339	1.6
69.0703	7.9
71.0496	1.7
73.0652	2.2
79.0545	1.8
81.0702	32.7
82.0737	1.6
83.0495	1.5
83.0859	8.0
85.0651	2.6
93.0701	5.5
95.0858	100.0
96.0891	6.1
97.0651	3.2
97.1014	10.3
97.4002	1.6
99.0807	1.7
105.0700	1.9
107.0857	10.6
109.0649	2.2
109.1014	47.7
110.1047	3.8
111.0806	1.8
111.1170	5.6
115.0755	3.6
119.0857	2.8
121.0650	1.6
121.1013	31.8
122.1047	2.7
123.0805	2.8
123.1169	22.2
124.1204	1.8
125.0961	2.7
127.0753	1.5
133.1013	2.4
135.0805	2.9
135.1168	6.5
137.0962	1.7
137.1325	12.9
139.1118	8.3
141.0910	1.8
145.1013	1.7
149.0963	2.5
149.1327	2.1
157.1224	5.5
159.1169	4.8
161.1325	1.7
163.1118	5.1
167.1068	1.5
173.1326	1.8
175.1483	2.6
177.1274	4.4
177.1638	14.8
178.1671	1.7
181.0861	1.9
181.1224	4.2
181.1697	2.9
187.1885	3.8
191.1433	1.9
191.1794	2.3
192.1018	4.5
195.0512	3.7
201.1278	2.1
201.1638	3.2
210.1124	1.5
219.1380	4.7
219.1743	7.1
221.0670	3.8
235.2098	12.3
236.0919	6.5
236.1273	2.8
236.2119	2.8
237.1235	2.3
237.1486	17.7
237.1848	50.9
238.1074	11.4
238.1430	1.9
238.1537	2.6
238.1884	8.5
239.0775	12.8
239.1381	2.9

Name: 5-Hydroxyectoine
PrecursorMZ: 159.07642
RT: 9.0782
ExactMass: 158.06914219
Spectrum_type: 2
charge: 1
Formula: C6H10N2O3
SMILES: CC1=NC[C@@H]([C@H](N1)C(=O)O)O
Method: HCD
Collision_energy: [28.333334]
Isolation_window: 4.0
Ion_mode: P
Num Peaks: 36
56.0499	0.8
60.0448	0.9
70.0655	1.4
72.0447	1.5
83.0606	2.8
84.0447	2.2
86.0602	0.9
88.0759	1.1
89.0711	0.7
98.0714	5.2
99.0554	0.7
100.0394	2.1
100.0758	1.2
112.0758	1.6
112.0868	1.0
113.0710	32.1
114.0550	2.3
114.0744	1.6
114.0914	8.8
117.0659	3.3
124.0758	1.2
125.0596	0.8
141.0656	0.7
142.0861	3.1
142.1225	0.8
158.0813	2.0
158.0923	17.5
158.1540	0.9
159.0625	0.7
159.0763	100.0
159.0949	0.9
159.1128	1.3
160.0799	5.8
160.0967	52.1
160.1077	0.9
160.1332	0.7

Name: 5-Hydroxyindole
PrecursorMZ: 134.06001
RT: 8.3271
ExactMass: 133.052763847
Spectrum_type: 2
charge: 1
Formula: C8H7NO
SMILES: C1=CC2=C(C=CN2)C=C1O
Method: HCD
Collision_energy: [28.333334]
Isolation_window: 4.0
Ion_mode: P
Num Peaks: 11
79.0545	13.7
86.0966	30.1
87.0999	31.3
91.0544	44.6
106.0652	15.9
107.0491	10.2
119.0491	34.2
134.0597	100.0
135.0630	10.2
135.0675	44.2
136.0755	45.4

Name: 5-Hydroxyindoleacetic Acid
PrecursorMZ: 192.06534
RT: 5.2761
ExactMass: 191.058243149
Spectrum_type: 2
charge: 1
Formula: C10H9NO3
SMILES: C1=CC2=C(C=C1O)C(=CN2)CC(=O)O
Method: HCD
Collision_energy: [28.333334]
Isolation_window: 4.0
Ion_mode: P
Num Peaks: 39
91.0544	0.6
105.0700	0.5
117.0700	0.7
119.0856	0.4
131.0855	0.7
132.0443	0.9
133.0646	0.5
133.1012	4.9
145.0647	0.6
146.0479	0.8
146.0504	0.6
146.0600	100.0
146.0696	0.5
146.0720	0.7
146.0755	0.3
146.1170	0.3
147.0574	0.4
147.0633	9.6
147.1167	0.7
148.0757	0.4
152.0706	1.4
161.0597	0.7
166.0861	0.3
172.0391	0.3
173.0597	1.0
174.0549	9.8
175.0582	1.0
175.1118	0.5
190.0862	0.3
191.0450	0.3
191.0706	0.4
191.0813	0.4
191.1066	0.4
192.0654	1.9
192.1021	0.3
193.0714	0.3
193.0972	0.4
193.1222	1.2
194.0810	0.9

Name: 5-Methoxy-DL-tryptophan
PrecursorMZ: 235.10759
RT: 3.0349
ExactMass: 234.10044231
Spectrum_type: 2
charge: 1
Formula: C12H14N2O3
SMILES: COC1=CC2=C(C=C1)NC=C2CC(C(=O)O)N
Method: HCD
Collision_energy: [28.333334]
Isolation_window: 4.0
Ion_mode: P
Num Peaks: 22
104.0707	1.5
122.0600	0.6
147.0916	6.1
148.0950	0.7
161.1073	1.5
173.0709	1.3
189.1020	8.8
190.0732	0.7
190.1054	0.9
191.0813	35.0
192.0847	3.4
202.0734	0.6
207.1128	0.9
217.0969	50.0
218.0807	0.6
218.1004	5.4
234.1122	0.6
235.0832	0.6
235.1074	100.0
235.1322	0.9
236.0911	0.8
236.1110	11.7

Name: 5-Methoxytryptamine
PrecursorMZ: 191.11788
RT: 5.3543
ExactMass: 190.110613074
Spectrum_type: 2
charge: 1
Formula: C11H14N2O
SMILES: COC1=CC2=C(C=C1)NC=C2CCN
Method: HCD
Collision_energy: [28.333334]
Isolation_window: 4.0
Ion_mode: P
Num Peaks: 258
55.0547	0.4
58.0656	0.5
59.0496	0.2
60.0450	0.2
60.0561	0.2
60.0813	0.6
62.0606	0.2
67.0548	0.2
68.0499	0.3
69.0340	0.3
69.0704	0.2
70.0454	0.3
70.0576	0.6
70.0593	0.6
70.0656	100.0
70.0719	0.6
70.0737	0.6
70.0760	0.3
70.0782	0.2
70.0838	0.4
71.0495	0.5
71.0632	0.3
71.0689	4.4
72.0449	0.2
72.0812	3.0
74.0606	0.3
74.0717	0.3
80.0499	0.7
82.0657	0.4
83.0496	0.7
83.0607	0.2
84.0448	0.3
84.0812	1.2
85.0289	0.2
85.0652	0.2
86.0605	2.3
86.0717	0.4
86.0969	0.3
87.0445	2.0
88.0398	0.5
88.0762	0.2
89.0601	0.4
90.0554	0.2
94.0655	1.9
95.0608	0.4
96.0448	1.5
96.0684	0.2
96.0811	0.2
97.0650	0.1
98.0603	0.5
98.0715	0.2
98.0967	0.7
100.0760	1.8
101.0601	4.1
102.0560	0.2
102.0625	0.2
102.0917	0.8
104.0709	0.4
106.0866	0.2
107.0732	0.4
108.0448	0.3
108.0813	0.7
109.0052	0.2
109.0765	1.4
110.0604	1.8
110.0718	0.5
111.0443	0.1
112.0397	0.8
112.0707	0.3
112.0745	0.5
112.0786	0.3
112.0872	63.6
112.0998	0.4
112.1035	0.4
112.1081	0.2
112.1127	0.2
112.1239	0.2
113.0713	0.2
113.0840	0.6
113.0906	3.2
114.0535	0.2
114.0664	26.7
114.0796	0.2
114.0830	0.1
114.0918	0.4
115.0631	0.3
115.0699	2.0
116.0709	1.4
120.0810	0.4
122.0601	0.3
122.0970	0.2
123.0920	0.2
124.0396	0.1
124.0764	0.3
124.0860	0.3
125.0712	0.2
126.0552	2.7
126.0659	0.3
126.0916	0.8
128.0707	0.5
128.1070	0.1
129.1023	0.3
130.0501	0.3
130.0864	0.9
130.0974	0.2
131.0702	0.2
131.0815	0.2
132.0656	0.2
134.0967	0.5
135.0443	0.4
135.0919	0.2
136.0757	0.5
137.0709	0.3
137.1073	0.9
138.0555	0.3
138.0914	0.3
139.0864	0.3
140.0708	0.3
140.1073	0.2
142.0866	1.6
144.0656	0.3
144.1020	0.5
145.0969	0.2
146.0814	0.4
147.0766	3.6
148.0786	0.4
149.0597	0.2
150.0915	0.3
151.0866	0.6
151.1232	0.2
152.0710	0.5
153.1019	0.2
154.0608	0.4
154.0866	1.3
154.1228	0.2
156.0771	0.2
156.1019	0.2
156.1497	0.4
157.1339	0.4
158.0814	0.5
159.0761	0.3
161.1284	0.2
162.0550	0.2
162.0764	0.2
162.0910	0.2
163.1231	0.2
164.0704	0.4
164.0822	0.2
164.1073	0.3
165.0214	0.3
165.1022	0.2
166.0859	0.3
167.0813	0.2
168.0660	0.2
168.1018	0.3
170.0922	0.1
171.1129	0.7
172.0727	1.2
172.0969	2.9
172.1318	0.2
173.0745	0.2
173.1013	0.4
174.1605	0.3
176.0918	1.1
176.1070	0.3
178.0855	0.2
179.1177	0.3
181.0950	0.2
182.0792	0.4
182.0954	0.2
182.1176	0.2
183.1129	1.0
184.0966	0.2
184.1462	0.3
185.1287	1.5
186.0883	0.7
186.1125	0.7
186.1314	0.2
187.1077	0.7
188.0916	0.2
189.0986	5.4
189.1254	0.3
189.1589	0.3
189.1869	0.3
190.1055	1.3
190.1440	1.2
190.1798	0.5
191.0835	0.2
191.1182	7.0
191.1447	0.1
192.0656	0.2
192.1016	1.2
192.1217	1.4
193.0951	0.5
193.1340	1.6
194.0806	1.0
194.1029	0.3
194.1173	9.8
195.1117	3.4
195.1479	0.4
196.0605	0.5
196.0960	2.9
196.1139	0.4
196.1337	0.7
197.0559	9.6
197.0695	0.1
197.0901	0.5
197.1280	3.5
198.0589	0.9
198.0759	6.5
198.1112	1.2
198.1293	0.3
198.1490	0.4
199.0791	0.5
199.1075	0.4
199.1217	0.3
199.1441	1.0
200.0886	0.8
200.1284	5.3
200.1657	0.2
201.0992	0.5
201.1224	3.6
201.1597	1.1
202.0861	0.2
202.1073	2.8
202.1238	0.2
202.1427	1.1
202.1562	1.1
202.1801	1.5
203.1148	0.7
203.1390	1.2
203.1780	0.2
204.1006	4.2
204.1352	5.0
204.1594	0.2
204.6031	0.3
205.1030	0.6
205.1352	1.1
206.1012	0.7
206.1175	3.0
206.1383	2.0
207.1121	1.4
207.1503	0.8
208.0982	2.9
208.1178	0.8
208.1333	9.5
209.1012	0.4
209.1276	4.5
209.1653	0.2
210.0796	3.5
210.1104	4.1
210.1507	0.3
211.0814	0.2
211.1124	0.6
211.1437	3.8
212.0916	4.6
212.1276	1.0
212.1440	0.3

Name: 5-O-Methylsulochrin
PrecursorMZ: 364.13884
RT: 1.388
ExactMass: 346.10525291
Spectrum_type: 2
charge: 1
Formula: C18H18O7
SMILES: CC1=CC(=C(C(=C1)O)C(=O)C2=C(C=C(C=C2OC)OC)C(=O)OC)O
Method: HCD
Collision_energy: [28.333334]
Isolation_window: 4.0
Ion_mode: P
Num Peaks: 9
166.0864	12.1
262.1077	6.1
276.1229	67.6
277.1265	8.7
304.1178	100.0
305.1212	11.0
362.2413	97.1
363.2447	30.4
364.1389	6.2

Name: 5-Oxoprolylvaline
PrecursorMZ: 229.11809
RT: 7.4762
ExactMass: 228.111007
Spectrum_type: 2
charge: 1
Formula: C10H16N2O4
SMILES: CC(C)C(C(=O)O)NC(=O)C1CCC(=O)N1
Method: HCD
Collision_energy: [28.333334]
Isolation_window: 4.0
Ion_mode: P
Num Peaks: 41
70.0655	11.3
71.0495	1.8
72.0811	72.7
73.0844	2.5
84.0446	65.2
84.0811	2.0
85.0480	2.3
86.0967	4.8
87.0443	1.7
110.0601	1.7
114.0663	1.7
116.0706	8.9
118.0862	65.9
119.0894	2.8
138.0911	8.1
155.1177	5.3
164.0706	1.9
165.1022	3.6
182.0810	4.7
183.1126	100.0
184.0602	1.6
184.0966	7.9
184.1079	5.3
184.1161	7.9
184.1329	3.4
196.0604	2.1
210.0758	8.0
211.1073	5.4
212.0914	13.3
228.0321	4.8
228.0864	17.2
228.1057	3.5
228.1228	4.9
229.0812	1.8
229.1178	27.5
229.1542	2.5
230.0819	1.9
230.1018	6.8
230.1132	23.8
230.1382	13.4
231.0968	2.2

Name: 5-Phenyl-2-pyridinamine
PrecursorMZ: 171.09159
RT: 3.0256
ExactMass: 170.084398327
Spectrum_type: 2
charge: 1
Formula: C11H10N2
SMILES: C1=CC=C(C=C1)C2=CN=C(C=C2)N
Method: HCD
Collision_energy: [28.333334]
Isolation_window: 4.0
Ion_mode: P
Num Peaks: 7
144.0804	1.7
154.0648	3.0
169.0758	11.9
170.0789	3.7
170.1174	1.9
171.0914	100.0
172.0947	10.2

Name: 5-acetyl-2,6-dimethyl-2,3-dihydro-1H-pyridin-4-one
PrecursorMZ: 168.10182
RT: 7.8685
ExactMass: 167.094628657
Spectrum_type: 2
charge: 1
Formula: C9H13NO2
SMILES: CC1CC(=C(C(=N1)C)C(=O)C)O
Method: HCD
Collision_energy: [28.333334]
Isolation_window: 4.0
Ion_mode: P
Num Peaks: 63
55.0546	2.0
58.0655	0.9
59.0496	1.3
70.0654	1.5
72.0810	1.0
73.0651	10.0
81.0337	2.6
95.0605	3.6
96.0445	50.8
97.0478	2.8
98.0600	1.0
107.0492	33.2
108.0525	2.3
109.0285	1.3
109.0760	1.5
110.0601	5.8
111.0440	1.4
112.0870	1.1
112.1120	0.8
122.0600	1.7
122.0712	0.7
122.0962	0.9
123.0109	5.3
123.0914	1.0
124.0756	3.6
124.0870	1.0
126.0550	1.7
126.0660	5.5
128.0702	0.8
138.0548	4.9
139.0865	1.2
144.0322	0.8
149.0787	0.7
150.0548	1.6
150.0911	1.6
150.1022	1.0
151.0613	4.3
151.0863	1.6
152.0704	7.0
166.0859	4.3
166.1224	9.9
167.0353	0.9
167.0707	1.1
167.0813	6.4
167.0895	4.1
167.1176	9.3
167.1257	3.4
167.1540	2.9
168.0682	40.0
168.0876	2.5
168.1016	100.0
168.1130	3.9
168.1210	1.3
168.1378	2.1
169.0682	1.1
169.0720	1.5
169.0969	7.1
169.1049	9.9
169.1332	8.2
170.0648	1.2
170.0808	4.0
170.1285	5.4
170.1536	3.3

Name: 5-ethoxy-3-(2-ethoxyethyl)-1,6-dimethylpyrido)2,3-d(pyrimidine-2,4(1H,3H)-dione
PrecursorMZ: 308.16028
RT: 5.5028
ExactMass: 307.15320616
Spectrum_type: 2
charge: 1
Formula: C15H21N3O4
SMILES: CCOCCN1C(=O)C2=C(C(=CN=C2N(C1=O)C)C)OCC
Method: HCD
Collision_energy: [28.333334]
Isolation_window: 4.0
Ion_mode: P
Num Peaks: 33
58.0657	3.1
70.0656	2.4
84.0812	3.2
98.0604	1.1
101.0601	1.8
108.0451	1.1
116.0710	2.6
129.1024	3.1
130.0870	1.4
132.0814	1.1
150.0552	3.2
157.0972	4.5
176.0709	3.3
195.1134	1.0
207.1133	2.0
208.0965	1.2
263.1390	3.5
307.1672	1.0
308.1608	100.0
309.1641	17.0
310.1664	3.4
311.1633	1.5
313.1786	1.4
317.1504	1.7
320.1543	1.3
321.1462	2.5
322.1800	1.4
323.1590	1.7
324.1452	1.2
324.1938	1.8
325.1765	7.6
326.1780	1.4
327.1977	1.1

Name: 5-hydroxy-2,2,4a-trimethyl-2a,3,4,5,6,7-hexahydro-1H-cyclobuta(i)inden-8-one
PrecursorMZ: 223.16923
RT: 4.6869
ExactMass: 222.16197994
Spectrum_type: 2
charge: 1
Formula: C14H22O2
SMILES: CC1(CC23C1CCC2(C(CCC3=O)O)C)C
Method: HCD
Collision_energy: [28.333334]
Isolation_window: 4.0
Ion_mode: P
Num Peaks: 124
57.0339	2.6
67.0547	33.2
68.0579	2.6
69.0703	12.7
71.0495	9.8
71.0860	4.1
79.0546	13.4
81.0337	3.2
81.0702	69.4
82.0735	3.7
83.0495	3.8
83.0859	20.3
84.0892	2.3
85.0652	7.5
86.0604	3.7
91.0545	9.5
93.0702	28.6
94.0734	3.0
95.0494	5.5
95.0858	89.2
96.0891	7.0
97.0650	12.0
97.0763	16.8
97.1014	3.5
97.4001	3.3
99.0807	5.9
101.0600	5.2
105.0700	12.6
107.0494	2.8
107.0858	33.6
108.0889	3.0
109.0650	6.8
109.1014	45.9
110.1047	4.3
111.0807	16.2
112.0839	2.2
113.0597	3.0
113.0963	3.6
117.0700	4.1
119.0857	16.3
120.0810	3.5
120.0889	2.5
121.0649	6.5
121.1013	33.7
122.1046	3.1
123.0805	10.1
123.1170	10.1
125.0963	9.9
127.0755	2.4
131.0856	16.0
132.0889	3.1
133.1012	12.3
135.0805	11.4
135.1169	11.5
136.0756	3.0
137.0961	3.0
139.1117	5.1
141.0910	3.8
145.1012	17.1
146.1045	2.3
147.1169	44.1
148.1201	5.6
149.0962	18.9
149.1072	4.0
149.1325	2.7
153.0911	4.8
159.1170	7.2
161.0964	3.9
161.1326	16.4
162.0915	18.0
162.1359	7.0
163.0754	3.2
163.1119	6.7
163.1482	29.3
164.0707	100.0
164.1512	3.5
165.0741	5.5
165.1274	2.8
167.1068	5.8
176.0707	3.1
177.0659	3.0
177.0912	2.8
177.1388	4.4
177.1638	7.6
178.0863	18.4
180.1019	8.5
181.1222	2.7
181.1586	2.6
182.0812	2.3
185.1322	3.7
186.1359	2.8
187.1481	49.8
188.1516	6.9
196.0969	3.0
197.1901	3.0
203.1427	4.8
204.0657	3.0
204.1019	3.1
204.1467	4.2
205.1335	8.0
205.1587	34.4
206.0811	9.0
206.1622	5.1
207.1130	2.9
211.0715	2.4
221.1535	7.1
222.0762	11.6
222.1126	31.8
222.1489	4.9
222.1598	65.7
223.0711	7.0
223.1078	7.8
223.1163	2.4
223.1329	4.5
223.1444	10.9
223.1696	56.5
224.0917	71.7
224.1002	2.4
224.1281	13.0
224.1730	9.3
225.0870	10.4
225.0956	3.4
225.1027	4.2
225.1243	3.9

Name: 5-hydroxy-2-methyl-1H-indole-3-carboxylic acid
PrecursorMZ: 192.06546
RT: 6.8158
ExactMass: 191.058243149
Spectrum_type: 2
charge: 1
Formula: C10H9NO3
SMILES: CC1=C(C2=C(N1)C=CC(=C2)O)C(=O)O
Method: HCD
Collision_energy: [28.333334]
Isolation_window: 4.0
Ion_mode: P
Num Peaks: 23
74.0604	0.7
116.0707	0.8
118.0652	2.4
120.0809	0.7
130.0652	1.0
133.0523	1.3
146.0601	7.2
147.0680	9.0
148.0758	14.5
149.0791	1.3
164.0708	1.2
174.0550	0.5
191.0812	0.4
192.0475	0.7
192.0655	100.0
192.0839	0.8
192.1015	0.5
193.0317	0.3
193.0688	10.9
193.0975	0.3
194.0711	0.5
194.0809	0.5
194.1173	0.4

Name: 5-hydroxy-5-(2-hydroxypropan-2-yl)-3,8-dimethyl-6-((2S,3R,4S,5S,6R)-3,4,5-trihydroxy-6-(hydroxymethyl)oxan-2-yl)oxy-1,4,6,7,8,8a-hexahydroazulen-2-one
PrecursorMZ: 453.20935
RT: 2.6302
ExactMass: 430.22028266
Spectrum_type: 2
charge: 1
Formula: C21H34O9
SMILES: CC1CC(C(CC2=C(C(=O)CC12)C)(C(C)(C)O)O)O[C@H]3[C@@H]([C@H]([C@@H]([C@H](O3)CO)O)O)O
Method: HCD
Collision_energy: [28.333334]
Isolation_window: 4.0
Ion_mode: P
Num Peaks: 25
50.3548	0.2
50.3568	5.4
50.4683	1.0
50.5788	0.1
81.0702	0.1
86.0967	0.1
95.0858	0.1
109.1014	0.1
114.0915	0.1
155.0104	0.1
299.2574	0.2
435.3322	0.1
452.9060	0.1
453.1236	0.2
453.1431	0.6
453.2093	100.0
453.2761	0.6
453.2946	0.3
453.3347	0.2
453.3411	0.3
453.5309	0.1
454.1467	0.1
454.1612	0.1
454.2124	18.7
455.2089	5.1

Name: 5-hydroxy-5-(2-hydroxypropan-2-yl)-3,8-dimethyl-6-)(2S,3R,4S,5S,6R)-3,4,5-trihydroxy-6-(hydroxymethyl)oxan-2-yl(oxy-1,4,6,7,8,8a-hexahydroazulen-2-one
PrecursorMZ: 453.20967
RT: 0.9388
ExactMass: 430.22028266
Spectrum_type: 2
charge: 1
Formula: C21H34O9
SMILES: CC1CC(C(CC2=C(C(=O)CC12)C)(C(C)(C)O)O)O[C@H]3[C@@H]([C@H]([C@@H]([C@H](O3)CO)O)O)O
Method: HCD
Collision_energy: [28.333334]
Isolation_window: 4.0
Ion_mode: P
Num Peaks: 8
59.0609	10.3
89.0601	14.3
133.0856	7.4
345.1448	7.2
453.2098	100.0
453.3424	7.9
454.2136	23.7
455.2127	10.7

Name: 5-oxo-2,3-dihydro-1H,5H-pyrido(3,2,1-ij)quinolin-7-yl diethylcarbamate
PrecursorMZ: 301.15403
RT: 7.4863
ExactMass: 300.1473925
Spectrum_type: 2
charge: 1
Formula: C17H20N2O3
SMILES: CCN(CC)C(=O)OC1=CC(=O)N2CCCC3=C2C1=CC=C3
Method: HCD
Collision_energy: [28.333334]
Isolation_window: 4.0
Ion_mode: P
Num Peaks: 13
159.0914	7.3
201.1016	15.7
257.1132	7.0
300.1060	6.5
300.1219	12.2
300.1565	9.3
301.1536	100.0
302.1372	23.9
302.1564	16.5
302.1745	5.3
303.1176	7.1
303.1342	5.1
303.1698	10.9

Name: 5-tert-butyl-N-(2-methylpropyl)-7-(trifluoromethyl)pyrazolo(1,5-a)pyrimidine-2-carboxamide
PrecursorMZ: 365.15678
RT: 2.5544333333333333
ExactMass: 342.16674579
Spectrum_type: 2
charge: 1
Formula: C16H21F3N4O
SMILES: CC(C)CNC(=O)C1=NN2C(=CC(=NC2=C1)C(C)(C)C)C(F)(F)F
Method: HCD
Collision_energy: [28.333334]
Isolation_window: 4.0
Ion_mode: P
Num Peaks: 4
363.2450	4.6
365.1568	100.0
366.1603	15.2
367.1557	5.1

Name: 5beta-Cholane-3alpha,7alpha,12alpha,24-tetrol
PrecursorMZ: 417.29875
RT: 1.3546
ExactMass: 394.30830982
Spectrum_type: 2
charge: 1
Formula: C24H42O4
SMILES: C[C@H](CCCO)[C@H]1CC[C@@H]2[C@@]1([C@H](C[C@H]3[C@H]2[C@@H](C[C@H]4[C@@]3(CC[C@H](C4)O)C)O)O)C
Method: HCD
Collision_energy: [28.333334]
Isolation_window: 4.0
Ion_mode: P
Num Peaks: 38
69.0700	8.1
69.6730	4.4
81.0700	15.5
83.0856	6.5
93.0699	4.5
95.0854	14.0
107.0854	8.5
109.1009	6.6
121.1007	4.8
149.0956	11.3
149.1319	6.3
151.0749	4.8
161.1320	5.1
163.1113	7.2
165.0905	100.0
166.0938	9.6
167.0697	8.9
175.1112	5.7
177.0903	13.5
189.0902	5.8
191.1059	10.6
199.1109	6.1
201.1264	5.6
203.1059	8.7
205.1214	16.6
217.1216	4.8
219.1373	4.8
371.2932	5.4
381.2775	5.8
398.3387	4.8
399.2877	25.0
400.2917	7.5
401.2672	16.1
416.3504	44.3
417.2982	33.2
417.3541	13.0
418.3024	12.5
419.2772	6.2

Name: 5beta-Cholestane-3alpha,7alpha,12alpha,25,26-pentol
PrecursorMZ: 417.33575
RT: 1.3711
ExactMass: 452.35017463
Spectrum_type: 2
charge: 1
Formula: C27H48O5
SMILES: C[C@H](CCCC(C)(CO)O)[C@H]1CC[C@@H]2[C@@]1([C@H](C[C@H]3[C@H]2[C@@H](C[C@H]4[C@@]3(CC[C@H](C4)O)C)O)O)C
Method: HCD
Collision_energy: [28.333334]
Isolation_window: 4.0
Ion_mode: P
Num Peaks: 80
67.0545	6.2
69.0702	13.9
71.0494	5.2
76.0395	6.5
81.0701	25.1
83.0857	7.0
85.0650	4.9
93.0699	9.7
95.0856	25.0
97.1012	5.5
99.0804	9.0
105.0699	10.4
107.0855	17.8
109.0647	4.1
109.1012	35.2
111.1168	6.6
119.0854	10.4
121.1011	16.4
123.1167	9.5
125.0960	4.9
127.1115	17.9
131.0853	6.7
133.1010	13.0
135.1165	13.3
137.1323	5.3
139.1115	5.5
145.1009	15.3
147.1166	15.8
149.1322	11.5
151.0753	5.4
157.1011	5.5
159.1166	10.9
161.1323	15.3
163.1478	7.4
165.0908	12.8
171.1165	4.7
173.1321	8.3
175.1478	5.8
185.1322	8.1
187.1476	10.2
189.1638	4.5
199.1478	10.8
201.1632	12.1
213.1634	13.8
215.1789	22.1
227.1790	7.6
229.1942	4.5
241.1945	10.3
243.2104	4.5
253.1945	11.2
254.1974	3.7
255.2101	16.7
256.2133	4.0
267.2097	4.6
271.2049	6.0
273.2204	12.8
279.2098	3.8
281.2257	4.1
283.2419	4.9
295.2413	8.2
299.2362	6.9
301.1326	4.0
307.2414	8.2
325.2515	10.1
343.2624	8.6
361.2728	23.1
362.2760	6.5
363.3034	21.3
364.3062	5.7
381.3143	64.2
382.3177	18.6
398.3406	7.2
399.3245	53.8
400.3276	14.5
416.3170	6.4
416.3509	100.0
417.3000	4.7
417.3335	92.4
417.3556	14.5
418.3376	29.0

Name: 6''-Arabinosylrhododendrin
PrecursorMZ: 483.18281
RT: 6.3706
ExactMass: 460.19446183
Spectrum_type: 2
charge: 1
Formula: C21H32O11
SMILES: CC(CCC1=CC=C(C=C1)O)O[C@H]2[C@@H]([C@H]([C@@H]([C@H](O2)CO[C@H]3[C@@H]([C@H](C(O3)CO)O)O)O)O)O
Method: HCD
Collision_energy: [28.333334]
Isolation_window: 4.0
Ion_mode: P
Num Peaks: 4
53.6872	5.3
483.1823	100.0
484.1853	21.2
485.1777	4.7

Name: 6,11-dioxododecanoic Acid
PrecursorMZ: 211.13269
RT: 2.8369
ExactMass: 228.13615911
Spectrum_type: 2
charge: 1
Formula: C12H20O4
SMILES: CC(=O)CCCCC(=O)CCCCC(=O)O
Method: HCD
Collision_energy: [28.333334]
Isolation_window: 4.0
Ion_mode: P
Num Peaks: 31
55.0182	5.1
67.0546	16.3
69.0703	10.0
79.0545	7.2
81.0701	49.6
83.0494	5.3
83.0858	6.5
91.0544	20.1
93.0700	9.2
95.0492	5.4
95.0857	8.4
97.0650	12.2
99.0805	4.0
105.0700	24.1
107.0856	11.8
109.0649	10.9
119.0855	30.8
121.1012	21.3
123.1168	33.6
126.0914	4.7
129.0698	5.6
131.0857	5.4
133.1010	9.0
147.1167	100.0
148.1198	8.7
149.0960	7.1
157.1010	22.3
165.1273	26.0
175.1116	29.2
193.1223	4.6
229.1432	8.3

Name: 6,15-diketo-13,14-dihydroprostaglandin F1alpha
PrecursorMZ: 353.23203
RT: 5.0248
ExactMass: 370.2355388
Spectrum_type: 2
charge: 1
Formula: C20H34O6
SMILES: CCCCCC(=O)CC[C@H]1[C@@H](C[C@@H]([C@@H]1CC(=O)CCCCC(=O)O)O)O
Method: HCD
Collision_energy: [28.333334]
Isolation_window: 4.0
Ion_mode: P
Num Peaks: 88
55.0546	2.7
67.0546	3.4
69.0703	4.1
79.0545	2.7
81.0702	12.3
83.0494	5.1
83.0858	4.8
91.0544	6.0
93.0701	46.6
94.0734	2.8
95.0493	4.1
95.0857	11.9
97.0649	3.0
99.0443	5.1
101.0598	5.9
105.0700	10.4
107.0857	12.1
109.0649	4.4
109.1012	7.6
111.0806	30.3
119.0856	9.3
121.1012	7.6
123.0804	3.9
131.0855	7.9
133.1011	12.0
135.0804	3.1
135.1166	4.7
145.1010	10.5
147.1167	6.9
149.0961	4.7
157.1012	5.0
159.1168	11.1
161.0961	3.4
161.1324	6.1
163.1118	4.1
166.0863	5.1
167.0899	4.5
170.1175	5.6
171.1168	5.4
173.1324	5.7
175.0965	3.4
175.1116	3.3
175.1481	2.9
176.8748	4.3
185.1323	6.1
187.1116	3.1
189.1274	4.1
194.0811	2.8
199.1481	4.8
201.1636	2.8
205.1221	10.4
207.1379	7.8
208.0966	27.3
209.1001	4.0
211.1474	3.1
212.0915	2.8
213.1636	8.7
215.1790	2.8
217.1221	3.1
223.1328	4.2
227.1429	3.2
227.1793	3.2
235.1327	3.6
241.1949	2.7
245.1534	6.3
247.1689	4.3
254.1027	3.6
259.1683	3.3
273.1846	3.0
299.2001	13.5
300.2035	2.9
305.2107	6.5
317.2105	14.2
319.2415	2.7
320.1680	3.1
334.1278	5.7
335.2209	9.9
337.2531	4.3
352.1380	28.5
353.1418	6.2
353.2075	3.9
353.2305	6.3
353.2493	9.8
354.1565	4.5
355.0939	33.9
355.1515	3.5
355.1879	4.8
355.2627	100.0

Name: 6,7-Dimethoxy-1,4-dihydroisoquinolin-3(2H)-one
PrecursorMZ: 208.09665
RT: 9.476099999999999
ExactMass: 207.08954328
Spectrum_type: 2
charge: 1
Formula: C11H13NO3
SMILES: COC1=C(C=C2CNC(=O)CC2=C1)OC
Method: HCD
Collision_energy: [28.333334]
Isolation_window: 4.0
Ion_mode: P
Num Peaks: 16
55.0547	3.1
83.0494	1.8
101.0598	8.3
108.0809	5.4
109.0761	5.5
110.0601	6.1
136.0756	3.4
148.0755	12.2
149.0595	1.7
190.0860	1.8
207.1124	3.8
208.0965	100.0
208.1329	17.7
209.1001	11.3
209.1281	24.8
210.1121	9.6

Name: 6,7-Dimethoxy-1-(2-methylpropyl)-3,4-dihydroisoquinoline
PrecursorMZ: 248.16452
RT: 7.3318
ExactMass: 247.157228913
Spectrum_type: 2
charge: 1
Formula: C15H21NO2
SMILES: CC(C)CC1=NCCC2=CC(=C(C=C21)OC)OC
Method: HCD
Collision_energy: [28.333334]
Isolation_window: 4.0
Ion_mode: P
Num Peaks: 50
72.0812	0.6
86.0913	0.2
86.0967	24.9
86.1021	0.1
87.1001	0.2
90.0465	0.1
91.0544	0.2
100.0791	0.2
100.1054	0.3
100.1123	48.0
100.1176	0.2
100.1192	0.3
100.1436	0.2
101.1200	3.2
102.1279	0.2
105.0700	0.6
117.0698	0.2
119.0492	0.8
119.0856	0.2
121.0649	0.7
145.0648	0.6
147.0805	3.6
148.0759	0.3
148.0837	0.4
148.9995	0.1
149.0473	0.4
149.0501	0.3
149.0597	52.9
149.0696	0.3
149.0722	0.3
190.0860	0.2
191.1665	0.2
246.1852	0.4
247.1895	0.2
248.1509	0.3
248.1644	8.4
248.2007	3.9
249.1572	0.2
249.1679	1.2
249.2055	0.5
250.0489	0.2
250.1069	0.2
250.1449	0.3
250.1528	0.7
250.1586	0.4
250.1799	100.0
250.2015	0.5
250.2069	0.7
250.2150	0.2
250.3036	0.2

Name: 6,7-Dimethoxy-1-phenyl-3,4-dihydroisoquinoline
PrecursorMZ: 268.13026
RT: 4.663
ExactMass: 267.125928785
Spectrum_type: 2
charge: 1
Formula: C17H17NO2
SMILES: COC1=C(C=C2C(=C1)CCN=C2C3=CC=CC=C3)OC
Method: HCD
Collision_energy: [28.333334]
Isolation_window: 4.0
Ion_mode: P
Num Peaks: 7
94.9299	35.7
97.3997	12.9
98.9842	12.6
132.0445	20.0
266.1349	79.6
267.1286	100.0
268.1314	35.0

Name: 6,7-Dimethoxy-2,4(1H,3H)-quinazolinedione
PrecursorMZ: 223.07104
RT: 6.1165
ExactMass: 222.0640568
Spectrum_type: 2
charge: 1
Formula: C10H10N2O4
SMILES: COC1=C(C=C2C(=C1)C(=O)NC(=O)N2)OC
Method: HCD
Collision_energy: [28.333334]
Isolation_window: 4.0
Ion_mode: P
Num Peaks: 36
80.0497	9.1
95.0857	2.3
100.0758	7.9
108.0445	100.0
109.0478	4.7
120.0808	36.6
121.0841	2.7
134.0599	3.8
136.0392	2.9
160.0393	7.3
164.0705	4.5
166.0862	24.4
167.0897	2.6
177.0657	3.1
177.1021	9.4
178.0497	42.5
179.0530	3.7
195.0761	7.2
204.0764	6.1
205.0969	6.8
206.0445	52.6
206.0782	3.2
206.0924	7.5
207.0480	6.9
221.0923	2.0
222.0759	3.3
222.0872	8.9
222.1123	2.9
223.0710	2.9
223.1072	8.0
223.1438	3.0
224.0916	17.2
224.1030	6.3
224.1278	4.3
225.1234	2.7
225.1590	2.3

Name: 6,7-Seco-Angustilobine B
PrecursorMZ: 341.18558
RT: 4.8572
ExactMass: 340.17869263
Spectrum_type: 2
charge: 1
Formula: C20H24N2O3
SMILES: CN1CC[C@H]2C(=CCOC[C@]2(C3=CC4=CC=CC=C4N3)C(=O)OC)C1
Method: HCD
Collision_energy: [28.333334]
Isolation_window: 4.0
Ion_mode: P
Num Peaks: 122
58.0417	5.9
69.0339	1.7
70.0654	14.6
71.0494	1.5
72.0811	1.1
73.0287	23.4
73.0651	1.6
74.0604	2.2
80.0547	11.6
81.0337	4.9
82.0653	1.3
83.0494	2.4
85.0398	0.9
86.0967	3.3
87.0443	6.7
89.0599	82.8
89.0620	1.1
90.0632	3.7
95.0492	1.1
97.4560	1.9
98.0601	2.9
99.0442	2.9
102.0676	9.1
105.0700	0.9
107.0703	1.5
108.0808	6.5
110.0713	2.8
110.0965	0.9
111.0441	11.4
111.0728	1.2
112.0475	1.0
117.0546	1.7
120.0808	0.9
124.0805	4.8
124.5823	1.0
130.0862	1.1
131.0701	1.4
133.0857	41.2
134.0600	1.0
134.0891	2.1
134.0963	1.8
136.0755	1.6
137.0596	1.2
138.0912	0.9
146.0934	2.4
150.0911	2.2
155.0989	7.1
160.0755	4.2
161.1072	0.9
162.0913	1.0
162.1020	1.3
163.0863	1.0
164.1042	2.6
168.1068	1.3
172.0753	1.1
174.0915	1.3
175.0863	1.4
177.1119	17.5
178.0859	1.2
178.1151	0.9
180.1016	1.3
182.1174	1.0
184.0755	1.2
184.1077	4.4
186.0910	1.1
188.0815	3.1
193.1331	0.9
195.1124	2.1
196.0755	1.4
197.1284	0.9
197.6252	0.8
198.0910	3.1
198.1120	1.3
199.1249	3.8
202.0860	0.8
207.0649	3.9
208.0966	4.4
220.1188	3.2
221.1378	3.5
224.1065	1.1
226.1222	2.9
229.1541	1.4
232.1177	0.9
234.1123	1.0
239.1380	1.2
239.1485	1.1
252.1702	1.4
253.1332	2.4
267.1237	1.0
276.1225	11.9
279.1334	1.6
283.1747	1.8
294.1343	1.7
295.1433	2.3
297.1533	2.7
297.1915	4.6
306.1329	3.6
309.1443	1.4
322.1407	9.4
323.1427	5.8
323.1596	1.5
323.1752	2.3
324.1437	15.8
324.1775	1.4
325.1475	1.5
325.1880	1.8
339.1667	6.1
339.1911	1.2
340.1390	12.2
340.1729	8.0
341.1210	1.7
341.1441	1.2
341.1494	1.8
341.1855	100.0
342.1547	16.8
342.1885	23.2
342.2105	1.1
343.1297	1.1
343.1334	1.6
343.1492	1.7
343.1638	2.7
343.1882	2.0

Name: 6,7-dimethoxy-N-phenylquinazolin-4-amine
PrecursorMZ: 282.12357
RT: 5.1492
ExactMass: 281.11642673
Spectrum_type: 2
charge: 1
Formula: C16H15N3O2
SMILES: COC1=C(C=C2C(=C1)C(=NC=N2)NC3=CC=CC=C3)OC
Method: HCD
Collision_energy: [28.333334]
Isolation_window: 4.0
Ion_mode: P
Num Peaks: 87
58.0656	0.6
72.0811	0.6
81.0338	0.6
81.0702	1.2
84.0811	0.6
89.0600	0.9
97.3994	0.5
101.0599	0.7
102.0551	5.0
105.0700	2.3
109.0649	1.1
110.0603	0.9
114.0915	2.0
117.0786	4.0
118.0820	0.6
122.0600	0.5
130.0500	0.6
130.0651	1.5
133.0759	0.5
134.0601	10.3
135.0633	0.8
136.0757	2.6
140.0706	2.3
140.1433	2.1
144.0808	0.8
150.0549	2.0
151.0631	0.7
152.0707	11.2
153.0739	0.8
160.0759	0.8
160.9014	1.3
162.0914	0.5
165.0660	0.5
165.1023	1.0
176.8753	1.6
181.0761	0.8
183.0917	1.0
183.1126	0.6
184.0869	0.6
188.0705	0.8
190.0864	0.5
206.0812	1.0
234.0764	0.8
236.1182	4.9
237.1219	0.9
237.1385	0.9
238.1338	1.1
239.1177	0.7
262.0970	0.8
262.1073	0.6
263.1014	0.6
263.1175	0.5
263.1639	0.7
264.1229	0.5
265.1547	0.5
266.1861	1.7
267.1127	1.4
280.0824	1.0
280.1061	2.4
280.1192	1.7
280.1426	0.9
280.1536	0.7
280.1897	1.0
281.0924	2.8
281.1130	13.8
281.1281	14.7
281.1489	1.9
281.1713	1.0
281.1855	2.5
282.0971	1.9
282.1234	100.0
282.1483	1.9
282.1562	0.5
282.1678	0.5
283.1080	2.1
283.1269	16.0
283.1439	11.0
283.1647	6.9
283.2008	1.6
284.0909	0.8
284.1022	0.5
284.1121	0.9
284.1271	1.7
284.1388	2.2
284.1486	1.3
284.1680	0.5
284.1964	1.0

Name: 6-((2E,4E)-4,6-dimethylocta-2,4-dienoyl)-2,3-dihydroxy-2-methylcyclohexan-1-one
PrecursorMZ: 295.18958
RT: 1.4082
ExactMass: 294.18310931
Spectrum_type: 2
charge: 1
Formula: C17H26O4
SMILES: CCC(C)/C=C(\C)/C=C/C(=O)C1CCC(C(C1=O)(C)O)O
Method: HCD
Collision_energy: [28.333334]
Isolation_window: 4.0
Ion_mode: P
Num Peaks: 56
55.0545	6.9
57.0701	4.3
59.0494	14.7
67.0544	21.8
69.0700	16.9
71.0857	16.2
79.0543	13.3
81.0336	7.7
81.0699	19.7
83.0491	6.1
83.0856	7.8
85.1011	7.7
91.0542	6.6
93.0698	18.9
95.0490	14.7
95.0854	15.4
97.0646	3.6
97.1011	6.0
99.0803	14.6
103.0753	5.3
105.0697	6.5
107.0853	15.2
109.0646	4.6
109.1009	12.3
111.0801	3.6
113.0958	3.8
119.0852	6.3
121.1009	11.8
123.1165	5.5
125.0957	8.0
133.1007	10.0
135.1164	9.9
137.0592	18.9
137.0954	6.4
147.1163	9.1
149.1319	6.0
151.1112	26.9
161.1320	8.5
163.1112	3.8
165.1268	11.4
179.1424	8.8
185.1318	3.5
241.1940	5.1
249.1841	3.6
249.2206	5.5
251.1840	4.9
259.2047	4.3
277.1790	11.5
277.2151	79.7
278.2185	16.4
279.2309	3.9
294.2133	3.8
295.1917	4.6
295.2255	100.0
296.2057	8.2
296.2291	20.6

Name: 6-(1-(5,6,7,8-Tetrahydro-3,5,5,8,8-pentamethyl-2-naphthalenyl)cyclopropyl)-3-pyridinecarboxylic acid
PrecursorMZ: 364.22689
RT: 5.586
ExactMass: 363.219829168
Spectrum_type: 2
charge: 1
Formula: C24H29NO2
SMILES: CC1=CC2=C(C=C1C3(CC3)C4=NC=C(C=C4)C(=O)O)C(CCC2(C)C)(C)C
Method: HCD
Collision_energy: [28.333334]
Isolation_window: 4.0
Ion_mode: P
Num Peaks: 70
72.0811	2.0
86.0967	26.2
91.0545	9.1
95.0857	1.4
97.4002	1.8
100.1123	99.1
101.1157	4.2
101.1200	1.9
105.0337	1.2
105.0700	4.6
114.0917	1.9
115.0543	3.3
117.0700	7.1
119.0493	6.0
119.0856	4.2
129.0699	4.9
131.0491	5.9
131.0855	4.5
133.0284	3.5
133.0647	2.5
135.0439	8.6
138.0551	2.5
143.0492	4.4
143.0857	1.7
157.0649	4.2
179.0855	2.5
183.0878	2.1
192.0934	4.2
193.1013	2.7
202.0778	3.4
205.1014	3.2
207.1167	6.7
217.1012	6.6
219.1166	2.3
220.0884	3.3
221.0962	4.1
223.1119	1.2
233.0963	2.3
233.1325	2.8
234.1036	1.7
235.1117	15.7
236.1151	2.6
237.1274	3.4
243.1164	1.9
245.0962	3.4
246.1040	1.3
247.1480	2.0
261.1272	13.7
262.1315	4.2
263.1065	58.6
263.1434	4.9
264.1099	11.1
265.0857	5.8
265.1223	17.7
281.1171	3.2
283.1328	2.4
362.2470	18.6
362.2695	1.6
363.1560	1.3
363.2505	11.8
363.2993	3.0
364.1375	5.3
364.2081	1.2
364.2270	100.0
364.2613	12.2
365.2303	26.3
365.2644	2.7
366.2079	12.8
366.2428	47.6
366.2777	10.8

Name: 6-(2,3-Dihydroxy-3-methylbutoxy)-4-methoxy-5-methyl-2,3-dihydroisoindol-1-one
PrecursorMZ: 278.13852
RT: 10.3155
ExactMass: 295.14197277
Spectrum_type: 2
charge: 1
Formula: C15H21NO5
SMILES: CC1=C(C=C2C(=C1OC)CNC2=O)OCC(C(C)(C)O)O
Method: HCD
Collision_energy: [28.333334]
Isolation_window: 4.0
Ion_mode: P
Num Peaks: 9
180.9040	6.2
234.1848	7.7
260.1275	7.2
262.1284	7.1
276.1233	7.1
278.1018	12.2
278.1383	100.0
279.1432	13.1
280.1182	12.3

Name: 6-(2,3-Dihydroxy-3-methylbutyl)-7-methoxy-3-(2-methylbut-3-en-2-yl)-2H-chromen-2-one
PrecursorMZ: 347.18493
RT: 1.1419
ExactMass: 346.17802393
Spectrum_type: 2
charge: 1
Formula: C20H26O5
SMILES: CC(C)(C=C)C1=CC2=CC(=C(C=C2OC1=O)OC)CC(C(C)(C)O)O
Method: HCD
Collision_energy: [28.333334]
Isolation_window: 4.0
Ion_mode: P
Num Peaks: 13
69.4054	13.9
217.0855	15.6
217.1220	22.6
235.1326	45.2
259.1326	48.2
269.1171	15.5
287.1272	26.2
303.1949	14.4
305.1378	33.8
311.1639	18.1
329.1744	71.4
330.1781	19.3
347.1848	100.0

Name: 6-(2-aminopyrimidin-4-yl)-4-butyl-7-hydroxy-8-methyl-2H-chromen-2-one
PrecursorMZ: 326.14979
RT: 4.0513
ExactMass: 325.14264148
Spectrum_type: 2
charge: 1
Formula: C18H19N3O3
SMILES: CCCCC1=CC(=O)OC2=C(C(=C(C=C12)C3=NC(=NC=C3)N)O)C
Method: HCD
Collision_energy: [28.333334]
Isolation_window: 4.0
Ion_mode: P
Num Peaks: 6
185.0710	25.9
213.0657	30.6
280.1443	100.0
281.1476	15.6
326.1496	80.1
327.1531	18.1

Name: 6-(2-hydroxy-3-methyl-3-((2S,3R,4S,5S,6R)-3,4,5-trihydroxy-6-(hydroxymethyl)oxan-2-yl)oxybutyl)-5,7-dimethoxychromen-2-one
PrecursorMZ: 493.16773
RT: 3.6876
ExactMass: 470.17881177
Spectrum_type: 2
charge: 1
Formula: C22H30O11
SMILES: CC(C)(C(CC1=C(C=C2C(=C1OC)C=CC(=O)O2)OC)O)O[C@H]3[C@@H]([C@H]([C@@H]([C@H](O3)CO)O)O)O
Method: HCD
Collision_energy: [28.333334]
Isolation_window: 4.0
Ion_mode: P
Num Peaks: 3
112.8959	5.2
493.1674	100.0
494.1708	20.4

Name: 6-(3,5-dimethylpiperidin-1-yl)-1-methyl-N-phenyl-1H-pyrazolo(3,4-d)pyrimidin-4-amine
PrecursorMZ: 337.21349
RT: 1.7068
ExactMass: 336.20624479
Spectrum_type: 2
charge: 1
Formula: C19H24N6
SMILES: CC1CC(CN(C1)C2=NC(=C3C=NN(C3=N2)C)NC4=CC=CC=C4)C
Method: HCD
Collision_energy: [28.333334]
Isolation_window: 4.0
Ion_mode: P
Num Peaks: 3
337.2137	81.9
337.2865	100.0
339.2891	95.9

Name: 6-(4-benzylpiperidin-1-yl)-N-(4-methoxyphenyl)-1-methyl-1H-pyrazolo(3,4-d)pyrimidin-4-amine
PrecursorMZ: 429.23975
RT: 3.0595
ExactMass: 428.23245954
Spectrum_type: 2
charge: 1
Formula: C25H28N6O
SMILES: CN1C2=NC(=NC(=C2C=N1)NC3=CC=C(C=C3)OC)N4CCC(CC4)CC5=CC=CC=C5
Method: HCD
Collision_energy: [28.333334]
Isolation_window: 4.0
Ion_mode: P
Num Peaks: 3
429.2399	100.0
430.2431	23.6
431.2409	2.8

Name: 6-(Propan-2-yloxy)pyridine-3-carboxylic acid
PrecursorMZ: 182.08087
RT: 4.8694
ExactMass: 181.07389321
Spectrum_type: 2
charge: 1
Formula: C9H11NO3
SMILES: CC(C)OC1=NC=C(C=C1)C(=O)O
Method: HCD
Collision_energy: [28.333334]
Isolation_window: 4.0
Ion_mode: P
Num Peaks: 199
55.0545	0.4
56.0498	1.2
57.0451	3.3
59.0607	1.0
68.0497	0.7
69.0293	1.2
69.0338	0.6
69.2776	0.7
69.2922	0.6
69.2943	0.5
69.3197	0.8
69.3812	0.8
69.3891	0.6
69.5079	0.8
69.5210	0.4
69.5231	0.5
69.5369	0.7
69.6169	0.6
69.6230	0.7
69.6293	0.6
69.6645	0.7
69.6734	0.5
69.6859	0.6
69.7172	0.6
69.7278	0.6
70.0653	2.4
71.0494	2.5
71.0606	0.3
72.0810	1.0
74.0060	1.0
81.0449	3.1
82.0288	0.9
82.0653	0.3
83.0241	0.7
83.0605	1.8
84.0445	1.5
85.0762	0.7
86.0601	0.9
87.0440	0.7
91.0543	25.2
92.0164	0.7
92.0576	1.9
93.0699	1.2
94.0286	1.4
94.0651	1.2
95.0492	1.0
95.0540	0.6
95.0604	94.1
95.0667	0.7
95.0856	0.7
96.0444	0.7
96.0575	0.6
96.0638	4.9
96.9951	0.7
97.0759	2.4
97.4567	0.7
98.0599	1.4
98.0712	1.1
99.0551	7.2
100.0756	1.0
101.0344	3.8
101.0596	0.8
108.0442	0.5
108.0682	0.8
108.0807	0.5
109.0647	0.5
109.0760	1.8
109.1013	0.6
110.0598	0.8
110.0711	1.6
111.0551	1.0
111.0789	0.5
111.0915	1.0
112.0504	0.8
112.0756	0.4
112.0868	50.8
113.0839	0.5
113.0902	2.5
114.1023	0.7
119.0490	1.1
120.0111	1.1
120.9949	1.1
121.0645	8.3
121.1011	0.6
122.0598	0.8
122.0678	0.6
122.0711	5.5
123.0437	1.4
123.0550	3.1
123.0802	0.8
123.0913	1.1
124.0754	3.7
124.0866	1.0
125.0231	1.4
125.0706	0.5
126.0546	0.4
126.0912	0.8
127.0864	0.7
128.0813	0.5
134.0598	4.5
135.0630	0.6
135.0799	0.8
135.0914	4.9
136.0427	0.7
136.0647	0.5
136.0754	71.6
136.0861	0.7
137.0594	0.9
137.0706	1.8
137.0786	6.4
137.0834	0.5
137.0960	0.5
137.1069	0.5
138.0214	0.6
138.0545	0.9
138.0658	0.4
138.0850	1.5
138.0910	6.2
138.1021	1.3
139.0499	0.8
139.0610	0.6
139.0861	1.6
139.0974	4.1
140.0160	0.5
140.0703	2.2
140.0815	1.2
140.1178	0.5
141.0655	2.2
142.0608	4.2
142.0860	1.1
146.0598	2.0
147.0438	0.6
149.0594	1.6
151.0973	0.4
152.1180	3.8
153.1211	0.7
154.0316	0.6
154.0859	39.6
155.0811	1.7
155.0852	0.5
155.0894	3.2
156.0652	0.9
156.0763	1.1
162.0212	0.6
162.1100	0.6
163.0862	1.6
163.0973	0.7
163.1226	2.8
164.0559	0.8
164.0702	100.0
164.0807	4.0
164.0845	0.7
164.1180	18.9
165.0543	1.7
165.0655	1.5
165.0736	9.5
165.1019	0.9
165.1213	1.4
166.0495	0.6
166.0619	1.3
166.0859	13.4
167.0699	0.4
180.0652	1.4
180.0803	14.1
180.1040	3.2
180.1049	3.0
180.1126	2.1
180.1238	4.3
181.0601	2.0
181.0712	0.4
181.0839	4.5
181.0967	35.5
181.1047	1.0
181.1080	24.9
181.1269	0.5
181.1330	1.3
181.1441	1.5
182.0442	1.2
182.0807	17.0
182.0924	1.1
182.1002	3.7
182.1111	1.4
182.1171	4.8
182.1284	47.7
182.1898	0.7
183.0512	1.4
183.0645	3.4
183.0754	3.7
183.0774	0.5
183.0801	3.1
183.0848	1.2
183.0871	14.0
183.0913	5.7
183.1125	6.3
183.1208	0.5
183.1233	1.0
183.1317	4.8
184.0599	1.4
184.0962	3.7

Name: 6-(Tert-butylamino)-1,3,5-triazine-2,4-diol
PrecursorMZ: 185.10332
RT: 8.9564
ExactMass: 184.09602564
Spectrum_type: 2
charge: 1
Formula: C7H12N4O2
SMILES: CC(C)(C)NC1=NC(=O)NC(=O)N1
Method: HCD
Collision_energy: [28.333334]
Isolation_window: 4.0
Ion_mode: P
Num Peaks: 26
70.0656	2.7
100.0760	0.8
116.0707	1.0
117.9799	1.4
125.0823	39.6
126.0856	2.2
126.0914	0.8
138.0549	1.0
139.0502	1.0
167.0928	7.7
168.1021	1.1
177.9648	0.8
184.0606	0.8
184.1081	0.9
184.1332	1.0
185.0561	0.7
185.0934	1.0
185.1034	100.0
185.1206	0.8
185.1284	1.4
186.0762	1.4
186.0873	1.5
186.1000	0.7
186.1063	6.6
186.1126	5.7
187.1078	1.9

Name: 6-)(2E,4E)-4,6-dimethylocta-2,4-dienoyl(-2,3-dihydroxy-2-methylcyclohexan-1-one
PrecursorMZ: 295.19048
RT: 0.5653
ExactMass: 294.18310931
Spectrum_type: 2
charge: 1
Formula: C17H26O4
SMILES: CCC(C)/C=C(\C)/C=C/C(=O)C1CCC(C(C1=O)(C)O)O
Method: HCD
Collision_energy: [28.333334]
Isolation_window: 4.0
Ion_mode: P
Num Peaks: 182
57.0340	2.2
57.0704	19.8
59.0497	4.4
67.0547	24.2
69.0339	1.6
69.0704	22.2
71.0496	4.6
71.0860	50.8
72.0894	2.9
73.0652	1.5
79.0546	7.8
81.0703	44.8
82.0737	2.5
83.0495	5.3
83.0859	16.5
84.0893	1.6
85.0652	5.8
85.1017	10.1
86.0967	1.5
87.0445	2.1
89.0602	4.1
91.0545	7.3
93.0702	17.3
95.0495	3.5
95.0859	43.7
96.0893	2.9
97.0652	8.5
97.1015	14.1
98.9843	2.2
99.0444	3.0
99.0808	34.6
100.0841	1.5
101.0599	4.5
105.0702	8.5
107.0858	19.2
108.0893	1.7
109.0652	5.3
109.1015	26.2
110.1048	2.1
111.0443	14.7
111.0809	5.3
111.1171	6.0
112.0761	8.6
113.0601	2.7
113.0964	5.9
117.0700	2.2
119.0858	13.4
121.1014	28.0
122.1050	2.9
123.0807	6.0
123.1170	21.4
124.1202	1.6
125.0600	5.1
125.0963	6.7
125.1328	1.7
127.0755	1.9
127.1119	3.1
131.0858	6.0
132.0447	3.2
133.1013	15.2
134.1043	2.5
135.0806	4.0
135.1170	20.0
136.1204	2.0
137.0599	100.0
137.0959	5.4
137.1325	9.6
138.0633	8.8
139.0758	1.5
139.1119	8.0
141.0914	2.7
141.1275	10.4
143.0856	1.6
145.1015	9.3
147.0807	1.7
147.1170	30.4
148.1204	3.9
149.0962	7.9
149.1327	10.6
151.0757	3.5
151.0971	1.6
151.1120	9.9
151.1484	3.8
153.0916	2.3
153.1275	5.5
155.1072	1.4
157.0499	5.2
157.1014	2.9
159.1171	8.2
161.0963	6.1
161.1327	11.6
163.1120	8.4
163.1484	8.6
165.0912	3.4
165.1276	9.5
166.1307	1.5
167.1065	3.1
167.1437	3.2
169.0648	3.3
169.1226	1.6
171.1169	2.5
173.1327	6.4
175.1120	6.4
175.1481	4.4
177.1275	3.4
177.1640	2.1
179.1071	4.2
179.1428	2.8
181.1224	3.1
181.1586	3.8
184.0759	3.0
185.1328	2.1
187.1483	5.7
189.1273	3.4
189.1643	5.3
191.1432	2.0
193.1224	4.2
195.1386	2.4
197.0600	1.5
199.0757	1.6
201.1641	2.0
203.0918	1.5
203.1281	1.4
203.1795	7.4
207.1378	2.2
209.1538	1.7
213.1640	4.3
221.1176	1.6
221.1907	2.2
227.0704	8.6
227.1793	1.7
229.1957	3.5
231.1745	9.9
232.1778	2.1
233.2267	1.6
241.1587	1.9
243.2110	8.1
245.2268	3.3
247.1691	1.5
249.1851	11.2
250.1888	2.3
250.2169	4.5
253.2524	1.5
261.2214	15.8
262.2249	2.5
263.2369	4.1
275.2008	2.6
277.1802	73.1
277.2144	7.3
278.1838	16.8
278.2184	1.7
279.1878	2.0
279.2320	72.6
280.2352	13.9
281.2438	2.8
283.0314	1.7
285.2222	2.4
293.2113	3.9
294.2116	2.8
294.2435	4.3
295.1909	11.5
295.2267	5.6
296.1937	2.5
296.2266	1.9
296.2578	1.5
297.2427	22.6
298.2457	4.5
299.0619	6.1
299.2585	13.1
300.0629	2.0
300.2620	2.8
301.1553	2.3
301.2163	9.3
302.1752	3.2
302.2198	1.5
302.3056	4.8
303.2323	14.5
304.2347	3.3
305.2113	1.9
305.2464	2.1
306.2794	1.5
312.1602	5.7

Name: 6-)(3S,4S)-4-methylpyrrolidin-3-yl(-1-(tetrahydro-2H-pyran-4-yl)-1H-pyrazolo)3,4-d(pyrimidin-4(5H)-one
PrecursorMZ: 304.1766
RT: 4.1119
ExactMass: 303.16952493
Spectrum_type: 2
charge: 1
Formula: C15H21N5O2
SMILES: C[C@@H]1CNC[C@H]1C2=NC3=C(C=NN3C4CCOCC4)C(=O)N2
Method: HCD
Collision_energy: [28.333334]
Isolation_window: 4.0
Ion_mode: P
Num Peaks: 18
70.0655	8.6
98.0603	12.5
116.0709	19.1
217.1337	19.7
245.1286	80.2
246.1320	13.1
287.1511	9.3
304.1770	100.0
304.3005	9.1
305.1808	18.6
306.1331	16.1
309.1450	10.9
310.1314	22.6
311.1629	7.5
312.1435	7.6
313.1766	9.3
318.1358	8.0
320.1496	8.2

Name: 6-)5-(methoxymethyl)pyridin-3-yl(-3,4-dihydro-2H-1,8-naphthyridine-1-carboxamide
PrecursorMZ: 299.15014
RT: 3.6787
ExactMass: 298.14297583
Spectrum_type: 2
charge: 1
Formula: C16H18N4O2
SMILES: COCC1=CC(=CN=C1)C2=CC3=C(N=C2)N(CCC3)C(=O)N
Method: HCD
Collision_energy: [28.333334]
Isolation_window: 4.0
Ion_mode: P
Num Peaks: 109
55.0547	1.6
58.0657	3.7
70.0657	6.8
72.0813	2.4
81.0340	2.4
83.0495	2.5
84.0812	4.3
94.0655	3.2
95.0608	3.6
98.0603	1.5
100.0762	1.2
101.0601	8.0
102.0918	1.9
106.0653	1.3
107.0733	2.1
108.0812	1.4
110.0717	1.2
112.0872	1.9
116.0709	2.8
120.0812	2.6
121.0891	1.6
124.0872	1.9
132.0446	1.6
132.0813	2.3
134.0608	1.3
134.0966	1.4
136.0759	1.4
148.0870	5.0
149.1072	3.2
150.0550	2.7
154.0864	3.6
162.0915	2.0
166.0981	1.3
171.0915	1.3
172.0973	1.4
175.1233	2.2
176.0703	2.2
180.1014	1.5
189.1024	4.8
193.1094	4.3
202.0850	2.9
203.0938	4.6
205.0966	2.5
207.1131	9.9
208.0971	5.3
208.1164	1.3
209.1288	3.7
210.0779	1.5
211.1440	2.9
215.1184	1.1
216.0999	1.3
217.1339	1.2
218.1382	2.5
219.1125	2.4
223.1442	6.5
225.1021	1.2
239.1144	12.4
240.1186	1.5
249.1599	5.0
251.1401	2.1
275.1753	3.0
292.2026	5.8
293.1288	1.3
297.1818	5.5
298.1055	1.8
298.1861	4.5
298.2129	3.3
298.2392	3.6
299.1508	54.7
299.1970	3.9
300.1246	4.5
300.1549	11.0
301.1227	1.7
301.1564	9.1
302.1370	18.5
303.1403	14.1
303.1765	6.7
304.1202	22.0
304.1570	15.5
305.1519	29.8
306.1356	6.4
306.1750	7.3
307.1368	2.8
307.1657	93.8
308.1490	10.2
308.1696	10.5
308.1975	4.2
309.1524	2.1
309.1814	30.6
310.1302	1.7
310.1845	7.7
310.2151	2.3
311.1414	10.4
311.1966	100.0
312.1291	2.3
312.1361	2.4
312.2004	17.9
313.1233	1.5
313.1563	4.6
313.2094	3.2
314.1376	6.8
315.1369	5.9
315.1719	2.7
316.1574	12.0
317.1500	48.8
317.1827	2.0
318.1391	3.8
318.1778	3.5
319.1654	20.0

Name: 6-Amino-1,2-benzopyrone
PrecursorMZ: 162.05494
RT: 5.7725
ExactMass: 161.047678466
Spectrum_type: 2
charge: 1
Formula: C9H7NO2
SMILES: C1=CC2=C(C=CC(=O)O2)C=C1N
Method: HCD
Collision_energy: [28.333334]
Isolation_window: 4.0
Ion_mode: P
Num Peaks: 33
69.0337	0.5
83.0493	0.4
84.0445	0.4
97.0649	0.6
99.0441	0.6
100.0757	13.1
101.0598	1.6
101.0791	1.3
102.0550	0.5
105.0335	0.8
106.0651	0.5
116.0494	0.9
117.0545	0.8
118.0651	2.5
125.0597	0.5
133.0520	1.2
134.0598	3.0
136.0755	4.1
143.0702	0.5
144.0442	11.1
145.0474	0.9
160.0753	0.5
160.0965	0.4
161.0470	1.7
161.0708	0.5
162.0408	0.9
162.0435	0.6
162.0547	100.0
162.0660	1.5
162.0689	0.8
163.0520	0.5
163.0580	10.2
164.0703	1.8

Name: 6-Amino-2-(pentanoylamino)hexanoic acid
PrecursorMZ: 231.17007
RT: 7.782277777777778
ExactMass: 230.16304257
Spectrum_type: 2
charge: 1
Formula: C11H22N2O3
SMILES: CCCCC(=O)NC(CCCCN)C(=O)O
Method: HCD
Collision_energy: [28.333334]
Isolation_window: 4.0
Ion_mode: P
Num Peaks: 44
57.0702	10.1
70.0654	24.0
72.0811	8.0
84.0810	83.1
85.0287	7.1
85.0650	14.6
85.0842	4.8
100.0756	9.6
101.0597	5.4
112.0757	7.0
116.0706	14.9
128.0705	14.8
129.1021	100.0
130.0861	48.7
130.1055	6.0
147.1126	44.5
149.0707	9.8
152.0705	5.3
166.0973	5.0
168.1018	6.7
168.1381	12.1
172.0967	5.6
184.0966	13.4
184.1078	69.8
185.1114	6.8
186.0759	5.5
186.1121	25.2
195.1485	6.3
212.0914	10.1
213.0866	4.8
214.1070	10.7
214.1436	5.7
230.1019	21.3
230.1133	32.6
230.1382	11.5
230.1496	6.6
231.0969	24.6
231.1330	12.0
231.1699	55.4
232.0974	4.7
232.1175	74.5
232.1324	6.5
232.1539	9.0
232.1732	5.9

Name: 6-Amino-4-(4-hydroxy-3-methoxyphenyl)-3-isopropyl-2,4-dihydropyrano(2,3-c)pyrazole-5-carbonitrile
PrecursorMZ: 349.12696
RT: 3.0531
ExactMass: 326.13789045
Spectrum_type: 2
charge: 1
Formula: C17H18N4O3
SMILES: CC(C)C1=C2C(C(=C(OC2=NN1)N)C#N)C3=CC(=C(C=C3)O)OC
Method: HCD
Collision_energy: [28.333334]
Isolation_window: 4.0
Ion_mode: P
Num Peaks: 3
289.1540	38.5
349.1255	100.0
349.1746	51.4

Name: 6-Amino-5-formamido-1,3-dimethyluracil
PrecursorMZ: 199.08253
RT: 6.4497
ExactMass: 198.07529019
Spectrum_type: 2
charge: 1
Formula: C7H10N4O3
SMILES: CN1C(=C(C(=O)N(C1=O)C)NC=O)N
Method: HCD
Collision_energy: [28.333334]
Isolation_window: 4.0
Ion_mode: P
Num Peaks: 49
74.0968	0.8
84.0447	0.7
86.0602	0.5
87.0443	1.5
98.9843	1.1
102.0551	0.8
105.0700	1.2
106.0652	0.5
110.0601	1.4
112.0756	0.6
114.0662	0.9
122.0600	1.1
124.0504	3.4
126.0549	2.2
130.0498	1.2
134.0599	0.9
138.0548	0.8
138.0660	2.4
140.0452	0.6
140.0704	0.5
142.0609	2.8
152.0706	1.8
153.0910	0.6
154.0866	1.1
154.0974	5.2
155.0926	0.8
156.0648	1.0
157.0719	39.1
158.0690	0.5
158.0750	1.9
164.0705	0.8
168.0400	0.6
180.0653	3.3
180.1017	0.5
181.0551	0.7
181.0718	100.0
181.0969	0.8
182.0685	0.9
182.0748	6.6
182.0811	2.5
182.0922	5.2
183.0872	0.8
198.0759	2.4
198.1109	1.1
199.0836	0.8
199.0871	1.6
199.1070	0.9
200.0915	4.6
200.1027	8.8

Name: 6-Benzyl-3-butan-2-yl-9-(7,8-dihydroxy-6-oxooctyl)-1,4,7,10-tetrazabicyclo(10.4.0)hexadecane-2,5,8,11-tetrone
PrecursorMZ: 609.327
RT: 5.0339
ExactMass: 586.33664982
Spectrum_type: 2
charge: 1
Formula: C31H46N4O7
SMILES: CCC(C)C1C(=O)N2CCCCC2C(=O)NC(C(=O)NC(C(=O)N1)CC3=CC=CC=C3)CCCCCC(=O)C(CO)O
Method: HCD
Collision_energy: [28.333334]
Isolation_window: 4.0
Ion_mode: P
Num Peaks: 153
51.8038	1.0
65.7021	0.6
67.7033	0.7
69.0353	1.2
69.0378	0.9
70.0654	1.6
72.0810	1.0
81.0336	0.8
83.0856	1.6
85.0761	1.3
86.0965	2.4
87.0441	1.7
89.0598	13.7
97.4574	1.3
106.0649	1.1
108.0807	7.1
110.0711	1.0
116.0704	1.2
120.0805	0.9
124.0755	3.4
126.0911	6.6
133.0856	6.6
134.0959	0.6
136.0754	1.5
138.0910	7.8
148.0753	35.8
149.0785	4.4
150.0547	1.1
150.0910	17.3
151.0943	1.1
152.0703	5.4
164.0702	26.1
165.0735	1.3
166.0859	100.0
166.0915	0.7
166.1001	0.6
167.0891	11.8
168.1015	51.1
169.1048	3.4
170.0807	2.0
177.1117	2.0
178.0857	0.8
180.1014	4.9
181.1047	0.7
182.0807	11.4
192.0648	0.7
194.0807	1.0
229.1328	1.6
231.1487	1.7
232.1517	0.7
233.1641	1.8
245.1274	2.8
255.1118	1.0
257.1276	10.6
258.1311	1.9
259.1437	2.6
271.1068	0.7
271.1432	1.8
272.1272	0.7
273.1227	1.2
273.1588	9.3
274.1625	2.4
275.1385	1.0
275.1747	7.0
276.1783	0.8
283.1433	0.7
285.1222	1.6
285.1593	0.7
286.1298	1.0
287.1380	16.5
288.1431	2.8
289.1538	6.7
290.1573	1.5
291.1694	44.0
292.1728	10.8
293.1851	34.2
294.1886	4.4
299.1379	4.9
300.1416	1.2
301.1172	0.6
301.1537	21.9
302.1570	6.4
303.1329	8.0
303.1700	4.2
304.1362	0.7
304.1730	0.9
305.1486	8.0
306.1522	0.7
307.1642	23.7
308.1673	1.6
309.1795	2.0
313.1541	0.9
315.1325	1.8
316.1361	0.7
317.1485	19.2
318.1518	5.7
319.1651	5.2
320.1680	1.1
330.1562	0.8
331.1638	3.5
332.1675	1.0
341.1483	2.9
342.1519	0.8
343.1642	5.3
344.1716	6.1
345.1760	0.7
348.2059	1.1
349.1898	0.7
357.1438	1.1
358.1509	2.0
359.1589	14.2
360.1626	5.1
361.1750	1.7
394.2108	1.5
406.2112	0.8
407.1955	1.2
408.1902	1.1
408.2281	0.7
409.1751	0.6
409.1968	1.3
410.2060	2.7
411.2099	1.7
412.2191	0.7
438.2010	1.7
452.2178	0.8
464.2166	1.2
465.2245	1.0
466.2077	1.1
466.2331	17.3
467.2138	2.2
467.2413	7.2
468.2179	0.9
468.2473	6.9
469.2532	0.9
482.2271	2.8
483.2324	3.0
484.2424	9.2
485.2474	3.4
486.2567	1.5
589.3008	1.1
590.2883	0.8
590.3007	1.4
590.3086	0.8
591.3166	12.2
591.3580	1.8
592.3199	4.0
592.3627	0.7
593.3309	2.3
607.3107	5.4
608.3131	7.4
609.3276	13.8
610.3311	4.9
611.3436	3.8

Name: 6-Hydroxy-4-oxo-1,2-dihydro-4H-pyrrolo(3,2,1-ij)quinoline-5-carboxylic acid pyridin-3-ylamide
PrecursorMZ: 308.10251
RT: 7.10585
ExactMass: 307.09569129
Spectrum_type: 2
charge: 1
Formula: C17H13N3O3
SMILES: C1CN2C3=C1C=CC=C3C(=C(C2=O)C(=O)NC4=CN=CC=C4)O
Method: HCD
Collision_energy: [28.333334]
Isolation_window: 4.0
Ion_mode: P
Num Peaks: 35
58.0655	4.2
70.0654	3.7
81.0338	4.1
84.0810	6.7
97.0285	3.3
120.0807	6.0
130.0862	4.4
131.0491	3.5
132.0523	4.4
132.0806	3.6
144.0806	9.0
166.0862	6.4
247.0861	15.0
262.0963	4.0
264.1103	5.3
264.1247	6.9
290.1247	3.0
292.1173	11.1
306.1328	3.2
306.1691	11.4
306.1877	5.9
307.1429	3.1
307.1654	6.0
307.2007	20.5
308.1021	100.0
308.1312	4.0
308.1462	5.3
308.1967	7.3
308.2193	4.3
309.1055	20.6
309.1228	6.6
309.1586	6.1
309.1801	4.9
310.1278	19.0
310.1619	4.8

Name: 6-Hydroxy-7,7-dimethyl-6,8-dihydroimidazo(1,2-a)(1,3,5)triazine-2,4-dione
PrecursorMZ: 199.0824
RT: 6.452416666666666
ExactMass: 198.07529019
Spectrum_type: 2
charge: 1
Formula: C7H10N4O3
SMILES: CC1(C(N2C(=NC(=O)NC2=O)N1)O)C
Method: HCD
Collision_energy: [28.333334]
Isolation_window: 4.0
Ion_mode: P
Num Peaks: 80
59.0495	1.0
69.6946	1.0
70.0654	4.5
72.0810	2.0
81.0450	1.1
84.0445	1.2
85.0650	1.5
86.0603	2.9
86.0715	1.8
87.0442	19.0
95.0605	4.1
96.0444	1.0
99.0555	1.0
100.0758	1.0
101.0597	1.2
110.0601	2.2
110.0713	74.8
111.0553	2.3
111.0746	4.3
112.0757	2.5
113.0709	1.2
114.0662	10.1
116.0705	1.4
122.0599	1.3
124.0504	1.7
124.0756	0.9
126.0548	2.2
128.0705	1.3
130.0862	1.6
136.0756	1.9
137.0708	4.7
138.0547	2.3
138.0661	1.9
139.0865	1.1
140.0340	9.2
140.0454	1.2
140.0707	1.4
142.0609	2.9
152.0705	5.6
152.0816	37.1
153.0851	2.7
153.1019	1.2
153.1385	1.8
154.0499	1.4
154.0863	2.8
154.0973	71.8
154.1224	12.2
155.0924	1.0
155.1007	1.9
156.0766	37.0
157.0718	19.7
157.0796	2.3
158.0752	1.1
164.0702	1.7
170.0809	1.2
179.0813	2.8
180.0288	2.2
180.0652	4.6
180.0764	7.2
181.0717	50.3
181.0968	2.5
182.0748	3.0
182.0813	11.2
182.0921	62.6
183.0953	2.1
183.1125	1.4
197.0917	2.7
197.1279	2.0
198.0758	8.3
198.0868	18.8
198.1119	2.0
199.0861	1.3
199.0906	1.0
199.1072	6.4
199.1436	4.3
200.0914	5.0
200.1026	100.0
200.1276	10.2
201.1065	2.9
201.1224	1.6

Name: 6-Hydroxyaminopurine
PrecursorMZ: 152.05671
RT: 6.2551
ExactMass: 151.0494098
Spectrum_type: 2
charge: 1
Formula: C5H5N5O
SMILES: C1=NC2=C(N1)C(=NC=N2)NO
Method: HCD
Collision_energy: [28.333334]
Isolation_window: 4.0
Ion_mode: P
Num Peaks: 90
66.0341	0.4
67.0546	1.6
69.0337	0.4
69.0701	0.4
70.0654	1.7
79.0545	1.1
80.0498	0.8
81.0336	0.4
81.0701	1.4
82.0653	1.0
83.0494	0.5
84.0447	0.4
91.0543	1.1
93.0700	2.0
94.0652	1.2
95.0493	0.8
95.0856	0.5
96.0446	0.9
96.0808	0.9
97.0649	0.4
105.0699	1.3
106.0652	1.7
107.0492	1.6
107.0604	0.4
107.0729	2.1
107.0856	1.7
108.0444	0.8
108.0808	0.6
109.0285	0.4
109.0649	0.9
109.0760	6.6
109.1012	0.5
110.0349	0.4
110.0601	2.0
111.0441	0.5
111.0805	0.5
112.0757	1.0
112.0868	0.5
122.0600	0.6
123.0804	0.6
124.0392	0.4
124.0618	0.5
124.0756	2.6
125.0457	1.2
125.0598	0.7
125.0708	11.0
126.0549	0.3
126.0741	0.4
126.0913	1.9
133.1010	1.5
134.0598	7.6
135.0437	0.6
135.0552	0.5
135.0632	0.6
135.0805	0.5
136.0386	0.5
136.0755	0.8
150.0548	0.6
150.0912	2.7
150.1276	0.8
151.0389	0.7
151.0500	0.4
151.0613	15.4
151.0753	1.2
151.0864	1.4
151.0938	0.5
151.1116	2.6
151.1227	0.4
152.0344	1.6
152.0438	0.7
152.0464	0.7
152.0566	100.0
152.0643	0.9
152.0702	49.1
152.0807	0.7
152.0834	0.5
152.1067	3.4
153.0406	1.7
153.0538	2.3
153.0598	4.9
153.0657	7.2
153.0737	3.8
153.0907	0.6
153.1019	1.0
153.1384	0.4
154.0496	1.0
154.0649	0.4
154.0863	6.0
154.0972	20.6
154.1223	0.4

Name: 6-Hydroxyquinoline
PrecursorMZ: 146.06007
RT: 6.5928
ExactMass: 145.052763847
Spectrum_type: 2
charge: 1
Formula: C9H7NO
SMILES: C1=CC2=C(C=CC(=C2)O)N=C1
Method: HCD
Collision_energy: [28.333334]
Isolation_window: 4.0
Ion_mode: P
Num Peaks: 12
62.9295	2.4
86.0967	2.2
118.0653	3.1
121.9663	15.8
123.9645	10.0
128.0495	12.9
145.0760	2.9
146.0601	100.0
147.0552	2.7
147.0633	10.4
147.0917	5.2
148.0756	2.2

Name: 6-Mercaptopurine
PrecursorMZ: 170.11754
RT: 1.7435
ExactMass: 152.01566732
Spectrum_type: 2
charge: 1
Formula: C5H4N4S
SMILES: C1=NC2=C(N1)C(=S)N=CN2
Method: HCD
Collision_energy: [28.333334]
Isolation_window: 4.0
Ion_mode: P
Num Peaks: 14
83.0858	5.9
110.0965	8.3
112.0757	6.0
126.0550	5.5
126.0913	28.9
138.0911	10.6
152.1069	13.0
168.0693	19.1
168.1578	5.6
169.0761	100.0
170.0794	11.7
170.1176	21.3
171.1127	16.3
171.1495	6.3

Name: 6-Methoxy-9H-purine
PrecursorMZ: 151.06126
RT: 3.1246
ExactMass: 150.05416083
Spectrum_type: 2
charge: 1
Formula: C6H6N4O
SMILES: COC1=NC=NC2=C1NC=N2
Method: HCD
Collision_energy: [28.333334]
Isolation_window: 4.0
Ion_mode: P
Num Peaks: 39
89.0598	0.5
91.0543	0.4
94.0400	1.4
95.0604	0.8
106.0651	0.4
107.0491	2.8
108.0443	0.9
110.0348	3.2
110.0600	0.5
122.0598	0.5
124.0754	0.7
125.0708	0.4
126.0546	0.5
128.0452	0.4
134.0596	0.4
135.0549	0.5
150.0547	1.6
150.0772	13.0
150.0907	1.7
151.0486	0.7
151.0510	0.6
151.0611	100.0
151.0713	0.4
151.0739	1.0
151.0807	0.7
151.0860	1.7
151.1114	0.4
151.1225	1.5
152.0339	2.4
152.0579	1.6
152.0644	6.5
152.0702	3.8
152.0815	0.3
152.1065	0.4
153.0404	0.3
153.0655	13.3
153.1017	0.3
154.0495	7.8
170.0446	0.4

Name: 6-Methoxyquinoline
PrecursorMZ: 160.07566
RT: 8.4622
ExactMass: 159.068413911
Spectrum_type: 2
charge: 1
Formula: C10H9NO
SMILES: COC1=CC2=C(C=C1)N=CC=C2
Method: HCD
Collision_energy: [28.333334]
Isolation_window: 4.0
Ion_mode: P
Num Peaks: 9
117.0572	3.4
130.0649	12.1
132.0806	26.3
145.0520	13.2
148.0754	10.2
158.0711	5.0
160.0754	100.0
160.0966	3.5
161.0789	9.6

Name: 6-Methyl-2-oxo-1,2-dihydropyridine-4-carboxylic acid
PrecursorMZ: 154.04991
RT: 2.4987
ExactMass: 153.042593085
Spectrum_type: 2
charge: 1
Formula: C7H7NO3
SMILES: CC1=CC(=CC(=O)N1)C(=O)O
Method: HCD
Collision_energy: [28.333334]
Isolation_window: 4.0
Ion_mode: P
Num Peaks: 140
56.0498	0.1
58.0656	0.1
68.0500	0.1
69.0341	0.2
70.0655	0.6
71.0496	0.1
72.0448	0.6
72.0814	0.1
74.0605	0.1
79.0546	1.6
80.0499	0.2
81.0337	0.2
81.0702	0.2
82.0655	0.3
83.0495	0.3
84.0447	0.5
84.0812	0.3
86.0605	0.1
86.0970	0.3
94.0654	0.2
95.0494	0.3
95.0607	0.5
96.0446	0.3
96.0810	0.4
97.0290	0.2
97.0652	0.4
98.0604	0.6
99.0445	0.2
100.0248	0.2
100.0760	0.3
102.0554	0.2
105.0339	0.2
106.0656	0.2
107.0494	1.5
107.0608	0.1
108.0446	0.1
108.0527	0.1
110.0608	0.2
110.0714	0.2
111.0447	0.2
111.0555	1.1
112.0760	0.2
113.0712	0.3
114.0549	0.3
114.0913	0.2
115.0756	1.0
116.0713	0.3
118.0866	0.1
122.0604	0.3
123.0111	0.1
123.0554	0.6
124.0614	0.1
124.0759	17.3
124.0863	0.7
124.0902	0.2
124.0955	0.1
125.0599	11.0
125.0677	0.1
125.0703	0.1
125.0789	1.2
126.0552	0.2
126.0630	0.8
126.0914	0.1
128.0712	0.2
130.0499	0.6
130.0868	0.1
132.1021	0.1
136.0389	0.2
136.0753	0.2
137.0708	0.3
138.0548	0.3
139.0755	0.1
140.0708	0.4
140.1075	0.2
141.0658	0.7
142.0864	37.9
142.1040	0.2
142.1104	0.2
142.1225	1.8
142.1432	0.1
143.0700	0.1
143.0899	2.8
143.1265	0.1
144.0661	0.2
144.0914	0.2
146.0816	0.5
150.0553	0.1
152.0707	0.5
153.0653	0.2
154.0501	3.6
154.0856	0.3
155.0542	0.3
155.0817	0.4
156.1018	0.2
157.0608	0.3
157.0966	0.2
158.0813	0.2
158.0937	0.2
158.1176	0.2
159.0771	0.1
159.0920	0.3
160.0373	0.2
160.0617	0.2
160.0693	0.6
160.0751	0.6
160.0969	100.0
160.1193	0.5
160.1251	0.6
160.1328	0.4
160.1405	0.1
160.1648	0.3
161.0997	7.5
162.0759	0.1
162.0911	0.8
162.1020	0.9
162.1137	0.2
163.0864	0.1
163.1229	0.3
164.0705	0.3
164.0918	0.3
164.1070	0.7
165.0208	0.2
165.1395	0.2
166.0866	0.2
166.1075	0.1
166.1226	0.3
167.0816	0.1
168.0674	1.6
169.0965	0.1
170.0808	0.1
170.1544	0.2
171.0765	0.1
171.1126	0.2
171.1476	0.2
172.0955	0.2
172.1333	0.3
173.0922	0.1
174.0913	0.8
174.1118	0.2
174.1243	1.2

Name: 6-Oxopristimerol
PrecursorMZ: 481.27943
RT: 1.0101
ExactMass: 480.28757437
Spectrum_type: 2
charge: 1
Formula: C30H40O5
SMILES: CC1=C2C(=CC(=C1O)O)[C@@]3(CC[C@]4(C5C[C@](CC[C@@]5(CC[C@@]4(C3=CC2=O)C)C)(C)C(=O)OC)C)C
Method: HCD
Collision_energy: [28.333334]
Isolation_window: 4.0
Ion_mode: P
Num Peaks: 5
333.2060	41.1
357.2061	36.4
427.2471	40.1
445.2572	100.0
481.2816	43.7

Name: 6-t-Butyl-2-(furan-2-carboxamido)-4,5,6,7-tetrahydrobenzo(b)thiophene-3-carboxylic acid
PrecursorMZ: 330.11564
RT: 5.8694
ExactMass: 347.11912932
Spectrum_type: 2
charge: 1
Formula: C18H21NO4S
SMILES: CC(C)(C)C1CCC2=C(C1)SC(=C2C(=O)O)NC(=O)C3=CC=CO3
Method: HCD
Collision_energy: [28.333334]
Isolation_window: 4.0
Ion_mode: P
Num Peaks: 32
70.0656	3.1
72.0811	11.8
83.0107	9.7
84.0448	2.8
86.0967	7.7
98.0603	2.8
98.9843	2.3
113.0210	10.3
114.0915	3.2
132.1018	3.1
136.0618	7.7
138.0550	4.5
148.0370	2.6
168.1019	4.1
172.0969	3.8
200.0920	3.1
208.0579	21.8
226.0685	5.9
258.0947	9.2
294.1692	2.9
298.0894	21.2
299.0932	2.7
312.1805	4.8
328.3401	3.0
329.1132	7.2
329.1472	3.5
330.0616	4.0
330.0997	2.4
330.1157	100.0
330.1911	3.5
331.1171	10.4
331.1639	2.3

Name: 7
PrecursorMZ: 333.20567
RT: 5.1591000000000005
ExactMass: 332.19875937
Spectrum_type: 2
charge: 1
Formula: C20H28O4
SMILES: CC12CCCC(C1CC(C3=C2C=CC(=C3)C(C)(C)O)O)(C)C(=O)O
Method: HCD
Collision_energy: [28.333334]
Isolation_window: 4.0
Ion_mode: P
Num Peaks: 63
58.0656	5.3
81.0338	5.6
81.0702	3.7
83.0494	2.0
91.0544	12.8
93.0701	4.1
95.0857	3.0
105.0699	3.7
107.0856	3.1
109.1013	2.7
111.0442	12.3
117.0699	2.8
119.0856	5.4
121.0651	2.3
121.1014	2.2
131.0854	4.1
133.1011	3.6
137.0960	6.5
143.0854	3.5
145.1012	4.1
155.0857	2.7
157.1012	3.6
159.1167	3.3
165.0908	3.5
169.1013	3.2
171.1170	3.0
181.1009	2.0
183.1167	2.4
195.1166	2.6
197.1326	2.9
199.1480	9.5
209.1325	3.6
217.1584	2.6
223.1477	3.7
225.1641	2.1
237.1636	4.6
240.2681	5.7
241.1585	3.0
251.1791	4.5
255.1744	3.3
259.1690	3.9
269.1533	5.1
269.1897	12.4
279.1739	5.8
285.1848	2.1
287.2003	6.5
297.1845	25.7
298.1877	5.8
315.1329	2.4
315.1951	18.8
316.1175	2.5
316.1975	3.4
332.1122	3.0
332.1476	2.4
332.3307	23.9
333.0941	2.4
333.1445	6.0
333.1840	3.0
333.2055	100.0
333.3346	6.2
334.1281	5.2
334.2091	19.9
335.1604	2.2

Name: 7,8-Dihydroxycalonectrin
PrecursorMZ: 365.15913
RT: 0.7721
ExactMass: 382.16276778
Spectrum_type: 2
charge: 1
Formula: C19H26O8
SMILES: CC1=CC2C(C(C1O)O)(C3(CC(C(C34CO4)O2)OC(=O)C)C)COC(=O)C
Method: HCD
Collision_energy: [28.333334]
Isolation_window: 4.0
Ion_mode: P
Num Peaks: 15
57.0703	24.3
69.0703	40.2
107.0494	29.1
125.0598	28.6
127.0754	30.7
221.0808	32.9
223.0960	30.6
249.1121	24.1
277.1073	31.3
277.1433	23.8
317.1743	30.6
347.1489	39.8
363.2165	34.0
363.2444	100.0
365.1600	31.0

Name: 7,8-Dimethoxy-benzo(d)(1,2)oxazin-1-one
PrecursorMZ: 208.06036
RT: 6.9989
ExactMass: 207.05315777
Spectrum_type: 2
charge: 1
Formula: C10H9NO4
SMILES: COC1=C(C2=C(C=C1)C=NOC2=O)OC
Method: HCD
Collision_energy: [28.333334]
Isolation_window: 4.0
Ion_mode: P
Num Peaks: 17
96.0811	1.3
162.0550	1.2
163.0869	1.4
164.0708	1.7
167.0815	1.5
190.0501	2.0
191.0816	2.8
206.0813	1.1
207.0765	34.2
207.1128	1.2
208.0605	100.0
208.0804	3.5
208.0967	4.8
209.0639	10.3
209.0922	1.3
210.0764	1.6
210.1124	3.9

Name: 7,8-dihydroxy-3-((1E,3E)-7-hydroxy-3,5-dimethylhepta-1,3-dienyl)-7-methyl-8H-isochromen-6-one
PrecursorMZ: 333.16946
RT: 0.91645
ExactMass: 332.16237386
Spectrum_type: 2
charge: 1
Formula: C19H24O5
SMILES: CC(CCO)/C=C(\C)/C=C/C1=CC2=CC(=O)C(C(C2=CO1)O)(C)O
Method: HCD
Collision_energy: [28.333334]
Isolation_window: 4.0
Ion_mode: P
Num Peaks: 6
83.0495	100.0
245.1171	28.0
263.1279	18.5
315.1587	35.9
331.1897	19.7
333.1689	39.1

Name: 7,8-dihydroxy-3-)(1E,3E)-7-hydroxy-3,5-dimethylhepta-1,3-dienyl(-7-methyl-8H-isochromen-6-one
PrecursorMZ: 333.16938
RT: 0.5665
ExactMass: 332.16237386
Spectrum_type: 2
charge: 1
Formula: C19H24O5
SMILES: CC(CCO)/C=C(\C)/C=C/C1=CC2=CC(=O)C(C(C2=CO1)O)(C)O
Method: HCD
Collision_energy: [28.333334]
Isolation_window: 4.0
Ion_mode: P
Num Peaks: 243
55.0547	6.1
57.0340	5.3
57.0704	29.4
59.0497	7.9
59.0608	2.4
60.0450	5.5
67.0547	12.8
69.0340	8.3
69.0703	14.4
70.0656	4.6
71.0496	13.2
71.0860	8.9
72.0812	5.6
73.0652	2.4
79.0546	5.9
81.0339	7.1
81.0703	23.4
83.0496	100.0
83.0860	22.7
84.0529	4.8
84.0812	2.5
85.0287	4.0
85.0652	22.1
85.1015	4.1
86.0968	7.6
87.0444	12.0
89.0601	14.9
91.0543	4.7
93.0702	12.5
95.0495	9.3
95.0859	22.9
97.0651	9.1
97.1015	5.3
98.9845	11.1
99.0443	6.8
99.0808	7.2
101.0600	9.5
105.0339	5.1
105.0701	6.8
107.0494	8.3
107.0858	14.6
108.0811	6.5
109.0290	3.6
109.0651	13.6
109.1014	17.6
111.0447	2.9
111.0808	6.6
112.0760	7.2
113.0600	9.3
113.0965	2.7
115.0759	3.1
117.0703	2.6
119.0493	6.3
119.0858	8.5
120.0811	3.7
121.0650	10.5
121.1014	14.6
123.0443	3.3
123.0807	6.9
123.1171	7.3
124.0762	5.1
125.0599	3.2
125.0963	5.0
126.0915	51.1
127.0756	7.7
127.0952	4.5
129.0911	5.2
131.0857	5.6
132.1022	2.5
133.0651	3.4
133.0861	4.8
133.1012	9.5
135.0444	7.5
135.0809	4.9
135.1170	24.7
136.0757	2.6
136.1201	2.4
137.0599	9.0
137.0963	5.6
137.1326	3.6
138.0914	5.5
139.0392	3.0
139.0751	2.8
139.1120	3.5
141.0545	2.4
141.0909	2.5
143.1069	2.7
145.1013	6.0
146.1179	2.4
147.0808	8.8
147.1170	6.9
149.0599	6.9
149.0963	6.6
149.1325	5.5
150.0548	3.5
150.0916	4.8
151.0758	4.7
151.0967	7.0
151.1120	4.6
153.0548	5.0
153.0912	4.1
153.1275	4.6
155.0707	3.0
157.1015	4.8
157.1219	3.3
159.0805	3.5
159.1169	7.1
161.0601	4.2
161.0962	4.3
161.1324	3.6
163.0754	12.6
163.1114	4.6
163.1484	2.9
164.0702	4.5
165.0549	4.4
165.0914	2.5
165.1274	3.0
167.1071	3.1
169.0862	4.1
171.1150	2.9
171.1369	3.8
173.0963	4.0
173.1323	3.0
175.0760	5.5
175.1120	11.7
175.1484	2.6
177.0542	3.2
177.0914	2.7
177.1272	4.1
178.0867	2.8
179.0705	5.1
179.1071	2.7
179.1428	3.1
180.1019	5.5
181.0860	2.6
182.1178	7.7
185.0966	4.0
185.1539	7.9
187.0743	2.9
187.1122	4.7
189.0550	3.3
189.0908	5.0
191.0702	4.5
191.1061	4.5
191.1796	11.9
193.0861	5.8
193.1222	6.9
195.1219	3.5
199.1116	4.4
201.0916	4.3
203.0701	4.4
203.1067	13.6
205.1225	2.7
207.0661	2.7
207.1129	4.6
208.0971	5.0
210.1124	2.5
212.0919	3.5
213.0911	4.2
215.1070	4.8
217.0867	3.7
217.1220	8.2
219.1003	5.2
221.1165	9.4
227.1069	7.1
229.0862	9.4
229.1205	3.0
231.1010	5.0
231.1386	2.4
233.1169	7.4
235.1308	3.3
241.0862	6.9
241.1224	3.1
243.1016	7.1
244.1337	5.0
245.1171	37.9
246.1212	5.8
247.0967	9.9
247.1331	5.2
249.1122	5.5
251.0701	2.7
251.1286	2.5
255.1012	8.0
257.1172	3.7
259.0966	6.0
259.1345	3.9
261.1118	10.3
263.1280	27.6
264.1327	4.7
269.1539	3.6
272.1282	2.8
273.1121	7.1
273.1528	2.5
275.1277	2.5
277.1069	3.2
277.1441	5.3
281.1393	2.5
283.0966	39.0
284.0999	7.6
287.1648	4.9
289.1551	7.4
291.1301	2.6
297.1486	11.9
301.1796	3.1
303.1597	5.9
311.1636	7.6
315.1591	20.2
316.1616	3.6
317.1756	3.8
320.2578	3.8
329.1395	3.1
329.1748	21.3
329.2131	2.9
330.1767	5.3
331.1597	2.4
331.1945	4.3
331.2617	3.0
332.1868	3.9
332.2818	3.4
333.1708	33.9
333.2754	5.7
334.1708	5.6
334.2956	4.7
335.1580	5.8
335.1964	5.1
336.2899	5.1
339.1599	18.1
340.1758	20.2
341.1797	3.7
343.1596	2.9
345.1728	6.6
346.2066	2.7
346.3318	2.5
347.1461	6.4
347.1855	20.7
348.1877	4.3
348.2916	3.0
349.2016	3.6
349.2724	4.3
350.3086	5.9
351.1798	22.6
351.2190	4.9
352.1867	2.9

Name: 7-(2,6-Dimethyl-8-(2-methyl-1-oxobutoxy)-1,2,6,7,8,8a-hexahydronaphthalen-1-yl)-3,5-dihydroxyheptanoic acid
PrecursorMZ: 423.27471
RT: 5.0411
ExactMass: 422.26683893
Spectrum_type: 2
charge: 1
Formula: C24H38O6
SMILES: CCC(C)C(=O)OC1CC(C=C2C1C(C(C=C2)C)CCC(CC(CC(=O)O)O)O)C
Method: HCD
Collision_energy: [28.333334]
Isolation_window: 4.0
Ion_mode: P
Num Peaks: 249
55.0547	6.4
57.0339	3.7
67.0547	30.4
69.0703	24.9
70.0656	5.4
71.0496	21.2
71.0859	5.8
72.0812	3.6
73.0289	7.0
79.0546	25.3
80.0549	5.8
81.0339	25.3
81.0703	75.0
83.0495	13.9
83.0859	20.3
85.0288	6.2
85.0652	33.9
86.0967	5.7
87.0444	18.8
89.0600	31.7
91.0545	14.1
93.0702	35.8
95.0494	7.2
95.0858	50.5
97.0651	22.8
97.1015	6.6
97.3990	5.5
99.0443	7.1
99.0807	29.3
101.0237	3.6
101.0599	26.1
105.0701	25.7
107.0493	7.5
107.0858	78.6
108.0890	3.7
109.0650	25.9
109.1014	33.6
111.0443	22.8
111.0807	16.0
113.0599	14.4
113.0963	12.0
115.0392	5.4
116.0709	8.0
117.0701	9.9
119.0857	27.6
121.0650	10.5
121.1013	28.5
123.0806	14.8
123.1169	6.3
124.0394	3.7
125.0598	8.6
125.0963	10.6
127.0503	9.1
127.0755	12.8
129.0547	11.3
129.0700	7.3
131.0856	21.9
133.0649	4.8
133.0860	15.8
133.1013	25.1
135.0806	16.3
135.1169	17.2
137.0598	42.8
137.0962	12.6
139.0755	6.2
139.1119	4.6
143.0706	6.5
143.0857	12.7
145.1012	22.5
147.0806	11.1
147.1170	16.9
149.0599	3.9
149.0962	48.3
149.1326	8.1
151.0756	4.1
151.1119	7.7
153.0911	6.6
155.0704	4.5
155.0856	9.0
157.1014	14.7
159.0806	5.4
159.1170	19.8
161.0962	11.1
161.1327	15.5
163.1119	10.4
163.1483	5.1
165.0911	9.1
167.0704	4.8
167.1068	17.1
169.1014	10.0
171.1169	14.4
173.0962	7.4
173.1326	13.0
175.1118	11.2
175.1483	9.3
177.0911	5.4
177.1122	7.7
177.1276	8.2
179.1068	6.1
181.1012	5.3
181.1225	3.5
183.1017	6.9
183.1170	14.5
185.0962	8.1
185.1172	5.2
185.1326	14.1
187.1117	7.8
187.1482	10.5
189.0911	4.0
189.1273	9.0
189.1637	6.1
191.1067	8.2
191.1430	5.5
193.1224	7.4
195.0768	6.5
195.1165	6.6
195.1380	6.1
197.0958	4.9
197.1325	11.5
199.1119	8.0
199.1482	10.8
201.1274	11.8
201.1639	5.4
203.1066	5.8
203.1432	9.9
203.1797	3.6
205.1223	5.9
205.1588	5.2
207.1164	4.3
207.1379	5.7
209.1174	4.4
209.1324	8.1
211.1115	4.5
211.1482	9.0
213.1274	9.7
213.1638	6.7
214.1074	16.2
215.1069	3.8
215.1431	8.8
215.1795	4.1
217.1223	6.5
217.1587	5.9
219.1380	9.3
221.1386	4.1
221.1536	16.1
223.1483	6.6
223.1693	4.7
225.1274	6.5
225.1638	5.6
227.1430	7.5
227.1793	5.0
229.1226	3.9
229.1587	6.2
231.1379	7.6
231.1744	4.1
233.1537	7.7
235.1480	3.9
235.1694	7.2
237.1489	7.0
237.1638	5.1
239.1430	5.9
239.1642	8.5
239.1793	3.9
241.1586	6.5
243.1392	5.8
243.1740	7.0
245.1537	7.1
247.1694	7.1
249.1640	3.6
249.1851	5.6
251.1430	4.0
253.1587	6.3
255.1381	4.1
255.1744	6.8
257.1533	8.3
257.1901	3.6
259.1691	11.7
259.2054	4.9
261.1849	7.3
263.1638	3.6
263.2003	4.9
267.1745	4.4
269.1537	3.9
269.1897	3.5
271.1695	6.9
273.1850	7.7
273.2210	3.9
275.1640	5.6
275.2005	7.5
277.2160	6.2
279.2313	4.8
282.1122	11.9
283.1700	5.0
285.1846	6.1
287.2008	6.1
289.2160	3.8
291.1950	6.9
291.2328	3.8
297.1849	3.6
309.1849	3.8
323.2378	4.7
325.2163	5.0
327.2318	5.2
341.2111	4.5
341.2474	5.0
343.2271	5.2
351.2322	14.5
353.2113	4.5
353.2476	10.5
369.2064	6.7
369.2425	23.0
370.2453	5.3
371.2220	8.5
371.2579	14.6
385.2381	5.5
386.2414	7.2
387.2163	9.7
387.2529	35.5
388.2199	3.9
388.2560	10.7
389.2319	13.0
389.2688	18.2
403.2470	5.3
403.2839	5.8
404.2502	5.9
404.2851	5.1
405.2263	11.4
405.2632	42.5
406.2680	11.1
407.2419	9.3
407.2790	19.0
421.2545	7.5
421.2966	6.2
422.2040	4.7
422.2587	13.6
422.2909	13.2
422.2956	8.3
422.3007	10.0
423.1775	24.5
423.2133	11.0
423.2374	8.0
423.2726	100.0
424.1391	5.0
424.1820	6.2
424.2182	7.8
424.2767	30.1
425.1929	13.7
425.2195	4.4
425.2893	43.4

Name: 7-(2-Hydroxyethoxy)-2,4,7,9-tetramethyldec-5-yn-4-ol
PrecursorMZ: 288.25332
RT: 0.58185
ExactMass: 270.21949481
Spectrum_type: 2
charge: 1
Formula: C16H30O3
SMILES: CC(C)CC(C)(C#CC(C)(CC(C)C)OCCO)O
Method: HCD
Collision_energy: [28.333334]
Isolation_window: 4.0
Ion_mode: P
Num Peaks: 94
57.0704	14.1
59.0497	8.9
67.0548	4.9
69.0704	11.8
71.0495	1.6
71.0861	9.8
79.0546	3.2
81.0703	9.1
83.0496	1.7
83.0860	23.3
84.0893	1.6
85.0653	5.5
85.1016	7.5
87.0444	2.8
88.0761	3.7
89.0601	10.5
93.0703	14.2
95.0495	1.5
95.0859	35.6
96.0891	2.5
97.0651	7.5
97.1015	6.8
98.9844	1.4
99.0807	3.6
101.0600	2.4
105.0702	1.8
106.0866	7.6
107.0709	2.7
107.0858	29.7
108.0891	2.4
109.1015	26.0
110.1045	2.4
111.0808	9.2
111.1169	2.4
113.0601	3.7
119.0858	5.7
121.1014	26.5
122.1048	2.6
123.0808	1.5
123.1172	6.9
125.0963	10.4
127.0755	1.7
133.1012	3.4
135.1170	100.0
136.1202	10.4
137.0963	1.7
137.1326	7.9
138.1359	1.4
139.1122	2.3
141.0912	6.0
147.1173	2.0
149.1327	12.8
150.1363	1.5
151.1120	3.8
151.1484	3.9
153.1276	25.5
154.1309	3.0
161.1330	2.3
163.1485	1.5
167.1432	4.5
169.1228	1.8
170.1177	2.2
179.1430	4.0
191.1796	53.0
192.1831	8.1
197.1546	1.5
209.1902	40.7
210.1935	5.9
235.2058	2.5
241.1795	1.5
249.2329	14.8
250.2366	2.1
253.2167	2.3
277.2162	6.3
278.2197	1.4
279.2321	3.3
281.0507	4.3
282.0509	1.5
283.0292	6.1
284.0297	2.1
285.0051	1.8
288.2899	27.3
289.2939	5.7
291.2432	1.7
293.2097	2.1
294.2430	2.9
296.2587	1.9
297.2435	19.5
298.2465	3.9
299.0619	35.7
299.2394	2.5
300.0624	9.6
301.0597	6.1
302.3061	2.7

Name: 7-(3-(allyloxy)-2-hydroxypropyl)-8-((2-hydroxypropyl)amino)-3-methyl-1H-purine-2,6(3H,7H)-dione
PrecursorMZ: 354.17715
RT: 7.6424
ExactMass: 353.16991885
Spectrum_type: 2
charge: 1
Formula: C15H23N5O5
SMILES: CC(CNC1=NC2=C(N1CC(COCC=C)O)C(=O)NC(=O)N2C)O
Method: HCD
Collision_energy: [28.333334]
Isolation_window: 4.0
Ion_mode: P
Num Peaks: 32
72.0448	3.5
109.0763	7.1
114.0552	10.1
114.0915	2.3
124.0871	2.8
126.0551	10.9
126.1027	5.8
150.0554	1.3
150.1026	1.3
153.0660	3.4
162.1024	1.4
168.1133	1.2
170.0925	25.2
171.0960	2.0
180.1131	3.6
185.0923	2.3
197.1398	5.8
206.0926	1.3
224.1031	6.8
241.1296	26.6
242.1331	2.9
251.1505	3.3
277.1293	2.2
295.1401	12.4
296.1434	1.8
312.1666	3.8
336.1647	1.7
353.1709	2.3
354.1328	1.5
354.1773	100.0
355.1811	16.2
356.1845	1.6

Name: 7-(4-(2-Fluorophenyl)-1-piperazinyl)-9-oxo-6,8-diazaspiro(4.5)dec-7-ene-10-carbonitrile
PrecursorMZ: 320.1677
RT: 1.4977
ExactMass: 355.1808385
Spectrum_type: 2
charge: 1
Formula: C19H22FN5O
SMILES: C1CCC2(C1)C(C(=O)NC(=N2)N3CCN(CC3)C4=CC=CC=C4F)C#N
Method: HCD
Collision_energy: [28.333334]
Isolation_window: 4.0
Ion_mode: P
Num Peaks: 41
55.0545	5.8
83.0856	18.1
108.0806	60.2
109.0840	4.0
124.0755	2.6
126.0910	47.6
127.0943	1.8
134.0960	4.5
136.0753	21.9
148.0753	35.4
149.0782	3.2
150.0909	79.1
151.0942	4.8
166.0858	38.5
167.0892	4.6
168.1014	100.0
169.1048	6.6
176.0700	2.1
178.0857	60.2
179.0888	4.3
194.0805	22.8
195.0837	2.7
196.0961	31.3
197.0995	2.0
231.1484	1.8
233.1640	6.0
261.1587	4.7
273.1587	9.7
275.1744	28.0
276.1783	3.4
285.1586	3.7
291.1686	2.6
293.1849	13.6
294.1882	2.1
301.1536	10.2
302.1564	1.8
303.1692	47.8
304.1726	6.5
319.1639	5.7
321.1796	36.9
322.1831	5.6

Name: 7-(4-acetylpiperazin-1-yl)-1-cyclopropyl-6-fluoro-4-oxo-N-(pyridin-3-yl)-1,4-dihydroquinoline-3-carboxamide
PrecursorMZ: 450.19402
RT: 0.8829
ExactMass: 449.18631781
Spectrum_type: 2
charge: 1
Formula: C24H24FN5O3
SMILES: CC(=O)N1CCN(CC1)C2=C(C=C3C(=C2)N(C=C(C3=O)C(=O)NC4=CN=CC=C4)C5CC5)F
Method: HCD
Collision_energy: [28.333334]
Isolation_window: 4.0
Ion_mode: P
Num Peaks: 7
165.0909	7.3
245.0475	9.3
376.1933	100.0
377.1965	20.7
404.1880	25.1
450.1937	39.2
451.1967	9.9

Name: 7-(4-methoxyphenyl)-1,3-dimethyl-8-(pyridin-2-ylmethyl)-1H-imidazo(2,1-f)purine-2,4(3H,8H)-dione
PrecursorMZ: 439.14902
RT: 1.0544
ExactMass: 416.15968852
Spectrum_type: 2
charge: 1
Formula: C22H20N6O3
SMILES: CN1C2=C(C(=O)N(C1=O)C)N3C=C(N(C3=N2)CC4=CC=CC=N4)C5=CC=C(C=C5)OC
Method: HCD
Collision_energy: [28.333334]
Isolation_window: 4.0
Ion_mode: P
Num Peaks: 7
89.0600	8.0
133.0860	5.3
239.1489	6.5
439.1490	100.0
440.1520	27.5
441.1065	10.8
441.1473	5.5

Name: 7-)2,6-Dimethyl-8-(2-methyl-1-oxobutoxy)-1,2,6,7,8,8a-hexahydronaphthalen-1-yl(-3,5-dihydroxyheptanoic acid
PrecursorMZ: 423.27418
RT: 0.5866
ExactMass: 422.26683893
Spectrum_type: 2
charge: 1
Formula: C24H38O6
SMILES: CCC(C)C(=O)OC1CC(C=C2C1C(C(C=C2)C)CCC(CC(CC(=O)O)O)O)C
Method: HCD
Collision_energy: [28.333334]
Isolation_window: 4.0
Ion_mode: P
Num Peaks: 469
55.0186	3.1
55.0546	6.4
56.0500	3.2
57.0340	5.8
57.0705	4.9
58.0656	3.3
59.0497	17.7
59.0610	15.8
67.0548	26.4
69.0340	6.0
69.0704	32.3
70.0657	31.9
71.0496	23.6
71.0859	7.1
72.0813	25.0
73.0290	3.1
73.0653	2.7
74.0606	4.3
79.0547	22.9
81.0340	20.0
81.0703	74.9
82.0737	4.9
83.0496	18.8
83.0860	22.5
84.0449	5.5
84.0812	20.5
85.0289	6.4
85.0653	32.7
86.0606	3.5
86.0969	37.7
87.0445	25.5
87.1004	2.6
89.0601	37.9
91.0546	16.7
93.0703	38.9
95.0496	16.0
95.0859	57.5
96.0812	3.3
96.0891	5.4
97.0652	26.5
97.1015	9.0
98.0604	5.9
98.0969	3.4
99.0444	13.4
99.0809	36.4
100.0762	4.5
100.0840	2.7
101.0237	3.0
101.0602	15.6
102.0552	4.0
103.0393	100.0
103.0759	4.4
104.0430	2.9
105.0702	26.4
107.0495	8.9
107.0859	48.1
108.0814	3.2
108.0894	4.2
109.0651	22.4
109.1015	35.4
110.0717	13.5
110.1050	3.1
111.0444	24.4
111.0808	17.6
111.1172	3.3
112.0762	7.0
113.0601	23.1
113.0964	8.2
114.0554	2.9
114.0664	3.5
114.0916	8.1
115.0394	6.8
115.0757	8.2
116.0710	24.4
117.0551	12.7
117.0697	11.1
117.0915	4.4
119.0858	35.4
120.0810	10.1
120.0893	2.9
121.0651	15.4
121.1015	38.2
122.1051	3.9
123.0443	4.5
123.0807	20.1
123.1171	12.9
124.0760	5.8
125.0601	11.3
125.0965	19.2
126.0914	12.7
127.0394	4.3
127.0756	10.0
127.1123	5.5
128.0709	7.0
129.0551	9.2
129.0697	7.5
129.0915	3.1
130.0501	3.8
130.0654	25.0
130.0865	8.1
131.0703	10.5
131.0856	26.4
131.1179	5.7
133.0655	8.0
133.0862	26.8
133.1016	36.0
134.1051	4.6
135.0806	21.9
135.1170	24.3
136.0757	13.1
136.1206	2.8
137.0600	20.5
137.0962	18.5
137.1328	3.3
138.0916	5.5
139.0757	12.2
139.1121	9.3
140.0710	4.1
141.0548	3.6
141.0679	6.4
141.0913	6.0
141.1027	2.8
142.0498	3.0
142.0865	3.9
143.0709	8.7
143.0859	13.9
143.1183	3.3
145.0651	3.4
145.1015	30.5
146.1050	3.4
147.0655	5.9
147.0801	12.6
147.1171	26.8
148.0759	3.5
148.1208	3.3
149.0601	4.0
149.0964	28.5
149.1328	10.6
150.0897	5.1
151.0757	11.1
151.1119	10.8
152.0710	3.6
153.0915	8.9
153.1278	3.2
154.0866	2.9
155.0706	3.7
155.0856	6.9
155.1072	5.8
156.0769	17.8
157.0863	4.6
157.1016	19.6
157.1340	3.9
158.1052	2.6
159.0807	8.4
159.1170	28.2
160.1210	3.1
161.0816	8.0
161.0966	16.7
161.1326	18.7
162.0914	3.5
163.0751	5.6
163.1117	15.0
163.1484	5.4
164.0703	7.0
164.1060	5.2
165.0912	11.0
165.1281	3.9
166.0528	2.9
166.0860	9.5
167.0706	4.4
167.0858	4.1
167.1068	12.9
168.1016	9.1
169.0864	3.0
169.1015	12.9
170.1182	2.9
171.0799	5.0
171.1018	3.4
171.1168	22.6
172.1204	3.3
173.0959	12.8
173.1326	18.6
174.1367	2.8
175.0756	2.9
175.1115	16.5
175.1480	10.1
177.0904	5.8
177.1128	4.6
177.1280	10.6
178.0863	3.3
179.0844	3.0
179.1061	10.2
179.1440	3.0
180.1017	30.7
181.1021	9.3
181.1227	7.1
182.0804	4.6
183.1015	4.0
183.1173	16.4
183.1383	4.1
184.0971	2.7
185.0959	7.9
185.1323	19.2
185.1655	3.5
186.1370	2.7
187.1112	15.0
187.1479	11.8
188.0709	2.8
189.0910	6.9
189.1269	12.4
189.1634	6.0
191.1065	12.4
191.1435	6.2
192.1027	3.4
193.0998	3.8
193.1221	9.4
194.0817	3.7
194.1184	3.8
195.1173	11.3
195.1385	6.7
196.0973	2.8
197.0983	4.7
197.1328	14.6
198.0898	6.2
199.1119	12.4
199.1485	10.9
201.0905	3.9
201.1271	15.3
201.1645	5.9
203.1064	7.8
203.1432	11.4
205.1007	3.3
205.1226	8.9
205.1574	5.0
207.1004	2.8
207.1167	6.2
207.1386	6.7
209.0961	3.1
209.1171	3.0
209.1327	10.4
209.1542	3.6
210.1130	2.8
211.1128	8.4
211.1494	12.5
213.1272	15.6
213.1640	8.8
215.1081	5.7
215.1420	15.3
215.1799	3.9
217.1225	10.2
217.1586	6.8
218.0816	2.7
219.1198	4.8
219.1386	15.9
221.1330	6.5
221.1543	14.6
222.1135	3.1
223.1151	4.7
223.1486	8.0
223.1701	5.3
225.1280	8.9
225.1651	7.0
226.0875	2.6
227.1080	4.8
227.1455	8.9
227.1801	3.5
228.1034	3.8
229.1220	6.7
229.1581	10.9
231.1374	10.0
231.1733	5.6
232.0973	3.2
233.1166	3.1
233.1535	10.5
235.1146	3.7
235.1484	4.6
235.1711	4.2
237.1266	6.2
237.1490	5.5
237.1655	4.3
239.1427	8.8
239.1626	2.7
239.1805	4.4
241.1222	5.3
241.1598	7.1
242.1190	3.0
243.1370	7.9
243.1745	6.8
244.0977	4.7
245.1529	7.1
245.1897	3.5
247.1315	3.4
247.1688	7.8
249.1261	3.5
249.1628	4.4
249.1838	5.7
251.1447	4.7
251.1802	2.7
253.1237	3.7
253.1611	5.6
253.1953	3.3
255.1371	3.7
255.1772	7.1
257.1535	9.6
257.1914	4.6
259.1699	9.7
261.1854	5.9
263.1408	4.6
263.2014	3.7
265.1220	2.7
265.1563	5.6
267.1384	3.9
267.1777	5.9
269.1540	8.2
269.1894	3.9
271.1352	3.3
271.1696	8.1
271.2054	4.1
273.1219	3.6
273.1540	2.9
273.1859	8.3
275.1678	3.4
275.2029	8.1
277.1561	3.1
277.2181	5.7
279.1714	3.0
281.1534	4.2
283.1701	8.3
283.2062	3.8
285.1859	7.7
285.2212	3.1
287.1663	3.5
287.2012	4.3
288.1282	2.7
289.1522	2.7
289.1817	5.2
289.2168	3.4
291.1698	6.0
291.1981	4.0
293.1864	5.0
295.1684	3.0
297.1848	4.0
299.1372	2.6
299.1991	5.2
301.1536	3.2
301.2170	3.2
303.1695	3.8
303.1981	3.1
304.1203	5.0
305.1504	4.1
305.1857	8.7
307.1679	4.1
307.2031	3.8
309.1843	5.8
311.2005	4.5
313.1812	2.9
313.2163	5.3
319.1963	3.0
323.1998	4.4
323.2375	2.7
324.1963	2.9
325.2164	5.4
327.1965	4.5
327.2322	3.2
329.2111	3.1
337.2147	5.6
339.1952	2.7
339.2334	5.1
341.2119	5.0
341.2484	2.8
343.2274	4.0
345.2074	3.3
347.2244	2.8
351.2326	4.5
353.2098	5.7
353.2484	4.3
355.2264	6.5
355.2645	4.1
357.2061	4.4
357.2435	4.4
359.2218	5.5
361.2385	3.6
367.2252	5.1
368.2267	3.2
369.2051	4.5
369.2452	8.9
371.2218	5.3
371.2606	6.3
372.2224	3.2
373.2389	6.4
375.2160	4.3
375.2583	5.6
377.2332	4.5
383.2215	3.3
385.2380	7.9
386.2390	4.1
387.2086	4.8
387.2576	11.9
388.2544	4.3
389.2284	5.6
389.2785	6.2
391.2509	5.6
392.2500	2.6
393.2267	4.4
393.2689	3.0
395.2298	9.4
397.2316	3.5
399.2543	3.2
401.2282	4.9
401.2729	4.3
403.2475	11.8
404.2503	4.6
405.2242	4.1
405.2702	13.5
406.2651	4.4
407.2388	3.6
407.2795	7.4
408.2826	2.7
409.2612	2.9
411.2625	9.0
413.2296	5.3
414.2332	5.7
415.2419	5.8
416.2448	6.9
417.2209	3.0
417.2658	3.4
419.2375	6.0
419.2859	3.7
421.2559	10.3
422.1950	4.1
422.2567	7.6
422.2970	2.6
423.2232	3.4
423.2771	21.2
424.1698	4.7
424.2722	4.5
425.1900	5.6
425.2980	11.6
426.1988	3.5
426.2900	4.3
427.1952	3.9
427.2852	3.2
428.2124	6.2
428.2548	3.5
429.2050	4.8
430.2272	6.6
430.2767	10.0
431.1862	3.7
431.2759	8.8
432.1670	3.2
432.2391	3.6
432.2795	4.5
433.2011	3.7
433.2518	5.3
433.2963	5.6
434.1927	3.7
434.2549	10.3
435.2220	4.5
435.2808	7.4
436.2203	5.4
436.2705	9.2
437.2142	10.5
437.2498	2.7
437.2878	3.8
438.1984	4.1
438.2851	5.8
439.1997	5.0
439.2669	8.8
440.1687	5.9

Name: 7-Aminoflunitrazepam
PrecursorMZ: 284.11926
RT: 1.5715
ExactMass: 283.11209024
Spectrum_type: 2
charge: 1
Formula: C16H14FN3O
SMILES: CN1C(=O)CN=C(C2=C1C=CC(=C2)N)C3=CC=CC=C3F
Method: HCD
Collision_energy: [28.333334]
Isolation_window: 4.0
Ion_mode: P
Num Peaks: 3
283.1284	2.0
284.1177	100.0
285.1213	21.8

Name: 7-Formyldidehydroglaucine
PrecursorMZ: 382.16432
RT: 5.1466
ExactMass: 381.15762283
Spectrum_type: 2
charge: 1
Formula: C22H23NO5
SMILES: CN1CCC2=CC(=C(C3=C2C1=C(C4=CC(=C(C=C43)OC)OC)C=O)OC)OC
Method: HCD
Collision_energy: [28.333334]
Isolation_window: 4.0
Ion_mode: P
Num Peaks: 20
130.0649	10.8
176.8751	17.2
178.8732	3.7
189.0782	15.7
260.1064	3.7
264.1380	7.7
276.1379	6.4
280.9375	3.1
286.1228	3.6
304.1326	23.8
305.1359	5.7
318.1482	4.1
322.1431	100.0
323.1465	18.6
328.1327	6.7
346.1431	22.0
347.1466	4.6
364.1540	9.0
382.1641	90.1
383.1667	21.2

Name: 7-Hydroxy-1,4a-dimethyl-9-oxo-7-propan-2-yl-2,3,4,4b,5,6,10,10a-octahydrophenanthrene-1-carboxylic acid
PrecursorMZ: 317.211
RT: 4.9314
ExactMass: 334.21440943
Spectrum_type: 2
charge: 1
Formula: C20H30O4
SMILES: CC(C)C1(CCC2C(=C1)C(=O)CC3C2(CCCC3(C)C(=O)O)C)O
Method: HCD
Collision_energy: [28.333334]
Isolation_window: 4.0
Ion_mode: P
Num Peaks: 97
55.0546	2.7
67.0547	5.0
69.0339	2.7
69.0703	5.4
71.0495	4.2
72.0812	4.4
79.0546	3.8
81.0339	3.3
81.0703	15.9
83.0494	3.5
83.0859	3.0
86.0968	3.7
91.0545	5.3
93.0702	20.4
95.0494	3.4
95.0858	25.4
97.0651	4.3
99.0443	8.9
105.0701	11.2
107.0858	16.1
109.0650	7.2
109.1014	7.8
111.0806	6.7
113.0596	3.0
119.0857	13.2
121.0649	2.6
121.1014	10.8
123.0806	8.6
131.0856	11.1
133.1013	18.6
135.0806	5.7
135.1170	5.5
137.0961	9.7
141.0910	2.7
143.0856	5.8
145.1013	12.6
147.0804	2.8
147.1169	8.0
148.0758	9.8
149.0963	25.5
150.0995	2.9
151.0391	2.8
151.1121	4.0
157.1013	8.7
158.1176	7.4
159.1171	9.9
161.0963	5.9
161.1325	9.2
163.1119	11.2
166.0864	10.8
169.1014	3.8
171.1169	5.8
173.0963	2.7
173.1328	5.5
175.1118	9.6
175.1483	3.0
176.8753	3.8
177.0909	4.4
177.1278	4.9
179.0340	4.7
183.1171	4.0
185.1326	10.3
187.1119	4.8
187.1482	6.7
189.1277	4.9
194.0812	8.7
197.1325	4.2
201.1281	3.9
203.1431	9.7
205.1223	11.0
207.1379	10.9
211.1482	2.7
212.2008	5.2
217.1224	2.8
219.1386	3.0
225.1023	3.0
225.1638	4.3
253.1435	2.7
253.1951	4.9
263.1793	2.6
271.2054	7.0
273.1599	3.1
281.1899	8.2
282.1933	2.8
299.1390	2.6
299.2005	41.0
300.2043	8.2
301.1550	4.5
301.2174	4.4
316.1018	3.1
316.1183	5.3
317.1493	7.6
317.2110	100.0
318.1326	10.2
318.2144	20.1
319.1644	9.8
319.2277	7.2

Name: 7-Hydroxy-2,6,6,10,14-pentamethyl-11,15-dioxatetracyclo(8.8.0.02,7.012,17)octadeca-4,12(17)-diene-3,16-dione
PrecursorMZ: 383.18277
RT: 5.195
ExactMass: 360.19367399
Spectrum_type: 2
charge: 1
Formula: C21H28O5
SMILES: CC1CC2=C(CC3C(O2)(CCC4(C3(C(=O)C=CC4(C)C)C)O)C)C(=O)O1
Method: HCD
Collision_energy: [28.333334]
Isolation_window: 4.0
Ion_mode: P
Num Peaks: 29
58.0656	12.5
81.0703	21.9
89.0600	11.9
93.0702	16.8
95.0858	13.6
97.0650	12.8
97.3987	15.4
99.0807	18.5
107.0858	15.1
109.0651	11.3
114.0915	37.5
116.0708	10.7
119.0856	13.1
125.0962	10.7
176.8751	11.9
291.1954	10.5
322.2489	28.6
340.2594	41.4
348.2643	14.5
366.2262	13.5
383.1827	100.0
383.2042	49.6
383.2429	14.2
384.1848	20.5
384.2101	14.5
384.2394	13.6
384.2856	12.4
385.1983	66.8
385.2198	36.3

Name: 7-Hydroxy-6-(3,4,5-Trihydroxy-6-(Hydroxymethyl)Oxan-2-Yl)Oxychromen-2-One
PrecursorMZ: 363.06828
RT: 8.3493
ExactMass: 340.07943208
Spectrum_type: 2
charge: 1
Formula: C15H16O9
SMILES: C1=CC(=O)OC2=CC(=C(C=C21)OC3C(C(C(C(O3)CO)O)O)O)O
Method: HCD
Collision_energy: [28.333334]
Isolation_window: 4.0
Ion_mode: P
Num Peaks: 4
69.6239	10.8
163.0385	9.2
363.0679	100.0
364.0715	13.2

Name: 7-Hydroxychroman-2-one
PrecursorMZ: 165.05452
RT: 3.1021
ExactMass: 164.047344113
Spectrum_type: 2
charge: 1
Formula: C9H8O3
SMILES: C1CC(=O)OC2=C1C=CC(=C2)O
Method: HCD
Collision_energy: [28.333334]
Isolation_window: 4.0
Ion_mode: P
Num Peaks: 45
70.0655	0.7
84.0811	0.6
87.0444	1.0
88.0396	0.6
91.0544	2.7
93.0700	0.6
95.0494	5.5
96.0446	1.5
102.0554	0.6
103.0542	1.2
109.0650	0.5
112.0757	0.8
116.0708	1.4
118.0868	0.5
119.0493	23.8
120.0527	2.2
121.0649	1.7
122.0601	0.5
123.0442	58.3
123.0629	0.4
124.0474	4.3
130.0863	4.2
136.0540	0.5
136.0757	100.0
136.0976	0.7
137.0596	0.7
137.0792	8.3
138.0813	0.4
140.0706	0.5
147.0441	24.0
148.0475	2.7
150.0554	0.7
158.0807	0.6
164.0529	1.8
165.0546	59.6
166.0585	5.7
167.0601	0.6
168.0655	5.1
176.0917	1.7
178.1341	1.1
180.1046	1.4
182.0811	8.9
183.0857	0.8
184.0605	1.4
187.1078	0.5

Name: 7-Hydroxychromanone
PrecursorMZ: 165.0546
RT: 8.0652
ExactMass: 164.047344113
Spectrum_type: 2
charge: 1
Formula: C9H8O3
SMILES: C1CC(=O)OC2=C1C=CC(=C2)O
Method: HCD
Collision_energy: [28.333334]
Isolation_window: 4.0
Ion_mode: P
Num Peaks: 109
60.0448	0.8
67.0546	0.5
69.0338	0.6
69.1284	0.5
69.7793	0.4
69.8355	0.3
70.0655	0.3
74.0239	0.8
79.0545	0.4
81.0337	1.0
81.0701	0.5
85.0287	0.6
91.0544	4.5
92.0577	0.4
93.0700	1.7
94.0652	0.4
95.0492	19.6
95.0856	0.3
96.0446	0.4
96.0526	1.3
97.4557	0.4
98.0601	1.8
99.0635	3.4
100.0245	0.4
100.0640	0.3
101.0598	0.5
102.0550	0.4
102.0915	0.4
103.0543	2.8
105.0335	0.6
105.0700	0.3
107.0491	0.5
107.0856	0.4
108.0808	0.3
109.0285	0.4
109.0648	1.7
110.0600	0.4
110.0966	0.3
111.0803	0.3
116.0706	0.8
117.0739	2.1
118.0744	0.5
118.0863	0.5
119.0491	34.6
119.0855	0.8
120.0524	2.8
120.0807	7.4
121.0283	0.3
121.0647	2.8
121.0839	0.3
121.0885	1.1
121.1011	0.4
122.0601	0.6
122.0682	0.3
122.9983	0.3
123.0005	0.4
123.0319	0.2
123.0346	0.7
123.0440	100.0
123.0533	0.7
123.0558	0.3
123.0909	0.3
124.0472	7.2
131.0490	0.3
136.0755	9.8
137.0595	1.9
137.0707	1.1
137.0788	0.9
137.0960	0.5
138.0550	0.3
138.0911	1.9
139.0751	1.5
140.0701	0.4
145.0686	1.3
146.0693	0.4
146.0810	0.3
147.0393	0.3
147.0437	20.3
147.0802	0.4
148.0471	1.9
148.0753	0.5
148.0788	0.5
163.0792	0.9
163.0863	1.4
163.1223	0.7
164.0704	4.9
164.0807	0.6
164.0916	1.4
164.1068	4.4
165.0213	0.7
165.0545	5.5
165.0656	1.2
165.0738	0.5
165.0909	0.7
165.1020	2.2
165.1100	0.5
165.1270	0.4
166.0319	0.5
166.0496	1.6
166.0580	0.5
166.0860	15.2
166.0887	0.7
166.0974	0.5
166.1061	0.6
166.1223	2.0
167.0675	0.4
167.0704	1.1
167.0813	3.4
167.0893	0.6

Name: 7-Methoxy-4-(2-1,2,3,4-tetrahydroisoquinolylmethyl)chromen-2-one
PrecursorMZ: 344.12693
RT: 6.2695
ExactMass: 321.13649347
Spectrum_type: 2
charge: 1
Formula: C20H19NO3
SMILES: COC1=CC2=C(C=C1)C(=CC(=O)O2)CN3CCC4=CC=CC=C4C3
Method: HCD
Collision_energy: [28.333334]
Isolation_window: 4.0
Ion_mode: P
Num Peaks: 22
70.0654	14.6
72.0810	3.5
118.0861	5.5
137.0707	3.1
154.0321	3.1
181.0966	3.2
215.1388	4.5
222.0577	4.0
230.1133	2.9
325.1877	4.7
343.1288	2.8
343.1651	23.0
343.1851	4.4
343.2004	3.2
344.1268	100.0
344.1463	4.7
344.1695	8.6
344.3154	5.0
345.1275	12.2
345.1473	7.1
345.1805	6.8
346.1655	2.9

Name: 7-Methyl-4-(piperazin-1-ylmethyl)-2H-chromen-2-one
PrecursorMZ: 259.1437
RT: 1.20995
ExactMass: 258.136827821
Spectrum_type: 2
charge: 1
Formula: C15H18N2O2
SMILES: CC1=CC2=C(C=C1)C(=CC(=O)O2)CN3CCNCC3
Method: HCD
Collision_energy: [28.333334]
Isolation_window: 4.0
Ion_mode: P
Num Peaks: 67
67.0545	0.5
69.0702	0.6
69.1327	0.5
69.6282	0.4
79.0543	0.3
86.0966	7.9
87.0998	0.4
93.0572	0.3
94.0652	1.7
95.0491	0.5
97.4569	0.5
122.0599	10.1
123.0632	0.6
124.0755	1.3
130.0858	0.3
131.0853	0.3
136.0753	0.3
138.0911	3.2
146.1173	2.7
159.1041	0.3
174.0916	0.4
174.1147	0.6
175.0989	0.4
186.0909	0.3
186.1273	0.5
187.0988	0.3
188.1069	0.5
188.1304	0.7
188.1431	0.6
189.1019	6.4
190.1052	0.6
199.0988	0.3
201.0654	0.3
201.1142	0.4
202.1097	0.4
203.1175	2.6
203.1538	2.8
204.1207	0.3
204.1568	0.3
214.1222	5.1
215.0809	0.9
215.1257	0.8
216.1254	2.4
216.1378	5.4
217.1412	0.7
227.0936	0.3
229.0964	0.4
230.1046	1.7
231.1245	0.4
231.1487	64.9
231.1726	0.5
232.1327	0.8
232.1522	9.0
233.1552	0.3
241.1330	0.4
242.1171	1.9
244.1200	0.7
258.1324	0.4
259.1147	0.5
259.1211	1.3
259.1434	100.0
259.1658	0.5
259.1718	0.5
259.2018	0.4
260.1469	15.5
261.1014	5.8
261.1493	0.7

Name: 7-Methyluric acid
PrecursorMZ: 183.05112
RT: 3.1821
ExactMass: 182.04399007
Spectrum_type: 2
charge: 1
Formula: C6H6N4O3
SMILES: CN1C2=C(NC(=O)NC2=O)NC1=O
Method: HCD
Collision_energy: [28.333334]
Isolation_window: 4.0
Ion_mode: P
Num Peaks: 27
69.0449	1.3
91.0543	19.8
92.0576	1.6
95.0604	1.4
112.0506	7.5
112.0869	1.2
124.0756	5.2
136.0391	3.1
136.0755	1.4
140.0452	11.9
155.0562	1.7
157.0480	1.6
158.0558	2.3
164.0339	2.0
164.0704	6.9
165.0404	1.6
166.0245	6.9
166.0862	2.1
168.0275	3.2
182.0437	3.1
182.0809	5.7
182.1173	4.5
183.0509	100.0
183.1125	2.3
184.0542	5.3
184.0605	1.5
184.0866	5.3

Name: 7-ethenyl-4b-hydroxy-1,1,7-trimethyl-9-oxo-3,4,5,6,10,10a-hexahydro-2H-phenanthrene-4a-carboxylic acid
PrecursorMZ: 315.19506
RT: 4.8276
ExactMass: 332.19875937
Spectrum_type: 2
charge: 1
Formula: C20H28O4
SMILES: CC1(CCCC2(C1CC(=O)C3=CC(CCC32O)(C)C=C)C(=O)O)C
Method: HCD
Collision_energy: [28.333334]
Isolation_window: 4.0
Ion_mode: P
Num Peaks: 47
69.8390	8.2
70.0655	11.6
81.0701	14.3
86.0966	13.0
93.0700	8.9
95.0855	17.0
105.0700	12.2
107.0856	9.9
109.1010	9.8
116.0706	10.8
119.0854	9.4
120.0653	8.6
121.1010	7.5
126.0911	12.7
133.1009	10.7
137.0958	11.4
143.0852	8.7
145.1010	8.5
147.1164	7.9
155.0852	8.1
159.1164	10.5
185.1325	10.3
195.1166	9.1
198.0908	7.9
209.1319	8.9
211.1475	18.8
229.1329	10.9
237.1382	7.7
241.1946	23.7
251.1787	39.1
269.1893	100.0
270.1926	17.6
287.1997	17.9
288.1909	7.5
297.1839	25.7
314.1011	13.4
314.1202	10.6
314.3410	15.3
315.1322	27.2
315.1945	94.9
316.1170	29.1
316.1358	9.8
316.1852	8.2
316.2015	9.5
317.1123	10.2
317.1486	12.9
317.2113	10.4

Name: 7-hydroxy-1-((E)-7-hydroxy-6-methylhept-5-en-2-yl)-3a-methyl-3,5,6,7,9,9a-hexahydrocyclopenta(b)chromen-8-one
PrecursorMZ: 369.20321
RT: 3.0158
ExactMass: 346.21440943
Spectrum_type: 2
charge: 1
Formula: C21H30O4
SMILES: CC(CC/C=C(\C)/CO)C1=CCC2(C1CC3=C(O2)CCC(C3=O)O)C
Method: HCD
Collision_energy: [28.333334]
Isolation_window: 4.0
Ion_mode: P
Num Peaks: 7
179.0336	31.4
368.4246	20.6
369.1670	30.6
369.2032	100.0
370.2061	17.6
370.2587	22.9
371.1481	32.7

Name: 7-hydroxy-6-methoxy-8-(3,4,5-trihydroxy-6-(hydroxymethyl)(2H-3,4,5,6-tetrahydr opyran-2-yl)oxy)chromen-2-one
PrecursorMZ: 393.07867
RT: 6.4075
ExactMass: 370.08999677
Spectrum_type: 2
charge: 1
Formula: C16H18O10
SMILES: COC1=C(C(=C2C(=C1)C=CC(=O)O2)OC3C(C(C(C(O3)CO)O)O)O)O
Method: HCD
Collision_energy: [28.333334]
Isolation_window: 4.0
Ion_mode: P
Num Peaks: 7
69.0339	11.1
83.0494	8.6
111.0441	12.5
129.0546	13.2
149.0232	16.1
393.0787	100.0
394.0818	11.8

Name: 7alpha,17alpha-Dimethyl-5beta-androstane-3alpha,17beta-diol
PrecursorMZ: 303.26779
RT: 1.0282333333333333
ExactMass: 320.271530387
Spectrum_type: 2
charge: 1
Formula: C21H36O2
SMILES: C[C@@H]1C[C@@H]2C[C@@H](CC[C@@]2([C@@H]3[C@@H]1[C@@H]4CC[C@]([C@]4(CC3)C)(C)O)C)O
Method: HCD
Collision_energy: [28.333334]
Isolation_window: 4.0
Ion_mode: P
Num Peaks: 78
55.0546	7.0
57.0339	2.4
57.0703	8.8
67.0546	26.0
68.0579	1.9
69.0702	33.0
70.0735	1.8
71.0495	4.5
71.0858	6.5
79.0545	15.8
81.0337	69.7
81.0701	36.9
82.0371	4.2
82.0734	2.8
83.0494	3.1
83.0858	23.5
84.0891	1.8
85.1014	4.0
91.0543	16.5
93.0700	20.3
95.0493	19.4
95.0856	37.3
96.0525	2.5
96.0889	2.8
97.0649	7.2
97.1012	16.1
105.0699	14.7
107.0492	2.5
107.0856	19.3
108.0889	2.0
109.0649	3.5
109.1012	20.8
111.1169	6.2
117.0699	4.8
119.0855	20.3
121.0647	10.0
121.1011	26.1
122.1044	2.7
123.0804	14.4
123.1168	8.0
131.0854	12.8
133.1010	18.7
134.1044	1.9
135.0803	7.4
135.1166	16.7
137.0960	8.8
137.1323	3.2
145.1009	13.5
147.1166	10.4
149.0957	3.6
149.1323	8.2
151.1115	2.9
151.1479	2.9
159.1167	10.7
161.1322	7.7
163.1116	2.1
163.1478	4.8
173.1322	10.0
175.1478	5.8
177.1271	2.6
177.1635	3.7
187.1478	6.7
189.1634	4.9
191.1424	2.2
191.1787	2.3
201.1634	3.4
203.1790	4.3
207.1741	2.5
215.1794	2.6
221.1900	2.4
285.2571	19.4
286.2604	3.9
302.2559	2.8
302.2829	2.5
303.2313	2.0
303.2675	100.0
304.2713	24.8
304.2974	4.0

Name: 7b,9-Dihydroxy-3-(hydroxymethyl)-1,1,6,8-tetramethyl-5-oxo-1,1a,1b,4,4a,5,7a,7b,8,9-decahydro-9ah-cyclopropa(3,4)benzo(1,2-e)azulen-9a-yl acetate
PrecursorMZ: 432.23742
RT: 1.2375
ExactMass: 390.20423867
Spectrum_type: 2
charge: 1
Formula: C22H30O6
SMILES: CC1C(C2(C(C2(C)C)C3C1(C4C=C(C(=O)C4CC(=C3)CO)C)O)OC(=O)C)O
Method: HCD
Collision_energy: [28.333334]
Isolation_window: 4.0
Ion_mode: P
Num Peaks: 13
69.0338	6.3
107.0856	7.5
111.0441	3.0
119.0854	100.0
120.0887	9.4
129.0545	4.2
135.0802	33.0
137.0593	3.3
147.0650	2.6
281.1376	5.4
415.2105	14.4
416.2144	3.0
430.3301	3.9

Name: 7beta,12beta-Dihydroxy-5beta-cholan-24-oic Acid
PrecursorMZ: 375.28826
RT: 2.1131
ExactMass: 392.29265975
Spectrum_type: 2
charge: 1
Formula: C24H40O4
SMILES: C[C@H](CCC(=O)O)[C@H]1CC[C@@H]2[C@@]1([C@@H](C[C@H]3[C@H]2[C@H](C[C@H]4[C@@]3(CCCC4)C)O)O)C
Method: HCD
Collision_energy: [28.333334]
Isolation_window: 4.0
Ion_mode: P
Num Peaks: 62
67.0545	4.5
69.3153	5.0
69.4694	5.4
81.0700	18.3
83.0857	6.9
93.0698	6.9
95.0855	15.7
101.0596	3.5
105.0698	6.3
107.0854	12.7
109.1010	17.1
119.0853	7.6
121.1009	12.7
123.1166	3.3
133.1009	8.4
135.1165	20.9
145.1008	11.2
146.1040	4.8
147.1165	20.7
149.1321	14.8
159.1165	5.6
161.1321	12.2
163.1477	8.6
175.1478	9.6
181.1217	5.0
187.1476	6.0
189.1634	7.6
193.1218	9.2
195.1373	5.9
199.1476	4.0
201.1634	11.1
203.1792	4.5
207.1373	4.8
211.1475	5.3
213.1632	3.4
215.1787	11.6
221.1531	3.9
225.1633	3.5
227.1789	3.5
229.1584	4.9
229.1943	5.4
243.2098	4.1
247.1684	7.8
261.1842	6.8
275.1991	3.8
309.2567	4.5
310.2600	8.0
311.2729	17.3
312.2763	3.4
321.2566	14.8
322.2602	3.7
338.2551	3.5
339.2671	56.2
340.2705	16.4
355.2617	4.4
356.2650	10.5
357.2776	100.0
358.2811	22.1
374.2305	4.0
374.2753	7.8
375.2885	26.2
376.2920	8.1

Name: 8(S)-Hete
PrecursorMZ: 303.23093
RT: 1.0572
ExactMass: 320.23514488
Spectrum_type: 2
charge: 1
Formula: C20H32O3
SMILES: CCCCC/C=C\C/C=C\C=C\[C@H](C/C=C\CCCC(=O)O)O
Method: HCD
Collision_energy: [28.333334]
Isolation_window: 4.0
Ion_mode: P
Num Peaks: 54
55.0545	5.2
57.0702	12.8
67.0545	7.3
69.0701	6.0
69.3865	6.6
71.0858	12.8
81.0700	28.8
83.0856	6.9
85.1013	6.9
93.0698	13.7
95.0855	29.0
97.1009	4.9
99.0440	9.5
105.0698	14.9
107.0854	27.9
109.1010	21.2
113.0596	10.4
119.0853	25.0
121.1009	43.2
122.1041	4.4
123.1166	24.8
133.1008	20.2
135.1164	21.6
145.1008	9.0
147.1164	17.7
149.1321	12.6
159.1164	13.6
161.1321	30.0
163.1479	4.6
171.1166	4.4
173.1320	12.2
175.1477	13.5
179.1060	4.1
181.1216	4.3
187.1476	8.3
189.1632	28.9
190.1659	4.5
193.1217	10.1
201.1631	4.6
207.1371	7.0
211.1474	5.6
227.1787	8.3
229.1580	4.8
229.1943	37.7
230.1979	8.2
233.1526	5.9
243.1119	8.0
247.1684	12.0
267.2097	9.1
285.2201	20.7
286.2235	4.7
303.1330	4.5
303.2307	100.0
304.2344	22.5

Name: 8,10-dimethoxy-1,1,10b-trimethyl-1,10b-dihydro(1,3)oxazolo(4,3-a)phthalazine-3,6(5H)-dione
PrecursorMZ: 307.12825
RT: 2.212
ExactMass: 306.12157168
Spectrum_type: 2
charge: 1
Formula: C15H18N2O5
SMILES: CC1(C2(C3=C(C=C(C=C3OC)OC)C(=O)NN2C(=O)O1)C)C
Method: HCD
Collision_energy: [28.333334]
Isolation_window: 4.0
Ion_mode: P
Num Peaks: 28
69.0337	7.5
71.0494	5.5
81.0336	8.2
98.0964	87.6
99.0440	6.3
99.0998	5.1
111.0439	3.9
120.0807	7.7
150.0548	4.2
164.0701	6.0
175.0864	6.4
191.0810	70.1
192.0843	7.3
216.1013	5.7
288.1215	8.2
289.1168	4.3
289.1531	5.0
290.1011	4.6
290.1371	4.8
305.1461	4.7
306.1316	26.3
307.1278	100.0
307.1639	36.4
308.1115	10.1
308.1309	13.4
308.1481	16.4
308.1672	4.5
309.1438	4.3

Name: 8,9-Dimethoxy-1,1,10b-trimethyl-1,5,6,10b-tetrahydro(1,3)oxazolo(4,3-a)isoquinolin-3-one
PrecursorMZ: 292.15383
RT: 8.6967
ExactMass: 291.14705815
Spectrum_type: 2
charge: 1
Formula: C16H21NO4
SMILES: CC1(C2(C3=CC(=C(C=C3CCN2C(=O)O1)OC)OC)C)C
Method: HCD
Collision_energy: [28.333334]
Isolation_window: 4.0
Ion_mode: P
Num Peaks: 13
70.0654	15.5
137.0594	16.7
215.1058	8.6
274.1427	16.3
274.2157	8.8
276.1434	12.8
291.1325	37.6
291.2423	25.6
292.1165	13.2
292.1530	100.0
293.1483	19.2
293.1582	9.0
294.1447	31.6

Name: 8,9-Dimethoxy-1,1,10b-trimethyl-1,5,6,10b-tetrahydro)1,3(oxazolo)4,3-a(isoquinolin-3-one
PrecursorMZ: 292.15406
RT: 3.8547
ExactMass: 291.14705815
Spectrum_type: 2
charge: 1
Formula: C16H21NO4
SMILES: CC1(C2(C3=CC(=C(C=C3CCN2C(=O)O1)OC)OC)C)C
Method: HCD
Collision_energy: [28.333334]
Isolation_window: 4.0
Ion_mode: P
Num Peaks: 153
55.0547	0.9
58.0657	1.7
59.0496	0.6
69.0341	0.4
70.0656	2.9
72.0813	1.2
80.0498	0.7
81.0340	1.0
82.0655	0.4
83.0495	1.7
84.0448	0.5
84.0813	5.5
85.0289	0.5
85.0847	0.4
86.0603	0.8
87.0446	1.3
94.0654	0.4
95.0607	0.5
96.0450	0.5
97.0291	0.4
97.0764	4.8
98.0605	0.6
98.0969	0.4
99.0444	0.6
100.0761	0.9
101.0600	8.1
102.0563	0.6
102.0635	0.5
108.0813	0.4
109.0766	0.4
110.0607	0.4
111.0445	0.7
111.0558	0.5
112.0763	0.5
114.0555	0.5
114.0665	0.8
116.0709	1.4
120.0812	0.5
122.0605	0.4
123.0445	1.1
126.0555	0.5
126.0915	0.6
128.0711	1.0
130.0502	0.6
130.0865	2.7
136.0759	2.0
140.0345	0.4
140.0712	0.4
142.0868	0.4
144.0660	0.9
146.0924	1.6
147.1128	0.5
148.0610	0.4
152.0708	0.4
156.1022	0.4
161.1079	0.5
163.0395	0.4
164.0711	0.4
165.0545	0.6
166.0611	0.4
166.0861	0.8
168.1020	0.6
170.0817	0.4
174.1128	0.5
177.1024	0.6
178.0870	0.4
179.1185	0.5
180.1011	0.8
181.0986	0.4
182.0813	0.4
182.0946	0.5
184.0721	0.4
184.0971	0.5
191.0819	0.7
191.1184	1.9
193.0976	0.6
194.1184	0.4
195.1130	2.3
196.0977	0.5
197.1288	12.0
198.0895	0.8
198.1320	1.5
199.0933	1.0
199.1098	0.4
200.1037	2.2
207.1140	0.4
209.1286	2.5
211.1077	0.9
216.0990	0.9
223.1072	0.5
237.1593	0.4
238.1205	0.4
241.1188	1.2
242.1016	0.5
256.1296	0.4
258.1462	0.7
259.1304	0.4
272.1250	3.3
273.1259	0.6
274.1447	0.4
275.1166	0.8
287.1229	0.6
288.1447	0.4
289.1415	0.9
290.1351	8.0
290.1802	2.2
291.1365	4.4
291.1706	1.5
292.1551	6.0
293.1164	1.0
293.1526	3.4
293.1876	0.5
294.1374	1.6
294.1713	1.2
295.1338	1.5
295.1656	12.2
296.1496	1.6
296.1724	1.1
297.1127	0.9
297.1467	4.8
297.1810	100.0
297.2536	0.5
298.1343	0.9
298.1852	18.1
299.1665	7.8
300.1139	0.4
300.1528	0.8
300.1762	0.9
301.1167	0.7
301.1468	1.3
301.1764	5.9
302.1010	0.5
302.1353	1.5
302.1817	0.8
303.0983	0.8
303.1333	0.6
303.1624	0.4
304.1182	2.1
304.1514	9.5
305.1544	2.4
306.1344	2.4
306.1692	2.6
307.1308	0.4
307.1696	1.6
308.1603	5.9
308.1888	0.7
309.1457	1.6
309.1814	12.7
310.1291	0.9
310.1868	2.1
311.1286	0.7
311.1604	4.9
311.1926	0.4

Name: 8-((2,6-dimethylmorpholin-4-yl)methyl)-1,3-dimethyl-7H-purine-2,6-dione
PrecursorMZ: 308.17131
RT: 5.96185
ExactMass: 307.16443955
Spectrum_type: 2
charge: 1
Formula: C14H21N5O3
SMILES: CC1CN(CC(O1)C)CC2=NC3=C(N2)C(=O)N(C(=O)N3C)C
Method: HCD
Collision_energy: [28.333334]
Isolation_window: 4.0
Ion_mode: P
Num Peaks: 30
70.0654	6.5
98.0601	4.2
100.0757	4.1
120.0807	7.7
125.0707	3.8
126.0912	5.9
136.0756	4.6
150.0549	4.7
165.0544	3.9
166.0862	9.8
167.1177	9.7
182.0807	4.3
195.1124	71.0
196.1157	9.7
262.1068	3.9
264.0976	5.4
264.1221	5.1
290.1011	5.0
291.1331	4.4
292.0931	5.2
292.1166	5.3
307.1264	9.3
307.1647	8.7
308.1108	13.3
308.1497	5.7
308.1709	100.0
309.1060	6.0
309.1419	8.6
309.1742	15.5
310.1278	11.5

Name: 8-((2S)-2,3-dihydroxy-3-methylbutyl)-7-methoxychromen-2-one
PrecursorMZ: 301.1045
RT: 4.7447
ExactMass: 278.11542367
Spectrum_type: 2
charge: 1
Formula: C15H18O5
SMILES: CC(C)([C@H](CC1=C(C=CC2=C1OC(=O)C=C2)OC)O)O
Method: HCD
Collision_energy: [28.333334]
Isolation_window: 4.0
Ion_mode: P
Num Peaks: 3
94.9297	35.1
112.8958	55.0
301.1042	100.0

Name: 8-((Di(propan-2-yl)amino)methyl)-7-hydroxy-3-phenyl-2-(trifluoromethyl)chromen-4-one
PrecursorMZ: 420.17774
RT: 2.8221
ExactMass: 419.17082811
Spectrum_type: 2
charge: 1
Formula: C23H24F3NO3
SMILES: CC(C)N(CC1=C(C=CC2=C1OC(=C(C2=O)C3=CC=CC=C3)C(F)(F)F)O)C(C)C
Method: HCD
Collision_energy: [28.333334]
Isolation_window: 4.0
Ion_mode: P
Num Peaks: 8
110.0712	3.7
116.0705	3.4
156.0767	3.1
278.1858	4.2
419.2030	7.9
420.1773	100.0
421.1807	20.0
421.2441	12.0

Name: 8-(2,3-Dihydroxy-3-methylbutyl)-5,7-dimethoxy-2-phenyl-2,3-dihydrochromen-4-one
PrecursorMZ: 387.17966
RT: 1.3668
ExactMass: 386.17293854
Spectrum_type: 2
charge: 1
Formula: C22H26O6
SMILES: CC(C)(C(CC1=C2C(=C(C=C1OC)OC)C(=O)CC(O2)C3=CC=CC=C3)O)O
Method: HCD
Collision_energy: [28.333334]
Isolation_window: 4.0
Ion_mode: P
Num Peaks: 17
137.0594	30.2
145.0644	8.4
161.0594	10.2
163.0750	8.1
167.0699	100.0
168.0731	8.4
177.0905	21.2
183.0646	12.0
193.0855	19.6
194.0887	3.5
207.1011	10.4
208.0963	5.7
209.0804	4.6
211.0960	10.3
215.1063	6.0
369.1682	7.7
387.1786	6.9

Name: 8-(3,5-Diethylpyrazolyl)-1-(3,3-dimethyl-2-oxobutyl)-3-methyl-7-(methylethyl)-1,3,7-trihydropurine-2,6-dione
PrecursorMZ: 429.26088
RT: 3.1473
ExactMass: 428.2535889
Spectrum_type: 2
charge: 1
Formula: C22H32N6O3
SMILES: CCC1=CC(=NN1C2=NC3=C(N2C(C)C)C(=O)N(C(=O)N3C)CC(=O)C(C)(C)C)CC
Method: HCD
Collision_energy: [28.333334]
Isolation_window: 4.0
Ion_mode: P
Num Peaks: 3
429.2381	19.5
429.2624	100.0
430.2658	25.5

Name: 8-(3-oxo-2-((E)-pent-2-enyl)cyclopenten-1-yl)octanoic acid
PrecursorMZ: 275.2002
RT: 5.087
ExactMass: 292.20384475
Spectrum_type: 2
charge: 1
Formula: C18H28O3
SMILES: CC/C=C/CC1=C(CCC1=O)CCCCCCCC(=O)O
Method: HCD
Collision_energy: [28.333334]
Isolation_window: 4.0
Ion_mode: P
Num Peaks: 34
67.0545	7.2
79.0544	6.7
81.0701	14.2
86.0966	6.1
91.0543	9.5
93.0700	13.8
95.0855	10.1
105.0699	17.5
107.0855	10.5
109.1012	7.1
119.0854	14.7
121.1011	15.7
131.0853	12.0
133.1010	22.3
135.1165	15.7
145.1009	13.2
146.0810	9.9
147.1166	28.3
159.1165	7.8
161.1320	8.0
212.2368	15.2
234.1846	21.1
257.0907	7.0
257.1894	10.4
273.1841	6.0
274.1062	19.3
274.1877	8.8
274.2734	22.2
275.1007	7.9
275.1999	100.0
276.1209	12.1
276.1577	7.8
276.2051	15.3
277.2158	22.0

Name: 8-(N-hydroxy-C-methylcarbonimidoyl)-4,9-dimethylfuro(2,3-h)chromen-2-one
PrecursorMZ: 272.08905
RT: 1.8018
ExactMass: 271.0844579
Spectrum_type: 2
charge: 1
Formula: C15H13NO4
SMILES: CC1=CC(=O)OC2=C1C=CC3=C2C(=C(O3)C(=NO)C)C
Method: HCD
Collision_energy: [28.333334]
Isolation_window: 4.0
Ion_mode: P
Num Peaks: 3
97.4565	7.4
272.0888	100.0
273.0923	11.8

Name: 8-Aminooctanoic acid
PrecursorMZ: 142.12243
RT: 1.3216
ExactMass: 159.125928785
Spectrum_type: 2
charge: 1
Formula: C8H17NO2
SMILES: C(CCCC(=O)O)CCCN
Method: HCD
Collision_energy: [28.333334]
Isolation_window: 4.0
Ion_mode: P
Num Peaks: 25
55.0546	2.4
57.0702	6.6
60.0448	0.5
69.0338	0.6
69.0701	7.5
69.6904	0.6
69.7140	0.5
72.0810	0.5
83.0857	1.3
86.0601	1.7
86.0965	6.8
96.0807	0.5
97.1012	8.1
98.1045	0.8
107.0855	0.8
124.1119	1.2
125.0959	0.6
142.1108	0.8
142.1130	0.5
142.1223	100.0
142.1314	0.5
142.1339	0.7
143.1256	10.4
144.0805	1.1
144.1381	0.5

Name: 8-Chloro-5,7-dihydroxy-2,6-dimethylchromen-4-one
PrecursorMZ: 241.02758
RT: 8.2826
ExactMass: 240.0189365
Spectrum_type: 2
charge: 1
Formula: C11H9ClO4
SMILES: CC1=CC(=O)C2=C(O1)C(=C(C(=C2O)C)O)Cl
Method: HCD
Collision_energy: [28.333334]
Isolation_window: 4.0
Ion_mode: P
Num Peaks: 12
89.0599	4.1
101.0599	2.9
114.0916	6.8
140.0342	8.8
195.0222	60.8
196.0255	5.1
240.0869	6.2
241.0276	100.0
242.0311	9.7
242.1020	4.4
242.1137	3.1
243.0234	3.0

Name: 8-Hepe
PrecursorMZ: 301.21582
RT: 1.1623
ExactMass: 318.21949481
Spectrum_type: 2
charge: 1
Formula: C20H30O3
SMILES: CC/C=C\C/C=C\C/C=C\C=C\C(C/C=C\CCCC(=O)O)O
Method: HCD
Collision_energy: [28.333334]
Isolation_window: 4.0
Ion_mode: P
Num Peaks: 163
55.0545	0.5
62.0604	1.9
67.0546	2.4
69.0338	0.7
69.0702	1.9
69.4921	0.5
69.7514	0.6
71.0494	1.6
79.0544	2.0
81.0701	15.4
82.0734	1.0
83.0858	2.1
85.0650	0.9
86.0965	0.4
91.0543	1.8
93.0700	14.4
94.0733	1.1
95.0856	16.5
96.0889	1.0
97.0648	0.6
97.1012	1.6
97.4560	0.3
99.0441	7.1
99.0805	0.7
101.0598	0.4
105.0699	12.4
106.0732	0.8
107.0855	9.8
108.0889	0.7
109.0647	0.4
109.1012	4.1
110.1046	0.4
111.0804	0.8
113.0596	0.6
115.0753	0.4
117.0698	2.1
118.0733	0.4
119.0854	11.7
120.0889	1.0
121.1011	15.8
122.1044	1.2
123.0803	1.3
123.1167	1.9
125.0960	0.9
127.0752	0.7
129.0697	0.6
129.0909	0.5
131.0854	12.0
132.0887	1.2
133.1010	17.6
134.1043	1.7
135.0802	0.8
135.1166	7.6
136.1198	0.6
137.0959	1.1
139.0751	2.0
141.0908	2.3
143.0853	2.8
145.1010	13.8
146.1042	1.4
147.0803	0.5
147.1166	8.3
148.1199	0.8
149.0959	2.8
149.1323	1.3
151.1115	1.4
155.0855	0.5
157.1010	4.4
158.1042	0.3
159.1166	23.3
160.1194	2.5
161.0959	1.1
161.1323	5.1
162.1357	0.5
163.1115	3.9
163.1480	0.6
164.1150	0.5
165.1272	0.8
167.1063	2.4
169.1009	0.8
171.1166	4.7
172.1199	0.5
173.0958	0.4
173.1322	6.8
174.1353	0.9
175.1114	2.9
175.1477	0.9
176.1146	0.3
177.1270	1.0
179.1064	1.4
179.1428	0.5
181.1009	0.6
181.1220	0.6
183.1166	1.4
185.1321	4.1
187.1113	0.6
187.1478	41.5
188.1510	5.5
189.1270	3.7
189.1634	5.7
190.1302	0.5
190.1667	0.6
191.1062	0.9
191.1426	1.4
193.1219	3.4
195.1165	0.9
197.1321	1.3
199.1113	0.4
199.1477	3.7
200.1507	0.6
201.1271	0.7
201.1634	0.6
203.1425	1.2
205.1218	1.7
207.1375	10.2
208.1408	1.0
209.1322	1.4
209.1533	0.4
211.1477	0.7
213.1268	1.1
213.1633	3.9
214.1665	0.7
215.1426	0.5
219.1373	1.1
221.1531	1.7
223.1477	1.7
225.1633	3.9
226.1667	0.6
227.1426	1.5
227.1789	16.2
228.1821	2.8
229.1948	1.6
231.1375	1.0
233.1531	0.7
237.1632	1.6
240.2316	1.7
241.1581	2.3
242.1617	0.3
243.1743	0.4
245.1532	1.5
247.1689	0.4
255.1737	2.1
255.2101	3.9
256.1773	0.4
256.2133	0.7
259.1682	0.9
265.1945	4.0
266.1978	0.6
267.2099	0.6
273.1837	0.8
273.2210	0.4
282.2785	0.6
283.2050	13.3
284.2083	2.3
285.2206	0.9
300.2888	0.8
301.1794	0.7
301.1876	0.5
301.2154	100.0
301.2510	0.7
302.2188	21.0
303.2192	0.5
303.2317	5.5

Name: 8-Hydroxy-2,7,7,11,15-pentamethyl-5,12,16-trioxapentacyclo(9.8.0.0(2),.0,.0(1)(3),(1))nonadec-13(18)-ene-3,17-dione
PrecursorMZ: 394.22208
RT: 0.9084
ExactMass: 376.18858861
Spectrum_type: 2
charge: 1
Formula: C21H28O6
SMILES: CC1CC2=C(CC3C(O2)(CCC4(C3(C(=O)C5C(C4(C)C)O5)C)O)C)C(=O)O1
Method: HCD
Collision_energy: [28.333334]
Isolation_window: 4.0
Ion_mode: P
Num Peaks: 42
57.0703	63.3
69.0703	33.1
71.0495	17.9
83.0494	34.7
85.0651	52.2
95.0494	20.4
97.3992	19.8
113.0599	27.2
163.0752	18.0
191.0705	22.2
205.1218	19.5
209.0807	64.9
215.1065	18.0
231.1017	29.1
233.1172	20.9
245.1166	22.6
247.1328	30.6
249.1118	18.4
251.1276	26.3
257.1169	31.2
263.1272	22.4
265.1434	44.1
271.1324	16.3
273.1119	28.3
275.1276	31.6
287.1276	19.0
289.1428	40.7
291.1218	25.7
303.1220	19.2
317.1385	18.5
331.1899	17.4
335.1483	16.1
341.1743	57.3
357.1690	44.9
359.1848	100.0
360.1883	20.1
375.1802	61.5
376.1827	23.0
377.1957	89.6
379.2111	32.0
393.1899	52.9
395.2056	39.7

Name: 8-Hydroxy-6-methoxy-1-oxo-3,4-dihydroisochromene-7-carboxylic acid
PrecursorMZ: 221.04451
RT: 4.4457
ExactMass: 238.04773803
Spectrum_type: 2
charge: 1
Formula: C11H10O6
SMILES: COC1=C(C(=C2C(=C1)CCOC2=O)O)C(=O)O
Method: HCD
Collision_energy: [28.333334]
Isolation_window: 4.0
Ion_mode: P
Num Peaks: 6
109.0286	23.3
139.0026	50.3
190.0495	6.9
203.0339	8.6
221.0444	100.0
222.0480	12.8

Name: 8-Hydroxy-9,10-epoxystearic acid
PrecursorMZ: 297.24204
RT: 5.1764
ExactMass: 314.24570956
Spectrum_type: 2
charge: 1
Formula: C18H34O4
SMILES: CCCCCCCCC1C(O1)C(CCCCCCC(=O)O)O
Method: HCD
Collision_energy: [28.333334]
Isolation_window: 4.0
Ion_mode: P
Num Peaks: 18
57.0704	35.8
67.0546	27.7
69.0703	36.4
71.0859	44.8
81.0702	76.4
83.0858	47.6
95.0857	54.9
97.1013	34.2
109.1013	41.6
121.1014	26.6
123.1168	26.7
135.1167	21.8
141.1273	31.2
160.9013	29.6
176.8752	100.0
279.2314	37.4
296.2577	33.1
299.2577	26.0

Name: 8-Hydroxydictamnine
PrecursorMZ: 216.06545
RT: 4.1891
ExactMass: 215.058243149
Spectrum_type: 2
charge: 1
Formula: C12H9NO3
SMILES: COC1=C2C=COC2=NC3=C1C=CC=C3O
Method: HCD
Collision_energy: [28.333334]
Isolation_window: 4.0
Ion_mode: P
Num Peaks: 12
100.0759	39.2
101.0598	5.2
114.0915	17.1
114.8931	5.1
166.0864	6.4
182.0924	5.8
201.0422	14.5
214.1187	5.2
216.0655	100.0
216.1227	7.9
217.0692	12.0
217.1053	5.8

Name: 8-Hydroxyquinoline
PrecursorMZ: 146.06002
RT: 1.1235
ExactMass: 145.052763847
Spectrum_type: 2
charge: 1
Formula: C9H7NO
SMILES: C1=CC2=C(C(=C1)O)N=CC=C2
Method: HCD
Collision_energy: [28.333334]
Isolation_window: 4.0
Ion_mode: P
Num Peaks: 4
91.0543	6.5
118.0650	8.4
146.0598	100.0
147.0629	11.1

Name: 8-azabicyclo(3.2.1)octane-2-carboxylic acid, 3-hydroxy-8-methyl-, methyl ester, (1R,2R,3S,5S)-
PrecursorMZ: 200.12796
RT: 7.9303
ExactMass: 199.1208434
Spectrum_type: 2
charge: 1
Formula: C10H17NO3
SMILES: CN1C2CCC1[C@H]([C@H](C2)O)C(=O)OC
Method: HCD
Collision_energy: [28.333334]
Isolation_window: 4.0
Ion_mode: P
Num Peaks: 46
70.0655	2.6
84.0810	2.0
98.9754	2.8
114.9827	5.1
116.9719	8.5
116.9859	3.5
118.9673	3.2
123.0916	1.2
128.1069	2.8
131.9952	3.9
132.9931	1.6
134.9962	3.8
135.9564	2.3
152.9690	2.7
153.9670	3.7
156.1016	1.3
157.9744	4.9
158.9723	5.9
159.9697	1.3
175.9849	15.6
176.9826	9.0
177.9803	5.7
182.1175	1.7
183.1124	2.4
184.1329	2.2
198.1487	1.3
198.1595	2.8
199.0009	1.2
199.1075	5.9
199.1228	2.5
199.1438	12.6
199.1801	2.2
200.0915	1.2
200.1073	2.3
200.1180	7.9
200.1276	100.0
200.1370	2.3
200.1472	1.8
200.1637	4.1
201.1023	4.7
201.1227	14.5
201.1312	9.6
201.1592	2.8
202.0860	1.5
202.1073	1.6
202.1433	3.8

Name: 8-azabicyclo)3.2.1(octane-2-carboxylic acid, 3-hydroxy-8-methyl-, methyl ester, (1R,2R,3S,5S)-
PrecursorMZ: 200.12799
RT: 5.5378
ExactMass: 199.1208434
Spectrum_type: 2
charge: 1
Formula: C10H17NO3
SMILES: CN1C2CCC1[C@H]([C@H](C2)O)C(=O)OC
Method: HCD
Collision_energy: [28.333334]
Isolation_window: 4.0
Ion_mode: P
Num Peaks: 7
200.0896	0.6
200.1281	100.0
200.1665	0.8
201.1318	10.9
202.1319	1.0
202.1803	0.6
210.0800	1.5

Name: 8-ethyl-3-(hexylsulfanyl)-5H-(1,2,4)triazino(5,6-b)indole
PrecursorMZ: 315.16442
RT: 7.0983
ExactMass: 314.15651789
Spectrum_type: 2
charge: 1
Formula: C17H22N4S
SMILES: CCCCCCSC1=NC2=C(C3=C(N2)C=CC(=C3)CC)N=N1
Method: HCD
Collision_energy: [28.333334]
Isolation_window: 4.0
Ion_mode: P
Num Peaks: 41
57.0339	45.1
59.0496	4.2
73.0288	1.5
75.0444	100.0
76.0477	2.9
80.0498	2.2
83.0494	2.6
85.0286	1.2
85.0650	1.3
87.0443	11.9
93.0548	14.5
97.0285	8.8
101.0598	9.7
105.0546	1.6
113.0598	5.7
119.0703	17.0
129.0545	9.5
131.0702	43.9
132.0735	2.4
136.0616	15.4
137.0650	1.1
149.0807	46.4
150.0841	2.4
167.0912	29.9
168.0946	2.3
171.1167	2.7
189.1272	1.3
205.1068	6.7
223.1173	11.3
224.1206	1.4
241.1278	4.6
297.1541	3.4
314.0908	4.4
314.1216	3.5
314.1744	5.7
315.1335	1.5
315.1645	69.2
316.1376	1.7
316.1677	9.8
317.1140	1.3
317.1342	1.3

Name: 8-ethyl-3-(hexylsulfanyl)-5H-)1,2,4(triazino)5,6-b(indole
PrecursorMZ: 315.16419
RT: 2.3203
ExactMass: 314.15651789
Spectrum_type: 2
charge: 1
Formula: C17H22N4S
SMILES: CCCCCCSC1=NC2=C(C3=C(N2)C=CC(=C3)CC)N=N1
Method: HCD
Collision_energy: [28.333334]
Isolation_window: 4.0
Ion_mode: P
Num Peaks: 23
57.0340	45.4
59.0496	3.2
75.0444	100.0
76.0478	3.2
83.0493	3.6
87.0444	13.4
93.0549	13.6
101.0599	10.4
113.0601	5.4
119.0704	13.5
129.0547	11.1
131.0703	46.6
149.0809	38.4
166.0864	6.0
167.0914	24.0
180.1021	4.6
205.1075	6.6
223.1174	11.6
241.1277	4.2
313.1520	12.3
314.1595	6.0
315.1649	61.7
316.1698	9.3

Name: 8-hydroxyquinolin-2(1H)-one
PrecursorMZ: 162.05483
RT: 2.6574
ExactMass: 161.047678466
Spectrum_type: 2
charge: 1
Formula: C9H7NO2
SMILES: C1=CC2=C(C(=C1)O)NC(=O)C=C2
Method: HCD
Collision_energy: [28.333334]
Isolation_window: 4.0
Ion_mode: P
Num Peaks: 13
116.0495	1.3
134.0601	6.2
136.0751	1.3
144.0445	3.4
152.0346	1.4
162.0550	100.0
163.0590	9.3
164.0342	1.4
168.0665	2.0
178.0497	1.3
178.1340	5.0
180.1046	4.5
184.0606	1.4

Name: 8-methoxy-1',3'-dimethyl-2-phenyl-2'H,4H-spiro)chromene-3,5'-pyrimidine(-2',4',6'(1'H,3'H)-trione
PrecursorMZ: 381.14947
RT: 3.8049
ExactMass: 380.13722174
Spectrum_type: 2
charge: 1
Formula: C21H20N2O5
SMILES: CN1C(=O)C2(CC3=C(C(=CC=C3)OC)OC2C4=CC=CC=C4)C(=O)N(C1=O)C
Method: HCD
Collision_energy: [28.333334]
Isolation_window: 4.0
Ion_mode: P
Num Peaks: 205
56.0499	2.1
57.0339	2.5
59.0608	6.1
69.0338	4.2
70.0655	14.3
71.0495	4.0
72.0812	9.0
74.0604	3.9
81.0338	6.2
83.0494	23.1
84.0447	12.6
84.0811	12.4
85.0288	5.2
86.0604	4.0
86.0967	13.9
87.0442	3.5
88.0396	4.0
89.0599	1.9
90.0551	3.9
95.0495	2.9
96.0447	4.2
97.0285	5.9
98.0604	3.2
98.0965	3.8
98.9844	99.3
99.0443	4.3
100.0760	2.3
101.0600	7.3
102.0551	10.9
108.0446	2.0
110.0601	3.4
110.0714	3.5
111.0443	3.2
112.0759	4.2
114.0550	4.4
116.0708	19.4
117.0548	2.2
118.0863	2.2
120.0657	4.3
120.0807	4.1
122.0601	3.6
123.0446	1.9
123.0554	3.8
124.0395	2.4
124.0760	2.2
125.0234	2.2
126.0550	7.2
127.0389	2.9
128.0708	4.6
129.0661	2.6
130.0499	11.7
130.0863	5.2
132.0656	2.5
132.1020	10.0
134.0604	1.8
136.0757	5.8
137.0598	2.0
138.0551	3.6
139.0390	4.3
139.0500	2.5
140.0706	2.7
141.0658	6.0
142.0496	3.0
142.0863	2.2
144.0656	3.5
144.1018	2.1
146.0597	2.2
147.0772	1.9
148.0605	6.3
148.0756	2.2
149.0233	3.8
150.0545	2.8
151.0154	16.9
152.0710	3.2
153.0545	2.7
154.0498	3.4
154.0858	2.6
156.0654	3.9
158.0811	1.9
162.0552	6.7
162.0767	2.2
163.0157	4.7
163.0392	1.9
164.0703	3.4
165.0543	3.5
166.0496	3.1
166.0858	3.3
168.0656	6.6
170.0812	2.9
176.0702	2.4
177.0546	2.1
178.0852	2.4
178.9503	4.5
180.0656	4.7
181.0260	19.3
181.0619	2.3
182.0808	5.8
184.0596	2.3
186.0754	2.3
192.0656	4.9
194.0807	4.0
195.0778	3.3
196.0600	5.0
197.1287	1.9
198.0759	2.6
199.0365	40.3
200.0395	2.2
200.0918	1.9
201.0873	4.5
204.0661	2.1
206.0815	2.8
208.0595	2.8
208.0970	2.0
210.0750	3.6
212.0553	1.9
212.0918	2.1
213.0881	3.8
214.0695	2.7
218.0813	2.1
218.1021	3.7
218.1369	2.6
219.0983	2.0
220.0619	2.3
222.0745	2.5
222.1123	1.8
223.1079	2.1
224.0911	2.5
225.0873	2.0
226.0699	2.8
226.1067	11.5
228.0843	2.9
231.0974	3.5
234.0800	2.4
237.0871	3.3
238.0691	2.8
239.1031	1.9
240.0870	2.1
241.0824	3.2
246.0758	2.1
246.0972	3.5
248.0915	2.1
251.1019	3.2
252.0713	18.2
253.0763	2.5
259.0931	1.8
260.0911	1.9
260.9924	7.0
265.1188	1.9
279.0027	100.0
279.0982	3.7
280.0060	5.4
284.0899	2.0
286.1073	2.0
297.1080	9.5
300.0881	2.0
309.1085	3.8
312.0865	4.3
325.1031	2.0
326.0989	2.4
330.0968	12.1
331.0994	2.8
334.1312	1.9
335.1243	2.0
344.1091	3.4
345.1337	4.3
347.1239	2.2
357.1307	3.9
362.1257	2.3
363.1110	2.7
365.1386	2.4
367.1138	1.9
370.1150	1.9
375.1235	2.1
378.1246	2.3
379.0557	8.8
380.1411	8.4
381.1251	9.5
382.1062	2.9
382.1630	5.2
383.1498	5.8
384.1171	8.7
385.1172	7.3
385.1608	6.6
386.1074	2.5
386.1642	5.0
387.1423	6.8
387.1834	2.0
388.1050	3.8
388.1680	11.3
389.1132	2.9
389.1605	5.7
390.1134	12.4
391.1190	4.7
392.1343	3.3
393.1322	6.3
394.1167	2.6
394.1669	3.3
395.1467	6.5
396.1279	7.1
397.0654	14.9
397.1189	3.1
397.1696	5.1
398.1563	6.8
399.1334	6.1
399.1793	3.4

Name: 9(10)-EpOME
PrecursorMZ: 297.24205
RT: 2.9797
ExactMass: 296.23514488
Spectrum_type: 2
charge: 1
Formula: C18H32O3
SMILES: CCCCC/C=C\CC1C(O1)CCCCCCCC(=O)O
Method: HCD
Collision_energy: [28.333334]
Isolation_window: 4.0
Ion_mode: P
Num Peaks: 129
55.0546	7.9
57.0339	8.2
57.0703	20.6
67.0546	39.0
69.0338	4.0
69.0702	30.7
70.0654	4.2
71.0495	9.2
71.0858	38.9
79.0545	11.7
81.0337	12.0
81.0701	59.5
82.0736	3.3
83.0494	7.6
83.0858	22.7
85.0650	12.2
85.1014	15.4
86.0966	9.4
91.0543	7.3
93.0700	18.0
95.0493	5.2
95.0857	66.4
96.0890	4.7
97.0649	10.1
97.1013	24.0
97.4568	8.2
99.0805	29.0
105.0699	9.3
107.0493	3.7
107.0856	19.6
109.0649	4.4
109.1012	39.7
110.1047	3.8
111.0441	5.6
111.0805	7.4
111.1169	8.4
113.0961	7.4
115.0390	4.8
117.0700	3.6
119.0855	9.2
121.1011	19.5
122.0712	32.2
123.0805	5.3
123.1168	22.1
124.0757	3.9
125.0960	12.8
126.0914	3.7
127.1118	4.0
131.0853	8.4
133.1010	11.4
135.0803	7.0
135.1167	21.4
137.0960	5.6
137.1323	12.2
139.1115	6.3
145.1010	11.0
147.1166	22.3
149.0961	6.2
149.1323	10.0
151.1115	9.1
151.1481	4.9
153.1272	8.7
154.0865	3.2
159.1167	5.6
161.1323	7.3
163.0754	5.8
163.1116	6.7
163.1479	6.1
165.0545	7.3
165.1272	8.5
167.1428	4.1
173.0959	9.6
173.1324	8.3
177.0543	4.6
179.0700	17.9
181.0760	4.0
181.1588	3.2
187.1480	4.8
191.1063	13.9
191.1428	3.4
193.0855	6.4
200.0702	7.5
201.0907	14.1
202.0858	3.1
205.0855	7.9
209.1534	3.5
219.1012	51.5
220.1050	6.7
229.0856	15.2
233.1168	7.0
236.0914	3.5
237.1118	34.6
243.2104	13.9
247.0960	32.7
248.0994	4.5
261.1116	15.3
261.2207	23.0
262.2242	4.7
264.1228	3.9
265.1064	4.4
278.1024	4.2
278.1377	6.8
278.2189	3.7
279.1220	51.3
279.2313	100.0
280.1267	6.2
280.2347	19.6
296.0923	3.3
296.1123	11.2
296.1483	22.6
296.1836	6.9
296.2306	5.0
297.1007	24.5
297.1318	5.0
297.1448	10.2
297.1805	9.4
297.2198	3.3
297.2418	24.8
298.1070	11.3
298.1281	16.1
298.1437	3.7
298.1642	10.7
298.1797	5.3
298.2455	4.8
299.1031	4.5
299.1386	13.1
299.1604	6.8
299.1979	8.0
299.2573	78.9

Name: 9(11)-Dehydromanogenin
PrecursorMZ: 445.29451
RT: 2.5455
ExactMass: 444.28757437
Spectrum_type: 2
charge: 1
Formula: C27H40O5
SMILES: C[C@H]1CC[C@@]2([C@H]([C@H]3[C@@H](O2)CC4[C@@]3(C(=O)C=C5C4CC[C@@H]6[C@@]5(C[C@H]([C@@H](C6)O)O)C)C)C)OC1
Method: HCD
Collision_energy: [28.333334]
Isolation_window: 4.0
Ion_mode: P
Num Peaks: 99
69.0702	16.5
69.0976	2.1
69.2854	1.5
73.0286	2.1
80.0547	1.8
81.0701	11.6
86.0967	1.7
87.0442	2.5
89.0598	15.7
93.0699	2.7
95.0492	2.2
95.0857	2.4
97.0648	8.8
97.4580	1.4
99.0805	13.6
102.0676	1.8
105.0699	1.9
107.0856	5.2
109.0647	2.7
109.1012	3.1
111.0804	1.4
115.0753	1.5
119.0855	1.8
121.0646	1.9
121.1011	2.4
123.0803	14.6
123.1167	1.6
125.0959	4.9
127.1114	3.0
131.0852	1.6
133.0857	8.2
133.1012	1.4
135.0800	1.3
135.1165	1.3
137.0961	1.8
145.1009	3.0
147.0799	1.3
147.1168	3.0
149.0958	1.8
149.1319	1.3
159.1166	2.0
161.0959	2.0
161.1321	1.6
165.1271	27.6
166.1304	2.5
173.0958	6.0
173.1323	2.2
175.1116	1.6
177.1117	3.4
177.1271	1.4
179.1427	2.3
187.1113	1.5
189.0906	2.5
191.1063	4.1
197.1322	1.5
201.1267	1.7
209.1164	1.3
213.1268	1.7
215.1426	5.1
221.1392	1.6
225.1269	1.7
231.1374	3.8
243.1371	1.8
247.1321	2.3
249.1478	6.0
255.1737	2.4
265.1579	2.9
283.1682	6.2
295.2044	1.9
301.1790	24.2
302.1831	4.0
303.1946	3.9
311.1997	2.3
313.2154	3.6
317.2102	1.7
319.1895	1.5
329.2099	4.2
331.2257	5.1
335.1999	1.6
353.2103	5.1
355.2253	2.3
371.2206	100.0
372.2239	22.9
373.2266	2.0
391.2619	2.0
409.2723	7.8
410.2769	2.5
427.2172	1.5
427.2831	30.7
428.2597	2.5
428.2865	8.4
428.7626	1.4
444.2038	2.3
444.7065	1.5
445.1972	1.6
445.2937	80.1
446.1792	1.8
446.2970	23.6
447.2993	2.7

Name: 9,10,16-Trihydroxyhexadecanoic acid
PrecursorMZ: 305.2318
RT: 4.9448
ExactMass: 304.22497412
Spectrum_type: 2
charge: 1
Formula: C16H32O5
SMILES: C(CCCC(C(CCCCCCO)O)O)CCCC(=O)O
Method: HCD
Collision_energy: [28.333334]
Isolation_window: 4.0
Ion_mode: P
Num Peaks: 46
67.0546	46.6
69.0702	18.6
69.4141	17.9
71.0494	66.3
81.0701	86.7
85.0651	40.3
91.0543	36.9
93.0699	33.3
95.0493	18.9
95.0856	96.1
97.0649	25.5
107.0856	20.0
109.1012	67.4
119.0855	21.9
121.0648	32.7
121.1012	23.9
123.1167	31.6
131.0855	19.2
133.1009	36.8
135.0802	19.6
135.1167	35.2
137.0959	18.3
149.1323	30.9
151.1116	17.7
164.0704	64.5
182.0810	20.0
212.2369	18.5
215.1790	37.4
233.1898	29.2
251.2001	90.5
258.1121	21.0
258.1315	20.2
269.2105	100.0
287.1386	25.8
289.1541	17.9
289.1791	55.6
304.1175	69.4
304.1379	21.1
304.2991	65.1
305.1497	19.9
305.1723	24.0
306.1315	40.2
306.2632	20.2
307.1266	27.8
307.1640	44.7
307.1897	56.3

Name: 9,10-DiHOME
PrecursorMZ: 297.24198
RT: 2.0498
ExactMass: 314.24570956
Spectrum_type: 2
charge: 1
Formula: C18H34O4
SMILES: CCCCC/C=C\CC(C(CCCCCCCC(=O)O)O)O
Method: HCD
Collision_energy: [28.333334]
Isolation_window: 4.0
Ion_mode: P
Num Peaks: 27
67.0546	39.1
69.0702	21.5
71.0858	16.1
81.0701	58.8
83.0857	14.1
85.1013	10.7
93.0700	13.4
94.9297	52.9
95.0856	46.1
97.1012	20.7
99.0805	12.7
107.0856	15.6
109.1012	35.2
113.0959	14.1
121.1011	16.0
123.1167	14.1
125.0960	13.5
135.1166	20.0
139.1115	15.1
147.1166	12.1
149.1321	12.6
243.2098	12.4
261.2207	21.6
279.2312	100.0
280.2345	15.2
297.2414	23.5
299.2571	16.6

Name: 9,12,13-Trihydroxy-10,15-octadecadienoic acid
PrecursorMZ: 311.22102
RT: 5.7967
ExactMass: 328.22497412
Spectrum_type: 2
charge: 1
Formula: C18H32O5
SMILES: CC/C=C/CC(C(/C=C/C(CCCCCCCC(=O)O)O)O)O
Method: HCD
Collision_energy: [28.333334]
Isolation_window: 4.0
Ion_mode: P
Num Peaks: 64
55.0546	4.0
67.0546	17.2
69.0703	9.7
71.0494	5.9
79.0545	7.8
81.0702	35.0
83.0858	8.1
85.0651	4.7
85.0762	3.5
86.0967	5.4
91.0545	6.3
93.0700	14.1
95.0857	24.0
97.0649	3.5
97.1013	10.1
100.0758	3.7
105.0700	7.2
107.0857	12.5
109.0648	4.5
109.1013	19.0
119.0855	8.5
121.1012	20.6
123.0803	3.6
123.1170	6.5
125.0960	4.9
131.0855	5.8
133.1011	15.0
135.0438	3.7
135.0803	3.6
135.1168	6.4
139.1116	6.0
145.1011	5.9
146.0269	15.0
147.1167	10.3
149.0962	5.7
151.1114	3.9
153.0909	9.5
159.1169	4.9
161.1322	3.8
163.1115	3.5
167.1064	8.6
173.1322	4.8
177.1272	3.9
208.0967	4.5
229.1945	5.4
236.0918	6.6
239.1800	5.6
247.2052	4.6
253.1182	6.9
257.1895	10.2
260.0909	3.7
265.2156	11.5
275.2002	47.0
276.2035	9.6
278.1022	6.6
293.2107	100.0
294.2142	19.5
310.1280	5.3
310.1463	33.7
311.1029	5.8
311.2210	11.8
312.1434	4.7
312.3619	7.5
313.0890	31.2

Name: 9,12,15-Octadecatrienoic acid, 3-(hexopyranosyloxy)-2-hydroxypropyl ester, (9Z,12Z,15Z)-
PrecursorMZ: 532.34809
RT: 3.1470000000000002
ExactMass: 514.31418304
Spectrum_type: 2
charge: 1
Formula: C27H46O9
SMILES: CC/C=C\C/C=C\C/C=C\CCCCCCCC(=O)OCC(COC1C(C(C(C(O1)CO)O)O)O)O
Method: HCD
Collision_energy: [28.333334]
Isolation_window: 4.0
Ion_mode: P
Num Peaks: 49
67.0547	29.0
69.0703	8.4
79.0546	12.3
81.0702	47.4
83.0858	10.0
91.0544	6.9
93.0702	19.5
95.0858	46.1
97.1014	7.4
99.0807	5.0
105.0700	9.1
107.0857	22.0
109.1014	37.2
119.0857	11.3
121.1013	31.8
123.1169	23.9
131.0856	13.1
133.1012	14.4
135.1169	27.6
137.1325	7.2
145.1012	10.3
147.1168	16.7
149.1326	24.6
159.1169	11.5
161.1326	14.2
163.1482	17.1
173.1325	18.8
175.1483	5.7
177.1640	6.6
187.1484	5.6
243.2106	34.3
244.2141	7.0
245.2264	15.9
261.2212	100.0
262.2246	16.3
262.2529	14.5
263.2369	34.1
335.2577	13.2
337.2736	14.7
353.2685	84.9
354.2716	21.1
355.2847	8.2
531.2935	47.0
532.2572	10.8
532.2971	11.5
533.2886	8.0
534.2916	8.9
534.4881	5.3
534.5223	5.6

Name: 9,12-Octadecadiynoic acid
PrecursorMZ: 277.21545
RT: 2.5074
ExactMass: 276.208930132
Spectrum_type: 2
charge: 1
Formula: C18H28O2
SMILES: CCCCCC#CCC#CCCCCCCCC(=O)O
Method: HCD
Collision_energy: [28.333334]
Isolation_window: 4.0
Ion_mode: P
Num Peaks: 89
55.0545	1.5
57.0702	1.2
67.0545	9.3
69.0701	5.3
69.9365	0.9
71.0494	1.1
71.0857	6.5
79.0543	8.1
81.0336	1.2
81.0700	11.2
83.0492	1.2
83.0856	3.4
85.0649	1.0
91.0542	3.9
93.0698	16.7
94.0732	1.2
95.0491	1.6
95.0855	8.9
97.0648	1.6
97.1011	2.5
98.0600	2.5
99.0803	4.7
105.0697	5.2
107.0490	1.2
107.0854	13.1
108.0886	1.2
109.0646	1.4
109.1010	5.7
111.0803	1.2
117.0696	1.1
119.0853	4.8
121.0647	0.9
121.1009	8.4
123.0802	1.3
123.1165	2.0
126.0545	1.2
131.0852	1.5
133.1008	4.5
135.0800	1.2
135.1164	10.7
136.1199	0.9
137.0956	0.8
137.1321	1.0
141.1270	1.2
143.0852	1.2
145.1008	2.8
147.1164	5.6
149.1321	7.3
151.1113	4.0
157.1008	1.0
159.1164	2.0
161.0957	1.2
161.1320	5.3
162.1354	0.8
163.1113	5.1
163.1476	3.1
165.1268	1.7
171.1164	2.4
173.1323	1.2
175.1112	0.8
175.1475	2.0
177.1267	1.2
179.1424	2.1
185.1320	1.5
189.1268	0.9
195.0856	1.3
196.0946	1.0
199.1474	1.0
207.1374	1.7
217.1942	0.8
221.1529	1.8
227.0762	1.0
231.2101	1.1
234.1844	1.8
235.1684	1.3
241.1942	2.4
259.2047	4.8
260.2078	1.1
275.1996	2.9
276.0507	100.0
276.2029	2.3
277.0418	26.7
277.1039	0.8
277.2151	47.5
278.0460	4.6
278.1490	0.8
278.2187	9.7
279.0912	1.1
279.2312	1.4

Name: 9-(4-Hydroxyphenyl)-2-((2-methoxyphenyl)methylidene)-8,9-dihydrofuro(2,3-f)chromene-3,7-dione
PrecursorMZ: 415.11056
RT: 8.4855
ExactMass: 414.11033829
Spectrum_type: 2
charge: 1
Formula: C25H18O6
SMILES: COC1=CC=CC=C1C=C2C(=O)C3=C(O2)C4=C(C=C3)OC(=O)CC4C5=CC=C(C=C5)O
Method: HCD
Collision_energy: [28.333334]
Isolation_window: 4.0
Ion_mode: P
Num Peaks: 19
70.0654	3.4
84.0809	6.7
90.0550	2.8
97.0285	2.7
111.0439	2.3
130.0861	2.5
414.1369	4.0
414.1753	2.7
415.1101	100.0
415.1681	14.5
415.2575	6.4
416.1133	16.4
416.1541	24.7
416.2006	2.6
416.2617	4.5
417.1063	5.0
417.1501	3.1
417.1893	3.5
417.2725	4.9

Name: 9-(beta-D-Ribofuranosyl)zeatin
PrecursorMZ: 352.15967
RT: 10.7531
ExactMass: 351.15426879
Spectrum_type: 2
charge: 1
Formula: C15H21N5O5
SMILES: C/C(=C\CNC1=C2C(=NC=N1)N(C=N2)C3C(C(C(O3)CO)O)O)/CO
Method: HCD
Collision_energy: [28.333334]
Isolation_window: 4.0
Ion_mode: P
Num Peaks: 19
70.0655	5.9
128.9536	17.1
144.9275	15.7
181.1088	9.4
351.1790	8.5
352.1601	95.3
353.1635	15.6
354.1651	5.0
356.3527	9.2
357.1643	5.6
358.3677	7.8
359.1814	20.5
360.1652	100.0
361.1636	30.5
361.2054	4.3
362.1792	22.2
363.1797	38.7
364.1837	6.0
365.1910	10.4

Name: 9-Hydroxy-10,12,15-octadecatrienoic acid
PrecursorMZ: 277.21536
RT: 2.1782
ExactMass: 294.21949481
Spectrum_type: 2
charge: 1
Formula: C18H30O3
SMILES: CC/C=C\C/C=C\C=C\[C@H](CCCCCCCC(=O)O)O
Method: HCD
Collision_energy: [28.333334]
Isolation_window: 4.0
Ion_mode: P
Num Peaks: 85
55.0545	0.8
57.0701	0.4
67.0544	3.8
69.0701	2.4
69.6250	0.4
71.0857	2.9
79.0543	3.2
81.0335	0.6
81.0700	5.5
83.0492	0.5
83.0856	1.4
91.0542	1.5
93.0698	7.1
94.0731	0.4
95.0490	0.7
95.0854	4.1
97.0646	0.7
97.1011	0.7
97.4553	0.3
99.0803	2.1
105.0697	1.9
107.0488	0.5
107.0854	4.9
109.0645	0.5
109.1010	2.4
111.0801	0.6
117.0696	0.6
119.0853	2.0
121.0644	0.3
121.1009	3.2
123.0801	0.7
123.1165	0.8
125.0958	0.4
131.0851	0.9
133.1008	2.0
135.1164	4.4
136.1197	0.5
137.0954	0.5
137.1319	0.7
141.1269	0.6
143.0851	0.5
145.1006	1.1
147.1164	2.2
149.0958	0.5
149.1320	2.9
151.1112	1.7
157.1007	0.5
159.1164	0.9
161.0955	0.6
161.1321	1.9
163.1113	2.1
163.1476	1.3
165.1269	0.9
171.1162	1.0
173.1317	0.5
175.1476	0.9
177.1267	0.6
179.1424	0.9
185.1319	0.5
189.1266	0.3
194.0833	0.7
195.0859	1.5
196.0946	0.7
207.1370	0.5
212.0892	0.5
217.1944	0.3
221.1530	0.7
227.0764	1.0
231.2096	0.3
234.1843	1.0
241.1941	1.1
249.2207	0.5
259.2046	2.2
275.1997	0.9
276.0193	0.7
276.0507	100.0
276.0827	0.6
276.2029	0.8
277.0417	27.5
277.1041	1.0
277.2151	19.5
278.0457	3.8
278.2185	3.9
279.0912	0.3
279.2312	1.0

Name: 9-Isopropyl-N-(3-(trifluoromethyl)benzyl)-9H-purin-6-amine
PrecursorMZ: 336.14388
RT: 6.6267
ExactMass: 335.13578002
Spectrum_type: 2
charge: 1
Formula: C16H16F3N5
SMILES: CC(C)N1C=NC2=C(N=CN=C21)NCC3=CC(=CC=C3)C(F)(F)F
Method: HCD
Collision_energy: [28.333334]
Isolation_window: 4.0
Ion_mode: P
Num Peaks: 47
55.0547	6.2
59.0495	2.2
70.0656	3.2
83.0495	5.3
84.0811	2.9
101.0599	16.9
107.0731	2.5
114.0915	2.3
130.0862	2.4
144.0805	2.9
188.0706	2.1
195.1127	2.1
200.0705	46.2
201.0739	4.6
208.0838	4.0
218.0810	24.7
219.0849	3.2
236.0916	4.3
238.1073	2.9
249.1231	3.0
318.1333	62.0
319.1372	10.7
334.1276	6.8
334.1463	2.9
334.1647	3.3
334.2122	4.1
334.2374	9.2
335.1233	2.2
335.1394	4.0
335.1592	14.1
335.1961	38.4
335.2363	2.6
336.0753	3.8
336.1438	100.0
336.1596	4.2
336.1963	6.2
336.2284	4.5
336.2530	3.5
337.1472	14.4
337.1753	2.3
337.1915	4.0
337.2123	3.7
338.1225	9.3
338.1395	2.7
338.1615	5.9
338.2053	5.1
338.3414	2.4

Name: 9-Kot
PrecursorMZ: 293.21095
RT: 4.8991
ExactMass: 292.20384475
Spectrum_type: 2
charge: 1
Formula: C18H28O3
SMILES: CC/C=C\C/C=C\C=C\C(=O)CCCCCCCC(=O)O
Method: HCD
Collision_energy: [28.333334]
Isolation_window: 4.0
Ion_mode: P
Num Peaks: 123
55.0183	2.9
55.0547	6.3
57.0340	4.7
67.0547	19.3
69.0339	4.5
69.0703	20.9
71.0495	7.8
71.0860	10.5
79.0546	15.7
81.0338	5.4
81.0703	33.7
83.0495	7.8
83.0859	10.7
85.0652	8.0
91.0545	12.4
93.0702	25.4
94.0736	2.8
95.0494	11.7
95.0858	35.3
96.0892	3.2
97.0651	12.4
97.1014	7.6
99.0807	11.9
105.0701	18.3
107.0495	3.9
107.0857	27.5
108.0810	7.8
108.0892	3.8
109.0650	16.4
109.1014	20.3
111.0807	12.1
114.0916	3.3
117.0701	9.4
119.0857	23.4
120.0890	4.0
121.0650	6.2
121.1013	27.4
122.1046	3.2
123.0806	25.6
123.1171	5.3
125.0962	17.3
126.0915	5.1
129.0700	5.0
131.0856	13.5
132.0890	3.5
133.1012	22.5
134.1046	3.7
135.0805	12.2
135.1168	14.7
136.0758	24.3
137.0962	13.5
139.1117	5.3
143.0857	5.0
145.1012	18.7
146.1046	6.1
147.0806	4.4
147.1169	16.8
148.1202	2.8
149.0962	15.9
149.1325	8.6
150.0914	5.0
150.0996	4.5
151.1119	30.4
157.1014	8.1
159.1169	13.3
161.0963	8.0
161.1325	9.5
163.1119	11.3
164.0709	2.9
165.1276	13.5
168.1021	24.7
169.1010	3.2
171.1169	7.0
173.1326	12.5
175.1120	5.2
175.1482	4.0
177.1276	6.0
179.1066	3.9
181.1224	3.1
183.1170	4.6
185.1326	7.0
187.1118	4.1
189.1123	3.0
189.1277	2.9
191.1429	6.3
193.1226	4.2
197.1325	4.4
199.1483	3.4
201.1277	3.8
201.1639	2.7
203.1434	2.6
219.1744	3.7
221.1539	4.3
223.1331	3.5
229.1952	2.8
239.1794	10.9
247.2057	4.0
251.1644	5.1
257.1900	19.0
258.1933	2.7
273.1846	4.8
274.1072	7.2
274.1884	10.0
275.2006	73.7
276.2040	16.5
277.2163	18.6
291.1953	17.0
291.2432	3.0
292.1175	27.8
292.1316	6.6
292.1521	4.3
292.1992	37.2
293.1244	4.8
293.1496	12.1
293.1855	3.7
293.2112	100.0
294.0966	3.1
294.1322	9.4
294.1816	7.1
294.2145	19.5
295.1293	3.3
295.1659	7.8
295.2271	23.8

Name: 9-Methyl-9-oxido-3-oxa-9-azatricyclo(3.3.1.0~2,4~)non-7-yl 3-hydroxy-2-phenylpropanoate
PrecursorMZ: 320.14911
RT: 7.6207
ExactMass: 319.14197277
Spectrum_type: 2
charge: 1
Formula: C17H21NO5
SMILES: C[N+]1(C2CC(CC1C3C2O3)OC(=O)C(CO)C4=CC=CC=C4)[O-]
Method: HCD
Collision_energy: [28.333334]
Isolation_window: 4.0
Ion_mode: P
Num Peaks: 15
55.0548	7.0
83.0495	4.0
101.0600	14.4
195.1130	7.0
202.0863	20.3
211.1080	6.7
220.0969	24.8
320.1113	3.2
320.1345	5.4
320.1491	100.0
320.1975	6.4
321.1449	30.1
321.1816	3.5
322.1408	4.3
322.2487	6.7

Name: 9-Methylxanthine
PrecursorMZ: 167.05641
RT: 6.319
ExactMass: 166.04907545
Spectrum_type: 2
charge: 1
Formula: C6H6N4O2
SMILES: CN1C=NC2=C1NC(=O)NC2=O
Method: HCD
Collision_energy: [28.333334]
Isolation_window: 4.0
Ion_mode: P
Num Peaks: 44
91.0545	0.3
93.0701	0.2
96.0559	0.8
97.0399	0.5
97.3990	0.2
105.0700	0.4
107.0858	0.5
108.0447	0.3
110.0351	0.3
120.0809	1.5
121.0648	0.3
122.0601	0.7
123.0442	0.6
124.0508	1.4
125.0710	0.4
137.0711	0.8
137.0791	0.4
138.0549	0.8
138.0913	0.3
140.0706	0.3
140.0822	0.2
146.0599	0.3
150.0549	0.5
151.0392	0.3
152.0341	0.3
165.0659	0.8
166.0499	0.7
166.0861	1.7
166.1228	0.2
167.0372	0.2
167.0418	0.7
167.0448	0.6
167.0564	100.0
167.0683	0.5
167.0708	0.6
167.0813	0.5
167.1261	0.3
167.1543	5.3
168.0532	1.4
168.0597	6.3
168.0667	0.7
168.1018	1.0
168.1575	0.5
169.0609	0.7

Name: 9-OxoODE
PrecursorMZ: 295.22586
RT: 1.3861
ExactMass: 294.21949481
Spectrum_type: 2
charge: 1
Formula: C18H30O3
SMILES: CCCCC/C=C\C=C\C(=O)CCCCCCCC(=O)O
Method: HCD
Collision_energy: [28.333334]
Isolation_window: 4.0
Ion_mode: P
Num Peaks: 58
55.0545	7.6
59.0494	48.0
67.0544	22.6
69.0701	19.0
69.7083	5.4
71.0857	23.6
79.0543	16.5
81.0336	9.9
81.0700	37.7
83.0492	8.4
83.0856	11.7
91.0541	12.6
93.0698	26.3
95.0490	14.9
95.0854	22.8
97.0646	5.7
97.1010	6.1
99.0803	18.7
103.0753	4.9
105.0697	12.1
107.0854	21.0
109.0647	5.7
109.1010	17.8
111.0802	5.6
117.0697	5.3
117.0907	20.8
119.0852	10.8
121.1009	16.3
123.1165	9.0
125.0957	11.1
133.1008	15.7
135.1164	15.9
137.0594	10.6
137.0955	5.1
145.1007	7.3
147.1164	16.2
149.1320	10.7
151.1113	31.9
159.1165	4.8
161.1319	18.3
163.1477	5.4
165.1269	6.8
179.1423	15.3
185.1314	5.6
241.1942	8.0
251.1842	31.1
259.2047	7.2
277.1786	5.0
277.2151	100.0
278.2185	19.2
279.2309	14.9
294.0944	9.5
294.1327	6.0
295.1412	5.1
295.2255	37.0
296.1618	7.6
296.2053	14.2
296.2287	5.7

Name: 9-ribosyl-trans-zeatin
PrecursorMZ: 352.16125
RT: 10.0768
Spectrum_type: 2
charge: 1
SMILES: C/C(=CCNc1ncnc2c1ncn2[C@@H]1O[C@H](CO)[C@@H](O)[C@H]1O)CO
Method: HCD
Collision_energy: [28.333334]
Isolation_window: 4.0
Ion_mode: P
Num Peaks: 8
148.0619	4.6
220.1193	100.0
221.1233	8.7
241.1295	4.8
350.1600	5.5
351.1657	4.3
352.1609	68.4
353.1641	12.9

Name: 9s,13r-12-Oxophytodienoic Acid
PrecursorMZ: 293.21094
RT: 1.3931
ExactMass: 292.20384475
Spectrum_type: 2
charge: 1
Formula: C18H28O3
SMILES: CC/C=C\C[C@@H]1[C@H](C=CC1=O)CCCCCCCC(=O)O
Method: HCD
Collision_energy: [28.333334]
Isolation_window: 4.0
Ion_mode: P
Num Peaks: 234
55.0545	2.0
57.0339	1.6
60.0448	1.9
67.0546	27.2
68.0580	1.3
69.0337	1.4
69.0702	15.5
70.0655	2.8
71.0495	7.5
71.0858	2.9
72.0811	1.0
79.0545	17.6
80.0579	1.1
81.0337	3.7
81.0701	42.8
82.0735	2.2
83.0494	3.1
83.0858	14.3
84.0446	1.1
84.0810	1.0
84.0891	1.1
85.0650	4.3
86.0966	15.0
88.0395	1.0
91.0543	15.0
93.0700	24.1
94.0733	1.6
95.0493	3.4
95.0856	32.8
96.0445	2.0
96.0890	2.4
97.0649	7.1
97.1013	9.5
99.0441	1.9
99.0805	3.3
105.0699	11.3
106.0652	1.1
107.0492	3.1
107.0856	20.4
108.0808	3.4
108.0889	1.4
109.0648	5.5
109.1012	19.9
110.0600	2.1
110.0681	0.9
110.1044	1.5
111.0440	1.5
111.0804	6.8
111.1168	1.5
116.0707	3.0
117.0698	8.3
119.0855	17.0
120.0807	2.3
120.0888	1.8
121.0283	5.6
121.0647	4.3
121.1011	33.2
122.1045	2.8
123.0803	5.2
123.1167	6.8
125.0596	1.5
125.0959	5.5
126.0913	5.3
127.0945	2.6
129.0698	1.5
130.0498	1.8
130.0862	2.0
131.0854	14.8
132.0477	1.5
132.0886	1.8
133.0646	1.0
133.1010	24.4
134.0598	1.1
134.1043	2.1
135.0803	9.9
135.1166	15.9
136.0755	12.6
136.0836	1.3
136.1196	1.4
137.0457	1.3
137.0596	1.0
137.0959	5.2
137.1323	1.5
139.0752	1.1
139.1115	6.0
141.0698	1.4
143.0853	2.4
145.0645	0.9
145.1010	15.0
146.1043	1.7
147.0806	2.2
147.1166	16.4
148.0753	1.0
148.1198	1.5
149.0959	16.5
149.1071	6.7
149.1323	5.6
150.0549	1.4
150.0911	2.7
150.0991	2.0
151.0386	1.2
151.0751	1.2
151.0865	1.0
151.1116	6.2
152.0704	1.5
152.1068	4.6
153.0908	19.1
154.0942	1.6
155.1066	1.8
157.1011	5.1
159.1166	12.2
160.0993	1.3
160.1197	1.5
161.0343	3.1
161.0960	4.2
161.1322	6.4
162.0548	1.1
163.0860	1.2
163.1115	12.2
163.1482	1.6
164.0704	2.7
164.1150	1.5
165.0544	1.0
165.0910	1.4
165.1272	2.3
166.0861	12.4
166.0973	3.4
167.0336	3.6
167.0895	9.1
167.1064	17.1
168.1018	14.2
168.1094	1.6
169.1001	1.4
169.1222	1.3
171.1166	5.2
172.1199	1.0
173.0960	1.2
173.1171	2.6
173.1322	7.1
175.0961	1.6
175.1115	3.1
175.1479	2.0
177.1017	1.1
177.1271	6.2
178.0861	1.7
179.0339	1.0
179.1064	1.9
179.1427	2.5
180.1017	1.3
181.1221	2.2
182.0809	2.6
183.1166	2.1
185.1321	1.9
187.1115	1.2
187.1326	1.9
187.1478	1.7
189.1119	2.1
189.1271	1.2
190.0860	1.1
191.1430	1.7
193.1221	2.6
195.1377	2.8
196.0603	1.0
197.0438	2.6
197.1321	2.9
201.1270	1.0
201.1480	1.1
203.1274	1.8
206.0807	1.1
211.1478	1.5
213.1635	1.0
214.0701	1.3
215.1427	1.1
215.1792	1.3
219.1736	1.6
221.1533	2.2
229.1584	1.5
229.1947	5.2
231.1740	1.0
232.0965	1.3
233.1528	1.0
239.1641	2.1
239.1788	7.3
240.1830	1.5
246.1119	2.1
247.1072	1.5
247.1426	1.6
247.2052	7.7
248.1273	1.5
248.2090	1.6
249.1229	1.1
249.1596	1.0
257.1533	1.8
257.1895	11.9
258.1931	2.1
259.1687	3.0
259.2052	1.1
265.2156	6.2
273.1842	1.5
274.0917	4.0
274.1065	3.2
274.1879	2.4
275.1017	1.2
275.1394	1.3
275.1635	1.2
275.2000	81.7
276.1220	1.9
276.1339	6.1
276.2034	14.2
277.1790	2.2
277.2159	6.8
291.1946	3.6
292.1020	2.0
292.1167	9.6
292.1289	1.6
292.1510	1.4
292.1639	4.6
292.1984	7.9
293.1119	6.6
293.1486	9.0
293.1876	2.2
293.2104	100.0
293.2443	1.0
294.0966	1.8
294.1138	1.3
294.1322	5.2
294.1463	2.1
294.1680	1.5
294.2139	20.0
295.1274	2.8
295.1414	1.2
295.1646	9.7
295.1900	1.0
295.2265	5.3

Name: AEG(o-14:1/16:1)
PrecursorMZ: 523.47161
RT: 1.0939
Spectrum_type: 2
charge: 1
Method: HCD
Collision_energy: [28.333334]
Isolation_window: 4.0
Ion_mode: P
Num Peaks: 24
55.0546	4.3
57.0338	2.7
57.0703	37.0
58.1638	5.5
67.0546	12.0
69.0702	20.8
71.0858	35.6
81.0701	26.0
83.0858	14.6
85.1014	22.2
95.0856	35.4
96.0891	2.4
97.1012	11.9
109.1012	19.5
111.1169	6.7
123.1167	10.1
131.0702	2.3
137.1324	4.6
145.0857	2.7
523.4714	100.0
523.5075	10.9
524.4746	33.7
524.5099	3.3
525.4774	4.5

Name: AH 135Y
PrecursorMZ: 333.14406
RT: 5.0842
ExactMass: 291.11067264
Spectrum_type: 2
charge: 1
Formula: C15H17NO5
SMILES: CC1=CC(=C(C(=C1)C(=O)CC2CC(=O)NC(=O)C2)O)CO
Method: HCD
Collision_energy: [28.333334]
Isolation_window: 4.0
Ion_mode: P
Num Peaks: 27
70.0654	13.2
72.0810	31.2
81.0337	12.6
111.0441	13.3
130.0649	43.8
140.0704	15.9
141.1021	8.9
169.0966	8.3
180.0803	13.9
182.0598	9.8
186.1234	27.2
188.1277	9.4
202.0862	10.0
214.1182	14.4
223.0983	24.8
224.1065	48.6
234.0904	10.1
260.1277	15.3
268.0961	24.2
280.0960	23.2
285.1220	13.1
297.1224	12.3
298.1062	17.5
316.1165	19.0
333.1433	100.0
333.1781	18.9
334.1476	16.7

Name: AM-3102
PrecursorMZ: 340.32052
RT: 2.2733
ExactMass: 339.313729551
Spectrum_type: 2
charge: 1
Formula: C21H41NO2
SMILES: CCCCCCCC/C=C\CCCCCCCC(=O)N[C@H](C)CO
Method: HCD
Collision_energy: [28.333334]
Isolation_window: 4.0
Ion_mode: P
Num Peaks: 21
60.0448	100.0
61.0482	2.1
69.0702	3.3
95.0858	2.2
96.0810	5.4
113.1074	2.5
114.0914	6.8
164.0706	11.3
196.0968	7.1
209.1647	14.8
210.1685	2.4
227.1752	6.3
322.2486	22.2
322.3101	3.8
323.2519	4.5
339.2499	2.5
339.2885	3.2
340.2591	35.8
340.3205	13.8
341.2630	6.1
341.3239	3.5

Name: AQ-13 free base
PrecursorMZ: 292.15741
RT: 1.1511
ExactMass: 291.1502254
Spectrum_type: 2
charge: 1
Formula: C16H22ClN3
SMILES: CCN(CC)CCCNC1=C2C=CC(=CC2=NC=C1)Cl
Method: HCD
Collision_energy: [28.333334]
Isolation_window: 4.0
Ion_mode: P
Num Peaks: 14
55.0183	5.4
69.0703	13.6
83.0858	6.4
93.0700	2.1
97.0649	2.1
107.0856	1.8
135.1167	1.7
140.0375	100.0
141.0409	2.2
142.0333	3.0
153.1273	17.1
154.1305	1.5
292.1573	12.7
293.1614	1.9

Name: Abietic Acid
PrecursorMZ: 303.2316
RT: 0.5591
ExactMass: 302.224580195
Spectrum_type: 2
charge: 1
Formula: C20H30O2
SMILES: CC(C)C1=CC2=CC[C@@H]3[C@@]([C@H]2CC1)(CCC[C@@]3(C)C(=O)O)C
Method: HCD
Collision_energy: [28.333334]
Isolation_window: 4.0
Ion_mode: P
Num Peaks: 346
55.0547	2.4
57.0340	2.8
57.0704	18.0
58.0656	1.4
59.0497	17.7
67.0547	16.8
69.0340	4.8
69.0704	17.9
70.0656	3.5
71.0496	7.6
71.0860	11.2
73.0654	1.7
74.0605	1.1
79.0546	7.1
81.0340	2.7
81.0703	40.6
82.0735	2.7
83.0496	9.0
83.0859	12.9
84.0812	1.1
85.0289	1.2
85.0652	14.0
85.1016	6.2
86.0968	3.1
87.0445	8.4
88.0761	9.7
89.0601	16.8
91.0545	7.5
93.0702	26.8
94.0736	1.6
95.0495	8.2
95.0859	46.9
96.0892	3.9
97.0651	8.7
97.1015	9.3
98.9845	10.4
99.0444	10.4
99.0806	7.0
100.0760	1.2
101.0600	6.2
101.0965	1.2
102.0917	5.8
105.0701	19.5
106.0735	1.6
106.0865	3.7
107.0493	2.7
107.0709	2.8
107.0858	31.8
108.0892	3.3
109.0650	8.9
109.1015	29.7
110.1047	3.1
111.0446	2.8
111.0808	8.0
111.1171	3.8
112.0762	2.6
113.0600	10.7
113.0964	2.9
115.0755	3.0
115.1121	2.0
116.0707	1.2
117.0699	3.1
117.0915	2.4
119.0858	27.6
120.0891	2.5
121.0650	6.7
121.1014	41.6
122.1047	4.1
123.0442	2.0
123.0807	12.5
123.1170	22.2
124.1204	2.1
125.0599	3.0
125.0962	7.1
126.0915	1.9
127.0755	3.8
127.1120	3.0
129.0549	1.6
129.0701	1.7
129.0912	1.4
130.0864	1.2
131.0708	3.7
131.0857	10.0
132.0890	1.3
133.0652	2.1
133.0866	3.9
133.1013	26.4
134.1049	2.9
135.0442	1.1
135.0807	9.6
135.1170	22.5
136.1206	2.5
137.0598	3.1
137.0962	11.8
137.1326	5.6
138.0914	1.4
139.0756	3.9
139.1119	3.9
141.0912	5.5
141.1274	1.3
143.0855	4.5
143.1071	1.1
145.0650	1.3
145.1013	16.4
146.1048	2.6
146.1176	1.3
147.0806	5.1
147.1170	20.2
148.1213	1.5
149.0601	2.9
149.0963	12.7
149.1326	12.1
150.1001	1.5
150.1363	1.5
151.0762	4.0
151.0967	8.3
151.1119	6.4
151.1476	1.5
153.0911	4.4
153.1275	2.4
155.0470	2.2
155.0856	1.6
155.1070	2.8
157.1014	7.6
159.0808	3.8
159.1170	20.4
160.1210	2.9
161.0597	1.2
161.0964	7.8
161.1326	21.4
162.1367	2.6
163.0760	2.7
163.1119	11.6
163.1482	5.2
164.1158	1.3
165.0913	6.7
165.1273	3.3
167.0705	1.2
167.1069	6.1
167.1434	1.6
169.0860	1.2
169.1015	4.0
171.1171	7.1
171.1381	1.3
172.1210	1.2
173.0963	3.5
173.1327	11.6
173.1534	2.0
174.1373	1.7
175.0755	2.9
175.1119	8.8
175.1481	10.4
176.1516	1.4
177.0910	5.6
177.1275	6.7
177.1641	2.1
179.0717	1.7
179.1065	4.8
179.1428	1.6
180.1013	2.0
181.0131	1.1
181.0857	1.7
181.1020	1.4
181.1222	4.2
183.1015	1.3
183.1172	4.1
185.0964	1.8
185.1326	5.9
187.1120	4.4
187.1484	10.2
188.1520	2.0
189.0916	1.7
189.1277	5.3
189.1639	16.1
190.1680	2.4
191.0702	1.1
191.1063	3.3
191.1430	4.5
191.1798	2.3
193.0858	1.2
193.1223	8.1
193.1593	1.9
194.1171	2.7
195.1177	1.7
195.1382	2.4
196.1339	1.1
197.1326	3.6
199.0239	1.4
199.1119	1.7
199.1482	4.4
201.0913	1.2
201.1278	4.4
201.1640	4.2
202.1666	1.1
203.1068	2.5
203.1435	4.8
203.1792	1.9
205.1223	4.4
205.1588	2.2
207.1378	7.3
208.1416	1.4
209.1326	2.4
209.1539	1.9
211.1118	2.8
211.1487	4.3
212.2377	1.7
213.1290	2.4
213.1640	4.0
215.1069	1.4
215.1439	3.6
215.1792	2.5
217.1226	2.3
217.1587	1.7
219.1379	6.2
219.1741	1.2
221.1526	3.4
223.0963	1.2
223.1485	1.7
223.1698	1.3
225.1649	3.0
227.1432	1.4
227.1796	6.6
228.1824	1.6
229.1226	1.9
229.1599	3.8
229.1952	14.1
230.1987	2.7
231.1377	2.8
231.1750	1.5
233.1534	4.8
235.1695	1.5
237.0759	6.6
237.1457	2.5
238.0791	1.1
239.1821	1.8
240.2324	6.7
241.1585	1.9
243.1036	1.2
243.1359	1.7
243.1741	2.8
245.1540	2.3
245.1899	1.2
247.1328	2.8
247.1696	6.2
248.1729	1.6
249.1468	1.7
253.1941	1.3
254.2477	1.1
255.1750	1.7
255.2117	1.8
256.2635	34.9
257.1278	4.2
257.1550	1.3
257.1902	2.3
257.2262	1.6
257.2671	5.8
259.1684	2.1
261.1464	2.1
261.1848	2.0
262.1437	2.4
263.1652	1.3
263.2006	1.1
264.2316	1.1
267.1750	1.8
267.2115	4.4
269.1898	1.3
271.1730	1.9
271.2043	1.7
273.1500	1.6
273.1846	2.2
273.2210	1.6
275.2008	3.2
281.0524	1.3
281.1901	1.5
283.0301	2.0
283.2056	3.8
284.2947	2.3
285.0087	2.9
285.1238	3.1
285.2222	9.8
286.2236	2.8
287.1655	1.1
287.2008	1.6
289.1474	1.1
289.1806	2.4
289.2160	1.7
290.2110	1.9
291.1960	2.7
292.2271	3.6
293.2060	2.3
297.1856	1.9
299.0618	11.5
299.1647	1.3
299.2002	4.1
300.2891	2.1
301.1800	1.6
301.2160	19.0
302.1779	1.2
302.2192	8.6
302.3054	44.9
303.1604	2.2
303.1966	6.2
303.2316	49.1
303.3076	10.1
304.1182	1.4
304.1954	2.1
304.2344	11.2
304.2989	2.1
305.1764	2.5
305.2115	2.7
305.2461	3.4
306.2086	1.6
306.2443	1.4
307.1937	2.0
307.2285	1.4
309.2115	1.2
311.1483	1.3
313.1795	2.1
313.2160	3.2
313.2761	1.3
315.1600	1.4
315.1956	7.0
315.2323	2.2
316.1177	1.2
316.1923	4.7
316.2852	2.0
316.3210	1.1
317.1447	3.6
317.1765	3.5
317.2112	12.3
317.2480	1.5
317.2846	1.2
318.2136	3.2
318.3002	100.0
319.1640	3.0
319.1927	2.7
319.2269	10.5
319.2660	1.4
319.3034	19.9
320.2276	2.6
320.2616	1.2
320.3041	2.6
321.2065	3.0
321.2426	9.1
322.2414	3.3
322.2738	1.2

Name: Abiraterone
PrecursorMZ: 350.24768
RT: 5.5149
ExactMass: 349.240564612
Spectrum_type: 2
charge: 1
Formula: C24H31NO
SMILES: C[C@]12CC[C@@H](CC1=CC[C@@H]3[C@@H]2CC[C@]4([C@H]3CC=C4C5=CN=CC=C5)C)O
Method: HCD
Collision_energy: [28.333334]
Isolation_window: 4.0
Ion_mode: P
Num Peaks: 78
67.0546	0.9
72.0811	1.1
81.0338	1.3
81.0703	1.1
86.0967	15.1
91.0545	5.9
100.1123	70.3
101.1156	5.9
101.1199	0.9
105.0701	20.7
115.0542	1.9
117.0700	20.1
118.0735	1.8
119.0492	7.7
119.0857	4.0
120.0809	1.3
129.0699	7.1
131.0491	4.7
131.0856	2.0
133.0648	3.2
136.0760	1.2
141.0699	1.2
143.0491	4.7
143.0855	1.1
144.0445	5.3
144.0524	1.0
145.0648	2.9
147.0805	1.3
147.0917	1.1
157.0648	4.3
165.0700	0.8
179.0857	2.5
187.0867	1.1
191.0857	1.0
192.0655	1.0
192.0933	0.8
193.1015	3.5
195.0804	1.3
203.0852	0.9
204.0936	1.4
205.1016	3.0
206.1086	0.8
207.1168	13.4
208.1202	2.1
216.0934	1.6
219.1166	5.5
220.1202	2.9
221.0962	2.0
221.1324	16.8
222.1356	3.1
229.1005	1.1
231.1168	9.8
232.1202	1.9
233.1325	2.5
234.1036	1.3
247.1116	13.1
248.1150	8.6
249.1273	38.5
250.1307	8.0
251.1065	2.3
251.1431	10.6
306.0974	1.4
331.1294	0.8
333.1444	1.5
334.1282	1.6
348.2324	12.4
349.1409	3.7
349.1737	1.4
349.2356	14.8
350.1218	2.8
350.1602	2.2
350.2477	100.0
351.1550	4.2
351.2510	25.0
352.1386	4.7
352.1527	2.8
352.2265	2.6
352.2636	37.5

Name: Abruquinone B
PrecursorMZ: 429.09451
RT: 8.0347
ExactMass: 390.13146766
Spectrum_type: 2
charge: 1
Formula: C20H22O8
SMILES: COC1=C(C(=C2C(=C1)C[C@H](CO2)C3=CC(=O)C(=C(C3=O)OC)OC)OC)OC
Method: HCD
Collision_energy: [28.333334]
Isolation_window: 4.0
Ion_mode: P
Num Peaks: 69
70.0656	2.8
72.0812	2.6
81.0702	2.4
84.0811	3.1
86.0967	2.3
91.0545	1.7
93.0701	2.1
95.0858	1.8
105.0701	1.5
107.0494	2.0
107.0857	2.0
109.0651	1.7
111.0444	2.2
114.0664	1.5
116.0708	3.6
119.0858	2.0
121.0648	1.7
121.1013	1.5
131.0855	2.4
133.0647	1.6
133.1012	3.1
135.0805	2.3
145.1014	1.6
147.0806	1.8
149.0963	1.9
161.0960	1.9
175.1117	1.6
193.1221	2.1
217.1224	1.6
234.0761	30.3
235.0797	3.9
311.1637	1.6
311.1999	1.9
313.1795	2.2
329.1746	2.2
329.2099	1.8
331.1902	2.0
339.1581	1.9
339.1952	3.3
341.1756	1.6
357.1697	4.1
357.2051	4.0
359.1843	1.6
375.1801	3.8
375.2164	4.5
377.1954	3.0
391.2107	1.9
393.1900	5.6
393.2277	3.9
394.1944	1.5
395.2050	3.2
412.2330	1.8
427.1803	1.9
428.0871	2.9
428.1330	12.6
428.1765	2.0
428.2084	2.1
428.2135	2.0
429.0946	100.0
429.1380	3.0
429.1662	3.7
430.0978	24.2
430.1465	3.6
430.1514	3.0
430.1921	2.0
431.0945	6.6
431.1457	4.1
431.2069	1.6
431.2428	2.4

Name: Ac-Lys-OH 2-Hydroxypropanal (known isomers: 0; isobaric peaks in run: 1)
PrecursorMZ: 247.16491
RT: 8.8998
Spectrum_type: 2
charge: 1
SMILES: CC(=O)N[C@@H](CCCCNCC(C)O)C(=O)O
Method: HCD
Collision_energy: [28.333334]
Isolation_window: 4.0
Ion_mode: P
Num Peaks: 50
58.0654	1.2
60.0447	1.0
70.0654	4.4
72.0811	3.7
84.0810	20.0
85.0650	0.8
85.0843	1.4
86.0965	0.8
116.0707	1.4
124.1120	14.3
125.1153	1.4
126.0912	2.4
126.1277	2.1
128.1069	1.2
130.0861	11.7
132.0766	4.0
134.0808	1.2
141.1384	1.9
142.1225	10.5
169.1335	2.8
170.1174	1.0
172.0967	1.7
175.1187	1.3
187.1439	7.3
200.1474	1.6
201.1234	1.4
205.1541	4.3
211.1438	4.7
228.1227	1.7
229.1290	1.5
229.1543	16.9
230.1017	2.1
230.1389	2.2
230.1574	2.0
246.1075	4.9
246.1222	1.2
246.1335	5.9
246.1446	1.5
246.1532	1.4
247.1082	1.5
247.1281	8.3
247.1307	2.3
247.1396	7.7
247.1427	1.5
247.1648	100.0
248.1122	4.0
248.1239	7.4
248.1500	3.4
248.1681	10.8
249.1233	0.9

Name: Acanthus ilicifolius Linn
PrecursorMZ: 265.1308
RT: 0.6612
ExactMass: 242.141913202
Spectrum_type: 2
charge: 1
Formula: C15H18N2O
SMILES: CC=C1C2CC3=C(C1(CC(=C2)C)N)C=CC(=O)N3
Method: HCD
Collision_energy: [28.333334]
Isolation_window: 4.0
Ion_mode: P
Num Peaks: 3
265.1309	100.0
266.1347	10.8
267.1291	5.6

Name: Acaranoic acid
PrecursorMZ: 331.24753
RT: 4.628733333333333
ExactMass: 298.21440943
Spectrum_type: 2
charge: 1
Formula: C17H30O4
SMILES: CCCCCCCCCC[C@H]1C[C@H]([C@@H](C(=O)O1)C)C(=O)O
Method: HCD
Collision_energy: [28.333334]
Isolation_window: 4.0
Ion_mode: P
Num Peaks: 67
55.0546	5.5
67.0546	38.2
69.0702	17.9
69.7213	4.4
71.0495	13.4
71.0858	5.4
72.0811	11.7
79.0545	17.1
81.0701	54.2
83.0858	15.4
85.0651	11.3
86.0966	26.0
91.0543	10.2
93.0700	36.1
95.0856	63.6
97.0649	9.0
97.1013	16.5
97.4575	4.7
98.9842	7.1
99.0805	14.0
105.0699	10.7
107.0856	27.6
109.1012	55.8
111.0805	10.9
113.0961	17.0
119.0855	15.3
121.1011	47.3
122.1045	5.4
123.1167	13.3
125.0959	14.8
131.0854	8.5
133.1010	13.9
135.1167	39.8
137.0958	8.0
139.1116	14.1
145.1009	7.6
147.1166	11.6
149.0958	5.9
149.1323	19.1
151.1112	6.3
155.1065	24.4
159.1168	7.9
161.1324	8.5
163.1480	4.7
165.1273	5.1
173.1170	67.5
174.1205	6.8
185.1171	6.6
185.1646	7.1
189.1118	13.2
195.1376	11.2
203.1275	7.4
209.1044	7.7
213.1587	5.9
241.1946	6.5
259.2051	21.9
261.2210	5.1
277.2157	100.0
278.2190	20.5
279.2316	23.2
295.2262	58.3
296.2292	11.7
297.2425	6.3
313.2367	14.5
330.2633	10.7
332.3310	5.5
333.1805	8.7

Name: Acebutolol
PrecursorMZ: 337.21173
RT: 7.9003
ExactMass: 336.20490738
Spectrum_type: 2
charge: 1
Formula: C18H28N2O4
SMILES: CCCC(=O)NC1=CC(=C(C=C1)OCC(CNC(C)C)O)C(=O)C
Method: HCD
Collision_energy: [28.333334]
Isolation_window: 4.0
Ion_mode: P
Num Peaks: 62
55.0547	8.1
59.0496	2.3
81.0338	1.5
83.0495	6.6
84.0811	2.0
87.0444	1.8
96.0446	1.9
100.0759	2.5
101.0599	30.2
102.0633	1.9
112.0760	1.2
116.0709	1.2
130.0863	2.2
135.0553	2.3
136.0586	1.2
144.1020	1.4
180.1019	1.7
184.0605	1.0
191.1543	1.5
193.0970	2.5
195.0765	1.2
207.1130	2.8
209.1286	2.3
210.1124	6.4
218.1539	12.5
219.0881	1.4
219.1490	19.4
220.1340	1.8
220.1526	2.0
221.1284	1.1
222.0872	1.2
222.1124	4.9
224.1282	4.3
235.1081	1.6
236.1115	1.9
236.1644	18.8
237.0984	1.8
237.1232	3.0
237.1590	9.1
238.1438	1.9
239.1389	1.3
275.1501	2.3
291.1703	1.2
319.1398	3.7
335.1584	2.8
335.1958	3.5
336.1626	10.2
336.2003	5.1
336.2168	100.0
337.1380	2.8
337.1518	5.0
337.1751	23.5
337.2111	68.9
338.1202	4.4
338.1741	5.0
338.1959	13.4
338.2154	11.7
339.1345	4.4
339.1540	2.4
339.1677	3.9
339.1898	25.4
339.2259	7.9

Name: Acetamide, N-(2-methoxyphenyl)-
PrecursorMZ: 166.08623
RT: 1.5595
ExactMass: 165.078978594
Spectrum_type: 2
charge: 1
Formula: C9H11NO2
SMILES: CC(=O)NC1=CC=CC=C1OC
Method: HCD
Collision_energy: [28.333334]
Isolation_window: 4.0
Ion_mode: P
Num Peaks: 5
110.0965	100.0
138.0911	26.3
166.0497	15.5
166.0861	88.6
168.0691	47.0

Name: Acetaminophen
PrecursorMZ: 152.0706
RT: 8.5045
ExactMass: 151.06332853
Spectrum_type: 2
charge: 1
Formula: C8H9NO2
SMILES: CC(=O)NC1=CC=C(C=C1)O
Method: HCD
Collision_energy: [28.333334]
Isolation_window: 4.0
Ion_mode: P
Num Peaks: 6
96.9953	21.0
134.0634	48.3
151.0864	16.1
152.0703	100.0
153.0737	7.8
154.0862	7.2

Name: Acetaminophen Glucuronide
PrecursorMZ: 328.10323
RT: 5.3723
ExactMass: 327.0954165
Spectrum_type: 2
charge: 1
Formula: C14H17NO8
SMILES: CC(=O)NC1=CC=C(C=C1)O[C@H]2[C@@H]([C@H]([C@@H]([C@H](O2)C(=O)O)O)O)O
Method: HCD
Collision_energy: [28.333334]
Isolation_window: 4.0
Ion_mode: P
Num Peaks: 148
58.0657	5.0
59.0608	5.1
60.0561	5.6
69.0340	4.9
70.0656	37.2
72.0812	6.7
82.0656	4.5
84.0448	28.0
84.0812	34.0
85.0288	11.4
86.0606	6.1
87.0444	10.1
88.0396	4.8
89.0601	38.8
90.0551	6.8
95.0608	4.2
96.0447	9.1
96.0811	4.3
97.0287	5.5
98.0604	5.5
98.9844	93.0
99.0444	4.6
100.0759	8.9
101.0601	8.3
102.0553	20.2
103.0391	5.9
104.0708	9.1
105.0339	4.2
110.0601	4.4
110.0715	47.6
111.0443	4.4
112.0761	4.0
112.0872	9.5
113.0714	3.8
114.0549	5.7
114.0915	5.1
114.1031	5.6
116.0708	13.0
118.0865	74.7
119.0900	4.7
120.0477	4.6
122.0813	63.7
123.0557	8.4
126.0552	4.4
127.0391	4.5
128.0706	7.0
129.1028	3.9
130.0499	34.2
130.0865	20.1
132.0446	18.4
133.0860	24.4
136.0762	6.4
138.0546	4.9
139.0505	4.7
141.0660	8.5
142.0499	4.9
142.0868	4.2
144.0659	6.3
147.1134	3.8
148.0605	100.0
149.0614	5.6
150.0551	5.4
153.0546	6.5
154.0503	4.6
154.0862	5.7
156.0656	10.7
156.0772	34.1
158.0930	4.3
162.0549	4.1
162.0767	5.9
163.0385	7.2
163.0751	8.2
168.0655	6.7
170.0440	4.4
174.9923	15.6
175.1191	16.0
176.9891	7.6
178.0865	3.9
180.0648	7.4
181.0494	31.5
182.0449	4.1
184.0607	5.5
196.0595	6.0
200.0557	3.9
209.1635	5.6
210.0792	51.4
212.0539	9.0
212.1511	4.1
222.0761	4.3
226.0699	5.1
227.1760	4.8
237.0873	4.6
240.2319	7.3
251.0001	6.3
251.1039	6.0
252.9974	4.4
279.0981	4.2
283.0937	6.9
284.0873	7.7
294.0976	4.1
297.1048	14.1
299.0869	5.7
309.1085	6.7
310.0936	5.5
312.0804	10.9
322.0931	4.2
322.2481	10.2
324.1293	4.4
325.1042	4.6
326.0861	5.6
327.0831	6.4
327.1206	12.4
327.2079	29.5
328.1119	12.7
328.2088	5.5
329.0987	12.5
329.1374	4.0
330.0578	4.5
330.0920	30.4
330.3360	9.4
331.1136	16.3
331.1564	3.8
332.1089	7.7
333.0760	7.1
334.0930	9.0
334.1244	4.0
336.1071	7.0
337.1027	9.7
337.1720	20.3
338.0857	6.3
338.1266	3.9
338.1748	4.2
339.0811	4.3
339.1199	10.6
340.1029	14.8
340.2589	19.9
341.0967	39.4
341.2634	4.3
342.1383	4.3
343.1141	37.4
343.1585	6.2
343.2006	5.7
344.1081	7.1
345.1313	14.2
346.0936	5.3
346.1285	5.5
346.3310	12.0
347.1566	6.9

Name: Acetohydroxamic Acid
PrecursorMZ: 76.03969
RT: 9.8168
ExactMass: 75.032028402
Spectrum_type: 2
charge: 1
Formula: C2H5NO2
SMILES: CC(=O)NO
Method: HCD
Collision_energy: [28.333334]
Isolation_window: 4.0
Ion_mode: P
Num Peaks: 4
56.0499	100.0
74.0604	75.9
74.0967	61.4
76.0396	99.1

Name: Acetyl-DL-carnitine
PrecursorMZ: 204.1228
RT: 8.2296
ExactMass: 203.11575802
Spectrum_type: 2
charge: 1
Formula: C9H17NO4
SMILES: CC(=O)OC(CC(=O)[O-])C[N+](C)(C)C
Method: HCD
Collision_energy: [28.333334]
Isolation_window: 4.0
Ion_mode: P
Num Peaks: 91
55.0545	1.1
58.0654	0.7
59.0494	0.7
60.0811	1.4
69.0338	0.8
69.0702	0.7
70.0653	0.8
71.0495	1.1
71.0605	0.7
74.0603	1.0
82.0654	0.9
83.0494	2.1
84.0446	2.2
84.0810	1.1
86.0602	1.0
86.0966	2.5
87.0442	3.7
90.0551	7.1
96.0445	6.4
97.0285	2.4
98.0965	3.3
100.0758	5.8
101.0598	17.7
102.0550	0.8
102.0631	0.9
104.0706	5.7
104.1070	0.9
107.0729	0.8
108.0444	4.2
112.0757	2.1
114.0551	1.2
114.0662	12.8
115.0502	0.8
117.0546	0.8
118.0862	0.9
120.0654	0.8
124.0756	1.5
126.0548	3.8
126.0912	20.6
127.0946	1.5
128.0704	3.4
129.0657	0.9
130.0498	1.0
130.0863	1.0
134.0810	1.4
138.0547	2.7
140.0704	1.5
140.1068	1.2
142.0860	2.7
144.0654	4.2
144.0899	0.7
144.1017	100.0
144.1137	0.6
145.1050	7.6
146.0446	1.2
156.1018	1.1
158.0597	1.0
158.0810	2.9
158.1176	3.6
158.1285	4.8
159.0763	1.5
160.0966	3.8
168.0655	0.8
168.1017	2.0
168.1380	1.6
170.0808	1.4
184.0970	0.7
186.0548	0.7
186.0760	1.3
186.1122	1.3
186.1486	3.7
187.1078	1.1
202.1074	2.0
202.1189	0.8
202.1438	0.7
203.0812	2.8
203.1027	0.7
203.1384	0.9
204.0656	1.2
204.0863	3.3
204.1018	69.7
204.1229	69.5
204.1339	15.7
204.1590	14.6
205.0816	0.9
205.1052	8.4
205.1260	6.6
205.1370	1.1
205.1623	1.6
206.1016	5.5
206.1173	2.2

Name: Acetyl-L-Carnitine
PrecursorMZ: 204.12284
RT: 8.0898
ExactMass: 203.11575802
Spectrum_type: 2
charge: 1
Formula: C9H17NO4
SMILES: CC(=O)O[C@H](CC(=O)[O-])C[N+](C)(C)C
Method: HCD
Collision_energy: [28.333334]
Isolation_window: 4.0
Ion_mode: P
Num Peaks: 15
60.0812	18.9
85.0287	100.0
86.0321	3.7
144.1018	6.1
145.0494	22.5
157.1335	4.2
203.0815	5.5
203.1023	9.3
203.1384	3.6
204.1023	6.6
204.1228	65.7
205.0969	20.9
205.1259	7.7
206.0246	7.3
206.1171	2.9

Name: Acetyl-phenylalanylvaline
PrecursorMZ: 329.14662
RT: 9.0915
ExactMass: 306.15795719
Spectrum_type: 2
charge: 1
Formula: C16H22N2O4
SMILES: CC(C)[C@@H](C(=O)O)NC(=O)[C@H](CC1=CC=CC=C1)NC(=O)C
Method: HCD
Collision_energy: [28.333334]
Isolation_window: 4.0
Ion_mode: P
Num Peaks: 40
70.0655	7.9
72.0812	14.4
86.0967	6.9
89.0600	16.8
98.9844	10.6
123.0440	9.8
126.0550	6.6
128.9535	100.0
132.0444	39.6
133.0861	8.8
141.0659	12.5
144.9275	10.3
150.0550	7.4
164.0705	12.8
165.0545	7.2
178.0864	6.2
182.0810	10.8
234.9179	7.2
236.1274	17.3
251.0802	6.3
297.1229	20.0
322.2484	8.2
327.2001	10.3
328.1181	9.4
329.1472	76.1
330.1434	12.2
330.3368	17.4
331.1650	34.9
332.1118	6.5
334.1719	7.8
339.1312	8.3
340.1143	15.5
340.2582	13.6
340.8820	17.0
341.1461	13.3
342.1366	9.5
343.1667	7.6
344.1522	14.1
345.1460	7.2
346.3313	25.1

Name: Acetylcholine
PrecursorMZ: 146.11735
RT: 9.2364
ExactMass: 146.118103753
Spectrum_type: 2
charge: 1
Formula: C7H16NO2+
SMILES: CC(=O)OCC[N+](C)(C)C
Method: HCD
Collision_energy: [28.333334]
Isolation_window: 4.0
Ion_mode: P
Num Peaks: 22
81.0337	17.2
82.0653	14.1
83.0494	8.6
84.0446	27.2
84.0809	32.7
85.0650	15.9
86.0602	14.9
87.0442	24.7
94.0652	8.9
110.0600	11.6
110.0964	18.8
111.0440	7.8
112.0756	10.0
128.0705	11.5
128.1068	19.3
130.0860	22.6
146.0811	9.8
146.0920	9.7
146.1173	100.0
147.0913	18.6
148.0965	47.7
148.1118	7.7

Name: Acetylglucosamine
PrecursorMZ: 186.0759
RT: 6.5175
ExactMass: 221.0899372
Spectrum_type: 2
charge: 1
Formula: C8H15NO6
SMILES: CC(=O)N[C@@H](C=O)[C@H]([C@@H]([C@@H](CO)O)O)O
Method: HCD
Collision_energy: [28.333334]
Isolation_window: 4.0
Ion_mode: P
Num Peaks: 63
60.0448	2.0
61.0288	0.7
69.0339	0.8
70.0654	1.4
71.0494	0.7
72.0447	0.5
80.0498	1.0
81.0337	2.6
81.0449	3.3
83.0493	0.5
84.0446	3.9
87.0442	0.6
96.0445	8.3
97.0285	3.8
98.0601	9.6
99.0441	1.7
100.0758	0.7
108.0444	0.8
109.0284	4.3
112.9998	1.9
114.0550	1.1
114.0662	1.1
116.0706	0.8
124.0392	1.2
126.0548	24.1
126.0654	1.2
126.0912	2.2
127.0389	3.1
127.0500	2.7
127.0579	1.4
128.0705	4.2
138.0438	0.5
138.0548	100.0
138.0659	0.8
139.0581	7.1
139.0863	1.2
140.0704	0.9
140.0817	2.0
141.0657	0.6
142.0861	1.6
144.0653	38.2
144.0806	0.5
145.0687	2.0
166.0860	0.6
167.0563	0.9
167.0813	3.0
168.0653	12.8
168.0759	1.1
168.0811	0.6
169.0607	0.5
169.0685	1.2
184.1075	0.6
185.0918	21.9
185.1066	0.8
185.1280	0.8
186.0757	15.9
186.0870	4.1
186.0950	2.0
186.1120	1.4
187.0791	1.3
187.1073	1.7
188.0704	0.7
188.0908	0.6

Name: Acetylpyrazine
PrecursorMZ: 123.05533
RT: 6.9224
ExactMass: 122.048012819
Spectrum_type: 2
charge: 1
Formula: C6H6N2O
SMILES: CC(=O)C1=NC=CN=C1
Method: HCD
Collision_energy: [28.333334]
Isolation_window: 4.0
Ion_mode: P
Num Peaks: 23
68.0498	2.1
80.0497	3.2
81.0450	100.0
82.0140	2.6
82.0483	3.6
95.0582	1.0
95.0605	49.0
96.0445	2.7
96.0638	2.9
99.0554	3.0
100.0244	16.1
101.0250	1.9
104.0576	1.3
104.0707	1.3
118.0348	4.6
121.0840	5.0
122.0600	1.0
122.0712	1.8
122.0809	1.0
123.0552	92.7
124.0392	61.0
124.0585	6.1
124.0755	4.0

Name: Acipimox
PrecursorMZ: 172.13312
RT: 16.4305
ExactMass: 154.03784206
Spectrum_type: 2
charge: 1
Formula: C6H6N2O3
SMILES: CC1=CN=C(C=[N+]1[O-])C(=O)O
Method: HCD
Collision_energy: [28.333334]
Isolation_window: 4.0
Ion_mode: P
Num Peaks: 10
67.0546	52.6
83.0858	8.1
89.0711	9.1
109.1013	100.0
110.1046	8.5
119.0857	10.1
126.0913	50.7
155.1066	15.7
171.1489	23.0
173.1171	48.1

Name: Aconine
PrecursorMZ: 500.27983
RT: 5.2788
ExactMass: 499.27813189
Spectrum_type: 2
charge: 1
Formula: C25H41NO9
SMILES: CCN1C[C@@]2([C@@H](C[C@@H]([C@@]34[C@@H]2[C@H]([C@@H](C31)[C@@]5([C@@H]6[C@H]4C[C@@]([C@@H]6O)([C@H]([C@@H]5O)OC)O)O)OC)OC)O)COC
Method: HCD
Collision_energy: [28.333334]
Isolation_window: 4.0
Ion_mode: P
Num Peaks: 56
51.8070	0.9
51.8084	4.0
53.5856	1.1
53.8096	1.7
55.5853	1.0
55.5868	4.1
55.6983	1.3
55.8093	1.2
55.8108	5.5
59.0495	0.7
82.0654	0.9
87.0443	1.5
91.0544	3.3
96.0808	0.7
111.1044	0.8
129.0698	2.8
131.0855	11.5
143.0854	2.2
159.0804	1.5
169.1011	2.0
171.1167	40.6
173.1325	0.7
177.0907	1.1
187.1117	2.0
189.1275	2.0
191.0700	10.9
192.0734	1.1
205.1009	1.8
217.1220	0.7
219.1166	0.7
231.1165	0.7
233.1169	69.2
234.1203	8.1
246.1485	2.1
248.1433	1.2
250.1587	6.6
251.1618	0.8
260.1639	1.8
262.1586	7.8
268.1691	1.1
280.1697	1.0
288.1742	0.8
298.1797	1.8
438.2425	0.8
464.2575	1.9
465.2609	0.7
466.2736	71.3
482.2684	20.8
483.2716	5.8
484.2841	31.1
499.2670	1.7
500.2790	74.3
501.2497	1.1
501.2823	23.8
502.2177	0.7
502.2946	100.0

Name: Acridine
PrecursorMZ: 180.08071
RT: 1.2214
ExactMass: 179.073499291
Spectrum_type: 2
charge: 1
Formula: C13H9N
SMILES: C1=CC=C2C(=C1)C=C3C=CC=CC3=N2
Method: HCD
Collision_energy: [28.333334]
Isolation_window: 4.0
Ion_mode: P
Num Peaks: 20
91.0545	0.5
120.0809	0.8
162.1280	0.4
178.0862	0.2
178.8733	0.4
179.1181	0.3
179.1430	0.3
180.0012	0.2
180.0644	0.7
180.0676	0.6
180.0807	100.0
180.0937	0.4
180.0976	0.7
180.1020	0.8
180.1385	0.2
180.1587	0.3
181.0777	0.4
181.0840	13.8
182.0811	0.6
182.0875	0.4

Name: Actarit
PrecursorMZ: 194.08104
RT: 3.6586
ExactMass: 193.07389321
Spectrum_type: 2
charge: 1
Formula: C10H11NO3
SMILES: CC(=O)NC1=CC=C(C=C1)CC(=O)O
Method: HCD
Collision_energy: [28.333334]
Isolation_window: 4.0
Ion_mode: P
Num Peaks: 88
58.0654	0.5
69.0338	0.6
69.0450	0.6
69.0702	0.5
70.0654	1.0
71.0494	0.5
81.0337	2.2
81.0701	0.7
87.0442	1.7
93.0700	0.9
95.0493	0.6
95.0605	1.3
95.0856	0.6
97.0648	0.5
105.0700	0.8
107.0492	3.7
107.0603	0.5
107.0855	0.7
108.0556	0.4
109.0648	0.5
110.0601	0.7
112.0869	0.6
119.0855	0.7
121.0646	0.5
121.1012	0.5
122.0598	0.5
125.0707	0.5
133.0647	0.6
133.0759	0.6
133.1010	3.2
134.0600	0.5
135.0803	0.6
135.1167	0.9
136.0755	1.6
137.0596	0.6
147.0915	0.7
147.1165	0.6
148.0754	1.0
149.0709	1.0
149.0961	0.5
149.1071	1.1
150.0549	0.5
150.0912	0.9
151.0864	1.0
152.0704	1.3
153.0545	0.4
163.0627	1.7
164.0707	1.1
164.0817	0.6
165.1019	0.5
166.0862	0.9
175.0864	1.2
175.1227	1.1
176.0703	3.2
176.1066	0.5
177.1019	11.3
178.0859	1.2
178.0972	0.8
178.1053	0.8
192.0852	0.6
192.1016	3.3
192.1127	2.5
193.0718	1.7
193.0858	1.0
193.0969	4.6
193.1051	0.8
193.1160	0.5
193.1332	3.0
193.1585	0.5
194.0625	0.7
194.0660	0.5
194.0808	100.0
194.0912	1.9
194.0997	1.0
194.1172	3.0
194.1281	1.3
194.1367	0.5
195.0662	0.6
195.0763	0.9
195.0842	10.3
195.1123	10.6
195.1486	0.6
196.0871	0.5
196.0964	12.0
196.1072	0.7
196.1154	0.6
196.1328	0.8
196.1437	0.8

Name: Actinonin
PrecursorMZ: 386.26472
RT: 1.0993
ExactMass: 385.25767123
Spectrum_type: 2
charge: 1
Formula: C19H35N3O5
SMILES: CCCCC[C@H](CC(=O)NO)C(=O)N[C@@H](C(C)C)C(=O)N1CCC[C@H]1CO
Method: HCD
Collision_energy: [28.333334]
Isolation_window: 4.0
Ion_mode: P
Num Peaks: 51
58.0656	8.7
60.0448	2.0
70.0655	4.1
72.0812	44.4
74.0604	5.5
84.0447	18.7
86.0968	27.2
96.0811	3.1
98.0603	46.4
98.0966	5.1
99.0635	2.1
112.1123	9.4
114.0915	13.8
126.0914	2.1
126.1278	4.3
127.1231	2.6
132.1020	6.8
141.1022	6.6
142.0864	4.4
146.1176	41.1
147.1207	2.1
155.1180	20.6
169.1336	41.7
170.1367	4.1
183.1127	7.1
183.1492	8.5
185.1647	3.2
195.1490	2.3
197.1285	20.7
211.1441	7.9
211.1804	2.4
213.1597	79.0
214.1633	10.1
227.1753	16.3
228.1787	2.0
241.1546	40.4
242.1583	4.8
245.1859	52.0
246.1895	5.6
255.1702	8.1
285.2166	1.9
338.3054	3.4
342.2385	22.1
343.2419	5.1
368.3159	2.8
385.2889	2.0
386.2648	100.0
386.3237	3.9
387.2683	21.0
388.2719	2.2
388.3417	2.9

Name: Adamantylidene
PrecursorMZ: 135.1168
RT: 5.20425
ExactMass: 134.109550447
Spectrum_type: 2
charge: 1
Formula: C10H14
SMILES: C1C2CC3CC1CC(C2)[C]3
Method: HCD
Collision_energy: [28.333334]
Isolation_window: 4.0
Ion_mode: P
Num Peaks: 18
55.0546	2.4
67.0546	15.1
69.0702	3.0
79.0545	28.7
81.0701	12.6
91.0544	5.3
93.0700	48.9
94.0734	3.8
107.0856	35.4
108.0888	3.9
134.1045	2.2
135.0802	2.9
135.1167	100.0
136.0213	4.3
136.0616	3.0
136.0755	13.8
136.1200	12.5
137.0456	48.6

Name: Adelmidrol
PrecursorMZ: 275.19646
RT: 10.6777
ExactMass: 274.18925731
Spectrum_type: 2
charge: 1
Formula: C13H26N2O4
SMILES: C(CCCC(=O)NCCO)CCCC(=O)NCCO
Method: HCD
Collision_energy: [28.333334]
Isolation_window: 4.0
Ion_mode: P
Num Peaks: 21
60.0813	6.3
86.0968	5.5
132.0769	5.4
142.0500	5.7
170.1176	23.7
176.8753	4.4
186.0874	12.2
215.0942	9.6
216.1230	59.5
217.1264	6.4
234.1850	20.7
257.1855	5.0
258.1082	5.0
274.1073	100.0
274.1271	6.1
275.1105	17.9
275.1386	4.9
275.1965	34.7
276.1199	40.7
276.1438	5.4
276.1976	7.9

Name: Adenine hydrochloride
PrecursorMZ: 172.13313
RT: 9.3968
ExactMass: 171.0311729
Spectrum_type: 2
charge: 1
Formula: C5H6ClN5
SMILES: C1=NC2=NC=NC(=C2N1)N.Cl
Method: HCD
Collision_energy: [28.333334]
Isolation_window: 4.0
Ion_mode: P
Num Peaks: 4
109.1012	10.7
171.1490	6.9
172.1330	100.0
173.1363	8.3

Name: Adenosine Monophosphate
PrecursorMZ: 348.06992
RT: 8.345033333333333
ExactMass: 347.0630848
Spectrum_type: 2
charge: 1
Formula: C10H14N5O7P
SMILES: C1=NC(=C2C(=N1)N(C=N2)[C@H]3[C@@H]([C@@H]([C@H](O3)COP(=O)(O)O)O)O)N
Method: HCD
Collision_energy: [28.333334]
Isolation_window: 4.0
Ion_mode: P
Num Peaks: 5
97.0285	5.8
136.0616	100.0
137.0650	4.8
347.1229	3.0
348.0699	20.2

Name: Adenosine, N-(2-hydroxycyclopentyl)-, (1S-trans)-)CAS(
PrecursorMZ: 352.16096
RT: 3.7636
ExactMass: 405.1415112
Spectrum_type: 2
charge: 1
Formula: C15H24ClN5O6
SMILES: C1C[C@@H]([C@H](C1)O)NC2=C3C(=NC=N2)N(C=N3)[C@H]4[C@H](C([C@H](O4)CO)O)O.O.Cl
Method: HCD
Collision_energy: [28.333334]
Isolation_window: 4.0
Ion_mode: P
Num Peaks: 32
70.0656	4.4
81.0340	1.5
84.0809	0.9
100.0759	4.7
110.0840	2.4
111.0441	1.3
112.0868	1.0
191.1178	3.0
220.1193	100.0
221.1223	10.3
267.1340	1.1
295.1289	1.1
339.1548	6.5
340.1574	1.2
351.1526	1.3
351.1950	1.1
352.1611	52.9
353.1660	11.4
354.1731	2.9
354.3153	1.2
357.1654	9.1
358.1553	2.6
359.1562	1.6
360.1648	6.2
361.1738	2.3
362.1754	2.0
363.1517	1.7
364.1585	2.2
365.1675	1.6
365.2046	1.3
366.1707	1.3
370.1679	1.0

Name: Adenosine, cyclic 2',3'-(hydrogen phosphate), ion(1-)
PrecursorMZ: 330.05822
RT: 7.1277
ExactMass: 328.04469509
Spectrum_type: 2
charge: 1
Formula: C10H11N5O6P-
SMILES: C1=NC(=C2C(=N1)N(C=N2)[C@H]3[C@H]4[C@@H]([C@H](O3)CO)OP(=O)(O4)[O-])N
Method: HCD
Collision_energy: [28.333334]
Isolation_window: 4.0
Ion_mode: P
Num Peaks: 25
70.0655	24.8
84.0811	24.5
86.0967	16.2
114.0915	11.7
116.0707	19.3
132.1020	8.9
136.0756	13.0
187.1079	7.8
310.1290	7.6
312.1922	9.1
328.1898	8.8
329.1325	17.8
329.1496	18.9
329.1530	17.2
330.0581	100.0
330.0944	12.8
330.1339	16.2
330.1545	8.4
330.2018	38.0
331.0628	9.2
331.0964	7.8
331.1309	9.8
331.1499	11.7
331.1663	8.3
332.1492	8.5

Name: Adrenosterone
PrecursorMZ: 301.1829
RT: 2.8572
ExactMass: 300.17254462
Spectrum_type: 2
charge: 1
Formula: C19H24O3
SMILES: C[C@]12CCC(=O)C=C1CC[C@@H]3[C@@H]2C(=O)C[C@]4([C@H]3CCC4=O)C
Method: HCD
Collision_energy: [28.333334]
Isolation_window: 4.0
Ion_mode: P
Num Peaks: 14
81.0701	22.1
93.0699	23.6
95.0856	20.2
137.0418	26.2
169.1043	47.6
181.0675	23.0
199.0783	27.2
282.2784	39.8
283.1721	72.4
301.1182	25.7
301.1824	100.0
302.1001	21.6
302.1857	18.8
303.1338	20.4

Name: Aflatoxin B1
PrecursorMZ: 313.07034
RT: 9.995766666666666
ExactMass: 312.0633881
Spectrum_type: 2
charge: 1
Formula: C17H12O6
SMILES: COC1=C2C3=C(C(=O)CC3)C(=O)OC2=C4[C@@H]5C=CO[C@@H]5OC4=C1
Method: HCD
Collision_energy: [28.333334]
Isolation_window: 4.0
Ion_mode: P
Num Peaks: 32
137.0234	14.1
162.0551	4.5
205.0497	4.8
215.0703	8.0
225.0544	6.8
241.0850	4.6
242.0809	12.7
243.0651	28.0
244.0685	4.4
251.0701	5.9
253.0493	7.1
254.0811	5.4
255.0650	38.8
267.0653	5.5
268.0736	4.6
268.0961	6.2
269.0806	10.2
270.0754	6.7
271.0600	15.1
283.0604	5.5
295.0960	5.9
297.0758	5.3
312.0866	55.7
313.0706	89.5
313.0902	11.2
313.1190	6.4
314.0745	14.8
314.1022	21.6
314.1226	4.6
314.1383	6.4
315.0861	100.0
315.1060	5.4

Name: Aflatoxin B2
PrecursorMZ: 315.08614
RT: 9.2717
ExactMass: 314.07903816
Spectrum_type: 2
charge: 1
Formula: C17H14O6
SMILES: COC1=C2C3=C(C(=O)CC3)C(=O)OC2=C4[C@@H]5CCO[C@@H]5OC4=C1
Method: HCD
Collision_energy: [28.333334]
Isolation_window: 4.0
Ion_mode: P
Num Peaks: 43
86.0968	2.7
137.0233	4.0
204.0653	3.3
205.0492	2.6
236.0918	2.7
236.9409	15.7
241.0858	2.5
243.0652	5.4
244.0690	2.7
251.0698	2.3
254.0805	5.2
254.9514	17.7
255.0650	40.9
256.0697	7.3
257.0813	2.3
257.1286	2.7
268.0962	3.5
269.0807	6.0
271.0598	2.4
271.0962	2.3
278.1016	2.4
283.0600	4.5
295.0963	3.0
297.0753	3.7
298.1070	2.1
313.0705	12.3
313.0901	2.6
313.1192	2.4
314.0747	8.5
314.1021	13.4
314.1222	2.8
314.1381	3.9
315.0860	100.0
315.1033	4.5
315.1348	3.6
316.0898	17.1
316.1177	19.1
316.1373	2.3
316.9077	2.1
317.1014	3.0
317.1205	1.9
317.1494	2.1
334.9176	5.2

Name: Aflatoxin M1
PrecursorMZ: 329.0627
RT: 5.720666666666666
ExactMass: 328.05830272
Spectrum_type: 2
charge: 1
Formula: C17H12O7
SMILES: COC1=C2C3=C(C(=O)CC3)C(=O)OC2=C4C(=C1)O[C@@H]5[C@]4(C=CO5)O
Method: HCD
Collision_energy: [28.333334]
Isolation_window: 4.0
Ion_mode: P
Num Peaks: 8
98.9842	2.3
114.0914	6.9
327.3354	2.8
328.1385	3.5
329.0627	100.0
329.2089	2.7
330.0659	14.3
331.0612	4.0

Name: Agmatine(pyruvate (known isomers: 1; isobaric peaks in run: 1)
PrecursorMZ: 203.15017
RT: 13.3495
Spectrum_type: 2
charge: 1
SMILES: CC(NC(=N)NCCCCN)C(=O)O
Method: HCD
Collision_energy: [28.333334]
Isolation_window: 4.0
Ion_mode: P
Num Peaks: 44
58.0656	4.9
60.0561	34.6
60.0812	2.6
62.0605	1.9
72.0812	12.6
86.0604	18.6
87.0444	4.3
88.0762	1.7
89.0600	1.7
93.0702	4.5
96.9955	6.3
97.0764	4.9
98.0967	25.0
102.0917	5.5
104.0708	5.5
106.0867	2.4
114.1028	75.5
115.1063	3.3
119.0494	1.8
121.0649	5.9
131.1292	12.1
132.0476	3.3
141.1025	1.7
144.1020	62.9
145.1058	4.2
150.0584	4.2
165.0547	13.6
178.1225	1.7
180.1048	1.9
186.1238	10.3
198.0247	2.9
202.1800	12.9
203.1503	100.0
203.1825	2.5
204.1538	9.5
210.0796	50.8
210.1124	2.4
210.1336	2.1
211.0823	4.2
212.0754	2.4
220.1196	4.4
222.1124	6.5
224.0955	8.6
224.1281	42.3

Name: Akt1 and Akt2-IN-1
PrecursorMZ: 540.25037
RT: 5.1442
ExactMass: 539.24335857
Spectrum_type: 2
charge: 1
Formula: C33H29N7O
SMILES: C1CN(CCC1C2=NC(=NN2)C3=CC=CC=N3)CC4=CC=C(C=C4)C5=C(C=C6C(=N5)C=CNC6=O)C7=CC=CC=C7
Method: HCD
Collision_energy: [28.333334]
Isolation_window: 4.0
Ion_mode: P
Num Peaks: 9
60.0265	1.7
60.0282	5.2
60.1397	1.5
69.3264	0.7
97.4325	0.7
176.8752	0.8
540.2504	100.0
541.2541	34.4
542.2521	3.2

Name: Ala-Ile
PrecursorMZ: 203.13901
RT: 6.9052
ExactMass: 202.13174244
Spectrum_type: 2
charge: 1
Formula: C9H18N2O3
SMILES: CC[C@H](C)[C@@H](C(=O)O)NC(=O)[C@H](C)N
Method: HCD
Collision_energy: [28.333334]
Isolation_window: 4.0
Ion_mode: P
Num Peaks: 81
60.0449	2.2
70.0656	9.2
72.0812	3.4
81.0339	1.1
83.0496	1.0
84.0448	4.0
84.0812	3.5
86.0968	70.6
87.1001	4.2
90.0917	1.0
96.0447	2.0
97.0286	1.4
98.0603	2.2
100.1124	1.9
101.0599	3.3
104.0708	1.1
109.0651	1.8
112.0872	3.2
116.0708	2.3
125.0712	2.2
126.0552	7.1
126.0915	5.6
128.0709	1.1
131.0604	2.3
132.1020	100.0
133.1053	6.3
134.0601	1.1
138.0551	6.5
142.1228	1.6
144.0656	5.3
144.1020	4.1
146.0270	1.7
154.0866	1.1
156.1022	1.8
156.1385	2.0
157.0499	0.9
157.1337	23.4
158.1180	1.2
158.1369	2.0
158.1542	1.4
159.0917	1.9
160.0524	4.9
160.0759	1.1
168.0654	1.5
170.0926	2.4
184.0971	1.3
184.1081	2.0
185.0710	1.0
185.1287	1.2
186.0763	2.3
186.1124	1.2
187.0868	2.0
201.1024	19.6
201.1235	1.5
202.0500	1.4
202.0864	22.3
202.0975	20.9
202.1067	16.9
202.1196	1.7
202.1228	0.9
202.1341	1.0
202.1437	7.8
202.1799	1.0
203.0816	35.8
203.0896	2.4
203.1006	2.9
203.1025	2.3
203.1091	1.2
203.1182	2.1
203.1390	8.4
204.0423	1.9
204.0656	11.5
204.0872	4.5
204.1020	36.5
204.1130	1.1
204.1226	6.7
204.1373	1.6
204.1590	1.7
205.0972	21.4
205.1056	2.6
205.1336	1.8

Name: Alanine + CDCA
PrecursorMZ: 446.32605
RT: 5.42945
ExactMass: 463.32977354
Spectrum_type: 2
charge: 1
Formula: C27H45NO5
SMILES: C[C@H](CCC(=O)N[C@@H](C)C(=O)O)[C@H]1CC[C@@H]2[C@@]1(CC[C@H]3[C@H]2[C@@H](C[C@H]4[C@@]3(CC[C@H](C4)O)C)O)C
Method: HCD
Collision_energy: [28.333334]
Isolation_window: 4.0
Ion_mode: P
Num Peaks: 38
58.0417	0.8
73.0287	3.1
80.0547	2.1
81.0338	1.0
87.0443	2.4
89.0600	21.8
90.0634	1.0
100.0759	3.5
102.0677	2.6
114.0912	1.0
124.0807	1.2
128.0706	16.5
129.0738	1.0
133.0859	11.4
140.1069	1.6
155.0990	0.8
156.1021	1.6
161.1326	1.9
165.0911	1.1
177.1120	4.1
199.1250	2.2
221.1380	2.5
243.1513	1.6
271.2053	3.5
273.2211	1.8
428.2634	3.6
428.3155	100.0
428.7635	1.7
429.3189	29.0
430.3311	22.0
436.7741	1.3
444.3121	0.9
445.3093	1.6
446.3262	3.2
446.3986	0.9
447.3251	1.8
447.3571	0.8
448.3421	2.8

Name: Alanine + HDCA
PrecursorMZ: 428.31525
RT: 1.4656
ExactMass: 463.32977354
Spectrum_type: 2
charge: 1
Formula: C27H45NO5
SMILES: C[C@H](CCC(=O)N[C@@H](C)C(=O)O)[C@H]1CC[C@@H]2[C@@]1(CC[C@H]3[C@H]2C[C@@H]([C@H]4[C@@]3(CC[C@H](C4)O)C)O)C
Method: HCD
Collision_energy: [28.333334]
Isolation_window: 4.0
Ion_mode: P
Num Peaks: 109
57.0703	3.1
67.0546	3.0
69.0702	5.9
69.7612	1.2
70.0655	1.5
71.0859	2.9
72.0812	4.0
81.0702	11.1
83.0858	4.4
85.0650	1.8
85.1014	1.3
93.0702	3.8
95.0492	1.4
95.0857	10.0
97.0649	1.5
97.1013	3.8
97.3997	1.4
99.0807	2.0
100.0758	2.1
105.0700	3.2
107.0857	6.4
109.1013	9.4
111.1169	1.8
114.0914	13.7
115.0865	2.0
119.0856	2.6
121.0646	1.5
121.1012	6.0
123.0804	1.5
123.1168	4.7
126.0550	1.7
127.1116	1.9
131.0855	1.6
131.1179	11.5
133.1011	5.8
135.0803	3.9
135.1168	4.7
136.0756	50.9
137.0788	3.2
137.0960	1.5
137.1324	1.7
138.0913	14.8
144.0654	1.4
145.1012	3.7
147.1167	4.8
149.0960	51.2
149.1323	2.8
150.0994	5.4
151.0754	6.7
151.1481	1.6
156.1017	2.1
157.0969	1.5
159.1170	4.1
161.0959	2.2
161.1325	16.3
162.1358	2.2
163.0755	1.5
163.1116	4.8
163.1481	1.8
164.0704	1.3
164.0834	1.9
165.0910	25.5
166.0942	1.6
167.0701	4.4
173.0959	1.4
173.1323	2.8
175.1116	6.6
175.1481	1.6
177.0909	4.6
185.1323	1.5
187.1116	1.5
187.1481	1.5
189.1274	10.7
190.1306	1.5
191.1064	3.9
199.1479	2.1
201.1274	1.5
203.1432	2.8
205.1221	3.9
215.1792	1.2
219.1378	1.2
229.1583	1.4
255.2106	20.8
256.2140	2.0
271.2054	2.0
273.2210	30.9
274.2242	4.7
350.3052	1.5
352.3209	2.4
383.2935	3.2
409.3105	1.9
409.3436	9.2
410.3050	28.3
410.3456	3.2
411.3083	7.4
411.3577	11.1
412.3205	12.2
412.3615	1.8
426.3007	6.2
427.3013	9.0
427.3218	10.6
427.3563	11.9
428.3155	100.0
428.3567	4.9
428.4232	2.1
429.3184	23.9
429.3697	11.6
430.3311	42.6
430.3734	3.9

Name: Alanine, 3-anthraniloyl-, DL-
PrecursorMZ: 209.09207
RT: 6.1451
ExactMass: 208.08479225
Spectrum_type: 2
charge: 1
Formula: C10H12N2O3
SMILES: C1=CC=C(C(=C1)C(=O)CC(C(=O)O)N)N
Method: HCD
Collision_energy: [28.333334]
Isolation_window: 4.0
Ion_mode: P
Num Peaks: 98
55.0547	3.0
59.0496	1.4
68.0499	1.4
69.0339	0.6
69.0704	1.0
70.0655	2.9
71.0495	0.6
79.0546	0.5
80.0498	0.7
81.0703	1.4
82.0655	3.4
83.0494	3.0
84.0447	1.2
87.0444	12.0
91.0544	0.7
93.0702	1.1
95.0495	0.8
95.0606	0.6
95.0858	0.6
96.0446	6.4
96.0810	0.9
100.0760	1.8
101.0599	12.7
105.0700	0.9
107.0493	0.7
107.0857	0.7
108.0446	1.5
109.0649	1.0
110.0602	17.9
110.0715	0.6
111.0637	0.5
119.0856	0.8
121.0650	1.1
121.1014	0.5
122.0603	0.9
123.0554	27.9
124.0587	1.6
124.0757	3.0
126.0551	0.9
131.0855	0.5
133.1013	0.7
135.0804	0.7
136.0757	2.4
136.1121	1.2
140.1072	0.5
145.1013	0.7
146.0965	0.6
147.0806	0.9
147.1169	0.7
148.0758	1.0
149.0598	1.2
149.0709	0.5
149.0962	1.6
150.0552	0.7
150.0914	1.1
152.0707	0.9
162.0551	0.6
162.0664	0.6
162.0916	0.7
163.0755	0.7
163.0862	0.9
163.1117	0.8
164.0707	2.8
164.0819	1.0
164.1071	5.4
165.1024	1.8
166.0863	2.2
180.0660	0.8
180.1019	1.6
181.0972	3.8
182.1177	0.8
190.0863	0.8
191.0815	1.7
191.1066	1.2
192.0656	1.7
192.1018	2.1
193.0972	2.9
207.0762	1.0
207.1134	0.6
208.0603	0.8
208.0702	0.7
208.0968	6.1
208.1335	1.1
209.0921	100.0
209.0999	2.1
209.1140	0.8
209.1177	1.2
209.1285	2.3
210.0208	0.9
210.0761	6.3
210.0870	3.7
210.0956	9.9
210.1124	62.1
210.1335	0.7
211.0711	0.7
211.0977	0.6
211.1073	2.4
211.1159	4.2

Name: Alanine, N-(2,6-dimethylphenyl)-N-(methoxyacetyl)-
PrecursorMZ: 266.13863
RT: 5.1891
ExactMass: 265.13140809
Spectrum_type: 2
charge: 1
Formula: C14H19NO4
SMILES: CC1=C(C(=CC=C1)C)N([C@@H](C)C(=O)O)C(=O)COC
Method: HCD
Collision_energy: [28.333334]
Isolation_window: 4.0
Ion_mode: P
Num Peaks: 120
58.0656	12.5
59.0609	2.0
70.0656	4.9
72.0812	3.6
80.0499	1.2
81.0339	2.3
81.0452	1.7
84.0812	13.0
89.0601	1.5
93.0702	0.9
95.0494	1.0
96.9956	1.3
99.0443	1.1
100.0761	1.6
108.0809	1.6
110.0603	2.0
110.0716	1.0
110.0967	0.9
111.0444	5.0
112.0872	1.6
117.0549	1.5
120.0808	3.3
121.0890	1.9
122.0715	13.0
122.0966	21.8
123.0802	2.7
123.0999	1.6
124.0759	19.0
124.1123	2.3
125.0792	1.0
126.0916	1.6
130.0865	1.1
134.0965	1.1
136.0758	56.4
137.0795	4.8
139.1232	6.7
140.1077	1.7
144.0480	6.6
146.0814	2.3
148.1121	1.2
149.0236	2.5
150.0915	2.2
151.1230	3.0
161.1078	1.2
162.0914	6.1
164.1071	1.1
165.1021	1.4
165.1137	1.4
166.0976	2.4
170.1175	5.2
177.1023	3.7
177.1386	3.3
179.1180	27.0
180.1212	3.1
184.0967	1.1
194.0811	1.1
198.1126	3.9
202.1229	2.0
203.1544	1.0
208.1185	3.6
210.0795	2.1
216.1232	35.1
217.1262	2.6
219.1493	15.7
220.1524	1.5
221.0923	2.5
224.1277	1.1
225.1459	8.7
226.1487	1.0
230.1658	1.1
231.1490	5.6
238.1439	16.4
239.1481	1.9
248.1292	1.0
248.1755	1.0
249.1599	5.0
250.1432	5.7
254.1387	24.4
255.1419	4.1
260.1266	2.0
264.1211	6.3
265.1163	5.3
265.1557	6.2
266.1383	29.0
266.1606	3.0
267.1381	8.0
267.1701	48.7
268.1524	26.9
269.1534	7.8
269.1860	1.6
270.1812	1.7
271.1651	52.6
272.1311	11.7
272.1682	7.8
273.1212	2.2
274.1057	4.0
274.1507	1.0
274.2739	2.0
275.1395	2.3
275.1713	1.0
276.1252	1.8
276.1659	1.8
277.1231	0.9
277.1551	3.7
278.1384	40.0
278.1888	1.0
279.1363	13.8
279.1708	2.3
280.1581	2.2
281.1495	11.8
282.1306	3.3
282.1879	1.8
283.1220	6.3
283.1659	5.4
284.1269	1.1
284.1968	15.9
285.1282	1.2
285.1807	100.0
286.1840	11.5
286.3105	1.3

Name: Alanylnorvaline
PrecursorMZ: 189.1234
RT: 7.0068
ExactMass: 188.11609238
Spectrum_type: 2
charge: 1
Formula: C8H16N2O3
SMILES: CCCC(C(=O)O)NC(=O)C(C)N
Method: HCD
Collision_energy: [28.333334]
Isolation_window: 4.0
Ion_mode: P
Num Peaks: 4
72.0448	100.0
72.0812	5.1
100.0759	4.7
171.1129	7.3

Name: Alismol
PrecursorMZ: 203.17922
RT: 1.0315
ExactMass: 220.182715385
Spectrum_type: 2
charge: 1
Formula: C15H24O
SMILES: CC(C)C1=C[C@H]2[C@H](CC[C@@]2(C)O)C(=C)CC1
Method: HCD
Collision_energy: [28.333334]
Isolation_window: 4.0
Ion_mode: P
Num Peaks: 22
67.0545	7.5
69.0701	9.1
69.3541	8.9
81.0701	21.3
93.0700	13.6
95.0856	36.6
105.0699	12.0
107.0855	26.6
109.1012	27.9
119.0854	13.5
121.1011	30.0
123.1167	8.8
133.1010	16.8
135.1166	10.2
147.1165	42.5
149.1323	9.0
161.1324	10.5
203.1063	10.8
203.1790	100.0
204.1825	13.7
205.1218	23.1
205.1947	9.1

Name: Alliin
PrecursorMZ: 178.04983
RT: 6.57635
ExactMass: 177.04596439
Spectrum_type: 2
charge: 1
Formula: C6H11NO3S
SMILES: C=CC[S@](=O)C[C@@H](C(=O)O)N
Method: HCD
Collision_energy: [28.333334]
Isolation_window: 4.0
Ion_mode: P
Num Peaks: 15
58.0656	0.8
60.0813	0.5
96.9954	0.7
136.0394	1.9
176.8753	1.0
177.0661	0.6
178.0337	0.7
178.0498	100.0
178.0658	0.3
178.0707	1.4
179.0461	0.6
179.0531	9.4
180.0552	0.4
180.1049	7.0
196.0606	0.4

Name: Allopurinol
PrecursorMZ: 137.0457
RT: 5.2815
ExactMass: 136.03851076
Spectrum_type: 2
charge: 1
Formula: C5H4N4O
SMILES: C1=NNC2=C1C(=O)NC=N2
Method: HCD
Collision_energy: [28.333334]
Isolation_window: 4.0
Ion_mode: P
Num Peaks: 27
91.0544	1.0
93.0701	0.7
94.0401	0.4
95.0493	0.4
108.0809	0.4
110.0350	1.6
119.0353	0.7
120.0194	0.4
120.0444	0.7
126.0550	0.3
136.0618	32.3
136.0756	6.0
137.0347	0.7
137.0373	0.5
137.0457	100.0
137.0545	0.5
137.0570	0.9
137.0595	0.8
137.0650	1.8
137.0788	0.7
137.1072	0.5
138.0428	1.7
138.0490	5.9
138.0548	3.4
138.0912	1.7
139.0865	0.7
139.1230	0.7

Name: Alloursodeoxycholic acid
PrecursorMZ: 357.27851
RT: 13.9624
ExactMass: 392.29265975
Spectrum_type: 2
charge: 1
Formula: C24H40O4
SMILES: CC(CCC(=O)O)C1CCC2C1(CCC3C2C(CC4C3(CCC(C4)O)C)O)C
Method: HCD
Collision_energy: [28.333334]
Isolation_window: 4.0
Ion_mode: P
Num Peaks: 195
59.0609	12.3
67.0547	6.5
69.0704	6.1
70.0656	6.9
72.0812	5.1
79.0545	2.9
81.0339	7.2
81.0703	18.1
83.0496	2.1
83.0859	5.7
84.0812	2.1
85.0286	3.0
85.0653	2.8
86.0968	13.2
87.0444	1.6
89.0600	3.8
91.0543	3.2
93.0702	8.1
95.0494	2.0
95.0858	17.6
96.0447	4.3
97.0650	2.4
97.1014	2.2
98.0604	1.9
98.0967	2.8
99.0444	4.9
101.0601	4.3
105.0700	7.1
107.0858	14.5
109.0650	2.1
109.1015	15.8
110.0713	1.8
111.0438	2.8
111.0808	2.1
112.0761	1.5
116.0708	6.4
119.0857	10.5
120.0813	4.7
121.0647	2.4
121.1013	14.3
122.1048	1.5
123.0804	2.5
123.1170	3.7
124.0759	2.3
125.0962	2.1
126.0917	1.7
127.0755	1.6
131.0855	4.5
132.0445	2.0
132.1023	2.4
133.0860	2.2
133.1012	12.5
135.0807	2.2
135.1170	16.9
136.0759	2.2
136.1205	1.8
137.0598	1.5
137.0962	2.3
137.1325	1.5
139.0752	1.6
143.0853	1.9
145.1013	23.6
146.1048	3.8
147.0796	1.5
147.1170	17.2
148.0757	3.5
148.1206	1.8
149.0962	3.3
149.1326	18.2
150.0913	2.0
150.1364	2.3
151.1120	2.2
152.0706	2.2
153.0914	3.0
154.0862	3.5
157.1010	2.9
159.1171	8.7
161.1326	14.8
162.1362	1.7
163.1114	2.4
163.1483	7.3
164.0710	1.6
164.1065	2.6
166.0863	4.2
167.1065	3.2
168.1023	1.5
169.1011	1.7
171.1162	3.0
173.1322	5.1
175.1117	1.9
175.1481	7.6
177.1269	1.7
177.1644	2.0
178.0864	2.5
180.1022	1.6
181.1221	3.8
185.1330	3.5
187.1115	1.8
187.1481	4.4
189.1268	1.8
189.1640	4.6
191.1065	1.6
193.1220	3.5
194.0808	2.8
195.1379	6.5
197.1299	3.2
199.1482	5.4
201.1258	1.5
201.1639	9.7
203.1427	2.1
203.1798	3.3
207.1372	3.7
209.1319	2.4
209.1539	1.7
211.1480	5.0
212.0916	1.5
213.1636	4.9
215.1795	14.6
216.1228	2.2
216.1822	2.6
217.1952	1.9
221.1538	7.9
223.1472	2.3
223.1700	1.7
225.1629	3.6
227.1429	2.8
227.1789	4.6
229.1584	4.4
229.1953	4.2
231.1746	1.7
233.1536	2.3
235.1687	4.0
237.1636	2.2
239.1793	1.8
241.1573	1.5
241.1952	1.7
243.1742	2.0
243.2112	4.1
245.1535	3.0
247.1689	9.6
248.1725	1.7
249.1840	1.9
255.1744	3.3
261.1848	8.7
262.1890	1.7
268.2638	1.8
275.2004	6.2
281.1512	1.6
301.1549	1.8
301.2165	1.7
309.1818	2.3
309.2576	34.9
310.2611	12.7
319.1658	2.8
319.2427	4.2
321.2583	3.6
325.2526	2.5
327.1327	1.6
327.2678	2.7
337.2527	10.3
338.2566	4.0
339.2676	6.9
353.2477	1.6
355.2635	38.0
356.1548	1.7
356.2657	20.2
356.3482	2.4
357.1189	1.7
357.1827	6.5
357.2788	100.0
358.1283	1.5
358.1689	2.7
358.2821	26.5
358.3694	1.8
359.1588	5.7
359.2871	3.2
360.1504	1.6
361.1746	3.0
362.1692	2.3
367.2077	2.4
368.2174	1.8
369.1783	1.8
369.2251	2.0
371.1540	2.4
371.2599	7.1
372.1460	1.6
372.3470	4.1
373.1746	3.1
373.2739	20.0
374.1672	2.1
374.2325	3.2
374.2769	4.5
374.3628	1.7
375.1538	1.8
376.2465	1.8

Name: Alpha-Alectoronic Acid
PrecursorMZ: 513.21241
RT: 4.3863
ExactMass: 512.20463259
Spectrum_type: 2
charge: 1
Formula: C28H32O9
SMILES: CCCCCC(=O)CC1=C2C(=CC(=C1)O)OC3=C(C=C(C(=C3CC(=O)CCCCC)C(=O)O)O)OC2=O
Method: HCD
Collision_energy: [28.333334]
Isolation_window: 4.0
Ion_mode: P
Num Peaks: 16
70.0656	10.0
84.0813	8.0
89.0600	17.6
114.1029	9.1
131.1295	11.0
133.0860	8.8
157.1086	10.9
182.0812	11.6
205.1118	27.6
309.1079	13.7
365.0818	7.3
496.1862	7.1
513.2127	100.0
514.2149	28.4
515.2061	10.1
515.2911	8.0

Name: Alpha-Aminobutyric Acid
PrecursorMZ: 104.07079
RT: 3.7915
ExactMass: 103.06332853
Spectrum_type: 2
charge: 1
Formula: C4H9NO2
SMILES: CCC(C(=O)O)N
Method: HCD
Collision_energy: [28.333334]
Isolation_window: 4.0
Ion_mode: P
Num Peaks: 18
56.0499	25.4
58.0655	17.5
60.0448	5.0
60.0559	2.4
60.0812	10.4
62.9294	22.0
64.9276	6.2
72.0811	3.1
74.0967	20.6
84.0447	5.4
86.0602	2.9
102.1278	100.0
103.1311	10.5
104.0707	3.1
104.1071	32.6
105.0699	2.4
106.0652	3.7
121.9661	4.1

Name: Alpha-Hydroxyhippuric acid
PrecursorMZ: 196.06032
RT: 0.8938
ExactMass: 195.05315777
Spectrum_type: 2
charge: 1
Formula: C9H9NO4
SMILES: C1=CC=C(C=C1)C(=O)NC(C(=O)O)O
Method: HCD
Collision_energy: [28.333334]
Isolation_window: 4.0
Ion_mode: P
Num Peaks: 3
178.0494	4.7
196.0600	100.0
197.0636	10.2

Name: Alpha-Lactose
PrecursorMZ: 325.11264
RT: 5.3282
ExactMass: 342.11621151
Spectrum_type: 2
charge: 1
Formula: C12H22O11
SMILES: C([C@@H]1[C@@H]([C@@H]([C@H]([C@@H](O1)O[C@@H]2[C@H](O[C@@H]([C@@H]([C@H]2O)O)O)CO)O)O)O)O
Method: HCD
Collision_energy: [28.333334]
Isolation_window: 4.0
Ion_mode: P
Num Peaks: 9
61.0289	26.7
85.0287	100.0
91.0391	52.1
97.0285	29.4
98.9844	17.5
127.0390	35.3
145.0495	41.4
163.0600	35.2
326.1825	29.9

Name: Alpha-Naphthoflavone
PrecursorMZ: 273.09031
RT: 6.6445
ExactMass: 272.083729621
Spectrum_type: 2
charge: 1
Formula: C19H12O2
SMILES: C1=CC=C(C=C1)C2=CC(=O)C3=C(O2)C4=CC=CC=C4C=C3
Method: HCD
Collision_energy: [28.333334]
Isolation_window: 4.0
Ion_mode: P
Num Peaks: 11
114.0916	18.8
195.0587	9.3
227.1753	10.2
237.0691	9.7
255.0799	14.1
272.0913	13.8
273.0902	100.0
273.1224	15.5
273.1841	7.1
274.0934	12.9
274.1074	25.2

Name: Alpha-Tocotrienol
PrecursorMZ: 425.34103
RT: 1.1432
ExactMass: 424.334130642
Spectrum_type: 2
charge: 1
Formula: C29H44O2
SMILES: CC1=C(C2=C(CC[C@@](O2)(C)CC/C=C(\C)/CC/C=C(\C)/CCC=C(C)C)C(=C1O)C)C
Method: HCD
Collision_energy: [28.333334]
Isolation_window: 4.0
Ion_mode: P
Num Peaks: 44
55.0546	1.4
57.0703	1.9
67.0546	2.2
69.0702	9.6
81.0701	11.7
83.0858	4.7
93.0701	2.5
95.0857	10.5
97.1013	3.3
107.0856	2.2
109.1012	10.7
111.1169	1.9
119.0855	1.5
121.1012	2.8
123.1168	6.8
135.1166	3.1
137.0959	1.3
137.1323	6.7
147.1165	2.0
149.0960	10.0
149.1324	2.1
151.0753	6.0
151.1480	1.3
165.0909	100.0
166.0942	7.8
175.0752	4.8
177.0908	4.5
179.1063	2.0
189.0908	4.9
189.1272	1.4
189.1636	1.3
191.1065	5.7
203.1064	5.9
205.1220	9.3
217.1220	9.3
218.1253	1.3
219.1374	2.2
231.1377	3.6
245.1533	3.8
424.2809	2.2
425.3076	1.7
425.3406	40.8
426.3442	12.5
427.3550	4.5

Name: Alprostadil
PrecursorMZ: 337.23683
RT: 4.8169
ExactMass: 354.24062418
Spectrum_type: 2
charge: 1
Formula: C20H34O5
SMILES: CCCCC[C@@H](/C=C/[C@H]1[C@@H](CC(=O)[C@@H]1CCCCCCC(=O)O)O)O
Method: HCD
Collision_energy: [28.333334]
Isolation_window: 4.0
Ion_mode: P
Num Peaks: 95
55.0547	16.0
57.0702	11.5
67.0546	27.7
69.0338	13.4
69.0702	55.4
69.5988	13.1
71.0858	12.7
79.0544	14.3
81.0701	66.8
83.0494	18.0
83.0857	50.0
85.0649	20.1
93.0700	49.2
95.0856	86.0
97.0649	36.0
97.1013	45.2
99.0805	12.9
100.0758	14.7
101.0597	17.1
105.0699	22.4
107.0856	71.0
109.0647	11.2
109.1012	52.7
111.0804	19.9
111.1169	12.5
119.0854	31.8
121.0647	21.0
121.1011	68.1
122.0600	14.0
123.0805	14.9
123.1167	25.5
125.0960	23.5
126.0912	25.0
133.1010	39.1
135.1167	54.8
136.0753	11.5
137.0959	12.4
138.0912	22.2
139.1116	12.6
143.0702	11.6
145.1010	22.6
147.0801	11.0
147.1168	22.0
149.0959	18.4
149.1321	23.2
150.0549	29.1
152.0704	15.7
159.1166	24.3
161.0960	14.7
161.1323	24.3
163.1115	49.0
163.1475	12.1
164.0704	66.0
173.1323	15.8
175.1117	19.5
175.1476	17.7
177.1272	20.1
181.1220	14.4
182.0809	44.0
185.1320	19.2
187.1474	11.1
189.1273	19.6
191.1425	14.1
195.1377	11.6
196.0964	50.6
203.1429	19.9
207.1377	13.9
209.1528	12.0
210.1120	13.5
221.1534	21.0
263.1998	13.4
272.1274	44.3
283.2050	25.2
289.1539	48.2
290.1378	15.1
291.2311	11.8
301.2154	99.9
302.1746	12.7
302.2187	22.2
307.1646	31.2
318.1323	11.7
319.2259	60.4
321.1073	13.7
335.2363	11.4
336.1225	14.7
336.1430	38.4
336.1799	12.2
337.1787	14.6
337.2157	10.9
337.2359	100.0
338.1223	14.7
338.1594	11.5
338.2398	14.4
338.3410	75.8
339.1945	21.0

Name: Amg-1
PrecursorMZ: 557.21961
RT: 6.4066
ExactMass: 338.224580195
Spectrum_type: 2
charge: 1
Formula: C23H30O2
SMILES: CCCCCC#CC1=CC(=C2[C@@H]3CC(=CC[C@H]3C(OC2=C1)(C)C)C)O
Method: HCD
Collision_energy: [28.333334]
Isolation_window: 4.0
Ion_mode: P
Num Peaks: 5
61.9136	5.2
176.8748	2.8
557.2191	100.0
558.2224	21.0
559.2199	6.0

Name: Amino adipic acid diethyl ester
PrecursorMZ: 218.13843
RT: 8.7197
ExactMass: 217.13140809
Spectrum_type: 2
charge: 1
Formula: C10H19NO4
SMILES: CCOC(=O)CCC[C@@H](C(=O)OCC)N
Method: HCD
Collision_energy: [28.333334]
Isolation_window: 4.0
Ion_mode: P
Num Peaks: 39
55.0546	3.8
56.0499	0.5
59.0495	1.3
69.6215	0.5
70.0654	0.7
83.0494	3.7
84.0810	0.5
87.0442	0.7
90.0551	0.6
98.0601	0.4
100.0757	7.7
101.0597	37.3
102.0631	1.7
112.0757	2.0
114.0549	0.5
118.0862	11.4
126.0912	1.6
138.0911	8.6
139.0946	0.5
140.1068	0.6
154.0860	2.3
154.1224	6.4
155.1259	0.6
160.0602	1.4
182.0811	0.6
182.1172	17.4
183.1206	1.9
200.1026	0.5
200.1278	0.6
217.1175	1.0
218.1019	1.8
218.1165	1.7
218.1382	100.0
218.1604	0.7
219.1129	0.7
219.1417	10.9
220.0965	0.5
220.1176	2.3
220.1432	0.5

Name: Amino(4-hydroxycyclohexyl)acetic acid
PrecursorMZ: 174.11238
RT: 5.4347
ExactMass: 173.10519334
Spectrum_type: 2
charge: 1
Formula: C8H15NO3
SMILES: C1CC(CCC1C(C(=O)O)N)O
Method: HCD
Collision_energy: [28.333334]
Isolation_window: 4.0
Ion_mode: P
Num Peaks: 36
60.0812	1.3
69.0339	1.0
70.0655	1.4
96.9953	1.5
98.0603	8.9
100.0759	4.1
116.0708	7.2
134.0811	1.1
138.0914	1.8
140.0816	1.2
141.0658	1.1
156.1020	8.4
158.0923	1.6
159.0764	0.7
165.0216	2.7
172.0963	0.9
174.1125	100.0
175.1162	8.7
176.1030	23.8
176.1283	1.0
177.1072	1.5
178.1074	1.5
178.1250	0.8
180.0812	5.8
180.1050	20.9
180.1215	1.1
181.1074	2.0
184.0602	0.9
186.0752	0.8
186.1119	1.9
187.1068	0.9
188.1279	0.8
190.1071	1.3
190.1432	1.5
192.1231	1.3
194.1177	1.8

Name: Aminoglutethimide
PrecursorMZ: 233.1282
RT: 1.1002
ExactMass: 232.121177757
Spectrum_type: 2
charge: 1
Formula: C13H16N2O2
SMILES: CCC1(CCC(=O)NC1=O)C2=CC=C(C=C2)N
Method: HCD
Collision_energy: [28.333334]
Isolation_window: 4.0
Ion_mode: P
Num Peaks: 32
69.1764	0.6
97.4569	0.7
100.0758	1.5
101.0599	0.3
142.0497	0.5
142.1224	1.3
146.0963	0.7
150.0913	2.8
162.0790	0.9
163.0865	2.0
163.1228	1.1
164.1068	1.9
173.1071	0.8
174.0912	3.6
175.0947	0.4
190.1098	2.3
191.1176	16.0
192.1017	5.5
192.1208	1.8
193.1053	0.6
204.0891	0.4
205.0965	0.4
205.1328	0.6
215.1174	1.8
218.1044	0.5
232.0963	0.3
233.1038	0.7
233.1280	100.0
233.1526	0.7
234.1316	13.3
234.1845	0.7
235.1336	0.7

Name: Aminoisobutyric acid
PrecursorMZ: 104.07081
RT: 9.1979
ExactMass: 103.06332853
Spectrum_type: 2
charge: 1
Formula: C4H9NO2
SMILES: CC(C)(C(=O)O)N
Method: HCD
Collision_energy: [28.333334]
Isolation_window: 4.0
Ion_mode: P
Num Peaks: 11
56.0500	53.2
58.0656	36.7
60.0812	17.9
62.9295	22.5
74.0968	16.1
87.0444	39.7
97.3993	18.6
102.1279	100.0
103.1312	14.6
104.0708	14.9
104.1072	47.8

Name: Amitriptyline
PrecursorMZ: 278.19009
RT: 2.3340500000000004
ExactMass: 277.183049738
Spectrum_type: 2
charge: 1
Formula: C20H23N
SMILES: CN(C)CCC=C1C2=CC=CC=C2CCC3=CC=CC=C31
Method: HCD
Collision_energy: [28.333334]
Isolation_window: 4.0
Ion_mode: P
Num Peaks: 11
84.0810	7.2
91.0543	23.3
105.0699	19.1
117.0699	17.8
155.0854	5.3
191.0852	9.2
233.1322	33.1
234.1356	6.7
278.1898	100.0
279.0929	10.3
279.1931	26.3

Name: Amorolfine hydrochloride
PrecursorMZ: 318.2787
RT: 5.671
ExactMass: 353.2485425
Spectrum_type: 2
charge: 1
Formula: C21H36ClNO
SMILES: CCC(C)(C)C1=CC=C(C=C1)CC(C)CN2C[C@H](O[C@H](C2)C)C.Cl
Method: HCD
Collision_energy: [28.333334]
Isolation_window: 4.0
Ion_mode: P
Num Peaks: 16
58.0655	11.4
72.0810	4.4
91.0543	38.5
183.1740	23.7
226.2160	17.4
316.3470	5.5
317.1108	4.8
317.1490	5.7
318.1321	9.9
318.2784	100.0
319.1335	6.0
319.1642	4.2
319.2818	19.4
320.1103	5.8
320.1472	5.6
320.2941	9.7

Name: Amoxapine
PrecursorMZ: 314.10554
RT: 6.6842
ExactMass: 313.0981898
Spectrum_type: 2
charge: 1
Formula: C17H16ClN3O
SMILES: C1CN(CCN1)C2=NC3=CC=CC=C3OC4=C2C=C(C=C4)Cl
Method: HCD
Collision_energy: [28.333334]
Isolation_window: 4.0
Ion_mode: P
Num Peaks: 88
55.0547	3.5
70.0656	1.8
81.0339	3.4
83.0495	3.0
84.0811	1.4
86.0604	1.6
87.0444	1.7
96.0446	2.2
100.0759	3.0
101.0600	22.3
105.0700	3.7
114.0664	3.9
118.0864	2.4
126.0551	3.1
126.0915	1.8
134.0602	1.4
140.1071	9.0
146.0923	1.6
150.0915	13.7
151.0950	1.5
158.1176	1.9
166.0322	6.4
168.1020	20.5
169.1054	1.5
178.0324	1.9
180.1025	2.1
196.0427	9.8
208.0968	2.0
214.0531	4.3
216.1018	1.8
218.1176	3.6
220.0968	2.0
224.0919	3.5
234.1124	3.0
236.0917	2.6
250.1075	1.8
252.1234	1.4
253.0767	4.1
253.1179	1.9
260.0918	1.6
261.1236	2.0
262.1074	4.5
266.0845	22.9
267.0876	4.1
267.1701	3.8
276.1426	1.4
277.1180	1.6
278.0848	1.6
278.1023	2.7
279.1342	1.9
280.1177	6.5
285.1807	4.3
294.1532	12.7
295.1284	2.5
295.1672	7.9
296.0954	15.6
296.1124	2.2
297.0963	2.0
297.1438	2.5
298.1283	12.5
312.1073	1.6
312.1434	2.5
312.1627	6.7
312.1962	4.7
313.1187	3.9
313.1391	11.9
313.1550	3.7
313.1759	28.6
313.1916	3.1
314.0759	1.4
314.1056	100.0
314.1216	6.2
314.1377	5.8
314.1714	18.2
314.1960	2.0
314.2308	1.8
315.1087	13.8
315.1346	6.7
315.1552	11.3
315.1712	5.2
315.1917	7.5
315.2268	3.7
316.1010	2.2
316.1185	9.6
316.1387	8.7
316.1540	3.8
316.1913	1.5
316.2117	1.4

Name: Amphetamine
PrecursorMZ: 136.11202
RT: 2.9183
ExactMass: 135.104799419
Spectrum_type: 2
charge: 1
Formula: C9H13N
SMILES: CC(CC1=CC=CC=C1)N
Method: HCD
Collision_energy: [28.333334]
Isolation_window: 4.0
Ion_mode: P
Num Peaks: 7
91.0545	100.0
92.0578	8.7
97.3977	2.1
136.0216	2.5
136.1120	15.9
137.0708	1.9
138.0913	3.5

Name: Anabasine
PrecursorMZ: 163.1228
RT: 9.5631
ExactMass: 162.115698455
Spectrum_type: 2
charge: 1
Formula: C10H14N2
SMILES: C1CCN[C@@H](C1)C2=CN=CC=C2
Method: HCD
Collision_energy: [28.333334]
Isolation_window: 4.0
Ion_mode: P
Num Peaks: 23
69.7440	2.9
84.0809	6.2
100.0243	4.5
105.0333	4.7
116.0705	3.9
120.0806	2.6
121.0884	23.2
146.0807	3.3
161.1069	5.8
162.0910	9.9
162.1105	3.0
162.1274	4.4
162.8991	2.5
163.0612	4.6
163.0864	2.7
163.1226	89.9
164.0524	6.2
164.0925	2.9
164.1066	100.0
164.1257	9.8
165.1024	5.0
165.1099	4.5
165.1382	2.9

Name: Anatoxin A
PrecursorMZ: 166.12265
RT: 10.0195
ExactMass: 165.115364102
Spectrum_type: 2
charge: 1
Formula: C10H15NO
SMILES: CC(=O)C1=CCC[C@@H]2CC[C@H]1N2
Method: HCD
Collision_energy: [28.333334]
Isolation_window: 4.0
Ion_mode: P
Num Peaks: 73
56.0499	1.3
67.0545	0.9
69.0703	1.3
70.0654	1.1
72.0811	7.4
74.0240	5.6
74.0602	0.9
75.0266	1.2
80.0498	4.3
81.0338	0.8
81.0701	0.9
83.0493	0.7
87.0443	1.5
91.0544	0.7
94.0652	0.8
95.0492	1.0
95.0605	4.9
95.0856	1.0
96.0446	2.1
98.0600	1.0
102.0550	1.1
107.0493	1.1
107.0730	1.6
107.0856	1.3
108.0444	0.9
108.0809	1.9
109.1011	0.8
119.0490	0.7
119.0527	1.4
119.0854	1.2
120.0808	11.0
121.0840	1.1
122.0599	1.1
123.0439	2.2
123.0917	0.9
124.0755	1.3
124.0870	0.6
126.0549	1.6
137.0789	1.4
137.0959	1.0
138.0548	5.6
138.0913	1.6
139.0864	0.8
140.0341	1.6
140.0704	0.7
147.0473	0.9
148.0967	0.7
149.0268	1.1
149.0710	1.0
150.0549	2.8
150.0912	1.3
156.0655	0.9
164.1068	1.3
165.0547	0.7
165.0658	1.2
165.0909	3.6
165.1021	4.9
165.1272	0.8
166.0494	1.5
166.0861	12.7
166.0976	1.1
166.1080	4.2
166.1225	100.0
167.0701	1.0
167.0814	3.7
167.0894	1.1
167.1178	7.9
167.1258	10.4
168.0290	1.9
168.0656	4.4
168.0766	5.4
168.1018	7.3
168.1128	2.1

Name: Ancitabine
PrecursorMZ: 226.0822
RT: 11.525
ExactMass: 225.07495584
Spectrum_type: 2
charge: 1
Formula: C9H11N3O4
SMILES: C1=CN2[C@H]3[C@H]([C@@H]([C@H](O3)CO)O)OC2=NC1=N
Method: HCD
Collision_energy: [28.333334]
Isolation_window: 4.0
Ion_mode: P
Num Peaks: 79
55.0546	1.2
60.0560	0.9
69.0703	2.6
70.0656	4.2
79.0546	1.5
83.0495	0.9
84.0811	5.6
85.0650	0.7
95.0858	0.8
96.0445	1.3
96.0810	16.8
97.0650	0.8
100.0758	0.7
101.0598	4.8
108.0445	2.3
110.0602	2.0
110.0715	2.3
112.0508	1.3
112.0871	0.7
113.1075	3.5
114.0915	15.2
115.0756	1.6
116.0708	2.1
125.0710	3.7
126.0549	9.6
130.0863	3.9
135.0554	1.6
139.0866	0.8
150.0662	1.0
150.0917	1.2
162.0663	1.5
162.1027	0.9
165.0546	1.1
167.0817	3.3
178.0612	72.9
179.0645	5.6
179.1180	0.9
180.1017	1.4
181.1337	1.1
182.0811	1.0
207.1129	1.2
208.0713	1.0
208.0968	1.8
209.1032	0.8
209.1285	22.4
209.1648	22.0
210.0762	0.8
210.1231	1.0
210.1320	2.5
210.1683	1.1
224.0921	1.8
224.1283	14.4
224.1393	1.3
225.0865	0.7
225.1233	5.9
225.1327	3.2
225.1598	6.3
226.0720	1.3
226.0822	67.9
226.1071	24.3
226.1180	1.2
226.1307	2.0
226.1438	12.0
226.1550	15.1
226.1795	0.7
227.0860	5.3
227.1108	2.4
227.1391	12.2
227.1506	2.2
227.1575	1.7
227.1671	1.5
227.1753	100.0
228.0867	3.2
228.1233	5.7
228.1342	1.2
228.1443	1.0
228.1593	0.7
228.1704	1.3
228.1794	6.0

Name: Androsin
PrecursorMZ: 351.10485
RT: 6.1861
ExactMass: 328.11581759
Spectrum_type: 2
charge: 1
Formula: C15H20O8
SMILES: CC(=O)C1=CC(=C(C=C1)O[C@H]2[C@@H]([C@H]([C@@H]([C@H](O2)CO)O)O)O)OC
Method: HCD
Collision_energy: [28.333334]
Isolation_window: 4.0
Ion_mode: P
Num Peaks: 16
101.0598	2.8
118.0863	3.3
136.0756	2.8
148.0757	3.4
166.0860	6.3
182.0810	2.7
194.0811	2.8
349.1721	3.6
350.1212	4.1
351.1047	100.0
351.1546	6.0
351.1880	3.3
352.1082	14.8
352.1385	2.9
353.1048	4.8
353.1674	5.5

Name: Androstane-3,17-diol
PrecursorMZ: 293.24736
RT: 1.0207
ExactMass: 292.240230259
Spectrum_type: 2
charge: 1
Formula: C19H32O2
SMILES: C[C@]12CCC(CC1CC[C@@H]3[C@@H]2CC[C@]4([C@H]3CCC4O)C)O
Method: HCD
Collision_energy: [28.333334]
Isolation_window: 4.0
Ion_mode: P
Num Peaks: 46
55.0547	6.5
57.0704	7.7
67.0546	71.0
69.0703	22.7
79.0546	11.3
81.0702	100.0
83.0858	15.2
85.0651	7.2
91.0545	6.9
93.0701	21.5
95.0494	7.1
95.0857	97.5
96.0892	7.4
97.1014	5.9
105.0701	6.5
107.0857	18.0
109.1013	52.6
113.0598	41.0
115.0755	6.9
119.0856	10.6
121.1013	17.5
123.0806	7.1
123.1169	33.6
131.0856	6.7
133.1012	11.4
135.1169	17.9
137.1325	17.1
145.1013	6.4
147.1167	9.8
149.1325	12.5
151.1119	13.4
151.1481	9.4
159.1167	8.5
161.1327	6.5
163.1481	6.6
173.1324	9.3
177.1270	7.4
191.1430	5.8
237.0757	5.6
243.2105	8.5
261.2212	12.9
293.2111	19.4
293.2473	39.0
294.2512	8.1
294.2783	7.6
295.2629	15.9

Name: Aniline
PrecursorMZ: 94.0654
RT: 8.1392
ExactMass: 93.057849228
Spectrum_type: 2
charge: 1
Formula: C6H7N
SMILES: C1=CC=C(C=C1)N
Method: HCD
Collision_energy: [28.333334]
Isolation_window: 4.0
Ion_mode: P
Num Peaks: 6
58.0656	2.2
59.0735	1.2
67.0548	1.0
94.0655	100.0
95.0688	7.1
96.0448	3.3

Name: Anisodamine
PrecursorMZ: 328.14978
RT: 5.9097
ExactMass: 305.16270821
Spectrum_type: 2
charge: 1
Formula: C17H23NO4
SMILES: CN1[C@H]2C[C@@H](C[C@@H]1[C@H](C2)O)OC(=O)[C@H](CO)C3=CC=CC=C3
Method: HCD
Collision_energy: [28.333334]
Isolation_window: 4.0
Ion_mode: P
Num Peaks: 21
55.0546	3.2
70.0654	4.2
81.0337	5.1
83.0494	16.5
100.0758	3.3
114.0662	4.4
129.0545	8.9
200.1027	73.0
201.1064	4.8
268.1285	6.9
310.1393	9.2
326.1757	3.2
326.1958	8.6
327.1348	4.1
327.1545	4.1
327.1915	3.5
328.1500	100.0
329.1525	19.2
329.1706	7.2
329.2065	4.0
330.1326	3.5

Name: Anserine
PrecursorMZ: 241.1292
RT: 9.8956
ExactMass: 240.12224039
Spectrum_type: 2
charge: 1
Formula: C10H16N4O3
SMILES: CN1C=NC=C1C[C@@H](C(=O)O)NC(=O)CCN
Method: HCD
Collision_energy: [28.333334]
Isolation_window: 4.0
Ion_mode: P
Num Peaks: 29
95.0605	2.6
96.0683	3.7
97.0762	1.9
97.3996	1.3
109.0761	33.2
110.0795	1.8
114.0915	2.4
124.0869	3.6
126.1026	15.1
150.1026	4.5
153.0658	9.3
168.1131	6.3
170.0923	30.9
171.0956	1.9
179.1290	2.2
180.1131	6.0
194.0811	2.6
194.0919	2.1
196.1078	2.1
197.1395	8.7
212.1028	3.5
224.1027	8.3
240.0865	8.3
240.1229	4.8
241.1191	3.0
241.1292	100.0
241.1543	4.1
242.1022	4.2
242.1325	9.2

Name: Anserine pyruvate (known isomers: 0; isobaric peaks in run: 2)
PrecursorMZ: 313.15006
RT: 8.662
Spectrum_type: 2
charge: 1
SMILES: CC(NCCC(=O)N[C@@H](Cc1cncn1C)C(=O)O)C(=O)O
Method: HCD
Collision_energy: [28.333334]
Isolation_window: 4.0
Ion_mode: P
Num Peaks: 42
70.0655	3.7
84.0446	5.5
84.0810	2.4
87.0442	2.5
96.0682	2.7
101.0598	5.1
102.0550	11.7
109.0760	22.6
124.0868	3.2
126.1024	5.9
130.0863	3.1
153.0656	5.2
168.1129	9.0
170.0922	20.9
180.1128	4.2
194.0920	3.1
209.1396	2.5
212.1025	18.7
213.1230	4.4
224.1025	17.9
241.1290	12.6
253.1290	12.2
267.1448	7.1
295.1400	2.6
311.1582	4.3
312.1078	4.0
312.1254	3.0
312.1414	5.7
312.1621	4.8
312.1804	4.2
313.1021	9.4
313.1201	3.3
313.1501	100.0
313.1750	39.2
314.1030	2.5
314.1223	10.8
314.1367	2.6
314.1535	11.2
314.1740	7.3
315.1296	9.0
315.1543	2.8
315.1707	3.5

Name: Anthraquinone
PrecursorMZ: 209.05944
RT: 1.0634
ExactMass: 208.052429494
Spectrum_type: 2
charge: 1
Formula: C14H8O2
SMILES: C1=CC=C2C(=C1)C(=O)C3=CC=CC=C3C2=O
Method: HCD
Collision_energy: [28.333334]
Isolation_window: 4.0
Ion_mode: P
Num Peaks: 12
152.0616	0.5
153.0696	3.8
154.0728	0.5
181.0644	0.6
209.0385	0.7
209.0427	0.4
209.0592	100.0
209.0758	0.5
209.0798	0.9
210.0625	14.2
210.0789	0.7
211.0654	0.6

Name: Anticopalic acid
PrecursorMZ: 327.22915
RT: 1.0545666666666667
ExactMass: 304.240230259
Spectrum_type: 2
charge: 1
Formula: C20H32O2
SMILES: C/C(=C\C(=O)O)/CC[C@H]1C(=C)CCC2[C@@]1(CCCC2(C)C)C
Method: HCD
Collision_energy: [28.333334]
Isolation_window: 4.0
Ion_mode: P
Num Peaks: 5
98.9843	98.6
174.9922	18.6
326.2744	22.5
327.2292	100.0
328.2323	16.4

Name: Anwulignan
PrecursorMZ: 329.17453
RT: 5.4243
ExactMass: 328.16745924
Spectrum_type: 2
charge: 1
Formula: C20H24O4
SMILES: CC(CC1=CC2=C(C=C1)OCO2)C(C)CC3=CC(=C(C=C3)O)OC
Method: HCD
Collision_energy: [28.333334]
Isolation_window: 4.0
Ion_mode: P
Num Peaks: 55
57.0704	4.5
59.0608	1.8
67.0547	1.9
69.0703	1.8
71.0859	4.5
81.0703	4.9
83.0859	2.7
85.1015	3.2
91.0546	1.5
93.0702	1.6
95.0494	1.4
95.0858	5.6
105.0701	1.7
109.1013	3.1
114.0916	3.1
119.0858	1.5
121.1013	1.4
123.0442	2.9
123.1169	1.6
131.0857	1.6
137.0597	4.3
145.1012	1.5
146.0600	1.4
147.0441	4.1
147.0805	1.3
157.1012	1.5
161.0598	2.0
181.0608	1.6
213.0911	2.5
233.0961	1.5
235.1121	1.7
237.1273	3.2
238.1799	2.2
239.2369	2.9
249.1274	2.4
251.1070	1.9
253.1225	1.6
255.1377	1.3
265.1219	1.6
267.1379	1.4
275.1430	2.5
293.1534	5.7
311.1639	2.2
313.2736	7.3
328.1382	1.3
328.3205	2.1
328.3570	1.4
329.1475	11.7
329.1745	100.0
329.2081	1.6
330.1514	2.0
330.1780	21.4
331.1634	1.9
331.1827	1.8
331.2266	1.5

Name: Apafant
PrecursorMZ: 456.12591
RT: 1.7229
ExactMass: 455.1182738
Spectrum_type: 2
charge: 1
Formula: C22H22ClN5O2S
SMILES: CC1=NN=C2N1C3=C(C=C(S3)CCC(=O)N4CCOCC4)C(=NC2)C5=CC=CC=C5Cl
Method: HCD
Collision_energy: [28.333334]
Isolation_window: 4.0
Ion_mode: P
Num Peaks: 24
50.6788	1.5
50.6814	5.2
50.7929	1.1
70.0656	1.6
84.0812	1.4
89.0600	1.7
111.0442	1.3
166.0859	1.6
214.1196	1.8
216.1341	1.3
230.1498	2.1
258.1448	4.0
456.1263	100.0
457.1292	20.0
457.1833	0.9
458.1256	11.1
459.1307	1.6
460.1754	1.4
462.2009	1.3
464.2059	1.2
467.2104	1.0
468.1859	1.8
470.2083	1.1
471.2028	1.1

Name: Apicidin B 120250
PrecursorMZ: 610.35957
RT: 5.208
ExactMass: 609.35263424
Spectrum_type: 2
charge: 1
Formula: C33H47N5O6
SMILES: CC[C@H](C)[C@H]1C(=O)N2CCC[C@@H]2C(=O)N[C@H](C(=O)N[C@H](C(=O)N1)CC3=CN(C4=CC=CC=C43)OC)CCCCCC(=O)CC
Method: HCD
Collision_energy: [28.333334]
Isolation_window: 4.0
Ion_mode: P
Num Peaks: 35
67.8160	1.4
67.8181	5.5
67.9295	1.6
83.0857	1.4
108.0808	10.7
126.0913	6.2
150.0912	10.9
168.1017	49.9
169.1051	4.1
176.8753	2.0
180.1014	1.6
233.1644	2.1
258.1596	2.8
275.1751	3.7
291.1697	2.5
293.1853	5.3
301.1539	3.7
303.1702	1.5
317.1489	2.8
318.1523	1.1
319.1646	10.8
343.1646	4.3
344.1722	8.8
345.1786	1.2
466.2331	1.3
467.2656	1.8
468.2481	10.4
484.2408	1.8
485.2753	6.9
486.2806	1.1
593.3321	8.1
609.3276	2.8
610.3592	100.0
611.3636	32.9
612.3629	1.2

Name: Aplysiapalythine A
PrecursorMZ: 303.15458
RT: 12.2784
ExactMass: 303.15561146
Spectrum_type: 2
charge: 1
Formula: C13H23N2O6+
SMILES: CC(CNC1=C(C(=[NH+]CC(=O)O)C[C@](C1)(CO)O)OC)O
Method: HCD
Collision_energy: [28.333334]
Isolation_window: 4.0
Ion_mode: P
Num Peaks: 10
123.0920	3.9
158.0816	1.2
176.8756	1.3
195.1128	1.0
213.1235	41.1
214.1271	4.5
285.1470	1.4
303.1553	100.0
304.1584	15.7
305.1600	2.4

Name: Aplysiapalythine B
PrecursorMZ: 273.14409
RT: 11.1162
ExactMass: 273.14504677
Spectrum_type: 2
charge: 1
Formula: C12H21N2O5+
SMILES: CCNC1=C(C(=[NH+]CC(=O)O)C[C@](C1)(CO)O)OC
Method: HCD
Collision_energy: [28.333334]
Isolation_window: 4.0
Ion_mode: P
Num Peaks: 15
123.0918	2.7
128.0705	1.0
183.1128	25.2
184.1163	2.4
213.1232	19.0
214.1271	1.8
244.0970	1.2
255.1339	1.3
270.0758	1.0
273.1443	100.0
274.1080	1.0
274.1476	14.2
275.1497	2.2
286.1297	1.1
288.0865	2.2

Name: Arachidonoyl Thio-PC
PrecursorMZ: 784.58315
RT: 1.7542
ExactMass: 783.56004751
Spectrum_type: 2
charge: 1
Formula: C44H82NO6PS
SMILES: CCCCCCCCCCCCCCCCOC[C@H](COP(=O)([O-])OCC[N+](C)(C)C)SC(=O)CCC/C=C\C/C=C\C/C=C\C/C=C\CCCCC
Method: HCD
Collision_energy: [28.333334]
Isolation_window: 4.0
Ion_mode: P
Num Peaks: 41
58.0654	0.3
60.0812	3.0
67.0545	0.1
69.2371	0.3
71.0732	0.6
81.0701	0.2
86.0966	12.4
87.0999	0.6
87.1767	0.2
87.4007	0.1
95.0857	0.2
97.4564	0.2
98.9841	0.3
104.1070	1.1
109.1011	0.2
124.9997	6.1
126.0218	0.2
135.1168	0.1
183.9893	0.2
184.0464	0.2
184.0511	0.3
184.0562	0.8
184.0601	0.8
184.0664	1.6
184.0730	100.0
184.0903	0.6
184.0952	0.2
184.1523	0.2
185.0764	4.4
186.0773	0.5
201.1635	0.1
339.2888	0.3
357.2780	0.5
358.2813	0.2
464.2818	0.5
465.2855	0.3
782.5682	0.6
783.5711	1.4
784.5826	5.2
785.5862	2.3
786.5982	3.4

Name: Arachidonoyl carnitine
PrecursorMZ: 448.34117
RT: 4.1481
ExactMass: 447.33485892
Spectrum_type: 2
charge: 1
Formula: C27H45NO4
SMILES: CCCCC/C=C\C/C=C\C/C=C\C/C=C\CCCC(=O)C(CC(=O)[O-])(C[N+](C)(C)C)O
Method: HCD
Collision_energy: [28.333334]
Isolation_window: 4.0
Ion_mode: P
Num Peaks: 10
97.4582	2.3
100.0756	3.4
128.0703	8.1
161.1320	2.6
273.2204	3.9
430.3301	100.0
431.3336	28.6
432.3361	3.2
448.3406	11.4
449.3448	4.0

Name: Arachidonoylcarnitine
PrecursorMZ: 448.34169
RT: 1.5991
ExactMass: 447.33485892
Spectrum_type: 2
charge: 1
Formula: C27H45NO4
SMILES: CCCCC/C=C\C/C=C\C/C=C\C/C=C\CCCC(=O)O[C@H](CC(=O)[O-])C[N+](C)(C)C
Method: HCD
Collision_energy: [28.333334]
Isolation_window: 4.0
Ion_mode: P
Num Peaks: 15
69.8912	1.6
100.0757	4.8
128.0705	17.0
140.1070	1.7
161.1324	3.0
255.2104	2.1
273.2208	4.2
428.3153	6.6
429.3188	9.0
430.3307	100.0
431.3342	30.0
432.3372	3.3
446.3980	2.3
448.3415	8.9
449.3432	2.8

Name: Arborinine
PrecursorMZ: 286.10728
RT: 1.5268
ExactMass: 285.10010796
Spectrum_type: 2
charge: 1
Formula: C16H15NO4
SMILES: CN1C2=CC=CC=C2C(=O)C3=C(C(=C(C=C31)OC)OC)O
Method: HCD
Collision_energy: [28.333334]
Isolation_window: 4.0
Ion_mode: P
Num Peaks: 9
181.0649	9.7
198.0913	100.0
199.0947	16.3
226.0862	55.2
227.0896	6.0
254.0816	4.9
258.1124	88.9
259.1157	13.3
286.1072	8.6

Name: Arecoline
PrecursorMZ: 156.10192
RT: 2.3637
ExactMass: 155.094628657
Spectrum_type: 2
charge: 1
Formula: C8H13NO2
SMILES: CN1CCC=C(C1)C(=O)OC
Method: HCD
Collision_energy: [28.333334]
Isolation_window: 4.0
Ion_mode: P
Num Peaks: 20
55.0546	2.1
58.0655	1.7
67.0546	2.5
69.0702	17.8
82.0653	2.1
83.0857	1.5
93.0700	4.3
95.0856	14.7
97.0649	12.0
98.0965	4.4
110.0600	6.5
110.0964	7.6
111.0804	4.4
126.0913	9.3
128.1069	2.6
138.0912	15.2
139.0752	6.9
156.1018	100.0
157.1051	8.5
158.1173	3.7

Name: Arenamide A
PrecursorMZ: 694.42064
RT: 5.2259
ExactMass: 671.42579917
Spectrum_type: 2
charge: 1
Formula: C36H57N5O7
SMILES: CCCCCC[C@H](C)[C@@H]1CC(=O)NCC(=O)N[C@H](C(=O)N[C@H](C(=O)N[C@H](C(=O)N[C@H](C(=O)O1)CC2=CC=CC=C2)C)CC(C)C)C(C)C
Method: HCD
Collision_energy: [28.333334]
Isolation_window: 4.0
Ion_mode: P
Num Peaks: 158
97.0648	0.9
97.4553	1.0
97.4579	0.8
99.0440	5.3
107.0703	1.3
109.0283	1.4
109.0647	2.2
110.0712	1.8
111.0439	11.3
113.0596	7.3
117.0544	0.7
117.0908	2.7
119.0490	1.0
121.0645	0.9
125.0594	1.7
127.0750	0.8
129.0543	1.2
131.0700	6.8
133.0856	100.0
134.0889	6.1
137.0594	7.8
138.0627	0.8
139.0749	1.8
151.0962	3.1
153.0543	1.4
155.0700	8.1
156.0735	0.7
157.0857	1.9
164.0701	2.7
175.0961	4.6
177.1117	29.4
178.1150	2.5
181.0855	1.3
182.0807	7.2
195.1222	7.7
199.0959	4.3
201.1113	1.4
219.1222	1.8
221.1376	5.1
223.1536	0.7
225.1112	1.0
228.1272	1.2
239.1482	10.2
240.1516	1.0
243.1220	4.4
244.1259	0.6
245.1380	0.8
250.1404	1.2
256.1750	1.2
265.1639	1.8
269.1376	1.4
272.1534	1.4
283.1742	10.6
284.1774	1.4
287.1481	5.0
288.1509	0.9
294.1660	1.7
300.2004	1.4
301.1170	1.7
307.1646	0.8
307.1739	0.8
309.1895	1.3
313.1639	1.0
316.1790	1.5
316.6820	0.7
319.1274	1.3
325.1745	1.4
327.2002	7.5
328.2033	1.1
331.1739	4.8
332.1782	1.0
337.1381	1.0
338.1923	1.7
344.2268	1.8
359.1566	0.8
360.2053	1.4
371.2264	5.5
372.2302	1.2
375.2000	4.2
376.2045	0.8
382.2190	1.1
388.2530	1.4
404.2321	1.1
415.2524	4.5
416.2558	0.9
419.2263	3.7
420.2296	0.8
426.2445	0.9
432.2790	1.4
459.2784	3.4
463.2523	2.4
476.3050	1.6
492.2833	1.0
503.3048	1.9
507.2782	2.0
514.2958	0.6
520.3320	1.6
536.3099	0.8
544.8244	0.9
547.3311	1.2
551.3044	1.3
558.3230	0.8
564.3566	1.0
566.8355	0.8
580.3370	0.8
580.8382	0.9
588.8508	0.6
589.3448	0.8
595.3315	0.8
602.3481	0.9
611.3583	1.1
633.3674	2.5
633.8697	1.2
634.3702	0.7
641.8797	0.9
655.3809	2.8
655.8821	2.1
663.8938	1.1
664.3956	0.9
677.3934	28.7
677.8952	18.5
678.3964	8.2
678.8976	2.5
679.4060	1.5
685.9067	21.4
686.4084	15.4
686.9097	5.7
687.4111	1.8
693.3356	3.4
693.8375	2.5
694.3361	2.2
694.4200	1.8
694.9211	1.3
695.4219	1.0
696.4372	2.2
719.4039	0.7
807.4569	0.8
868.5059	0.8
1001.5712	1.1
1045.5978	1.7
1046.5977	0.9
1089.6243	2.2
1090.6262	1.4
1106.6501	1.4
1133.6501	2.7
1134.6521	1.2
1150.6766	1.9
1151.6791	1.2
1177.6752	1.7
1178.6772	1.1
1194.7051	1.6
1195.7025	0.9
1221.7019	1.1
1222.7032	0.9
1238.7267	1.2
1239.7340	0.8
1347.7074	1.3
1348.7134	0.9

Name: Arg-C5:0
PrecursorMZ: 259.17644
RT: 7.501175
Spectrum_type: 2
charge: 1
SMILES: CCCCC(NC(C(O)=O)CCCNC(N)=N)=O
Method: HCD
Collision_energy: [28.333334]
Isolation_window: 4.0
Ion_mode: P
Num Peaks: 30
60.0562	2.9
70.0656	9.4
72.0812	2.4
85.0652	1.8
102.0917	1.9
112.0873	5.0
113.0713	3.4
114.1028	3.3
115.0869	9.0
116.0709	9.6
130.0973	1.6
156.1384	2.0
158.0927	24.0
159.0971	1.6
175.1192	20.3
199.1443	4.9
200.1283	14.1
201.1328	1.6
241.1656	1.7
242.1500	13.1
243.1522	1.7
258.1354	1.9
259.1766	100.0
260.1794	12.1
261.1808	1.7
263.1027	1.6
268.1177	2.6
269.0595	3.3
273.1451	1.8
275.1964	3.2

Name: Arg-Ile
PrecursorMZ: 288.20284
RT: 3.682
ExactMass: 287.19573968
Spectrum_type: 2
charge: 1
Formula: C12H25N5O3
SMILES: CC[C@H](C)[C@@H](C(=O)O)NC(=O)[C@H](CCCN=C(N)N)N
Method: HCD
Collision_energy: [28.333334]
Isolation_window: 4.0
Ion_mode: P
Num Peaks: 24
60.0562	12.3
70.0656	40.6
84.0812	1.9
86.0969	3.1
112.0873	8.0
115.0867	1.6
116.0709	1.9
122.0813	2.5
132.0445	1.8
140.0821	2.0
157.1088	3.0
158.0929	2.8
168.0690	2.1
175.1192	32.7
176.1237	1.9
225.1714	2.1
228.1707	3.7
229.1547	6.9
271.1766	13.2
272.1795	2.1
288.2032	100.0
289.2063	13.4
295.1658	2.6
304.1533	2.8

Name: Arginine 5-(Hydroxymethyl)furfural (known isomers: 1; isobaric peaks in run: 1)
PrecursorMZ: 285.15511
RT: 9.4614
Spectrum_type: 2
charge: 1
SMILES: N=C(NCCCC(N)C(=O)O)NCc1ccc(CO)o1
Method: HCD
Collision_energy: [28.333334]
Isolation_window: 4.0
Ion_mode: P
Num Peaks: 19
60.0560	15.8
70.0654	25.4
83.0494	17.1
84.0810	33.4
111.0440	100.0
116.0706	18.2
157.0970	16.0
164.1068	16.9
175.1186	76.2
225.1589	14.7
241.1541	20.2
284.1971	33.8
284.2324	27.7
285.1226	69.1
285.1559	70.1
285.1798	55.0
286.1264	14.0
286.1753	69.4
287.1384	40.7

Name: Arginine(2-Hydroxypropanal (known isomers: 1; isobaric peaks in run: 0)
PrecursorMZ: 233.16079
RT: 7.5584
Spectrum_type: 2
charge: 1
SMILES: CC(O)CNC(=N)NCCCC(N)C(=O)O
Method: HCD
Collision_energy: [28.333334]
Isolation_window: 4.0
Ion_mode: P
Num Peaks: 34
59.0497	2.1
60.0561	5.6
70.0656	3.3
84.0811	1.7
89.0601	4.6
105.0340	1.7
112.0870	2.4
112.1123	2.0
114.1028	3.4
122.0815	1.8
128.1072	5.7
130.0976	2.9
130.1226	3.3
133.0861	1.6
156.1024	3.1
158.0928	3.3
163.0760	1.7
164.0736	2.2
174.1126	9.3
210.0792	1.4
216.1352	1.3
226.1807	2.4
232.0618	1.4
232.1546	1.5
233.1611	21.8
234.1650	2.3
238.1096	2.8
239.1061	4.3
240.1232	100.0
241.1266	13.4
242.1404	2.6
246.2064	1.7
247.1648	3.7
248.0354	4.1

Name: Arginine(hydroxyacetone (known isomers: 1; isobaric peaks in run: 1)
PrecursorMZ: 233.1604
RT: 7.234
Spectrum_type: 2
charge: 1
SMILES: CC(CO)NC(CCCNC(=N)N)C(=O)O
Method: HCD
Collision_energy: [28.333334]
Isolation_window: 4.0
Ion_mode: P
Num Peaks: 42
58.0656	2.7
59.0496	3.8
60.0561	26.5
70.0655	23.5
72.0812	10.5
84.0810	5.0
89.0600	11.9
98.9843	4.6
110.0964	2.6
112.0871	18.2
112.1123	11.7
114.1028	17.0
116.0707	3.8
128.0823	4.8
128.1070	27.9
130.0867	2.8
130.0978	12.4
130.1227	16.4
133.0857	4.3
156.1019	14.0
158.0924	14.2
172.0971	2.3
174.1125	43.1
175.1164	3.7
187.1557	2.3
210.0795	2.4
215.1505	6.4
216.1228	5.5
216.1369	3.3
229.1542	3.5
232.0610	7.2
233.1613	100.0
234.1331	3.2
234.1651	10.0
238.1073	47.6
239.1071	22.6
243.1339	2.3
246.1378	3.8
246.1566	4.2
246.1819	19.7
247.1832	2.2
248.0355	11.6

Name: Arginine, ethyl ester
PrecursorMZ: 203.15007
RT: 12.4228
ExactMass: 202.14297583
Spectrum_type: 2
charge: 1
Formula: C8H18N4O2
SMILES: CCOC(=O)[C@H](CCCN=C(N)N)N
Method: HCD
Collision_energy: [28.333334]
Isolation_window: 4.0
Ion_mode: P
Num Peaks: 15
84.0811	23.6
126.0914	9.0
127.0867	18.2
143.1178	16.0
144.1019	42.6
169.0970	51.1
201.1594	9.4
202.1084	19.8
202.1438	12.1
202.1798	9.3
203.1182	13.0
203.1500	100.0
204.1016	15.8
204.1229	19.5
204.1339	10.1

Name: Arginyl-Asparagine
PrecursorMZ: 289.15003
RT: 8.874
ExactMass: 288.15460314
Spectrum_type: 2
charge: 1
Formula: C10H20N6O4
SMILES: C(C[C@@H](C(=O)N[C@@H](CC(=O)N)C(=O)O)N)CN=C(N)N
Method: HCD
Collision_energy: [28.333334]
Isolation_window: 4.0
Ion_mode: P
Num Peaks: 30
60.0561	2.7
70.0655	24.4
84.0811	1.4
112.0872	5.3
114.0664	14.5
116.0708	15.8
128.0706	1.5
130.0975	3.5
140.0819	7.3
158.0926	5.7
166.0976	6.6
174.0873	18.6
175.0911	1.4
175.1189	9.6
184.1082	2.3
212.1030	2.7
225.1228	1.5
226.1187	4.7
229.1295	18.7
230.1331	2.1
241.1294	2.8
244.1290	4.6
271.1399	3.7
274.1401	2.2
289.1504	100.0
290.1544	14.2
291.1554	2.3
292.1500	9.6
294.1669	3.6
303.1663	6.9

Name: Arnicolide D
PrecursorMZ: 355.14913
RT: 9.5991
ExactMass: 332.16237386
Spectrum_type: 2
charge: 1
Formula: C19H24O5
SMILES: C[C@@H]1C[C@@H]2[C@@H]([C@@H](C(=O)O2)C)[C@@H]([C@]3([C@H]1C=CC3=O)C)OC(=O)C(=C)C
Method: HCD
Collision_energy: [28.333334]
Isolation_window: 4.0
Ion_mode: P
Num Peaks: 9
87.0441	3.8
218.1042	8.2
223.1069	3.4
269.1125	4.1
354.1518	3.2
355.1486	100.0
355.1851	3.8
356.1523	17.2
357.1643	3.5

Name: Asarone
PrecursorMZ: 231.09908
RT: 1.541575
ExactMass: 208.109944368
Spectrum_type: 2
charge: 1
Formula: C12H16O3
SMILES: C/C=C/C1=CC(=C(C=C1OC)OC)OC
Method: HCD
Collision_energy: [28.333334]
Isolation_window: 4.0
Ion_mode: P
Num Peaks: 4
86.0968	18.6
231.0990	100.0
231.1200	25.4
231.1490	23.6

Name: Asn-Phe
PrecursorMZ: 280.12892
RT: 5.7032
ExactMass: 279.12190603
Spectrum_type: 2
charge: 1
Formula: C13H17N3O4
SMILES: C1=CC=C(C=C1)C[C@@H](C(=O)O)NC(=O)[C@H](CC(=O)N)N
Method: HCD
Collision_energy: [28.333334]
Isolation_window: 4.0
Ion_mode: P
Num Peaks: 58
70.0655	1.6
72.0812	3.6
81.0338	1.8
84.0810	2.2
86.0967	3.5
87.0555	4.3
91.0544	1.9
101.0599	1.6
110.0714	1.6
120.0808	100.0
121.0648	1.5
121.0842	8.3
133.0607	32.6
134.0599	1.9
136.0756	23.7
137.0790	1.5
143.0703	1.5
152.0706	1.7
161.0708	2.1
163.0865	3.9
166.0723	4.8
166.0862	2.9
175.0865	4.3
179.0814	3.3
181.0968	2.5
200.0705	5.8
217.0966	1.5
219.0565	2.1
221.0918	3.9
237.1025	2.7
246.0760	4.5
261.0535	2.6
261.1230	2.0
262.1065	1.7
262.1187	1.6
263.1022	14.3
264.1224	2.2
278.1249	3.0
278.1379	2.2
279.0641	10.5
279.0930	8.4
279.1333	7.0
279.1685	2.2
280.0951	1.9
280.1167	6.1
280.1291	11.5
280.1514	3.0
280.1654	1.5
280.1893	2.3
281.0913	11.8
281.1131	4.3
281.1298	2.3
281.1485	7.9
281.1848	2.9
282.0961	2.7
282.1317	3.7
282.1445	2.8
282.1807	3.7

Name: Asolectin
PrecursorMZ: 758.56861
RT: 3.0056
ExactMass: 757.56215551
Spectrum_type: 2
charge: 1
Formula: C42H80NO8P
SMILES: CCCCCCCCCCCCCCCC(=O)OC[C@H](COP(=O)([O-])OCC[N+](C)(C)C)OC(=O)CCCCCCC/C=C\C/C=C\CCCCC
Method: HCD
Collision_energy: [28.333334]
Isolation_window: 4.0
Ion_mode: P
Num Peaks: 10
60.0812	2.3
86.0966	13.1
124.9998	5.2
162.9559	1.0
184.0731	100.0
185.0765	4.3
757.5551	0.9
758.5067	1.8
758.5678	9.5
759.5709	4.0

Name: Asp-Leu
PrecursorMZ: 247.12833
RT: 7.1039
ExactMass: 246.12157168
Spectrum_type: 2
charge: 1
Formula: C10H18N2O5
SMILES: CC(C)C[C@@H](C(=O)O)NC(=O)[C@H](CC(=O)O)N
Method: HCD
Collision_energy: [28.333334]
Isolation_window: 4.0
Ion_mode: P
Num Peaks: 166
55.0545	1.8
56.0498	3.4
60.0447	2.0
69.0337	1.5
69.0701	4.1
69.5383	1.9
69.8490	1.5
70.0289	1.9
70.0653	9.2
70.0713	1.2
71.0494	1.5
72.0810	100.0
73.0843	4.4
74.0602	5.6
81.0336	6.0
83.0493	1.5
83.0605	1.9
84.0445	16.0
84.0809	8.3
85.0285	3.3
85.0648	1.8
86.0601	6.4
86.0965	72.2
87.0441	2.2
87.0999	4.2
88.0394	5.4
90.0550	3.3
90.0914	2.0
96.0444	1.7
97.0284	2.9
97.4569	1.4
98.0600	2.9
98.0964	3.9
98.9841	25.5
99.0440	1.6
100.0392	1.6
100.0756	3.4
101.0596	2.3
101.0709	1.3
102.0549	5.8
104.0705	1.9
109.0283	2.5
110.0599	2.7
111.0440	1.6
112.0756	4.2
114.0548	2.7
115.0863	1.2
116.0704	3.9
118.0861	13.8
120.0653	4.2
123.0676	2.0
124.0755	1.9
125.0231	1.2
126.0547	2.0
127.0389	1.3
128.0703	5.3
129.1020	1.4
130.0496	14.4
130.0859	9.5
132.1016	4.6
136.0754	1.2
138.0546	1.8
138.0910	2.0
139.0863	2.1
140.0703	2.1
141.1018	2.0
142.0495	3.6
142.0859	3.6
144.0652	1.7
144.0804	1.8
144.1016	5.0
147.0760	4.4
148.0600	32.3
149.0638	1.5
150.0547	1.5
151.0624	6.5
152.0704	2.3
154.0861	1.6
155.0812	1.3
156.0652	2.8
156.0804	1.9
156.1016	1.8
158.0444	2.2
158.0809	1.9
158.0961	3.6
159.0759	3.2
162.0753	1.3
164.0703	2.0
165.1146	1.4
166.0859	2.6
168.0651	5.8
170.0807	2.9
172.0605	1.3
172.0752	3.0
173.0205	10.7
180.0847	1.2
182.0807	3.2
183.1123	21.1
184.0599	3.1
184.0963	4.6
184.1156	2.3
186.0755	2.2
186.0911	2.9
186.1231	1.6
187.1072	1.5
188.0701	2.1
188.0912	4.9
194.0806	4.9
199.1267	1.3
200.0912	4.9
200.1275	3.0
201.1227	5.8
202.0706	2.3
202.0861	1.4
202.1066	5.8
202.1429	2.6
205.0816	2.4
210.0755	1.9
211.1070	2.1
212.0912	3.6
213.0862	1.4
214.0856	3.3
228.0863	3.4
228.1059	1.6
228.1223	3.4
229.0816	1.3
229.1174	12.3
230.0806	1.5
230.1018	5.3
230.1132	4.3
230.1207	1.3
230.1379	20.7
231.0963	3.2
231.1125	2.1
231.1415	1.7
232.0960	6.8
245.1126	2.5
245.1293	0.9
245.1487	2.0
246.0761	4.1
246.0966	6.3
246.1118	11.3
246.1331	10.7
246.1473	5.5
246.1690	1.2
247.0573	1.7
247.0920	2.8
247.1068	7.1
247.1167	1.3
247.1284	13.2
247.1436	19.5
247.1791	3.2
248.0770	6.8
248.0911	23.1
248.0999	1.4
248.1024	3.1
248.1123	19.3
248.1233	6.3
248.1268	9.4
248.1390	57.3
248.1487	13.1
248.1639	1.7
249.0853	4.2
249.1226	6.7
249.1421	4.6
249.1589	3.9

Name: Asparagine butyl ester
PrecursorMZ: 189.13459
RT: 13.619233333333334
ExactMass: 188.11609238
Spectrum_type: 2
charge: 1
Formula: C8H16N2O3
SMILES: CCCCOC(=O)C(CC(=O)N)N
Method: HCD
Collision_energy: [28.333334]
Isolation_window: 4.0
Ion_mode: P
Num Peaks: 39
58.0656	8.0
60.0562	49.2
62.0605	4.5
69.0340	31.5
70.0656	8.3
84.0812	64.0
86.0969	21.9
87.0445	22.3
88.0761	4.5
89.0601	12.7
96.9955	7.1
98.0603	12.1
102.0917	12.0
106.0866	5.3
112.0874	6.1
114.0917	3.7
114.1027	7.1
116.0709	43.1
118.0322	3.4
123.0117	3.8
130.0865	100.0
130.0976	7.6
131.0901	7.2
135.0443	16.5
136.0423	8.0
149.0236	11.0
158.0925	6.1
165.0216	83.8
166.0228	6.6
171.1243	4.9
172.1087	3.8
189.1348	45.9
190.1080	9.8
191.1396	5.7
193.1000	5.1
194.1177	48.8
195.1218	6.0
202.1803	50.8
203.1839	6.7

Name: Aspermytin A
PrecursorMZ: 249.18463
RT: 6.5044
ExactMass: 266.18819469
Spectrum_type: 2
charge: 1
Formula: C16H26O3
SMILES: C[C@H]1CC[C@H]2[C@H](C1)C=C[C@@]([C@]2(C)C(=O)CCO)(C)O
Method: HCD
Collision_energy: [28.333334]
Isolation_window: 4.0
Ion_mode: P
Num Peaks: 200
55.0546	1.0
59.0495	1.2
60.0448	3.6
67.0546	15.1
68.0497	1.1
69.0338	1.5
69.0702	3.5
70.0655	3.2
71.0494	2.1
79.0545	15.5
80.0496	1.1
80.0578	1.3
81.0337	3.1
81.0701	16.0
83.0493	3.2
83.0858	7.2
84.0446	1.2
84.0810	1.3
85.0286	1.0
85.0651	1.8
86.0602	5.3
87.0442	1.6
91.0543	8.8
93.0700	32.0
94.0733	2.1
95.0493	4.3
95.0605	1.8
95.0856	13.7
96.0444	1.6
96.0889	1.2
97.0284	1.2
97.0649	4.0
97.1012	2.2
98.0601	2.7
99.0440	2.6
99.0805	2.6
100.0758	2.8
101.0598	4.4
102.0550	1.1
104.0529	1.2
105.0699	5.1
107.0492	2.3
107.0856	26.0
108.0444	3.3
108.0888	2.9
109.0647	2.4
109.1012	6.0
110.0600	2.1
111.0441	5.6
111.0805	3.2
113.0597	1.2
113.0961	1.5
114.0549	2.4
116.0707	1.9
117.0699	3.2
119.0854	8.0
121.0648	2.6
121.0760	1.1
121.1011	52.4
122.0599	1.9
122.0713	1.3
122.1044	4.6
123.0439	1.7
123.0804	4.1
123.1168	1.7
124.0392	6.5
124.0756	1.4
125.0596	7.5
125.0961	2.1
126.0548	4.1
128.0706	3.1
129.0696	0.9
131.0602	6.4
131.0854	6.2
132.0652	2.3
133.1010	15.0
134.1043	0.9
135.0803	4.0
135.1166	19.8
136.0755	1.8
136.1199	2.4
137.0959	9.7
138.0547	3.6
138.0992	0.9
139.0752	3.0
139.1116	1.3
140.0340	1.1
140.0704	4.0
141.0543	1.1
142.0861	1.0
143.0853	1.5
145.1009	4.1
147.1166	6.3
148.0392	0.9
148.0754	1.4
149.0710	1.8
149.0959	7.8
149.1322	2.1
151.0750	1.0
151.1115	4.7
152.0704	4.4
153.0544	3.3
153.0908	6.1
154.0861	1.1
156.0441	1.1
156.0654	0.9
157.1009	1.9
158.0597	1.0
158.0810	1.5
159.1167	1.4
160.0967	3.0
161.0958	1.4
161.1322	0.9
162.0911	1.8
163.1116	2.0
165.1271	1.0
167.1064	3.2
170.0808	1.3
171.0650	1.1
171.1165	3.2
172.0966	0.9
173.0594	0.9
176.0704	1.4
180.1016	5.2
181.1217	0.9
182.0809	1.1
184.0601	9.8
184.0965	0.9
185.0634	0.9
185.0915	1.6
185.1071	1.5
185.1318	2.0
187.1479	1.8
188.0912	1.7
189.1270	1.0
189.1635	1.7
190.0859	1.2
191.0700	1.0
193.1219	0.9
194.0807	2.5
202.0860	3.1
202.1059	2.0
203.1173	2.3
203.1426	1.6
203.1791	3.6
204.1017	2.7
204.1380	0.9
205.0854	1.0
205.0966	1.3
205.1583	1.7
206.0811	1.8
207.1374	0.9
212.0914	4.9
213.1634	6.5
214.1667	1.1
215.1425	0.9
220.0963	1.1
221.1895	1.7
230.0815	2.6
230.1018	6.7
230.1381	1.5
231.0759	0.9
231.1123	100.0
231.1362	2.4
231.1738	9.1
232.0965	2.8
232.1164	14.5
232.1774	1.3
233.0914	3.1
233.1180	1.2
233.1534	1.5
248.0571	1.5
248.0915	21.5
248.1122	13.8
248.1276	11.7
248.1384	1.8
248.1488	3.9
248.1640	2.1
249.0858	2.6
249.0980	2.2
249.1228	82.8
249.1478	5.0
249.1593	11.2
249.1843	72.6
250.0719	5.8
250.0930	1.9
250.1069	23.1
250.1169	1.2
250.1269	13.0
250.1431	10.3
250.1534	1.2
250.1632	0.9
250.1784	4.2
250.1878	9.3
251.0909	1.6
251.1020	9.9
251.1131	7.4
251.1380	6.9
251.1634	2.9
251.1750	2.9

Name: Aspterric acid
PrecursorMZ: 267.15856
RT: 0.8677
ExactMass: 252.13615911
Spectrum_type: 2
charge: 1
Formula: C14H20O4
SMILES: CC(=C1CC[C@@]23[C@H]1C[C@@]([C@@H](C2)OC3)(C(=O)O)O)C
Method: HCD
Collision_energy: [28.333334]
Isolation_window: 4.0
Ion_mode: P
Num Peaks: 12
69.2070	4.8
69.9570	3.7
119.0854	10.2
157.1009	100.0
158.1042	11.9
175.1113	33.1
176.1148	4.9
185.1320	33.4
186.1351	4.9
203.1427	7.6
231.1374	15.2
249.1478	6.2

Name: Asteltoxin C
PrecursorMZ: 427.17266
RT: 8.2952
ExactMass: 404.18350323
Spectrum_type: 2
charge: 1
Formula: C22H28O7
SMILES: C[C@@H]1[C@]([C@]2([C@H]([C@H](O[C@H]2O1)/C=C/C=C/C=C/C3=C(C(=CC(=O)O3)OC)C)O)C)(C)O
Method: HCD
Collision_energy: [28.333334]
Isolation_window: 4.0
Ion_mode: P
Num Peaks: 8
425.1550	8.7
426.1595	18.8
426.1867	5.7
427.1358	5.8
427.1728	100.0
428.1765	24.1
429.1499	15.7
429.1851	5.1

Name: Atenolol
PrecursorMZ: 267.16994
RT: 9.6491
ExactMass: 266.16304257
Spectrum_type: 2
charge: 1
Formula: C14H22N2O3
SMILES: CC(C)NCC(COC1=CC=C(C=C1)CC(=O)N)O
Method: HCD
Collision_energy: [28.333334]
Isolation_window: 4.0
Ion_mode: P
Num Peaks: 10
72.0811	65.3
100.1120	8.6
137.0595	41.3
168.0688	17.2
179.0699	17.0
250.1434	100.0
251.1469	15.1
267.1122	8.4
267.1699	99.8
268.1748	17.0

Name: Atropine
PrecursorMZ: 307.20151
RT: 1.1973
ExactMass: 289.1677936
Spectrum_type: 2
charge: 1
Formula: C17H23NO3
SMILES: CN1[C@@H]2CC[C@H]1CC(C2)OC(=O)C(CO)C3=CC=CC=C3
Method: HCD
Collision_energy: [28.333334]
Isolation_window: 4.0
Ion_mode: P
Num Peaks: 110
69.0704	10.3
70.0656	4.0
74.0242	3.8
80.0499	48.9
81.0340	12.7
81.0533	2.7
83.0494	4.2
84.0811	2.3
86.0969	22.6
87.0444	2.5
89.0599	2.6
96.0447	7.6
97.0650	3.4
101.0601	4.8
108.0446	2.7
108.0810	2.7
109.0767	3.1
111.0444	9.6
112.0759	2.6
114.0667	4.7
126.0914	5.5
130.0866	7.1
132.1021	12.3
134.0601	2.4
136.0760	3.3
140.1071	3.7
146.0600	3.8
146.0931	2.6
148.0759	3.0
150.0552	3.9
150.0919	3.2
152.0709	6.7
160.0758	5.0
164.0708	2.8
166.0863	3.8
168.1027	3.7
175.0862	3.6
178.0857	3.4
180.1021	4.8
182.1545	2.5
187.0867	2.3
195.1127	3.9
198.1132	3.1
199.1080	2.5
200.0705	4.8
207.1129	6.0
209.1287	8.6
219.1123	2.7
220.1190	7.0
261.1951	2.7
284.1970	10.1
289.1564	2.6
291.1709	3.2
297.1235	10.5
299.1036	3.5
299.1404	4.9
303.1395	3.0
303.1687	3.0
305.1513	8.2
305.1870	3.9
306.1365	21.3
306.1795	8.8
307.1311	8.1
307.1680	14.6
307.2019	100.0
308.0928	2.3
308.1497	14.0
308.2044	19.9
309.1466	11.1
309.1813	34.7
310.1071	2.6
310.1662	3.4
310.1872	4.2
311.1605	12.1
311.1970	6.0
312.1217	9.7
312.1908	2.7
312.2289	2.7
313.1203	14.7
313.1540	3.0
313.1783	2.9
313.2108	8.7
314.1026	6.3
314.1394	23.8
315.1377	13.4
315.1721	3.2
316.1188	9.9
316.1555	19.5
316.2228	17.8
317.1161	5.6
317.1517	17.5
317.2270	3.9
318.1309	13.4
318.1768	3.9
319.1307	8.3
319.1667	16.0
320.1128	5.4
320.1573	19.1
321.1470	13.1
321.1817	7.9
322.1274	2.3
322.1729	7.6
323.1608	16.0
323.1981	4.2
324.1237	2.9
324.1895	3.2
325.1157	10.1
325.1763	6.4
326.1522	26.2
326.3793	2.8

Name: Austdiol
PrecursorMZ: 237.0755
RT: 6.6029
ExactMass: 236.06847348
Spectrum_type: 2
charge: 1
Formula: C12H12O5
SMILES: CC1=CC2=C(C(=O)[C@]([C@H](C2=CO1)O)(C)O)C=O
Method: HCD
Collision_energy: [28.333334]
Isolation_window: 4.0
Ion_mode: P
Num Peaks: 13
149.0596	7.2
163.0750	7.9
167.0699	7.4
177.0543	100.0
178.0579	10.5
191.0700	50.6
192.0651	6.0
209.0808	10.4
219.0649	18.0
236.0915	7.2
237.0755	22.4
238.1077	5.7
239.1055	7.7

Name: Austinoneol
PrecursorMZ: 415.21089
RT: 1.2401
ExactMass: 414.20423867
Spectrum_type: 2
charge: 1
Formula: C24H30O6
SMILES: CC1=C2C[C@@]3([C@@H](C(=O)[C@@](C3=C)([C@@]2(CC[C@]14C=CC(=O)OC4(C)C)C)C(=O)OC)O)C
Method: HCD
Collision_energy: [28.333334]
Isolation_window: 4.0
Ion_mode: P
Num Peaks: 49
69.0338	1.0
69.3382	0.5
69.3421	0.5
69.4994	0.4
69.8089	0.3
81.0336	0.4
86.0602	0.4
88.0758	0.5
91.0543	0.7
91.0575	0.5
97.4566	0.4
107.0856	1.2
111.0441	0.4
119.0766	0.7
119.0855	100.0
119.0923	0.5
119.0944	0.6
120.0887	8.2
121.1011	0.4
129.0545	0.4
129.1020	0.9
130.0859	0.8
133.0646	1.4
135.0802	3.3
136.0754	0.4
163.0388	2.0
215.1791	1.7
221.1280	0.6
255.2099	0.4
271.1536	0.4
273.2204	0.5
310.3095	1.1
344.9753	0.4
395.3619	0.5
397.3091	0.7
398.3412	0.6
413.3241	0.6
413.3720	0.7
414.3357	3.4
414.3763	0.4
415.0362	0.4
415.2104	2.3
415.3188	5.4
415.3373	0.4
415.3417	0.6
416.2138	0.6
416.3219	1.5
416.3512	7.5
417.3554	0.7

Name: Avadomide
PrecursorMZ: 287.11352
RT: 3.60285
ExactMass: 286.10659032
Spectrum_type: 2
charge: 1
Formula: C14H14N4O3
SMILES: CC1=NC2=CC=CC(=C2C(=O)N1C3CCC(=O)NC3=O)N
Method: HCD
Collision_energy: [28.333334]
Isolation_window: 4.0
Ion_mode: P
Num Peaks: 13
112.8958	11.2
139.9146	1.9
172.0866	3.3
173.1071	4.0
200.0815	1.6
216.0766	2.1
216.1130	1.6
243.0873	20.8
244.0909	2.0
244.1077	7.0
269.1028	2.0
287.1133	100.0
288.1169	15.7

Name: Ave5638
PrecursorMZ: 403.18173
RT: 7.7292
ExactMass: 402.17435614
Spectrum_type: 2
charge: 1
Formula: C25H23FN2O2
SMILES: C1CN(CCC1C2=CC=CC(=C2)CN)C(=O)C3=CC=C(O3)C#CC4=CC=CC=C4F
Method: HCD
Collision_energy: [28.333334]
Isolation_window: 4.0
Ion_mode: P
Num Peaks: 9
70.0654	6.7
114.0661	10.1
116.0704	7.6
166.0972	30.0
229.1290	34.1
385.1707	9.8
401.2065	5.1
403.1815	100.0
404.1844	18.3

Name: Avn-492
PrecursorMZ: 360.14956
RT: 3.2946
ExactMass: 359.1415961
Spectrum_type: 2
charge: 1
Formula: C17H21N5O2S
SMILES: CC1=C(C(=NC2=C(C(=NN12)NC)S(=O)(=O)C3=CC=CC=C3)C)N(C)C
Method: HCD
Collision_energy: [28.333334]
Isolation_window: 4.0
Ion_mode: P
Num Peaks: 16
119.0855	0.8
243.0913	2.8
244.0946	0.4
333.1381	0.4
343.1223	1.7
358.1330	0.5
359.1404	0.5
360.1019	0.6
360.1118	0.5
360.1490	100.0
360.1855	0.4
360.1957	0.7
360.3627	0.8
361.1523	26.2
362.1556	2.3
362.2410	5.8

Name: Avocadyne
PrecursorMZ: 307.2238
RT: 1.3288
ExactMass: 284.23514488
Spectrum_type: 2
charge: 1
Formula: C17H32O3
SMILES: C#CCCCCCCCCCCCC(CC(CO)O)O
Method: HCD
Collision_energy: [28.333334]
Isolation_window: 4.0
Ion_mode: P
Num Peaks: 12
67.0546	2.2
81.0701	2.6
93.0700	1.6
95.0857	2.7
109.1012	1.6
133.1008	1.5
306.2785	8.9
307.2238	100.0
307.2810	2.0
308.2272	17.6
308.2939	4.3
309.2422	3.2

Name: Azacoccone F
PrecursorMZ: 310.12846
RT: 6.7103
ExactMass: 309.12123733
Spectrum_type: 2
charge: 1
Formula: C15H19NO6
SMILES: CC1=C2C(=C(C(=C1O)O)O)CN(C2=O)[C@@H](CC(C)C)C(=O)O
Method: HCD
Collision_energy: [28.333334]
Isolation_window: 4.0
Ion_mode: P
Num Peaks: 19
97.0287	17.9
114.0664	11.8
120.0809	35.0
132.0808	23.3
135.0441	12.1
166.0863	23.3
209.1285	24.3
246.1126	17.7
264.1229	37.3
292.1179	64.4
293.1222	12.5
308.1970	17.2
309.1416	14.9
309.1582	40.2
310.1280	100.0
310.1554	11.2
311.1370	21.2
311.1603	13.1
311.2327	37.1

Name: Azacyclonol
PrecursorMZ: 250.15869
RT: 7.6427
ExactMass: 267.162314293
Spectrum_type: 2
charge: 1
Formula: C18H21NO
SMILES: C1CNCCC1C(C2=CC=CC=C2)(C3=CC=CC=C3)O
Method: HCD
Collision_energy: [28.333334]
Isolation_window: 4.0
Ion_mode: P
Num Peaks: 14
56.0499	5.7
70.0654	4.6
82.0654	6.0
91.0544	23.7
105.0699	4.9
132.0806	24.0
143.0853	24.2
167.0850	6.7
181.1013	6.1
232.0824	7.3
250.0929	5.6
250.1585	100.0
251.1283	6.6
251.1620	15.9

Name: Azelaic Acid
PrecursorMZ: 171.10118
RT: 2.4337
ExactMass: 188.10485899
Spectrum_type: 2
charge: 1
Formula: C9H16O4
SMILES: C(CCCC(=O)O)CCCC(=O)O
Method: HCD
Collision_energy: [28.333334]
Isolation_window: 4.0
Ion_mode: P
Num Peaks: 13
55.0545	77.4
67.0545	41.9
69.0337	9.8
69.0701	15.3
79.0543	16.8
81.0700	23.4
83.0856	67.0
97.1011	100.0
107.0854	24.6
109.1010	46.5
125.0959	26.9
170.0643	10.4
171.1164	12.3

Name: Azepane
PrecursorMZ: 100.11226
RT: 7.0471
ExactMass: 99.104799419
Spectrum_type: 2
charge: 1
Formula: C6H13N
SMILES: C1CCCNCC1
Method: HCD
Collision_energy: [28.333334]
Isolation_window: 4.0
Ion_mode: P
Num Peaks: 11
55.0546	12.6
56.0499	11.2
71.0494	8.9
71.0607	25.5
83.0858	10.5
85.0888	31.3
99.0442	11.8
99.0554	14.4
100.0757	63.1
100.1121	100.0
101.1155	6.7

Name: Azobenzene
PrecursorMZ: 183.0916
RT: 5.9674
ExactMass: 182.084398327
Spectrum_type: 2
charge: 1
Formula: C12H10N2
SMILES: C1=CC=C(C=C1)N=NC2=CC=CC=C2
Method: HCD
Collision_energy: [28.333334]
Isolation_window: 4.0
Ion_mode: P
Num Peaks: 57
70.0655	0.8
83.0607	1.0
91.0545	24.2
92.0578	1.8
95.0606	1.0
112.0872	0.9
122.0601	1.4
129.0699	1.4
135.0916	0.8
135.0998	1.4
136.0756	3.3
137.0710	2.4
138.0372	1.3
138.0550	1.2
138.0914	0.9
140.0706	1.5
141.0659	6.3
144.0809	4.4
154.0863	1.4
156.0657	1.3
156.0809	4.6
157.0973	3.1
163.0868	1.6
164.0707	18.5
165.0659	39.6
165.0715	0.9
165.0740	2.0
165.1024	1.7
166.0693	3.8
166.0861	1.0
168.0809	14.4
169.0761	1.9
170.0843	1.0
181.0719	2.4
181.0972	37.5
181.1041	1.0
182.0271	1.5
182.0812	11.7
182.0937	0.8
182.1005	7.8
182.1175	8.5
182.1902	1.1
183.0651	2.9
183.0768	9.2
183.0916	100.0
183.1055	0.9
183.1128	30.3
183.1209	1.3
184.0426	6.3
184.0605	0.8
184.0720	1.6
184.0757	12.4
184.0950	12.5
184.1159	2.8
184.1330	0.9
185.0924	2.8
185.1072	15.5

Name: BI-9321
PrecursorMZ: 361.18248
RT: 6.2547
ExactMass: 360.17502485
Spectrum_type: 2
charge: 1
Formula: C22H21FN4
SMILES: CC1=CC(=CC(=C1C2=C(N(C=N2)C)C3=C4C=CC(=CC4=NC=C3)F)C)CN
Method: HCD
Collision_energy: [28.333334]
Isolation_window: 4.0
Ion_mode: P
Num Peaks: 115
55.0549	1.1
60.0561	1.4
70.0657	7.1
72.0813	1.2
82.0656	0.6
83.0496	1.9
84.0812	7.8
86.0716	0.6
86.0968	0.6
87.0445	3.6
98.0605	0.6
98.0969	0.6
100.0760	1.0
101.0601	9.7
110.0603	0.6
112.0760	3.7
112.0873	2.2
114.1029	2.1
116.0710	1.1
125.0711	0.9
128.0709	1.7
129.1026	0.7
130.0615	1.1
130.0865	12.4
131.0906	0.7
132.0773	0.7
140.0823	0.7
142.0863	1.7
146.0928	0.8
147.1134	0.8
149.0711	0.9
151.0868	0.7
153.0663	1.2
161.0716	0.6
163.0867	0.6
171.0769	2.6
175.0869	0.9
175.1195	1.1
179.0815	1.3
181.0972	0.7
184.0842	0.6
185.0921	1.6
191.0811	1.4
197.0921	2.4
199.1072	1.1
203.0816	0.7
204.1237	0.9
209.0920	1.4
211.1061	0.8
215.1009	0.9
217.0967	0.6
221.0917	1.4
225.1237	0.9
227.1017	1.4
228.0977	1.8
235.1070	1.1
239.1017	1.3
241.1196	0.7
253.1208	0.7
256.1423	0.8
257.1129	1.8
266.1389	0.6
271.1286	1.9
275.1241	7.3
276.1267	1.2
283.1302	1.1
284.1388	0.6
285.1446	9.1
286.1495	1.8
287.1509	2.9
289.1390	2.3
296.1346	0.6
305.1623	1.0
311.1603	2.3
314.1501	0.6
315.1555	4.1
316.1564	0.7
323.1693	0.6
326.1603	1.8
327.1942	0.6
329.1604	1.5
330.1551	1.0
331.1732	2.1
335.1608	2.0
343.1627	0.6
348.1657	1.9
355.1598	0.8
357.1699	0.6
358.1699	0.6
359.1856	1.9
360.1884	2.3
361.1599	5.8
361.1860	6.7
362.1645	2.4
363.1833	1.2
364.1537	1.2
365.1830	2.4
366.1760	11.5
367.1805	2.9
368.1868	1.1
369.1518	0.7
369.2064	0.6
370.1615	1.4
370.2008	1.5
371.1823	18.2
372.1847	9.4
373.1595	3.5
374.1478	0.8
374.1970	1.5
375.1764	100.0
376.1802	24.6
377.1588	4.2
377.1836	2.3
378.1759	2.1
379.1776	1.2

Name: BI167107
PrecursorMZ: 371.19608
RT: 6.678125
ExactMass: 370.18925731
Spectrum_type: 2
charge: 1
Formula: C21H26N2O4
SMILES: CC1=CC=CC=C1CC(C)(C)NCC(C2=C3C(=C(C=C2)O)NC(=O)CO3)O
Method: HCD
Collision_energy: [28.333334]
Isolation_window: 4.0
Ion_mode: P
Num Peaks: 29
58.0656	3.6
60.0813	13.3
103.0545	5.0
105.0701	6.4
107.0494	2.1
123.0443	1.8
131.0493	2.9
134.0601	1.8
136.0757	10.4
162.0550	25.3
163.0586	2.7
165.0548	3.6
180.0654	1.5
182.0810	3.8
208.0603	7.2
238.1230	2.9
266.1178	3.5
270.1116	1.9
284.1284	3.0
312.1241	2.2
371.1965	100.0
372.1483	1.8
372.1995	23.0
373.2072	3.4
374.1616	1.5
378.1969	2.5
380.1361	1.5
385.2018	2.3
389.1743	1.5

Name: Baclofen
PrecursorMZ: 196.06023
RT: 4.7681
ExactMass: 213.0556563
Spectrum_type: 2
charge: 1
Formula: C10H12ClNO2
SMILES: C1=CC(=CC=C1C(CC(=O)O)CN)Cl
Method: HCD
Collision_energy: [28.333334]
Isolation_window: 4.0
Ion_mode: P
Num Peaks: 38
69.6906	1.4
84.0445	11.0
86.0965	2.3
89.0597	2.8
94.0651	4.6
107.0856	1.4
122.0598	23.5
123.0632	1.5
124.0754	2.0
133.1009	2.0
134.1041	4.8
135.0913	2.0
135.1165	1.9
140.0703	5.9
150.0546	52.0
150.0910	1.5
151.0578	4.4
151.0862	2.7
152.0702	8.5
167.0811	15.4
168.0651	22.4
169.0686	1.7
177.0652	1.7
178.0494	8.9
178.0859	1.9
180.0650	2.1
194.0808	3.2
194.1171	3.3
195.0760	1.6
195.1123	3.7
196.0599	100.0
196.0960	3.3
196.1327	3.5
197.0632	9.6
197.0914	52.9
197.1278	4.0
198.0756	1.4
198.0949	1.8

Name: Baquiloprim
PrecursorMZ: 309.18237
RT: 1.1072
ExactMass: 308.17494466
Spectrum_type: 2
charge: 1
Formula: C17H20N6
SMILES: CC1=CC(=C2C=CC=NC2=C1N(C)C)CC3=CN=C(N=C3N)N
Method: HCD
Collision_energy: [28.333334]
Isolation_window: 4.0
Ion_mode: P
Num Peaks: 5
101.0599	79.0
135.0443	60.5
161.0963	57.8
309.1829	100.0
311.1638	71.6

Name: Barceloneic Acid A
PrecursorMZ: 321.0965
RT: 2.4769
ExactMass: 320.08960285
Spectrum_type: 2
charge: 1
Formula: C16H16O7
SMILES: CC1=CC(=C(C(=C1)OC2=C(C=C(C=C2O)OC)CO)C(=O)O)O
Method: HCD
Collision_energy: [28.333334]
Isolation_window: 4.0
Ion_mode: P
Num Peaks: 60
70.0656	58.6
81.0340	26.8
84.0812	41.2
85.0287	16.0
100.0760	45.3
101.0601	34.7
107.0494	100.0
116.0709	23.9
125.0707	15.6
130.0866	18.1
144.1019	33.9
160.0971	29.3
181.0972	60.5
195.1126	30.7
199.0756	38.4
202.0714	15.8
206.1032	52.1
211.0754	35.0
225.1236	44.2
239.0704	75.8
241.0859	28.3
255.0655	17.4
257.0804	16.8
263.0725	18.7
267.0650	22.3
285.0757	93.5
303.0862	51.3
304.1392	30.7
312.1460	24.5
315.0862	14.7
319.0993	30.9
320.1383	30.0
320.2013	27.3
321.1454	19.0
321.1854	20.9
322.1513	46.8
323.1262	15.2
323.1599	30.5
323.1979	18.3
324.1464	24.8
325.1434	24.7
325.1766	99.4
326.1610	65.7
327.1246	17.2
327.1633	31.4
328.1491	24.7
328.1790	26.8
329.1466	39.4
329.1795	18.9
329.2791	18.5
330.1597	34.0
331.1634	33.8
332.1449	24.7
333.1832	28.5
335.1615	32.9
336.1642	16.1
337.1440	23.0
338.1466	25.2
339.1562	42.2
340.1534	23.0

Name: Bavachalcone
PrecursorMZ: 325.13937
RT: 4.4126
ExactMass: 324.13615911
Spectrum_type: 2
charge: 1
Formula: C20H20O4
SMILES: CC(=CCC1=CC(=C(C=C1O)O)C(=O)/C=C/C2=CC=C(C=C2)O)C
Method: HCD
Collision_energy: [28.333334]
Isolation_window: 4.0
Ion_mode: P
Num Peaks: 23
70.0656	4.4
84.0812	29.6
85.0653	4.3
89.0600	7.3
96.0447	13.4
98.9845	7.5
100.0396	6.2
122.0813	24.2
130.0864	18.5
132.0447	11.3
166.0869	4.7
168.1022	4.3
210.0795	13.2
225.1237	14.9
240.2322	6.6
297.1228	6.3
324.1439	7.9
325.1398	100.0
326.1424	15.8
327.1555	9.2
329.1720	7.6
330.3367	9.5
339.1660	5.9

Name: Bavachin
PrecursorMZ: 325.14059
RT: 3.946
ExactMass: 324.13615911
Spectrum_type: 2
charge: 1
Formula: C20H20O4
SMILES: CC(=CCC1=CC2=C(C=C1O)O[C@@H](CC2=O)C3=CC=C(C=C3)O)C
Method: HCD
Collision_energy: [28.333334]
Isolation_window: 4.0
Ion_mode: P
Num Peaks: 4
139.9145	13.6
325.1054	18.7
325.1404	100.0
326.1438	15.0

Name: Benactyzine Hydrochloride
PrecursorMZ: 328.1902
RT: 6.9173
ExactMass: 363.1601214
Spectrum_type: 2
charge: 1
Formula: C20H26ClNO3
SMILES: CCN(CC)CCOC(=O)C(C1=CC=CC=C1)(C2=CC=CC=C2)O.Cl
Method: HCD
Collision_energy: [28.333334]
Isolation_window: 4.0
Ion_mode: P
Num Peaks: 17
70.0654	1.7
84.0811	2.8
98.9843	1.9
114.0914	3.1
136.0758	2.2
266.1536	3.5
298.1759	3.1
327.1336	1.8
327.1549	2.3
327.1696	1.9
328.1172	1.6
328.1525	2.7
328.1903	100.0
329.1506	4.3
329.1940	21.6
330.1331	1.5
330.2020	6.2

Name: Bendazac
PrecursorMZ: 283.10754
RT: 4.4496
ExactMass: 282.10044231
Spectrum_type: 2
charge: 1
Formula: C16H14N2O3
SMILES: C1=CC=C(C=C1)CN2C3=CC=CC=C3C(=N2)OCC(=O)O
Method: HCD
Collision_energy: [28.333334]
Isolation_window: 4.0
Ion_mode: P
Num Peaks: 8
89.0600	7.4
211.0866	24.5
239.0816	44.7
283.1076	100.0
284.1119	22.6
284.3309	13.0
285.1238	11.5
285.1447	20.2

Name: Benproperine
PrecursorMZ: 310.21629
RT: 6.0424
ExactMass: 309.209264485
Spectrum_type: 2
charge: 1
Formula: C21H27NO
SMILES: CC(COC1=CC=CC=C1CC2=CC=CC=C2)N3CCCCC3
Method: HCD
Collision_energy: [28.333334]
Isolation_window: 4.0
Ion_mode: P
Num Peaks: 53
59.0608	0.9
70.0655	1.5
72.0811	1.1
86.0968	16.8
91.0544	0.9
100.1123	45.4
101.1157	2.6
101.1202	2.0
105.0337	8.3
118.0414	1.7
120.0809	0.9
126.0915	1.0
145.1012	1.3
163.0865	1.2
166.0781	2.1
166.0857	1.2
167.0859	4.2
181.1012	43.7
182.1045	6.6
195.1127	0.9
209.0961	21.7
210.0995	3.5
222.1124	1.0
227.1070	1.2
291.1345	1.0
292.1166	1.6
292.1307	2.2
293.1133	1.3
294.1309	1.0
309.1058	2.3
309.1434	3.0
309.1803	2.6
309.1964	1.1
309.2167	0.9
309.2573	3.6
309.2899	1.4
310.1071	0.9
310.1273	4.2
310.1426	4.0
310.1802	1.1
310.2164	100.0
311.1030	1.0
311.1240	2.5
311.1603	3.4
311.1980	1.2
311.2195	22.3
312.1036	0.9
312.1074	1.2
312.1220	1.0
312.1436	2.2
312.1573	1.0
312.1953	3.0
312.2223	1.4

Name: Benthiavalicarb isopropyl
PrecursorMZ: 382.16028
RT: 7.0567
ExactMass: 381.15224097
Spectrum_type: 2
charge: 1
Formula: C18H24FN3O3S
SMILES: C[C@H](C1=NC2=C(S1)C=C(C=C2)F)NC(=O)[C@H](C(C)C)NC(=O)OC(C)C
Method: HCD
Collision_energy: [28.333334]
Isolation_window: 4.0
Ion_mode: P
Num Peaks: 24
70.0655	6.5
72.0811	5.9
84.0810	8.8
96.0445	9.7
102.0549	5.0
116.0706	4.5
130.0861	22.2
136.0391	21.8
136.0753	5.2
140.0704	7.6
207.1125	66.4
208.1159	6.8
253.1178	19.2
264.0364	5.7
287.1230	7.4
322.0426	4.5
364.0530	14.1
366.0474	5.1
381.1664	9.3
381.1875	8.0
382.1605	100.0
383.1623	16.6
383.1817	11.6
384.1446	5.4

Name: Benzamidine
PrecursorMZ: 121.07613
RT: 6.2825
ExactMass: 120.068748264
Spectrum_type: 2
charge: 1
Formula: C7H8N2
SMILES: C1=CC=C(C=C1)C(=N)N
Method: HCD
Collision_energy: [28.333334]
Isolation_window: 4.0
Ion_mode: P
Num Peaks: 10
56.0500	12.0
104.0496	62.4
104.0708	24.0
119.0896	14.3
120.0479	8.6
120.0558	10.6
121.0761	100.0
122.0814	18.1
122.0964	10.3
123.0553	9.7

Name: Benzeneacetic acid, alpha-(hydroxymethyl)-, (3-endo)-8-methyl-8-azabicyclo(3.2.1)oct-3-yl ester, (alphaS)-
PrecursorMZ: 290.17058
RT: 6.0294
ExactMass: 289.1677936
Spectrum_type: 2
charge: 1
Formula: C17H23NO3
SMILES: CN1[C@@H]2CC[C@H]1CC(C2)OC(=O)[C@H](CO)C3=CC=CC=C3
Method: HCD
Collision_energy: [28.333334]
Isolation_window: 4.0
Ion_mode: P
Num Peaks: 48
70.0655	1.1
84.0811	0.9
86.0603	1.8
87.0444	2.9
104.0707	0.9
110.0604	0.8
114.0666	1.7
116.0709	1.3
125.0710	3.2
128.0819	0.9
130.0864	3.3
144.0655	1.5
146.0925	19.3
151.0867	2.8
152.0710	0.9
168.0783	0.9
180.0769	1.2
182.0931	1.6
186.0874	2.7
194.0934	1.0
198.0876	2.1
199.0951	1.1
200.1030	15.7
201.1068	1.2
212.1039	2.0
216.0981	0.9
254.1503	1.1
272.1245	8.3
272.1582	1.0
273.1283	1.1
288.1184	1.9
289.1462	0.9
290.1345	100.0
291.1374	13.5
292.1403	3.1
293.1379	1.6
294.1572	2.1
301.1498	2.0
304.1161	0.9
304.1462	1.5
305.1142	0.8
305.1422	0.8
306.1293	16.6
307.1300	1.2
307.1521	1.0
308.1439	5.9
308.1717	3.0
310.1514	1.0

Name: Benzhydrol
PrecursorMZ: 184.08913
RT: 3.9409
ExactMass: 184.088815002
Spectrum_type: 2
charge: 1
Formula: C13H12O
SMILES: C1=CC=C(C=C1)C(C2=CC=CC=C2)O
Method: HCD
Collision_energy: [28.333334]
Isolation_window: 4.0
Ion_mode: P
Num Peaks: 8
183.0749	0.7
183.0782	0.6
183.0917	100.0
183.1053	0.5
183.1087	0.7
184.0888	0.6
184.0951	12.8
185.0985	0.8

Name: Benzidine
PrecursorMZ: 185.10742
RT: 6.743
ExactMass: 184.100048391
Spectrum_type: 2
charge: 1
Formula: C12H12N2
SMILES: C1=CC(=CC=C1C2=CC=C(C=C2)N)N
Method: HCD
Collision_energy: [28.333334]
Isolation_window: 4.0
Ion_mode: P
Num Peaks: 34
68.0500	1.3
86.0968	4.6
91.0545	3.2
92.0579	4.8
104.1072	7.2
118.0653	2.3
130.0653	1.3
132.0809	3.9
141.0661	2.3
144.0809	26.3
145.0841	3.3
156.0810	21.5
157.0841	2.2
158.0966	3.2
167.0818	1.3
168.0658	1.5
168.0809	83.7
169.0762	3.1
169.0842	10.6
170.0841	4.9
183.0918	53.6
183.1129	2.1
184.0641	5.8
184.0887	1.7
184.0952	33.4
184.1332	3.8
185.0713	1.6
185.0926	7.2
185.1008	2.7
185.1073	100.0
186.0762	2.1
186.0911	1.6
186.1109	13.0
187.0868	2.5

Name: Benzoadenosine
PrecursorMZ: 380.13368
RT: 5.3999
ExactMass: 357.1437041
Spectrum_type: 2
charge: 1
Formula: C17H19N5O4
SMILES: C1=CC=C(C=C1)CNC2=C3C(=NC=N2)N(C=N3)C4C(C(C(O4)CO)O)O
Method: HCD
Collision_energy: [28.333334]
Isolation_window: 4.0
Ion_mode: P
Num Peaks: 38
55.0547	1.4
69.0340	1.5
70.0655	3.1
83.0495	22.7
84.0812	2.9
89.0601	1.5
111.0443	100.0
112.0477	6.9
149.0235	7.0
207.1121	1.7
270.0973	61.5
271.1010	9.4
377.2049	1.7
379.1913	2.8
380.1341	31.8
380.1804	2.2
381.1363	4.6
381.1802	3.0
382.1323	2.7
382.2018	2.8
383.1866	5.0
384.1468	2.6
385.1482	1.3
385.2002	3.9
386.2073	4.6
387.1747	5.8
388.1402	1.4
388.1764	1.5
390.1518	2.3
391.1948	1.3
392.1757	2.0
393.1681	3.5
394.1963	1.3
395.2208	13.0
396.1682	3.0
396.2198	3.1
397.1556	2.2
398.2030	3.1

Name: Benzododecinium
PrecursorMZ: 304.29959
RT: 4.8561
ExactMass: 304.300425216
Spectrum_type: 2
charge: 1
Formula: C21H38N+
SMILES: CCCCCCCCCCCC[N+](C)(C)CC1=CC=CC=C1
Method: HCD
Collision_energy: [28.333334]
Isolation_window: 4.0
Ion_mode: P
Num Peaks: 11
58.0656	14.7
91.0544	40.0
92.0577	2.9
212.2371	21.1
213.2407	3.0
257.1280	4.4
303.0867	3.2
304.2995	100.0
305.1570	4.6
305.3028	23.2
306.2636	2.9

Name: Benzothiazole
PrecursorMZ: 136.02147
RT: 1.1986857142857144
ExactMass: 135.01427034
Spectrum_type: 2
charge: 1
Formula: C7H5NS
SMILES: C1=CC=C2C(=C1)N=CS2
Method: HCD
Collision_energy: [28.333334]
Isolation_window: 4.0
Ion_mode: P
Num Peaks: 12
109.0106	2.2
136.0106	0.8
136.0214	100.0
136.0324	0.6
136.0615	0.9
136.0756	1.1
137.0206	0.5
137.0247	7.8
137.0597	0.9
137.1072	0.7
138.0171	2.1
138.0910	0.7

Name: Benzoylecgonine
PrecursorMZ: 290.13845
RT: 9.6016
ExactMass: 289.13140809
Spectrum_type: 2
charge: 1
Formula: C16H19NO4
SMILES: CN1[C@H]2CC[C@@H]1[C@H]([C@H](C2)OC(=O)C3=CC=CC=C3)C(=O)O
Method: HCD
Collision_energy: [28.333334]
Isolation_window: 4.0
Ion_mode: P
Num Peaks: 39
69.3056	3.9
69.7430	2.8
70.0654	7.9
72.0810	5.7
81.0337	3.6
84.0810	13.7
97.4575	2.9
110.0964	2.8
111.0441	4.1
118.0861	2.6
130.0860	3.0
154.0861	19.8
171.1125	5.3
172.0966	3.7
197.1281	9.2
199.1073	3.0
228.1010	2.8
229.1093	29.7
230.1163	6.3
272.1119	3.3
273.1433	3.1
288.1429	4.6
288.1907	2.5
288.2049	3.2
289.1384	14.8
289.1538	8.0
289.1749	2.5
290.1225	10.3
290.1376	100.0
290.1578	8.9
290.1848	2.7
291.1405	14.4
291.1547	4.0
291.1666	8.4
291.1916	2.5
291.2427	4.0
292.1374	3.5
292.1532	6.0
292.1744	3.3

Name: Benzydamine Hydrochloride
PrecursorMZ: 120.08082
RT: 6.8195
ExactMass: 345.1607901
Spectrum_type: 2
charge: 1
Formula: C19H24ClN3O
SMILES: CN(C)CCCOC1=NN(C2=CC=CC=C21)CC3=CC=CC=C3.Cl
Method: HCD
Collision_energy: [28.333334]
Isolation_window: 4.0
Ion_mode: P
Num Peaks: 33
58.0655	1.7
59.0733	1.4
69.2495	0.6
69.2515	0.6
69.3532	1.0
69.6382	0.6
72.0811	0.9
74.0602	0.5
79.0544	0.8
91.0543	3.3
93.0449	1.0
93.0700	9.1
94.0734	0.7
95.0492	0.8
97.4567	0.7
101.0597	1.0
103.0542	32.9
104.0576	2.4
104.0707	0.9
118.0651	1.8
118.0862	7.2
119.0895	1.1
120.0477	0.6
120.0557	0.8
120.0717	0.7
120.0807	100.0
120.0896	0.7
121.0395	1.9
121.0840	8.6
122.0235	0.8
122.0598	0.6
122.0812	0.6
122.0963	0.8

Name: Benzyl 1-(4-(4-fluorophenyl)-1,3-thiazol-2-yl)prolinate
PrecursorMZ: 383.12262
RT: 8.52685
ExactMass: 382.11512719
Spectrum_type: 2
charge: 1
Formula: C21H19FN2O2S
SMILES: C1CC(N(C1)C2=NC(=CS2)C3=CC=C(C=C3)F)C(=O)OCC4=CC=CC=C4
Method: HCD
Collision_energy: [28.333334]
Isolation_window: 4.0
Ion_mode: P
Num Peaks: 14
70.0655	2.5
84.0811	3.2
116.0709	3.1
168.0767	4.0
170.0560	2.4
240.0976	3.9
258.1083	24.0
382.1286	2.2
382.1641	3.9
383.1230	100.0
383.1433	3.2
384.1261	12.9
385.1226	2.9
385.1706	2.3

Name: Benzyl-(1-ethoxy-1-oxododecan-2-yl)-dimethylazanium
PrecursorMZ: 362.30484
RT: 5.313
ExactMass: 362.305904519
Spectrum_type: 2
charge: 1
Formula: C23H40NO2+
SMILES: CCCCCCCCCCC(C(=O)OCC)[N+](C)(C)CC1=CC=CC=C1
Method: HCD
Collision_energy: [28.333334]
Isolation_window: 4.0
Ion_mode: P
Num Peaks: 9
58.0655	16.0
91.0543	43.4
119.0855	7.6
270.2421	21.3
271.2458	3.8
360.3621	5.8
362.3046	100.0
363.3080	24.3
364.3021	4.3

Name: Benzylamine
PrecursorMZ: 108.08093
RT: 4.781
ExactMass: 107.073499291
Spectrum_type: 2
charge: 1
Formula: C7H9N
SMILES: C1=CC=C(C=C1)CN
Method: HCD
Collision_energy: [28.333334]
Isolation_window: 4.0
Ion_mode: P
Num Peaks: 20
53.0389	0.5
65.0389	4.8
67.0546	10.7
68.0578	0.5
69.5772	0.6
79.0545	3.0
80.0497	1.7
81.0337	1.0
81.0701	4.2
91.0543	1.2
93.0574	7.6
106.0652	1.3
107.0729	2.5
108.0444	1.4
108.0731	0.6
108.0808	100.0
108.0885	0.8
109.0647	0.5
109.0841	7.5
110.0601	0.8

Name: Benzyldimethyltetradecylammonium
PrecursorMZ: 332.33096
RT: 1.0862
ExactMass: 332.331725344
Spectrum_type: 2
charge: 1
Formula: C23H42N+
SMILES: CCCCCCCCCCCCCC[N+](C)(C)CC1=CC=CC=C1
Method: HCD
Collision_energy: [28.333334]
Isolation_window: 4.0
Ion_mode: P
Num Peaks: 18
58.0657	13.4
85.0289	2.0
89.0601	1.4
91.0546	37.4
92.0577	2.9
132.0447	1.5
240.2334	3.2
240.2688	21.7
241.2722	4.2
332.1975	1.3
332.3316	100.0
333.1497	1.5
333.3349	24.6
334.3381	3.3
337.1769	1.4
344.2066	1.7
346.3357	2.0
347.1617	3.2

Name: Beta-Alanine
PrecursorMZ: 90.05517
RT: 9.6412
ExactMass: 89.047678466
Spectrum_type: 2
charge: 1
Formula: C3H7NO2
SMILES: C(CN)C(=O)O
Method: HCD
Collision_energy: [28.333334]
Isolation_window: 4.0
Ion_mode: P
Num Peaks: 5
72.0447	41.1
72.0811	48.2
88.0395	44.7
88.0758	31.9
91.0544	100.0

Name: Beta-Alanylhistidine
PrecursorMZ: 227.11352
RT: 6.3492
ExactMass: 226.10659032
Spectrum_type: 2
charge: 1
Formula: C9H14N4O3
SMILES: C1=C(NC=N1)CC(C(=O)O)NC(=O)CCN
Method: HCD
Collision_energy: [28.333334]
Isolation_window: 4.0
Ion_mode: P
Num Peaks: 34
70.0654	3.0
84.0445	1.9
95.0855	1.2
110.0712	16.8
111.0551	1.1
111.0744	1.1
116.0705	3.4
121.0759	4.0
137.0707	1.6
139.0863	26.3
151.0863	3.3
155.0926	1.2
165.1019	1.1
169.0967	7.1
181.0966	1.8
182.0919	19.0
183.0955	1.6
193.0968	1.9
199.1073	1.5
207.1121	1.4
209.1278	3.6
210.0866	4.3
211.1071	7.8
225.1227	3.0
226.1066	3.3
226.1180	4.7
227.1019	12.8
227.1132	10.6
227.1382	7.6
228.1223	8.8
228.1348	3.0
228.2313	1.3
229.1175	100.0
229.1538	2.6

Name: Beta-Amyrin
PrecursorMZ: 409.38236
RT: 1.022
ExactMass: 426.386166214
Spectrum_type: 2
charge: 1
Formula: C30H50O
SMILES: C[C@@]12CC[C@@]3(C(=CC[C@H]4[C@]3(CC[C@@H]5[C@@]4(CC[C@@H](C5(C)C)O)C)C)[C@@H]1CC(CC2)(C)C)C
Method: HCD
Collision_energy: [28.333334]
Isolation_window: 4.0
Ion_mode: P
Num Peaks: 28
69.0702	25.6
69.4796	17.1
81.0701	46.4
83.0857	16.3
93.0700	17.2
95.0856	59.1
97.4570	13.0
107.0855	37.7
109.1012	68.0
119.0854	14.2
121.1010	32.8
123.1166	29.9
133.1010	15.5
135.1166	51.4
147.1165	20.9
149.1323	52.0
161.1321	14.1
163.1478	22.7
175.1474	13.7
177.1633	15.3
189.1634	12.3
191.1789	33.5
203.1791	26.8
205.1946	16.2
217.1944	32.1
409.3818	100.0
410.3855	26.7
411.3606	12.2

Name: Beta-Anhydroicaritin
PrecursorMZ: 369.13068
RT: 7.9768
ExactMass: 368.12598835
Spectrum_type: 2
charge: 1
Formula: C21H20O6
SMILES: CC1(CCC2=C(O1)C=C(C3=C2OC(=C(C3=O)O)C4=CC=C(C=C4)OC)O)C
Method: HCD
Collision_energy: [28.333334]
Isolation_window: 4.0
Ion_mode: P
Num Peaks: 12
81.0702	14.8
95.0858	16.8
109.1014	15.0
135.1169	13.8
147.1169	13.9
149.1325	11.9
189.1639	10.3
368.1142	13.1
369.1312	100.0
370.1316	29.5
371.1096	16.0
371.2944	90.3

Name: Beta-Carotene
PrecursorMZ: 536.43733
RT: 0.9560666666666666
ExactMass: 536.438201786
Spectrum_type: 2
charge: 1
Formula: C40H56
SMILES: CC1=C(C(CCC1)(C)C)/C=C/C(=C/C=C/C(=C/C=C/C=C(/C=C/C=C(/C=C/C2=C(CCCC2(C)C)C)\C)\C)/C)/C
Method: HCD
Collision_energy: [28.333334]
Isolation_window: 4.0
Ion_mode: P
Num Peaks: 64
55.0547	9.5
67.0546	8.4
69.0702	43.9
81.0702	42.5
83.0858	13.1
91.0544	8.7
93.0700	34.2
95.0857	58.7
105.0700	49.2
107.0856	49.4
109.1012	32.5
119.0855	94.2
120.0934	12.8
121.1011	56.5
123.1167	32.3
131.0854	19.6
133.1011	46.1
135.1167	18.1
137.1324	18.5
143.0854	23.6
145.1011	41.8
147.1167	35.0
149.1325	8.0
157.1011	43.6
158.1091	6.9
159.1168	36.1
161.1324	24.5
169.1010	21.2
171.1167	42.5
173.1323	22.0
175.1480	27.0
177.1635	25.2
183.1166	23.1
185.1322	30.7
187.1481	19.0
189.1634	11.5
195.1167	12.1
197.1322	29.8
199.1480	15.9
201.1634	12.0
203.1792	14.4
207.1166	6.8
209.1323	28.3
211.1480	21.7
213.1636	9.2
215.1790	7.6
221.1324	9.9
223.1481	11.9
225.1636	8.1
227.1793	7.2
235.1481	8.2
237.1638	6.8
239.1790	13.9
241.1948	13.1
243.2100	7.9
249.1638	6.8
253.1947	8.0
267.2101	16.6
275.1783	7.3
321.2568	6.9
444.3743	100.0
445.3776	25.9
536.4370	92.2
537.4400	37.2

Name: Beta-Guanidinopropionic acid
PrecursorMZ: 132.07676
RT: 9.3728
ExactMass: 131.069476538
Spectrum_type: 2
charge: 1
Formula: C4H9N3O2
SMILES: C(CN=C(N)N)C(=O)O
Method: HCD
Collision_energy: [28.333334]
Isolation_window: 4.0
Ion_mode: P
Num Peaks: 25
58.0655	2.9
60.0561	16.5
68.0499	5.2
69.0702	2.7
72.0447	12.1
72.0560	53.7
72.0811	3.8
73.0287	2.3
74.0239	1.9
84.0810	2.2
85.0481	3.0
85.0844	6.6
86.0603	19.3
86.0967	16.1
88.0759	3.1
90.0551	57.7
114.0663	27.3
115.0503	19.2
130.9326	2.0
131.0895	3.1
132.0658	9.4
132.0766	100.0
132.1018	10.2
133.0798	5.5
134.0810	2.7

Name: Beta-dimorphecolic acid, (+-)-
PrecursorMZ: 279.23095
RT: 2.1827
ExactMass: 296.23514488
Spectrum_type: 2
charge: 1
Formula: C18H32O3
SMILES: CCCCC/C=C/C=C/C(CCCCCCCC(=O)O)O
Method: HCD
Collision_energy: [28.333334]
Isolation_window: 4.0
Ion_mode: P
Num Peaks: 24
67.0544	71.0
69.0700	17.4
71.0857	13.7
79.0543	19.6
81.0700	100.0
83.0857	12.4
93.0698	28.7
95.0854	87.2
99.0803	11.4
107.0853	23.9
109.1010	41.9
121.1008	29.5
123.1164	23.9
133.1008	21.7
135.1163	18.0
137.1321	21.0
149.1321	15.3
277.2149	24.2
278.0457	58.6
278.1009	12.2
278.2187	45.1
279.0913	13.0
279.2309	58.2
280.2343	11.7

Name: Betaine
PrecursorMZ: 118.08638
RT: 5.4532
ExactMass: 117.078978594
Spectrum_type: 2
charge: 1
Formula: C5H11NO2
SMILES: C[N+](C)(C)CC(=O)[O-]
Method: HCD
Collision_energy: [28.333334]
Isolation_window: 4.0
Ion_mode: P
Num Peaks: 7
58.0656	2.0
60.0449	5.8
82.0655	19.0
100.0760	7.8
118.0864	100.0
119.0900	6.1
122.0813	2.1

Name: Betaxolol
PrecursorMZ: 308.22119
RT: 6.5795
ExactMass: 307.21474379
Spectrum_type: 2
charge: 1
Formula: C18H29NO3
SMILES: CC(C)NCC(COC1=CC=C(C=C1)CCOCC2CC2)O
Method: HCD
Collision_energy: [28.333334]
Isolation_window: 4.0
Ion_mode: P
Num Peaks: 31
69.9134	1.9
70.0654	4.1
81.0336	2.8
84.0808	1.9
96.0444	2.2
116.0705	6.1
125.0231	3.5
126.0548	3.3
164.0702	2.1
207.1122	2.0
246.1845	2.6
289.1534	2.1
306.2047	3.1
307.1073	2.4
307.1276	3.0
307.1429	2.4
307.1642	7.5
307.2007	4.5
308.1111	2.7
308.1292	1.9
308.1491	2.6
308.1963	6.9
308.2209	100.0
309.1226	2.2
309.1430	2.9
309.1585	9.1
309.1795	2.9
309.2248	17.1
310.1259	2.1
310.1416	4.1
310.1770	2.5

Name: Bethanechol
PrecursorMZ: 161.12851
RT: 13.1833
ExactMass: 161.129002789
Spectrum_type: 2
charge: 1
Formula: C7H17N2O2+
SMILES: CC(C[N+](C)(C)C)OC(=O)N
Method: HCD
Collision_energy: [28.333334]
Isolation_window: 4.0
Ion_mode: P
Num Peaks: 39
58.0656	5.3
59.0496	1.8
59.0733	1.2
60.0813	9.5
72.0448	1.5
84.0448	3.7
84.0812	2.2
85.0652	0.8
97.3999	0.8
100.1123	1.2
101.0600	19.5
102.0552	1.1
102.0633	1.4
114.0916	5.0
116.0708	4.0
116.1072	1.7
126.0914	0.8
130.0500	1.8
138.9928	1.1
142.0864	1.5
144.1020	2.3
156.9750	0.9
159.1130	4.6
159.1494	1.6
160.0970	7.0
160.1082	1.0
160.1161	0.8
160.1334	18.3
161.0924	1.0
161.1286	100.0
161.1359	1.4
162.0552	0.8
162.0760	1.0
162.0914	1.5
162.1126	6.1
162.1255	0.8
162.1318	7.4
162.1491	1.8
163.0616	1.9

Name: Betonicine
PrecursorMZ: 160.09679
RT: 7.485
ExactMass: 159.08954328
Spectrum_type: 2
charge: 1
Formula: C7H13NO3
SMILES: C[N+]1(C[C@@H](C[C@H]1C(=O)[O-])O)C
Method: HCD
Collision_energy: [28.333334]
Isolation_window: 4.0
Ion_mode: P
Num Peaks: 19
58.0654	0.5
84.0446	3.3
98.0965	7.5
99.0554	0.5
99.0998	0.5
100.0757	0.4
116.0705	2.9
130.0497	1.2
145.0493	0.4
158.1173	3.2
158.1535	0.5
160.0827	0.6
160.0966	100.0
160.1105	0.6
160.9011	0.7
161.0941	0.4
161.1000	6.7
162.0758	0.9
162.1122	0.4

Name: Bicine
PrecursorMZ: 164.09171
RT: 5.8801
ExactMass: 163.0844579
Spectrum_type: 2
charge: 1
Formula: C6H13NO4
SMILES: C(CO)N(CCO)CC(=O)O
Method: HCD
Collision_energy: [28.333334]
Isolation_window: 4.0
Ion_mode: P
Num Peaks: 26
56.0499	3.8
62.0605	4.5
70.0654	2.0
72.0447	6.0
74.0603	48.5
88.0759	7.8
90.0551	6.1
100.0758	9.1
118.0862	18.8
123.0439	2.5
128.0704	3.4
136.0755	37.5
136.0967	43.3
137.0789	2.1
137.1000	2.2
146.0810	100.0
147.0844	7.2
162.8994	5.1
163.0387	6.5
163.0582	2.7
163.0751	2.0
163.0860	2.6
163.1116	4.0
164.0705	18.4
164.0915	9.5
165.0658	2.3

Name: Biline-8,12-dipropionic acid, 3,18-diethyl-1,2,3,4,5,15,16,17,18,19,22,24-dodecahydro-2,7,13,17-tetramethyl-1,19-dioxo-, (-)-
PrecursorMZ: 595.34913
RT: 0.5017
ExactMass: 594.3417352
Spectrum_type: 2
charge: 1
Formula: C33H46N4O6
SMILES: CC[C@@H]1[C@H](C(=O)N[C@H]1CC2=N/C(=C/C3=C(C(=C(N3)C[C@H]4[C@@H]([C@H](C(=O)N4)CC)C)C)CCC(=O)O)/C(=C2C)CCC(=O)O)C
Method: HCD
Collision_energy: [28.333334]
Isolation_window: 4.0
Ion_mode: P
Num Peaks: 25
52.2518	4.4
55.0547	2.1
66.1502	6.1
66.2617	1.8
83.0859	6.5
126.0915	10.2
166.0864	14.7
167.0896	2.0
178.0862	2.7
180.1019	8.1
285.1597	1.9
303.1703	3.1
327.1705	1.7
344.1729	5.4
345.1807	99.2
346.1841	18.5
347.1863	1.7
470.2649	77.7
471.2682	22.7
472.2714	2.8
594.3369	2.1
595.2952	2.8
595.3492	100.0
596.3524	36.0
597.3544	5.0

Name: Bilobalide
PrecursorMZ: 344.13398
RT: 5.9819
ExactMass: 326.10016753
Spectrum_type: 2
charge: 1
Formula: C15H18O8
SMILES: CC(C)(C)[C@@]1(C[C@H]2[C@@]3([C@]14[C@H](C(=O)O[C@H]4OC3=O)O)CC(=O)O2)O
Method: HCD
Collision_energy: [28.333334]
Isolation_window: 4.0
Ion_mode: P
Num Peaks: 124
67.0547	10.1
69.0339	5.2
69.0703	8.6
70.0655	7.2
71.0496	6.4
72.0812	9.2
79.0546	9.1
81.0339	18.1
81.0702	13.0
83.0495	6.3
83.0860	5.8
84.0811	4.6
85.0651	4.8
86.0967	13.8
91.0545	8.4
93.0702	21.6
95.0858	14.5
96.0447	11.7
97.0287	7.0
97.0651	9.1
97.1014	6.0
99.0443	7.8
100.0760	5.2
101.0599	8.1
105.0700	10.5
107.0494	6.8
107.0858	13.0
109.0286	8.1
109.0650	4.9
109.1013	6.2
111.0443	9.9
114.0663	5.3
114.0916	7.0
116.0709	8.7
117.0701	5.7
119.0857	11.4
120.0809	5.0
121.1013	12.4
123.0442	5.6
123.0805	7.0
125.0600	7.5
125.0963	9.9
127.0392	7.2
131.0494	5.3
131.0856	13.6
133.1013	12.5
135.0805	6.7
135.1169	6.2
137.0962	5.1
143.0702	6.4
143.0857	5.4
145.1013	10.3
146.0600	4.7
147.0805	4.6
149.0598	6.1
149.0964	7.4
151.0753	5.4
157.1012	7.6
159.1170	7.5
161.0963	4.7
163.0755	4.9
163.1118	4.8
165.0547	11.8
166.0864	5.3
167.1068	5.3
169.1014	8.9
173.0598	5.1
175.0391	10.0
177.0911	5.1
177.1273	5.7
185.1650	6.8
187.1117	6.0
189.0546	9.0
189.1122	5.2
191.0704	6.2
193.0496	33.8
195.1130	9.2
201.0548	5.4
203.0700	4.7
205.1223	6.0
219.0651	9.7
225.1638	9.3
227.0701	5.4
231.0653	14.0
243.0649	6.4
243.1748	7.0
245.0810	12.4
249.0757	100.0
250.0792	12.9
253.1584	5.0
261.0757	19.6
261.1848	25.9
262.1885	6.6
263.0912	5.6
263.2009	6.1
271.1692	14.1
273.0755	25.0
273.1845	8.8
289.1798	40.6
290.1828	10.5
291.0862	47.9
291.1963	8.2
292.0894	8.3
307.1537	4.8
307.1902	31.5
308.1943	5.6
309.0968	87.6
309.2059	5.0
310.1004	12.2
325.2007	13.5
327.1970	6.8
328.1184	4.9
343.1330	20.6
343.1659	96.2
343.1890	6.8
343.2111	9.9
344.1134	13.4
344.1327	81.8
344.1692	25.4
345.1431	24.8
345.1805	19.9
345.2057	18.3
346.1265	12.8
346.1619	15.1

Name: Bilobol
PrecursorMZ: 341.24512
RT: 1.0288
ExactMass: 318.255880323
Spectrum_type: 2
charge: 1
Formula: C21H34O2
SMILES: CCCCCC/C=C\CCCCCCCC1=CC(=CC(=C1)O)O
Method: HCD
Collision_energy: [28.333334]
Isolation_window: 4.0
Ion_mode: P
Num Peaks: 26
69.0702	4.1
91.0577	3.6
96.0810	16.6
105.0337	3.9
113.1075	7.4
114.0915	21.3
139.9147	23.5
163.0754	7.7
209.1648	36.5
210.1683	4.5
226.1912	5.4
227.1754	16.1
280.1444	5.4
322.2487	51.3
323.2521	11.0
339.3451	12.1
340.1653	3.7
340.2593	82.6
340.3581	5.3
341.2449	100.0
341.2636	20.5
342.2483	17.6
343.1882	11.7
343.2443	4.6
343.3103	7.2
359.0278	3.5

Name: Bindarit
PrecursorMZ: 347.13625
RT: 5.3768
ExactMass: 324.1473925
Spectrum_type: 2
charge: 1
Formula: C19H20N2O3
SMILES: CC(C)(C(=O)O)OCC1=NN(C2=CC=CC=C21)CC3=CC=CC=C3
Method: HCD
Collision_energy: [28.333334]
Isolation_window: 4.0
Ion_mode: P
Num Peaks: 31
67.0546	1.7
72.0811	1.9
81.0702	2.4
86.0967	12.2
93.0701	2.0
95.0857	2.7
102.0551	1.8
104.0708	4.3
107.0856	2.1
133.1009	2.1
135.1168	1.5
146.1174	6.3
157.1337	2.1
162.0760	3.0
166.0864	1.7
197.1285	1.6
200.1390	2.9
204.0629	8.4
215.1385	2.7
228.1345	2.2
345.1205	3.4
345.1438	1.8
345.1806	9.2
346.1257	2.7
346.1835	3.8
347.1362	100.0
347.1573	27.4
347.2202	1.6
348.1395	17.4
348.1603	3.8
349.1347	6.6

Name: Binospirone
PrecursorMZ: 359.196
RT: 8.5172
ExactMass: 358.18925731
Spectrum_type: 2
charge: 1
Formula: C20H26N2O4
SMILES: C1CCC2(C1)CC(=O)N(C(=O)C2)CCNCC3COC4=CC=CC=C4O3
Method: HCD
Collision_energy: [28.333334]
Isolation_window: 4.0
Ion_mode: P
Num Peaks: 31
70.0655	10.1
72.0812	5.8
84.0811	7.4
86.0967	4.5
89.0598	4.2
116.0707	5.4
132.0440	3.6
141.0660	3.5
154.0864	20.9
171.1132	7.7
172.0969	6.4
194.1176	6.4
195.1120	5.6
197.1288	7.6
226.1182	3.4
358.1231	6.1
358.2067	6.6
358.3685	4.6
359.1959	100.0
360.1559	3.5
360.2001	18.8
363.1247	9.3
364.1472	3.3
366.1648	4.3
369.1783	4.0
372.1473	6.1
374.1582	9.0
374.3626	5.0
375.1569	4.4
375.2142	3.9
376.1798	4.4

Name: Biotin methyl ester
PrecursorMZ: 259.11108
RT: 2.5405
ExactMass: 258.10381361
Spectrum_type: 2
charge: 1
Formula: C11H18N2O3S
SMILES: COC(=O)CCCC[C@H]1[C@@H]2[C@H](CS1)NC(=O)N2
Method: HCD
Collision_energy: [28.333334]
Isolation_window: 4.0
Ion_mode: P
Num Peaks: 38
67.0546	4.0
69.0703	4.1
70.0655	8.2
81.0703	7.1
95.0858	9.5
97.0398	3.1
100.0758	4.0
107.0493	3.1
107.0857	3.3
109.1014	5.9
112.0759	9.6
121.1013	4.8
123.1170	4.7
136.0758	5.1
144.1020	17.7
167.0526	2.8
177.1636	3.9
179.1796	3.4
182.1177	2.9
189.1638	4.1
197.1901	6.2
200.1281	3.5
205.1585	3.0
207.1744	6.7
209.0742	3.0
225.1849	5.1
227.0848	100.0
228.0883	10.0
228.1229	2.7
257.1279	2.9
258.1121	5.4
258.1333	4.2
259.1108	36.3
259.1435	7.3
260.1138	5.5
260.1278	5.4
260.1495	14.6
261.1230	11.2

Name: Bis(2-ethoxyethyl) (4-methyl-1,3-phenylene)biscarbamate
PrecursorMZ: 355.18591
RT: 7.6067
ExactMass: 354.17908655
Spectrum_type: 2
charge: 1
Formula: C17H26N2O6
SMILES: CCOCCOC(=O)NC1=CC(=C(C=C1)C)NC(=O)OCCOCC
Method: HCD
Collision_energy: [28.333334]
Isolation_window: 4.0
Ion_mode: P
Num Peaks: 6
101.0596	3.3
337.1749	8.4
354.2027	5.4
355.1851	100.0
355.2213	8.8
356.1888	19.9

Name: Boro-Scopol
PrecursorMZ: 304.15015
RT: 6.4348
ExactMass: 303.14705815
Spectrum_type: 2
charge: 1
Formula: C17H21NO4
SMILES: CN1[C@@H]2CC(C[C@H]1[C@H]3[C@@H]2O3)OC(=O)[C@H](CO)C4=CC=CC=C4
Method: HCD
Collision_energy: [28.333334]
Isolation_window: 4.0
Ion_mode: P
Num Peaks: 69
59.0496	3.3
70.0656	1.6
73.0652	1.6
80.0497	0.9
81.0339	2.7
83.0494	1.2
84.0812	7.4
86.0604	2.9
91.0544	0.9
96.0811	1.2
98.0603	1.6
99.0443	1.1
100.0757	0.9
101.0600	17.9
110.0714	1.1
112.0872	2.1
114.0665	2.1
115.0756	5.8
116.0708	2.3
117.0549	1.4
118.0866	1.0
120.0809	1.5
124.0758	22.0
125.0791	1.6
126.0915	1.5
128.0820	2.7
130.0864	1.4
136.1121	0.9
138.0914	2.8
144.1020	4.7
150.0552	1.3
160.1081	2.7
166.0610	1.2
168.0769	1.1
180.0765	1.2
180.1020	100.0
181.1053	10.3
188.0704	1.0
240.0990	1.0
257.1290	0.9
259.1444	1.1
270.0988	1.2
270.1448	1.2
272.1240	3.6
285.1230	2.3
286.1079	1.1
286.1262	1.6
286.1421	1.4
287.1607	1.4
302.1372	3.9
302.1733	1.5
303.1332	8.3
303.1552	1.6
303.1710	13.3
303.1918	11.4
303.2071	1.1
304.1188	7.9
304.1511	49.9
304.1731	1.5
304.1947	1.4
305.1236	3.8
305.1514	14.6
305.1711	1.4
305.1843	3.6
306.0977	1.9
306.1339	6.7
306.1545	3.7
306.1704	0.9
306.1829	0.9

Name: Brassicasterol
PrecursorMZ: 399.36164
RT: 1.0144
ExactMass: 398.354866087
Spectrum_type: 2
charge: 1
Formula: C28H46O
SMILES: C[C@H](/C=C/[C@H](C)C(C)C)[C@H]1CC[C@@H]2[C@@]1(CC[C@H]3[C@H]2CC=C4[C@@]3(CC[C@@H](C4)O)C)C
Method: HCD
Collision_energy: [28.333334]
Isolation_window: 4.0
Ion_mode: P
Num Peaks: 78
57.0703	20.4
67.0546	17.9
69.0702	43.8
69.0790	15.9
69.0809	10.2
71.0858	24.1
79.0545	9.3
81.0701	61.8
83.0857	32.4
85.1014	11.3
86.0965	12.0
91.0544	10.3
93.0700	29.5
95.0856	81.1
97.0649	40.7
97.1013	22.5
97.4557	11.3
105.0699	25.8
107.0856	32.2
109.0648	33.5
109.1012	72.9
111.0805	15.9
111.1168	14.9
119.0854	43.4
121.1011	40.5
123.1167	25.2
131.0853	17.7
133.1010	36.5
135.0440	15.9
135.0802	12.2
135.1167	38.9
137.0595	8.7
137.0957	15.3
137.1323	10.2
144.0804	10.3
145.1009	23.1
147.1166	42.4
149.0959	64.2
149.1323	25.1
157.1010	22.6
159.1166	30.4
161.1323	39.9
163.1115	15.7
163.1479	14.0
165.0909	25.2
171.1166	20.8
173.1324	18.1
175.1478	15.8
177.1272	9.1
185.1322	11.7
187.1479	12.3
189.1632	17.4
197.1320	10.3
199.1475	10.7
201.1635	15.1
203.1061	17.1
211.1481	10.3
213.1637	12.4
289.2525	11.9
365.3195	13.1
369.3509	11.1
379.3345	16.9
380.3385	16.4
381.3135	15.3
381.3510	9.4
383.3299	79.4
397.3454	84.0
397.3816	36.3
398.2676	31.6
398.3484	100.0
398.3850	22.7
399.2691	13.1
399.3253	63.6
399.3603	66.3
400.3276	19.8
400.3633	19.4
401.2843	15.5
401.3402	72.5

Name: Brd4770
PrecursorMZ: 414.18062
RT: 5.7579
ExactMass: 413.1739416
Spectrum_type: 2
charge: 1
Formula: C25H23N3O3
SMILES: COC(=O)C1=CC2=C(C=C1)N(C(=N2)NC(=O)C3=CC=CC=C3)CCCC4=CC=CC=C4
Method: HCD
Collision_energy: [28.333334]
Isolation_window: 4.0
Ion_mode: P
Num Peaks: 17
70.0654	6.0
72.0811	7.8
80.0497	18.0
86.0966	3.6
130.0649	11.7
131.0491	4.0
159.0916	6.7
185.0707	10.5
188.0703	5.2
234.1274	6.9
244.1115	22.4
245.1153	3.9
290.1168	5.3
413.1673	5.8
414.1800	100.0
415.1845	27.5
416.1902	5.3

Name: Brefeldin A
PrecursorMZ: 263.16405
RT: 5.184
ExactMass: 280.16745924
Spectrum_type: 2
charge: 1
Formula: C16H24O4
SMILES: C[C@H]1CCC/C=C/[C@@H]2C[C@@H](C[C@H]2[C@@H](/C=C/C(=O)O1)O)O
Method: HCD
Collision_energy: [28.333334]
Isolation_window: 4.0
Ion_mode: P
Num Peaks: 98
55.0547	3.0
67.0547	13.1
69.0703	9.0
70.0655	11.6
71.0496	3.0
79.0546	13.1
81.0338	4.1
81.0702	17.2
83.0496	2.7
83.0859	9.0
85.0650	2.4
91.0545	11.5
93.0701	17.4
95.0494	6.6
95.0858	10.6
97.0650	4.1
97.3988	2.4
101.0601	2.6
105.0701	15.0
107.0492	5.8
107.0857	11.8
109.0649	14.5
109.1014	4.5
111.0807	3.2
113.0599	2.7
117.0700	27.6
118.0736	2.9
119.0493	4.4
119.0857	15.0
121.0649	36.7
121.1013	8.7
122.0682	3.1
123.0806	6.6
129.0699	23.1
131.0856	31.7
132.0890	2.8
133.0649	23.0
133.1012	10.5
134.0601	4.1
135.0805	19.5
135.1168	5.3
136.0757	4.5
137.0961	3.1
143.0856	14.5
145.0648	3.8
145.1011	12.0
147.0805	21.4
147.1169	4.1
149.0961	12.6
157.1013	9.2
159.0805	3.1
159.1169	4.8
161.0961	9.4
163.0866	4.7
163.1119	2.9
167.0857	3.2
169.1014	2.6
171.0806	3.9
171.1168	5.3
173.1324	3.6
175.1118	3.1
181.1021	3.2
183.1168	6.0
185.0960	3.9
185.1325	7.5
189.1276	3.0
199.1481	11.2
202.0864	5.2
203.1432	4.4
205.0971	6.3
209.1323	8.3
216.1020	7.3
217.1586	9.1
218.1173	2.7
223.1074	5.0
227.1429	10.3
229.1593	2.7
244.0968	7.4
245.1535	100.0
246.0763	2.8
246.1125	3.1
246.1572	16.9
247.1693	7.0
261.1849	5.1
262.1071	38.0
262.1188	2.6
263.1010	12.3
263.1402	14.6
263.1639	91.8
263.1753	5.1
263.2000	6.8
264.0863	13.2
264.0986	3.3
264.1225	15.8
264.1681	16.0
265.1180	18.0
265.1309	30.6
265.1796	26.2

Name: Britannilactone
PrecursorMZ: 284.18535
RT: 0.879
ExactMass: 266.15180918
Spectrum_type: 2
charge: 1
Formula: C15H22O4
SMILES: CC1=C([C@H]([C@H]2[C@@H](C1)OC(=O)C2=C)O)[C@@H](C)CCCO
Method: HCD
Collision_energy: [28.333334]
Isolation_window: 4.0
Ion_mode: P
Num Peaks: 7
157.1013	100.0
158.1045	14.2
175.1118	37.0
185.1323	32.7
231.1378	16.6
249.1479	12.8
267.1586	10.9

Name: Brucine
PrecursorMZ: 417.18046
RT: 5.4094
ExactMass: 394.18925731
Spectrum_type: 2
charge: 1
Formula: C23H26N2O4
SMILES: COC1=C(C=C2C(=C1)[C@]34CCN5[C@H]3C[C@@H]6[C@@H]7[C@@H]4N2C(=O)C[C@@H]7OCC=C6C5)OC
Method: HCD
Collision_energy: [28.333334]
Isolation_window: 4.0
Ion_mode: P
Num Peaks: 52
70.0655	2.8
84.0811	4.9
89.0600	3.0
107.0493	59.8
108.0526	5.0
112.0758	22.6
113.0791	7.9
114.0662	8.7
118.0864	1.6
124.1120	2.2
130.0651	27.5
131.0685	2.9
133.0860	1.9
144.0808	1.9
146.0599	3.7
161.1325	1.9
180.1017	15.4
188.0705	50.7
189.0738	6.8
205.0970	3.1
234.0910	6.1
248.1073	1.9
256.1289	2.4
256.2142	2.6
273.2212	1.7
274.2244	2.6
294.1121	45.0
295.1157	7.4
311.1386	18.6
312.1422	4.1
319.1602	2.7
400.1543	23.0
401.1571	5.9
415.3397	100.0
416.1337	1.7
416.1709	4.9
416.2133	2.3
416.2183	5.4
416.2531	1.6
416.3426	26.1
417.1786	9.4
417.2048	2.6
417.2313	9.1
417.2362	2.8
417.2468	1.9
417.3457	2.1
418.1437	2.7
418.1489	3.9
418.1825	5.0
418.2334	6.3
418.2437	6.4
418.2942	1.6

Name: Budesonide
PrecursorMZ: 431.24264
RT: 1.0855
ExactMass: 430.2355388
Spectrum_type: 2
charge: 1
Formula: C25H34O6
SMILES: CCCC1O[C@@H]2C[C@H]3[C@@H]4CCC5=CC(=O)C=C[C@@]5([C@H]4[C@H](C[C@@]3([C@@]2(O1)C(=O)CO)C)O)C
Method: HCD
Collision_energy: [28.333334]
Isolation_window: 4.0
Ion_mode: P
Num Peaks: 17
69.0703	16.7
71.0495	14.4
215.1065	17.7
255.1381	12.9
267.1018	15.8
275.1280	15.9
285.1121	13.6
325.1795	12.4
327.1587	14.2
343.1902	16.3
395.2223	20.5
413.2319	56.9
415.1510	11.7
430.1109	16.2
430.3321	14.1
431.2424	43.8
433.1621	100.0

Name: Bufalin
PrecursorMZ: 409.23443
RT: 1.2184
ExactMass: 386.24570956
Spectrum_type: 2
charge: 1
Formula: C24H34O4
SMILES: C[C@]12CC[C@@H](C[C@H]1CC[C@@H]3[C@@H]2CC[C@]4([C@@]3(CC[C@@H]4C5=COC(=O)C=C5)O)C)O
Method: HCD
Collision_energy: [28.333334]
Isolation_window: 4.0
Ion_mode: P
Num Peaks: 13
81.0701	1.7
95.0856	2.4
109.1011	1.4
179.1428	4.1
373.3094	2.2
391.3195	4.0
407.2186	3.3
408.2214	3.2
409.2342	100.0
409.3289	6.1
410.2376	21.9
410.3340	1.9
411.2320	4.7

Name: Buflomedil
PrecursorMZ: 308.18518
RT: 6.1861
ExactMass: 307.17835828
Spectrum_type: 2
charge: 1
Formula: C17H25NO4
SMILES: COC1=CC(=C(C(=C1)OC)C(=O)CCCN2CCCC2)OC
Method: HCD
Collision_energy: [28.333334]
Isolation_window: 4.0
Ion_mode: P
Num Peaks: 109
55.0546	2.2
56.0498	1.3
67.0545	1.3
69.0702	6.4
70.0654	22.2
72.0810	1.5
79.0545	1.6
81.0337	2.2
81.0701	2.1
82.0653	1.5
83.0493	2.4
83.0857	12.3
86.0967	1.6
91.0543	3.2
93.0700	1.1
95.0492	1.0
95.0856	2.1
96.0445	26.5
97.0477	1.1
97.0649	7.4
100.0757	10.1
101.0597	29.2
102.0630	1.5
105.0699	1.8
107.0493	1.3
107.0856	1.3
108.0443	1.7
109.0647	1.4
110.0601	1.8
111.0440	1.2
112.0757	1.7
114.0549	17.9
116.0706	39.9
117.0738	1.9
118.0862	66.6
119.0895	3.7
122.0599	5.8
123.0804	1.0
124.0756	3.9
126.0912	33.4
127.0945	1.6
130.0862	1.0
133.1009	2.1
136.0754	2.5
138.0911	6.3
140.1068	2.5
147.1166	1.0
149.0959	100.0
150.0548	8.6
150.0993	11.8
151.0583	1.1
152.0704	3.4
164.0704	11.0
165.0738	2.3
166.0860	12.7
166.1224	4.9
167.1176	1.3
168.0653	1.4
170.0809	2.3
180.1016	1.3
181.1052	1.1
182.0809	2.7
184.0965	2.0
185.0919	1.5
189.1019	1.5
191.1063	33.8
192.1097	4.6
195.1124	4.9
202.1221	1.1
207.1124	22.3
208.1160	5.2
209.1278	2.7
212.1278	4.8
230.1169	2.2
244.1326	1.7
272.1273	3.6
273.1843	1.5
275.1233	1.5
289.1541	9.9
289.1794	1.5
290.1380	4.1
290.1574	2.3
291.1341	1.4
291.1697	22.7
291.1936	2.4
292.1731	2.3
306.1806	7.1
306.2418	4.1
306.2786	1.0
307.1267	3.6
307.1646	92.2
307.1837	4.0
307.2018	1.7
307.2453	1.5
308.1100	3.6
308.1482	4.1
308.1682	20.1
308.1851	27.2
308.2211	1.8
308.2943	1.5
309.0897	2.4
309.1239	1.2
309.1437	5.0
309.1795	17.9
310.1266	2.7
310.1412	1.6
310.1640	1.3
310.1824	2.2
310.2007	1.1

Name: Buflomedil Hydrochloride
PrecursorMZ: 308.18544
RT: 7.6084
ExactMass: 343.155036
Spectrum_type: 2
charge: 1
Formula: C17H26ClNO4
SMILES: COC1=CC(=C(C(=C1)OC)C(=O)CCCN2CCCC2)OC.Cl
Method: HCD
Collision_energy: [28.333334]
Isolation_window: 4.0
Ion_mode: P
Num Peaks: 39
55.0547	6.3
59.0496	1.5
69.0703	3.1
70.0655	14.2
83.0495	4.8
84.0810	1.7
96.0446	17.5
97.0650	3.4
101.0599	19.7
110.0602	2.1
114.0551	13.0
116.0708	22.6
124.0760	1.8
130.0864	2.4
164.0707	2.3
166.1226	2.2
176.0706	1.6
192.0654	3.5
208.1332	43.9
209.1281	2.2
209.1365	4.7
210.0760	5.0
212.1281	2.6
263.1385	2.8
290.1022	2.1
292.1169	1.8
307.1268	4.2
307.1650	66.0
308.1125	8.3
308.1487	4.2
308.1684	12.2
308.1851	100.0
309.0886	1.5
309.1436	11.3
309.1814	22.1
310.1263	12.4
310.1412	2.6
310.1647	1.9
310.1831	2.3

Name: Bufotalin
PrecursorMZ: 445.25814
RT: 5.4071
ExactMass: 444.25118886
Spectrum_type: 2
charge: 1
Formula: C26H36O6
SMILES: CC(=O)O[C@H]1C[C@@]2([C@@H]3CC[C@@H]4C[C@H](CC[C@@]4([C@H]3CC[C@@]2([C@H]1C5=COC(=O)C=C5)C)C)O)O
Method: HCD
Collision_energy: [28.333334]
Isolation_window: 4.0
Ion_mode: P
Num Peaks: 194
55.0547	1.2
69.0339	2.6
69.0703	3.5
71.0495	3.3
73.0287	1.3
73.0652	2.2
80.0548	1.3
81.0701	1.9
83.0858	3.2
85.0650	1.5
87.0442	1.7
89.0599	9.3
93.0700	1.4
95.0858	2.4
97.0649	2.0
97.1013	2.0
97.4302	1.1
99.0442	12.6
99.0806	2.5
101.0598	1.1
102.0676	1.1
105.0700	1.2
107.0856	3.2
109.0649	1.4
109.1013	1.6
111.0807	1.6
113.0598	5.8
115.0754	2.6
119.0856	3.1
121.0648	1.1
121.1012	2.7
123.0805	1.7
125.0960	1.9
127.0753	4.6
133.0859	5.4
133.1011	2.2
135.0804	3.1
135.1169	1.6
137.0960	2.7
139.0752	1.6
143.0853	1.0
145.1011	2.5
147.0804	1.7
147.1167	2.5
149.0960	3.3
151.1118	1.1
157.1012	2.8
159.0804	1.0
159.1170	1.7
161.0960	3.6
161.1324	1.3
163.0754	1.7
163.1118	1.6
165.0911	1.4
169.1011	3.0
171.1168	2.9
173.0961	3.4
173.1324	2.1
175.0753	4.3
175.1118	1.5
177.0908	5.7
177.1120	1.8
177.1273	1.0
179.1065	1.3
183.1167	6.1
185.0960	1.2
185.1322	7.5
187.1119	1.8
189.0908	6.0
189.1272	1.8
191.1065	6.1
197.0960	1.0
197.1322	3.3
199.1116	3.7
199.1254	1.1
199.1480	1.3
201.0909	1.1
201.1274	1.4
203.1061	1.7
203.1427	1.9
205.1224	1.8
207.1014	2.3
207.1378	1.6
209.1321	2.3
211.1117	6.6
211.1479	1.8
212.1148	1.2
213.1270	4.1
215.1064	3.8
215.1428	1.4
217.1221	3.2
219.1377	1.8
221.1534	1.7
223.1110	1.4
223.1480	2.0
225.1271	5.5
227.1063	1.6
227.1427	16.5
228.1462	2.9
229.1222	4.3
231.1376	3.6
233.1168	1.3
233.1533	1.8
235.1480	1.5
237.1269	1.9
237.1632	2.8
239.1067	1.0
239.1429	3.1
241.1224	2.1
243.1379	3.4
245.1532	1.2
247.1479	1.5
247.1689	1.6
251.1425	2.4
251.1796	1.0
253.1222	1.0
253.1583	2.6
255.1379	1.6
257.1171	3.0
257.1531	2.6
259.1693	1.2
261.1632	2.8
263.1427	1.1
265.1583	13.4
266.1617	2.4
267.1376	1.8
267.1739	1.0
269.1531	1.5
271.1329	1.8
271.1693	1.4
275.1276	1.2
277.1584	1.1
279.1383	1.5
279.1740	5.2
281.1534	2.2
281.1901	1.0
283.1325	1.0
283.1687	7.3
283.2050	1.1
284.1723	1.2
285.1489	1.3
285.1841	1.0
289.1576	3.1
293.1532	1.7
293.1895	1.6
297.1480	1.7
297.1845	5.4
299.1638	1.5
303.1745	1.5
307.1688	22.6
308.1722	4.8
309.1845	1.2
311.1642	1.2
311.2002	3.0
317.1747	1.0
321.1844	5.1
321.2210	1.3
325.1793	25.7
325.2162	1.1
326.1828	4.8
331.1688	1.8
335.2367	1.1
339.1952	7.1
339.2308	1.9
340.1994	1.3
343.1897	11.6
344.1932	2.8
349.1796	7.3
349.2146	2.7
350.1825	1.4
357.2052	1.4
363.2313	2.6
367.1900	11.6
367.2254	4.0
368.1932	2.6
381.2421	4.1
382.2453	1.0
385.2004	10.4
385.2371	7.7
386.2033	2.5
386.2389	1.6
391.2261	6.4
392.2298	1.5
399.2526	3.6
403.2109	1.2
409.2369	13.0
410.2403	2.8
427.2473	18.7
428.2509	4.5
428.7621	1.1
436.7738	1.2
445.2580	100.0
446.2612	25.0
447.2647	1.4

Name: Butanediamide, 2,3-dihydroxy-N,N'-di-2-propenyl-
PrecursorMZ: 229.11802
RT: 7.5984
ExactMass: 228.111007
Spectrum_type: 2
charge: 1
Formula: C10H16N2O4
SMILES: C=CCNC(=O)C(C(C(=O)NCC=C)O)O
Method: HCD
Collision_energy: [28.333334]
Isolation_window: 4.0
Ion_mode: P
Num Peaks: 50
55.0546	3.4
70.0654	3.6
82.0654	4.6
83.0493	4.0
87.0441	3.0
88.0759	19.2
96.0444	3.7
100.0757	4.2
101.0597	14.3
102.0550	4.4
110.0600	11.4
118.0863	2.5
126.0549	2.5
127.0500	3.0
128.0703	4.5
130.0860	2.4
133.0758	3.1
144.0765	3.0
151.0864	4.6
153.0657	2.4
164.1068	9.1
175.0864	5.4
184.1327	4.5
185.0916	4.8
192.1015	14.1
193.0969	24.1
193.1047	2.2
194.1002	2.2
210.0760	3.2
210.1120	35.4
211.1072	15.2
211.1157	4.6
227.1008	3.1
227.1106	7.0
227.1385	2.4
227.1495	3.4
228.0868	15.5
228.1123	3.5
228.1228	10.8
228.2320	3.3
229.1178	100.0
229.1540	5.4
230.1017	2.7
230.1130	13.2
230.1216	7.7
230.1381	19.0
230.1494	2.4
231.0868	5.2
231.0972	4.9
231.1335	3.2

Name: Butanedioic acid, 2-methyl-3-oxo-, 1,4-diethyl ester
PrecursorMZ: 203.09159
RT: 0.5732
ExactMass: 202.08412354
Spectrum_type: 2
charge: 1
Formula: C9H14O5
SMILES: CCOC(=O)C(C)C(=O)C(=O)OCC
Method: HCD
Collision_energy: [28.333334]
Isolation_window: 4.0
Ion_mode: P
Num Peaks: 99
55.0550	1.0
57.0704	4.5
58.0656	3.3
59.0496	1.1
60.0812	1.1
62.0606	2.3
67.0547	2.4
68.9975	2.7
69.0703	3.1
71.0496	1.3
79.0546	11.0
81.0703	4.9
83.0495	1.1
83.0859	12.9
84.0891	1.2
85.0652	2.5
85.1016	2.4
86.0605	4.4
87.0080	2.1
87.0444	7.0
88.0763	1.3
89.0601	2.4
91.0547	1.1
93.0703	4.7
95.0859	10.2
96.0892	0.9
96.9956	1.7
97.0652	1.7
97.1015	1.6
98.9845	19.4
102.0916	6.1
104.0499	0.9
104.0710	1.3
105.0186	16.9
105.0337	9.0
105.0702	1.0
106.0866	1.7
107.0857	3.5
109.1015	4.9
111.0080	1.9
111.0808	2.2
114.0918	0.9
115.0393	4.6
119.0858	2.7
121.0648	3.1
121.1013	3.4
122.0603	100.0
123.0636	7.8
123.0797	1.3
123.1169	1.8
125.0963	3.6
128.1072	2.1
129.0184	21.6
130.0216	1.3
133.0497	51.3
133.1012	2.3
134.0531	3.2
135.1170	4.3
137.0964	1.3
137.1327	0.9
139.0026	6.1
147.1173	1.5
149.0236	4.5
149.1325	2.2
151.1119	1.0
151.1485	0.9
153.1276	5.0
157.0140	4.3
157.0497	64.6
158.0532	5.3
161.0964	1.7
161.1325	1.9
165.0547	6.9
167.1431	1.2
168.0695	1.1
175.1480	1.6
178.1228	0.9
179.1430	1.0
202.1803	16.3
203.1067	0.8
203.1831	2.1
204.1384	99.3
205.1417	15.0
206.1435	1.1
208.1700	1.5
209.1557	1.7
209.1897	15.8
210.0795	32.6
210.1326	1.4
210.1936	2.5
211.0828	2.4
212.0742	1.3
213.0917	1.9
219.1742	1.8
221.1175	1.4
222.1125	2.7
223.1697	0.9
224.0974	1.1
224.1282	19.6

Name: Butanedione
PrecursorMZ: 87.04429
RT: 9.1886
ExactMass: 86.03677943
Spectrum_type: 2
charge: 1
Formula: C4H6O2
SMILES: CC(=O)C(=O)C
Method: HCD
Collision_energy: [28.333334]
Isolation_window: 4.0
Ion_mode: P
Num Peaks: 11
53.0025	2.3
57.0577	7.2
58.0655	7.6
69.0338	2.1
69.0702	24.9
70.0654	12.6
86.0602	9.8
86.0966	34.6
87.0442	100.0
88.0475	3.3
88.0758	28.9

Name: Buxifoliadine-H
PrecursorMZ: 318.09697
RT: 1.0881
ExactMass: 317.0899372
Spectrum_type: 2
charge: 1
Formula: C16H15NO6
SMILES: CN1C2=C(C=CC(=C2OC)O)C(=O)C3=C1C(=C(C=C3O)O)OC
Method: HCD
Collision_energy: [28.333334]
Isolation_window: 4.0
Ion_mode: P
Num Peaks: 16
150.0549	2.4
194.0446	2.2
202.0862	3.9
230.0811	15.2
231.0844	1.8
258.0760	32.1
259.0794	4.8
285.0631	3.0
286.0709	100.0
287.0743	15.4
290.1019	4.0
300.0865	37.6
301.0900	6.3
318.0970	66.3
318.2050	2.8
319.1002	11.4

Name: Bz-423
PrecursorMZ: 441.13612
RT: 8.118749999999999
ExactMass: 440.1291556
Spectrum_type: 2
charge: 1
Formula: C27H21ClN2O2
SMILES: CN1C2=C(C=C(C=C2)Cl)C(=NC(C1=O)CC3=CC4=CC=CC=C4C=C3)C5=CC=C(C=C5)O
Method: HCD
Collision_energy: [28.333334]
Isolation_window: 4.0
Ion_mode: P
Num Peaks: 23
69.3682	1.2
72.0810	5.7
81.0337	1.4
84.0809	0.9
85.0285	1.1
97.4574	0.9
118.0862	7.5
130.0859	0.8
206.1171	3.6
216.1226	0.8
244.1171	0.9
262.1279	3.4
422.1651	0.9
423.1617	1.4
424.1816	2.2
439.1199	7.5
440.1234	6.7
441.1361	100.0
441.1853	1.0
442.1395	16.0
442.1692	1.2
442.2682	4.1
443.1354	5.3

Name: C16-Ceramide
PrecursorMZ: 538.51907
RT: 4.7215
ExactMass: 537.512095
Spectrum_type: 2
charge: 1
Formula: C34H67NO3
SMILES: CCCCCCCCCCCCCCCC(=O)N[C@@H](CO)[C@@H](/C=C/CCCCCCCCCCCCC)O
Method: HCD
Collision_energy: [28.333334]
Isolation_window: 4.0
Ion_mode: P
Num Peaks: 61
55.0547	3.2
56.0498	1.8
57.0703	8.0
59.6158	2.2
59.7273	3.0
59.8340	1.4
59.8357	5.7
59.9472	1.8
60.0448	8.1
67.0546	14.1
69.0702	10.2
70.0655	2.0
71.0858	6.2
81.0701	17.9
82.0734	1.2
83.0858	10.6
84.0446	6.4
85.1014	3.5
95.0856	19.5
96.0889	1.7
97.1013	7.1
97.4582	1.8
109.1012	10.9
110.1045	1.2
111.1168	2.9
123.1167	3.7
137.1324	1.7
142.0262	27.7
252.2682	2.0
254.2474	1.4
254.2840	1.4
256.2630	5.0
257.2662	1.8
264.2676	2.7
266.2838	6.0
270.2788	1.1
280.2630	2.1
280.2994	3.2
281.3032	1.4
284.2942	5.0
294.2788	1.7
298.3097	1.4
308.2939	9.3
309.2979	1.7
312.2883	2.3
326.3044	14.0
327.3080	2.8
502.4984	1.7
518.5277	3.6
519.5317	4.1
520.5070	9.1
521.5101	3.7
522.5220	1.6
536.5054	1.2
536.5392	43.7
537.4969	1.6
537.5062	1.5
537.5426	60.9
538.5172	100.0
539.5212	34.7
540.5256	3.7

Name: C17 Sphinganine
PrecursorMZ: 288.28934
RT: 4.7474125
ExactMass: 287.282429423
Spectrum_type: 2
charge: 1
Formula: C17H37NO2
SMILES: CCCCCCCCCCCCCC[C@H]([C@H](CO)N)O
Method: HCD
Collision_energy: [28.333334]
Isolation_window: 4.0
Ion_mode: P
Num Peaks: 29
55.0546	2.5
56.0499	1.3
57.0703	3.0
60.0448	100.0
61.0482	2.9
67.0546	8.9
69.0703	8.1
70.0655	2.2
71.0495	1.6
71.0859	2.9
81.0702	13.4
83.0858	10.3
85.1015	1.3
95.0857	17.4
97.1013	7.4
109.1013	8.7
111.1169	2.3
123.1168	3.0
226.2163	5.6
226.2525	3.7
240.2683	17.8
241.2717	2.1
252.2683	11.9
253.2715	2.5
270.2788	94.4
271.2821	15.8
287.2677	1.6
288.2893	70.0
289.2928	13.0

Name: C18-Ceramide
PrecursorMZ: 566.5504
RT: 1.0666
ExactMass: 565.54339513
Spectrum_type: 2
charge: 1
Formula: C36H71NO3
SMILES: CCCCCCCCCCCCCCCCCC(=O)N[C@@H](CO)[C@@H](/C=C/CCCCCCCCCCCCC)O
Method: HCD
Collision_energy: [28.333334]
Isolation_window: 4.0
Ion_mode: P
Num Peaks: 26
57.0703	12.3
60.0448	30.8
67.0546	23.2
69.0702	17.2
70.0655	13.7
81.0701	27.9
83.0858	17.0
95.0857	35.4
97.1013	18.9
109.1013	17.6
252.2679	26.0
264.2683	72.2
265.2717	15.6
266.2842	26.3
282.2781	14.5
284.2942	47.6
548.5394	100.0
549.5429	36.4
550.5543	17.0
565.4782	74.0
566.4750	23.5
566.5123	46.0
566.5497	66.2
567.5193	18.1
567.5533	21.7
568.5646	15.9

Name: C3-Amide-C4-NH2
PrecursorMZ: 159.14929
RT: 3.7853
ExactMass: 158.141913202
Spectrum_type: 2
charge: 1
Formula: C8H18N2O
SMILES: CCCC(=O)NCCCCN
Method: HCD
Collision_energy: [28.333334]
Isolation_window: 4.0
Ion_mode: P
Num Peaks: 15
57.0341	3.1
69.0703	3.2
74.0606	3.0
86.0606	13.3
86.0969	100.0
87.1002	5.5
100.0248	2.7
103.1234	6.7
142.1229	62.7
143.1264	5.9
159.1495	79.3
160.1534	6.3
165.0220	2.7
166.0898	3.5
168.0689	11.1

Name: C4-Amide-C4-NH2
PrecursorMZ: 173.1648
RT: 9.3308
ExactMass: 172.157563266
Spectrum_type: 2
charge: 1
Formula: C9H20N2O
SMILES: CCCCC(=O)NCCCCN
Method: HCD
Collision_energy: [28.333334]
Isolation_window: 4.0
Ion_mode: P
Num Peaks: 10
67.0546	12.2
72.0811	37.8
85.0650	13.0
109.1012	22.6
156.1019	12.7
156.1382	100.0
157.1415	12.2
173.1647	49.9
174.0922	31.4
174.1124	20.5

Name: CA-4948
PrecursorMZ: 418.1622
RT: 1.765
ExactMass: 417.15493749
Spectrum_type: 2
charge: 1
Formula: C21H19N7O3
SMILES: C1COCCN1C2=NC3=C(O2)C=C(C=N3)NC(=O)C4=CC=CC(=N4)C5=CN=C(C=C5)N
Method: HCD
Collision_energy: [28.333334]
Isolation_window: 4.0
Ion_mode: P
Num Peaks: 5
417.1495	4.4
418.1625	100.0
418.1857	4.3
419.1655	20.1
420.1794	23.9

PrecursorMZ: 418.2332
RT: 0.7102
Spectrum_type: 2
charge: 1
SMILES: CC(C)C(N(C)C(=O)C(O)CC1=CC=CC=C1)C(=O)N2CCCC2C(O)=O
Method: HCD
Collision_energy: [28.333334]
Isolation_window: 4.0
Ion_mode: P
Num Peaks: 151
55.0548	0.2
59.0609	0.5
67.0547	0.2
70.0656	0.8
71.0495	0.1
72.0812	1.4
81.0339	1.3
81.0702	0.3
82.0656	0.3
83.0495	0.2
83.0860	0.2
84.0450	0.2
84.0812	0.4
85.0287	0.1
86.0968	1.0
89.0601	0.3
93.0701	0.2
95.0493	0.1
95.0859	0.5
98.0604	0.2
99.0445	0.2
100.0760	3.3
101.0794	0.2
104.0709	0.3
105.0699	0.2
107.0493	0.1
107.0858	0.5
109.0649	0.1
109.1014	0.4
110.0604	0.5
110.0716	0.2
110.0965	0.3
111.0444	0.2
112.0762	0.2
114.0915	0.2
116.0709	1.3
118.0862	0.2
119.0855	0.3
120.0811	0.4
121.0649	0.3
121.1014	0.4
122.0812	0.2
122.0965	0.2
123.0805	0.1
124.0759	0.4
126.0918	0.3
128.0510	0.2
128.0550	0.1
128.0708	24.6
128.0865	0.2
128.0904	0.2
129.0743	1.7
130.0760	0.1
130.0864	0.3
131.0858	0.1
133.0859	0.1
133.1011	0.3
135.0807	0.2
135.1168	0.4
136.0752	0.2
138.0912	0.2
140.1071	2.2
141.1108	0.2
145.1014	0.4
147.1170	0.7
148.0756	0.4
149.1324	0.2
151.1120	0.1
152.0703	0.1
154.0867	0.2
156.1021	1.5
157.1041	0.1
158.1177	0.5
159.1169	0.4
161.0968	0.2
161.1326	2.1
162.1362	0.3
163.1119	0.2
164.0709	0.4
165.0906	0.3
166.0863	0.8
168.1020	0.4
173.1327	0.3
175.0869	0.1
175.1483	0.1
178.1226	0.2
180.1018	0.4
182.0813	0.5
182.1178	0.1
187.1481	0.1
189.1640	0.1
193.0973	1.5
194.0839	0.2
194.1007	0.2
197.1305	0.1
205.0971	0.3
215.1803	0.2
236.1280	0.2
247.1442	0.3
248.1486	0.2
249.1596	1.5
250.1632	0.2
253.1549	0.2
255.2107	2.0
256.2144	0.4
257.1284	0.1
273.1237	0.1
273.1600	0.3
273.2212	2.8
274.2241	0.6
275.1392	0.3
276.1447	0.2
277.1542	0.1
283.2428	0.1
293.1495	0.9
294.1577	3.7
295.1631	0.8
301.1567	0.5
302.1554	0.1
303.1347	0.1
319.1653	0.7
320.1688	0.1
383.2932	0.3
401.1714	0.2
412.3211	0.6
413.3276	0.2
414.3378	0.3
417.1607	0.2
417.2203	0.2
418.2347	3.8
419.1807	0.1
419.2376	0.9
420.2515	0.6
421.2588	0.2
428.3159	1.0
429.3198	0.3
430.1747	0.3
430.2093	0.8
430.2339	0.5
430.3316	100.0
430.4285	0.7
430.4530	0.7
430.4904	0.2
430.5213	0.1
430.6314	0.2
431.1788	0.2
431.2097	0.2
431.3347	29.5
431.4563	0.2
432.3379	4.8
433.3401	0.5

PrecursorMZ: 342.1543
RT: 0.9667
Spectrum_type: 2
charge: 1
SMILES: CC1C(=O)OCC2=CC[N+]3([O-])CCC(OC(=O)C(C)(O)C1(C)O)C23
Method: HCD
Collision_energy: [28.333334]
Isolation_window: 4.0
Ion_mode: P
Num Peaks: 100
67.0549	13.5
69.0703	21.8
70.0656	70.1
71.0495	11.6
72.0813	22.7
80.0499	54.3
81.0339	86.4
81.0702	14.7
83.0496	25.1
84.0812	28.7
86.0969	43.8
93.0702	12.8
95.0494	18.1
95.0859	14.1
96.0447	71.4
98.0968	31.0
99.0444	13.8
101.0601	11.6
103.0391	19.9
105.0702	15.7
110.0604	19.9
111.0445	61.5
112.0761	12.1
114.0552	18.1
116.0709	40.6
120.0810	53.5
121.0654	14.6
123.0443	22.0
126.0916	16.8
127.0392	21.7
130.0654	37.2
136.0760	18.4
137.0600	21.6
138.0916	11.9
146.0603	36.4
150.0552	32.7
150.0917	18.0
152.0707	48.4
159.0925	14.6
163.0874	15.5
164.0708	44.0
166.0862	35.8
178.0870	15.7
180.0656	12.9
180.1012	15.8
182.0816	31.5
188.0712	16.0
190.0863	13.9
192.0656	11.5
194.0811	27.1
208.0969	26.5
210.1109	16.0
212.0910	25.9
214.1082	15.1
225.0881	28.9
275.1151	12.9
276.1229	22.6
281.1284	37.1
292.1458	11.3
293.1258	14.6
310.1562	20.6
324.1454	39.9
334.1321	12.3
336.1497	12.9
341.1507	37.4
341.1857	89.8
342.1545	76.0
342.1932	21.2
343.1319	11.2
343.1654	82.2
344.1607	22.2
345.1458	22.5
345.1832	25.8
346.1312	36.9
346.1697	31.4
347.1625	47.6
347.1955	24.0
348.1439	43.5
349.1404	18.0
349.1801	31.0
350.1282	15.3
350.1647	21.2
350.2383	12.5
351.1602	20.7
352.1415	42.5
352.1828	11.5
353.1444	14.2
353.1755	14.5
353.2085	14.4
354.1415	100.0
355.1631	24.1
355.2042	25.3
356.1518	25.2
357.1374	18.3
357.1816	62.0
358.1320	12.0
358.1667	26.6
359.1658	29.3
360.1488	21.0
360.1923	17.7

PrecursorMZ: 437.25056
RT: 1.9576
ExactMass: 436.24610348
Spectrum_type: 2
charge: 1
Formula: C24H36O7
SMILES: CC1CCC2C(C13CCC4(O3)CC(=O)OC4)(CCC(C2(C)COC(=O)C)OC(=O)C)C
Method: HCD
Collision_energy: [28.333334]
Isolation_window: 4.0
Ion_mode: P
Num Peaks: 52
70.0657	6.9
81.0338	5.4
84.0812	14.9
86.0970	6.9
89.0600	16.1
111.0445	5.9
126.0915	6.4
130.0864	11.6
133.0857	9.7
141.0660	87.0
142.0696	4.9
179.0814	17.7
180.1019	100.0
181.1063	8.6
303.1699	5.4
305.1874	22.3
308.1600	5.1
341.1501	6.3
350.1828	5.7
378.2022	35.3
379.2060	8.6
401.2872	4.6
420.2253	17.0
431.1825	7.3
436.1888	8.5
437.1864	8.5
437.2514	92.0
438.1604	6.2
438.2022	8.0
438.2579	33.3
439.1988	11.1
439.2638	7.8
440.1668	11.4
441.2169	11.9
442.1872	12.3
443.1694	6.6
443.2308	7.3
444.1674	4.9
444.2193	7.0
445.1971	8.4
446.1675	5.0
446.2372	7.7
447.2231	7.7
448.2464	5.0
449.1852	14.0
450.2073	5.1
451.1999	10.0
452.1721	8.9
453.1678	4.9
453.2209	7.1
453.3426	9.6
454.1881	9.2

PrecursorMZ: 464.3365
RT: 4.8577
Spectrum_type: 2
charge: 1
SMILES: CCCCCCCCCCCCCCCCCC(NC(C(O)=O)CC1=CC(O)=C(O)C=C1)=O
Method: HCD
Collision_energy: [28.333334]
Isolation_window: 4.0
Ion_mode: P
Num Peaks: 16
69.2259	6.2
81.0700	4.1
85.0650	13.9
114.0913	23.5
125.0960	4.0
133.1010	3.5
139.1115	9.0
156.1381	20.6
213.1633	7.4
428.1808	5.4
428.3144	5.3
446.3256	100.0
447.3290	28.4
464.3362	49.5
465.3402	13.8
466.2172	5.8

Name: CL82198
PrecursorMZ: 303.17
RT: 8.246
ExactMass: 302.16304257
Spectrum_type: 2
charge: 1
Formula: C17H22N2O3
SMILES: C1COCCN1CCCCNC(=O)C2=CC3=CC=CC=C3O2
Method: HCD
Collision_energy: [28.333334]
Isolation_window: 4.0
Ion_mode: P
Num Peaks: 21
101.0599	3.3
107.0732	2.0
174.1026	1.8
185.1075	2.2
203.1180	9.0
286.1283	2.1
301.1532	2.0
302.1024	4.6
302.1224	4.8
302.1384	20.7
302.1528	3.5
303.1339	10.5
303.1441	3.0
303.1701	100.0
304.1166	10.8
304.1370	2.5
304.1531	11.6
304.1722	12.5
305.1114	4.2
305.1485	22.7
305.1857	5.3

PrecursorMZ: 475.23265
RT: 0.539
Spectrum_type: 2
charge: 1
SMILES: COC(=O)C12C(=O)C(C)(O)C(=O)C1(C)\C(=C/C3C2(C)CCC4C(C)(CO)C5CCC34C(=O)O5)C
Method: HCD
Collision_energy: [28.333334]
Isolation_window: 4.0
Ion_mode: P
Num Peaks: 184
57.0704	42.8
59.0496	11.0
59.0609	13.9
67.0548	21.0
69.0339	26.1
69.0703	76.1
71.0495	29.9
71.0860	12.1
72.0811	15.1
81.0338	19.6
81.0703	37.6
83.0495	41.2
83.0860	23.0
85.0287	35.0
85.0651	49.0
85.1016	9.9
86.0966	12.5
89.0601	9.8
91.0542	11.3
93.0702	23.9
95.0494	40.6
95.0857	39.5
97.0649	26.3
97.1014	14.0
98.9844	9.9
105.0700	11.4
107.0858	23.9
109.0650	23.3
109.1014	32.6
111.0443	15.8
111.0805	10.8
112.0759	63.3
113.0599	18.8
119.0857	18.6
121.0649	14.9
121.1012	27.9
123.0806	28.2
123.1170	12.6
126.0913	31.3
127.0389	12.3
127.0752	16.2
127.1116	14.0
130.0499	11.2
131.0856	9.6
133.1013	100.0
134.1048	10.7
135.0801	15.1
135.1171	19.1
137.0460	35.2
137.0592	18.4
137.0961	19.2
139.1117	14.4
140.0707	9.5
145.1011	14.1
147.0805	13.5
147.1166	18.0
149.0960	18.7
149.1328	10.5
151.0747	11.0
151.1121	10.0
155.0105	32.4
156.0650	13.4
157.1220	26.6
159.1173	10.4
161.0958	14.2
163.0757	10.5
163.1117	11.8
165.0908	12.3
170.0817	11.8
171.1171	9.7
173.0964	9.6
175.0754	13.6
175.1113	14.3
185.1323	12.5
187.1116	10.7
191.0705	11.7
199.1119	13.8
201.0905	11.5
201.1272	10.8
203.0701	9.6
203.1068	14.1
205.1224	12.2
209.0810	10.2
213.0916	10.6
215.1065	21.2
217.0857	14.9
217.1224	16.4
225.0757	9.7
229.0862	9.6
229.1223	16.3
231.0653	11.7
231.1019	10.0
231.1382	10.4
233.0809	10.7
233.1165	11.3
235.1332	9.7
241.1217	12.3
243.1010	11.4
245.1166	19.7
247.1317	12.1
255.1381	9.8
257.1173	21.8
259.0967	10.2
259.1328	18.2
261.1112	13.6
261.1485	10.6
263.1263	15.5
271.1330	30.0
273.1119	15.3
273.1499	10.9
274.1456	9.7
275.1280	24.4
283.1330	12.9
283.1697	10.6
285.1117	11.0
285.1482	11.6
287.1280	36.5
287.1638	16.7
288.1294	9.6
289.1437	24.1
291.1233	12.2
297.1481	11.7
299.1644	12.9
301.1436	12.3
301.1803	10.8
305.1387	12.7
311.1650	12.9
313.1797	18.5
313.2734	64.7
314.2760	12.2
317.1748	10.8
323.1652	12.4
325.1803	16.8
327.1624	14.7
327.1899	15.6
329.1738	21.2
331.1901	21.3
339.1958	13.7
341.1751	31.0
343.1907	33.3
345.1687	10.9
347.1841	24.7
349.2013	15.0
357.2061	23.0
359.1845	25.9
361.2018	26.4
371.1853	9.8
377.1964	13.1
403.1742	9.8
409.2414	10.8
423.2157	15.1
425.2337	11.6
427.2513	37.2
428.2557	12.2
437.2316	12.7
440.2472	10.7
441.2266	20.4
443.2435	29.0
445.2597	90.1
446.2640	24.8
447.2332	10.5
455.2474	11.8
456.2384	19.5
457.2162	18.3
459.2380	17.4
461.2569	30.2
463.2768	34.7
464.2696	10.2
471.2363	15.3
473.2631	11.9
474.2493	37.9
475.2311	43.3
476.2704	16.1
477.2467	18.7
478.2764	9.6
479.2695	24.5
480.2897	12.6
481.2949	40.1
482.4189	10.7
485.2375	15.8
486.2407	12.7
488.2626	16.0
489.2529	31.8
490.2552	13.4

Name: Cabreuvin
PrecursorMZ: 313.10658
RT: 2.9319
ExactMass: 312.09977361
Spectrum_type: 2
charge: 1
Formula: C18H16O5
SMILES: COC1=CC2=C(C=C1)C(=O)C(=CO2)C3=CC(=C(C=C3)OC)OC
Method: HCD
Collision_energy: [28.333334]
Isolation_window: 4.0
Ion_mode: P
Num Peaks: 76
70.0655	3.4
81.0338	2.1
83.0496	1.1
84.0447	2.6
84.0811	2.3
85.0288	1.5
87.0442	1.0
99.0443	1.2
100.0759	1.4
101.0599	2.2
102.0552	1.0
107.0494	2.3
111.0443	2.4
112.0757	0.9
116.0707	2.5
125.0235	4.9
126.0552	1.0
128.0709	1.0
130.0501	1.9
130.0865	1.4
136.0758	1.6
142.0499	0.9
145.0495	1.5
158.0928	1.0
181.0975	2.0
191.0692	1.2
207.0814	0.9
207.1130	1.6
221.0963	8.8
222.0993	1.2
225.0909	5.3
227.1138	3.3
231.0809	3.8
235.0760	1.0
241.0943	1.6
249.0911	100.0
250.0942	17.5
251.0981	2.0
253.0855	2.4
265.0834	1.4
267.1016	14.1
268.1048	2.2
277.0861	2.4
295.0966	40.4
296.0997	7.7
297.1046	1.2
304.1393	5.8
305.1426	1.0
311.0940	1.5
311.1607	2.8
312.1132	1.4
313.1072	5.4
313.1501	1.2
314.1390	2.5
315.1248	1.7
315.1685	1.0
316.1148	1.3
316.1549	1.5
317.1460	14.0
318.1318	1.5
319.1638	2.3
320.1394	1.7
320.1789	1.2
321.1814	1.2
322.1494	6.5
323.1566	1.2
325.1043	1.1
325.1416	1.4
325.1759	5.6
327.1250	1.2
328.1071	1.0
328.1436	1.0
329.1433	2.1
331.1247	7.1
331.1599	1.5
332.1410	1.1

Name: Cadaverine
PrecursorMZ: 103.12314
RT: 9.1985
ExactMass: 102.115698455
Spectrum_type: 2
charge: 1
Formula: C5H14N2
SMILES: C(CCN)CCN
Method: HCD
Collision_energy: [28.333334]
Isolation_window: 4.0
Ion_mode: P
Num Peaks: 10
56.0500	13.7
58.0656	72.8
60.0560	9.1
60.0812	10.4
60.9581	24.0
62.9295	14.8
86.0967	100.0
102.1279	30.2
103.1230	10.8
104.1071	11.3

Name: Caffeic Acid Phenethyl Ester
PrecursorMZ: 307.094
RT: 7.5139
ExactMass: 284.10485899
Spectrum_type: 2
charge: 1
Formula: C17H16O4
SMILES: C1=CC=C(C=C1)CCOC(=O)/C=C/C2=CC(=C(C=C2)O)O
Method: HCD
Collision_energy: [28.333334]
Isolation_window: 4.0
Ion_mode: P
Num Peaks: 7
100.0759	100.0
123.0441	52.9
191.0703	24.2
306.0971	30.4
307.0937	92.5
307.1660	43.6
308.1493	26.3

Name: Camp
PrecursorMZ: 330.05838
RT: 8.2804
ExactMass: 329.05252012
Spectrum_type: 2
charge: 1
Formula: C10H12N5O6P
SMILES: C1[C@@H]2[C@H]([C@H]([C@@H](O2)N3C=NC4=C(N=CN=C43)N)O)OP(=O)(O1)O
Method: HCD
Collision_energy: [28.333334]
Isolation_window: 4.0
Ion_mode: P
Num Peaks: 6
98.9844	11.3
114.0914	27.0
168.0689	10.7
330.0582	100.0
330.1324	8.0
331.0615	12.7

Name: Camphor
PrecursorMZ: 153.12739
RT: 1.6402
ExactMass: 152.12011513
Spectrum_type: 2
charge: 1
Formula: C10H16O
SMILES: CC1(C2CCC1(C(=O)C2)C)C
Method: HCD
Collision_energy: [28.333334]
Isolation_window: 4.0
Ion_mode: P
Num Peaks: 19
67.0546	19.1
71.0495	40.7
81.0701	74.6
93.0701	37.6
95.0856	25.7
97.0650	17.6
107.0855	25.3
109.1013	41.3
135.1170	23.4
140.0342	36.7
152.0706	77.2
152.1070	18.5
152.1432	26.3
153.0659	17.4
153.1021	27.1
153.1274	100.0
153.1384	50.4
154.0497	30.1
154.0862	31.2

Name: Camptothecin
PrecursorMZ: 371.101
RT: 1.0103
ExactMass: 348.111007
Spectrum_type: 2
charge: 1
Formula: C20H16N2O4
SMILES: CC[C@@]1(C2=C(COC1=O)C(=O)N3CC4=CC5=CC=CC=C5N=C4C3=C2)O
Method: HCD
Collision_energy: [28.333334]
Isolation_window: 4.0
Ion_mode: P
Num Peaks: 103
61.0109	1.0
62.9902	0.7
67.0547	1.1
69.0703	0.5
73.0472	59.4
74.0468	2.8
74.0505	1.5
75.0265	2.0
75.0440	1.1
79.0213	0.8
81.0702	2.2
83.0858	1.1
86.0967	0.7
91.0577	100.0
92.0572	4.5
92.0610	3.1
93.0369	1.8
93.0545	2.0
93.0701	1.1
95.0858	3.0
97.4000	0.7
104.0708	0.8
105.0700	0.9
107.0858	1.6
109.1014	4.3
114.0736	4.7
115.0756	2.5
119.0857	1.5
121.1012	1.7
123.1170	0.6
133.1012	1.7
135.1168	2.6
141.0911	0.5
147.1168	2.5
149.0450	1.8
149.0962	0.5
149.1325	2.6
159.1170	1.0
161.1325	2.1
163.1482	1.3
167.0555	4.2
169.0353	0.7
173.1325	0.6
175.1482	1.2
177.1273	0.6
181.1224	0.5
187.1481	0.8
189.1638	1.1
195.1380	0.6
201.1638	2.5
203.1429	0.8
203.1793	0.5
207.1379	0.6
209.1537	0.6
211.1480	1.0
215.1793	3.6
217.1950	0.5
225.0431	0.5
225.1635	0.6
229.1589	1.0
229.1949	1.1
235.1693	1.6
243.2108	0.8
249.1848	0.7
261.1848	2.2
266.9984	2.3
268.9782	9.6
269.9777	1.7
270.9749	0.9
275.2000	0.8
281.0504	1.0
283.0306	1.3
285.0095	58.1
286.0096	12.4
287.0059	5.4
289.2162	1.1
299.0616	8.1
300.0621	1.8
301.0577	0.7
303.0201	5.4
304.0204	1.2
321.2576	0.6
339.0387	0.7
339.2678	1.1
355.0697	76.5
356.0703	23.8
357.0670	11.2
369.1455	1.1
369.2054	1.2
369.2793	0.8
371.1011	11.0
371.1821	1.4
371.2207	0.6
371.2571	0.6
371.2943	28.0
372.1015	3.9
372.2974	7.6
373.0797	6.1
373.0999	1.1
373.1990	0.6
373.2364	0.8
374.0809	2.2
375.0776	1.0

Name: Canangalia H
PrecursorMZ: 249.1847
RT: 5.3477
Spectrum_type: 2
charge: 1
SMILES: C(C/C(=C/C(OC)=O)/C)[C@@H]1C(C)(C)[C@H](O)CC[C@@]1(C)O
Method: HCD
Collision_energy: [28.333334]
Isolation_window: 4.0
Ion_mode: P
Num Peaks: 79
55.0546	2.4
67.0546	19.1
69.0702	5.4
69.9773	2.4
71.0494	2.2
79.0545	22.0
81.0701	19.0
83.0494	2.5
83.0858	9.1
85.0650	2.3
91.0543	8.7
93.0700	44.5
94.0733	2.9
95.0492	2.5
95.0857	20.0
97.0648	3.3
97.1012	3.1
99.0440	2.0
99.0805	2.8
101.0596	2.2
105.0700	6.5
107.0856	35.2
109.0648	2.5
109.1012	8.3
111.0439	2.6
111.0805	3.6
117.0700	3.3
119.0855	12.3
121.0647	3.0
121.1011	78.6
122.1044	6.2
123.0803	6.0
123.1168	2.5
125.0595	2.8
125.0960	2.7
131.0854	9.6
133.1011	15.5
135.0803	5.6
135.1167	26.9
137.0959	12.0
138.0994	2.2
139.0751	2.7
145.1010	6.9
147.1167	8.8
148.1198	2.1
149.0960	11.1
149.1323	2.9
151.1116	5.1
153.0909	8.2
157.1011	2.7
161.1322	2.1
163.1114	3.2
167.1065	3.3
171.1166	3.8
175.1114	2.6
185.1321	2.7
189.1634	2.7
202.0858	2.1
203.1426	2.5
203.1791	4.2
204.1015	3.9
213.1634	10.8
231.1376	2.3
231.1739	13.1
232.0602	3.9
232.0965	4.1
232.1778	2.3
248.0914	5.3
248.1122	4.6
249.0859	6.1
249.1220	3.7
249.1487	5.0
249.1844	100.0
250.0707	4.7
250.1068	8.9
250.1429	2.5
250.1879	15.8
251.1021	4.6
251.1637	4.5

Name: Caprine
PrecursorMZ: 132.10183
RT: 2.3214
ExactMass: 131.094628657
Spectrum_type: 2
charge: 1
Formula: C6H13NO2
SMILES: CCCC[C@@H](C(=O)O)N
Method: HCD
Collision_energy: [28.333334]
Isolation_window: 4.0
Ion_mode: P
Num Peaks: 5
86.0968	100.0
87.1000	6.5
137.0459	3.1
137.0709	5.7
152.0568	8.7

Name: Caprolactam
PrecursorMZ: 114.09142
RT: 1.8799
ExactMass: 113.084063974
Spectrum_type: 2
charge: 1
Formula: C6H11NO
SMILES: C1CCC(=O)NCC1
Method: HCD
Collision_energy: [28.333334]
Isolation_window: 4.0
Ion_mode: P
Num Peaks: 13
58.0655	1.6
68.0498	1.2
69.0702	6.2
69.7468	1.1
70.0654	0.9
72.0811	4.5
79.0545	9.0
86.0966	0.9
96.0809	6.0
97.0649	2.5
114.0913	100.0
114.1277	1.5
115.0946	6.9

Name: Capryloyl Glycine
PrecursorMZ: 202.14376
RT: 8.9063
ExactMass: 201.13649347
Spectrum_type: 2
charge: 1
Formula: C10H19NO3
SMILES: CCCCCCCC(=O)NCC(=O)O
Method: HCD
Collision_energy: [28.333334]
Isolation_window: 4.0
Ion_mode: P
Num Peaks: 8
84.0812	8.1
100.0759	6.7
102.0915	6.6
184.1333	13.2
202.1438	100.0
202.1801	5.7
202.6000	7.1
203.1473	10.3

Name: Captopril
PrecursorMZ: 218.08488
RT: 6.952
ExactMass: 217.07726451
Spectrum_type: 2
charge: 1
Formula: C9H15NO3S
SMILES: C[C@H](CS)C(=O)N1CCC[C@H]1C(=O)O
Method: HCD
Collision_energy: [28.333334]
Isolation_window: 4.0
Ion_mode: P
Num Peaks: 28
60.0449	23.5
72.0813	14.7
73.0111	12.1
82.0656	6.1
86.0968	26.9
101.0602	5.7
114.0916	11.3
116.1073	12.8
120.0658	5.6
128.0708	13.7
132.1021	20.8
142.0863	7.5
160.0972	4.7
172.0794	19.9
173.1287	17.3
174.1028	5.6
184.0970	4.3
199.0869	7.2
217.0972	41.7
218.0845	100.0
218.1020	6.6
218.1179	4.5
219.0765	5.8
219.0895	12.4
219.1128	8.6
219.1339	8.1
220.0973	8.9
220.1192	44.9

Name: Caramboxin
PrecursorMZ: 256.08118
RT: 2.542
ExactMass: 255.07428713
Spectrum_type: 2
charge: 1
Formula: C11H13NO6
SMILES: COC1=CC(=C(C(=C1)O)C(=O)O)C[C@@H](C(=O)O)N
Method: HCD
Collision_energy: [28.333334]
Isolation_window: 4.0
Ion_mode: P
Num Peaks: 131
69.0339	6.8
70.0655	8.7
71.0495	2.8
72.0812	2.6
81.0339	3.3
83.0494	2.1
84.0447	5.9
84.0811	4.9
85.0286	2.5
85.0649	1.6
86.0602	2.7
86.0968	6.6
87.0442	2.1
96.0447	2.3
97.0286	9.1
98.0600	1.5
99.0443	6.7
100.0757	3.7
102.0552	2.6
107.0492	1.8
109.0286	2.6
110.0600	2.0
110.0716	3.3
111.0440	2.2
111.0554	5.4
112.0758	2.2
114.0550	3.8
116.0709	4.3
118.0863	2.2
122.0605	2.8
123.0554	21.7
124.0392	1.9
125.0232	1.7
125.0708	1.9
126.0550	4.8
127.0390	2.8
128.0706	3.5
128.0816	1.9
130.0498	10.3
130.0860	3.8
134.0598	1.6
135.0442	2.6
136.0617	1.9
138.0553	3.0
140.0341	2.1
140.0704	2.1
141.0656	5.9
142.0499	10.4
146.0809	2.5
149.0597	1.6
150.0550	7.4
151.0388	2.1
152.0563	1.8
152.0704	3.5
153.0409	9.9
154.0493	2.3
154.0861	1.8
156.0652	2.7
156.0756	2.8
164.0704	3.0
165.0545	3.0
168.0652	4.6
169.0491	1.7
174.0546	2.7
175.0388	1.8
176.0701	2.3
178.0497	16.2
178.0857	1.7
179.0338	1.7
179.0529	2.0
180.0652	3.0
182.0807	2.5
191.0812	1.6
192.0657	5.8
193.0494	3.7
194.0809	2.6
196.0601	10.0
197.0568	2.0
197.0924	3.1
198.0760	2.1
198.1124	2.0
200.0914	1.9
208.0601	2.3
210.0761	6.3
211.1076	4.2
212.0912	2.9
216.1222	4.1
220.0597	6.3
221.0444	3.0
222.0755	1.6
224.0553	1.7
226.0710	2.8
227.1027	1.7
228.0863	4.3
236.0922	1.6
237.0870	3.6
238.0706	17.1
239.0522	2.8
239.0759	1.7
239.1023	27.1
240.0863	2.0
240.1085	2.5
242.1025	1.6
244.1179	5.5
246.0968	1.8
254.1040	3.1
255.0969	8.8
255.1318	3.5
256.0811	59.4
256.1247	2.5
257.0852	8.4
257.1127	100.0
258.0984	2.1
258.1175	10.8
259.1261	2.5
260.1123	6.3
262.0912	6.2
262.1285	6.9
263.0998	1.8
263.1759	3.2
264.1069	1.7
268.0815	1.6
269.0882	12.7
269.1140	3.2
270.0963	5.0
271.1376	5.3
272.1199	3.1
274.0899	1.9
274.1076	2.2
274.1374	1.9
276.0846	10.3

Name: Carbendazim
PrecursorMZ: 192.07664
RT: 5.6647
ExactMass: 191.069476538
Spectrum_type: 2
charge: 1
Formula: C9H9N3O2
SMILES: COC(=O)NC1=NC2=CC=CC=C2N1
Method: HCD
Collision_energy: [28.333334]
Isolation_window: 4.0
Ion_mode: P
Num Peaks: 10
59.0495	4.1
74.0603	15.4
148.0425	6.3
191.0811	20.4
192.0763	100.0
192.0839	5.6
192.1378	4.1
193.0799	10.9
193.0965	4.3
194.0808	18.8

Name: Carbidopa
PrecursorMZ: 227.10248
RT: 0.9353
ExactMass: 226.09535693
Spectrum_type: 2
charge: 1
Formula: C10H14N2O4
SMILES: C[C@](CC1=CC(=C(C=C1)O)O)(C(=O)O)NN
Method: HCD
Collision_energy: [28.333334]
Isolation_window: 4.0
Ion_mode: P
Num Peaks: 248
59.0497	2.4
67.0547	2.9
69.0340	3.5
69.0703	4.6
70.0656	60.7
71.0496	6.2
71.0690	2.3
72.0812	11.2
74.0605	12.5
79.0547	2.9
80.0500	2.4
81.0339	13.0
81.0703	2.7
82.0656	11.4
83.0496	11.4
84.0448	19.1
84.0812	6.9
85.0653	5.7
86.0604	9.6
86.0968	35.0
87.0445	9.1
88.0761	3.6
89.0601	3.4
93.0702	3.6
94.0656	3.0
95.0495	5.7
95.0607	3.4
96.0446	6.8
97.0288	2.7
97.0652	4.2
98.0604	14.7
98.0968	7.8
99.0443	4.5
100.0760	20.0
100.1124	6.7
101.0600	29.1
102.0554	2.7
105.0704	3.3
107.0493	3.3
107.0857	3.3
108.0448	14.7
109.0652	3.1
109.0764	5.4
110.0604	8.3
110.0718	4.1
111.0444	9.8
112.0760	12.9
113.0601	3.2
114.0553	10.6
114.0917	8.6
116.0709	41.2
118.0866	3.0
120.0808	3.8
121.0649	7.3
122.0600	3.6
123.0805	2.5
124.0397	2.4
124.0759	7.0
125.0237	2.5
125.0606	4.4
125.0705	3.8
126.0374	2.9
126.0553	27.3
126.0661	3.8
126.0914	7.3
127.0394	2.4
128.0709	9.5
130.0501	13.8
130.0863	5.2
131.0857	2.3
132.0662	2.3
132.1021	7.5
134.0601	3.5
135.0806	4.2
136.0757	10.0
137.0598	4.6
137.0710	2.8
138.0552	8.0
138.0915	5.8
139.0756	2.2
140.0345	3.6
140.0709	21.2
140.0819	2.2
141.0659	2.8
141.1021	3.5
142.0501	16.4
142.0865	3.6
144.0656	3.3
144.0808	2.4
144.1022	3.1
148.0760	3.2
149.0601	2.7
149.0965	2.6
150.0552	2.6
150.0912	4.5
152.0709	11.9
152.1072	2.4
153.0548	2.4
154.0501	5.9
154.0862	4.0
155.0706	2.5
155.0823	2.3
156.0657	4.4
156.0772	3.7
156.1017	3.9
157.0616	2.3
161.1077	4.9
162.0555	3.1
162.0765	19.5
162.0907	2.6
162.1016	4.3
163.0748	5.0
164.0703	6.7
164.1071	6.1
166.0865	11.5
166.0981	3.8
166.1229	2.4
167.0703	2.3
167.0822	2.8
168.0654	7.1
168.1018	7.6
169.0619	2.3
169.0857	2.6
170.0813	5.1
171.0777	2.3
174.0773	5.1
178.0846	5.2
178.0977	2.2
180.0652	20.4
180.1009	11.3
181.0977	19.7
182.0814	12.4
182.0984	2.7
182.1161	5.5
183.1133	3.9
184.0606	2.8
184.0953	4.4
184.1335	4.9
186.0771	2.2
186.1128	4.6
186.1490	3.3
187.1083	4.2
188.0700	3.3
190.0845	5.2
191.0826	6.8
192.0657	6.6
192.1014	11.4
193.0991	2.4
194.0799	5.5
194.1171	5.0
195.1138	3.0
196.0953	4.8
196.1113	9.3
197.0934	2.2
198.0770	2.5
198.0898	3.1
198.1128	10.2
199.0874	3.4
199.1067	3.8
200.0919	4.1
200.1277	11.4
201.1046	3.2
205.0974	2.7
206.0939	2.2
207.1133	15.6
208.0608	6.6
208.1109	19.1
209.0931	20.1
209.1308	4.1
210.0767	11.2
210.1115	13.1
211.1115	3.4
211.1442	2.3
212.1031	17.5
212.1287	12.2
213.1300	2.3
214.1061	4.2
216.1242	6.3
217.0975	7.4
217.1201	2.7
218.0808	7.4
220.0966	4.3
220.1098	2.4
221.1290	3.1
222.0755	7.6
222.1099	5.4
223.1090	6.5
224.0555	2.6
224.0926	4.6
225.0923	2.4
225.1239	12.2
226.0190	4.1
226.0717	36.9
226.1089	40.9
226.1223	16.4
227.0793	6.0
227.1024	27.7
227.1393	8.4
228.0686	4.6
228.0848	6.0
228.1029	2.9
228.1250	8.8
229.0673	3.8
229.1190	12.2
229.1543	9.2
230.0816	2.3
230.1032	5.0
230.1163	2.4
230.1381	20.6
231.1362	5.2
232.0980	4.7
232.1189	3.9
233.0916	2.9
234.0760	7.9
234.1149	2.4
234.1349	45.9
235.1082	7.7
235.1383	6.0
236.0910	22.5
237.0869	34.4
237.1245	3.1
237.1492	3.6
238.0711	4.3
238.1065	20.3
238.1458	4.3
239.0769	3.5
239.1062	6.6
239.1377	8.1
240.0857	8.6
240.1224	58.3
241.1210	16.3
241.1559	4.7
242.1146	100.0
242.1416	9.0
242.1488	10.6
243.1141	10.1
243.1379	6.8
244.0963	5.0
244.1160	10.5
245.1137	4.0
245.1509	4.2
246.0756	3.5
246.1334	8.5
246.1709	3.4
247.0768	3.6
247.1079	4.0
248.0915	7.8
248.1496	2.5

Name: Carbocysteine
PrecursorMZ: 162.022
RT: 5.5181
ExactMass: 179.02522894
Spectrum_type: 2
charge: 1
Formula: C5H9NO4S
SMILES: C([C@@H](C(=O)O)N)SCC(=O)O
Method: HCD
Collision_energy: [28.333334]
Isolation_window: 4.0
Ion_mode: P
Num Peaks: 34
55.0183	2.4
68.0499	7.4
73.0288	5.0
74.0063	49.3
74.0241	23.4
74.0605	3.7
74.9903	5.4
87.0444	3.9
88.0396	3.0
92.0168	36.1
102.0552	2.4
102.9851	3.4
108.0810	3.8
116.0166	98.3
116.0707	3.4
117.0199	3.8
118.0125	3.3
120.0115	69.7
120.0657	6.5
120.9955	61.8
121.0150	2.0
121.9990	2.0
122.9916	2.1
136.0757	24.1
160.0758	1.7
160.9014	3.4
161.0712	2.0
162.0220	100.0
162.0550	4.7
163.0258	6.2
163.0868	1.7
163.1117	2.9
164.0180	3.3
164.0707	7.6

Name: Carvone, (-)-
PrecursorMZ: 133.10115
RT: 3.8353
ExactMass: 150.104465066
Spectrum_type: 2
charge: 1
Formula: C10H14O
SMILES: CC1=CC[C@H](CC1=O)C(=C)C
Method: HCD
Collision_energy: [28.333334]
Isolation_window: 4.0
Ion_mode: P
Num Peaks: 3
105.0700	100.0
133.1011	76.1
134.0600	32.5

Name: Caudatin
PrecursorMZ: 491.29919
RT: 4.6466
ExactMass: 490.29305367
Spectrum_type: 2
charge: 1
Formula: C28H42O7
SMILES: CC(C)/C(=C/C(=O)O[C@@H]1C[C@@H]2[C@]3(CC[C@@H](CC3=CC[C@]2([C@@]4([C@]1([C@@](CC4)(C(=O)C)O)C)O)O)O)C)/C
Method: HCD
Collision_energy: [28.333334]
Isolation_window: 4.0
Ion_mode: P
Num Peaks: 5
54.5891	5.0
176.8750	5.4
491.2988	100.0
492.3019	27.5
493.2990	5.6

Name: CeMMEC13
PrecursorMZ: 337.1182
RT: 5.1863
ExactMass: 336.111007
Spectrum_type: 2
charge: 1
Formula: C19H16N2O4
SMILES: CN1C2=CC=CC=C2C(=CC1=O)C(=O)NC3=CC4=C(C=C3)OCCO4
Method: HCD
Collision_energy: [28.333334]
Isolation_window: 4.0
Ion_mode: P
Num Peaks: 46
55.0547	0.7
57.0703	0.6
69.0703	1.3
72.0812	0.8
81.0338	1.1
81.0702	0.7
83.0495	1.4
83.0859	1.3
95.0858	0.7
97.1014	0.9
111.0443	12.9
114.0915	1.6
118.0865	0.7
160.9014	0.9
166.0863	0.8
175.1229	0.9
176.8753	3.0
188.0705	0.9
210.1128	0.7
228.1231	2.2
236.1478	0.7
283.0965	1.6
291.1127	5.4
292.1160	1.1
293.1285	6.1
294.1321	1.0
305.0921	1.0
309.1231	2.2
318.1818	1.2
319.1078	0.8
335.1606	0.7
336.1434	1.5
336.1642	1.0
336.1934	1.9
337.1183	100.0
337.1348	1.0
337.1515	0.7
337.1744	1.1
337.1909	0.9
337.3576	1.0
338.1216	20.3
338.1556	1.2
338.1956	0.8
338.2441	1.3
338.3416	3.8
339.1206	1.3

Name: Cellobiose
PrecursorMZ: 325.1124
RT: 9.4246
ExactMass: 342.11621151
Spectrum_type: 2
charge: 1
Formula: C12H22O11
SMILES: C([C@@H]1[C@H]([C@@H]([C@H]([C@@H](O1)O[C@@H]2[C@H](OC([C@@H]([C@H]2O)O)O)CO)O)O)O)O
Method: HCD
Collision_energy: [28.333334]
Isolation_window: 4.0
Ion_mode: P
Num Peaks: 12
61.0288	7.9
69.0339	9.1
85.0286	100.0
91.0391	7.7
97.0285	22.5
99.0442	4.9
109.0285	8.0
127.0389	32.4
145.0494	40.6
146.0922	8.0
163.0599	12.6
324.1273	5.6

Name: Cephalotaxine
PrecursorMZ: 316.16019
RT: 5.3956
ExactMass: 315.14705815
Spectrum_type: 2
charge: 1
Formula: C18H21NO4
SMILES: COC1=C[C@]23CCCN2CCC4=CC5=C(C=C4[C@@H]3[C@@H]1O)OCO5
Method: HCD
Collision_energy: [28.333334]
Isolation_window: 4.0
Ion_mode: P
Num Peaks: 110
55.0547	1.4
59.0496	1.3
60.0560	0.4
70.0657	13.9
71.0690	0.5
72.0812	0.5
83.0496	3.2
84.0813	2.4
86.0604	0.6
88.0761	1.0
89.0601	0.5
98.0606	0.4
98.9844	0.6
100.0761	0.6
101.0601	14.9
102.0634	0.7
104.0711	0.7
110.0604	1.1
112.0872	2.3
114.0665	1.1
114.1029	0.4
116.0711	0.5
118.0865	0.4
122.0814	3.3
123.0920	0.4
128.0710	1.1
130.0866	1.2
135.0915	0.8
136.0759	0.5
137.0712	0.7
138.0790	1.6
139.0867	2.1
140.1185	1.6
146.0926	0.5
147.0918	0.8
149.0716	0.6
150.0917	0.4
151.0868	13.6
152.0907	1.2
154.0866	0.9
165.1025	1.2
169.0975	0.7
171.0761	0.8
175.0869	1.1
175.1191	0.5
181.0974	1.3
193.0974	6.7
194.1002	0.6
199.1080	0.4
210.0581	0.4
210.0797	1.7
211.1077	3.5
211.1443	0.5
215.1145	0.4
229.1185	9.8
230.1225	1.0
232.1658	2.8
233.1688	0.4
239.1391	3.5
240.1414	0.4
241.1294	0.5
257.1133	1.2
260.1390	0.4
271.1286	0.4
271.1654	1.1
275.1153	0.7
278.1509	1.4
299.1349	0.5
300.1252	0.7
310.1110	2.8
311.1137	0.7
314.1624	0.5
315.1646	2.7
316.1189	2.2
316.1615	8.7
317.1694	2.3
318.1360	8.9
319.1339	1.9
320.1475	1.9
321.1453	1.2
322.1340	0.7
322.1671	3.2
323.1696	5.5
324.1418	1.5
324.1755	0.6
324.2131	5.2
325.1409	2.0
325.1772	1.5
325.2174	0.8
326.1556	1.8
327.1562	4.8
327.1915	0.7
328.1121	0.9
328.1820	0.9
329.0894	0.5
329.1067	0.6
329.1710	100.0
329.2360	0.5
329.2522	0.8
330.1366	1.0
330.1748	18.2
330.2119	2.2
330.3356	0.9
331.1777	2.8
332.1495	2.0
332.1854	0.5
333.1448	1.0
334.1328	0.6
334.1661	0.7
335.1628	0.5

Name: Cer(d18:1/16:1)
PrecursorMZ: 536.50305
RT: 1.20635
Spectrum_type: 2
charge: 1
Method: HCD
Collision_energy: [28.333334]
Isolation_window: 4.0
Ion_mode: P
Num Peaks: 40
55.0545	1.7
56.0499	3.9
57.0702	2.2
60.0448	4.7
67.0546	4.8
69.0702	4.5
71.0858	2.0
79.0544	2.0
81.0701	5.2
82.0653	4.7
83.0858	3.9
93.0699	2.5
95.0856	5.7
97.1012	3.4
107.0856	2.3
109.1012	4.8
121.1011	3.3
123.1165	1.5
135.1166	1.9
250.2522	3.6
252.2680	24.3
253.2714	2.9
262.2523	3.7
263.2558	1.9
264.2679	100.0
265.2714	15.0
266.2848	2.2
272.2571	2.5
282.2784	10.1
283.2820	1.7
284.2942	2.4
299.0611	2.5
506.4927	4.6
518.4918	15.3
519.4957	4.6
534.5223	1.9
535.5297	1.9
536.5024	23.8
537.5063	6.7
538.5179	16.2

Name: Cer(d18:1/17:0)
PrecursorMZ: 534.52425
RT: 1.9487
ExactMass: 551.52774506
Spectrum_type: 2
charge: 1
Formula: C35H69NO3
SMILES: CCCCCCCCCCCCCCCCC(=O)N[C@@H](CO)[C@@H](/C=C/CCCCCCCCCCCCC)O
Method: HCD
Collision_energy: [28.333334]
Isolation_window: 4.0
Ion_mode: P
Num Peaks: 28
55.0546	1.9
57.0703	2.5
59.3903	1.9
59.3920	4.7
59.5035	1.5
59.6160	1.3
60.0449	1.4
67.0546	6.0
69.0703	4.2
71.0859	1.9
81.0702	8.0
83.0858	4.2
95.0857	8.0
97.1014	4.2
109.1013	3.6
123.1170	1.8
266.2838	3.7
268.2631	4.1
284.2941	2.3
292.2634	1.9
516.5140	6.5
517.5180	2.3
518.5283	1.8
534.5241	100.0
535.2702	8.5
535.5275	33.9
536.2747	3.1
536.5391	29.8

Name: Cerulenin
PrecursorMZ: 224.12792
RT: 4.7368
ExactMass: 223.1208434
Spectrum_type: 2
charge: 1
Formula: C12H17NO3
SMILES: C/C=C/C/C=C/CCC(=O)[C@@H]1[C@@H](O1)C(=O)N
Method: HCD
Collision_energy: [28.333334]
Isolation_window: 4.0
Ion_mode: P
Num Peaks: 169
57.0339	0.5
67.0546	1.1
69.0338	0.3
69.0451	0.5
69.0702	0.7
70.0655	0.4
71.0494	0.6
71.0858	0.4
72.0810	0.4
75.0443	1.0
79.0544	0.6
81.0337	1.1
81.0701	1.9
82.0653	0.3
83.0494	0.7
83.0858	0.6
84.0445	0.4
85.0650	0.5
86.0966	0.3
87.0442	0.4
91.0543	0.5
93.0700	1.3
95.0493	0.5
95.0605	0.2
95.0856	1.9
97.0649	0.4
97.0761	0.8
97.1013	0.3
97.4577	0.3
99.0441	0.3
99.0805	0.5
101.0597	0.4
105.0699	0.4
107.0856	1.2
108.0808	0.3
109.0649	0.4
109.1012	1.5
110.0601	1.0
111.0441	2.1
111.0553	0.6
111.0804	0.4
112.0756	0.3
113.0710	1.0
114.0914	0.8
116.0706	0.6
118.0651	0.3
119.0854	0.6
120.0807	0.8
121.0284	0.4
121.0647	0.4
121.1011	1.2
122.0600	0.5
122.0964	0.2
123.0804	0.4
123.1167	0.5
124.0757	0.5
125.0709	0.6
129.0545	0.4
131.0701	2.6
131.0854	0.5
132.0806	0.5
133.1010	0.5
135.0803	0.6
135.1167	0.4
136.0755	1.5
136.1119	0.3
137.0595	0.3
137.0959	0.4
138.0546	0.2
138.0912	0.3
139.0750	0.2
144.0653	0.3
145.1011	0.6
146.0599	0.3
147.1166	0.8
148.0755	0.6
149.0801	0.6
149.0959	0.7
149.1071	0.3
150.0547	0.5
150.0912	6.6
151.0613	0.6
151.0942	0.6
151.0999	0.3
152.0704	0.6
155.0812	0.3
161.1323	0.3
162.0912	0.6
163.0750	0.3
163.1114	0.5
163.1479	1.3
164.0705	1.6
164.1068	1.9
165.0543	0.3
165.0910	0.2
165.1022	0.9
165.1149	1.0
166.0862	0.6
166.0973	1.3
168.1017	0.2
174.0910	0.3
177.1633	0.3
178.0859	0.7
178.1223	1.1
179.1066	0.3
179.1178	1.0
180.1016	2.2
180.1379	0.4
181.1049	0.3
181.1331	0.8
182.0810	0.4
187.1477	0.7
189.1019	0.3
190.0499	0.7
190.0859	0.3
191.0529	0.5
192.0652	0.5
192.1016	2.8
193.0968	0.4
193.1049	0.3
194.0670	0.8
194.0808	0.8
194.1618	0.3
195.1123	1.2
196.0965	0.3
197.1898	0.6
205.0968	0.8
205.1583	0.8
206.0810	1.1
206.1172	1.2
207.1013	0.3
207.1123	1.1
208.0965	2.1
208.1075	0.3
208.1329	0.3
209.1043	2.7
210.0756	0.3
210.1077	0.3
222.0762	0.3
222.1122	1.2
222.1484	0.4
222.1596	1.9
223.0781	0.4
223.1072	2.4
223.1168	0.6
223.1191	0.5
223.1325	0.4
223.1439	1.3
223.1700	1.0
224.0918	4.0
224.1043	0.9
224.1096	0.6
224.1277	100.0
224.1368	2.9
224.1509	0.4
224.1641	0.3
224.2368	0.3
225.0945	0.3
225.1011	0.3
225.1227	5.2
225.1313	11.7
225.1608	0.5
226.0860	0.3
226.0940	0.4
226.1070	6.5
226.1183	0.5
226.1331	0.5
226.1435	1.1
226.1540	0.3

Name: Cetalkonium
PrecursorMZ: 360.36213
RT: 4.7239
ExactMass: 360.363025472
Spectrum_type: 2
charge: 1
Formula: C25H46N+
SMILES: CCCCCCCCCCCCCCCC[N+](C)(C)CC1=CC=CC=C1
Method: HCD
Collision_energy: [28.333334]
Isolation_window: 4.0
Ion_mode: P
Num Peaks: 19
58.0656	15.3
75.0444	1.2
89.0600	1.2
91.0545	42.2
92.0578	3.0
93.0549	1.4
132.0444	4.3
150.0549	1.9
225.1021	1.2
236.1281	1.2
268.2996	20.4
269.0922	1.5
269.3031	4.1
360.2253	1.7
360.3621	100.0
361.1741	1.2
361.3655	27.2
362.2410	64.9
362.3695	2.6

Name: Cetraxate hydrochloride
PrecursorMZ: 306.16974
RT: 2.3265000000000002
ExactMass: 341.1393859
Spectrum_type: 2
charge: 1
Formula: C17H24ClNO4
SMILES: C1CC(CCC1CN)C(=O)OC2=CC=C(C=C2)CCC(=O)O.Cl
Method: HCD
Collision_energy: [28.333334]
Isolation_window: 4.0
Ion_mode: P
Num Peaks: 42
58.0656	5.8
70.0656	2.3
81.0339	1.3
84.0811	1.8
91.0544	1.2
116.0708	2.1
120.0809	3.1
121.0889	5.7
138.0917	1.1
148.0759	2.2
166.0865	23.5
167.0902	2.1
181.0975	3.1
193.0972	4.2
194.1051	15.0
195.1121	3.9
267.1494	11.4
268.1527	2.1
269.1653	2.7
288.1609	1.3
304.3006	1.4
305.1509	2.0
306.1364	1.5
306.1700	10.8
307.1697	2.7
308.1716	1.7
309.1819	2.6
312.3250	1.2
313.1549	100.0
314.1585	19.3
314.3404	1.2
315.1632	2.5
318.1394	1.5
318.1812	12.2
319.1855	2.2
320.1565	1.4
320.1963	3.0
321.1456	3.0
322.1754	2.5
323.1964	2.0
324.1510	1.5
324.1913	1.4

Name: Cetylpyridinium
PrecursorMZ: 304.29946
RT: 5.7134
ExactMass: 304.300425216
Spectrum_type: 2
charge: 1
Formula: C21H38N+
SMILES: CCCCCCCCCCCCCCCC[N+]1=CC=CC=C1
Method: HCD
Collision_energy: [28.333334]
Isolation_window: 4.0
Ion_mode: P
Num Peaks: 16
57.0702	2.0
58.0655	2.8
71.0858	2.1
80.0497	20.2
91.0544	8.6
113.0597	3.5
212.2369	5.3
257.1282	3.6
285.1227	4.6
303.1335	6.5
303.1711	2.6
304.1180	5.1
304.1375	2.5
304.2993	100.0
305.3026	20.2
306.1328	3.2

Name: Cetyltrimethylammonium
PrecursorMZ: 284.33077
RT: 5.5148
ExactMass: 284.331725344
Spectrum_type: 2
charge: 1
Formula: C19H42N+
SMILES: CCCCCCCCCCCCCCCC[N+](C)(C)C
Method: HCD
Collision_energy: [28.333334]
Isolation_window: 4.0
Ion_mode: P
Num Peaks: 16
57.0702	2.2
60.0812	4.0
71.0858	2.4
81.0700	1.8
136.0755	18.7
146.0599	7.7
188.0702	14.9
189.0736	2.2
268.2991	7.1
283.1262	2.2
284.1121	1.8
284.2950	12.5
284.3305	100.0
285.2990	2.8
285.3339	20.0
286.3096	3.6

Name: Cfm-2
PrecursorMZ: 312.13328
RT: 2.9987
ExactMass: 311.12699141
Spectrum_type: 2
charge: 1
Formula: C17H17N3O3
SMILES: COC1=C(C=C2C(=C1)CC(=O)NN=C2C3=CC=C(C=C3)N)OC
Method: HCD
Collision_energy: [28.333334]
Isolation_window: 4.0
Ion_mode: P
Num Peaks: 32
60.0561	10.5
70.0656	3.9
84.0813	6.4
86.0353	5.9
89.0602	3.1
96.9955	2.9
98.9844	5.3
103.0618	100.0
116.0708	4.9
122.0814	12.2
130.0865	3.6
193.0974	9.2
194.1050	33.0
195.1101	4.5
210.0796	42.2
211.0828	2.8
225.1263	9.8
295.1063	5.0
312.1247	19.3
313.1255	4.3
314.1681	3.8
318.1372	3.7
318.1809	25.2
319.1810	3.8
320.1521	3.7
321.1460	2.6
322.1740	3.9
323.1618	3.4
324.1466	2.9
324.1787	3.5
327.1937	4.2
330.3369	3.5

Name: Cgmp
PrecursorMZ: 346.05437
RT: 6.8778
ExactMass: 345.04743474
Spectrum_type: 2
charge: 1
Formula: C10H12N5O7P
SMILES: C1[C@@H]2[C@H]([C@H]([C@@H](O2)N3C=NC4=C3N=C(NC4=O)N)O)OP(=O)(O1)O
Method: HCD
Collision_energy: [28.333334]
Isolation_window: 4.0
Ion_mode: P
Num Peaks: 13
98.9844	0.8
152.0440	0.7
152.0568	100.0
152.0697	0.8
153.0407	1.0
153.0538	1.9
153.0601	4.7
301.1177	1.1
330.1110	0.7
345.0580	3.7
346.0544	3.6
347.1230	2.6
348.1207	1.7

Name: Cgp-60474
PrecursorMZ: 356.12697
RT: 4.2309
ExactMass: 355.1199879
Spectrum_type: 2
charge: 1
Formula: C18H18ClN5O
SMILES: C1=CC(=CC(=C1)Cl)NC2=NC=CC(=N2)C3=CC(=NC=C3)NCCCO
Method: HCD
Collision_energy: [28.333334]
Isolation_window: 4.0
Ion_mode: P
Num Peaks: 82
55.0548	1.5
59.0497	0.5
70.0656	1.5
72.0812	0.3
83.0496	1.3
84.0812	0.6
86.0603	0.3
87.0444	0.5
100.0759	0.7
101.0600	5.4
114.0660	0.3
116.0708	0.6
130.0866	0.7
146.0926	0.8
184.0759	0.7
196.0968	0.3
201.0785	2.4
202.0864	4.0
203.0904	0.5
225.1242	0.4
240.1013	0.4
242.1142	0.5
249.1233	1.1
258.1087	3.8
259.1097	0.4
262.1075	9.1
263.1105	1.5
268.1301	0.3
269.1141	0.3
270.1330	0.4
271.1409	0.6
279.1318	0.4
285.1551	0.4
295.1290	1.2
296.1319	0.4
300.1226	2.0
301.1309	20.4
302.1361	5.9
303.1388	1.1
310.1220	0.9
311.1683	0.3
328.1498	0.5
339.1555	0.6
353.1822	1.9
354.1569	0.6
354.1761	0.6
355.1513	1.2
355.1858	1.3
356.1281	10.7
356.1780	1.2
357.1296	1.6
357.1691	2.1
358.1237	1.2
358.2010	0.5
359.1287	0.3
359.1923	8.1
359.2293	0.4
360.1474	1.0
360.1951	1.3
361.1404	0.5
362.0660	0.7
362.0850	0.5
362.1601	95.9
362.2554	0.6
363.1632	20.9
364.1687	3.4
365.1764	1.0
366.1657	3.3
367.1489	0.7
368.1855	0.8
369.1657	10.5
370.1675	2.0
371.0942	0.6
371.1146	0.5
371.1924	100.0
371.2708	0.5
371.2903	0.7
372.1957	18.4
373.1717	4.1
373.2061	2.3
374.1638	0.7
374.2059	0.4

Name: Chalepensin
PrecursorMZ: 272.12749
RT: 1.1745
ExactMass: 254.094294304
Spectrum_type: 2
charge: 1
Formula: C16H14O3
SMILES: CC(C)(C=C)C1=CC2=C(C=C3C(=C2)C=CO3)OC1=O
Method: HCD
Collision_energy: [28.333334]
Isolation_window: 4.0
Ion_mode: P
Num Peaks: 48
69.1881	4.8
69.5060	3.1
72.0810	3.0
81.0701	4.5
93.0700	3.2
95.0856	5.5
98.0600	8.4
105.0698	2.6
106.0650	2.7
107.0856	3.2
109.1011	5.6
115.0539	2.0
119.0854	4.6
121.1010	3.3
123.1166	2.6
131.0853	2.4
133.1009	3.2
135.0437	33.0
135.1165	5.7
136.0471	3.1
143.0489	5.5
145.1008	3.6
147.1165	3.1
149.1322	3.5
159.1165	3.5
161.1322	4.6
171.0436	5.9
173.0594	4.6
175.0150	2.8
187.0148	2.4
201.0541	100.0
202.0574	12.9
215.0462	4.4
230.2470	1.9
255.2101	3.6
270.2776	1.8
271.1431	3.6
271.2048	4.1
271.2412	10.9
272.1272	93.0
272.1634	4.5
272.1759	7.7
272.2449	2.7
273.1316	12.9
273.1583	5.2
273.1831	3.1
273.2202	4.7
274.1430	9.7

Name: Chenodeoxycholic Acid
PrecursorMZ: 357.27808
RT: 1.4735
ExactMass: 392.29265975
Spectrum_type: 2
charge: 1
Formula: C24H40O4
SMILES: C[C@H](CCC(=O)O)[C@H]1CC[C@@H]2[C@@]1(CC[C@H]3[C@H]2[C@@H](C[C@H]4[C@@]3(CC[C@H](C4)O)C)O)C
Method: HCD
Collision_energy: [28.333334]
Isolation_window: 4.0
Ion_mode: P
Num Peaks: 323
55.0544	0.9
57.0701	0.3
59.0494	0.2
65.0386	0.2
67.0544	7.6
68.0578	0.4
69.0701	3.0
69.2731	0.4
69.5293	0.2
69.5992	0.2
69.6811	0.2
70.0107	0.2
70.0653	0.3
70.0733	0.2
70.5022	0.2
71.0492	0.2
73.0286	0.4
77.0380	0.3
79.0543	2.6
80.0546	0.4
80.0576	0.2
81.0700	19.9
82.0733	1.6
83.0492	0.6
83.0856	8.0
84.0889	0.6
85.0648	2.1
86.0965	0.5
87.0442	0.3
89.0598	2.9
91.0541	2.1
93.0698	9.9
94.0731	0.8
95.0490	0.2
95.0854	21.9
96.0888	1.8
97.0647	1.0
97.1011	1.3
97.4565	0.2
99.0439	3.3
99.0803	0.3
100.0473	0.2
101.0596	4.1
102.0630	0.3
102.0675	0.3
105.0697	7.9
106.0731	0.7
107.0854	16.8
108.0887	1.9
109.0645	0.8
109.0930	0.2
109.1010	22.5
110.1043	2.3
111.0802	0.7
111.1166	0.5
113.0595	0.2
115.0751	0.6
116.0704	0.3
117.0696	0.6
119.0853	11.1
120.0885	1.4
121.0645	0.4
121.1009	15.9
122.1042	1.8
123.0801	1.5
123.1165	4.4
124.0833	0.2
124.1198	0.5
125.0958	0.7
127.0750	1.7
129.0695	0.2
129.0906	0.2
131.0851	3.1
132.0884	0.5
132.1015	0.2
133.0856	1.3
133.1008	13.2
134.1041	1.4
135.0800	1.6
135.1164	19.9
136.1197	2.5
137.0956	1.3
137.1320	1.4
138.1353	0.2
139.0749	0.8
139.1112	0.2
141.0905	1.0
143.0851	1.2
145.1007	21.0
146.0598	0.2
146.1040	7.2
147.0800	0.5
147.1070	0.4
147.1163	16.0
148.1197	2.7
149.0956	2.6
149.1320	22.1
150.0910	0.1
150.0989	0.2
150.1353	4.3
151.0749	0.3
151.1112	0.9
151.1386	0.2
151.1475	0.2
152.1146	0.2
153.0905	2.7
154.0938	0.4
155.0851	0.6
155.1060	0.4
156.1016	0.1
157.1007	1.6
158.1040	0.4
159.0800	0.2
159.1164	6.9
160.1194	1.4
161.0956	0.8
161.1320	15.4
162.1353	2.2
163.1112	1.6
163.1476	8.5
164.1146	0.2
164.1509	1.5
165.0905	0.9
165.1269	0.5
167.1061	3.7
168.1093	0.5
169.1006	1.4
169.1216	0.2
170.1038	0.2
171.1162	1.5
172.1193	0.4
173.0956	0.4
173.1319	3.9
174.1351	0.9
175.1112	1.8
175.1475	9.3
176.1146	0.2
176.1508	1.5
177.0905	0.3
177.1117	0.6
177.1268	2.6
177.1631	3.2
178.1301	0.4
178.1664	0.5
179.1060	1.2
181.1216	4.4
182.1250	0.5
183.1161	1.3
184.1077	0.3
184.1191	0.3
185.1318	2.7
186.1349	0.5
187.1110	0.5
187.1474	5.4
188.1507	1.0
189.1267	1.1
189.1631	5.2
190.1300	0.2
190.1664	0.9
191.1058	0.7
191.1423	1.2
191.1784	0.3
192.1091	0.2
193.1217	3.1
194.1250	0.5
195.1165	0.2
195.1373	6.3
196.1239	0.2
196.1404	0.9
197.1318	1.3
198.1348	0.3
199.1250	0.3
199.1474	3.8
200.1505	1.6
201.1268	0.5
201.1630	8.1
202.1663	1.9
203.1423	2.1
203.1709	0.2
203.1787	4.1
204.0649	0.3
204.1456	0.3
204.1820	0.8
205.1214	0.6
205.1579	0.6
207.1372	3.2
208.1404	0.7
209.1318	0.8
209.1528	2.2
210.1338	0.3
210.1557	0.3
211.1218	0.2
211.1474	4.5
212.1506	0.9
213.1630	2.7
214.1662	1.5
215.1426	0.7
215.1786	15.0
216.1457	0.2
216.1819	3.2
217.1579	0.7
217.1848	0.2
217.1943	1.7
218.1976	0.4
219.1372	0.8
220.1400	0.3
221.1380	0.3
221.1527	9.6
222.1561	1.2
223.1684	1.0
224.1716	0.2
225.1629	2.4
226.1661	0.5
227.1422	0.9
227.1785	1.8
228.1453	0.5
228.1818	0.8
229.1578	2.8
229.1942	4.5
230.1613	0.6
230.1976	0.8
231.1735	0.5
231.2095	0.2
233.1527	1.5
234.1558	0.3
235.1684	4.5
236.1717	0.7
237.1623	0.3
238.1664	0.2
239.1784	1.1
240.1819	0.2
241.1580	0.3
241.1941	0.8
242.1975	0.4
243.1509	0.2
243.1735	1.6
243.2097	4.2
244.1769	0.3
244.2129	0.7
245.1525	1.7
245.1890	0.2
246.1559	1.0
247.1683	12.8
248.1717	2.0
249.1841	2.5
250.1874	0.6
251.1786	0.3
253.1941	0.2
254.1982	0.2
255.1737	0.3
255.2098	0.3
257.1890	0.7
257.2253	1.1
258.2286	0.2
259.1680	1.1
260.1716	0.8
261.1838	8.4
262.1872	1.6
263.1998	1.1
264.2026	0.2
265.1934	0.4
267.2092	0.2
269.1891	0.2
273.1837	0.7
274.1873	0.4
275.1994	6.7
276.2028	1.2
277.2152	0.3
279.2099	0.3
281.2245	0.2
283.2045	0.3
285.2195	0.2
287.1994	0.8
288.2029	0.3
289.2151	0.5
293.2249	0.3
294.2288	0.2
295.2408	0.4
297.2200	0.4
297.2565	0.8
298.2599	0.2
301.2150	1.9
302.2189	0.4
309.1796	0.2
309.2563	12.9
309.2696	0.2
310.2596	17.5
311.2354	0.2
311.2621	2.0
315.2305	0.4
319.2403	0.5
320.2439	0.7
321.2565	3.2
322.2596	0.8
337.2509	1.6
338.2545	2.5
339.2670	4.8
340.2082	0.6
340.2703	1.2
340.7095	0.3
355.2617	10.7
356.1116	0.2
356.1492	0.2
356.2650	18.2
357.1199	1.0
357.1438	0.3
357.1812	0.4
357.2046	0.2
357.2169	0.2
357.2773	100.0
357.2951	0.6
357.3012	0.2
357.3131	0.6
357.3231	0.7
357.3367	0.3
358.1245	0.4
358.2806	25.7
358.3264	0.2
359.1348	0.3
359.1587	0.3
359.1714	0.2
359.2215	0.3
359.2838	2.6

Name: Chlorohexidine
PrecursorMZ: 253.10875
RT: 7.4935
ExactMass: 504.2031964
Spectrum_type: 2
charge: 1
Formula: C22H30Cl2N10
SMILES: C1=CC(=CC=C1NC(=NC(=NCCCCCCN=C(N)N=C(N)NC2=CC=C(C=C2)Cl)N)N)Cl
Method: HCD
Collision_energy: [28.333334]
Isolation_window: 4.0
Ion_mode: P
Num Peaks: 21
60.0561	7.7
89.0600	10.3
101.0950	54.5
125.1074	14.5
128.0263	6.8
153.0215	22.8
155.0184	5.4
167.1292	12.4
170.0480	100.0
171.0513	7.9
172.0450	25.3
177.1019	55.2
177.6036	10.4
178.1002	18.1
184.1557	25.7
195.0431	5.7
253.1087	28.7
253.6109	5.5
254.1075	16.7
319.1430	8.2
336.1696	6.2

Name: Chloromethyl(triphenyl)phosphanium
PrecursorMZ: 311.07472
RT: 9.2671
ExactMass: 311.0756402
Spectrum_type: 2
charge: 1
Formula: C19H17ClP+
SMILES: C1=CC=C(C=C1)[P+](CCl)(C2=CC=CC=C2)C3=CC=CC=C3
Method: HCD
Collision_energy: [28.333334]
Isolation_window: 4.0
Ion_mode: P
Num Peaks: 17
70.0654	9.1
83.0858	9.0
84.0810	27.9
110.0713	8.6
126.0913	15.0
130.0862	12.4
182.0811	9.0
291.1701	7.4
309.1789	7.8
310.1265	18.4
310.1771	9.9
311.0745	100.0
311.1591	29.5
312.0780	7.0
312.1057	11.8
312.1416	9.9
313.1174	14.8

Name: Chlorprothixene
PrecursorMZ: 316.09958
RT: 6.8013
ExactMass: 315.0848484
Spectrum_type: 2
charge: 1
Formula: C18H18ClNS
SMILES: CN(C)CC/C=C\1/C2=CC=CC=C2SC3=C1C=C(C=C3)Cl
Method: HCD
Collision_energy: [28.333334]
Isolation_window: 4.0
Ion_mode: P
Num Peaks: 15
84.0445	11.2
147.0761	7.1
223.0713	7.8
251.1020	11.4
314.0839	15.5
314.1574	15.1
315.0873	6.4
315.1020	7.8
315.1335	6.1
316.0996	100.0
316.1504	9.4
317.1016	11.0
317.1321	13.5
317.1482	9.6
318.1310	5.6

Name: Cholan-24-oic acid, 3,7-dihydroxy-, methyl ester, (3alpha,5beta,7beta)-
PrecursorMZ: 371.29425
RT: 1.0789
ExactMass: 406.30830982
Spectrum_type: 2
charge: 1
Formula: C25H42O4
SMILES: C[C@H](CCC(=O)OC)[C@H]1CC[C@@H]2[C@@]1(CC[C@H]3[C@H]2[C@H](C[C@H]4[C@@]3(CC[C@H](C4)O)C)O)C
Method: HCD
Collision_energy: [28.333334]
Isolation_window: 4.0
Ion_mode: P
Num Peaks: 106
55.0547	2.1
67.0546	3.3
69.0703	2.2
73.0472	2.2
73.0651	1.2
79.0545	1.0
81.0702	10.8
83.0858	3.1
91.0544	1.1
91.0576	4.9
93.0701	4.9
95.0858	12.1
97.1013	1.1
97.4001	1.7
99.0806	1.0
101.0597	0.9
105.0701	4.1
107.0857	8.1
109.1014	11.3
111.0442	0.9
115.0756	8.3
119.0857	6.4
121.1013	9.0
122.1047	1.3
123.0805	1.2
123.1170	2.1
129.0547	1.3
129.0908	1.4
131.0856	1.4
133.1013	6.8
135.0805	1.1
135.1169	11.7
136.1202	1.1
137.0962	2.2
137.1325	0.9
141.0910	1.7
145.1012	2.5
147.0651	1.3
147.1168	9.7
148.1204	1.0
149.0962	1.8
149.1325	9.8
150.1359	1.1
151.1119	0.9
155.1068	0.9
159.1169	3.6
161.1326	9.3
162.1361	1.1
163.1118	1.7
163.1481	5.6
167.1065	1.4
169.1013	1.0
173.1325	2.1
175.1116	1.6
175.1481	6.0
177.1274	3.3
177.1639	1.5
181.1223	1.9
185.1326	1.6
187.1480	3.7
189.1275	1.2
189.1637	4.7
195.1378	2.4
199.1481	0.9
201.1638	7.1
203.1430	2.2
203.1794	3.0
207.1377	1.8
209.1534	2.6
211.1480	3.4
215.1431	1.0
215.1794	10.0
216.1825	2.0
217.1586	1.0
217.1950	1.2
221.1534	2.2
223.1689	1.5
225.1639	1.7
229.1586	3.1
229.1949	4.5
235.1691	3.7
237.1850	1.0
243.1744	2.5
243.2106	3.7
244.2144	0.9
249.1847	2.6
257.1899	1.0
261.1848	6.3
262.1883	1.1
263.2004	1.9
275.2005	6.9
276.2041	1.0
285.0097	2.9
289.2159	2.9
297.2573	1.3
321.2574	3.2
322.2613	0.9
339.2683	5.7
340.2716	1.0
346.9735	1.1
355.0698	3.4
369.4286	0.9
371.2943	100.0
372.2976	27.9
373.3026	2.5
373.3078	1.2

Name: Cholenic acid
PrecursorMZ: 357.27821
RT: 3.5434
ExactMass: 374.28209507
Spectrum_type: 2
charge: 1
Formula: C24H38O3
SMILES: C[C@H](CCC(=O)O)[C@H]1CC[C@@H]2[C@@]1(CC[C@H]3[C@H]2CC=C4[C@@]3(CC[C@@H](C4)O)C)C
Method: HCD
Collision_energy: [28.333334]
Isolation_window: 4.0
Ion_mode: P
Num Peaks: 8
81.0701	12.1
95.0855	11.4
109.1012	13.2
149.1323	12.0
161.1320	10.6
247.1678	11.5
357.2779	100.0
358.2811	26.1

Name: Cholesta-4,6-dien-3-one
PrecursorMZ: 383.33097
RT: 0.5312
ExactMass: 382.323565959
Spectrum_type: 2
charge: 1
Formula: C27H42O
SMILES: C[C@H](CCCC(C)C)[C@H]1CC[C@@H]2[C@@]1(CC[C@H]3[C@H]2C=CC4=CC(=O)CC[C@]34C)C
Method: HCD
Collision_energy: [28.333334]
Isolation_window: 4.0
Ion_mode: P
Num Peaks: 108
57.0704	25.5
59.0496	6.2
59.0610	10.9
67.0547	26.1
69.0704	36.1
71.0496	6.0
71.0861	30.6
72.0812	20.4
79.0547	13.1
81.0703	92.1
82.0737	6.2
83.0860	31.4
85.0653	14.0
85.1017	7.7
86.0968	21.8
87.0445	15.7
89.0601	24.3
91.0540	8.3
93.0703	33.0
95.0858	61.8
97.0652	6.9
97.1016	17.6
99.0808	19.1
100.1121	8.1
105.0702	25.7
107.0858	42.2
109.1015	53.9
111.0807	6.4
111.1171	13.1
117.0703	7.9
118.0867	14.8
119.0858	30.8
120.0812	10.4
121.0651	6.8
121.1014	41.0
123.0809	7.4
123.1172	30.5
125.0963	8.8
127.1120	15.7
131.0857	19.1
132.1021	11.6
133.0866	8.5
133.1013	36.2
135.1170	40.2
137.0601	14.1
137.1328	13.2
139.1120	7.6
143.0859	6.6
145.1014	39.3
146.1050	6.5
147.1171	43.7
149.0235	67.6
149.0966	7.5
149.1328	31.3
151.0755	8.2
157.1014	26.8
159.1172	51.7
161.1328	33.5
163.1122	6.4
163.1483	14.1
165.0910	19.9
167.0341	12.0
171.1167	13.4
173.1326	21.9
175.1486	15.8
177.1643	7.2
183.1169	9.8
185.1328	12.5
187.1486	18.3
189.1636	10.4
191.1061	6.9
197.1331	10.0
199.1481	18.0
201.1637	14.0
203.1798	10.2
211.1481	9.4
213.1644	17.5
215.1797	20.8
223.0638	8.1
225.0431	7.2
227.1790	8.8
239.1791	8.8
241.1955	7.7
243.2113	6.8
251.1795	6.2
253.1954	24.3
254.2008	8.4
255.2109	25.0
261.2212	18.4
271.1544	6.3
281.2262	11.3
283.2418	9.2
359.1985	15.6
365.3204	35.4
366.3245	9.6
381.3144	9.5
382.3241	12.5
383.3313	100.0
384.3354	28.0
385.3436	6.6
393.3154	10.3
395.2902	15.5
395.3401	7.1
396.2541	11.0
397.3092	40.2
398.3120	9.5
399.3260	20.3
401.3413	10.3

Name: Cholestan-3-one
PrecursorMZ: 369.35102
RT: 0.798
ExactMass: 386.354866087
Spectrum_type: 2
charge: 1
Formula: C27H46O
SMILES: CC(C)CCCC(C)C1CCC2C1(CCC3C2CCC4C3(CCC(=O)C4)C)C
Method: HCD
Collision_energy: [28.333334]
Isolation_window: 4.0
Ion_mode: P
Num Peaks: 56
57.0703	5.3
67.0546	4.6
69.0702	8.2
69.2018	2.6
71.0859	7.9
79.0545	2.7
81.0702	19.6
83.0858	10.1
85.1015	3.5
93.0701	7.0
95.0857	24.9
97.1013	6.5
97.3986	2.9
105.0700	6.3
107.0856	7.3
109.1013	22.5
111.1169	5.2
119.0857	5.6
121.1012	9.0
123.1168	8.8
125.1325	2.2
133.1011	7.8
135.1167	20.2
136.1201	2.3
137.1323	2.7
145.1010	2.6
147.1167	38.1
148.1201	4.4
149.1324	10.1
151.1481	2.9
159.1169	2.3
161.1324	26.4
162.1356	3.4
163.1482	3.3
165.1638	2.5
173.1322	2.7
175.1480	10.8
187.1477	2.8
189.1635	5.4
193.1951	2.6
201.1635	3.7
203.1792	4.5
215.1792	7.1
217.1947	3.0
219.2107	2.3
229.1948	2.5
233.2263	3.2
243.2105	5.1
257.2263	3.7
259.2416	4.5
287.2729	3.3
368.4246	11.5
369.3511	100.0
369.4277	3.7
370.3544	27.7
371.3592	2.6

Name: Cholesteryl-phosphorylethanolamine
PrecursorMZ: 510.37006
RT: 4.7849
ExactMass: 509.36339614
Spectrum_type: 2
charge: 1
Formula: C29H52NO4P
SMILES: C[C@H](CCCC(C)C)[C@H]1CC[C@@H]2[C@@]1(CC[C@H]3[C@H]2CC=C4[C@@]3(CC[C@@H](C4)OP(=O)(O)OCCN)C)C
Method: HCD
Collision_energy: [28.333334]
Isolation_window: 4.0
Ion_mode: P
Num Peaks: 84
55.0546	0.5
56.5012	0.8
56.6127	0.4
57.0703	1.1
67.0546	1.6
69.0339	1.3
69.0702	1.8
69.5543	0.4
70.0654	0.5
71.0858	1.3
79.0545	0.4
81.0701	3.7
83.0858	2.2
84.0810	0.5
85.1014	0.7
87.0443	1.6
89.0599	4.6
93.0700	0.8
95.0857	4.2
97.1013	1.3
97.3998	0.5
99.0443	0.7
105.0699	0.4
107.0855	1.0
109.1013	3.3
111.0441	0.7
111.1169	0.7
119.0856	0.7
121.1011	1.5
123.1168	1.6
133.0859	2.7
133.1012	1.1
135.1168	2.2
137.1324	0.5
140.0817	0.6
142.0148	0.7
142.0171	0.6
142.0263	100.0
142.0356	0.5
142.0378	0.7
143.0297	1.2
145.1012	0.5
147.1167	3.3
148.1201	0.5
149.1323	1.7
151.1483	0.4
159.1167	0.5
161.1324	3.1
162.0548	1.4
163.1480	0.5
165.1638	0.4
166.0863	0.6
175.1480	1.5
177.1120	0.5
189.1634	0.6
201.1635	0.4
203.1794	0.5
215.1794	0.5
217.1950	0.4
219.2105	0.4
233.2263	0.5
242.2479	0.5
243.2107	0.6
252.2682	0.8
256.2635	0.9
257.2260	0.4
259.2416	0.5
280.2632	0.5
369.3511	7.4
370.3544	1.9
474.2489	0.6
477.2470	0.5
490.4978	1.2
491.5010	0.5
500.7985	0.5
508.5083	16.1
509.2878	0.6
509.3809	0.5
509.5118	10.1
510.2431	0.4
510.3702	2.9
510.5165	2.0
511.3747	0.9
512.3851	0.7

Name: Chrysogine
PrecursorMZ: 191.08139
RT: 1.5677
ExactMass: 190.074227566
Spectrum_type: 2
charge: 1
Formula: C10H10N2O2
SMILES: C[C@@H](C1=NC2=CC=CC=C2C(=O)N1)O
Method: HCD
Collision_energy: [28.333334]
Isolation_window: 4.0
Ion_mode: P
Num Peaks: 73
60.0812	0.3
69.0338	0.3
69.6773	0.3
69.8416	0.3
72.0811	0.7
74.0603	0.8
84.0446	0.8
86.0602	1.7
86.0966	1.0
87.0442	0.3
90.0551	0.7
95.0605	0.4
98.0965	0.5
101.0598	1.6
102.0550	0.5
104.0707	0.9
112.0757	0.4
114.0550	1.5
116.0705	0.3
118.0651	1.0
118.0861	0.4
120.0653	0.3
126.0913	2.6
128.0705	1.2
130.0497	2.9
130.0649	0.4
130.0861	0.4
131.0450	0.3
132.0654	3.0
132.1018	0.4
133.1009	0.3
143.1178	0.4
144.0653	0.3
144.1018	2.6
145.0758	2.8
146.0597	3.8
146.0806	0.4
147.0628	0.3
148.0601	0.3
150.0759	1.5
154.0861	0.4
156.0652	0.3
162.0548	5.1
163.0580	0.4
163.0865	0.3
172.0964	0.5
173.0707	8.0
174.0751	1.7
189.1021	0.3
190.0496	5.8
190.0860	0.7
190.0972	0.5
190.1070	2.3
190.1224	0.3
190.1587	0.4
190.9949	0.3
191.0270	0.5
191.0530	0.8
191.0630	0.6
191.0667	0.4
191.0812	100.0
191.0994	0.6
191.1048	0.4
191.1172	0.6
192.0655	1.3
192.0777	0.5
192.0845	10.0
192.1015	1.3
192.1126	0.4
192.1380	0.6
192.1743	0.7
193.0866	0.5
193.0968	0.6

Name: Chymostatinol B
PrecursorMZ: 610.32756
RT: 2.1851
ExactMass: 609.32748212
Spectrum_type: 2
charge: 1
Formula: C31H43N7O6
SMILES: CC(C)CC(C(=O)NC(CC1=CC=CC=C1)CO)NC(=O)C(C2CCN=C(N2)N)NC(=O)NC(CC3=CC=CC=C3)C(=O)O
Method: HCD
Collision_energy: [28.333334]
Isolation_window: 4.0
Ion_mode: P
Num Peaks: 198
57.0340	6.6
67.0545	1.0
68.3660	2.1
69.0338	0.9
69.0702	1.0
70.0655	12.8
72.0812	4.1
75.0445	11.8
81.0339	2.3
81.0703	1.1
83.0496	1.8
83.0859	1.5
84.0446	1.0
84.0812	6.1
85.0289	2.2
85.0650	1.0
86.0605	2.2
86.0968	6.9
87.0444	3.3
89.0601	1.8
93.0548	0.9
95.0494	1.0
95.0858	1.1
96.0448	1.2
96.0810	1.5
97.0285	1.0
97.0650	1.1
98.0601	1.7
98.0966	1.0
101.0599	1.7
103.0390	1.2
108.0811	1.3
109.0650	1.0
110.0601	1.4
110.0717	1.7
111.0441	2.4
112.0759	2.1
113.0600	2.7
115.0866	1.0
116.0708	4.5
120.0809	3.8
122.0599	1.3
124.0758	22.8
125.0791	1.5
126.0550	1.0
126.0914	68.7
127.0949	3.9
128.0705	0.9
129.0547	5.4
129.1025	2.3
130.0865	1.4
131.0704	13.1
136.0757	9.6
138.0913	11.1
141.0660	1.0
148.0757	45.9
149.0805	11.5
150.0551	1.7
150.0925	3.0
152.0707	8.2
154.0866	2.3
162.0911	1.5
164.0707	100.0
164.1072	1.4
165.0743	8.4
166.0863	20.4
167.0914	2.6
168.1018	2.5
169.0976	1.0
170.0814	2.9
171.1129	1.0
178.0863	1.1
180.1019	6.2
181.0967	6.9
182.0812	83.5
183.0848	6.4
184.0968	14.3
185.1009	1.2
187.0967	1.1
192.0653	0.9
193.0971	1.8
194.0805	2.4
194.1177	1.2
195.1124	1.4
197.1289	1.0
205.1079	1.7
206.1172	1.1
207.1126	1.0
213.1224	2.8
215.1390	0.9
221.1281	1.3
223.1170	1.7
229.1332	1.0
229.1547	1.5
231.1486	1.7
232.0968	0.9
240.1238	1.5
243.1130	1.3
245.1296	1.6
255.1117	1.1
255.1490	15.3
256.1528	2.8
257.1285	4.2
259.1442	1.1
269.1283	1.0
271.1442	2.4
273.1247	0.9
273.1596	18.3
274.1631	3.4
275.1398	1.3
279.1430	1.3
281.1277	0.9
283.1434	0.9
285.1230	1.5
287.1038	1.0
287.1388	7.7
288.1450	1.9
289.1545	9.2
290.1017	1.0
290.1575	1.1
291.1703	6.0
292.1720	1.1
293.1852	1.3
297.1565	1.0
299.1384	5.0
300.1427	1.1
301.1196	2.3
301.1543	31.9
302.1576	7.1
303.1337	2.6
303.1696	14.1
304.1725	3.5
305.1495	6.1
306.1519	1.3
307.1651	43.3
308.1685	7.0
309.1821	2.4
315.1333	4.1
317.1491	10.0
318.1523	1.2
319.1640	1.8
325.1177	2.9
329.1492	0.9
335.1617	2.5
343.1651	3.0
344.1707	1.8
347.1227	4.7
348.1266	1.0
359.1614	1.4
373.1762	1.6
375.1548	0.9
408.1912	2.2
409.1958	1.2
432.1900	0.9
438.2019	0.9
442.2341	4.8
443.2372	1.6
464.2170	1.0
465.2221	1.2
466.2350	4.1
467.2425	2.4
468.2517	1.3
480.2127	1.3
482.2232	1.0
484.2433	1.0
492.2131	1.6
497.2410	1.0
498.2233	4.0
499.2297	1.2
500.2363	1.4
589.3018	1.3
591.3185	2.7
592.3190	1.3
593.3014	15.1
594.3079	4.0
595.3049	1.0
605.2978	4.3
606.2986	1.6
607.3048	1.1
609.3311	2.8
610.3514	1.2
611.3367	1.7
612.3199	1.0
613.2801	1.3
613.3667	0.9
614.2347	0.9
614.3546	1.3
615.2826	43.1
616.2868	14.1
617.2875	5.1
618.2943	1.9
619.2761	8.0
620.2752	3.4
621.2921	3.3
622.2980	2.3
623.3079	8.6
624.3099	4.7
625.3225	1.0

Name: Ciclopirox
PrecursorMZ: 208.1331
RT: 4.9201
ExactMass: 207.125928785
Spectrum_type: 2
charge: 1
Formula: C12H17NO2
SMILES: CC1=CC(=O)N(C(=C1)C2CCCCC2)O
Method: HCD
Collision_energy: [28.333334]
Isolation_window: 4.0
Ion_mode: P
Num Peaks: 140
55.0546	0.7
56.0498	0.2
58.0656	0.7
59.0495	0.3
60.0449	0.1
60.0561	0.1
60.0813	0.4
61.0287	0.2
68.0499	0.2
69.0340	0.9
70.0656	0.9
71.0496	0.1
72.0812	0.2
79.0546	0.2
80.0499	0.2
82.0656	0.2
83.0495	0.8
84.0812	2.8
85.0652	0.1
85.0844	0.2
86.0604	1.0
86.0971	0.1
87.0444	1.1
88.0396	0.1
93.0702	0.6
96.0449	0.1
96.0810	0.2
96.9955	0.1
98.0604	0.4
98.0967	0.6
99.0919	0.2
100.0760	3.7
101.0600	8.6
101.0783	0.2
102.0632	0.5
104.0709	3.2
104.1072	0.1
105.0547	0.3
105.0746	0.1
108.0811	0.2
109.0764	0.2
110.0604	0.1
110.0714	0.2
112.0759	5.7
113.0715	0.1
113.0794	0.4
114.0665	0.4
114.1029	0.2
116.0708	0.7
118.0865	1.2
121.0650	0.7
122.0813	5.3
122.0965	0.1
123.0684	0.2
123.0849	0.2
124.0395	0.1
124.0759	0.3
126.0555	0.2
126.0915	0.9
128.0710	0.1
129.1024	0.2
130.0864	4.4
131.0899	0.3
138.0552	0.4
140.0708	0.1
140.1070	0.3
142.0864	0.6
144.1021	0.5
146.0812	0.1
149.1073	0.1
150.0914	0.4
156.0771	0.1
156.1016	0.2
158.0814	0.2
159.0765	0.2
160.0969	0.3
165.0547	1.9
166.0483	0.3
168.0673	0.1
168.1020	1.0
169.1061	0.1
179.1286	0.1
184.0606	0.5
186.0859	0.1
186.1125	7.7
187.1159	0.8
196.1093	0.1
200.1031	0.3
201.1001	0.1
204.1232	6.2
205.1264	0.6
206.1017	0.2
206.1181	0.1
208.0968	0.1
208.1169	0.1
208.1334	2.7
209.1318	0.5
210.0836	0.1
210.1125	1.7
211.1164	0.2
211.1441	0.2
213.0505	0.1
213.1242	0.1
214.1547	0.4
215.1007	0.1
215.1163	0.3
215.1399	0.3
216.0984	0.4
216.1210	0.1
217.1189	0.1
218.1139	0.3
218.1388	0.1
219.0977	0.2
219.1154	0.3
220.1294	0.2
220.1543	0.2
221.1292	0.3
222.0365	0.2
222.0755	0.2
222.0883	0.6
222.0994	0.3
222.1336	100.0
222.1685	0.4
222.1793	0.5
222.1936	0.2
222.2062	0.1
222.2443	0.2
223.1129	0.1
223.1370	10.3
224.1272	6.7
225.1310	1.2
226.1071	1.6
226.1421	0.4
227.0657	0.3
227.1118	0.3
227.1399	0.3
228.1601	0.1
229.1165	0.1
229.1324	0.1
229.1530	0.2

Name: Cilnidipine
PrecursorMZ: 515.17869
RT: 2.612275
ExactMass: 492.18965124
Spectrum_type: 2
charge: 1
Formula: C27H28N2O7
SMILES: CC1=C(C(C(=C(N1)C)C(=O)OC/C=C/C2=CC=CC=C2)C3=CC(=CC=C3)[N+](=O)[O-])C(=O)OCCOC
Method: HCD
Collision_energy: [28.333334]
Isolation_window: 4.0
Ion_mode: P
Num Peaks: 8
57.2424	5.3
69.1852	1.6
97.4321	1.9
112.8958	2.7
176.8753	2.0
515.1785	100.0
516.1818	24.3
517.1808	1.9

Name: Cinchonine
PrecursorMZ: 317.16066
RT: 4.9496
ExactMass: 294.17321333
Spectrum_type: 2
charge: 1
Formula: C19H22N2O
SMILES: C=C[C@H]1CN2CC[C@H]1C[C@@H]2[C@H](C3=CC=NC4=CC=CC=C34)O
Method: HCD
Collision_energy: [28.333334]
Isolation_window: 4.0
Ion_mode: P
Num Peaks: 77
58.0657	3.7
70.0656	12.0
72.0813	4.6
80.0498	4.5
83.0496	4.7
84.0812	15.4
95.0605	5.3
98.9846	3.5
101.0600	19.7
106.0655	24.6
108.0811	7.5
109.0764	14.3
112.0509	11.0
112.0873	4.9
114.0669	4.3
122.0814	27.0
124.0867	4.4
130.0864	5.9
153.0661	7.0
175.0866	4.5
178.0856	3.5
180.1012	3.5
180.1147	10.4
194.0928	3.5
194.1184	4.0
203.0955	3.5
206.1177	79.9
207.1227	14.3
208.1334	100.0
209.1374	12.2
210.0796	14.0
217.1092	8.0
224.1031	60.5
225.1059	8.0
245.1283	9.0
258.1127	22.8
259.1148	4.0
264.1708	8.3
275.1392	16.2
276.1410	4.3
281.1848	3.4
288.1231	15.5
306.1337	18.5
307.1659	20.4
308.1690	3.9
316.0826	16.0
316.1613	4.7
317.1606	67.0
318.0975	6.9
318.1862	25.3
319.1767	27.5
320.1530	11.2
320.1926	3.9
321.1461	8.1
321.1847	9.0
322.1299	3.2
322.1726	12.1
323.1616	46.0
323.1979	76.9
324.1484	9.5
324.1953	41.1
325.1746	33.5
326.1607	9.4
326.2088	14.7
327.1289	4.2
327.1993	15.7
328.1948	5.1
329.1483	7.3
329.2126	3.7
330.1423	4.5
330.3367	6.9
331.1682	7.3
332.1499	8.8
333.1549	74.0
334.1591	15.9
335.1600	57.5
336.1592	8.7

Name: Cinnamamide, 3,4-dimethoxy-
PrecursorMZ: 208.0969
RT: 5.7326
ExactMass: 207.08954328
Spectrum_type: 2
charge: 1
Formula: C11H13NO3
SMILES: COC1=C(C=C(C=C1)/C=C/C(=O)N)OC
Method: HCD
Collision_energy: [28.333334]
Isolation_window: 4.0
Ion_mode: P
Num Peaks: 40
60.0449	77.2
79.0546	3.7
81.0339	3.9
81.0702	4.7
83.0495	3.4
89.0600	4.1
96.0811	7.0
106.0653	34.6
107.0493	100.0
108.0527	5.2
109.0649	3.9
119.0856	3.6
125.0598	6.1
131.0492	42.6
132.0524	4.4
145.1012	3.4
147.0806	4.7
147.1169	4.9
148.0758	41.6
149.0597	11.2
149.0790	4.6
149.0962	4.3
153.0547	3.4
162.0914	4.9
163.0753	3.4
163.1117	3.3
164.0706	4.9
166.0862	3.5
180.1021	3.5
190.0862	10.0
191.1064	4.7
206.0821	3.4
207.1131	4.2
208.0605	3.5
208.0968	13.4
209.0808	3.9
209.0919	4.2
209.1650	6.1
210.0762	5.0
210.1124	11.2

Name: Cinobufagin
PrecursorMZ: 443.23932
RT: 2.4147
ExactMass: 442.2355388
Spectrum_type: 2
charge: 1
Formula: C26H34O6
SMILES: CC(=O)O[C@@H]1[C@@H]([C@]2(CC[C@H]3[C@H]([C@@]24[C@@H]1O4)CC[C@H]5[C@@]3(CC[C@@H](C5)O)C)C)C6=COC(=O)C=C6
Method: HCD
Collision_energy: [28.333334]
Isolation_window: 4.0
Ion_mode: P
Num Peaks: 3
443.2391	100.0
444.2425	20.3
445.2373	6.6

Name: Cis-Zeatin Riboside
PrecursorMZ: 352.16076
RT: 7.7892
ExactMass: 351.15426879
Spectrum_type: 2
charge: 1
Formula: C15H21N5O5
SMILES: C/C(=C/CNC1=C2C(=NC=N1)N(C=N2)[C@H]3[C@@H]([C@@H]([C@H](O3)CO)O)O)/CO
Method: HCD
Collision_energy: [28.333334]
Isolation_window: 4.0
Ion_mode: P
Num Peaks: 16
70.0654	3.7
111.0440	2.8
154.0861	4.2
220.1187	100.0
221.1226	9.3
334.1498	3.3
350.1585	5.8
350.1788	3.2
351.1521	4.8
351.1890	8.7
352.1391	2.8
352.1596	53.3
352.2208	3.1
353.1656	11.9
353.2033	6.3
354.1727	3.6

Name: Citreoviridin
PrecursorMZ: 425.19159
RT: 1.4031
ExactMass: 402.20423867
Spectrum_type: 2
charge: 1
Formula: C23H30O6
SMILES: C[C@@H]1[C@]([C@H]([C@](O1)(C)/C=C(\C)/C=C/C=C/C=C/C2=C(C(=CC(=O)O2)OC)C)O)(C)O
Method: HCD
Collision_energy: [28.333334]
Isolation_window: 4.0
Ion_mode: P
Num Peaks: 104
69.0338	1.4
69.3131	1.7
70.0655	24.1
72.0811	10.5
73.0288	2.7
80.0547	1.9
81.0337	16.4
85.0287	1.5
86.0966	2.0
87.0442	1.8
89.0599	17.2
90.0632	1.1
91.0543	1.4
96.0445	1.7
97.0285	1.8
99.0441	1.3
102.0676	2.6
111.0441	3.0
112.0758	1.2
114.0550	1.6
114.0914	1.2
116.0706	10.3
120.0807	8.6
123.0793	1.3
127.0388	1.6
132.0806	1.6
133.0858	9.4
134.0891	1.5
136.0755	1.2
141.1384	3.4
142.0861	1.2
148.0756	1.1
150.0912	20.7
152.0706	1.9
153.1385	3.7
154.0860	1.7
160.0754	1.3
162.0913	1.5
164.1069	2.2
166.0862	6.7
177.1118	3.4
178.0861	4.3
179.1539	1.4
180.1017	4.1
182.1173	3.3
196.0966	13.3
197.1004	1.1
197.1281	11.1
198.0911	5.8
198.1121	4.8
198.1316	1.4
199.1248	1.8
210.0912	1.1
214.1070	14.2
215.1179	1.1
216.1226	9.9
221.1381	2.2
223.1438	1.6
228.1013	1.8
232.1175	6.4
244.0964	9.2
246.1122	2.8
247.1195	1.1
261.1232	1.1
263.1385	15.4
264.1225	8.1
264.1419	2.4
265.1263	1.0
265.1538	4.4
267.1334	4.2
274.1069	1.1
275.1381	2.3
281.1493	1.1
283.1184	1.1
292.1174	5.1
297.1590	2.0
310.2117	1.9
315.1541	1.1
325.1545	1.5
341.1490	18.7
342.1526	4.4
343.1646	30.3
345.1439	1.3
357.1805	1.2
358.1840	1.3
359.1593	6.4
371.1597	5.0
372.1630	1.0
373.1757	3.9
389.1699	100.0
390.1732	21.3
391.1861	13.9
406.2490	1.5
406.7491	1.2
407.1805	38.1
408.1842	7.6
409.1964	8.6
424.2096	1.6
425.1908	30.1
425.2745	1.1
426.1722	1.1
426.1944	4.0
426.2230	1.2
427.2075	5.2

Name: Citrulline-C4:0
PrecursorMZ: 246.14455
RT: 6.0782
Spectrum_type: 2
charge: 1
SMILES: CCCC(NC(C(O)=O)CCCNC(N)=O)=O
Method: HCD
Collision_energy: [28.333334]
Isolation_window: 4.0
Ion_mode: P
Num Peaks: 33
69.0703	3.3
69.3515	3.6
70.0655	27.9
71.0495	14.1
86.0967	34.4
87.0556	7.8
88.0759	5.4
99.0442	4.2
113.0711	26.5
114.0551	16.5
114.0914	3.2
115.0867	18.9
125.0708	4.8
132.1022	4.3
134.0811	3.9
141.1022	6.6
144.0807	8.7
159.0764	100.0
160.0799	7.1
166.0863	10.5
187.1076	8.9
200.1281	4.7
200.1381	3.6
211.1075	6.8
212.0917	8.6
229.1181	48.9
230.1216	5.3
230.1385	3.2
244.1373	4.8
245.0916	3.9
246.1335	7.5
247.1069	6.2
247.1441	3.7

Name: Coenzyme Q2
PrecursorMZ: 319.1899
RT: 3.0505
ExactMass: 318.18310931
Spectrum_type: 2
charge: 1
Formula: C19H26O4
SMILES: CC1=C(C(=O)C(=C(C1=O)OC)OC)C/C=C(\C)/CCC=C(C)C
Method: HCD
Collision_energy: [28.333334]
Isolation_window: 4.0
Ion_mode: P
Num Peaks: 127
55.0545	1.2
67.0545	0.7
69.0702	1.7
72.0811	1.2
79.0544	0.7
81.0701	2.2
83.0858	1.5
86.0966	6.1
93.0700	4.9
95.0856	2.0
97.0648	0.8
97.1013	5.0
99.0804	0.8
106.0651	0.8
107.0855	2.9
109.1012	3.9
111.0805	1.1
119.0855	1.0
121.1010	3.0
124.0755	1.5
125.0596	0.7
125.0960	5.9
126.0911	0.8
126.0994	0.7
131.0855	0.9
132.1017	1.4
133.1009	0.9
135.0803	1.5
135.1166	0.8
136.0753	1.0
137.0959	3.9
145.1011	1.4
148.0754	10.8
149.0785	0.9
149.0959	12.7
150.0909	0.9
150.0993	1.0
151.0752	1.7
157.1009	0.7
157.1334	0.7
158.1174	2.6
159.1166	0.6
161.0960	1.0
163.0752	0.7
163.1116	1.7
164.0704	2.1
164.0829	2.3
165.0764	0.7
165.0908	100.0
166.0860	10.8
166.0941	10.3
167.0894	1.1
168.1017	0.9
173.0960	1.0
175.0751	0.9
175.1115	2.9
176.0707	0.9
176.0830	1.3
177.0907	9.9
178.0860	1.0
178.0940	1.2
179.0700	0.7
179.1064	1.2
187.1114	1.1
189.0907	7.8
189.1268	1.4
191.0701	0.6
191.1063	5.5
194.0808	6.7
195.0843	0.7
199.1113	2.4
200.1641	0.7
201.1272	0.8
203.1063	24.3
204.1095	2.7
205.0855	1.4
205.1219	4.3
206.1254	0.8
213.1268	1.2
215.1061	0.9
217.1219	2.1
219.1010	1.0
227.1425	1.0
227.1790	1.1
229.1218	1.2
231.1375	1.2
237.1638	0.8
240.1500	0.9
241.1225	1.0
241.1582	1.0
243.1376	1.0
245.1531	2.3
255.1738	3.8
256.1774	0.8
259.1684	0.6
265.1580	0.8
268.1453	1.5
273.1236	0.8
273.1479	4.6
273.1597	2.8
273.1842	4.4
274.1514	0.7
274.1876	0.7
283.1686	21.2
284.1721	4.1
291.1581	4.9
292.1627	0.9
301.1189	0.9
301.1545	3.6
301.1791	40.5
302.1826	7.6
303.1585	0.8
318.0964	0.9
318.1316	1.5
318.2058	1.9
318.2996	3.9
319.1282	2.9
319.1652	3.8
319.1897	28.3
320.1111	1.7
320.1491	1.5
320.1934	6.4
320.1957	9.8
321.1300	1.2
321.1439	2.2
321.1806	1.0
321.2006	0.8

Name: Colfosceril Palmitate
PrecursorMZ: 734.56875
RT: 2.9968
ExactMass: 733.56215551
Spectrum_type: 2
charge: 1
Formula: C40H80NO8P
SMILES: CCCCCCCCCCCCCCCC(=O)OC[C@H](COP(=O)([O-])OCC[N+](C)(C)C)OC(=O)CCCCCCCCCCCCCCC
Method: HCD
Collision_energy: [28.333334]
Isolation_window: 4.0
Ion_mode: P
Num Peaks: 33
58.0654	0.3
59.0496	0.8
60.0448	0.4
60.0812	2.5
69.0703	0.3
71.0733	0.4
81.0701	0.3
81.6195	0.4
86.0967	10.3
87.1000	0.7
95.0857	0.3
98.0966	0.8
104.1072	1.0
124.9998	5.0
184.0564	0.8
184.0599	0.9
184.0673	1.9
184.0732	100.0
184.0905	0.5
185.0766	5.8
186.0774	0.9
196.0731	2.4
198.0889	0.5
284.2945	0.4
552.5347	0.5
553.5380	0.8
570.5455	1.0
571.5485	1.1
732.5494	0.4
733.5516	1.7
734.5680	9.7
735.5709	4.0
736.5825	0.5

Name: Columbamide J
PrecursorMZ: 390.27646
RT: 1.0977
ExactMass: 389.2696718
Spectrum_type: 2
charge: 1
Formula: C21H40ClNO3
SMILES: CCCCCCC(CCCCC=CCCC(=O)N(C)[C@H](CO)COC)Cl
Method: HCD
Collision_energy: [28.333334]
Isolation_window: 4.0
Ion_mode: P
Num Peaks: 10
70.0655	16.9
149.0234	7.0
389.0949	30.7
389.1922	18.5
390.2768	82.7
390.3358	66.6
391.2796	21.5
391.3397	16.6
392.2925	100.0
392.3141	10.0

Name: Coluracetam
PrecursorMZ: 342.18111
RT: 4.5324
ExactMass: 341.1739416
Spectrum_type: 2
charge: 1
Formula: C19H23N3O3
SMILES: CC1=C(OC2=NC3=C(CCCC3)C(=C12)NC(=O)CN4CCCC4=O)C
Method: HCD
Collision_energy: [28.333334]
Isolation_window: 4.0
Ion_mode: P
Num Peaks: 30
69.0702	2.8
86.0967	2.8
96.0810	10.4
113.1075	5.3
114.0915	15.5
126.0915	2.1
130.0652	8.7
139.9147	5.0
144.0809	7.3
183.0917	95.6
184.0951	12.4
209.1648	24.3
210.1684	4.7
211.0866	9.3
213.1233	3.3
226.1912	3.0
227.1755	10.7
228.1789	2.1
229.0970	2.2
296.1756	9.5
297.1791	2.1
301.1546	3.4
322.2487	33.5
323.2521	11.6
340.2593	49.9
341.2628	19.1
342.1810	100.0
342.2640	2.4
343.1845	21.0
344.1879	2.0

Name: Commendamide
PrecursorMZ: 330.26338
RT: 2.069975
ExactMass: 329.2566086
Spectrum_type: 2
charge: 1
Formula: C18H35NO4
SMILES: CCCCCCCCCCCCCC(CC(=O)NCC(=O)O)O
Method: HCD
Collision_energy: [28.333334]
Isolation_window: 4.0
Ion_mode: P
Num Peaks: 12
69.0702	9.0
76.0396	100.0
81.0701	11.3
83.0857	11.1
97.1012	11.8
121.1010	11.8
135.1167	6.9
237.2206	6.6
312.2525	43.8
313.2554	6.8
330.2631	13.6
331.2293	13.1

Name: Conessine
PrecursorMZ: 357.32626
RT: 1.0339
ExactMass: 356.319149284
Spectrum_type: 2
charge: 1
Formula: C24H40N2
SMILES: C[C@H]1[C@H]2CC[C@@H]3[C@@]2(CC[C@H]4[C@H]3CC=C5[C@@]4(CC[C@@H](C5)N(C)C)C)CN1C
Method: HCD
Collision_energy: [28.333334]
Isolation_window: 4.0
Ion_mode: P
Num Peaks: 19
86.0967	0.4
97.3984	0.4
135.0441	1.0
135.1169	0.3
355.3102	0.3
356.2219	0.4
356.3148	0.9
356.3522	0.6
357.2802	0.8
357.2896	0.7
357.3263	100.0
357.3627	0.3
357.3726	0.7
357.3857	0.2
358.2813	0.2
358.3295	24.9
359.1974	0.2
359.3077	0.3
359.3325	2.6

Name: Coniferaldehyde
PrecursorMZ: 179.07022
RT: 3.0454
ExactMass: 178.062994177
Spectrum_type: 2
charge: 1
Formula: C10H10O3
SMILES: COC1=C(C=CC(=C1)/C=C/C=O)O
Method: HCD
Collision_energy: [28.333334]
Isolation_window: 4.0
Ion_mode: P
Num Peaks: 22
83.0608	1.6
91.0545	1.7
119.0493	15.4
120.0525	1.6
120.0809	5.0
137.0597	100.0
138.0630	7.8
147.0441	12.6
148.0477	1.1
151.0754	3.3
161.1074	4.8
177.1027	1.8
178.0862	8.1
178.1229	1.3
179.0704	1.7
179.0816	2.4
179.0898	1.1
179.1179	12.2
180.0658	2.0
180.1018	5.1
180.1207	1.2
181.0971	27.5

Name: Contaminant vial septum ThermoFisher C5000-44B
PrecursorMZ: 628.19422
RT: 0.9944888888888889
Spectrum_type: 2
charge: 1
Method: HCD
Collision_energy: [28.333334]
Isolation_window: 4.0
Ion_mode: P
Num Peaks: 28
69.0843	5.8
73.0471	50.7
91.0576	100.0
97.4308	7.4
149.0447	6.9
167.0554	14.5
223.0633	58.0
224.0628	6.9
225.0427	33.2
268.9784	7.2
281.0506	5.7
285.0092	68.8
286.0094	10.9
297.0819	12.8
299.0612	54.8
300.0620	8.5
303.0199	8.9
355.0693	81.8
356.0696	23.7
359.0278	23.9
360.0281	5.7
371.1007	90.5
372.1010	22.5
373.0791	5.8
429.0879	7.6
445.1194	18.8
446.1191	5.8
628.3743	6.3

Name: Contaminants septum vial Thermo C4000-53 and C4000-54 serie
PrecursorMZ: 536.16521
RT: 0.9783
Spectrum_type: 2
charge: 1
Method: HCD
Collision_energy: [28.333334]
Isolation_window: 4.0
Ion_mode: P
Num Peaks: 75
55.9011	0.7
57.6824	0.4
59.5742	0.3
73.0454	0.3
73.0471	16.1
74.0466	0.5
74.0505	0.5
75.0263	0.6
91.0576	19.7
92.0572	0.7
92.0607	0.4
93.0368	0.3
114.0734	0.6
149.0448	20.7
150.0437	1.3
151.0416	0.5
167.0553	36.6
168.0540	2.6
169.0522	1.1
169.0595	0.3
190.0712	0.5
221.0840	3.3
222.0835	0.5
223.0634	5.8
224.0639	0.6
225.0427	5.2
226.0416	0.6
227.0220	0.6
239.0946	9.9
240.0949	1.1
241.0906	0.5
265.0182	0.4
266.9981	0.3
281.0503	13.0
282.0505	2.7
283.0301	3.5
283.0476	0.9
284.0301	0.8
285.0095	0.7
297.0822	1.4
298.0831	0.3
299.0259	0.8
299.0332	0.5
299.0612	100.0
299.0896	0.5
299.0965	0.6
300.0615	20.9
301.0577	7.0
322.0768	0.5
324.9865	0.4
326.9643	1.2
327.9649	0.3
341.0168	0.9
342.0174	0.3
342.9970	0.5
344.9759	16.7
345.9760	4.1
346.9731	1.6
355.0694	0.6
359.0279	9.1
360.0283	2.1
361.0250	0.9
399.0056	0.5
415.0360	9.0
416.0366	3.4
417.0343	1.2
503.1070	13.7
504.1076	6.4
505.1052	2.7
519.1384	7.5
520.1392	3.6
521.1382	1.5
536.1649	6.5
537.1659	3.0
538.1630	1.4

Name: Convolamine
PrecursorMZ: 306.1699
RT: 2.0303
ExactMass: 305.16270821
Spectrum_type: 2
charge: 1
Formula: C17H23NO4
SMILES: CN1C2CCC1CC(C2)OC(=O)C3=CC(=C(C=C3)OC)OC
Method: HCD
Collision_energy: [28.333334]
Isolation_window: 4.0
Ion_mode: P
Num Peaks: 52
55.0555	4.2
58.0665	2.4
59.0505	1.5
83.0507	6.2
101.0539	1.2
101.0612	19.0
122.0238	2.6
125.0714	1.3
130.0867	1.8
137.0601	3.0
140.0719	1.0
166.0864	2.3
188.0708	28.1
189.0743	3.1
195.1127	1.3
206.0814	20.8
207.0851	2.4
207.1130	13.6
219.1140	1.1
225.1237	5.5
267.1483	1.7
288.1233	2.5
305.1508	2.7
305.1870	1.8
306.1342	100.0
306.1695	10.5
307.1371	18.7
307.1703	3.2
308.1417	3.1
309.1488	1.1
309.1826	2.4
312.1814	1.3
313.1194	2.8
313.1526	14.8
314.1614	2.7
314.2087	1.0
315.1331	1.5
316.1194	1.2
316.1551	2.5
317.1134	1.3
317.1521	2.1
318.1334	2.7
319.1652	3.5
320.1119	1.1
320.1525	2.1
320.1977	2.4
321.1476	2.3
322.1700	1.1
323.1607	3.3
323.1976	1.2
324.1455	1.1
325.1762	54.5

Name: Corchorifatty acid F
PrecursorMZ: 346.25783
RT: 1.423
ExactMass: 328.22497412
Spectrum_type: 2
charge: 1
Formula: C18H32O5
SMILES: CC/C=C\CC(C(/C=C/C(CCCCCCCC(=O)O)O)O)O
Method: HCD
Collision_energy: [28.333334]
Isolation_window: 4.0
Ion_mode: P
Num Peaks: 40
67.0545	21.0
69.0700	10.0
69.6680	8.3
79.0543	10.5
81.0700	25.3
83.0857	10.5
91.0542	12.5
93.0699	17.1
95.0855	20.7
97.1010	11.4
105.0697	10.7
107.0853	27.2
109.1010	34.0
119.0851	17.5
121.1009	16.7
125.0957	9.3
131.0850	7.7
133.1007	16.7
135.1164	7.6
147.1164	9.4
149.0957	7.7
149.1322	9.4
155.1062	39.9
159.1164	11.3
173.1167	100.0
189.1115	13.8
195.1372	20.4
213.1478	18.6
235.1683	18.5
275.1995	55.0
276.2035	11.0
281.1487	7.6
293.2097	23.2
330.0354	37.3
345.0591	70.2
345.1432	11.8
346.0630	13.4
347.1342	12.0
347.1596	12.0
347.1952	10.2

Name: Corylin
PrecursorMZ: 343.08965
RT: 8.9815
ExactMass: 320.10485899
Spectrum_type: 2
charge: 1
Formula: C20H16O4
SMILES: CC1(C=CC2=C(O1)C=CC(=C2)C3=COC4=C(C3=O)C=CC(=C4)O)C
Method: HCD
Collision_energy: [28.333334]
Isolation_window: 4.0
Ion_mode: P
Num Peaks: 4
224.0915	9.4
343.0896	100.0
344.0926	13.4
344.1133	7.4

Name: Cotinine
PrecursorMZ: 177.10229
RT: 4.4747
ExactMass: 176.094963011
Spectrum_type: 2
charge: 1
Formula: C10H12N2O
SMILES: CN1[C@@H](CCC1=O)C2=CN=CC=C2
Method: HCD
Collision_energy: [28.333334]
Isolation_window: 4.0
Ion_mode: P
Num Peaks: 18
133.0761	6.5
159.0917	2.2
175.0867	8.9
176.0707	10.9
176.0821	3.0
176.0907	2.7
176.1184	12.9
176.8754	24.2
177.0662	5.9
177.1023	100.0
178.0863	9.5
178.0977	3.9
178.1056	12.4
178.1223	3.3
178.8735	4.1
179.0816	8.2
179.1179	7.1
194.0448	4.0

Name: Cphpc
PrecursorMZ: 341.17013
RT: 6.4556
ExactMass: 340.16343649
Spectrum_type: 2
charge: 1
Formula: C16H24N2O6
SMILES: C1C[C@@H](N(C1)C(=O)CCCCC(=O)N2CCC[C@@H]2C(=O)O)C(=O)O
Method: HCD
Collision_energy: [28.333334]
Isolation_window: 4.0
Ion_mode: P
Num Peaks: 138
58.0656	2.0
60.0561	2.8
69.0339	2.4
70.0656	26.3
72.0812	6.2
81.0338	2.4
82.0657	2.5
84.0446	2.3
84.0811	100.0
85.0288	3.4
85.0649	2.4
85.0844	5.0
86.0603	2.1
86.0968	5.3
87.0443	3.8
88.0759	1.8
89.0600	11.4
96.0447	1.6
96.0811	2.1
97.0289	1.9
98.0604	1.8
98.0967	2.3
100.0760	4.0
103.0394	2.3
105.0337	1.8
110.0602	1.6
110.0717	2.2
110.0965	2.1
111.0442	3.1
112.0760	2.2
112.0871	8.7
112.1123	3.3
113.0712	1.7
114.0913	1.9
114.1028	6.9
115.0869	3.5
116.0708	6.3
118.0867	1.6
126.0552	2.5
126.0912	1.6
127.0391	1.7
128.0709	7.1
128.1070	14.3
129.1023	7.6
130.0863	66.2
130.1228	2.2
131.0900	3.9
132.0443	9.4
133.0862	6.9
142.0865	3.2
147.1128	28.3
148.1159	2.0
150.0549	1.8
154.0861	2.6
155.1181	4.4
156.1021	3.7
158.0928	4.1
163.0751	2.4
164.1068	2.4
165.0545	4.3
166.0978	1.9
173.1284	27.7
174.1318	2.1
175.1192	11.2
178.0857	1.6
182.0797	2.1
183.1125	2.1
185.0825	1.6
191.1389	1.9
193.1337	1.7
195.0630	2.7
209.0904	2.0
209.1639	2.1
211.1079	1.6
212.0899	3.1
212.1271	4.4
216.1020	24.0
217.1054	3.6
218.1500	2.6
223.1063	2.9
224.1037	1.7
225.0873	1.6
225.1220	3.3
226.1437	14.5
227.1469	1.6
229.1297	2.0
230.1381	2.9
239.1058	1.7
240.2304	2.2
245.1238	1.6
268.1303	2.2
284.1968	3.8
297.1193	2.7
299.1678	1.6
300.1594	6.8
310.1456	2.0
310.2022	5.1
322.2483	3.6
324.1267	2.4
326.1816	2.2
327.2017	7.5
328.1569	2.6
333.1655	2.6
335.1826	3.7
340.1574	2.8
340.1900	2.0
340.2580	5.7
341.1739	14.2
342.1758	5.6
343.1597	9.9
344.1545	9.0
344.1968	4.7
345.1810	50.7
346.1780	13.3
346.3315	3.9
347.1472	4.4
347.1901	3.5
347.2288	36.5
348.1673	2.0
348.2325	6.2
349.1714	12.0
350.1611	2.7
351.1776	8.2
352.1806	2.3
353.1934	14.8
354.1653	5.2
355.1485	4.6
355.1870	1.7
355.2230	39.3
356.1814	3.5
356.2251	10.1
356.3524	2.3
357.1651	4.9
358.1653	3.7
358.2110	6.2
358.3675	2.4
359.1678	7.7
360.1661	10.7

Name: Crebanine
PrecursorMZ: 340.14967
RT: 7.913
ExactMass: 339.14705815
Spectrum_type: 2
charge: 1
Formula: C20H21NO4
SMILES: CN1CCC2=CC3=C(C4=C2C1CC5=C4C=CC(=C5OC)OC)OCO3
Method: HCD
Collision_energy: [28.333334]
Isolation_window: 4.0
Ion_mode: P
Num Peaks: 34
70.0654	4.8
86.0603	3.8
101.0597	11.8
111.0552	4.2
116.0707	4.4
133.0757	5.2
161.0707	63.1
162.0738	5.4
179.0810	6.9
207.0760	77.7
208.0796	8.7
211.1069	3.9
213.1230	4.0
225.0867	7.1
241.0273	16.7
276.1337	17.6
293.1238	3.7
304.1282	4.2
322.1390	100.0
323.1427	14.2
338.3407	6.3
339.1306	9.3
339.1550	16.6
339.1891	14.5
340.1502	87.7
340.1932	4.4
341.0799	9.4
341.1179	6.2
341.1499	12.6
341.1678	10.6
341.1807	29.6
341.2078	4.1
342.0996	9.4
342.1327	3.8

Name: Crinamine
PrecursorMZ: 302.1385
RT: 2.7429
ExactMass: 301.13140809
Spectrum_type: 2
charge: 1
Formula: C17H19NO4
SMILES: CO[C@@H]1C[C@H]2[C@@]3(C=C1)[C@H](CN2CC4=CC5=C(C=C34)OCO5)O
Method: HCD
Collision_energy: [28.333334]
Isolation_window: 4.0
Ion_mode: P
Num Peaks: 129
55.0547	0.2
58.0656	0.2
59.0496	0.2
70.0656	0.6
72.0813	0.4
81.0338	0.2
83.0495	0.4
84.0812	0.3
87.0444	0.2
91.0545	0.2
96.0447	0.2
96.0810	0.2
98.0605	0.2
98.0968	0.1
100.0759	0.2
101.0600	1.2
107.0732	0.1
110.0604	0.4
110.0715	0.2
111.0444	0.3
112.0759	0.2
114.0555	0.2
114.0666	0.2
116.0710	0.4
120.0809	3.3
121.0651	0.3
121.0760	0.7
121.0889	5.4
122.0605	0.2
122.0923	0.3
123.0683	0.5
124.0758	0.2
130.0864	0.3
134.0601	0.2
140.0706	0.7
148.0759	2.1
149.0605	0.3
149.0799	0.2
150.0915	0.5
152.0709	0.3
163.0870	0.1
164.0709	0.4
165.0663	0.1
165.1024	1.3
166.0576	0.1
166.0864	24.3
166.1160	0.1
167.0901	2.3
176.0941	0.2
177.1017	0.2
178.1101	0.5
179.0816	0.2
180.1015	0.3
193.0973	0.2
194.1046	0.1
195.1125	0.5
196.1109	0.2
197.0924	0.2
202.0864	2.2
203.0914	0.3
204.0897	0.2
207.1498	0.2
216.1020	0.2
222.0999	1.1
223.1041	0.1
224.1047	0.2
257.1657	0.2
258.1131	0.2
267.1493	11.0
268.1525	2.1
269.1651	2.6
270.1685	0.5
274.1528	0.1
285.1237	0.2
291.1322	0.4
300.1199	0.6
301.1218	0.6
301.1547	0.1
302.1060	0.3
302.1390	6.8
302.1965	0.2
303.1385	2.2
303.1728	0.1
304.1188	1.0
304.1544	0.6
304.2096	0.5
304.3002	0.2
305.1191	0.3
305.1515	1.3
306.1354	1.3
306.1692	0.5
307.1306	1.1
307.1664	1.1
308.1522	0.9
308.1855	0.5
309.1480	0.7
309.1819	0.9
310.1303	0.4
310.1745	1.9
311.1033	0.4
311.1628	0.8
312.1494	0.4
312.1782	0.4
312.9878	0.2
313.0562	0.2
313.1545	100.0
313.2308	0.6
313.2522	0.2
313.2740	0.2
313.3430	0.2
314.0992	0.3
314.1580	20.9
315.1622	2.5
316.1183	0.8
316.1593	0.4
316.2210	0.3
317.1175	0.2
317.1509	0.7
317.1868	0.1
317.2206	0.1
318.1345	1.2
318.1767	0.3
319.1327	0.6
319.1662	0.6
320.1114	0.1
320.1554	1.4
320.1939	0.4
321.1462	0.9
321.1807	0.3

Name: Crocetin
PrecursorMZ: 329.17026
RT: 9.139
ExactMass: 328.16745924
Spectrum_type: 2
charge: 1
Formula: C20H24O4
SMILES: C/C(=C\C=C\C=C(\C=C\C=C(\C(=O)O)/C)/C)/C=C/C=C(/C(=O)O)\C
Method: HCD
Collision_energy: [28.333334]
Isolation_window: 4.0
Ion_mode: P
Num Peaks: 34
70.0656	10.6
88.0760	5.0
89.0601	10.5
104.1072	8.3
122.0812	20.6
132.0444	34.1
133.0858	5.5
178.0861	5.8
194.1178	9.1
210.0789	9.8
240.2322	6.0
297.1228	15.7
327.1569	5.9
328.1440	9.0
329.1712	100.0
330.1525	13.1
330.3363	15.2
331.1503	19.2
331.1873	27.9
333.1735	5.6
334.1293	8.0
336.1662	29.5
337.1723	6.2
340.1966	41.8
341.1356	15.6
341.2017	5.2
342.1545	48.7
343.1517	19.8
343.1873	31.9
344.1076	8.1
344.1691	18.5
345.1669	22.0
346.3312	16.0
347.1855	8.5

Name: Crotetamide
PrecursorMZ: 227.17515
RT: 1.4057
ExactMass: 226.168127949
Spectrum_type: 2
charge: 1
Formula: C12H22N2O2
SMILES: CCC(C(=O)N(C)C)N(CC)C(=O)/C=C/C
Method: HCD
Collision_energy: [28.333334]
Isolation_window: 4.0
Ion_mode: P
Num Peaks: 6
86.0966	100.0
114.0913	16.7
154.1588	26.3
182.1538	23.9
199.1803	24.3
227.1749	64.2

Name: Cryptoxanthin
PrecursorMZ: 552.42882
RT: 1.0422
ExactMass: 552.433116406
Spectrum_type: 2
charge: 1
Formula: C40H56O
SMILES: CC1=C(C(CCC1)(C)C)/C=C/C(=C/C=C/C(=C/C=C/C=C(\C)/C=C/C=C(\C)/C=C/C2=C(C[C@H](CC2(C)C)O)C)/C)/C
Method: HCD
Collision_energy: [28.333334]
Isolation_window: 4.0
Ion_mode: P
Num Peaks: 203
51.1524	4.2
57.0703	4.6
61.3818	4.9
61.4933	2.0
67.0546	8.6
69.0703	24.8
79.0545	7.2
81.0702	32.5
82.0736	1.8
83.0858	13.9
85.0650	2.7
91.0544	6.7
93.0701	32.1
94.0736	2.3
94.0778	1.6
95.0857	40.1
96.0890	3.3
97.1013	3.6
105.0700	38.1
106.0733	3.9
106.0777	2.8
107.0856	40.5
108.0890	3.5
108.0934	1.9
109.1013	29.1
110.1046	2.1
111.0805	1.6
111.1168	2.5
117.0700	5.5
119.0856	78.1
120.0889	7.3
120.0934	10.5
121.1012	41.4
122.1047	4.7
123.0805	1.9
123.1168	21.0
125.0961	1.9
129.0699	3.6
131.0855	27.1
132.0888	3.7
132.0933	4.5
133.1011	49.8
134.1044	5.1
134.1091	2.7
135.0804	2.3
135.1167	21.7
136.1201	1.6
137.0960	3.2
137.1325	5.7
139.1114	1.8
142.0776	2.3
143.0855	18.2
144.0886	1.8
144.0934	5.4
145.1011	54.5
146.1043	5.1
146.1090	3.3
147.1167	25.5
148.1200	3.5
149.0960	4.1
149.1325	6.6
151.1117	1.8
155.0854	6.0
156.0935	6.4
157.1011	39.0
158.1043	4.0
158.1100	5.2
159.1168	34.9
160.1193	4.1
161.0959	2.0
161.1324	18.3
162.1357	1.6
163.1118	1.8
163.1482	3.5
167.0857	2.0
169.1011	16.5
170.1099	3.5
171.1168	32.8
172.1198	3.3
172.1251	2.8
173.1324	30.1
174.1347	4.2
175.1480	26.3
176.1507	3.6
177.1272	3.0
177.1638	13.7
181.1012	7.7
183.1167	24.7
184.1192	2.1
184.1248	2.7
185.1324	22.3
186.1356	2.2
187.1480	15.4
188.1514	1.8
189.1637	5.9
191.1428	3.8
193.1010	4.0
194.1093	3.2
195.1167	15.6
196.1242	3.1
197.1324	22.7
198.1356	2.5
198.1402	2.9
199.1480	13.5
200.1515	2.2
201.1270	3.0
201.1637	10.9
202.1674	1.9
203.1428	3.2
203.1792	7.3
205.1582	2.7
207.1166	6.9
208.1254	2.8
209.1323	25.8
210.1393	3.4
211.1480	17.5
212.1520	2.8
213.1637	7.6
215.1792	3.5
217.1584	4.1
219.1166	1.9
219.1739	1.6
221.1323	9.2
222.1382	2.3
223.1479	12.4
224.1524	2.1
225.1636	9.2
227.1795	4.4
233.1321	3.6
235.1480	7.1
236.1552	1.9
236.2368	2.4
237.1637	8.1
238.1670	2.5
239.1792	9.5
240.1830	1.9
241.1949	7.1
242.1994	1.6
243.2106	3.4
247.1476	3.3
249.1635	6.4
250.1685	1.6
251.1792	5.4
252.1865	2.1
253.1950	4.8
254.2024	3.4
255.1740	3.1
255.2106	3.4
256.2181	3.2
257.1895	2.6
261.1635	5.2
263.1790	5.4
265.1948	9.2
266.1987	2.1
267.2103	9.4
268.2140	1.7
268.2996	2.0
269.1900	2.1
269.2260	3.0
270.1973	2.4
271.2045	1.6
275.1791	3.7
276.1839	1.6
277.1949	3.4
279.2104	2.7
281.2260	3.6
283.2053	5.0
284.2123	1.6
285.2208	1.8
289.1948	2.8
291.2107	2.2
293.2258	2.3
297.2206	2.8
303.2101	1.8
305.2261	2.2
307.2414	3.6
331.2418	2.6
333.2573	2.3
336.2448	1.9
337.2519	1.8
345.2573	1.6
346.2655	2.5
354.2916	2.0
359.2726	2.3
399.3059	1.8
404.3069	2.3
445.3457	3.6
446.3522	2.6
458.3534	4.1
459.3575	6.4
460.3694	84.2
461.3728	27.9
462.3765	3.4
473.3765	2.1
537.4101	1.7
550.4136	4.6
551.4194	15.5
552.4315	100.0
553.4352	42.7
553.5440	6.4
554.3977	1.9
554.4392	5.1
554.5500	2.6

Name: Curcumin
PrecursorMZ: 391.11482
RT: 0.8521
ExactMass: 368.12598835
Spectrum_type: 2
charge: 1
Formula: C21H20O6
SMILES: COC1=C(C=CC(=C1)/C=C/C(=O)CC(=O)/C=C/C2=CC(=C(C=C2)O)OC)O
Method: HCD
Collision_energy: [28.333334]
Isolation_window: 4.0
Ion_mode: P
Num Peaks: 5
149.0234	100.0
331.0940	92.1
390.0979	34.5
391.0919	36.1
391.1151	84.3

Name: Cyclo(his-pro)
PrecursorMZ: 235.11898
RT: 1.1
ExactMass: 234.1116757
Spectrum_type: 2
charge: 1
Formula: C11H14N4O2
SMILES: C1C[C@H]2C(=O)N[C@H](C(=O)N2C1)CC3=CN=CN3
Method: HCD
Collision_energy: [28.333334]
Isolation_window: 4.0
Ion_mode: P
Num Peaks: 16
70.0657	8.1
82.0528	1.3
110.0716	16.8
138.0666	1.7
162.1030	4.2
166.0615	4.1
207.1243	3.7
221.1288	1.7
235.1194	100.0
236.1226	13.6
237.1237	1.6
238.1092	1.3
239.1401	1.1
240.1314	1.2
253.1185	8.6
254.1007	3.1

Name: Cyclo(prolylglycyl)
PrecursorMZ: 155.08145
RT: 8.8995
ExactMass: 154.074227566
Spectrum_type: 2
charge: 1
Formula: C7H10N2O2
SMILES: C1C[C@H]2C(=O)NCC(=O)N2C1
Method: HCD
Collision_energy: [28.333334]
Isolation_window: 4.0
Ion_mode: P
Num Peaks: 35
70.0655	0.4
95.0493	0.4
95.0605	1.2
98.0602	1.0
109.0762	4.0
110.0601	0.7
110.0714	2.5
110.0839	2.7
111.0918	1.4
112.0870	0.4
115.0867	0.6
115.9542	0.5
115.9642	0.9
133.9646	0.4
133.9745	0.4
137.0709	2.1
139.0867	0.6
153.0737	0.5
154.0497	1.7
154.0863	1.7
154.0973	1.4
154.1227	0.6
154.1336	0.8
155.0683	0.7
155.0709	0.6
155.0815	100.0
155.0919	0.5
155.0947	0.7
155.1177	0.5
156.0421	2.0
156.0655	0.7
156.0779	0.9
156.0848	7.0
156.1018	1.3
157.0971	1.7

Name: Cycloastragenol
PrecursorMZ: 491.3735
RT: 1.03445
ExactMass: 490.36582469
Spectrum_type: 2
charge: 1
Formula: C30H50O5
SMILES: C[C@]12CC[C@@]34C[C@@]35CC[C@@H](C([C@@H]5[C@H](C[C@H]4[C@@]1(C[C@@H]([C@@H]2[C@]6(CC[C@H](O6)C(C)(C)O)C)O)C)O)(C)C)O
Method: HCD
Collision_energy: [28.333334]
Isolation_window: 4.0
Ion_mode: P
Num Peaks: 13
69.1528	37.8
71.0859	42.0
73.0651	22.9
85.1013	26.7
87.0441	23.9
89.0599	100.0
97.4572	31.1
112.9998	26.7
117.0910	24.2
133.0858	36.5
155.0104	23.0
169.0260	55.9
177.1119	23.7

Name: Cycloheximide
PrecursorMZ: 282.16994
RT: 2.6581
ExactMass: 281.16270821
Spectrum_type: 2
charge: 1
Formula: C15H23NO4
SMILES: C[C@H]1C[C@@H](C(=O)[C@@H](C1)[C@@H](CC2CC(=O)NC(=O)C2)O)C
Method: HCD
Collision_energy: [28.333334]
Isolation_window: 4.0
Ion_mode: P
Num Peaks: 42
70.0657	6.7
72.0813	4.2
84.0812	13.6
89.0601	6.1
98.0968	6.4
110.0968	14.3
122.0813	16.9
130.0865	10.6
132.0446	7.6
133.0862	3.9
168.0691	13.7
206.1178	4.3
220.1333	5.1
222.1118	5.6
239.1757	6.9
264.1598	23.3
280.1631	3.5
281.1601	8.7
282.1382	4.9
282.1700	100.0
283.1736	19.4
284.1977	32.9
284.3313	4.3
285.2033	4.3
286.3105	3.9
287.1400	5.1
288.1232	7.0
289.1220	3.8
290.1392	16.9
291.1366	9.3
291.1707	3.8
292.1585	6.6
293.1523	9.8
293.1858	27.0
294.1353	5.7
294.1713	13.5
295.1664	7.7
296.1493	16.3
297.1552	3.5
300.1245	4.9
301.1537	9.2
302.1368	4.7

Name: Cyclohexylamine
PrecursorMZ: 100.11212
RT: 3.5129
ExactMass: 99.104799419
Spectrum_type: 2
charge: 1
Formula: C6H13N
SMILES: C1CCC(CC1)N
Method: HCD
Collision_energy: [28.333334]
Isolation_window: 4.0
Ion_mode: P
Num Peaks: 14
55.0546	46.2
56.0499	24.3
57.0702	11.7
59.0607	14.8
69.0338	13.6
69.0743	13.1
69.0763	16.8
69.6921	14.7
82.0653	11.8
83.0857	16.1
97.4582	11.4
99.0553	19.7
100.0757	100.0
100.1121	44.6

Name: Cyclohexylformamide
PrecursorMZ: 128.10699
RT: 1.4143
ExactMass: 127.099714038
Spectrum_type: 2
charge: 1
Formula: C7H13NO
SMILES: C1CCC(CC1)NC=O
Method: HCD
Collision_energy: [28.333334]
Isolation_window: 4.0
Ion_mode: P
Num Peaks: 33
55.0547	0.8
57.0339	1.7
59.0495	1.0
68.0498	1.2
69.0702	4.2
70.0654	1.7
71.0607	0.6
72.0811	33.2
73.0651	1.4
73.0844	1.3
82.0654	1.1
83.0857	0.5
84.0810	0.8
86.0966	8.2
87.1000	0.6
97.4574	0.9
99.0917	0.5
100.0757	1.2
110.0600	0.5
112.0631	3.3
126.0913	2.4
127.0866	2.1
127.0942	0.6
128.0621	0.8
128.0705	1.8
128.0969	0.6
128.1069	100.0
128.1167	0.9
129.0697	0.6
129.0908	0.5
129.1101	8.4
130.0650	2.6
130.0862	0.6

Name: Cycloleucine
PrecursorMZ: 130.08629
RT: 12.8894
ExactMass: 129.078978594
Spectrum_type: 2
charge: 1
Formula: C6H11NO2
SMILES: C1CCC(C1)(C(=O)O)N
Method: HCD
Collision_energy: [28.333334]
Isolation_window: 4.0
Ion_mode: P
Num Peaks: 71
58.0656	0.9
60.0448	0.7
69.0339	0.9
70.0655	2.8
72.0448	4.5
82.0655	1.2
84.0447	5.2
84.0811	100.0
84.0893	0.6
84.0915	0.6
85.0286	1.3
85.0843	5.9
86.0605	1.1
86.0967	1.4
89.0600	0.8
90.0552	0.6
95.0159	0.8
96.0113	0.9
96.0445	0.8
96.9954	9.2
98.0603	1.1
100.0759	1.3
102.0551	1.8
102.0915	0.7
103.9557	0.8
104.0707	0.9
112.0394	0.7
114.0551	1.2
115.0059	0.9
118.0683	0.7
120.0476	17.8
121.0479	0.8
121.9662	8.1
122.0443	0.8
123.9644	3.7
128.0709	1.2
128.1433	0.9
129.1022	1.9
130.0499	1.9
130.0655	0.7
130.0862	62.3
130.1587	1.3
131.0897	4.2
132.0655	3.5
132.0829	0.7
132.1018	0.6
134.0631	10.6
134.0710	0.6
135.0656	1.0
135.0763	0.6
136.0607	0.8
137.0457	6.7
138.0557	2.0
138.0913	1.9
138.1276	2.0
139.0496	1.1
139.0865	0.8
139.1225	0.8
140.0343	1.5
140.0818	0.7
141.0658	3.1
142.0503	0.6
142.1590	1.1
143.0815	0.6
144.0654	0.8
146.0606	1.5
146.0810	2.0
147.0552	1.1
147.1127	8.5
148.0968	2.2
149.0234	0.9

Name: Cyclopeptine
PrecursorMZ: 281.12848
RT: 5.4581
ExactMass: 280.121177757
Spectrum_type: 2
charge: 1
Formula: C17H16N2O2
SMILES: CN1[C@H](C(=O)NC2=CC=CC=C2C1=O)CC3=CC=CC=C3
Method: HCD
Collision_energy: [28.333334]
Isolation_window: 4.0
Ion_mode: P
Num Peaks: 42
72.0812	3.1
81.0338	2.9
86.0968	5.5
94.0654	4.7
120.0810	3.3
130.0652	8.7
136.0760	3.0
144.0809	5.3
146.0600	3.3
149.0598	22.5
150.0631	2.7
151.0628	6.3
152.0709	8.5
160.9016	4.2
176.8753	4.1
188.0707	6.3
217.0722	4.4
234.1238	6.8
237.1387	8.0
244.0967	2.6
262.1073	5.2
264.1234	2.9
279.1125	6.1
279.1338	9.7
279.1706	4.0
279.2064	4.6
280.0962	4.3
280.1175	20.2
280.1305	6.0
280.1661	19.8
281.0931	6.1
281.1284	100.0
281.1494	13.3
281.1845	6.9
282.0967	4.5
282.1123	10.0
282.1323	25.2
282.1472	3.5
282.1699	2.7
283.1080	8.9
283.1444	5.1
283.1636	5.4

Name: Cycloxydim
PrecursorMZ: 326.17875
RT: 5.3346
ExactMass: 325.1711649
Spectrum_type: 2
charge: 1
Formula: C17H27NO3S
SMILES: CCCC(=NOCC)C1=C(CC(CC1=O)C2CCCSC2)O
Method: HCD
Collision_energy: [28.333334]
Isolation_window: 4.0
Ion_mode: P
Num Peaks: 72
55.0546	1.3
70.0654	4.5
72.0811	1.8
81.0338	1.1
83.0857	5.2
84.0446	0.9
86.0966	2.4
95.0855	1.0
96.0446	1.5
96.0807	1.2
97.0649	3.4
102.0550	1.1
108.0444	1.9
110.0600	2.2
116.0706	1.8
122.0599	5.7
124.0756	9.2
125.0788	4.0
126.0550	1.0
126.0912	11.9
127.0946	1.2
136.0755	9.8
137.0788	1.6
138.0911	8.4
139.0945	1.7
140.1068	4.1
150.0547	12.3
151.0579	1.5
152.0704	12.4
153.0737	1.2
154.0860	1.7
156.1017	3.6
164.0704	100.0
165.0737	20.5
166.0762	3.0
166.0849	1.5
170.0808	2.5
180.0655	1.0
182.0808	90.5
183.0842	20.3
183.1119	1.0
184.0859	3.8
192.1015	1.2
211.1075	1.1
216.1018	1.5
230.1172	1.6
244.1327	1.2
272.1273	3.7
289.1539	23.7
290.1380	2.3
290.1572	3.6
307.1645	15.0
308.1483	1.4
308.1675	2.3
324.1998	2.3
325.1173	1.2
325.1379	2.0
325.1526	1.4
325.1749	17.1
326.1016	1.1
326.1212	3.4
326.1369	1.9
326.1582	1.1
326.1743	2.4
326.1798	1.7
326.3774	1.7
327.1346	5.2
327.1541	2.2
327.1682	1.2
328.1175	2.6
328.1375	2.5
328.1524	1.1

Name: Cyproconazole
PrecursorMZ: 292.12156
RT: 4.649
ExactMass: 291.1138399
Spectrum_type: 2
charge: 1
Formula: C15H18ClN3O
SMILES: CC(C1CC1)C(CN2C=NC=N2)(C3=CC=C(C=C3)Cl)O
Method: HCD
Collision_energy: [28.333334]
Isolation_window: 4.0
Ion_mode: P
Num Peaks: 102
69.0340	2.0
70.0655	3.9
81.0337	1.3
83.0607	2.8
84.0448	4.5
84.0812	18.6
85.0288	2.5
86.0604	1.4
87.0443	2.3
97.0286	2.7
98.0602	1.7
99.0444	2.1
101.0600	1.8
102.0550	2.3
110.0602	1.5
112.0761	2.0
114.0553	3.5
116.0708	3.6
117.0547	1.2
125.0233	1.9
126.0550	5.7
127.0391	1.8
127.0500	1.3
128.0706	7.1
129.0658	15.0
130.0500	3.0
130.0864	15.0
132.0655	1.3
132.0766	1.5
138.0549	1.4
139.0393	2.0
141.0659	1.7
142.0500	1.7
142.0865	2.5
144.0660	2.3
146.0925	1.6
147.1131	1.6
148.0606	2.1
148.0970	1.3
152.0703	1.5
156.0656	1.4
159.0761	1.2
160.0607	2.6
162.0762	1.5
168.0656	1.9
180.0879	2.9
181.0493	1.4
183.0765	6.6
195.0764	42.2
196.0795	4.1
201.0879	1.5
202.1075	2.3
208.0600	1.7
213.0869	32.6
214.0895	3.1
225.0880	3.4
226.0823	5.4
230.1133	1.9
231.0646	1.7
231.0980	1.7
237.0875	6.2
243.0975	6.2
245.0808	1.6
246.0968	1.6
246.1346	2.0
255.0973	5.8
270.1090	2.5
273.0841	1.6
273.1079	68.3
274.1135	7.6
276.1103	2.4
287.1270	1.8
288.1180	2.0
289.1398	4.3
290.1334	5.1
291.1185	100.0
291.1520	3.8
292.1005	2.4
292.1200	5.4
292.1421	3.1
293.1340	3.1
294.1205	5.4
296.1329	1.5
297.1083	2.6
298.1030	4.4
299.0897	1.7
299.1236	2.7
300.1095	2.4
301.1126	4.1
301.1473	5.1
302.1350	2.9
303.0478	1.5
303.1243	4.9
304.1148	1.7
304.1504	3.8
305.1363	3.1
306.1277	3.8
307.1513	6.6
308.0538	1.3
308.1408	14.3
309.1420	1.8
310.1478	1.3

Name: Cysteine conjugated chenodeoxycholic acid
PrecursorMZ: 478.29831
RT: 0.5627
ExactMass: 495.30184471
Spectrum_type: 2
charge: 1
Formula: C27H45NO5S
SMILES: C[C@H](CCC(=O)NC(CS)C(=O)O)[C@H]1CC[C@@H]2[C@@]1(CC[C@H]3[C@H]2[C@@H](C[C@H]4[C@@]3(CC[C@H](C4)O)C)O)C
Method: HCD
Collision_energy: [28.333334]
Isolation_window: 4.0
Ion_mode: P
Num Peaks: 299
53.1451	0.7
54.4815	1.6
54.4844	5.1
54.5959	1.6
55.0547	0.6
57.0338	0.7
57.0704	2.0
59.0495	0.6
67.0547	4.6
69.0339	1.1
69.0703	6.7
70.0656	12.6
71.0495	1.9
71.0859	1.7
72.0448	1.4
72.0812	2.4
79.0546	2.0
81.0339	2.9
81.0703	13.1
82.0657	1.4
82.0735	0.6
83.0495	3.0
83.0858	3.7
84.0812	1.8
85.0288	1.7
85.0652	2.6
85.1015	1.0
86.0604	2.5
86.0968	5.9
87.0445	0.9
89.0600	3.9
91.0544	3.3
93.0701	5.9
95.0494	3.6
95.0858	13.4
96.0812	1.5
96.0888	0.9
97.0651	2.3
97.1014	3.1
98.9844	2.6
99.0445	1.2
99.0808	2.1
100.0760	6.7
101.0600	0.7
105.0701	4.9
107.0493	1.0
107.0858	9.8
108.0889	1.0
109.0650	3.6
109.1014	12.7
110.0602	2.6
110.1047	1.1
111.0442	1.0
111.0806	2.2
111.1170	1.3
112.0759	0.6
113.0601	1.0
113.0966	1.0
114.0912	0.5
116.0709	1.4
117.0699	1.2
119.0857	6.8
120.0811	3.8
121.0650	7.8
121.1014	9.6
122.0682	0.6
122.0965	1.4
122.1049	1.0
123.0807	3.7
123.1170	6.6
124.0759	0.6
124.1204	0.6
125.0599	1.1
125.0963	3.6
127.0757	1.1
127.1119	2.1
128.0708	1.8
130.0867	0.6
131.0854	3.4
132.1019	1.4
133.0648	0.7
133.0868	1.6
133.1013	24.7
134.1046	2.6
135.0805	4.2
135.1169	7.5
136.0754	0.8
136.1204	0.7
137.0599	3.0
137.0962	4.1
137.1326	2.0
138.0913	1.5
139.0755	1.4
139.1117	1.9
140.1069	2.3
141.0913	0.9
143.0856	1.7
143.1068	2.2
145.1013	6.3
146.1052	0.6
146.1175	0.8
147.0806	3.3
147.1169	9.0
148.1213	1.0
149.0962	5.0
149.1326	4.7
150.1362	0.6
151.0755	2.5
151.1117	3.3
151.1483	0.7
153.0914	1.2
153.1275	0.8
155.0104	5.7
155.1072	1.1
156.1019	3.0
157.1013	3.0
158.1171	0.8
159.1170	7.8
161.0962	6.4
161.1326	17.7
162.1015	0.8
162.1362	2.2
163.0753	1.1
163.1119	3.4
163.1484	2.3
164.0833	2.2
164.1059	2.4
165.0911	24.7
165.1271	0.9
166.0955	3.0
167.0704	0.7
167.1071	0.9
169.1009	1.0
171.1169	2.4
173.0209	1.0
173.0959	1.0
173.1325	5.3
174.1362	0.6
175.0749	0.6
175.1115	1.5
175.1483	3.3
177.0907	1.8
177.1122	0.7
177.1277	1.0
177.1633	1.2
178.1225	4.0
179.0706	0.9
179.1064	3.4
179.1432	0.7
181.0862	0.6
181.1217	0.9
182.1169	1.0
183.1170	1.2
185.1326	2.6
187.1122	1.0
187.1481	3.3
188.0703	0.8
189.0908	0.8
189.1271	1.2
189.1639	2.2
191.1064	2.2
191.1440	0.9
193.1587	0.6
196.1333	1.1
197.1326	1.4
198.1125	0.9
199.1112	0.8
199.1480	2.6
201.1275	0.9
201.1640	2.9
203.1063	1.9
203.1433	1.1
203.1791	1.5
205.1222	3.6
205.1590	0.7
206.1252	0.6
207.1381	0.6
209.1325	0.7
211.1486	1.3
213.1273	0.6
213.1638	3.3
214.1678	0.6
215.1457	0.8
215.1794	3.8
216.1829	0.7
217.1226	0.7
217.1590	0.7
217.1952	0.7
219.1748	0.6
223.1481	0.7
225.1645	1.0
227.1429	0.6
227.1798	2.4
229.0475	0.9
229.1580	0.9
229.1948	1.2
231.1383	0.7
231.1746	0.7
239.1794	0.7
241.1584	0.6
241.1952	0.9
243.1718	1.6
245.1538	0.6
245.1893	0.7
251.1806	0.8
253.1954	2.4
254.2009	0.6
255.2105	18.3
256.2138	3.9
257.2242	0.6
269.1900	0.7
271.2058	1.9
273.1991	0.8
273.2212	39.3
274.2245	8.0
275.2299	0.8
281.2270	0.8
283.2401	1.1
301.1536	0.6
306.2790	1.4
308.2946	0.5
313.2742	3.8
314.2772	0.7
317.2478	0.6
339.2922	1.5
353.1780	0.7
357.2789	1.2
365.3211	2.2
366.3233	0.6
380.3313	19.2
381.3347	5.3
382.3464	8.4
383.2932	19.5
383.3383	2.7
384.2960	5.1
384.3380	0.7
385.3011	0.7
392.2960	0.7
394.3115	2.1
395.3011	0.7
396.3267	3.7
398.3419	6.9
399.3451	1.5
400.3570	2.8
401.3029	1.0
401.3456	4.0
402.3476	1.1
409.3107	1.0
410.3102	0.9
412.3210	21.0
413.3247	6.2
414.3366	11.4
415.3389	1.6
427.3192	0.6
428.3184	1.0
430.3315	72.1
431.3351	22.2
432.3374	3.2
440.3247	1.2
441.3389	1.3
451.3189	0.6
454.3344	1.1
455.3119	0.9
456.3249	0.7
458.3376	2.1
459.3440	2.1
460.3528	0.8
463.2869	6.1
464.2902	1.7
465.2926	0.8
467.3135	0.8
469.3361	0.8
472.3420	9.4
473.3423	3.5
474.3389	1.7
476.3519	0.6
477.2704	0.6
478.2987	15.4
478.3576	0.7
479.3003	4.1
480.3126	7.4
481.3040	3.9
482.2987	1.3
483.3080	1.4
484.3444	0.9
485.3349	0.8
486.3308	1.0
487.3493	1.4
488.3396	1.7
489.3661	0.9
490.2048	0.7
490.3527	100.0
491.3559	31.9
492.2805	1.1
492.3596	7.0
493.2592	0.9
493.3737	0.9
494.2934	6.3
495.2814	1.6

Name: Cytidine 2',3'-cyclic monophosphate
PrecursorMZ: 306.04826
RT: 6.946
ExactMass: 305.04128673
Spectrum_type: 2
charge: 1
Formula: C9H12N3O7P
SMILES: C1=CN(C(=O)N=C1N)[C@H]2[C@@H]3C([C@H](O2)CO)OP(=O)(O3)O
Method: HCD
Collision_energy: [28.333334]
Isolation_window: 4.0
Ion_mode: P
Num Peaks: 13
112.0507	100.0
113.0540	4.0
138.0914	1.7
144.0653	1.9
167.0815	2.2
178.0612	1.7
273.0772	1.1
289.1542	4.3
306.0479	4.3
306.1180	1.3
306.1809	10.3
307.0427	2.2
307.1842	1.9

Name: Cytisine
PrecursorMZ: 191.11774
RT: 11.0036
ExactMass: 190.110613074
Spectrum_type: 2
charge: 1
Formula: C11H14N2O
SMILES: C1[C@H]2CNC[C@@H]1C3=CC=CC(=O)N3C2
Method: HCD
Collision_energy: [28.333334]
Isolation_window: 4.0
Ion_mode: P
Num Peaks: 5
148.0756	19.3
160.0756	100.0
161.0789	10.5
190.0863	2.5
191.1177	2.5

Name: D-(+)-Galactosamine
PrecursorMZ: 180.08658
RT: 9.3021
ExactMass: 215.0560502
Spectrum_type: 2
charge: 1
Formula: C6H14ClNO5
SMILES: C(C(C(C(C(C=O)N)O)O)O)O.Cl
Method: HCD
Collision_energy: [28.333334]
Isolation_window: 4.0
Ion_mode: P
Num Peaks: 128
58.0655	1.2
60.0812	1.6
61.0288	0.8
69.0337	1.4
70.0654	1.9
71.0494	1.6
72.0447	4.0
73.0287	1.1
74.0603	28.0
75.0636	0.7
80.0497	3.8
81.0337	0.9
81.0701	0.9
82.0653	1.9
83.0493	1.4
84.0446	1.0
85.0286	1.6
86.0602	1.7
87.0443	9.6
88.0395	3.8
88.0758	0.9
91.0543	3.0
94.0652	7.7
95.0605	1.4
96.0445	4.5
96.9952	1.5
97.0284	0.9
98.0601	3.5
99.0441	1.3
101.0598	2.1
103.0391	0.9
107.0492	0.9
108.0444	0.9
108.0808	0.9
109.0398	0.8
109.0761	3.3
110.0601	1.3
111.0440	1.4
112.0758	1.3
114.0913	0.9
116.0706	42.2
117.0546	10.3
117.0739	3.0
119.0491	1.5
119.0854	1.3
120.0807	4.0
121.0885	1.7
121.1011	1.7
122.0600	3.5
123.0439	2.0
125.0343	0.8
125.0595	1.2
126.0548	0.9
132.0655	1.9
132.1016	2.0
133.0394	1.5
133.1010	1.0
134.0600	1.1
134.0810	100.0
134.0960	4.6
135.0439	1.3
135.0844	5.0
135.0915	2.9
136.0390	0.8
136.0755	10.5
136.0866	2.3
137.0707	1.0
137.1071	1.6
138.0548	1.4
138.0660	0.7
138.0912	1.1
139.0388	2.0
142.0859	1.3
144.0653	1.4
147.0438	1.2
150.0912	1.3
151.0501	4.0
152.0705	1.8
152.1067	1.6
153.0546	1.9
154.0497	1.3
154.0861	1.0
157.5785	1.0
160.0967	2.3
162.0759	13.4
162.0908	1.4
163.0387	2.2
163.0792	1.0
163.0863	2.0
163.1228	3.1
164.0704	7.4
165.0545	1.6
169.0605	4.2
178.0720	1.3
178.0861	11.6
178.1072	15.4
178.1224	15.0
178.1327	1.5
178.1435	1.0
179.0560	1.0
179.0701	1.1
179.0814	2.9
179.0896	2.1
179.1106	2.1
179.1177	21.0
179.1257	3.1
180.0520	1.6
180.0655	5.5
180.0806	3.3
180.0866	53.9
180.1014	47.0
180.1214	2.6
180.1379	7.6
181.0492	1.8
181.0606	1.5
181.0720	2.4
181.0897	3.0
181.0970	24.0
181.1052	5.8
181.1333	7.2
181.1414	1.1
182.0446	1.9
182.0809	14.1
182.0921	6.4
182.1003	1.7
182.1172	6.9
197.0553	79.7
198.0589	7.0

Name: D-Alanyl-D-Alanine
PrecursorMZ: 161.09217
RT: 7.0818
ExactMass: 160.08479225
Spectrum_type: 2
charge: 1
Formula: C6H12N2O3
SMILES: C[C@H](C(=O)N[C@H](C)C(=O)O)N
Method: HCD
Collision_energy: [28.333334]
Isolation_window: 4.0
Ion_mode: P
Num Peaks: 12
90.0553	100.0
105.0336	3.9
115.0868	19.2
116.0707	5.1
132.0807	4.3
160.0759	14.7
160.1334	11.0
160.9016	23.5
161.0711	5.8
161.0921	33.4
162.0913	4.1
163.0503	7.7

Name: D-Camphor
PrecursorMZ: 153.12757
RT: 0.5666
ExactMass: 152.12011513
Spectrum_type: 2
charge: 1
Formula: C10H16O
SMILES: C[C@@]12CC[C@@H](C1(C)C)CC2=O
Method: HCD
Collision_energy: [28.333334]
Isolation_window: 4.0
Ion_mode: P
Num Peaks: 82
57.0704	3.1
58.0656	2.0
59.0497	6.3
67.0548	4.8
69.0340	0.8
69.0704	3.1
71.0496	2.1
71.0860	0.8
73.0653	0.5
79.0547	1.1
81.0703	2.6
83.0494	1.3
83.0860	1.5
85.0652	0.5
89.0601	0.9
91.0546	1.5
93.0703	3.7
95.0496	0.7
95.0859	23.1
96.0892	2.0
96.9956	0.4
97.0651	8.1
97.1017	0.6
98.0684	0.5
98.9844	1.4
100.0246	1.2
105.0193	0.7
105.0338	100.0
105.0448	0.7
105.0489	0.5
105.0690	0.5
106.0371	7.9
107.0392	0.5
107.0858	5.3
108.0897	0.4
109.0650	0.8
109.1015	15.7
110.1047	1.7
111.0807	4.3
113.0601	2.5
115.9642	1.5
117.9597	0.4
119.0857	1.9
121.1014	0.5
123.1171	1.0
125.0963	3.4
128.1070	1.5
133.1012	0.6
134.0635	0.6
135.0807	1.2
135.1170	4.3
136.1201	0.5
145.0887	0.4
148.0790	0.5
151.0649	0.8
151.1484	2.1
152.1070	0.5
153.0923	0.8
153.1276	16.8
154.1314	1.8
155.1070	1.0
156.1386	0.8
157.1231	0.9
157.1700	1.0
158.1542	3.4
159.1571	0.4
160.1118	1.0
163.0755	36.2
163.1482	0.6
164.0791	4.2
165.0214	1.2
165.0814	0.4
166.0895	1.5
167.0555	0.5
167.1432	1.5
168.0691	4.8
169.1224	0.5
170.1177	0.8
171.1378	0.5
171.1495	0.6
173.1172	1.4
173.1323	0.7

Name: D-Galactosamine
PrecursorMZ: 162.07587
RT: 7.7396
ExactMass: 179.07937252
Spectrum_type: 2
charge: 1
Formula: C6H13NO5
SMILES: C([C@@H]1[C@@H]([C@@H]([C@H](C(O1)O)N)O)O)O
Method: HCD
Collision_energy: [28.333334]
Isolation_window: 4.0
Ion_mode: P
Num Peaks: 20
56.0498	1.2
69.8427	1.3
70.0654	3.9
76.0395	12.3
87.0442	80.9
88.0394	3.7
88.0475	2.9
97.4569	1.0
98.0600	100.0
99.0634	4.2
102.0549	5.1
105.0334	2.6
116.0705	9.4
120.0473	1.6
126.0547	8.1
144.0652	7.3
160.0965	1.2
162.0581	3.1
162.0758	14.6
164.0914	2.1

Name: D-Galactose
PrecursorMZ: 163.06003
RT: 9.0674
ExactMass: 180.0633881
Spectrum_type: 2
charge: 1
Formula: C6H12O6
SMILES: C([C@@H]1[C@@H]([C@@H]([C@H](C(O1)O)O)O)O)O
Method: HCD
Collision_energy: [28.333334]
Isolation_window: 4.0
Ion_mode: P
Num Peaks: 33
55.0183	11.1
57.0339	14.6
60.0811	17.0
61.0288	8.4
69.0338	58.9
73.0287	7.7
84.0446	31.3
85.0286	100.0
86.0319	5.2
87.0443	8.2
97.0285	20.0
98.0602	6.5
99.0442	12.5
100.0244	10.6
101.0233	10.9
102.0549	6.0
103.0390	21.3
105.0335	17.4
116.0706	35.2
118.0348	6.7
123.0440	8.8
127.0388	32.9
130.0498	10.8
136.0755	5.1
141.0506	5.2
145.0494	5.1
162.0544	5.5
162.0760	11.0
162.1123	98.2
163.0753	5.0
163.1157	7.6
164.0705	6.4
165.0212	9.8

Name: D-Mannosamine
PrecursorMZ: 162.07619
RT: 8.5934
ExactMass: 179.07937252
Spectrum_type: 2
charge: 1
Formula: C6H13NO5
SMILES: C([C@@H]1[C@H]([C@@H]([C@@H](C(O1)O)N)O)O)O
Method: HCD
Collision_energy: [28.333334]
Isolation_window: 4.0
Ion_mode: P
Num Peaks: 71
60.0449	9.8
60.0813	23.4
69.0340	19.2
70.0655	4.3
72.0448	11.0
72.0812	4.9
73.0288	4.3
74.0605	6.1
80.0499	5.4
81.0339	8.0
82.0656	6.7
83.0495	13.7
84.0448	16.5
85.0288	13.6
86.0604	3.8
92.0709	8.3
96.0447	16.3
96.0685	14.9
97.0287	81.6
98.0321	4.2
98.0603	8.3
99.0443	4.6
100.0246	2.6
100.0760	8.8
101.0600	71.3
102.0552	6.5
102.0633	6.5
102.0916	11.7
105.0337	2.7
115.0392	22.6
116.0708	4.4
121.0887	7.4
124.0758	7.8
124.0996	4.6
125.0598	8.6
126.0551	7.5
126.0914	3.1
127.0391	24.2
142.0863	20.2
144.0656	52.8
144.1020	8.4
145.0495	4.1
146.0814	2.8
160.0620	7.4
160.0759	41.0
160.0970	59.6
160.1120	11.8
160.1334	41.0
160.5897	4.1
160.9015	27.4
161.0712	5.9
161.0791	8.4
161.1004	6.4
161.1075	13.7
161.1368	5.2
161.5973	4.2
162.0763	38.4
162.0915	43.4
162.1021	5.0
162.1126	32.1
162.1277	6.8
162.1489	6.5
162.8997	5.0
163.0867	29.8
163.1160	3.3
163.1230	38.0
164.0529	5.7
164.0708	9.1
164.0822	4.4
164.0926	10.7
164.1071	100.0

Name: D-Ornithine
PrecursorMZ: 115.0867
RT: 9.5242
ExactMass: 132.08987763
Spectrum_type: 2
charge: 1
Formula: C5H12N2O2
SMILES: C(C[C@H](C(=O)O)N)CN
Method: HCD
Collision_energy: [28.333334]
Isolation_window: 4.0
Ion_mode: P
Num Peaks: 13
68.0499	1.0
70.0655	100.0
70.0695	0.7
71.0688	1.1
74.9378	1.6
92.9483	0.9
97.0761	1.0
98.0602	1.6
114.0551	0.8
114.0662	3.9
114.0914	8.4
115.0866	4.4
116.0706	28.1

Name: D-Pantothenic acid hemicalcium salt
PrecursorMZ: 220.11772
RT: 8.414
ExactMass: 476.1682861
Spectrum_type: 2
charge: 1
Formula: C18H32CaN2O10
SMILES: CC(C)(CO)[C@H](C(=O)NCCC(=O)[O-])O.CC(C)(CO)[C@H](C(=O)NCCC(=O)[O-])O.[Ca+2]
Method: HCD
Collision_energy: [28.333334]
Isolation_window: 4.0
Ion_mode: P
Num Peaks: 24
60.0447	9.1
84.0810	7.0
87.0441	7.0
100.0757	16.7
101.0597	24.0
102.0550	11.6
120.0654	7.8
122.0962	8.7
130.0860	7.0
138.0910	5.6
142.0860	25.5
148.0602	12.1
156.1017	5.3
160.0966	87.4
184.0964	13.9
202.1072	8.4
219.1115	8.5
220.0967	8.7
220.1174	100.0
220.1320	6.2
221.1194	7.8
222.0983	12.2
222.1116	8.1
222.1483	14.0

Name: D-Proline
PrecursorMZ: 116.07074
RT: 6.2806
ExactMass: 115.06332853
Spectrum_type: 2
charge: 1
Formula: C5H9NO2
SMILES: C1C[C@@H](NC1)C(=O)O
Method: HCD
Collision_energy: [28.333334]
Isolation_window: 4.0
Ion_mode: P
Num Peaks: 17
68.0499	0.8
70.0615	0.8
70.0655	100.0
70.0687	0.6
70.0695	0.6
70.0708	0.4
70.0846	0.4
71.0625	0.8
71.0688	10.2
71.0716	0.4
86.0603	0.4
114.0551	2.9
114.0915	5.2
115.0947	0.6
116.0707	23.3
117.0739	1.4
118.0863	1.5

Name: D-Proline, 1-amino-
PrecursorMZ: 131.08153
RT: 5.1778
ExactMass: 130.074227566
Spectrum_type: 2
charge: 1
Formula: C5H10N2O2
SMILES: C1C[C@@H](N(C1)N)C(=O)O
Method: HCD
Collision_energy: [28.333334]
Isolation_window: 4.0
Ion_mode: P
Num Peaks: 31
55.0546	20.9
56.0499	2.8
57.0703	1.9
58.0655	11.9
59.0495	5.1
59.0734	4.7
68.0498	1.7
70.0654	38.9
74.0967	1.9
83.0494	9.2
84.0447	11.8
84.0810	23.2
85.0763	100.0
85.0843	2.0
86.0603	8.4
86.0796	6.0
86.0966	9.0
101.0598	52.6
102.0550	2.6
102.0631	2.2
114.0550	4.4
114.0914	28.4
130.0496	1.4
130.0650	5.7
130.0862	7.0
130.1589	5.8
131.0604	2.2
131.0814	44.0
132.0847	2.5
132.1018	33.2
133.1051	1.8

Name: D-Threonine
PrecursorMZ: 120.0656
RT: 6.3026
ExactMass: 119.058243149
Spectrum_type: 2
charge: 1
Formula: C4H9NO3
SMILES: C[C@@H]([C@H](C(=O)O)N)O
Method: HCD
Collision_energy: [28.333334]
Isolation_window: 4.0
Ion_mode: P
Num Peaks: 16
56.0499	3.0
74.0603	100.0
75.0636	3.2
88.0395	4.8
91.0544	7.9
93.0449	5.5
93.0699	6.1
103.0543	9.5
118.0862	14.5
119.0854	3.8
120.0556	3.2
120.0655	8.4
120.0807	33.3
121.0395	13.2
121.0647	11.0
121.0841	3.1

Name: D-Tryptophan
PrecursorMZ: 205.09704
RT: 8.8637
ExactMass: 204.08987763
Spectrum_type: 2
charge: 1
Formula: C11H12N2O2
SMILES: C1=CC=C2C(=C1)C(=CN2)C[C@H](C(=O)O)N
Method: HCD
Collision_energy: [28.333334]
Isolation_window: 4.0
Ion_mode: P
Num Peaks: 7
126.0549	17.1
138.0549	19.0
146.0600	57.9
188.0705	100.0
189.0737	14.7
206.0246	14.9
206.0561	20.3

Name: D-alpha-aminoadipic acid
PrecursorMZ: 162.07588
RT: 7.6664
ExactMass: 161.06880783
Spectrum_type: 2
charge: 1
Formula: C6H11NO4
SMILES: C(C[C@H](C(=O)O)N)CC(=O)O
Method: HCD
Collision_energy: [28.333334]
Isolation_window: 4.0
Ion_mode: P
Num Peaks: 10
76.0395	14.5
87.0441	85.0
98.0600	100.0
102.0549	39.4
105.0334	21.7
116.0705	52.3
144.0652	33.0
162.0581	21.7
162.0757	30.4
164.0913	21.9

Name: DAG (18:1/18:3)/ DAG (18:2/18:2)
PrecursorMZ: 634.53994
RT: 0.9747333333333333
Spectrum_type: 2
charge: 1
Method: HCD
Collision_energy: [28.333334]
Isolation_window: 4.0
Ion_mode: P
Num Peaks: 85
55.0546	8.1
57.0339	7.7
57.0703	6.3
66.6119	2.6
67.0546	51.4
68.0580	2.3
69.0702	30.6
71.0495	2.4
71.0859	5.8
79.0545	13.4
81.0702	63.8
82.0735	4.0
83.0858	23.6
85.0650	3.1
85.1014	2.4
91.0544	6.7
93.0700	20.7
95.0857	60.6
96.0890	3.9
97.0650	5.1
97.1013	16.7
97.4314	3.0
99.0806	3.8
105.0700	7.1
107.0856	18.5
108.0890	1.8
109.1012	35.4
110.1046	3.0
111.0806	3.4
111.1169	4.4
113.0963	1.9
119.0855	9.8
121.1012	18.7
122.1046	1.8
123.1168	17.3
125.0961	3.6
131.0854	2.9
133.1011	12.1
135.1167	14.7
136.1202	2.1
137.0961	1.9
137.1324	8.2
145.1011	3.7
147.1167	9.4
149.1323	9.8
151.1116	2.4
151.1480	2.9
153.1273	2.7
159.1169	2.0
161.1323	8.8
163.1481	7.1
173.1324	2.5
175.1480	4.8
177.1635	2.2
179.1430	1.7
187.1481	1.9
189.1634	2.6
243.2103	3.4
245.2260	6.4
261.2209	7.6
262.2243	1.8
263.2366	9.2
277.2163	2.5
279.2317	1.9
335.2576	12.2
336.2609	4.6
337.2731	100.0
338.2765	23.6
339.2890	19.0
340.2921	3.1
353.2684	3.4
598.4908	5.6
599.5025	53.7
600.5059	23.0
601.5173	7.5
615.4972	5.6
616.5002	5.6
617.5128	22.7
618.5162	7.8
633.1092	2.1
633.4812	41.2
634.1099	2.2
634.4846	16.4
635.4585	19.8
636.4633	3.3

Name: DCA chenodeoxycholic acid (CCS=266.8776550292969)
PrecursorMZ: 767.58002
RT: 2.1184
Spectrum_type: 2
charge: 1
SMILES: C[C@H](CCC(=O)O)[C@H]1CC[C@H]2[C@@H]3[C@H](O)CC4C[C@H](OC(=O)CC[C@@H](C)[C@H]5CC[C@H]6[C@@H]7CC[C@@H]8C[C@H](O)CC[C@]8(C)[C@H]7C[C@H](O)[C@]56C)CC[C@]4(C)[C@H]3CC[C@]12C
Method: HCD
Collision_energy: [28.333334]
Isolation_window: 4.0
Ion_mode: P
Num Peaks: 126
55.0544	0.4
67.0544	1.2
69.0701	0.6
69.5218	0.6
79.0543	0.5
81.0700	5.7
83.0856	1.2
85.0648	0.4
91.0541	0.5
93.0698	1.9
95.0854	4.6
97.4574	0.4
99.0440	0.9
101.0596	0.7
105.0697	1.7
107.0854	3.5
109.1010	4.6
110.1045	0.4
115.0751	0.4
119.0853	2.1
121.1009	4.3
123.0801	0.4
123.1165	1.2
127.0750	0.4
131.0852	0.6
133.1008	2.8
135.0800	0.3
135.1164	7.1
136.1197	0.6
137.0957	0.5
137.1321	0.5
141.0906	0.5
145.1007	0.8
147.1164	4.8
148.1196	0.6
149.0957	0.7
149.1320	5.5
150.1355	0.5
151.1113	0.7
153.0905	1.1
155.1063	0.3
159.1164	1.5
161.1320	5.6
162.1354	0.6
163.1112	0.8
163.1477	3.2
164.1509	0.4
165.1271	0.3
167.1062	2.2
169.1219	0.4
173.1318	0.8
175.1115	0.5
175.1476	4.6
176.1508	0.5
177.1268	1.2
177.1632	1.5
179.1059	0.3
181.1217	2.6
183.1162	0.4
185.1316	0.4
187.1476	1.5
189.1269	0.4
189.1632	3.5
190.1664	0.4
191.1425	0.4
193.1217	1.2
195.1373	5.3
196.1406	0.6
199.1475	0.4
201.1631	3.0
202.1666	0.4
203.1423	0.7
203.1788	2.5
207.1372	1.7
209.1529	1.1
211.1473	1.6
213.1632	0.4
215.1787	7.0
216.1820	1.1
217.1944	1.0
219.1735	0.5
221.1528	5.0
222.1561	0.6
223.1687	0.5
225.1629	1.1
229.1579	1.1
229.1942	3.4
230.1979	0.4
233.1530	0.5
235.1685	2.2
236.1718	0.3
239.1787	0.3
241.1944	0.6
243.1736	0.7
243.2098	4.1
244.2131	0.7
247.1684	5.1
248.1715	0.8
249.1840	1.6
257.1890	0.4
257.2256	0.8
261.1840	3.3
262.1874	0.6
263.1996	1.4
275.0474	0.7
275.1995	3.8
276.2029	0.6
287.1995	0.6
289.2149	0.4
295.2406	0.3
297.2574	0.4
301.2152	1.4
311.2721	0.3
315.2304	0.4
321.2563	4.5
322.2594	1.2
339.2669	10.5
340.2704	2.6
357.2310	0.6
357.2774	100.0
357.3135	0.5
357.3241	0.6
358.2807	23.6
359.2837	1.6
375.2880	4.5
376.2911	1.0

Name: DG(14:0/18:1(9Z)/0:0)
PrecursorMZ: 584.52414
RT: 1.0649
ExactMass: 566.4910252
Spectrum_type: 2
charge: 1
Formula: C35H66O5
SMILES: CCCCCCCCCCCCCC(=O)OC[C@H](CO)OC(=O)CCCCCCC/C=C\CCCCCCCC
Method: HCD
Collision_energy: [28.333334]
Isolation_window: 4.0
Ion_mode: P
Num Peaks: 62
55.0546	3.5
56.0499	1.6
56.2772	0.9
57.0702	4.4
58.2784	6.0
58.3899	1.5
60.0448	10.6
62.9462	2.8
63.0577	0.8
64.9475	1.2
67.0546	13.9
69.0702	12.3
69.3517	1.2
70.0654	9.2
71.0858	3.6
79.0545	1.2
81.0701	20.6
82.0733	0.9
83.0857	15.1
85.1014	2.1
93.0699	0.9
95.0856	22.3
96.0890	1.3
97.1012	10.4
97.4571	1.0
102.0550	1.5
107.0855	1.2
109.1012	13.1
110.1044	0.9
111.1168	3.8
121.1009	1.0
123.1167	5.0
137.1323	1.5
151.1480	1.0
226.2525	0.9
240.2680	3.8
252.2680	49.1
253.2714	7.9
254.2472	1.4
266.2471	3.7
270.2785	15.1
271.2818	2.5
272.2576	5.2
280.2626	1.3
296.2576	1.2
312.2892	2.2
476.4818	6.8
477.4851	2.8
488.4805	1.8
506.4923	16.1
507.4955	5.0
524.5027	100.0
525.5060	30.9
526.5091	4.1
542.5137	3.0
543.5171	0.8
566.5131	50.7
567.5165	15.5
568.5194	2.2
584.5235	23.1
585.5273	7.4
586.5307	0.9

Name: DG(16:0/16:1(9Z)/0:0)
PrecursorMZ: 584.5245
RT: 1.0646499999999999
ExactMass: 566.4910252
Spectrum_type: 2
charge: 1
Formula: C35H66O5
SMILES: CCCCCCCCCCCCCCCC(=O)OC[C@H](CO)OC(=O)CCCCCCC/C=C\CCCCCC
Method: HCD
Collision_energy: [28.333334]
Isolation_window: 4.0
Ion_mode: P
Num Peaks: 71
55.0546	4.3
57.0703	5.3
58.2784	4.8
60.0448	28.8
67.0546	18.9
69.0702	16.2
69.1586	2.5
70.0654	8.2
71.0859	4.2
81.0701	22.0
83.0857	17.9
85.1013	3.5
93.0700	7.9
95.0856	27.2
97.1013	14.2
97.4326	3.0
105.0699	5.4
107.0856	8.3
109.1012	70.7
110.1045	4.6
111.1167	5.0
119.0855	13.2
121.1011	9.2
123.1168	8.0
125.0959	5.7
131.0853	4.3
133.1009	8.8
135.0805	2.7
135.1165	4.5
137.1325	3.0
143.0854	3.7
145.1009	12.0
147.1166	3.3
157.1010	8.8
159.1167	6.8
169.1012	3.9
171.1166	5.1
173.1321	4.6
175.1477	4.1
183.1165	3.8
185.1323	3.5
187.1478	3.3
195.1167	2.9
197.1323	5.4
199.1480	2.6
201.1635	2.5
209.1321	4.0
211.1477	3.1
221.1531	6.0
223.1478	3.7
240.2681	9.5
252.2680	65.0
253.2714	9.8
270.2785	48.4
271.2822	7.6
272.2579	14.8
273.2616	2.6
352.2387	2.5
492.3579	2.9
504.3593	3.5
506.4926	12.0
507.4971	4.2
524.5027	100.0
525.5060	36.4
566.5132	46.4
567.5164	17.9
583.4144	5.5
584.4170	12.9
584.5226	10.9
585.4247	8.0
585.5253	4.2

Name: DG(16:1(9Z)/18:2(9Z,12Z)/0:0)
PrecursorMZ: 608.52427
RT: 0.9342
ExactMass: 590.4910252
Spectrum_type: 2
charge: 1
Formula: C37H66O5
SMILES: CCCCCC/C=C\CCCCCCCC(=O)OC[C@H](CO)OC(=O)CCCCCCC/C=C\C/C=C\CCCCC
Method: HCD
Collision_energy: [28.333334]
Isolation_window: 4.0
Ion_mode: P
Num Peaks: 21
67.0546	64.0
69.0469	39.8
69.0702	42.9
81.0701	89.6
83.0857	56.3
93.0700	34.4
95.0856	100.0
97.1013	44.1
97.4578	29.3
107.0856	36.1
109.1013	48.7
119.0855	29.0
121.1012	40.4
123.1167	30.5
133.1010	30.5
135.1167	34.2
137.1323	27.0
147.1165	27.3
572.4738	27.8
573.4856	45.5
591.4972	28.0

Name: DG(18:1/18:2/0:0)
PrecursorMZ: 636.5553
RT: 0.97185
Spectrum_type: 2
charge: 1
Method: HCD
Collision_energy: [28.333334]
Isolation_window: 4.0
Ion_mode: P
Num Peaks: 56
55.0546	9.3
57.0339	6.7
57.0702	7.7
67.0546	27.9
69.0702	26.6
71.0858	5.9
79.0544	6.6
81.0702	40.8
82.0735	2.9
83.0858	24.0
85.1015	3.2
91.0545	4.8
93.0700	13.4
95.0857	40.0
96.0890	3.3
97.0650	4.1
97.1013	17.5
97.3979	3.6
105.0699	4.8
107.0856	10.5
109.1013	23.2
111.0806	3.0
111.1169	5.0
119.0855	5.8
121.1012	16.4
123.1168	11.8
133.1012	5.9
135.1167	13.4
137.1324	4.7
147.1166	4.2
149.1323	5.0
151.1479	3.7
161.1326	4.7
163.1481	4.6
245.2262	3.4
263.2367	8.3
264.2404	2.7
337.2733	100.0
338.2766	35.9
339.2891	91.4
340.2923	18.3
341.3060	3.6
599.5005	4.0
600.5054	10.2
601.5182	47.3
602.5217	18.0
603.5321	13.4
617.5114	4.1
618.5165	9.2
619.5282	7.8
620.5316	4.3
635.4625	5.2
635.4961	5.9
636.4942	3.4
637.4769	16.4
638.4793	5.0

Name: DG(18:3(9Z,12Z,15Z)/18:3(9Z,12Z,15Z)/0:0)
PrecursorMZ: 630.50861
RT: 0.975375
ExactMass: 612.47537514
Spectrum_type: 2
charge: 1
Formula: C39H64O5
SMILES: CC/C=C\C/C=C\C/C=C\CCCCCCCC(=O)OC[C@H](CO)OC(=O)CCCCCCC/C=C\C/C=C\C/C=C\CC
Method: HCD
Collision_energy: [28.333334]
Isolation_window: 4.0
Ion_mode: P
Num Peaks: 78
55.0546	4.1
57.0339	5.1
57.0703	5.1
67.0546	30.6
69.0702	10.1
70.1636	3.0
71.0858	4.1
79.0545	16.2
81.0701	39.3
82.0735	2.4
83.0857	8.2
85.1012	2.0
91.0543	7.7
91.0575	5.2
93.0700	25.8
95.0856	37.9
96.0889	2.3
97.0649	2.8
97.1012	4.4
97.4328	2.0
105.0699	9.1
107.0856	19.6
109.1012	22.3
110.1046	2.2
117.0699	3.6
119.0855	10.8
121.1011	23.5
123.1167	9.4
131.0853	7.7
133.1010	11.9
135.1166	17.0
137.1323	3.9
145.1010	7.7
147.1166	9.2
149.1323	9.3
159.1166	6.7
161.1323	9.4
163.1478	4.8
173.1322	7.2
174.8863	4.6
175.1479	3.4
177.1635	2.1
187.1476	3.5
201.1635	2.2
223.0633	1.8
241.1945	3.3
243.2100	5.4
259.2048	7.5
261.2207	20.6
262.2238	2.4
277.2151	2.3
285.0087	2.5
317.2465	3.4
333.2418	6.3
335.2573	100.0
336.2607	18.9
337.2732	16.7
371.1004	2.0
372.1018	2.6
383.3153	3.1
384.3181	4.4
411.3461	3.0
412.3497	8.4
440.3791	3.2
468.4118	4.4
521.4354	2.1
595.4713	32.8
596.4745	14.4
597.4871	4.0
611.4645	2.2
613.4814	21.1
614.4844	8.1
615.4967	3.6
629.4523	36.5
630.4566	17.3
631.1147	3.5
631.4683	58.9
632.4717	6.6

Name: DL-Acetylproline
PrecursorMZ: 158.08126
RT: 6.023
ExactMass: 157.07389321
Spectrum_type: 2
charge: 1
Formula: C7H11NO3
SMILES: CC(=O)N1CCCC1C(=O)O
Method: HCD
Collision_energy: [28.333334]
Isolation_window: 4.0
Ion_mode: P
Num Peaks: 13
70.0655	100.0
71.0689	3.7
112.0728	1.2
112.0758	97.2
113.0791	5.7
116.0707	33.5
117.0740	1.5
129.9958	1.3
140.0706	5.5
157.1701	2.0
158.0812	12.6
159.0223	6.6
159.0846	1.5

Name: DL-Alanyl-DL-leucine
PrecursorMZ: 203.13897
RT: 7.4221
ExactMass: 202.13174244
Spectrum_type: 2
charge: 1
Formula: C9H18N2O3
SMILES: CC(C)CC(C(=O)O)NC(=O)C(C)N
Method: HCD
Collision_energy: [28.333334]
Isolation_window: 4.0
Ion_mode: P
Num Peaks: 9
86.0967	76.4
112.0759	16.9
132.1019	100.0
138.0550	12.6
156.1020	42.8
157.1337	19.7
179.9781	20.5
203.1384	13.9
204.0657	20.3

Name: DL-Arginine
PrecursorMZ: 175.11888
RT: 13.1475
ExactMass: 174.1116757
Spectrum_type: 2
charge: 1
Formula: C6H14N4O2
SMILES: C(CC(C(=O)O)N)CN=C(N)N
Method: HCD
Collision_energy: [28.333334]
Isolation_window: 4.0
Ion_mode: P
Num Peaks: 19
60.0561	29.3
60.0812	29.3
70.0655	35.1
99.0806	23.9
114.0663	86.5
114.0914	13.5
116.0707	27.2
128.1071	10.3
130.0974	12.9
156.1019	7.7
158.0923	11.6
159.0765	10.9
174.1125	45.6
174.1236	10.2
175.1189	49.0
176.0916	11.8
176.1283	14.2
176.1645	100.0
176.8752	90.7

Name: DL-Methionine sulfoxide
PrecursorMZ: 166.05312
RT: 3.8141
ExactMass: 165.04596439
Spectrum_type: 2
charge: 1
Formula: C5H11NO3S
SMILES: CS(=O)CCC(C(=O)O)N
Method: HCD
Collision_energy: [28.333334]
Isolation_window: 4.0
Ion_mode: P
Num Peaks: 9
56.0499	19.4
74.0240	100.0
74.0603	1.8
75.0267	24.7
102.0551	19.8
112.0758	3.1
149.0267	16.9
166.0532	16.3
176.0915	1.8

Name: DL-Phenylserine
PrecursorMZ: 182.08117
RT: 5.7113
ExactMass: 181.07389321
Spectrum_type: 2
charge: 1
Formula: C9H11NO3
SMILES: C1=CC=C(C=C1)C(C(C(=O)O)N)O
Method: HCD
Collision_energy: [28.333334]
Isolation_window: 4.0
Ion_mode: P
Num Peaks: 37
81.0338	4.1
91.0544	77.6
92.0578	5.1
103.0391	3.5
118.0651	5.3
120.0809	6.4
121.1012	4.9
122.0600	4.7
123.0112	3.9
124.0756	4.5
126.0661	3.8
129.0547	5.1
136.0388	4.5
136.0756	54.9
137.0709	8.6
137.0787	4.3
139.0740	5.4
154.0533	7.3
154.0862	5.6
163.0617	7.8
164.0341	9.8
164.0705	100.0
165.0659	27.5
165.0738	10.1
166.0498	4.9
181.0605	3.5
181.0717	11.3
181.1081	5.2
182.0445	25.8
182.0810	29.2
182.1174	19.3
182.1286	37.5
183.0401	10.1
183.0653	6.0
183.0767	10.0
183.0918	5.4
183.1320	3.5

Name: DL-Tyrosine
PrecursorMZ: 182.08111
RT: 2.8652
ExactMass: 181.07389321
Spectrum_type: 2
charge: 1
Formula: C9H11NO3
SMILES: C1=CC(=CC=C1CC(C(=O)O)N)O
Method: HCD
Collision_energy: [28.333334]
Isolation_window: 4.0
Ion_mode: P
Num Peaks: 24
60.0813	21.4
93.0700	1.8
96.0448	1.5
114.0665	6.1
119.0494	2.4
121.0649	100.0
122.0682	10.6
123.0443	4.3
126.0916	1.8
128.0708	2.1
136.0759	14.1
137.0791	1.5
147.0443	2.2
148.0757	3.7
165.0548	6.0
180.1384	62.1
181.1418	12.0
182.0783	1.6
184.0600	6.6
190.1070	1.9
196.0605	2.3
198.0869	1.8
200.1035	1.8
202.0829	2.3

Name: DL-histidine
PrecursorMZ: 156.07673
RT: 8.0849
ExactMass: 155.069476538
Spectrum_type: 2
charge: 1
Formula: C6H9N3O2
SMILES: C1=C(NC=N1)CC(C(=O)O)N
Method: HCD
Collision_energy: [28.333334]
Isolation_window: 4.0
Ion_mode: P
Num Peaks: 34
67.0546	0.6
68.0498	0.4
71.0495	0.4
74.0967	1.1
84.0809	0.5
95.0493	6.1
97.0649	0.6
109.0761	0.6
110.0713	100.0
110.0793	0.7
111.0687	1.1
111.0746	5.2
111.0917	0.9
112.0522	0.4
125.0598	0.9
127.0753	1.5
128.0818	3.2
130.0626	0.7
137.0708	0.6
155.0531	0.4
155.0702	2.1
155.0813	1.2
155.1543	0.8
156.0420	8.1
156.0661	0.7
156.0766	54.0
156.0901	0.4
156.1015	1.0
157.0453	0.4
157.0738	0.6
157.0799	3.2
157.0970	4.3
157.1698	0.8
158.0812	0.5

Name: DL-leucine
PrecursorMZ: 132.10189
RT: 8.77905
ExactMass: 131.094628657
Spectrum_type: 2
charge: 1
Formula: C6H13NO2
SMILES: CC(C)CC(C(=O)O)N
Method: HCD
Collision_energy: [28.333334]
Isolation_window: 4.0
Ion_mode: P
Num Peaks: 5
55.0547	33.1
73.0652	29.7
115.0754	100.0
131.0683	49.0
134.0633	27.3

Name: Dacarbazine
PrecursorMZ: 183.10165
RT: 1.13
ExactMass: 182.09160896
Spectrum_type: 2
charge: 1
Formula: C6H10N6O
SMILES: CN(C)/N=N/C1=C(NC=N1)C(=O)N
Method: HCD
Collision_energy: [28.333334]
Isolation_window: 4.0
Ion_mode: P
Num Peaks: 24
79.0546	5.4
81.0339	3.2
81.0703	2.5
91.0546	10.7
95.0858	17.6
98.9844	7.6
105.0701	17.4
109.0650	4.2
122.0602	7.6
123.0806	100.0
124.0839	6.9
125.0600	2.5
127.0156	3.7
133.0647	3.3
142.0323	5.2
150.0551	6.8
151.0755	54.4
152.0788	4.6
168.0657	27.4
182.0637	3.0
182.0812	20.0
182.1177	4.7
183.1013	3.2
184.0425	2.9

Name: Dainic Acid A
PrecursorMZ: 282.16989
RT: 1.3909
ExactMass: 281.16270821
Spectrum_type: 2
charge: 1
Formula: C15H23NO4
SMILES: CC(=CC/C=C(/C)\[C@H]1CN[C@@H]([C@H]1CC(=O)O)C(=O)O)C
Method: HCD
Collision_energy: [28.333334]
Isolation_window: 4.0
Ion_mode: P
Num Peaks: 157
58.0657	1.5
69.0704	5.2
70.0656	20.0
72.0813	2.7
80.0499	34.4
81.0339	14.6
81.0532	2.0
83.0496	2.8
84.0812	5.2
86.0969	11.5
87.0445	3.9
95.0607	1.7
96.0448	3.3
96.0810	2.2
97.0651	5.0
98.0968	2.0
100.0760	2.1
101.0600	6.9
105.0702	1.7
108.0560	1.9
109.0764	1.5
110.0605	1.5
111.0442	3.9
112.0760	2.3
114.0552	14.9
114.0666	2.4
116.0709	38.0
117.0746	1.9
121.0650	2.5
122.0603	1.6
124.0395	1.4
124.0762	2.4
126.0916	2.1
130.0865	6.4
132.0446	1.6
132.1019	2.6
136.0619	1.7
136.0757	1.9
144.0810	11.5
144.1020	4.1
145.0758	8.1
146.0928	1.9
151.0868	4.7
152.0711	2.8
152.1073	2.1
154.1225	2.0
160.0762	1.9
164.0704	2.1
164.1074	1.3
166.1227	5.2
168.0664	1.4
170.0601	1.5
172.0762	2.1
175.1442	2.7
176.0709	1.5
178.0859	1.8
180.0479	2.6
180.1013	1.9
181.0975	1.3
183.1130	1.3
187.0867	23.7
188.0707	3.4
188.0899	2.6
189.1599	1.3
190.0861	1.6
193.0970	1.5
196.0964	2.6
200.0707	5.2
202.0864	3.7
207.1124	1.8
212.1269	4.5
218.0809	4.4
222.1856	2.2
232.1101	2.9
239.2120	1.7
242.0809	2.0
244.0960	1.5
249.1968	1.5
250.0866	2.1
263.1390	6.1
264.1609	3.8
265.1558	2.4
270.1113	2.6
271.1081	3.8
272.0939	1.4
272.1281	2.1
273.1249	1.8
274.1193	4.3
276.1225	3.9
280.0953	4.1
280.1547	3.5
280.1741	2.3
281.1248	1.5
281.1502	35.1
281.1856	7.1
282.1328	9.9
282.1722	6.6
283.1082	6.6
283.1664	15.4
283.2018	2.6
284.0877	3.6
284.1325	3.8
284.1646	1.4
284.1975	5.7
285.0904	1.5
285.1241	7.4
285.1821	2.0
285.2175	13.7
286.1096	8.5
286.1465	3.3
286.2191	2.3
287.1056	3.3
287.1404	5.0
287.2330	17.3
288.0875	1.8
288.1223	18.9
288.2377	2.4
289.1205	11.6
289.1560	4.8
290.1027	11.5
290.1393	17.0
291.1026	2.6
291.1371	13.2
291.1703	100.0
291.1965	1.4
292.1233	20.6
292.1721	15.4
293.1189	2.5
293.1519	11.8
293.1859	34.7
294.1339	17.0
294.1810	7.6
295.0817	2.5
295.1342	4.3
295.1668	8.5
296.0901	12.4
296.1554	5.6
296.1955	6.7
297.0931	2.6
297.1227	2.3
297.1483	2.1
297.1850	5.1
298.1096	18.2
298.1446	1.7
298.1759	3.2
299.1071	5.8
299.1403	3.4
299.1670	1.5
299.1968	19.4
300.0867	6.0
300.1234	20.3
300.1969	2.4
301.1203	10.6
301.1554	3.0
302.1028	3.8
302.1398	5.8
302.2077	1.6

Name: Damc
PrecursorMZ: 204.10192
RT: 7.2348
ExactMass: 203.094628657
Spectrum_type: 2
charge: 1
Formula: C12H13NO2
SMILES: CC1=CC(=O)OC2=C1C=CC(=C2)N(C)C
Method: HCD
Collision_energy: [28.333334]
Isolation_window: 4.0
Ion_mode: P
Num Peaks: 33
86.0968	0.9
97.0286	0.8
120.0810	0.8
122.0602	1.5
126.0552	1.1
132.0804	1.0
133.0887	2.1
134.0604	1.1
162.1027	5.4
173.0835	1.2
176.1073	1.2
186.1127	0.9
189.0786	2.3
202.1074	1.0
202.1228	17.7
203.1179	7.7
203.1264	4.9
203.1549	0.8
204.0865	0.7
204.1020	100.0
204.1130	61.0
204.1222	4.2
204.1382	10.1
205.0970	2.4
205.1054	12.6
205.1165	7.2
205.1334	15.4
205.1419	1.2
206.0814	0.9
206.1175	23.7
206.1285	8.0
206.1375	1.3
206.1538	3.1

Name: Damp
PrecursorMZ: 332.07454
RT: 6.3745
ExactMass: 331.06817018
Spectrum_type: 2
charge: 1
Formula: C10H14N5O6P
SMILES: C1[C@@H]([C@H](O[C@H]1N2C=NC3=C(N=CN=C32)N)COP(=O)(O)O)O
Method: HCD
Collision_energy: [28.333334]
Isolation_window: 4.0
Ion_mode: P
Num Peaks: 39
70.0654	9.6
72.0811	3.6
74.0603	4.9
81.0337	18.6
84.0445	6.0
84.0810	10.4
86.0603	3.8
86.0966	3.5
98.0602	8.2
98.9842	5.1
112.0756	4.5
116.0706	8.4
126.0548	6.5
136.0616	100.0
137.0650	3.7
142.0497	4.4
156.0653	10.0
166.0861	3.6
171.0762	3.3
180.1018	3.6
188.0914	3.1
209.1043	4.8
210.1125	4.1
216.0974	6.6
313.1738	4.0
314.1209	3.8
330.1162	3.4
330.1335	5.9
330.1676	5.9
331.1482	17.0
331.1860	6.8
332.0738	22.6
332.1118	5.6
332.1327	10.6
332.1495	9.0
332.3309	3.3
333.1452	5.2
333.1651	6.6
334.1274	6.4

Name: Daphnin
PrecursorMZ: 363.06828
RT: 8.4035
ExactMass: 340.07943208
Spectrum_type: 2
charge: 1
Formula: C15H16O9
SMILES: C1=CC(=C(C2=C1C=CC(=O)O2)O)O[C@H]3[C@@H]([C@H]([C@@H]([C@H](O3)CO)O)O)O
Method: HCD
Collision_energy: [28.333334]
Isolation_window: 4.0
Ion_mode: P
Num Peaks: 8
345.1655	10.2
361.2476	8.3
362.0844	13.1
362.1587	10.7
363.0682	100.0
363.1746	14.6
364.0720	15.1
365.1032	8.2

Name: Decaethylene glycol
PrecursorMZ: 459.28499
RT: 5.9053
ExactMass: 458.27271215
Spectrum_type: 2
charge: 1
Formula: C20H42O11
SMILES: C(COCCOCCOCCOCCOCCOCCOCCOCCOCCO)O
Method: HCD
Collision_energy: [28.333334]
Isolation_window: 4.0
Ion_mode: P
Num Peaks: 13
51.0320	5.2
51.1435	1.3
84.0811	3.2
89.0600	3.8
129.1024	0.8
130.0863	2.1
133.0859	2.2
177.1124	0.7
459.2176	0.8
459.2852	100.0
459.3525	0.8
460.2880	27.4
461.2925	3.1

Name: Decanal
PrecursorMZ: 157.16991
RT: 1.074525
ExactMass: 156.151415257
Spectrum_type: 2
charge: 1
Formula: C10H20O
SMILES: CCCCCCCCCC=O
Method: HCD
Collision_energy: [28.333334]
Isolation_window: 4.0
Ion_mode: P
Num Peaks: 9
74.0968	1.8
101.1075	4.1
114.0916	2.5
142.0862	1.4
155.1541	1.9
156.0422	12.1
157.1699	100.0
158.1540	5.2
158.1731	9.0

Name: Deferiprone
PrecursorMZ: 140.07061
RT: 4.8963
ExactMass: 139.06332853
Spectrum_type: 2
charge: 1
Formula: C7H9NO2
SMILES: CC1=C(C(=O)C=CN1C)O
Method: HCD
Collision_energy: [28.333334]
Isolation_window: 4.0
Ion_mode: P
Num Peaks: 21
69.5277	0.7
70.0654	0.6
94.0653	0.7
95.0605	0.7
109.0285	0.5
109.0522	7.9
110.0557	0.5
110.0601	0.9
121.0396	3.1
122.0600	17.0
123.0633	1.2
138.0548	2.2
138.0912	2.4
138.1021	0.6
139.0864	0.9
140.0592	0.7
140.0704	100.0
140.0816	1.6
140.1068	0.6
141.0656	5.0
141.0737	7.1

Name: Dehydroabietic Acid
PrecursorMZ: 301.21629
RT: 0.5696
ExactMass: 300.208930132
Spectrum_type: 2
charge: 1
Formula: C20H28O2
SMILES: CC(C)C1=CC2=C(C=C1)[C@]3(CCC[C@@]([C@@H]3CC2)(C)C(=O)O)C
Method: HCD
Collision_energy: [28.333334]
Isolation_window: 4.0
Ion_mode: P
Num Peaks: 142
57.0704	10.9
59.0496	3.4
67.0547	6.6
69.0704	7.8
71.0495	2.6
71.0860	11.4
79.0548	2.6
81.0703	21.2
82.0736	1.5
83.0494	1.7
83.0859	5.9
85.0652	2.7
85.1016	4.7
89.0600	2.5
91.0546	3.7
93.0702	16.8
94.0736	1.6
95.0493	1.7
95.0858	25.5
96.0890	1.9
97.0652	2.7
97.1015	7.2
98.9845	2.1
99.0444	6.8
99.0808	3.6
101.0600	2.7
105.0701	12.4
107.0858	16.0
109.0650	2.3
109.1014	10.9
111.0806	2.7
111.1172	2.2
112.0761	5.9
113.0599	1.6
117.0702	2.9
119.0858	15.5
120.0891	1.7
121.0651	1.5
121.1014	18.1
122.1046	2.1
123.0806	3.5
123.1170	7.2
125.0963	4.0
127.0755	1.7
131.0857	9.9
133.1013	17.5
134.1048	1.8
135.0806	3.0
135.1170	11.9
137.0597	1.7
137.0961	3.4
137.1326	1.5
139.0756	2.2
139.1121	2.2
141.0909	2.3
141.1274	3.8
143.0856	2.5
145.1013	15.4
146.1050	1.5
147.0807	1.4
147.1170	9.8
149.0962	4.6
149.1326	5.0
151.1119	4.5
157.1011	4.3
159.1170	20.0
160.1209	2.2
161.0960	2.2
161.1327	7.4
163.1120	9.7
163.1482	2.6
164.1153	1.5
165.0915	2.1
165.1278	2.5
167.1066	1.9
169.0645	2.3
171.1166	4.3
173.1325	6.9
175.1120	5.3
175.1483	2.6
177.1273	2.9
179.1069	1.7
179.1433	1.6
181.1224	1.6
183.1169	1.4
185.1324	4.2
187.1129	1.9
187.1483	28.2
188.1519	4.0
189.1271	4.5
189.1641	5.7
191.1434	2.6
193.1225	4.7
197.1326	1.5
199.1482	3.6
201.1273	1.5
203.1430	2.0
205.1215	2.0
207.1381	9.2
213.1639	4.1
219.1381	3.3
221.1171	2.4
221.1541	1.5
223.1487	1.6
225.1643	2.5
226.0742	2.2
227.0699	6.2
227.1795	9.7
228.1829	1.8
229.0987	2.2
229.1962	2.0
241.0974	11.1
241.1582	2.1
242.1013	2.0
255.1130	6.5
255.1735	1.9
255.2107	4.0
256.1154	1.7
257.1287	10.1
258.1321	1.8
265.1951	4.1
273.2216	2.4
277.2163	1.8
283.1078	16.3
283.2056	14.4
284.1107	2.6
284.2091	3.3
285.1233	10.0
286.1280	1.7
299.2019	1.6
299.2579	5.2
300.2615	1.5
301.2163	100.0
302.2195	20.6
302.3053	1.7
303.2305	6.4
312.1587	3.9
315.1334	4.2
317.1496	5.1
317.2104	3.3
319.2268	15.7
320.2289	3.5

Name: Dehydroepiandrosterone
PrecursorMZ: 289.21572
RT: 1.1633
ExactMass: 288.208930132
Spectrum_type: 2
charge: 1
Formula: C19H28O2
SMILES: C[C@]12CC[C@H]3[C@H]([C@@H]1CCC2=O)CC=C4[C@@]3(CC[C@@H](C4)O)C
Method: HCD
Collision_energy: [28.333334]
Isolation_window: 4.0
Ion_mode: P
Num Peaks: 23
69.5153	12.1
81.0701	22.1
93.0699	9.0
95.0856	14.3
105.0699	14.8
107.0856	80.0
109.1011	16.7
119.0854	18.2
121.1011	23.3
133.1010	12.7
135.1164	11.1
147.1166	22.8
159.1167	9.5
161.1323	12.2
175.1480	25.7
193.1222	19.5
213.1635	11.7
215.1791	52.0
253.1944	15.6
271.2052	30.8
289.1407	14.0
289.2157	100.0
290.2197	17.8

Name: Dehydrolithocholic Acid
PrecursorMZ: 339.2679
RT: 4.5895
ExactMass: 374.28209507
Spectrum_type: 2
charge: 1
Formula: C24H38O3
SMILES: C[C@H](CCC(=O)O)[C@H]1CC[C@@H]2[C@@]1(CC[C@H]3[C@H]2CC[C@H]4[C@@]3(CCC(=O)C4)C)C
Method: HCD
Collision_energy: [28.333334]
Isolation_window: 4.0
Ion_mode: P
Num Peaks: 90
55.0546	1.2
57.0703	3.1
67.0545	2.0
69.0702	4.7
69.5120	1.8
71.0858	2.6
79.0544	1.4
81.0701	7.0
83.0858	5.2
85.0650	3.8
85.1013	1.4
86.0602	1.0
91.0544	1.4
93.0700	3.6
95.0856	6.1
97.0649	3.1
97.1012	4.0
100.0758	1.9
105.0699	3.1
107.0855	5.4
109.1012	4.7
111.0805	3.0
111.1168	1.9
114.0913	1.8
119.0855	3.8
121.1011	4.4
123.0803	1.8
123.1167	2.1
124.0756	3.2
125.0959	2.2
126.0912	3.6
131.0855	2.3
133.1010	3.1
135.1167	5.0
137.0959	1.5
143.0851	1.5
145.1010	5.2
147.1166	3.7
149.1324	4.2
151.1114	1.1
157.1010	2.2
159.1166	7.0
160.1201	1.3
161.1322	2.9
163.1479	1.6
171.1163	2.1
173.1321	4.6
175.1479	2.9
177.1270	1.9
183.1169	1.5
185.1324	2.6
187.1478	3.2
189.1635	1.9
191.1062	2.5
197.1320	1.4
199.1477	3.1
201.1634	2.6
211.1475	2.8
213.1635	3.2
215.1788	2.9
225.1634	4.7
227.1789	5.4
229.1579	2.0
229.1946	2.7
239.1789	3.7
241.1945	6.3
243.1737	1.5
251.1787	2.7
253.1943	1.3
265.1944	5.0
267.2100	2.1
279.2100	2.3
281.2258	2.9
293.2251	1.3
295.2413	4.4
303.3041	1.6
321.2568	64.4
321.3145	3.1
322.2602	14.3
323.2622	1.2
338.1948	2.3
338.3410	15.8
339.1332	1.8
339.2332	1.5
339.2674	100.0
339.3443	4.1
340.1174	1.3
340.2709	27.1
341.2473	1.5
341.2729	1.7

Name: Dehydroxynocardamine
PrecursorMZ: 312.15904
RT: 1.07808
ExactMass: 584.35336251
Spectrum_type: 2
charge: 1
Formula: C27H48N6O8
SMILES: C1CCNC(=O)CCC(=O)NCCCCCN(C(=O)CCC(=O)NCCCCCN(C(=O)CCC(=O)NCC1)O)O
Method: HCD
Collision_energy: [28.333334]
Isolation_window: 4.0
Ion_mode: P
Num Peaks: 49
55.0547	0.9
57.0703	1.5
67.0546	3.7
69.0703	17.3
69.4088	0.9
71.0859	1.3
79.0545	1.0
81.0702	6.9
83.0858	1.9
84.0811	7.5
85.1015	1.0
86.0967	11.0
93.0700	1.4
95.0857	6.8
97.1014	1.4
103.0543	1.1
107.0857	1.0
109.1013	2.6
112.0758	75.0
113.0791	4.6
121.1012	2.3
123.1168	1.3
131.0491	14.2
132.0524	0.8
135.0440	1.9
135.1168	1.8
138.0912	2.1
141.0698	14.7
142.0733	1.4
159.0440	1.3
161.0597	11.2
164.1070	6.3
169.0647	40.9
170.0680	5.4
187.0752	3.2
197.0595	16.3
198.0628	2.2
199.0752	20.1
200.0785	2.7
201.0905	1.0
227.0700	100.0
228.0733	14.1
229.0858	0.9
312.1589	60.3
312.3619	1.8
313.1625	11.6
313.2733	9.0
314.1753	10.0
314.2777	0.9

Name: Delta-Tocopherol
PrecursorMZ: 425.34073
RT: 1.1314
ExactMass: 402.349780706
Spectrum_type: 2
charge: 1
Formula: C27H46O2
SMILES: CC1=CC(=CC2=C1O[C@](CC2)(C)CCC[C@H](C)CCC[C@H](C)CCCC(C)C)O
Method: HCD
Collision_energy: [28.333334]
Isolation_window: 4.0
Ion_mode: P
Num Peaks: 53
57.0703	2.6
67.0546	2.5
69.0702	8.5
71.0859	2.1
81.0702	12.4
83.0858	4.5
89.0598	2.9
93.0700	2.4
95.0857	11.1
97.1012	2.4
107.0856	3.7
109.1012	11.4
111.1168	2.0
119.0855	3.0
121.1012	3.3
123.1168	6.2
133.1011	2.2
134.0963	5.2
135.1168	4.7
136.1120	10.2
137.1324	4.6
147.1168	2.9
149.0960	11.3
149.1325	2.7
151.0753	14.3
161.1324	4.4
164.0831	2.2
165.0909	100.0
166.0942	9.5
167.0701	2.0
175.0751	3.4
175.1119	2.2
177.0911	3.9
189.0908	5.0
189.1270	3.5
191.1065	7.1
203.1066	4.0
205.1220	8.6
217.1220	8.4
231.1378	2.6
245.1535	6.5
255.2107	2.2
273.2210	4.3
408.3255	13.9
409.3268	2.5
424.3225	5.2
424.3586	5.5
425.3408	32.3
425.3718	3.1
426.3015	2.7
426.3365	34.3
427.3363	4.7
427.3564	2.3

Name: Delta-Valerolactone
PrecursorMZ: 101.0599
RT: 9.7462
ExactMass: 100.052429494
Spectrum_type: 2
charge: 1
Formula: C5H8O2
SMILES: C1CCOC(=O)C1
Method: HCD
Collision_energy: [28.333334]
Isolation_window: 4.0
Ion_mode: P
Num Peaks: 41
53.0391	2.0
55.0547	30.6
56.0470	0.5
56.0500	50.1
56.0580	2.4
57.0340	3.2
57.0533	2.3
57.0703	2.2
58.0656	4.3
59.0496	28.2
59.0608	1.2
60.0530	1.0
60.0812	0.5
72.0812	10.3
73.0652	0.6
73.0845	0.5
74.0968	13.9
82.0655	4.5
83.0495	12.5
83.0859	3.7
84.0447	1.0
84.0528	0.8
84.0811	0.7
85.0651	0.7
98.9844	6.0
99.0555	0.6
99.0919	2.7
100.0508	1.1
100.0759	41.2
100.1123	2.5
101.0599	31.8
101.0792	2.4
101.1075	1.4
102.0552	0.6
102.0632	1.6
102.0915	0.9
102.1209	0.7
102.1279	100.0
102.1305	0.5
102.1350	0.6
103.1313	0.8

Name: Demissidine
PrecursorMZ: 400.35727
RT: 1.8016
ExactMass: 399.350115059
Spectrum_type: 2
charge: 1
Formula: C27H45NO
SMILES: C[C@H]1CC[C@@H]2[C@H]([C@H]3[C@@H](N2C1)C[C@@H]4[C@@]3(CC[C@H]5[C@H]4CC[C@@H]6[C@@]5(CC[C@@H](C6)O)C)C)C
Method: HCD
Collision_energy: [28.333334]
Isolation_window: 4.0
Ion_mode: P
Num Peaks: 16
87.0444	0.4
89.0600	1.6
133.0859	0.9
382.2194	0.5
398.3417	1.8
399.1554	0.4
399.3451	2.5
400.1759	0.5
400.3024	0.7
400.3135	0.5
400.3571	100.0
400.4009	0.5
400.4117	0.7
401.1709	0.4
401.3604	28.1
402.3637	2.4

Name: Deoxyfructosazine
PrecursorMZ: 305.13355
RT: 8.1016
ExactMass: 304.12705098
Spectrum_type: 2
charge: 1
Formula: C12H20N2O7
SMILES: C1=C(N=CC(=N1)[C@H]([C@@H]([C@@H](CO)O)O)O)C[C@@H]([C@@H](CO)O)O
Method: HCD
Collision_energy: [28.333334]
Isolation_window: 4.0
Ion_mode: P
Num Peaks: 146
58.0654	1.1
61.0287	3.9
69.9848	0.5
70.0098	0.6
70.0654	2.6
72.0810	1.4
81.0336	1.0
84.0445	0.8
84.0809	4.1
85.0284	0.5
87.0441	0.5
96.0444	0.7
97.0284	0.9
98.0599	0.5
99.0440	0.6
100.0756	1.0
101.0596	0.7
112.0868	0.6
114.0548	0.8
116.0704	1.1
120.0805	0.4
121.0760	0.6
124.0754	0.9
125.0707	0.6
126.0547	0.6
126.0910	0.5
128.0704	0.7
130.0496	1.0
130.0859	1.9
131.0602	0.7
133.0758	1.1
133.1009	0.7
134.0836	0.7
135.0551	0.6
135.0916	0.9
137.0593	0.5
137.0706	2.4
138.0548	0.6
138.0909	0.7
140.0703	0.7
144.0650	0.8
144.1016	0.8
145.0758	1.5
146.0810	0.5
146.0919	1.2
147.0548	0.7
147.1124	1.0
149.0707	5.6
150.0548	0.5
151.0863	0.7
154.0858	0.6
158.0596	0.7
159.0757	0.7
159.0913	0.9
161.0706	3.2
162.0790	1.0
163.0863	5.4
164.0702	1.5
165.0656	1.2
167.0812	0.6
173.0706	5.6
173.0916	1.4
174.0740	0.6
175.0862	2.0
177.0656	1.4
177.1019	0.6
179.0811	3.8
180.1013	0.7
181.0967	0.6
182.0806	0.7
185.0914	1.2
186.0756	10.2
187.0786	0.7
187.0862	3.0
189.0654	1.5
191.0810	17.6
192.0844	1.8
193.0965	0.8
195.0760	0.7
196.0962	1.4
197.0915	1.6
202.0702	0.6
203.0811	2.8
205.0813	0.9
205.0966	3.0
207.0759	1.9
209.0915	11.0
209.1277	1.0
210.0754	0.6
210.0950	1.2
211.1070	1.7
213.0863	0.6
215.0809	3.9
215.1020	2.4
216.0844	0.6
221.0915	3.8
223.1071	1.2
225.0864	0.7
227.1020	22.5
228.1056	2.2
233.0914	9.8
234.0950	1.3
239.1019	2.9
241.1179	1.1
245.1127	0.5
245.1277	0.7
251.1019	6.9
252.1055	0.9
257.1125	1.8
257.1280	0.6
269.1123	10.3
270.1158	1.0
286.1269	1.9
286.1422	0.9
287.1228	17.5
287.1376	1.2
288.1068	1.2
288.1257	2.3
288.1429	1.1
303.1180	0.9
303.1338	0.8
303.1538	1.1
303.1686	1.6
304.1005	0.6
304.1171	4.3
304.1373	1.7
304.1513	8.6
304.1649	1.1
304.1747	0.6
305.0971	0.7
305.1146	0.8
305.1198	1.1
305.1333	100.0
305.1488	3.9
305.1696	1.8
305.1841	1.8
306.0960	1.3
306.1168	2.2
306.1355	14.1
306.1538	2.7
306.1692	2.0
306.1830	1.1
307.1260	2.4
307.1372	0.9
307.1628	2.1
307.2135	0.7

Name: Deoxynivalenol
PrecursorMZ: 297.13301
RT: 1.5279333333333334
ExactMass: 296.12598835
Spectrum_type: 2
charge: 1
Formula: C15H20O6
SMILES: CC1=C[C@@H]2[C@]([C@@H](C1=O)O)([C@]3(C[C@H]([C@H]([C@@]34CO4)O2)O)C)CO
Method: HCD
Collision_energy: [28.333334]
Isolation_window: 4.0
Ion_mode: P
Num Peaks: 9
94.9297	29.8
179.0702	30.3
219.1014	100.0
237.1119	61.6
247.0964	65.4
261.1123	33.6
279.1223	88.3
280.1902	35.3
299.2573	67.2

Name: Deoxynojirimycin
PrecursorMZ: 164.09175
RT: 6.7467
ExactMass: 163.0844579
Spectrum_type: 2
charge: 1
Formula: C6H13NO4
SMILES: C1[C@@H]([C@H]([C@@H]([C@H](N1)CO)O)O)O
Method: HCD
Collision_energy: [28.333334]
Isolation_window: 4.0
Ion_mode: P
Num Peaks: 20
55.0547	10.0
56.0499	27.3
67.0547	25.4
82.0655	9.6
83.0494	19.0
100.0759	100.0
101.0598	79.3
110.0602	7.6
122.0812	13.0
128.0706	12.1
136.0756	60.5
146.0811	61.1
163.0501	8.0
163.0866	9.7
164.0566	76.9
164.0706	38.5
164.0917	13.9
165.0545	9.3
165.0656	8.7
166.0723	16.3

Name: Deoxyvasicinone
PrecursorMZ: 187.08668
RT: 5.418
ExactMass: 186.079312947
Spectrum_type: 2
charge: 1
Formula: C11H10N2O
SMILES: C1CC2=NC3=CC=CC=C3C(=O)N2C1
Method: HCD
Collision_energy: [28.333334]
Isolation_window: 4.0
Ion_mode: P
Num Peaks: 54
57.0704	2.5
58.0656	3.5
70.0656	1.0
71.0860	2.0
72.0812	4.5
76.0761	4.4
86.0968	11.2
89.0713	2.3
99.0555	1.1
112.0760	1.4
114.0375	1.3
115.0504	5.6
125.0962	1.3
128.0706	1.0
129.0773	1.4
134.0599	1.2
140.1070	2.0
140.1434	1.4
142.1226	1.1
144.0766	2.7
146.0602	3.1
159.1130	1.2
160.0759	1.7
168.0805	1.3
170.0603	2.6
170.1176	3.7
185.0710	1.1
185.1004	1.3
185.1074	11.6
185.2015	1.3
186.0423	1.2
186.0547	2.1
186.0663	1.1
186.0757	1.9
186.0916	1.6
186.1116	4.3
186.1487	2.4
186.1856	1.0
186.2217	5.5
187.0867	100.0
187.1226	1.2
187.1440	1.2
187.1805	1.5
188.0708	14.4
188.0820	1.1
188.0900	10.8
188.1074	1.1
188.1182	3.3
188.1280	1.4
188.2010	1.9
189.0658	1.6
189.0689	1.4
189.0745	1.0
189.1023	1.4

Name: Derrustone
PrecursorMZ: 327.08596
RT: 7.2387
ExactMass: 326.07903816
Spectrum_type: 2
charge: 1
Formula: C18H14O6
SMILES: COC1=CC2=C(C(=C1)OC)C(=O)C(=CO2)C3=CC4=C(C=C3)OCO4
Method: HCD
Collision_energy: [28.333334]
Isolation_window: 4.0
Ion_mode: P
Num Peaks: 12
98.9845	12.3
114.0914	18.5
182.1006	6.9
225.0543	7.5
227.1752	5.3
239.0701	20.0
267.0649	36.1
268.0685	6.4
281.0808	12.7
327.0860	100.0
328.0905	23.9
328.2580	5.8

Name: Desisopropylatenolol
PrecursorMZ: 225.12314
RT: 6.9575
ExactMass: 224.11609238
Spectrum_type: 2
charge: 1
Formula: C11H16N2O3
SMILES: C1=CC(=CC=C1CC(=O)N)OCC(CN)O
Method: HCD
Collision_energy: [28.333334]
Isolation_window: 4.0
Ion_mode: P
Num Peaks: 134
55.0549	1.0
67.0550	1.6
70.0659	2.1
71.0498	1.0
80.0501	1.6
81.0317	1.4
81.0341	10.2
81.0705	2.1
82.0657	5.3
83.0496	2.2
84.0448	2.0
84.0813	2.0
87.0445	1.7
91.0549	1.1
93.0702	1.4
95.0496	1.4
95.0606	2.1
95.0859	2.5
96.0447	1.3
97.0291	0.9
97.0656	1.0
98.0603	2.0
99.0445	0.9
100.0760	1.4
101.0600	5.5
104.0712	1.0
107.0606	5.4
107.0861	1.1
108.0447	9.9
108.0813	1.2
109.0291	1.0
109.0481	2.3
109.1017	1.0
110.0602	1.5
111.0443	1.6
112.0759	1.5
113.0711	1.3
116.0709	1.2
119.0858	1.0
120.0808	1.3
121.0647	1.4
121.0886	1.4
121.1014	0.9
122.0600	2.2
123.0559	1.0
124.0393	1.4
124.0756	1.8
125.0709	1.8
126.0548	4.1
127.0506	0.9
130.0500	1.0
136.0755	1.8
138.0553	0.9
145.1014	0.9
146.0598	2.3
146.0963	1.9
148.0757	1.3
149.0964	0.9
150.0911	2.5
151.1228	3.4
152.0705	1.4
154.0864	0.9
160.0757	1.0
161.1071	2.8
162.0912	4.4
163.0866	1.1
164.0705	3.3
164.1072	0.9
165.0910	1.5
165.1020	1.9
166.0497	1.3
166.0861	4.6
167.0816	1.2
167.1067	1.0
178.0497	2.6
178.0859	4.1
178.1336	4.3
179.0527	1.6
179.0814	1.0
179.1176	5.0
180.0652	2.0
180.1016	5.6
180.1494	0.9
181.0970	2.7
182.0808	3.6
184.0966	2.3
189.1019	7.8
190.0859	5.0
190.1048	1.1
193.0969	2.7
194.0811	1.8
196.0963	1.2
198.1121	5.0
199.1073	1.9
199.1437	1.0
205.0968	3.4
206.0444	2.3
206.0808	5.5
206.0918	2.5
206.1009	2.0
206.1173	1.0
207.0480	2.1
207.0760	1.3
207.1047	1.5
207.1124	100.0
208.0965	24.6
208.1069	1.5
208.1160	12.0
209.0916	4.6
209.1002	1.7
209.1281	1.9
210.0757	1.8
223.1069	9.9
223.1157	1.0
223.1433	5.0
224.0916	24.3
224.1023	4.5
224.1114	2.6
224.1275	18.4
224.1387	9.6
224.1482	0.9
225.0855	1.9
225.0955	2.0
225.1227	31.9
225.1315	1.6
225.1590	3.6
226.0708	1.7
226.1067	25.9
226.1180	11.2
226.1262	2.0
226.1429	4.2
227.0815	1.8
227.1016	7.1
227.1384	12.3

Name: Dexchlorpheniramine
PrecursorMZ: 275.1305
RT: 1.1577
ExactMass: 274.1236763
Spectrum_type: 2
charge: 1
Formula: C16H19ClN2
SMILES: CN(C)CC[C@@H](C1=CC=C(C=C1)Cl)C2=CC=CC=N2
Method: HCD
Collision_energy: [28.333334]
Isolation_window: 4.0
Ion_mode: P
Num Peaks: 7
230.0733	100.0
231.0765	16.3
232.0702	32.6
233.0737	5.0
275.1310	9.8
276.1344	1.8
277.1285	3.5

Name: Dexpanthenol
PrecursorMZ: 206.13844
RT: 9.5171
ExactMass: 205.13140809
Spectrum_type: 2
charge: 1
Formula: C9H19NO4
SMILES: CC(C)(CO)[C@H](C(=O)NCCCO)O
Method: HCD
Collision_energy: [28.333334]
Isolation_window: 4.0
Ion_mode: P
Num Peaks: 20
70.0654	4.0
71.0494	26.0
88.0759	5.9
100.0757	14.0
101.0597	21.7
106.0863	4.5
112.0756	3.5
118.0862	7.9
130.0859	4.6
170.1173	15.5
188.1277	22.5
204.1018	3.4
204.1226	4.3
205.1052	6.9
206.1019	4.4
206.1383	100.0
207.1127	4.0
207.1415	10.3
208.0963	7.8
208.1175	3.8

Name: Di-2-ethylhexyl sebacate
PrecursorMZ: 427.37776
RT: 0.9766999999999999
ExactMass: 426.37091007
Spectrum_type: 2
charge: 1
Formula: C26H50O4
SMILES: CCCCC(CC)COC(=O)CCCCCCCCC(=O)OCC(CC)CCCC
Method: HCD
Collision_energy: [28.333334]
Isolation_window: 4.0
Ion_mode: P
Num Peaks: 30
57.0703	16.9
69.0702	4.2
69.1039	4.5
71.0858	24.7
81.0701	7.7
91.0576	6.4
95.0855	2.5
97.1014	5.1
97.4310	4.5
97.4331	2.5
111.1167	3.2
121.1012	16.6
139.1116	27.0
139.9145	4.3
140.1149	2.4
149.0958	5.7
163.1116	3.5
165.0909	17.8
177.0909	2.8
185.1169	7.9
191.1063	3.3
203.1275	100.0
204.1310	8.2
205.1217	3.0
315.2523	9.2
359.0271	5.8
428.3878	5.5
429.0898	4.3
429.2393	11.4
429.3719	12.5

Name: Diaminoheptanedioate
PrecursorMZ: 191.10239
RT: 6.7873
ExactMass: 188.07970687
Spectrum_type: 2
charge: 1
Formula: C7H12N2O4-2
SMILES: C(CC(C(=O)[O-])N)CC(C(=O)[O-])N
Method: HCD
Collision_energy: [28.333334]
Isolation_window: 4.0
Ion_mode: P
Num Peaks: 36
56.0499	6.3
58.0655	3.1
72.0811	5.4
74.0603	100.0
75.0637	3.6
82.0416	4.0
84.0446	6.5
86.0603	4.1
86.0966	3.4
90.0552	6.1
98.0601	2.6
102.0914	2.4
116.0706	10.0
120.0808	9.0
130.0862	2.6
144.1018	10.3
144.1382	4.0
145.0968	2.8
146.0269	4.6
146.0598	11.5
147.0916	23.4
173.0920	5.6
174.0218	3.2
175.0787	2.7
190.0502	3.1
190.0863	6.4
190.1071	6.7
191.0702	8.6
191.0812	10.5
191.1022	7.1
191.1174	3.1
192.0654	7.1
192.0759	2.8
192.1018	12.3
193.0969	18.9
193.1698	3.9

Name: Diaminopimelic Acid
PrecursorMZ: 191.10251
RT: 10.6978
ExactMass: 190.09535693
Spectrum_type: 2
charge: 1
Formula: C7H14N2O4
SMILES: C(CC(C(=O)O)N)CC(C(=O)O)N
Method: HCD
Collision_energy: [28.333334]
Isolation_window: 4.0
Ion_mode: P
Num Peaks: 12
82.0653	8.4
84.0810	9.9
102.0914	5.0
116.0706	4.7
128.0704	100.0
129.0738	6.9
171.1490	4.8
173.0918	7.3
174.0757	6.1
190.0860	3.8
190.1070	4.3
191.1022	8.6

Name: Dianisidine
PrecursorMZ: 245.12851
RT: 6.1677
ExactMass: 244.121177757
Spectrum_type: 2
charge: 1
Formula: C14H16N2O2
SMILES: COC1=C(C=CC(=C1)C2=CC(=C(C=C2)N)OC)N
Method: HCD
Collision_energy: [28.333334]
Isolation_window: 4.0
Ion_mode: P
Num Peaks: 71
70.0655	2.5
70.2191	2.4
72.0811	44.5
81.0337	2.7
84.0446	6.0
84.0810	2.6
86.0966	17.6
95.0606	2.8
101.0711	2.9
102.0550	13.3
117.1021	3.4
118.0863	2.7
125.0232	5.8
127.1228	7.6
130.0497	35.9
130.0650	7.1
132.0807	4.5
144.0806	22.5
146.0598	5.1
147.0762	83.6
156.0806	88.4
160.0753	4.1
168.0805	15.3
170.0598	8.9
170.0962	28.8
171.0996	3.3
174.0911	21.0
180.0805	4.9
182.0963	6.6
183.0915	2.8
183.1122	4.1
184.0753	9.8
186.0911	2.3
188.0703	15.3
197.0920	2.5
198.0908	5.9
201.1019	3.5
202.0859	9.0
202.0970	3.0
210.0909	2.8
212.0706	3.2
216.1015	100.0
217.1050	13.7
218.0921	2.2
226.1062	2.3
226.1182	2.3
227.1020	7.2
228.1015	77.6
228.1226	2.8
228.1338	4.3
229.0945	6.5
229.1051	12.0
229.1179	6.1
230.0807	28.8
243.0763	2.4
243.0973	5.8
243.1118	7.8
243.1328	4.0
244.0964	12.6
244.1172	8.5
245.0903	4.5
245.1015	2.2
245.1132	4.0
245.1279	39.1
246.0867	2.8
246.0972	2.4
246.1123	11.3
246.1323	10.2
246.1448	17.3
247.1072	21.9
247.1433	8.7

Name: Dianthoside
PrecursorMZ: 289.09155
RT: 4.0401
ExactMass: 288.08451746
Spectrum_type: 2
charge: 1
Formula: C12H16O8
SMILES: CC1=C(C(=O)C=CO1)O[C@H]2[C@@H]([C@H]([C@@H]([C@H](O2)CO)O)O)O
Method: HCD
Collision_energy: [28.333334]
Isolation_window: 4.0
Ion_mode: P
Num Peaks: 33
53.0390	2.0
69.0338	4.0
70.0655	3.8
71.0495	3.3
81.0338	9.9
84.0811	4.0
85.0286	4.7
87.0443	2.3
97.0286	5.5
99.0442	11.1
109.0285	15.0
114.0663	1.9
116.0707	3.0
126.0550	3.7
127.0389	100.0
128.0422	6.1
130.0862	3.0
146.0923	6.8
176.1030	2.0
200.1028	8.1
230.1132	3.4
272.1242	7.4
287.1365	1.9
288.1054	4.0
288.1213	2.8
288.1550	3.4
289.1536	1.9
290.0990	2.0
290.1344	76.5
291.1187	2.7
291.1370	5.7
291.1547	2.2
291.1676	2.8

Name: Diazaquinomycin A
PrecursorMZ: 355.16482
RT: 2.834
ExactMass: 354.15795719
Spectrum_type: 2
charge: 1
Formula: C20H22N2O4
SMILES: CCCC1=C(C(=O)NC2=C1C(=O)C3=C(C2=O)NC(=O)C(=C3CCC)C)C
Method: HCD
Collision_energy: [28.333334]
Isolation_window: 4.0
Ion_mode: P
Num Peaks: 25
55.0548	1.8
83.0495	1.3
101.0600	5.3
211.0842	0.8
219.0913	1.6
224.0944	2.6
237.1029	0.9
249.1234	2.9
255.1128	15.1
256.1163	2.6
295.1427	0.9
307.1446	1.5
323.1385	1.1
324.1463	8.8
325.1509	1.9
355.1652	100.0
356.1686	22.6
357.1737	2.9
358.1678	0.9
361.1817	0.9
367.1866	15.0
368.1903	4.1
369.1474	0.8
369.1977	1.1
373.2561	1.4

Name: Dibenzylhydroxylamine
PrecursorMZ: 214.12242
RT: 6.7833
ExactMass: 213.115364102
Spectrum_type: 2
charge: 1
Formula: C14H15NO
SMILES: C1=CC=C(C=C1)CN(CC2=CC=CC=C2)O
Method: HCD
Collision_energy: [28.333334]
Isolation_window: 4.0
Ion_mode: P
Num Peaks: 51
74.0603	1.3
81.0336	1.1
94.0653	1.0
107.0603	0.8
107.0730	2.6
121.0646	1.6
121.0759	1.1
121.0886	1.5
122.0598	0.8
123.0915	2.4
125.0708	3.0
133.0759	1.8
135.0915	2.4
136.0755	1.7
137.0707	4.3
144.0764	1.1
149.1070	0.8
151.0864	2.1
153.0654	0.8
155.0813	1.8
161.0707	4.1
165.1019	1.1
167.0815	1.1
170.0962	1.1
177.1020	1.5
178.0860	1.3
179.0812	8.7
179.1173	0.9
195.1124	5.0
196.0964	2.0
197.0917	13.8
197.1281	2.9
199.0987	3.8
212.1273	0.8
213.1026	0.8
213.1229	48.8
213.1379	4.6
213.1583	0.9
214.0859	0.9
214.1068	22.1
214.1222	100.0
214.1425	1.5
215.1020	21.9
215.1173	8.5
215.1257	12.7
215.1385	15.1
215.1536	3.6
216.1013	7.8
216.1219	1.0
216.1346	9.0
216.1373	6.0

Name: Dibutyl Sebacate
PrecursorMZ: 315.25255
RT: 4.5923
ExactMass: 314.24570956
Spectrum_type: 2
charge: 1
Formula: C18H34O4
SMILES: CCCCOC(=O)CCCCCCCCC(=O)OCCCC
Method: HCD
Collision_energy: [28.333334]
Isolation_window: 4.0
Ion_mode: P
Num Peaks: 50
57.0702	3.5
67.0546	32.7
69.0702	7.6
71.0858	4.6
79.0543	3.5
81.0701	40.8
83.0857	7.2
85.1014	15.7
91.0542	3.1
93.0700	8.3
95.0856	37.5
97.1012	3.5
97.4331	4.2
99.0805	6.2
107.0856	6.6
109.1012	18.2
112.8957	15.0
113.0961	26.7
114.8930	3.6
119.0853	3.3
121.1011	9.1
123.1167	12.6
131.0853	3.2
133.1010	12.3
135.1166	9.4
137.0595	10.6
137.1323	12.4
139.9145	7.0
147.1166	7.7
149.0961	3.7
149.1323	13.4
151.1117	4.9
151.1477	4.5
159.1166	6.1
167.1427	3.2
173.1323	6.0
177.1271	4.6
195.1376	8.0
209.1531	4.4
213.1483	3.6
243.2104	6.8
261.2209	12.4
279.2312	100.0
280.2345	20.2
297.2417	31.9
298.2451	5.2
315.0464	3.4
315.2312	5.4
317.1498	3.8
317.1728	3.8

Name: Dibutyl phosphate
PrecursorMZ: 211.10894
RT: 1.0462
ExactMass: 210.10209608
Spectrum_type: 2
charge: 1
Formula: C8H19O4P
SMILES: CCCCOP(=O)(O)OCCCC
Method: HCD
Collision_energy: [28.333334]
Isolation_window: 4.0
Ion_mode: P
Num Peaks: 4
57.0701	2.3
98.9841	100.0
209.1532	3.2
210.0784	2.8

Name: Dicyclohexylamine
PrecursorMZ: 182.19022
RT: 5.4412
ExactMass: 181.183049738
Spectrum_type: 2
charge: 1
Formula: C12H23N
SMILES: C1CCC(CC1)NC2CCCCC2
Method: HCD
Collision_energy: [28.333334]
Isolation_window: 4.0
Ion_mode: P
Num Peaks: 14
83.0858	11.0
91.0544	100.0
92.0578	6.1
100.1123	13.2
139.1229	3.5
180.1050	4.3
180.8713	4.3
181.1081	6.3
182.1018	3.6
182.1174	25.2
182.1902	99.8
183.0917	3.9
183.1854	6.2
183.1936	12.7

Name: Didecyldimethylammonium
PrecursorMZ: 326.37785
RT: 3.6502
ExactMass: 326.378675535
Spectrum_type: 2
charge: 1
Formula: C22H48N+
SMILES: CCCCCCCCCC[N+](C)(C)CCCCCCCCCC
Method: HCD
Collision_energy: [28.333334]
Isolation_window: 4.0
Ion_mode: P
Num Peaks: 14
57.0702	1.1
83.0859	1.2
114.0551	5.0
116.0707	1.2
126.0914	4.5
182.1175	9.1
183.1209	1.1
186.2215	5.1
325.1759	4.1
326.3778	100.0
327.1763	1.0
327.2676	2.0
327.3812	23.2
328.3850	2.2

Name: Didesmethylisoproturon
PrecursorMZ: 179.11794
RT: 6.2856
ExactMass: 178.110613074
Spectrum_type: 2
charge: 1
Formula: C10H14N2O
SMILES: CC(C)C1=CC=C(C=C1)NC(=O)N
Method: HCD
Collision_energy: [28.333334]
Isolation_window: 4.0
Ion_mode: P
Num Peaks: 20
60.0812	7.8
96.9954	11.3
134.0599	2.2
137.0709	3.8
161.1074	59.0
162.0548	3.9
162.1106	4.9
178.0499	2.5
178.0615	2.2
178.0862	14.2
178.0976	5.7
178.8735	8.1
179.0815	3.4
179.1179	11.2
180.0655	17.4
180.1051	100.0
180.1204	2.2
181.0969	2.4
181.1056	3.0
181.1080	3.2

Name: Dienogest
PrecursorMZ: 312.19591
RT: 5.7998
ExactMass: 311.18852904
Spectrum_type: 2
charge: 1
Formula: C20H25NO2
SMILES: C[C@]12CCC3=C4CCC(=O)C=C4CC[C@H]3[C@@H]1CC[C@]2(CC#N)O
Method: HCD
Collision_energy: [28.333334]
Isolation_window: 4.0
Ion_mode: P
Num Peaks: 72
55.0547	2.3
70.0656	2.3
72.0812	1.7
81.0339	5.4
83.0495	2.1
84.0811	1.8
86.0968	1.4
95.0606	2.9
101.0599	7.4
110.0716	1.2
111.0443	1.2
114.0664	1.1
114.0915	2.3
116.0709	1.2
123.0442	2.8
124.0758	8.7
135.0440	1.3
136.0758	1.1
144.0809	6.1
146.0271	2.0
146.0601	5.6
152.0708	4.2
156.0813	3.4
161.0963	1.4
175.0754	2.3
183.0917	1.3
188.0707	11.7
195.1130	8.6
212.1434	28.3
213.1468	3.7
229.0971	4.7
240.1015	1.7
241.1336	3.7
267.1130	1.2
268.1302	1.2
282.1813	1.2
294.1338	1.8
295.2015	1.7
296.2588	1.3
310.1474	1.9
310.1546	7.3
310.2138	1.9
310.2377	1.5
311.1040	3.4
311.1391	21.1
311.1593	7.0
311.1751	3.2
311.1965	4.0
311.2335	1.7
312.1069	2.0
312.1230	8.8
312.1430	10.5
312.1578	1.9
312.1716	13.6
312.1955	100.0
312.2267	1.1
312.2537	1.2
312.3630	2.4
313.1063	3.3
313.1188	5.1
313.1546	8.9
313.1751	4.1
313.1987	20.2
313.2132	3.5
314.1017	5.2
314.1225	3.5
314.1384	7.3
314.1517	3.3
314.1566	1.5
314.1753	1.2
314.2047	1.8
314.2684	3.0

Name: Diethyl phosphate
PrecursorMZ: 155.0468
RT: 3.1172
ExactMass: 154.03949583
Spectrum_type: 2
charge: 1
Formula: C4H11O4P
SMILES: CCOP(=O)(O)OCC
Method: HCD
Collision_energy: [28.333334]
Isolation_window: 4.0
Ion_mode: P
Num Peaks: 17
70.0403	4.5
72.0811	4.9
84.0810	4.8
86.0966	6.2
95.0493	40.2
97.0648	4.7
98.9843	100.0
108.0444	7.6
110.0601	5.5
126.0911	7.9
127.0154	11.0
127.0753	10.4
155.0562	16.2
155.0701	16.3
155.1180	4.7
156.0420	13.0
156.1016	8.8

Name: Diethylene glycol monobutyl ether acetate
PrecursorMZ: 205.14341
RT: 1.054
ExactMass: 204.13615911
Spectrum_type: 2
charge: 1
Formula: C10H20O4
SMILES: CCCCOCCOCCOC(=O)C
Method: HCD
Collision_energy: [28.333334]
Isolation_window: 4.0
Ion_mode: P
Num Peaks: 7
87.0444	100.0
88.0477	4.0
89.0600	6.0
133.0496	2.9
144.1019	3.8
206.0247	8.0
206.1904	5.1

Name: Diethylethanolamine
PrecursorMZ: 118.1228
RT: 12.0635
ExactMass: 117.115364102
Spectrum_type: 2
charge: 1
Formula: C6H15NO
SMILES: CCN(CC)CCO
Method: HCD
Collision_energy: [28.333334]
Isolation_window: 4.0
Ion_mode: P
Num Peaks: 24
55.0547	2.8
56.0499	1.1
58.0656	8.8
59.0734	7.7
70.0655	35.5
71.0689	4.6
72.0812	50.9
73.0845	2.6
74.0604	1.2
74.0969	1.4
82.0656	1.1
100.0759	2.9
100.1123	9.6
101.0599	2.8
103.0543	2.4
116.0708	9.7
117.0742	1.7
118.0864	100.0
118.1227	22.0
119.0897	5.3
119.1261	1.5
120.0477	2.9
120.0558	1.8
120.0809	12.1

Name: Dihydrocitrinone
PrecursorMZ: 267.08603
RT: 1.3119
ExactMass: 266.07903816
Spectrum_type: 2
charge: 1
Formula: C13H14O6
SMILES: C[C@@H]1[C@H](OC(=O)C2=C(C(=C(C(=C12)C)O)C(=O)O)O)C
Method: HCD
Collision_energy: [28.333334]
Isolation_window: 4.0
Ion_mode: P
Num Peaks: 16
59.0496	4.5
89.0598	28.9
98.9841	4.8
133.0859	7.3
163.0755	6.5
191.0699	25.9
195.1222	6.3
203.0699	11.8
221.0805	100.0
222.0839	12.1
231.0647	14.0
249.0753	13.0
251.1849	17.9
267.0859	35.9
268.0872	4.9
269.1280	4.2

Name: Dihydrocodeine
PrecursorMZ: 302.17464
RT: 3.1574
ExactMass: 301.1677936
Spectrum_type: 2
charge: 1
Formula: C18H23NO3
SMILES: CN1CC[C@]23[C@@H]4[C@H]1CC5=C2C(=C(C=C5)OC)O[C@H]3[C@H](CC4)O
Method: HCD
Collision_energy: [28.333334]
Isolation_window: 4.0
Ion_mode: P
Num Peaks: 14
55.0546	5.9
83.0494	22.7
93.0700	7.1
119.0854	5.6
121.0647	100.0
121.1011	10.0
122.0681	7.0
138.0911	24.3
164.0705	6.3
165.0908	4.0
220.1327	14.0
284.1639	5.3
302.1744	49.5
303.1781	6.2

Name: Dihydromuronic acid
PrecursorMZ: 369.26342
RT: 4.695
ExactMass: 368.25627424
Spectrum_type: 2
charge: 1
Formula: C21H36O5
SMILES: CC1C([C@H](OC1=O)CCCCCCCCCCCCCC(=O)C)C(=O)O
Method: HCD
Collision_energy: [28.333334]
Isolation_window: 4.0
Ion_mode: P
Num Peaks: 47
57.0339	7.9
67.0547	15.1
69.0703	28.7
79.0547	9.5
81.0703	32.9
83.0859	16.5
85.0651	11.8
89.0601	20.4
93.0702	17.5
95.0858	33.0
97.0650	9.2
97.1014	12.3
99.0807	11.6
105.0700	10.0
107.0858	13.5
109.0649	7.8
109.1014	16.8
111.0805	7.5
119.0857	13.5
121.1014	19.0
123.0806	7.0
123.1169	7.7
125.0961	10.3
131.0856	7.2
133.0861	8.3
133.1013	17.7
135.1169	10.4
137.0963	7.8
145.1014	9.9
147.1168	8.2
149.0961	6.8
153.0786	6.9
159.1169	9.1
161.0963	6.7
161.1324	7.8
189.1122	6.6
268.2636	100.0
277.2162	34.1
279.2317	7.7
295.2269	6.7
368.2437	10.9
368.4250	20.4
369.2625	32.5
369.4294	7.8
371.2214	11.5
371.2592	9.9
371.3277	7.7

Name: Dihydropertusaric
PrecursorMZ: 369.26302
RT: 4.6862
ExactMass: 368.25627424
Spectrum_type: 2
charge: 1
Formula: C21H36O5
SMILES: CC1[C@@H]([C@@H](OC1=O)CCCCCCCCCCCCCC(=O)C)C(=O)O
Method: HCD
Collision_energy: [28.333334]
Isolation_window: 4.0
Ion_mode: P
Num Peaks: 134
55.0181	0.8
55.0546	2.1
57.0339	5.2
57.0703	2.4
67.0546	10.6
69.0337	1.2
69.0702	13.6
69.3114	1.2
71.0494	1.2
71.0858	4.3
75.0443	1.0
79.0545	3.8
81.0336	0.6
81.0701	17.0
82.0734	1.0
83.0493	1.9
83.0857	9.9
84.0889	0.5
85.0650	1.5
85.1014	2.6
86.0966	1.9
87.0441	1.2
91.0543	3.3
93.0700	8.6
95.0492	1.8
95.0856	16.2
96.0889	1.0
97.0649	4.3
97.1012	6.2
99.0805	3.9
101.0595	0.5
103.0390	3.5
105.0699	5.0
107.0855	8.8
109.0648	1.9
109.1012	8.3
110.1044	0.7
111.0804	4.8
111.1168	1.3
113.0961	2.7
117.0697	0.9
119.0855	5.7
121.1011	7.1
122.1042	0.5
123.0803	2.3
123.1167	5.8
124.1199	0.6
125.0960	2.6
127.0751	0.8
129.0544	1.2
129.0696	1.0
131.0853	1.2
133.1010	7.0
134.1041	0.7
135.0800	0.5
135.1166	6.8
136.1200	0.6
137.0958	2.1
137.1322	3.2
139.1115	1.5
143.0701	3.2
143.0853	0.8
143.1062	0.6
145.1010	1.6
146.1172	1.6
147.1166	7.6
148.1199	0.9
149.0957	0.7
149.1323	4.2
150.1356	0.7
151.1115	3.6
151.1479	1.7
153.1272	10.2
154.1303	0.9
157.1010	0.9
159.1165	1.1
161.0958	0.8
161.1322	7.2
162.1355	0.9
163.1116	1.1
163.1479	2.1
165.0908	0.5
165.1272	5.3
165.1634	0.7
166.1304	0.6
167.1428	0.8
171.1165	1.7
173.1169	1.8
173.1321	0.8
175.1117	1.1
175.1479	3.1
177.1267	1.0
177.1634	0.9
179.1427	3.6
181.1220	0.7
181.1583	0.5
185.1170	0.7
185.1318	1.2
187.1326	0.6
189.1119	2.1
189.1268	1.2
189.1637	0.9
191.1426	0.6
193.1584	1.5
199.1325	2.8
207.1373	1.5
207.1736	0.6
221.1530	1.5
221.2258	1.1
231.2102	5.8
232.2132	0.8
235.1686	0.8
241.1943	2.4
245.1380	0.8
249.2207	14.2
250.2241	2.2
259.2050	4.8
260.2085	0.8
277.1842	0.7
277.2155	100.0
278.2189	17.2
279.2327	3.0
295.2260	21.8
296.2294	4.0
332.2212	1.6
350.2322	1.2
351.2521	2.2
368.2424	2.7
369.1441	2.3
369.2129	0.5
369.2627	55.4
370.1456	0.6
370.2662	10.9
371.2689	0.8

Name: Diisodecyl Phthalate
PrecursorMZ: 447.34653
RT: 1.0007
ExactMass: 446.33960994
Spectrum_type: 2
charge: 1
Formula: C28H46O4
SMILES: CC(C)CCCCCCCOC(=O)C1=CC=CC=C1C(=O)OCCCCCCCC(C)C
Method: HCD
Collision_energy: [28.333334]
Isolation_window: 4.0
Ion_mode: P
Num Peaks: 28
57.0703	62.6
71.0859	94.7
72.0893	5.0
73.0471	23.0
85.1015	100.0
86.1048	5.2
91.0576	49.3
92.0572	5.6
92.0610	4.7
93.0544	4.5
99.1170	11.3
141.1637	8.7
149.0233	63.1
149.0448	6.8
150.0266	4.4
167.0554	20.1
168.0541	5.4
174.8865	6.3
225.0425	5.6
359.0281	9.8
360.0283	26.7
361.0254	14.1
429.3357	6.0
430.0892	8.6
431.0857	5.3
447.0998	4.7
447.1789	13.9
447.3468	7.0

Name: Diisononyl phthalate
PrecursorMZ: 419.31541
RT: 1.0255
ExactMass: 418.30830982
Spectrum_type: 2
charge: 1
Formula: C26H42O4
SMILES: CC(C)CCCCCCOC(=O)C1=CC=CC=C1C(=O)OCCCCCCC(C)C
Method: HCD
Collision_energy: [28.333334]
Isolation_window: 4.0
Ion_mode: P
Num Peaks: 5
57.0704	39.2
71.0859	89.5
85.1015	58.5
149.0234	100.0
171.1381	35.8

Name: Diisooctyl phthalate
PrecursorMZ: 391.28389
RT: 5.2974
ExactMass: 390.27700969
Spectrum_type: 2
charge: 1
Formula: C24H38O4
SMILES: CC(C)CCCCCOC(=O)C1=CC=CC=C1C(=O)OCCCCCC(C)C
Method: HCD
Collision_energy: [28.333334]
Isolation_window: 4.0
Ion_mode: P
Num Peaks: 17
57.0703	11.8
71.0859	18.7
89.0599	5.1
112.8958	4.5
114.0914	64.1
133.0857	4.6
149.0232	100.0
150.0266	7.9
160.9013	4.8
167.0338	18.1
176.8751	23.1
178.8732	8.2
228.1588	6.0
390.2745	5.1
390.8009	18.7
391.3026	9.6
392.2919	5.3

Name: Dimethachlor OXA
PrecursorMZ: 252.12298
RT: 4.3831
Spectrum_type: 2
charge: 1
SMILES: Cc1cccc(C)c1N(CCOC)C(=O)C(O)=O
Method: HCD
Collision_energy: [28.333334]
Isolation_window: 4.0
Ion_mode: P
Num Peaks: 8
59.0496	9.5
89.0600	31.4
146.0965	49.0
192.1019	28.8
206.1175	100.0
207.1209	12.5
252.1231	27.0
254.1022	8.2

Name: Dimethyl 3-(3,4-dimethoxyphenyl)pentanedioate
PrecursorMZ: 319.11516
RT: 1.4652
ExactMass: 296.12598835
Spectrum_type: 2
charge: 1
Formula: C15H20O6
SMILES: COC1=C(C=C(C=C1)C(CC(=O)OC)CC(=O)OC)OC
Method: HCD
Collision_energy: [28.333334]
Isolation_window: 4.0
Ion_mode: P
Num Peaks: 3
319.1153	100.0
319.1514	15.9
320.1184	16.2

Name: Dimethyl Sulfoxide
PrecursorMZ: 79.02153
RT: 2.6516
ExactMass: 78.01393598
Spectrum_type: 2
charge: 1
Formula: C2H6OS
SMILES: CS(=O)C
Method: HCD
Collision_energy: [28.333334]
Isolation_window: 4.0
Ion_mode: P
Num Peaks: 6
61.0110	25.0
62.0189	6.3
62.9903	3.8
63.9981	67.8
79.0215	100.0
80.0497	30.5

Name: Dimethyl capramide
PrecursorMZ: 200.2005
RT: 1.1498
ExactMass: 199.193614421
Spectrum_type: 2
charge: 1
Formula: C12H25NO
SMILES: CCCCCCCCCC(=O)N(C)C
Method: HCD
Collision_energy: [28.333334]
Isolation_window: 4.0
Ion_mode: P
Num Peaks: 16
57.0702	5.2
69.4007	4.1
69.8200	3.7
88.0757	12.7
97.4570	3.6
102.0913	9.2
130.1225	4.1
146.0596	4.7
170.0808	5.2
198.1846	3.4
199.1304	3.5
200.1428	4.7
200.2002	100.0
201.1380	12.4
201.2037	13.2
202.1221	3.5

Name: Dimethylacetoacetamide
PrecursorMZ: 130.08632
RT: 3.1096
ExactMass: 129.078978594
Spectrum_type: 2
charge: 1
Formula: C6H11NO2
SMILES: CC(=O)CC(=O)N(C)C
Method: HCD
Collision_energy: [28.333334]
Isolation_window: 4.0
Ion_mode: P
Num Peaks: 8
67.0547	15.8
69.0704	16.1
70.0656	16.6
84.0811	18.9
112.0759	20.6
130.0652	10.0
130.0864	100.0
130.1591	32.2

Name: Dimethylformamide
PrecursorMZ: 74.06041
RT: 1.5768888888888888
ExactMass: 73.052763847
Spectrum_type: 2
charge: 1
Formula: C3H7NO
SMILES: CN(C)C=O
Method: HCD
Collision_energy: [28.333334]
Isolation_window: 4.0
Ion_mode: P
Num Peaks: 10
55.0546	4.5
58.0291	7.2
69.1905	4.1
72.0447	6.8
72.0811	59.2
73.0844	5.2
74.0603	100.0
74.0967	10.1
75.0555	9.3
75.0636	3.5

Name: Dimethylhydantoin
PrecursorMZ: 129.06594
RT: 9.1647
ExactMass: 128.058577502
Spectrum_type: 2
charge: 1
Formula: C5H8N2O2
SMILES: CC1(C(=O)NC(=O)N1)C
Method: HCD
Collision_energy: [28.333334]
Isolation_window: 4.0
Ion_mode: P
Num Peaks: 27
56.0499	0.7
57.0703	0.4
70.0656	0.7
74.0968	0.4
82.0655	1.5
83.0555	0.7
83.0607	100.0
83.0654	0.6
83.0853	0.4
84.0447	10.1
84.0578	0.8
84.0641	4.8
84.0811	8.2
85.0481	0.3
85.0846	0.3
100.0759	0.4
112.0759	0.6
127.0727	0.4
128.0707	0.9
128.1071	0.9
129.0659	38.7
129.0737	0.3
130.0499	2.0
130.0649	0.3
130.0692	2.4
130.0863	2.6
130.1591	1.6

Name: Dimetridazole
PrecursorMZ: 142.06112
RT: 1.66885
ExactMass: 141.053826475
Spectrum_type: 2
charge: 1
Formula: C5H7N3O2
SMILES: CC1=NC=C(N1C)[N+](=O)[O-]
Method: HCD
Collision_energy: [28.333334]
Isolation_window: 4.0
Ion_mode: P
Num Peaks: 10
57.0452	39.3
58.0292	3.8
58.0485	0.9
85.0400	0.7
142.0494	0.6
142.0610	100.0
142.0726	0.6
142.0861	0.7
143.0582	1.2
143.0643	5.3

Name: Dimyristoylphosphatidylcholine
PrecursorMZ: 678.50633
RT: 2.139
ExactMass: 677.49955525
Spectrum_type: 2
charge: 1
Formula: C36H72NO8P
SMILES: CCCCCCCCCCCCCC(=O)OC[C@H](COP(=O)([O-])OCC[N+](C)(C)C)OC(=O)CCCCCCCCCCCCC
Method: HCD
Collision_energy: [28.333334]
Isolation_window: 4.0
Ion_mode: P
Num Peaks: 36
55.0547	5.5
56.2773	3.0
56.5012	2.7
57.0703	7.3
67.0546	11.1
69.0703	10.9
71.0859	5.8
79.0545	5.1
81.0702	11.6
82.0654	4.1
83.0858	11.9
93.0701	7.8
95.0858	10.3
97.1014	8.3
97.3993	4.2
107.0857	4.9
109.1013	5.1
111.1170	2.8
121.1013	6.0
135.1168	5.2
155.0702	7.3
242.2474	5.4
264.2683	100.0
265.2717	18.3
266.2475	20.8
267.2506	3.8
488.4823	33.5
489.4857	12.8
490.4960	4.7
506.4929	62.5
507.4963	22.8
508.5084	58.9
660.4955	20.8
661.4996	6.7
679.4002	4.9
679.4629	7.0

Name: Dinoprost
PrecursorMZ: 337.23678
RT: 3.0904
ExactMass: 354.24062418
Spectrum_type: 2
charge: 1
Formula: C20H34O5
SMILES: CCCCC[C@@H](/C=C/[C@H]1[C@@H](C[C@@H]([C@@H]1C/C=C\CCCC(=O)O)O)O)O
Method: HCD
Collision_energy: [28.333334]
Isolation_window: 4.0
Ion_mode: P
Num Peaks: 60
57.0702	20.5
67.0546	19.6
69.0702	31.7
71.0495	16.7
81.0701	88.7
83.0858	22.9
93.0700	50.7
95.0856	98.0
97.0649	13.0
97.1012	25.7
98.0964	13.6
99.0442	85.2
105.0699	40.3
107.0855	71.2
109.0648	14.0
109.1012	53.0
119.0854	42.8
121.1011	65.7
123.0803	20.3
123.1167	32.2
131.0853	18.8
133.1011	67.0
135.1166	63.3
137.0959	14.2
139.0750	21.3
139.1116	14.1
143.1177	34.0
145.1010	42.6
147.1166	46.5
149.0959	13.9
149.1322	15.5
151.1115	13.0
159.1167	37.1
161.1321	30.5
163.1114	16.6
163.1479	19.6
173.1322	23.9
175.1479	14.3
187.1478	37.2
189.1270	13.9
189.1635	75.5
191.1427	30.8
203.1791	23.6
207.1375	18.8
209.1530	22.2
213.1638	14.0
219.1374	33.0
227.1792	13.4
237.1483	21.1
265.1950	14.1
283.2050	20.9
301.1789	19.7
301.2155	100.0
302.2190	26.1
319.2260	62.5
320.2295	13.2
321.3148	12.4
336.1917	13.2
337.2363	38.7
338.3408	61.4

Name: Dinotefuran
PrecursorMZ: 203.11366
RT: 4.945
ExactMass: 202.10659032
Spectrum_type: 2
charge: 1
Formula: C7H14N4O3
SMILES: CN=C(NCC1CCOC1)N[N+](=O)[O-]
Method: HCD
Collision_energy: [28.333334]
Isolation_window: 4.0
Ion_mode: P
Num Peaks: 14
86.0716	1.0
90.0552	3.8
114.0663	100.0
114.0830	0.7
115.0630	0.7
115.0698	4.9
160.0605	1.2
161.0920	6.8
168.0767	0.7
186.0869	1.0
203.1137	13.5
204.1164	0.8
215.1025	3.2
218.1378	0.8

Name: Dioctylamine
PrecursorMZ: 242.28371
RT: 2.5117
ExactMass: 241.276950121
Spectrum_type: 2
charge: 1
Formula: C16H35N
SMILES: CCCCCCCCNCCCCCCCC
Method: HCD
Collision_energy: [28.333334]
Isolation_window: 4.0
Ion_mode: P
Num Peaks: 51
57.0702	15.0
69.1085	3.3
69.1106	4.5
69.4066	5.1
70.0654	4.2
71.0858	19.9
81.0336	5.2
84.0445	17.2
84.0809	9.4
86.0965	21.2
97.4554	3.3
98.0601	4.2
98.0964	8.6
99.0439	3.6
100.0756	13.4
108.0442	3.4
126.1275	12.7
129.0655	3.1
130.0494	3.4
130.1587	10.9
132.1016	15.6
136.0390	6.7
138.0909	3.3
139.9144	13.4
140.0703	6.3
154.0495	14.4
160.0755	18.5
166.0859	19.8
194.0810	3.4
195.1124	3.8
197.1279	13.8
206.0806	6.2
224.0543	3.8
224.0912	5.4
225.1228	3.4
240.2315	34.3
241.0974	3.8
241.1172	8.2
241.1539	4.9
241.2349	56.3
242.1017	10.5
242.1171	3.6
242.2380	4.7
242.2835	100.0
243.0870	3.4
243.1123	38.4
243.1331	6.3
243.1695	9.0
243.2870	17.3
244.0960	6.0
244.1171	3.9

Name: Diosgenin
PrecursorMZ: 415.31944
RT: 1.4578
ExactMass: 414.3133952
Spectrum_type: 2
charge: 1
Formula: C27H42O3
SMILES: C[C@@H]1CC[C@@]2([C@H]([C@H]3[C@@H](O2)C[C@@H]4[C@@]3(CC[C@H]5[C@H]4CC=C6[C@@]5(CC[C@@H](C6)O)C)C)C)OC1
Method: HCD
Collision_energy: [28.333334]
Isolation_window: 4.0
Ion_mode: P
Num Peaks: 93
55.0545	0.8
67.0544	1.9
69.0701	2.1
69.4136	1.1
79.0543	1.4
81.0700	6.1
83.0856	3.0
91.0542	1.3
93.0698	4.1
95.0855	7.1
97.1011	6.0
105.0697	5.7
107.0854	7.9
109.1010	6.3
117.0696	1.1
119.0853	6.0
121.1009	5.5
123.1165	2.9
125.0959	1.4
131.0851	3.4
133.1008	6.3
135.1164	4.3
137.1319	0.8
143.0853	1.6
143.1061	1.3
145.1007	12.4
146.1042	1.3
147.1164	8.2
149.1319	2.1
151.1113	1.6
157.1007	2.9
159.1164	10.7
160.1197	1.3
161.1320	5.1
163.1475	1.0
165.1269	0.9
171.1162	3.6
173.1320	5.8
174.1352	0.9
175.1475	1.8
177.1267	1.0
183.1159	0.9
185.1319	3.2
187.1474	3.0
189.1632	1.2
191.1420	0.8
195.1375	0.9
197.1323	0.9
199.1475	6.5
200.1506	1.0
201.1631	3.5
209.1528	0.9
213.1630	9.8
214.1660	1.5
215.1785	3.4
225.1629	0.8
227.1786	8.1
228.1818	1.3
229.1941	1.2
230.1201	1.4
231.1737	1.0
235.1687	1.3
237.1848	1.0
239.1785	1.6
241.1941	5.9
242.1979	1.0
245.1889	1.0
253.1940	3.0
254.2020	2.7
255.2098	6.6
256.2132	1.5
263.1995	1.4
275.1995	0.9
287.1995	3.7
289.2150	5.0
290.2189	1.2
301.2151	1.9
303.2305	3.5
315.2304	3.4
316.2339	0.9
341.2454	1.0
355.2622	1.1
379.2979	3.5
380.3019	1.1
397.3085	100.0
398.3119	27.7
399.3150	2.9
413.3032	1.0
414.3071	1.6
415.3189	38.0
416.2454	0.9
416.3222	10.8
417.3258	1.1

Name: Diphenylguanidine
PrecursorMZ: 212.11802
RT: 6.073
ExactMass: 211.110947427
Spectrum_type: 2
charge: 1
Formula: C13H13N3
SMILES: C1=CC=C(C=C1)NC(=NC2=CC=CC=C2)N
Method: HCD
Collision_energy: [28.333334]
Isolation_window: 4.0
Ion_mode: P
Num Peaks: 6
94.0652	22.4
119.0602	27.4
195.0912	10.8
210.0791	5.8
212.1177	100.0
213.1214	16.1

Name: Diprotin A
PrecursorMZ: 342.23805
RT: 2.4841
ExactMass: 341.23145648
Spectrum_type: 2
charge: 1
Formula: C17H31N3O4
SMILES: CC[C@H](C)[C@@H](C(=O)N1CCC[C@H]1C(=O)N[C@@H]([C@@H](C)CC)C(=O)O)N
Method: HCD
Collision_energy: [28.333334]
Isolation_window: 4.0
Ion_mode: P
Num Peaks: 18
70.0654	100.0
81.0336	9.9
86.0965	75.1
89.0598	20.5
98.0964	16.4
116.0704	48.8
133.0857	9.9
139.9142	16.9
183.1486	39.0
199.1800	17.2
211.1435	30.3
227.1747	14.3
229.1539	26.4
240.2314	37.7
342.1325	9.7
342.2374	35.2
343.1283	9.9
343.2210	10.7

Name: Diterpene deriv 329
PrecursorMZ: 303.23178
RT: 1.0442
ExactMass: 320.23514488
Spectrum_type: 2
charge: 1
Formula: C20H32O3
SMILES: CC1CCC2(C(C1(C)CCC(C)CC(=O)O)CC(=O)C=C2C)C
Method: HCD
Collision_energy: [28.333334]
Isolation_window: 4.0
Ion_mode: P
Num Peaks: 30
57.0704	12.3
71.0859	17.4
81.0702	22.2
85.1015	8.7
93.0701	14.5
95.0858	27.4
105.0701	13.4
107.0857	18.2
109.1014	15.0
119.0856	19.0
121.1013	36.9
123.1169	15.1
133.1012	16.8
135.1169	17.2
147.1168	12.2
152.0707	8.8
159.1167	11.3
161.1327	17.8
173.1325	8.8
175.1482	9.9
189.1637	30.4
193.1222	11.7
207.1381	9.0
229.1951	33.0
247.1694	9.1
267.2110	9.7
285.2211	16.9
303.2317	100.0
304.2352	19.2
304.2996	11.3

Name: Ditrimethylolpropane
PrecursorMZ: 251.18502
RT: 0.5991
ExactMass: 250.17802393
Spectrum_type: 2
charge: 1
Formula: C12H26O5
SMILES: CCC(CO)(CO)COCC(CC)(CO)CO
Method: HCD
Collision_energy: [28.333334]
Isolation_window: 4.0
Ion_mode: P
Num Peaks: 147
55.0547	0.5
57.0339	0.5
57.0704	13.2
58.0656	0.6
58.0737	1.0
59.0496	5.5
62.0605	1.3
67.0547	1.0
69.0703	3.0
71.0496	0.9
71.0860	1.6
72.0448	1.9
73.0653	4.5
74.0605	1.3
79.0546	0.5
81.0702	2.9
83.0859	8.8
85.0653	1.3
85.1015	0.9
86.0605	0.8
87.0445	3.5
89.0487	0.7
89.0601	100.0
89.0692	0.5
89.0716	0.8
90.0634	4.5
93.0703	1.1
95.0858	3.6
97.0650	1.0
97.1014	2.0
98.9844	64.7
98.9980	0.5
99.0441	0.8
99.0807	1.2
100.9886	0.5
101.0601	1.4
101.0963	13.4
102.0997	0.9
103.0392	1.3
103.0757	0.6
105.0699	0.8
106.0866	1.3
107.0706	4.9
107.0856	2.2
109.0650	0.6
109.1014	3.4
111.0807	1.3
111.1173	0.5
113.0599	1.2
113.0966	0.6
115.0756	4.8
116.0709	0.6
116.9950	0.5
117.0913	1.3
119.0860	1.0
121.1014	2.5
123.0805	1.6
123.1170	1.7
125.0963	1.1
127.0756	0.7
127.1120	0.6
128.0709	0.5
128.1069	0.5
129.0182	1.1
129.0911	1.1
130.0861	0.9
133.0860	30.1
133.1003	1.3
134.0894	1.8
135.0806	0.6
135.1167	1.3
137.0960	1.2
137.1326	0.9
139.0756	0.6
140.0704	0.7
141.0910	0.5
142.1226	0.7
143.1066	0.9
145.1012	0.6
145.1224	14.5
146.1260	1.1
147.1171	1.1
149.1325	1.1
151.0967	2.6
151.1117	0.8
151.1483	0.7
153.0911	1.0
155.1065	0.5
157.1224	0.5
159.1169	0.6
161.1321	1.1
163.1331	1.0
163.1482	1.0
165.1275	0.6
167.1067	0.5
169.0862	0.9
173.1326	0.6
174.9924	3.2
175.1480	0.8
176.9895	1.1
177.1125	6.1
177.1278	0.7
177.1639	0.5
179.1432	0.5
181.1587	0.6
185.0562	0.7
189.1488	1.5
189.1628	0.5
191.1796	0.5
193.1588	0.6
195.1226	11.3
195.1377	2.8
196.1258	0.7
197.0815	0.5
199.1692	0.8
202.2165	0.7
207.1588	1.3
209.1173	0.6
212.2011	0.6
230.2120	2.2
230.2474	1.7
233.1537	0.7
235.1694	0.6
237.1851	0.7
238.1818	0.6
240.1960	0.6
240.2323	0.7
250.1798	0.7
251.1851	28.6
252.1886	3.8
254.1744	1.1
254.2114	1.2
256.1904	0.8
256.2271	0.7
257.1892	1.2
258.2425	1.9
262.1438	1.0
262.1795	0.5
264.1566	0.5
265.1800	0.7
266.1757	0.5
266.2110	0.5
267.1959	0.6
268.1909	1.0
270.2084	0.9
270.2428	0.6
271.1902	0.6

Name: Dl-Phenylalanine
PrecursorMZ: 166.08627
RT: 1.5897
ExactMass: 165.078978594
Spectrum_type: 2
charge: 1
Formula: C9H11NO2
SMILES: C1=CC=C(C=C1)CC(C(=O)O)N
Method: HCD
Collision_energy: [28.333334]
Isolation_window: 4.0
Ion_mode: P
Num Peaks: 27
96.0686	1.2
103.0545	2.0
107.0496	1.6
114.0665	1.2
120.0810	100.0
121.0845	9.2
125.0712	1.6
128.0707	1.4
131.0493	3.9
139.0869	1.3
140.0708	1.1
140.0818	1.7
149.0600	1.1
164.0705	1.1
166.0864	5.9
167.0808	2.9
168.0658	2.2
169.0971	2.2
171.0765	10.1
180.0656	1.4
181.0718	0.9
182.0816	1.7
183.0770	1.0
183.0917	1.3
185.0927	1.2
186.0875	4.5
188.1076	1.0

Name: Dodecylamine
PrecursorMZ: 186.22165
RT: 5.5226
ExactMass: 185.214349865
Spectrum_type: 2
charge: 1
Formula: C12H27N
SMILES: CCCCCCCCCCCCN
Method: HCD
Collision_energy: [28.333334]
Isolation_window: 4.0
Ion_mode: P
Num Peaks: 4
57.0704	43.4
71.0859	28.6
186.1855	18.2
186.2216	100.0

Name: Dodecyldimethylamine oxide
PrecursorMZ: 230.2478
RT: 1.0669
ExactMass: 229.240564612
Spectrum_type: 2
charge: 1
Formula: C14H31NO
SMILES: CCCCCCCCCCCC[N+](C)(C)[O-]
Method: HCD
Collision_energy: [28.333334]
Isolation_window: 4.0
Ion_mode: P
Num Peaks: 49
57.0704	3.8
58.0656	1.3
59.0496	0.3
62.0606	6.3
69.0703	0.3
71.0860	3.0
83.0859	0.4
85.0401	0.3
85.1016	1.4
89.0353	0.3
89.0601	4.7
133.0861	2.1
144.1386	0.3
170.1547	0.3
177.1122	0.3
184.2062	0.4
195.1229	1.6
201.1027	0.3
212.1652	0.4
212.2374	5.4
213.2413	0.8
219.1130	0.6
226.1806	1.2
230.0937	1.7
230.2005	0.7
230.2094	0.5
230.2480	100.0
230.2856	0.7
230.2956	0.7
231.1135	0.4
231.1707	0.3
231.2514	15.9
232.2545	1.5
234.2066	0.7
235.1071	1.3
237.1235	2.1
238.1072	0.7
239.1460	0.4
239.1761	0.3
240.2322	0.6
244.0959	0.4
244.2266	0.5
246.1111	0.4
246.2061	0.6
246.2430	0.9
247.1126	0.3
247.1427	0.8
248.1279	0.5
249.1261	0.8

Name: Dolasetron
PrecursorMZ: 325.15459
RT: 2.3621
ExactMass: 324.1473925
Spectrum_type: 2
charge: 1
Formula: C19H20N2O3
SMILES: C1[C@@H]2CC(C[C@H]3N2CC(=O)C1C3)OC(=O)C4=CNC5=CC=CC=C54
Method: HCD
Collision_energy: [28.333334]
Isolation_window: 4.0
Ion_mode: P
Num Peaks: 22
55.0548	3.1
59.0498	1.0
83.0496	2.5
101.0600	7.8
207.0922	1.8
225.1025	30.2
226.1058	4.7
325.1549	100.0
326.1585	22.5
327.1649	2.8
328.1556	2.2
329.1512	1.8
330.1717	1.0
331.1654	2.5
332.1468	1.8
333.1814	3.1
334.1671	1.3
335.1633	1.0
335.1913	1.0
337.1782	1.1
341.1486	1.8
343.1671	1.2

Name: Dolasetron methanesulfonate
PrecursorMZ: 325.15435
RT: 7.2223
ExactMass: 420.13550766
Spectrum_type: 2
charge: 1
Formula: C20H24N2O6S
SMILES: CS(=O)(=O)O.C1[C@@H]2CC(C[C@H]3N2CC(=O)C1C3)OC(=O)C4=CNC5=CC=CC=C54
Method: HCD
Collision_energy: [28.333334]
Isolation_window: 4.0
Ion_mode: P
Num Peaks: 37
55.0546	4.8
70.0655	1.8
83.0493	2.8
101.0597	12.3
108.0444	1.7
127.0501	1.6
163.0863	1.9
180.1016	4.7
181.0968	25.1
182.1001	2.3
195.1124	1.9
207.0916	2.8
208.0964	15.2
209.1001	2.1
225.1018	32.6
226.1051	4.8
307.1278	3.0
307.1636	2.5
323.1591	5.2
324.1403	1.7
324.1439	3.7
324.1594	1.8
324.1932	5.4
324.2162	4.3
325.1220	1.8
325.1395	4.0
325.1542	100.0
325.1748	13.2
325.2131	1.6
326.1241	3.3
326.1568	20.6
326.1729	2.5
326.1964	1.8
326.3045	1.9
327.1550	2.3
327.1677	2.2
327.1909	4.9

Name: Domoic Acid
PrecursorMZ: 312.14379
RT: 2.4604
ExactMass: 311.13688739
Spectrum_type: 2
charge: 1
Formula: C15H21NO6
SMILES: C[C@H](/C=C/C=C(/C)\[C@H]1CN[C@@H]([C@H]1CC(=O)O)C(=O)O)C(=O)O
Method: HCD
Collision_energy: [28.333334]
Isolation_window: 4.0
Ion_mode: P
Num Peaks: 117
55.0541	1.2
58.0649	0.8
59.0490	0.6
70.0649	2.9
72.0804	1.2
76.0761	1.1
81.0340	1.0
81.0452	0.5
83.0496	2.6
84.0813	1.9
86.0605	1.3
87.0445	0.6
88.0761	8.2
93.0695	0.4
96.0448	0.7
96.0812	0.6
98.0967	0.6
100.0759	0.6
101.0601	8.2
102.0628	0.4
108.0446	0.5
110.0604	0.9
111.0444	2.8
114.0664	0.6
116.0707	0.7
122.0604	1.2
123.0444	1.3
126.0915	1.1
127.0505	1.3
130.0865	1.5
132.0769	0.7
136.0753	1.0
137.0598	0.6
144.1023	1.4
146.0921	0.6
148.0761	0.5
151.0392	5.2
152.0709	0.9
160.0759	0.6
161.1075	5.9
162.0553	0.5
162.0916	0.8
162.1111	0.7
164.0702	0.5
166.0864	1.1
167.0700	0.5
175.1446	1.5
178.0853	0.7
179.1181	3.4
183.1124	0.6
193.0970	0.5
195.1126	0.8
198.1122	1.2
201.0912	0.5
206.0803	0.5
207.1131	37.1
208.1162	4.7
210.0774	0.9
210.1120	1.4
225.1235	7.5
226.1270	0.8
229.0859	0.9
275.1141	0.7
279.1358	1.1
282.1925	0.6
287.1968	1.1
293.1598	0.7
294.1342	1.3
296.1508	0.5
298.1349	0.5
304.1552	3.2
305.1579	0.7
310.1308	1.7
310.1829	0.5
311.1316	0.6
311.1677	4.7
312.0861	1.2
312.1467	5.0
312.1812	1.1
313.1204	0.5
313.1481	0.9
313.1791	2.8
314.1205	0.7
314.1691	3.6
315.1305	1.8
315.1608	0.4
315.1945	2.5
316.1223	3.4
316.1777	1.0
317.1157	1.1
317.1510	0.6
318.1338	6.6
319.1338	3.0
319.1684	0.7
320.1150	1.4
320.1523	3.5
321.1483	3.7
321.1837	0.8
322.1351	2.1
322.1668	19.7
323.1667	5.6
324.1506	4.4
325.0959	0.8
325.1148	1.1
325.1423	2.6
325.1762	100.0
326.1212	1.0
326.1809	18.8
327.1662	3.0
328.1375	2.1
328.1837	2.0
329.1181	2.1
329.1506	1.8
329.1788	1.2
330.1358	1.3
330.2108	0.5
331.1293	2.2

Name: Dopamine
PrecursorMZ: 136.07575
RT: 2.0273
ExactMass: 153.078978594
Spectrum_type: 2
charge: 1
Formula: C8H11NO2
SMILES: C1=CC(=C(C=C1CCN)O)O
Method: HCD
Collision_energy: [28.333334]
Isolation_window: 4.0
Ion_mode: P
Num Peaks: 4
91.0545	99.7
119.0494	59.8
136.0757	85.8
137.0597	100.0

Name: Dowex 50
PrecursorMZ: 162.07617
RT: 9.133
ExactMass: 161.06880783
Spectrum_type: 2
charge: 1
Formula: C6H11NO4
SMILES: COC(=O)CCC(C(=O)O)N
Method: HCD
Collision_energy: [28.333334]
Isolation_window: 4.0
Ion_mode: P
Num Peaks: 16
60.0813	16.6
72.0812	5.8
84.0447	20.6
98.0603	15.4
100.0245	4.9
101.0711	3.2
102.0552	11.1
102.0915	5.1
103.0392	22.8
116.0708	23.5
118.0350	3.3
130.0499	8.3
144.0655	18.7
162.0762	6.0
162.1125	100.0
163.1159	8.0

Name: Dracorhodin perchlorate
PrecursorMZ: 367.0577
RT: 8.3842
ExactMass: 366.0506305
Spectrum_type: 2
charge: 1
Formula: C17H15ClO7
SMILES: CC1=C(C2=C(C=C1O)[O+]=C(C=C2)C3=CC=CC=C3)OC.[O-]Cl(=O)(=O)=O
Method: HCD
Collision_energy: [28.333334]
Isolation_window: 4.0
Ion_mode: P
Num Peaks: 6
365.1336	16.9
367.0578	100.0
367.1152	11.9
368.0605	16.7
368.1470	19.8
369.1295	13.0

Name: Dropropizine
PrecursorMZ: 237.15949
RT: 9.5779
ExactMass: 236.152477885
Spectrum_type: 2
charge: 1
Formula: C13H20N2O2
SMILES: C1CN(CCN1CC(CO)O)C2=CC=CC=C2
Method: HCD
Collision_energy: [28.333334]
Isolation_window: 4.0
Ion_mode: P
Num Peaks: 11
69.2682	3.9
84.0811	4.1
109.0763	4.3
114.0915	7.2
165.1022	6.7
237.1234	5.7
237.1596	100.0
238.1077	4.7
238.1449	5.0
238.1634	13.3
239.1386	5.1

Name: Dubinine
PrecursorMZ: 318.1334
RT: 1.6216
ExactMass: 317.12632271
Spectrum_type: 2
charge: 1
Formula: C17H19NO5
SMILES: CC(=O)OC[C@@](C)(C1CC2=C(C3=CC=CC=C3N=C2O1)OC)O
Method: HCD
Collision_energy: [28.333334]
Isolation_window: 4.0
Ion_mode: P
Num Peaks: 150
55.0548	5.0
58.0657	7.3
70.0656	17.7
72.0813	8.6
74.0606	4.7
81.0339	16.8
83.0495	10.2
84.0812	15.4
86.0968	4.7
87.0445	6.5
95.0494	4.7
95.0606	4.6
96.0447	8.0
96.0811	12.7
98.0966	8.1
100.0759	7.6
101.0600	27.0
105.0702	3.7
108.0447	5.5
108.0810	4.8
109.0764	3.7
110.0603	10.0
110.0716	7.4
111.0443	15.3
111.0557	4.1
112.0760	5.0
114.0551	5.3
114.0666	7.7
116.0709	7.8
118.0864	3.7
120.0811	5.3
121.0651	4.1
122.0814	10.9
124.0760	6.0
126.0916	5.3
130.0864	9.4
134.0600	4.9
135.0915	4.0
136.0761	7.0
138.0550	3.8
146.0937	4.2
148.0763	5.3
150.0920	5.8
152.0710	5.8
156.1023	3.7
160.0758	5.5
162.0912	6.6
164.0703	5.3
164.1071	6.2
166.0865	5.6
168.1022	5.0
176.0710	3.5
178.0850	5.2
180.1012	8.7
182.1178	3.6
188.0696	4.7
189.1022	9.7
190.0858	5.6
192.1006	5.3
193.0972	4.5
195.1130	23.8
196.0968	4.3
200.0705	5.3
200.1292	3.7
202.0858	4.5
203.0955	4.1
204.1016	4.8
205.0982	3.6
206.1183	3.7
207.0641	3.7
207.1125	25.4
208.0972	5.6
209.1285	6.9
210.0789	6.6
210.1110	13.7
217.0965	3.9
219.1132	6.2
220.1107	6.0
225.0758	3.9
225.1219	4.8
231.1139	4.1
232.0965	8.2
233.1290	4.3
236.1034	4.5
257.1296	3.5
275.0902	5.1
295.1092	3.6
299.1403	6.3
300.1262	6.6
301.1559	3.6
303.1401	7.5
305.1496	6.0
307.1674	3.5
309.1810	4.3
315.1335	4.1
316.1203	8.7
316.1575	15.2
317.1177	8.0
317.1517	62.3
317.1872	11.6
318.1358	100.0
318.1770	18.6
319.1345	27.4
319.1672	45.6
319.2030	7.0
320.1130	11.7
320.1534	53.4
320.1952	28.9
321.1504	44.3
321.1827	40.4
322.1290	13.7
322.1686	21.8
323.0997	5.6
323.1624	47.7
323.1988	24.3
324.1452	35.4
324.1867	21.4
325.1190	78.7
325.1773	76.9
326.1232	6.7
326.1759	5.5
326.2047	5.9
327.1355	30.2
327.1927	60.1
328.1214	25.6
328.1611	13.9
328.1935	7.9
329.1184	7.1
329.1511	30.7
329.1872	13.8
330.1355	50.3
330.1781	12.4
330.3361	9.5
331.1333	46.0
331.1678	24.0
332.1123	5.1
332.1488	47.8
333.1471	38.1
333.1834	31.0
334.1295	50.6
334.1703	34.2
335.1302	4.7
335.1635	45.3
335.1996	10.7
336.1458	43.3
336.1881	24.0
336.2187	17.0
337.1482	8.7
337.1792	37.8
337.2159	7.5

Name: EPOXY (4,5alpha)-4,5-DIHYDROSANTONIN
PrecursorMZ: 285.10951
RT: 5.0639
ExactMass: 262.12050905
Spectrum_type: 2
charge: 1
Formula: C15H18O4
SMILES: C[C@H]1[C@@H]2CC[C@]3(C=CC(=O)[C@@]4([C@@]3([C@H]2OC1=O)O4)C)C
Method: HCD
Collision_energy: [28.333334]
Isolation_window: 4.0
Ion_mode: P
Num Peaks: 14
85.0651	15.6
95.0856	12.7
162.8993	12.5
178.8730	11.6
249.1843	20.7
284.2944	14.2
284.3304	27.1
285.0738	14.6
285.1092	100.0
285.1228	12.1
285.1442	13.3
285.1839	23.9
286.1113	12.4
286.1277	17.8

Name: Ebelactone B
PrecursorMZ: 375.25023
RT: 1.1378
ExactMass: 352.26135963
Spectrum_type: 2
charge: 1
Formula: C21H36O4
SMILES: CC[C@H]1[C@@H](OC1=O)[C@@H](C)C/C(=C/[C@@H](C)C(=O)[C@@H](C)[C@@H]([C@H](C)CC)O)/C
Method: HCD
Collision_energy: [28.333334]
Isolation_window: 4.0
Ion_mode: P
Num Peaks: 5
97.3991	5.2
375.2503	100.0
376.1996	6.9
376.2536	19.6
377.2664	10.2

Name: Ecgonine ethyl ester
PrecursorMZ: 214.14353
RT: 5.5074
ExactMass: 213.13649347
Spectrum_type: 2
charge: 1
Formula: C11H19NO3
SMILES: CCOC(=O)[C@@H]1[C@H]2CC[C@H](N2C)C[C@@H]1O
Method: HCD
Collision_energy: [28.333334]
Isolation_window: 4.0
Ion_mode: P
Num Peaks: 93
58.0655	1.0
62.0604	5.0
67.0546	1.2
69.2258	1.2
70.0654	66.9
71.0688	1.5
72.0811	6.0
74.0603	0.8
79.0544	1.7
81.0700	1.8
82.0653	2.1
83.0493	1.0
84.0446	2.1
86.0602	4.1
86.0966	1.4
87.0443	1.2
90.0551	1.0
95.0857	0.7
96.0809	1.2
97.1012	1.3
97.4582	0.7
98.0600	1.6
98.0965	1.2
99.0441	1.1
100.0757	2.6
101.0597	1.0
102.0550	0.7
107.0856	2.7
109.0649	0.7
109.1012	0.8
112.0757	0.9
113.0598	0.8
114.0549	2.4
114.0912	1.3
116.0706	12.7
124.0757	0.8
124.1119	6.0
125.0962	1.3
126.0912	0.9
127.0865	2.4
130.0497	1.0
138.0910	1.5
139.0947	0.9
141.1022	1.1
142.0859	1.2
144.1016	1.5
150.0913	2.7
152.0704	4.6
152.1067	1.5
154.0861	1.5
156.0656	0.7
166.0861	3.3
167.0893	5.6
168.1017	2.0
168.1130	1.7
168.1380	1.8
169.0972	1.1
169.1331	1.6
170.1172	3.3
173.0919	1.0
176.0703	0.8
177.0736	2.2
178.0860	2.8
179.1177	1.1
180.1018	1.0
185.1282	0.8
187.1439	0.9
194.0807	1.1
195.0761	0.9
195.0844	2.7
196.0965	5.4
196.1078	2.2
196.1328	68.6
197.0917	2.1
197.1171	1.7
197.1280	6.6
197.1363	7.6
198.0757	1.4
198.1121	5.7
212.0913	1.1
212.1025	0.8
213.0864	2.6
213.0948	3.5
213.1227	4.5
214.0864	1.0
214.1071	3.6
214.1183	8.2
214.1433	100.0
215.1020	5.8
215.1384	12.2
215.1470	9.1
216.0655	1.2
216.1228	1.5

Name: Echimidine
PrecursorMZ: 398.21704
RT: 8.4794
ExactMass: 397.21005233
Spectrum_type: 2
charge: 1
Formula: C20H31NO7
SMILES: C/C=C(/C)\C(=O)O[C@@H]1CCN2[C@@H]1C(=CC2)COC(=O)[C@@]([C@H](C)O)(C(C)(C)O)O
Method: HCD
Collision_energy: [28.333334]
Isolation_window: 4.0
Ion_mode: P
Num Peaks: 27
55.0547	1.1
83.0494	0.9
101.0599	3.5
114.0915	1.8
194.1176	1.6
206.1176	1.0
220.1335	1.0
222.1125	1.9
223.1201	6.0
224.1232	0.9
236.1278	1.5
237.1359	1.3
238.1440	1.2
250.1437	1.4
280.1544	0.9
282.1333	3.9
298.1647	5.1
299.1683	1.1
306.1696	3.3
337.1883	3.4
338.1951	2.2
397.1963	4.4
398.1618	2.1
398.2170	100.0
399.1785	4.6
399.2203	20.7
400.2235	2.3

Name: Echinenone
PrecursorMZ: 551.42407
RT: 1.0467
ExactMass: 550.417466342
Spectrum_type: 2
charge: 1
Formula: C40H54O
SMILES: CC1=C(C(CCC1)(C)C)/C=C/C(=C/C=C/C(=C/C=C/C=C(\C)/C=C/C=C(\C)/C=C/C2=C(C(=O)CCC2(C)C)C)/C)/C
Method: HCD
Collision_energy: [28.333334]
Isolation_window: 4.0
Ion_mode: P
Num Peaks: 173
55.0546	3.0
57.0703	9.6
60.0448	9.8
61.2697	4.4
67.0546	18.2
69.0702	28.6
69.3382	2.2
69.3416	4.6
71.0858	7.4
79.0545	12.3
81.0701	47.8
82.0734	1.8
83.0858	16.5
85.0650	3.5
85.1014	4.0
91.0544	10.5
93.0700	46.8
94.0733	3.3
95.0856	65.1
96.0890	4.2
97.1012	9.3
97.4562	3.9
97.4584	1.8
105.0699	39.1
106.0733	3.5
107.0855	61.5
108.0889	5.1
109.1012	64.0
110.1045	4.6
111.1167	1.9
117.0698	5.6
119.0855	98.3
120.0889	8.0
121.1011	65.9
122.1044	5.2
123.0803	3.7
123.1167	25.0
129.0698	4.5
131.0854	25.8
133.1010	65.1
134.1043	5.0
135.1166	64.6
136.1199	5.2
137.0959	6.5
137.1322	4.3
139.1115	3.8
142.0776	2.8
143.0853	18.7
144.0934	3.5
145.1010	79.6
146.1042	7.4
147.1166	27.1
148.1200	2.2
149.0960	4.4
149.1323	10.9
151.1480	2.7
155.0853	4.9
156.0933	5.4
157.1010	39.0
158.1037	4.0
158.1093	1.9
159.1016	2.6
159.1167	45.1
160.1193	5.0
161.1323	18.3
163.1114	4.3
163.1480	3.7
169.1009	14.9
170.1089	2.8
171.1166	28.1
172.1191	4.6
173.1323	35.5
174.1351	4.0
175.1479	63.0
176.1513	6.0
181.1011	6.0
182.1090	3.7
183.1166	17.8
184.1199	2.6
185.1322	21.2
186.1360	2.1
187.1478	24.9
188.1512	2.9
189.1632	5.8
193.1008	2.9
193.1585	4.5
194.1087	2.5
195.1166	12.3
196.1250	4.0
197.1322	24.3
198.1342	3.0
199.1478	14.9
201.1634	23.2
202.1665	3.7
203.1427	2.8
205.1582	3.6
207.1163	6.5
208.1243	2.9
209.1321	20.9
210.1343	3.0
211.1478	18.3
212.1520	2.6
213.1634	9.3
215.1792	3.0
217.1583	3.4
219.1738	8.8
221.1320	8.1
223.1478	15.1
225.1633	9.0
227.1789	3.9
233.1322	4.4
235.1476	6.9
236.2368	21.7
237.1634	8.3
237.2404	3.5
239.1789	7.6
241.1946	6.5
242.2474	1.9
247.1475	4.3
249.1633	6.2
251.1789	6.0
252.2680	5.8
253.1946	7.1
255.2106	3.0
257.1895	3.5
259.2051	5.6
261.1631	4.4
263.1789	5.7
264.2681	5.4
265.1946	8.1
267.2102	8.1
270.2785	9.4
271.2049	3.3
275.1790	4.4
277.1948	5.7
279.2103	4.6
283.2052	5.0
284.2945	2.9
285.2206	7.0
289.1945	3.9
291.2104	3.8
303.2099	2.7
310.3104	2.4
313.2734	2.1
319.2412	3.8
329.2265	1.8
331.2417	2.6
333.2568	5.4
337.2518	2.9
343.2410	1.9
345.2570	5.5
349.2521	2.9
397.2876	2.9
398.2959	1.8
411.3048	3.1
429.3140	5.9
458.3529	10.3
459.3587	8.0
490.4608	5.2
495.3617	4.9
532.5083	4.9
533.4134	7.1
534.5236	21.9
535.5266	4.6
550.4156	17.5
550.5159	4.0
550.5552	6.5
551.4235	100.0
551.5018	7.1
552.4270	40.1
552.5354	16.1
553.4309	5.2
553.5375	2.9

Name: Ecklonialactone A
PrecursorMZ: 291.19533
RT: 4.94285
ExactMass: 290.18819469
Spectrum_type: 2
charge: 1
Formula: C18H26O3
SMILES: CC[C@H]1[C@@H]2C[C@H]3[C@@H]([C@H]2/C=C\C/C=C\CCCCC(=O)O1)O3
Method: HCD
Collision_energy: [28.333334]
Isolation_window: 4.0
Ion_mode: P
Num Peaks: 198
55.0183	1.3
55.0547	2.4
57.0339	2.7
67.0547	13.2
69.0339	2.8
69.0703	9.4
71.0496	4.8
71.0859	1.2
79.0546	10.2
81.0339	3.5
81.0702	22.7
82.0735	1.0
83.0495	4.2
83.0859	6.7
85.0651	4.8
86.0603	2.6
91.0545	8.6
93.0701	17.2
95.0494	11.2
95.0606	11.4
95.0858	15.0
97.0650	5.5
97.1014	4.8
97.3986	2.8
99.0443	1.6
99.0807	2.9
100.0760	1.2
101.0600	1.6
105.0701	13.0
107.0493	4.4
107.0857	15.9
108.0810	3.4
108.0890	1.3
109.0650	21.0
109.1014	9.3
111.0443	1.5
111.0806	5.3
113.0599	1.2
114.0915	1.7
116.0708	1.4
117.0700	7.8
119.0857	18.1
120.0891	1.2
121.0649	6.8
121.1013	13.0
122.0602	1.8
123.0806	12.0
123.1169	2.9
125.0962	8.2
126.0915	2.3
127.0754	1.2
129.0700	3.7
131.0856	15.5
132.0889	1.2
133.0648	2.6
133.1012	13.3
135.0805	12.4
135.1169	7.1
136.0837	1.5
137.0597	1.4
137.0961	12.4
138.0550	2.9
138.0913	2.5
139.0753	1.7
139.1117	1.5
143.0856	6.0
145.1012	17.0
146.0811	3.5
146.1046	1.6
147.0805	8.7
147.0916	2.2
147.1169	9.7
149.0962	15.2
149.1071	3.3
149.1326	2.2
150.0551	1.7
150.0913	2.1
150.0994	1.3
151.0755	1.6
151.1118	5.7
152.0706	1.1
153.0909	1.7
155.0857	1.5
156.1021	3.5
157.1013	8.4
159.0805	3.0
159.1169	7.8
160.0506	5.7
161.0962	9.7
161.1326	4.9
162.0997	1.0
163.0754	1.3
163.0865	2.3
163.1119	10.5
163.1228	3.3
164.0708	1.5
164.1152	1.0
165.0910	2.3
165.1274	5.2
166.0864	8.7
167.1068	1.9
168.1020	12.3
169.1012	2.7
171.1168	6.5
173.0962	2.2
173.1325	6.0
175.1119	7.1
175.1481	1.4
176.8756	2.0
177.0910	1.6
177.1274	3.4
179.1066	2.4
181.1223	2.1
183.1168	2.7
185.0960	1.1
185.1325	3.9
187.1119	2.4
187.1481	1.7
189.1121	1.8
189.1273	3.5
191.1066	1.1
191.1431	1.6
193.1222	2.2
195.1167	1.4
197.1326	1.7
199.1118	1.9
199.1479	2.2
201.1276	2.4
201.1641	1.4
203.1426	1.6
205.1223	1.4
209.1325	1.0
211.1481	1.6
213.1273	1.0
213.1635	2.0
216.1233	1.2
217.1224	1.4
217.1587	4.8
219.1380	3.5
219.1742	1.8
221.1533	1.4
223.1328	1.6
227.1795	3.4
229.1584	1.0
229.1949	1.6
230.1177	2.0
231.1492	1.4
231.1743	1.8
233.1537	1.5
237.1639	4.3
239.1795	2.8
242.2476	1.1
244.1332	2.2
245.1901	4.7
246.1238	3.5
247.1186	3.6
247.1693	1.4
247.2058	1.5
249.1482	1.9
251.1644	1.8
255.1743	7.1
256.1779	1.6
257.1899	5.2
263.2006	2.4
271.1702	2.1
272.1275	5.1
272.1730	2.2
272.1859	2.5
273.1848	35.7
274.1074	1.5
274.1884	6.7
275.1638	1.7
275.2006	25.0
289.1796	6.5
289.2158	2.4
290.1015	4.8
290.1379	3.3
290.1519	1.9
290.1575	1.5
290.1838	5.4
290.2691	4.8
291.1090	1.9
291.1328	4.8
291.1590	1.4
291.1704	2.6
291.1953	100.0
291.2286	2.1
291.2438	2.7
292.1162	5.8
292.1299	7.8
292.1543	1.0
292.1662	9.2
292.1992	18.2
293.1139	1.3
293.1493	4.0
293.1747	1.9
293.1868	1.8
293.2111	33.7

Name: Ectoine
PrecursorMZ: 143.08143
RT: 8.665088888888889
ExactMass: 142.074227566
Spectrum_type: 2
charge: 1
Formula: C6H10N2O2
SMILES: CC1=NCC[C@H](N1)C(=O)O
Method: HCD
Collision_energy: [28.333334]
Isolation_window: 4.0
Ion_mode: P
Num Peaks: 13
58.0656	4.4
59.0734	2.3
68.0498	4.0
84.0810	14.8
97.0761	62.9
98.0794	4.0
98.0965	3.8
101.0710	7.7
121.9661	19.1
143.0814	100.0
143.1541	2.1
144.0848	8.1
144.1017	59.5

Name: Einecs 234-260-3
PrecursorMZ: 380.16612
RT: 6.6326
ExactMass: 379.15907938
Spectrum_type: 2
charge: 1
Formula: C14H25N3O9
SMILES: C[C@@H]1[C@H](C[C@@H]([C@H](O1)OC2[C@@H]([C@H](C([C@@H]([C@@H]2O)O)O)O)O)N)N=C(C(=O)O)N
Method: HCD
Collision_energy: [28.333334]
Isolation_window: 4.0
Ion_mode: P
Num Peaks: 17
57.0339	36.5
70.0655	17.1
71.0494	26.4
83.0494	14.7
84.0810	18.8
98.9843	84.7
101.0597	35.0
119.0701	14.7
126.0912	23.7
166.0532	12.9
217.0468	100.0
335.1094	64.5
361.1060	19.9
379.1687	20.5
380.1329	17.5
380.1833	16.4
382.1495	17.2

Name: Eltoprazine
PrecursorMZ: 221.12832
RT: 4.3996
ExactMass: 220.121177757
Spectrum_type: 2
charge: 1
Formula: C12H16N2O2
SMILES: C1CN(CCN1)C2=C3C(=CC=C2)OCCO3
Method: HCD
Collision_energy: [28.333334]
Isolation_window: 4.0
Ion_mode: P
Num Peaks: 96
58.0656	12.5
59.0497	1.9
60.0813	5.7
70.0656	4.2
79.0546	3.5
83.0496	3.5
84.0811	5.4
86.0604	23.8
87.0444	2.0
89.0601	3.3
91.0543	1.6
93.0701	14.2
95.0609	1.4
96.9954	10.6
99.0917	2.7
100.0761	1.7
100.1123	1.9
101.0599	21.0
104.0708	7.8
108.0446	5.6
108.0810	2.7
109.0768	1.4
110.0604	2.6
110.0716	1.5
116.0709	1.9
119.0492	3.4
121.0649	11.5
123.0556	3.7
123.0919	4.8
125.0710	2.3
126.0551	16.3
127.0585	1.5
130.0864	4.9
132.0473	3.1
133.0856	1.9
134.0601	2.9
135.0108	2.8
135.0915	2.8
136.0423	2.5
138.0913	3.6
139.0862	2.2
149.1074	9.4
150.0580	3.7
163.0391	1.5
164.0732	1.8
165.0547	25.7
166.0587	2.1
168.0688	2.5
170.1176	2.6
175.0864	2.9
178.1224	2.7
180.1037	1.5
208.0967	10.2
210.0792	3.2
219.1125	1.4
220.1183	2.0
221.1283	100.0
222.1124	75.4
222.1318	11.7
222.1492	1.6
223.1149	9.8
223.1438	13.2
224.0964	6.1
224.1273	70.2
225.1276	14.7
225.1601	3.5
225.1947	2.4
226.1074	36.5
226.1560	11.9
227.1110	4.1
227.1390	1.5
227.1762	2.2
228.0874	14.7
228.1749	2.2
229.0920	2.0
229.1672	6.3
230.1746	5.2
230.2486	2.3
232.1076	4.6
233.1039	2.2
233.1284	2.5
234.1089	1.8
235.1080	1.6
236.1266	6.0
237.1232	84.4
237.1619	1.7
238.1066	2.4
238.1254	6.8
238.1445	19.2
239.1048	2.4
239.1402	19.3
240.1200	1.5
240.1611	2.3
241.1199	2.0
241.1534	8.2
242.1205	2.4

Name: Embelin
PrecursorMZ: 339.15459
RT: 8.1066
ExactMass: 294.18310931
Spectrum_type: 2
charge: 1
Formula: C17H26O4
SMILES: CCCCCCCCCCCC1=C(C(=O)C=C(C1=O)O)O
Method: HCD
Collision_energy: [28.333334]
Isolation_window: 4.0
Ion_mode: P
Num Peaks: 24
55.0547	6.0
83.0494	2.3
100.0757	3.4
101.0598	12.1
140.0340	4.7
149.0708	12.1
193.0970	3.6
210.0756	2.1
211.1073	2.1
221.0917	3.7
239.1022	100.0
240.1057	9.8
337.1382	4.8
337.1756	2.8
338.1368	5.4
338.1708	3.3
338.3412	5.3
339.1355	2.9
339.1541	72.1
339.1909	6.1
340.1390	3.9
340.1563	12.0
340.1860	3.4
341.1679	5.2

Name: Emodin
PrecursorMZ: 288.08648
RT: 3.05835
ExactMass: 270.05282342
Spectrum_type: 2
charge: 1
Formula: C15H10O5
SMILES: CC1=CC2=C(C(=C1)O)C(=O)C3=C(C2=O)C=C(C=C3O)O
Method: HCD
Collision_energy: [28.333334]
Isolation_window: 4.0
Ion_mode: P
Num Peaks: 27
70.0655	2.1
108.0447	11.9
122.0603	5.2
122.0814	1.9
123.0442	10.4
126.0553	3.2
168.0687	2.5
209.1289	2.4
224.0708	2.0
242.0818	4.4
244.0970	90.6
245.1002	14.4
252.0654	2.3
270.0763	75.5
271.0796	12.2
286.1280	6.1
287.0792	3.2
288.0868	100.0
288.1447	2.9
289.0904	16.2
290.0923	2.4
296.1186	2.5
298.1277	4.2
299.1599	4.6
300.1697	4.7
302.1291	2.0
302.1836	4.1

Name: Emtricitabine
PrecursorMZ: 248.04948
RT: 3.7561
ExactMass: 247.04269053
Spectrum_type: 2
charge: 1
Formula: C8H10FN3O3S
SMILES: C1[C@H](O[C@H](S1)CO)N2C=C(C(=NC2=O)N)F
Method: HCD
Collision_energy: [28.333334]
Isolation_window: 4.0
Ion_mode: P
Num Peaks: 8
73.0110	0.8
101.0057	1.8
130.0310	0.7
130.0410	100.0
130.0512	0.7
131.0381	1.1
131.0443	4.3
249.1570	3.4

Name: Emtricitabine sulfoxide
PrecursorMZ: 264.04455
RT: 5.527725
ExactMass: 263.03760514
Spectrum_type: 2
charge: 1
Formula: C8H10FN3O4S
SMILES: C1[C@H](O[C@H](S1=O)CO)N2C=C(C(=NC2=O)N)F
Method: HCD
Collision_energy: [28.333334]
Isolation_window: 4.0
Ion_mode: P
Num Peaks: 47
69.8137	0.6
70.0655	1.7
81.0337	1.0
115.0212	0.5
116.0706	5.0
120.0807	4.0
130.0310	0.6
130.0331	0.5
130.0410	100.0
130.0490	0.5
130.0511	0.5
131.0381	1.0
131.0443	4.1
132.0807	0.6
136.0756	1.3
144.0806	1.4
144.1016	0.9
156.0567	0.7
159.0915	1.6
162.0219	0.6
166.0719	0.7
170.0596	0.6
172.0514	1.9
194.0492	0.6
203.0811	0.6
209.1168	0.6
218.0669	0.8
218.0807	0.5
219.1126	0.6
232.0773	0.5
245.0917	1.6
245.1278	1.7
246.0340	2.0
262.1065	1.6
262.1182	1.2
263.0953	18.5
263.1383	3.8
264.0443	1.6
264.0724	1.9
264.0856	1.1
264.0981	2.7
264.1214	3.7
265.0917	0.8
265.1166	3.0
265.1535	0.7
266.1030	1.9
266.1377	0.8

Name: Enalaprilat
PrecursorMZ: 349.17523
RT: 8.3572
ExactMass: 348.16852187
Spectrum_type: 2
charge: 1
Formula: C18H24N2O5
SMILES: C[C@@H](C(=O)N1CCC[C@H]1C(=O)O)N[C@@H](CCC2=CC=CC=C2)C(=O)O
Method: HCD
Collision_energy: [28.333334]
Isolation_window: 4.0
Ion_mode: P
Num Peaks: 83
55.0546	0.8
59.0495	0.5
70.0654	0.8
81.0337	0.5
83.0493	1.3
84.0445	0.4
84.0810	0.7
85.0286	0.4
87.0442	0.4
97.0285	3.9
98.0602	0.4
100.0758	1.1
101.0598	4.9
111.0441	0.4
112.0758	0.6
116.0706	0.5
126.0549	0.5
126.0913	0.5
128.0702	0.5
130.0862	0.5
136.0507	0.4
136.0616	59.4
136.0724	0.4
137.0587	1.1
137.0649	3.4
138.0548	0.5
140.0704	0.4
148.0755	0.5
149.0707	1.7
152.0703	0.5
154.0860	0.4
166.0860	1.3
168.0655	0.5
170.0808	0.4
182.0811	0.4
193.0968	1.8
194.0808	0.4
194.1047	3.7
196.0966	0.5
204.0863	0.3
208.0965	1.0
216.1225	0.5
224.0911	0.4
225.1229	1.6
230.1012	0.4
231.1123	3.2
232.1164	0.5
233.1281	1.2
248.1386	1.2
249.1128	0.4
249.1228	23.6
250.1267	2.9
251.1389	0.6
258.1083	0.4
286.1395	0.6
288.1800	0.5
295.0958	0.6
318.1805	2.4
330.1179	0.4
330.1803	1.1
331.1481	0.4
332.1334	0.8
347.1669	2.3
347.1971	0.8
348.0697	9.5
348.1265	0.8
348.1425	1.6
348.1713	1.4
348.1921	4.2
349.0738	1.5
349.1303	0.6
349.1399	1.7
349.1750	100.0
349.2191	0.5
350.1238	0.4
350.1427	1.8
350.1466	2.4
350.1782	19.4
350.2061	3.5
351.1194	0.4
351.1517	1.1
351.1546	1.1
351.1918	7.0

Name: Enclomiphene
PrecursorMZ: 406.19273
RT: 11.8008
ExactMass: 405.1859422
Spectrum_type: 2
charge: 1
Formula: C26H28ClNO
SMILES: CCN(CC)CCOC1=CC=C(C=C1)/C(=C(\C2=CC=CC=C2)/Cl)/C3=CC=CC=C3
Method: HCD
Collision_energy: [28.333334]
Isolation_window: 4.0
Ion_mode: P
Num Peaks: 10
176.8752	17.0
185.0922	11.7
244.1403	11.5
358.1731	11.2
405.1877	15.6
406.1940	100.0
407.1993	20.2
408.1913	8.6
415.1373	10.0
417.1916	10.4

Name: Endolide F
PrecursorMZ: 485.23881
RT: 2.843
ExactMass: 484.23218475
Spectrum_type: 2
charge: 1
Formula: C25H32N4O6
SMILES: CC(C)[C@H]1C(=O)N([C@@H](C(=O)N[C@H](C(=O)N2CCC[C@H]2C(=O)N1)CC3=COC=C3)CC4=COC=C4)C
Method: HCD
Collision_energy: [28.333334]
Isolation_window: 4.0
Ion_mode: P
Num Peaks: 75
53.9164	4.3
70.0656	12.1
72.0812	7.3
81.0340	4.8
84.0811	8.9
85.0286	3.3
86.0603	4.1
86.0967	9.2
95.0608	2.9
110.0604	8.2
110.0716	17.5
116.0708	5.8
124.0759	12.5
126.0915	4.5
136.0757	3.7
138.0914	32.1
148.0762	4.9
152.0713	3.1
154.0869	3.4
156.0768	12.1
164.0706	13.0
164.1073	3.5
166.0864	4.1
167.0814	20.8
180.1031	3.0
181.0967	5.6
182.0812	14.4
184.0732	3.6
192.1016	5.7
194.1038	10.2
194.1192	3.0
195.1128	9.9
257.1278	9.1
260.1403	4.2
271.1074	3.3
275.1399	8.3
284.1409	2.8
285.1205	3.4
287.1394	3.3
288.1343	13.8
293.1513	4.4
294.1461	3.8
303.1331	10.2
315.1361	3.1
318.1832	3.4
319.1563	9.6
330.1443	5.3
331.1272	5.7
332.1614	10.4
337.1396	4.7
343.1557	3.3
344.1625	24.7
345.1492	3.1
345.1727	3.4
346.1374	8.8
347.1480	17.9
348.1551	53.4
349.1620	10.2
360.1554	6.1
438.2968	7.2
467.2314	6.6
468.2198	3.1
469.2449	3.3
484.3047	47.8
485.2390	100.0
485.3056	9.8
486.2425	28.4
487.2563	26.5
488.2586	7.7
490.2190	2.9
497.2427	5.6
498.2301	4.2
500.1974	9.2
501.2377	40.5
502.2425	4.8

Name: Ent-kauran-17,19-dioic acid
PrecursorMZ: 335.22157
RT: 0.5775
ExactMass: 334.21440943
Spectrum_type: 2
charge: 1
Formula: C20H30O4
SMILES: CC12CCCC(C1CCC34C2CCC(C3)C(C4)C(=O)O)(C)C(=O)O
Method: HCD
Collision_energy: [28.333334]
Isolation_window: 4.0
Ion_mode: P
Num Peaks: 412
55.0180	0.3
55.0547	6.7
56.0581	0.4
57.0339	0.5
57.0704	1.3
59.0496	0.7
67.0547	1.7
69.0340	0.9
69.0703	3.2
70.0656	0.5
71.0496	1.6
71.0859	0.6
72.0812	1.0
79.0545	1.2
81.0339	1.1
81.0703	5.0
82.0736	0.3
83.0495	3.5
83.0859	32.0
83.0962	0.2
84.0529	0.2
84.0811	0.2
84.0892	2.1
85.0288	0.5
85.0652	2.4
85.1015	0.3
86.0604	0.2
86.0968	2.9
87.0444	0.6
89.0602	0.5
91.0543	0.9
93.0702	5.2
94.0654	0.2
94.0733	0.4
95.0494	1.7
95.0858	5.2
96.0892	0.4
97.0650	1.8
97.1014	0.8
98.0603	0.3
98.0968	0.2
99.0443	1.8
99.0807	1.2
101.0600	1.2
105.0701	2.6
106.0736	0.2
107.0495	0.7
107.0857	4.3
108.0892	0.4
109.0650	2.6
109.1014	3.5
110.1047	0.3
111.0442	0.8
111.0807	2.3
111.1171	0.3
112.0760	1.6
113.0599	1.8
113.0962	0.5
114.0553	0.5
115.0390	0.4
115.0757	0.6
116.0707	1.5
117.0697	0.6
119.0495	0.2
119.0857	3.3
120.0809	0.3
120.0892	0.2
121.0651	1.5
121.1014	4.0
122.1049	0.4
123.0444	0.4
123.0807	2.3
123.1170	2.1
124.0759	1.1
124.1207	0.2
125.0601	0.8
125.0964	1.4
126.0478	0.3
126.0553	0.4
126.0664	0.3
126.0720	0.6
126.0765	0.6
126.0915	100.0
126.1070	0.4
126.1109	0.6
126.1405	0.3
127.0392	0.3
127.0755	1.2
127.0948	7.3
127.1119	0.6
128.0706	0.5
128.0970	0.3
129.0549	0.6
129.0699	0.4
129.0909	0.3
131.0856	1.8
132.0445	0.4
132.1018	0.4
133.0645	0.5
133.0859	0.2
133.1012	3.6
134.1050	0.4
135.0442	0.4
135.0804	1.7
135.1169	2.3
136.0758	0.2
137.0600	0.8
137.0961	1.8
137.1325	0.6
138.0551	0.6
138.0906	0.3
139.0392	0.2
139.0755	0.9
139.1115	0.9
140.0696	0.3
140.1065	0.4
141.0547	0.4
141.0912	0.7
143.0857	0.9
143.1068	0.2
145.0645	0.3
145.1012	3.5
146.1049	0.3
147.0806	1.2
147.1169	2.6
149.0600	0.4
149.0961	2.5
149.1325	1.2
150.0913	0.3
150.1002	0.2
151.0757	1.0
151.0968	0.3
151.1119	1.4
152.0699	0.3
152.1056	0.3
153.0553	0.4
153.0911	0.8
153.1273	0.4
155.0706	0.7
155.0858	0.4
155.1070	0.4
157.1012	1.6
158.1049	0.2
159.0806	0.7
159.1169	3.0
160.1210	0.3
161.0596	0.3
161.0963	1.3
161.1326	1.6
163.0754	0.6
163.1118	1.6
163.1487	0.4
164.0704	1.0
165.0548	0.2
165.0909	1.1
165.1277	0.6
166.0857	0.6
166.1211	0.3
167.0332	0.4
167.0704	0.3
167.1063	0.9
169.0861	0.4
169.1012	0.5
169.1225	0.3
171.0805	0.2
171.1166	1.3
173.0963	0.9
173.1325	2.0
174.1362	0.2
175.0757	0.8
175.1118	1.7
175.1479	1.0
177.0550	0.2
177.0908	1.0
177.1271	0.9
177.1630	0.3
178.0867	0.2
178.1218	0.6
179.0710	0.4
179.1066	0.9
179.1424	0.3
180.1015	0.7
180.1373	0.4
181.0858	0.4
181.1019	0.2
181.1218	0.5
182.1176	2.1
183.1015	0.3
183.1177	0.7
185.0965	0.4
185.1325	1.4
187.0755	0.2
187.1117	0.8
187.1481	1.0
189.0904	0.5
189.1272	1.2
189.1640	0.5
190.0868	0.2
191.0695	0.4
191.1064	0.8
191.1432	0.6
192.0996	0.2
192.1378	0.9
193.0858	0.5
193.1217	0.9
194.1174	3.1
195.1013	0.4
195.1205	0.6
195.1389	0.2
196.0968	4.6
196.1341	0.6
197.0805	0.2
197.0985	0.4
197.1171	0.2
197.1325	0.7
199.1120	0.7
199.1484	0.8
201.0904	0.4
201.1276	0.8
201.1638	0.6
203.0701	0.3
203.1069	0.8
203.1431	0.8
203.1796	0.2
205.0862	0.3
205.1218	1.4
205.1589	0.4
206.1530	0.3
207.1140	0.5
207.1383	1.0
208.1351	0.3
209.0444	1.8
209.1320	0.6
209.1537	0.2
210.0478	0.2
210.1126	1.3
210.1492	0.2
211.0600	0.4
211.1152	0.3
211.1488	0.5
212.1281	7.6
213.0915	0.2
213.1345	2.6
213.1642	0.8
214.1367	0.2
215.1073	0.4
215.1436	0.6
215.1791	0.4
217.0876	0.3
217.1220	1.0
217.1575	0.4
219.1015	0.4
219.1368	0.8
220.1331	0.5
221.1143	0.6
221.1539	0.3
222.1120	0.3
223.0943	0.2
223.1329	0.3
223.1482	0.3
224.1283	0.2
225.1299	0.3
225.1661	0.3
227.1073	0.3
227.1431	0.4
227.1789	0.3
228.1234	1.4
229.0858	0.3
229.1226	0.7
229.1582	0.4
231.1009	0.3
231.1375	0.5
231.1740	0.4
233.0810	0.2
233.1154	0.3
233.1532	0.6
234.1509	0.2
235.1302	0.5
236.1277	0.5
237.1482	0.2
237.1634	0.2
239.1453	0.3
239.1797	0.2
241.1592	0.3
241.1962	0.2
243.1005	0.3
243.1377	0.4
243.1739	0.2
245.1165	0.8
245.1550	0.3
247.1310	0.4
247.1686	0.3
249.1452	0.2
249.1843	0.3
251.1791	0.2
255.1004	0.3
255.1752	0.3
257.1196	0.3
257.1241	0.3
257.1544	0.3
259.0962	0.3
259.1311	0.3
259.1698	0.4
260.1296	0.2
261.1124	0.3
261.1470	0.4
261.1855	0.2
262.1435	0.4
263.1278	0.6
265.1053	0.4
269.1540	0.2
269.1896	0.6
271.1332	0.5
271.1694	0.4
273.1137	0.3
273.1845	0.3
275.1278	0.3
275.1655	0.2
275.2010	0.3
277.1455	0.3
281.1899	0.2
283.1186	0.5
283.1692	0.2
283.2014	0.3
285.1229	0.3
285.1847	0.3
287.1291	0.2
287.1649	0.3
287.2000	2.3
288.2040	0.6
289.1459	0.4
289.1798	0.4
289.2154	0.4
291.1235	0.2
291.1967	0.3
295.2018	0.3
297.1848	0.6
298.1876	0.3
299.1648	0.3
299.2004	0.9
300.2017	0.2
301.1800	0.4
301.2163	0.9
302.2167	0.2
303.1610	0.2
303.1958	0.3
303.2314	0.3
305.1770	0.3
305.2118	0.3
307.1958	0.3
309.2166	0.2
315.1595	0.3
315.1952	2.3
315.2315	0.2
316.1964	1.1
317.1467	0.3
317.1771	0.2
317.2103	1.4
318.2101	0.4
319.1922	0.2
319.2267	1.0
320.2273	0.3
321.2067	0.3
322.1646	0.3
327.1950	0.3
327.2313	0.6
329.1748	0.6
330.2113	0.3
331.1899	0.4
332.1888	0.2
333.1704	0.6
333.2060	1.3
333.2418	0.2
334.1689	0.3
334.2060	0.6
335.1547	0.4
335.1893	0.4
335.2239	1.4
336.2239	0.4
337.2043	0.3
337.2376	0.6
338.1615	0.3
340.0895	0.2
340.1753	35.6
340.2603	0.3
341.1777	6.9
342.1781	1.1
343.1892	0.5
343.2267	0.6
344.1884	0.4
345.1696	0.7
345.2052	1.2
345.2428	1.4
346.1280	0.3
346.2044	0.5
346.2443	0.4
346.3314	0.3
347.1855	1.3
347.2208	0.3
347.2574	0.4
348.1863	0.4
348.2182	0.3
349.2058	0.5
350.1982	0.4
350.2340	0.2
351.1812	0.7
351.2210	0.7
352.1766	0.4
352.2232	0.3
352.3052	0.4
353.2465	0.3
354.1905	0.9

Name: Enterodiol
PrecursorMZ: 285.14817
RT: 3.9936
ExactMass: 302.15180918
Spectrum_type: 2
charge: 1
Formula: C18H22O4
SMILES: C1=CC(=CC(=C1)O)C[C@@H](CO)[C@@H](CC2=CC(=CC=C2)O)CO
Method: HCD
Collision_energy: [28.333334]
Isolation_window: 4.0
Ion_mode: P
Num Peaks: 8
107.0493	8.8
121.0648	9.6
133.0647	100.0
147.0804	33.5
173.0960	31.5
191.1064	14.6
239.1063	27.2
267.1379	12.8

Name: Enterolactone
PrecursorMZ: 281.11694
RT: 5.0555
ExactMass: 298.12050905
Spectrum_type: 2
charge: 1
Formula: C18H18O4
SMILES: C1[C@H]([C@@H](C(=O)O1)CC2=CC(=CC=C2)O)CC3=CC(=CC=C3)O
Method: HCD
Collision_energy: [28.333334]
Isolation_window: 4.0
Ion_mode: P
Num Peaks: 38
81.0701	0.8
95.0856	0.7
105.0700	0.7
107.0492	54.4
108.0525	3.7
121.0283	0.8
121.0648	0.7
131.0491	0.8
133.0646	19.1
134.0680	1.7
145.0646	9.4
146.0678	0.7
159.0803	2.4
161.0596	11.7
162.0627	1.2
175.0751	1.1
187.0751	19.8
188.0785	2.3
221.0961	1.3
235.1115	1.9
239.1062	7.6
240.1094	1.3
245.0956	0.8
253.1219	1.0
262.1065	0.7
263.1061	22.4
263.1633	0.6
264.1097	4.1
279.1007	0.8
280.0949	0.8
280.1170	2.0
281.0833	0.7
281.1166	100.0
281.1494	0.9
281.1743	0.7
282.1200	18.8
282.1310	0.9
282.2793	0.6

Name: Ephedrine
PrecursorMZ: 166.12272
RT: 3.7543
ExactMass: 165.115364102
Spectrum_type: 2
charge: 1
Formula: C10H15NO
SMILES: C[C@@H]([C@@H](C1=CC=CC=C1)O)NC
Method: HCD
Collision_energy: [28.333334]
Isolation_window: 4.0
Ion_mode: P
Num Peaks: 15
72.0813	4.8
107.0730	1.8
108.0814	1.0
121.0890	2.0
125.1076	1.6
133.5845	1.3
148.1122	2.2
164.1075	1.3
166.0936	0.8
166.1230	100.0
167.1270	10.9
168.0693	1.2
178.1229	2.3
180.0820	1.1
180.1050	4.9

Name: Epiandrosterone
PrecursorMZ: 291.23168
RT: 0.86165
ExactMass: 290.224580195
Spectrum_type: 2
charge: 1
Formula: C19H30O2
SMILES: C[C@]12CC[C@@H](C[C@@H]1CC[C@@H]3[C@@H]2CC[C@]4([C@H]3CCC4=O)C)O
Method: HCD
Collision_energy: [28.333334]
Isolation_window: 4.0
Ion_mode: P
Num Peaks: 13
67.0547	21.1
79.0545	19.0
81.0702	35.3
93.0701	43.5
95.0857	31.1
107.0857	39.2
109.1013	22.3
121.1012	44.2
133.1012	14.9
135.1168	54.2
149.1324	30.2
291.2313	100.0
292.2350	25.6

Name: Epicatechin
PrecursorMZ: 313.07041
RT: 1.7029
ExactMass: 290.07903816
Spectrum_type: 2
charge: 1
Formula: C15H14O6
SMILES: C1[C@H]([C@H](OC2=CC(=CC(=C21)O)O)C3=CC(=C(C=C3)O)O)O
Method: HCD
Collision_energy: [28.333334]
Isolation_window: 4.0
Ion_mode: P
Num Peaks: 21
70.0656	7.2
137.0234	29.8
181.0974	14.6
225.0546	11.3
243.0653	56.1
244.0682	9.0
271.0607	8.7
280.0608	6.6
308.0558	17.2
310.1283	9.1
311.0553	14.6
312.0562	10.3
313.0707	100.0
314.0736	18.2
315.0839	8.2
322.1510	11.4
324.1479	7.1
328.0815	9.5
328.1389	35.8
329.1421	6.5
330.3367	6.5

Name: Epiequisetin
PrecursorMZ: 374.2317
RT: 2.4201
ExactMass: 373.22530847
Spectrum_type: 2
charge: 1
Formula: C22H31NO4
SMILES: C/C=C/[C@@H]1C=C[C@@H]2C[C@@H](CC[C@H]2[C@]1(C)/C(=C\3/C(=O)[C@H](N(C3=O)C)CO)/O)C
Method: HCD
Collision_energy: [28.333334]
Isolation_window: 4.0
Ion_mode: P
Num Peaks: 4
356.2208	7.2
374.2317	100.0
375.2350	21.9
376.2477	17.8

Name: Epigallocatechin
PrecursorMZ: 307.08069
RT: 0.6018
ExactMass: 306.07395278
Spectrum_type: 2
charge: 1
Formula: C15H14O7
SMILES: C1[C@H]([C@H](OC2=CC(=CC(=C21)O)O)C3=CC(=C(C(=C3)O)O)O)O
Method: HCD
Collision_energy: [28.333334]
Isolation_window: 4.0
Ion_mode: P
Num Peaks: 142
57.0703	2.6
58.0656	3.0
59.0496	2.5
59.0608	1.1
67.0547	2.1
69.0703	2.6
70.0655	1.4
71.0495	1.3
71.0860	1.6
72.0811	1.8
74.0604	3.2
79.0546	1.3
81.0338	3.1
81.0702	3.0
83.0858	2.0
84.0811	2.9
85.0651	3.7
86.0603	1.1
86.0967	11.0
88.0761	2.3
89.0601	1.7
91.0544	1.9
93.0702	1.7
95.0494	1.1
95.0858	2.7
96.0444	1.4
97.0651	2.3
97.1014	1.5
98.0602	1.4
99.0443	2.7
99.0807	1.3
100.0394	1.3
100.0758	1.2
101.0599	1.5
105.0700	1.2
106.0653	3.0
107.0490	1.3
107.0856	2.1
109.0285	5.1
109.0648	1.6
109.1013	3.3
111.0444	2.1
111.0806	1.1
113.0599	2.6
115.0391	15.6
116.0709	2.3
118.0864	1.9
119.0855	1.6
121.0652	1.9
121.1013	2.3
122.0813	2.1
123.0803	2.5
123.1168	1.7
124.0758	9.1
125.0962	1.4
127.0390	28.3
127.0754	1.7
128.0422	1.9
132.0444	2.0
132.1019	5.4
133.1018	1.2
135.1165	1.2
136.0757	4.5
137.0598	5.4
137.0961	1.4
138.0545	1.5
138.0912	4.6
139.0390	23.4
140.0428	1.4
146.1174	1.1
147.0805	1.4
148.0754	1.3
149.0597	2.2
149.0967	1.4
150.0548	1.5
150.0913	4.2
151.0389	5.5
152.0706	1.6
153.0554	1.4
156.1021	2.1
159.1168	1.2
163.0866	1.7
164.0705	3.2
164.1069	2.5
165.0552	1.2
165.0909	6.8
174.0913	1.1
176.1067	2.4
177.0547	1.4
178.0861	3.0
179.0338	2.8
180.0407	1.3
181.0495	92.4
182.0528	9.6
190.0862	1.5
191.0335	1.5
192.1016	2.3
193.0494	15.1
194.0531	1.6
196.0967	8.6
219.0647	2.3
229.1336	3.5
233.1292	1.8
243.1126	1.7
245.1286	5.4
247.0597	2.8
255.1135	2.8
257.1282	21.3
258.1335	3.3
263.0922	1.4
265.0705	52.9
266.0738	7.7
270.2790	8.8
271.1438	3.0
271.2819	1.7
275.1388	1.4
285.1235	4.8
289.1542	4.5
299.1392	3.4
301.1805	1.5
305.0648	1.1
306.0719	2.5
307.0809	100.0
308.0843	16.1
309.0865	2.7
310.2332	1.2
312.3267	1.5
314.1028	1.3
314.1405	1.2
314.3397	1.9
315.1344	8.1
316.2861	1.7
317.1211	1.7
317.1492	72.3
318.1008	1.3
318.1532	13.3
318.2999	33.5
319.1614	4.5
319.3032	6.9
320.1973	2.1
323.2914	1.1
326.1490	1.1

Name: Epilupeol
PrecursorMZ: 409.38244
RT: 1.0294
ExactMass: 426.386166214
Spectrum_type: 2
charge: 1
Formula: C30H50O
SMILES: CC(=C)[C@@H]1CC[C@]2([C@H]1[C@H]3CC[C@@H]4[C@]5(CC[C@H](C([C@@H]5CC[C@]4([C@@]3(CC2)C)C)(C)C)O)C)C
Method: HCD
Collision_energy: [28.333334]
Isolation_window: 4.0
Ion_mode: P
Num Peaks: 127
55.0545	3.1
57.0702	7.7
67.0545	13.0
69.0702	43.1
69.4463	2.9
71.0858	6.6
79.0544	6.6
81.0701	74.3
82.0735	3.9
83.0857	31.6
85.1013	2.5
91.0542	4.6
93.0699	24.7
95.0856	100.0
96.0890	4.5
97.0648	6.4
97.1012	17.5
97.4568	2.4
105.0698	15.3
107.0855	45.4
108.0889	2.8
109.0647	4.6
109.1011	98.5
110.1045	8.3
111.0804	6.2
111.1168	9.5
112.9998	3.1
119.0854	21.2
120.0889	2.5
121.1010	51.1
122.1044	5.2
123.1167	48.8
124.1199	4.1
125.0960	4.2
125.1324	3.2
131.0853	3.4
133.1009	27.8
134.1042	3.0
135.1166	47.7
136.1198	3.7
137.1322	19.7
145.1009	7.8
147.1165	27.7
148.1199	2.1
149.0957	3.7
149.1322	57.5
150.0671	3.0
150.1355	4.0
151.0751	34.1
151.1480	5.7
157.1009	2.1
159.1166	9.7
161.1322	22.8
163.1121	2.9
163.1478	28.6
164.1512	3.3
165.0908	6.7
165.1636	3.5
169.0258	3.7
171.1163	2.1
173.1321	9.2
175.1111	2.3
175.1478	16.4
176.1509	2.1
177.1634	22.9
178.1668	2.8
179.1787	2.2
185.1322	5.2
187.1477	10.0
189.0907	8.6
189.1634	18.9
190.1667	2.3
191.1063	13.8
191.1790	34.4
192.1825	4.1
199.1479	2.9
201.1635	7.1
203.1061	41.5
203.1789	38.1
204.1094	4.9
204.1824	4.6
205.1219	7.2
205.1581	2.7
205.1946	13.8
211.1478	2.4
213.1630	2.7
215.1787	5.8
217.1219	4.3
217.1946	25.0
218.1978	3.2
219.2101	8.2
227.1786	2.9
229.1944	5.7
231.1377	3.9
231.2101	9.8
241.1941	2.2
243.1371	2.1
243.2100	5.3
245.1531	3.8
245.2257	6.3
255.2101	3.2
257.2257	5.6
259.1680	2.9
259.2416	3.8
269.2260	2.4
271.2411	5.7
273.1845	3.6
283.2412	2.6
285.2570	6.4
287.2362	2.6
297.2574	3.1
299.2726	3.8
325.2873	2.1
327.3029	2.0
391.3351	6.0
393.3507	4.2
407.3665	2.5
408.3689	3.6
409.3075	50.1
409.3440	34.9
409.3802	83.9
410.3132	29.7
410.3472	10.5
410.3835	24.9
411.3225	6.4
411.3594	36.9
411.3928	5.9

Name: Epinephrine
PrecursorMZ: 166.08629
RT: 5.1744
ExactMass: 183.08954328
Spectrum_type: 2
charge: 1
Formula: C9H13NO3
SMILES: CNC[C@@H](C1=CC(=C(C=C1)O)O)O
Method: HCD
Collision_energy: [28.333334]
Isolation_window: 4.0
Ion_mode: P
Num Peaks: 98
67.0546	0.3
69.0338	0.2
70.0655	0.9
79.0545	0.7
81.0338	0.7
81.0450	1.4
81.0701	0.5
82.0653	0.2
91.0544	0.4
93.0574	0.7
93.0700	0.9
94.0652	0.5
95.0493	0.3
95.0731	0.6
95.0857	0.4
96.0808	0.3
97.0648	0.2
100.0758	0.4
105.0699	0.4
106.0652	20.8
107.0491	0.2
107.0686	1.6
107.0730	2.6
107.0855	1.5
108.0764	0.2
108.0808	0.6
109.0284	0.5
109.0648	0.5
109.0760	1.1
109.1012	0.2
110.0602	0.3
110.0965	0.8
119.0855	0.4
120.0807	2.6
121.0648	0.4
121.0760	0.9
121.0839	0.2
121.1011	0.6
122.0600	0.7
122.0712	3.0
122.0964	0.3
123.0110	0.2
124.0756	3.4
125.0708	0.3
125.0790	0.3
126.0549	0.2
131.0853	0.4
134.0598	0.3
136.0755	1.0
137.0596	0.2
137.0710	0.5
137.0786	0.3
137.0960	0.3
138.0912	0.9
138.1024	0.2
139.0752	0.2
139.0977	5.4
140.0705	0.3
140.0819	0.3
140.1010	0.2
147.0552	0.2
147.1166	0.2
148.0755	4.1
149.0708	0.7
149.0785	0.3
149.0960	1.0
150.0548	4.7
150.0912	0.3
152.0704	0.4
164.0704	1.2
164.1069	0.8
165.0546	0.2
165.0657	0.6
165.0911	0.6
165.1022	0.5
165.1104	0.2
165.1274	0.4
166.0498	0.3
166.0716	0.7
166.0861	100.0
166.0975	0.8
166.1009	0.5
166.1051	0.3
166.1222	0.3
166.1556	0.3
167.0705	0.7
167.0815	5.5
167.0914	9.3
167.0931	0.4
167.1065	0.4
167.1170	0.2
168.0652	0.6
168.0692	1.9
168.0810	0.4
168.0845	0.3
168.0954	0.3
168.1020	0.7
168.1128	1.6

Name: Epinephrine Bitartrate
PrecursorMZ: 334.11295
RT: 3.3665
ExactMass: 333.10598118
Spectrum_type: 2
charge: 1
Formula: C13H19NO9
SMILES: CNC[C@@H](C1=CC(=C(C=C1)O)O)O.[C@@H]([C@H](C(=O)O)O)(C(=O)O)O
Method: HCD
Collision_energy: [28.333334]
Isolation_window: 4.0
Ion_mode: P
Num Peaks: 143
69.0340	2.5
70.0656	5.6
71.0495	1.2
72.0813	1.7
81.0340	8.3
83.0495	2.1
84.0448	2.6
84.0812	8.5
85.0289	3.3
86.0605	2.4
87.0445	2.2
95.0497	1.4
96.0447	1.5
97.0288	5.0
98.0604	2.5
99.0445	2.8
100.0760	1.6
101.0601	3.6
102.0551	1.6
107.0495	1.2
109.0287	1.6
110.0605	1.5
110.0720	1.6
111.0444	5.8
112.0759	2.5
114.0552	2.5
114.0666	2.3
116.0709	4.1
117.0549	2.1
118.0865	1.6
121.0289	1.4
123.0443	2.7
125.0236	29.1
125.0598	1.3
126.0272	2.0
126.0553	1.5
127.0392	4.1
128.0709	3.2
130.0501	4.1
130.0865	7.5
132.0658	2.1
132.0771	1.4
135.0445	1.5
136.0619	2.0
136.0759	1.1
137.0604	1.2
139.0394	4.3
140.0711	1.5
144.0660	1.5
145.0498	2.1
146.0928	1.5
151.0394	1.5
152.0709	1.6
153.0553	2.4
156.0655	1.8
156.0772	1.5
158.0813	1.6
160.0969	1.3
163.0391	3.1
165.0546	1.5
168.0658	1.7
168.1015	1.6
170.0567	1.9
170.0802	1.5
171.0662	1.3
173.0924	1.2
177.0544	2.1
180.1018	1.6
181.0495	3.6
182.0806	1.9
188.0712	1.3
194.0795	1.3
195.0890	2.6
196.0592	1.3
205.0490	1.3
210.1126	6.7
211.1195	3.7
212.0907	2.9
220.1189	1.2
230.1033	1.3
237.0894	2.4
248.1132	3.8
249.0902	1.3
253.0888	2.2
255.1091	29.7
256.1124	3.3
258.1092	3.4
260.1246	6.0
265.0837	1.3
267.1018	5.9
271.0797	2.3
277.0862	5.4
281.1014	2.0
283.0971	1.5
285.1145	2.7
289.0914	2.5
291.0965	1.8
295.0966	33.3
296.0993	5.7
300.1459	6.5
301.1508	2.2
307.1032	2.1
313.1075	11.5
314.1159	1.9
317.0840	1.7
318.1546	9.0
319.1576	1.4
320.1368	1.3
325.1070	1.7
327.1305	3.7
329.1019	1.2
332.1342	3.2
333.1368	3.9
333.1772	2.1
334.1239	1.4
334.1666	2.6
335.1615	1.4
336.1317	4.1
336.1660	18.3
337.1042	4.4
337.1746	4.4
338.1451	3.4
339.1221	2.0
339.1552	1.6
339.1897	1.4
340.0760	2.8
340.1603	2.4
341.1356	4.7
341.1745	2.4
342.1150	1.2
343.1543	4.1
344.1447	3.6
345.1404	100.0
346.1443	13.5
347.1559	40.7
348.1540	5.6
349.1678	3.4
350.1462	2.7
350.1787	1.6
351.1163	1.5
351.1871	1.3
352.1603	5.3
353.1732	1.7

Name: Eriosematin
PrecursorMZ: 313.1392
RT: 7.6278
ExactMass: 312.13615911
Spectrum_type: 2
charge: 1
Formula: C19H20O4
SMILES: CC(=CCC1=C2C(=C(C3=C1OC=CC3=O)O)C=CC(O2)(C)C)C
Method: HCD
Collision_energy: [28.333334]
Isolation_window: 4.0
Ion_mode: P
Num Peaks: 18
70.0655	3.3
81.0338	5.5
100.0758	3.3
114.0914	2.6
220.1175	3.0
234.0998	4.5
235.1074	5.6
252.1104	5.5
295.1284	7.4
312.1406	5.5
313.1236	3.0
313.1390	100.0
313.1760	3.4
314.1214	5.2
314.1415	11.5
314.1595	9.1
315.1359	3.6
315.1548	12.0

Name: Erucamide
PrecursorMZ: 338.34157
RT: 0.5745
ExactMass: 337.334464995
Spectrum_type: 2
charge: 1
Formula: C22H43NO
SMILES: CCCCCCCC/C=C\CCCCCCCCCCCC(=O)N
Method: HCD
Collision_energy: [28.333334]
Isolation_window: 4.0
Ion_mode: P
Num Peaks: 60
57.0704	12.8
59.0609	8.1
67.0547	5.4
69.0704	14.6
71.0861	9.8
73.0473	7.5
81.0703	10.5
83.0859	17.3
85.1015	6.1
89.0600	7.2
91.0579	15.1
93.0702	4.3
95.0859	15.2
97.0652	4.3
97.1015	14.9
100.0759	3.9
105.0338	52.2
107.0859	5.9
109.1015	11.1
111.0808	4.6
111.1172	5.7
114.0919	3.7
121.1014	7.7
123.1171	7.4
125.0961	4.4
132.0446	8.0
133.0862	3.2
135.1169	13.6
137.1325	3.4
149.1328	5.6
153.1275	3.4
163.0756	100.0
164.0792	11.0
177.1275	4.7
191.1795	7.2
240.2325	8.2
283.1692	18.3
284.1737	4.1
285.0106	6.6
299.0610	4.6
303.3050	3.4
307.0992	6.0
321.3150	7.9
337.1054	39.9
337.2544	4.6
338.1080	7.8
338.3418	45.4
339.2307	7.4
339.2717	5.8
339.3451	10.8
341.2858	3.8
346.3311	4.7
349.2576	4.0
351.2714	7.5
353.0783	10.3
353.2100	9.4
353.2871	7.7
355.0703	9.8
355.3015	4.0
356.3505	3.9

Name: Erucifoline N-oxide
PrecursorMZ: 366.15468
RT: 5.2943
ExactMass: 365.14745207
Spectrum_type: 2
charge: 1
Formula: C18H23NO7
SMILES: C/C=C\1/C[C@@]2([C@@](O2)(C(=O)OCC3=CC[N+]4([C@H]3[C@@H](CC4)OC1=O)[O-])C)CO
Method: HCD
Collision_energy: [28.333334]
Isolation_window: 4.0
Ion_mode: P
Num Peaks: 24
70.0657	3.0
84.0812	5.5
246.1125	12.5
247.1161	2.3
276.1232	6.6
306.1339	16.0
307.1373	2.9
365.1722	3.1
365.2163	2.8
366.1554	100.0
366.1916	3.0
367.1585	21.0
368.1580	5.7
369.1520	1.9
372.1895	2.0
373.1850	2.0
374.1645	2.1
374.3633	3.4
375.1994	2.8
377.1765	2.2
378.2047	5.7
379.1929	3.8
380.2225	2.8
382.1447	2.0

Name: Eseroline Fumarate
PrecursorMZ: 335.15986
RT: 1.618
ExactMass: 334.15287181
Spectrum_type: 2
charge: 1
Formula: C17H22N2O5
SMILES: CC12CCN(C1N(C3=C2C=C(C=C3)O)C)C.C(=C/C(=O)O)\C(=O)O
Method: HCD
Collision_energy: [28.333334]
Isolation_window: 4.0
Ion_mode: P
Num Peaks: 324
55.0548	8.4
59.0609	9.2
67.0547	11.8
69.0341	8.4
69.0704	13.8
70.0656	41.9
71.0496	14.0
72.0812	27.6
74.0604	8.5
79.0547	10.8
81.0339	47.0
81.0703	24.6
82.0657	6.0
83.0496	12.1
83.0860	15.9
84.0449	9.4
84.0812	22.9
85.0289	6.7
85.0651	11.9
86.0604	10.1
86.0969	27.9
87.0445	10.5
91.0545	10.6
93.0702	20.2
95.0495	12.0
95.0858	25.0
96.0448	6.6
96.0811	5.9
97.0287	5.2
97.0650	14.3
98.0604	20.0
98.0968	5.1
99.0443	14.7
99.0807	8.4
100.0760	14.9
101.0235	5.1
101.0600	16.3
101.0707	5.6
105.0701	15.7
107.0494	8.3
107.0858	18.5
108.0445	5.4
108.0812	12.1
109.0288	5.3
109.0651	10.8
109.1016	12.0
110.0603	13.9
110.0714	5.6
111.0444	32.2
111.0806	7.0
112.0760	15.3
113.0600	8.4
114.0556	7.1
114.0665	19.5
115.0392	5.3
116.0709	28.2
117.0550	6.8
117.0697	7.4
118.0865	6.3
119.0858	16.4
120.0811	7.1
121.0650	13.3
121.1014	15.7
122.0605	10.8
123.0444	20.1
123.0807	12.1
124.0394	5.7
124.0760	37.0
125.0600	8.4
125.0962	7.4
126.0553	12.1
126.0915	46.0
127.0392	16.7
127.0755	5.1
128.0708	12.6
129.0701	6.0
130.0502	8.5
130.0864	14.2
131.0855	12.8
132.0812	5.4
133.0645	6.8
133.1013	14.6
134.0600	8.0
134.0964	6.5
135.0441	5.1
135.0805	12.1
135.1168	9.2
136.0758	61.6
137.0601	20.8
137.0958	8.1
138.0549	12.0
138.0913	10.3
139.0393	11.8
139.0754	5.9
140.0708	14.8
141.0665	7.9
142.0864	35.1
143.0858	7.4
143.1180	7.8
144.1021	8.2
145.0651	5.1
145.1011	15.5
146.0599	6.7
147.0777	22.7
147.1170	8.8
148.0758	43.7
149.0597	11.5
149.0711	15.5
149.0962	14.6
150.0548	10.8
150.0914	36.9
151.0615	7.5
151.0756	7.4
151.1117	5.9
152.0705	19.5
153.0544	5.1
153.0911	7.0
154.0498	5.3
154.0865	17.0
157.1005	10.7
159.0800	5.7
159.1168	11.6
160.0759	28.9
161.0597	9.2
161.0961	8.4
161.1323	7.6
162.0550	7.2
162.0904	8.1
163.0393	7.0
163.0754	7.1
163.1116	7.3
164.0707	46.0
164.1065	11.7
165.0550	10.1
165.0894	5.5
165.1015	5.9
166.0503	6.3
166.0864	99.8
167.0895	8.4
167.1066	7.9
168.0500	7.5
168.0639	8.3
168.1020	27.4
169.1013	8.9
170.0813	9.1
171.1161	11.9
172.1333	9.1
173.0958	10.3
173.1324	9.0
175.0735	6.1
175.1111	10.2
176.0704	15.2
177.0547	23.4
177.1030	18.7
178.0863	22.7
180.0648	6.7
180.1019	29.5
181.0493	8.9
181.0985	7.5
182.0812	36.8
182.1165	6.0
183.1166	9.8
184.0954	6.7
185.0945	8.9
185.1324	6.8
187.1121	7.8
187.1445	19.7
188.0710	16.2
189.0879	6.5
189.1269	6.0
190.0852	8.4
192.0642	7.5
192.1013	14.3
193.0987	7.1
194.0812	100.0
195.0841	11.1
195.1149	7.4
196.0968	19.7
197.0949	7.1
197.1325	6.5
198.1130	5.3
199.1107	9.0
199.1475	6.3
201.1275	10.0
202.0861	6.6
203.1044	7.1
203.1414	6.4
204.0638	6.8
204.1016	7.5
206.0800	11.6
206.1166	6.1
207.1146	6.3
208.0964	15.0
209.1307	6.9
210.1123	33.5
211.1112	9.8
211.1485	5.0
213.1259	10.3
214.1077	12.0
215.1066	5.8
215.1399	14.5
217.1225	5.9
218.0815	8.4
219.1381	5.3
220.0961	9.6
222.0756	6.0
222.1107	6.8
223.1095	8.0
224.0894	6.1
224.1261	7.7
225.1250	8.9
226.1063	12.3
227.1429	7.2
230.1193	8.0
232.0961	10.2
233.1535	5.2
234.0754	6.7
234.1131	8.0
235.1117	5.2
236.1285	5.8
237.1254	8.8
241.1188	20.0
244.0972	6.5
246.0745	5.8
246.1119	8.1
250.1061	8.0
257.1541	5.2
258.1114	7.4
260.0915	5.9
261.1848	5.2
262.1070	6.6
269.1528	5.3
270.1124	5.0
271.1690	7.8
273.1852	7.2
274.1078	9.2
275.1678	5.3
276.1249	8.2
278.1403	5.3
281.1505	7.7
285.1227	5.3
286.1033	6.8
287.1371	5.1
288.1239	11.0
289.1540	13.5
289.1810	6.0
290.1392	6.7
291.1700	28.3
292.1226	6.6
293.1520	6.1
297.1458	5.3
297.1835	5.2
298.1084	6.9
299.1970	6.7
300.1241	8.8
302.1418	6.9
304.1159	7.4
306.1352	9.5
311.1675	5.4
315.1954	6.1
316.1167	17.9
317.1487	20.8
317.2049	6.3
318.1354	13.2
319.1293	9.3
319.1645	10.5
320.1521	6.2
321.1442	9.5
321.1784	8.6
322.1352	8.2
322.1716	7.4
324.0856	16.8
324.1474	14.6
326.0974	6.4
327.1297	5.8
328.1124	9.0
330.1359	8.5
331.1270	11.9
332.1136	5.2
333.1436	11.9
333.2082	7.0
334.1257	66.8
335.1260	21.1
335.1601	59.3
336.1073	10.9
336.1429	44.1
337.1410	25.0
337.1760	32.8
338.1205	19.1
338.1648	20.7
339.1563	54.6
339.1922	9.1
340.1404	26.9
340.1799	14.5
341.1107	6.5
341.1418	7.6
341.1760	12.4
342.0974	6.0
342.1578	85.4
343.1215	15.4
343.1640	17.1
344.1067	25.5
344.1499	13.7
345.1021	7.0
345.1433	41.5
345.2088	5.4
346.1309	34.8
346.1639	8.7
347.1249	13.5
347.1594	25.9
348.1080	9.1
348.1475	40.2
349.1388	28.1
349.1739	6.1
350.1213	35.3
350.1609	18.3
351.1202	5.9
351.1576	23.3
352.1394	41.4
352.1775	9.3
353.1380	13.8
353.1729	14.5
354.1018	6.7
354.1592	16.7

Name: Estriol
PrecursorMZ: 311.15961
RT: 8.3435
ExactMass: 288.17254462
Spectrum_type: 2
charge: 1
Formula: C18H24O3
SMILES: C[C@]12CC[C@H]3[C@H]([C@@H]1C[C@H]([C@@H]2O)O)CCC4=C3C=CC(=C4)O
Method: HCD
Collision_energy: [28.333334]
Isolation_window: 4.0
Ion_mode: P
Num Peaks: 29
55.0546	6.9
69.5284	5.3
83.0494	4.3
84.0810	5.3
97.4573	4.0
101.0598	15.7
112.0756	4.3
193.0968	14.1
195.0762	5.5
195.1125	7.8
209.1277	3.9
210.0758	4.8
211.1074	9.9
275.1498	4.4
309.1427	5.9
309.1800	19.3
310.0662	11.1
310.1266	36.8
310.1627	5.8
310.1803	6.0
311.1216	24.9
311.1587	100.0
312.1051	7.1
312.1238	4.0
312.1430	21.1
312.1615	18.3
313.1360	23.5
313.1515	6.2
313.1749	36.2

Name: Ethanol, 2,2'-(cyclohexylimino)bis-
PrecursorMZ: 188.16437
RT: 10.3029
ExactMass: 187.157228913
Spectrum_type: 2
charge: 1
Formula: C10H21NO2
SMILES: C1CCC(CC1)N(CCO)CCO
Method: HCD
Collision_energy: [28.333334]
Isolation_window: 4.0
Ion_mode: P
Num Peaks: 25
60.0812	8.7
70.0656	1.6
72.0811	6.2
83.0858	2.2
84.0811	3.0
100.0758	4.2
111.0806	14.6
126.0913	2.0
129.0910	13.3
130.0862	2.5
142.0861	2.3
144.1018	2.5
144.1130	1.6
146.0810	2.2
171.1490	2.8
172.0968	3.1
187.1075	1.4
188.0915	2.0
188.1277	1.9
188.1644	100.0
188.1751	1.9
189.1677	9.9
190.1073	3.9
190.1181	3.5
190.1436	1.4

Name: Ethirimol
PrecursorMZ: 210.16
RT: 2.6197
ExactMass: 209.152812238
Spectrum_type: 2
charge: 1
Formula: C11H19N3O
SMILES: CCCCC1=C(N=C(NC1=O)NCC)C
Method: HCD
Collision_energy: [28.333334]
Isolation_window: 4.0
Ion_mode: P
Num Peaks: 185
58.0657	11.3
60.0449	1.8
60.0813	5.4
70.0656	14.6
71.0496	2.2
72.0811	2.4
74.0605	13.3
79.0547	4.1
81.0340	6.5
82.0656	7.6
83.0497	3.9
84.0448	5.4
84.0812	9.6
85.0287	2.9
85.0652	2.8
86.0605	7.4
86.0969	43.3
87.0445	7.3
87.1002	1.8
88.0760	2.5
90.0554	2.0
91.0545	9.3
93.0703	11.9
95.0494	2.1
95.0607	2.2
96.0448	6.6
98.0604	2.9
100.0761	5.8
101.0601	20.0
102.0554	2.8
103.1234	4.4
105.0702	1.8
108.0446	2.8
110.0605	4.0
111.0444	6.3
111.0556	3.1
112.0760	2.8
114.0553	3.4
114.0666	4.0
116.0709	10.1
119.0492	2.4
120.0811	6.1
121.0651	16.9
121.0892	1.9
121.1013	2.2
122.0605	2.4
124.0396	22.7
124.0758	3.3
125.0714	3.1
126.0553	12.1
126.0917	5.7
128.0709	4.1
128.0821	1.7
130.0504	5.0
130.0865	2.9
136.0761	5.8
137.0600	2.9
138.0552	4.0
138.0915	2.8
139.0867	2.0
140.0345	3.8
140.0710	4.6
142.0506	1.9
142.0868	3.0
148.0758	4.1
149.0602	2.2
149.0712	1.7
150.0549	2.0
150.0917	2.0
152.0711	4.8
154.0865	10.3
156.0660	5.0
156.1022	2.3
164.0709	3.2
165.0549	31.8
166.0609	2.7
166.0861	5.3
167.0822	2.4
168.0658	4.7
168.1023	3.1
170.0814	3.7
172.0970	4.6
173.1079	2.0
176.0710	1.7
178.0866	2.6
179.0824	1.7
180.0645	3.8
181.0984	2.3
182.0801	3.5
184.0596	2.8
184.0950	2.9
186.0894	3.7
192.0643	3.8
192.1019	2.1
194.0451	1.9
194.0968	2.2
195.0774	2.8
196.0586	2.5
196.1104	2.8
197.0929	3.2
198.0765	3.2
198.0903	2.5
198.1121	3.3
199.1067	2.2
200.0907	2.2
200.1282	3.8
202.1073	3.5
204.1386	24.2
205.1418	3.6
208.0588	2.6
208.0957	3.3
208.1334	4.4
209.0914	5.2
209.1279	3.5
209.1647	2.6
210.0755	11.8
210.0935	2.7
210.1136	8.4
210.1606	30.8
211.0728	2.1
211.1065	4.3
211.1632	3.2
212.0405	2.1
212.0578	2.2
212.0916	7.0
212.1069	5.1
212.1301	2.7
213.0877	7.1
213.1228	4.5
214.0699	4.2
214.1056	2.1
214.1204	6.7
215.1010	4.1
215.1184	31.3
216.0991	39.5
216.1233	45.5
216.1601	3.0
217.1020	2.3
217.1172	4.1
217.1357	20.5
218.0606	2.1
218.0824	2.1
218.1008	4.1
218.1182	28.5
218.1380	8.5
219.1172	4.8
219.1493	7.5
220.0980	2.3
220.1176	4.6
220.1341	6.0
220.1539	3.8
221.0568	2.0
221.1336	3.6
221.1660	58.7
222.0773	3.3
222.0968	4.7
222.1154	2.1
222.1332	3.8
222.1499	2.5
222.1681	8.0
223.0728	1.7
223.1078	3.8
223.1414	2.5
224.0554	1.8
224.0948	10.4
224.1282	100.0
225.0871	4.2
225.1300	14.0
226.0704	8.2
226.1064	19.9
227.1043	6.0
227.1192	2.8
228.0868	5.9
228.1019	4.9
228.1226	2.2
229.0830	1.8
229.0998	1.8
229.1191	7.2
229.1360	2.8
229.1563	2.0
230.1174	28.3
230.1395	3.0
231.0946	2.2
231.1144	2.9
231.1527	4.4

Name: Ethosuximide
PrecursorMZ: 142.08626
RT: 5.9479
ExactMass: 141.078978594
Spectrum_type: 2
charge: 1
Formula: C7H11NO2
SMILES: CCC1(CC(=O)NC1=O)C
Method: HCD
Collision_energy: [28.333334]
Isolation_window: 4.0
Ion_mode: P
Num Peaks: 12
57.0451	48.8
69.0702	34.2
72.0810	23.0
85.0287	16.5
95.0605	14.8
96.0809	96.1
97.0649	33.3
114.0913	90.5
125.0595	38.5
141.0656	100.0
142.0609	89.4
142.0860	52.2

Name: Ethyl 1-(1-cyclohexyl-2,6-dioxo-1,2,3,6-tetrahydropyrimidin-4-yl)piperidine-4-carboxylate
PrecursorMZ: 350.20685
RT: 6.7955
ExactMass: 349.20015635
Spectrum_type: 2
charge: 1
Formula: C18H27N3O4
SMILES: CCOC(=O)C1CCN(CC1)C2=CC(=O)N(C(=O)N2)C3CCCCC3
Method: HCD
Collision_energy: [28.333334]
Isolation_window: 4.0
Ion_mode: P
Num Peaks: 58
81.0338	2.2
84.0811	3.5
101.0600	2.5
110.0713	2.1
114.0914	3.1
136.0504	3.1
140.0705	7.4
147.0917	3.4
148.0756	4.8
166.0862	16.3
175.0864	5.3
176.0945	3.9
182.0809	2.4
184.0716	3.1
193.0970	41.8
194.0811	2.7
194.1049	100.0
195.1073	9.8
207.1126	3.9
208.0966	15.3
220.1190	10.4
224.1154	2.7
225.1231	29.2
226.1265	3.0
243.0862	3.9
268.1047	5.0
273.1596	2.5
288.1950	3.6
291.1698	3.2
296.0995	16.5
301.1541	2.0
314.1101	5.1
318.1807	59.2
319.1647	4.2
319.1841	10.0
333.1437	1.8
334.1388	3.3
349.0899	2.7
349.1022	3.3
349.1089	3.0
349.1387	5.5
349.1418	2.6
349.1755	8.5
350.1221	3.2
350.1424	2.1
350.1740	4.4
350.2071	74.7
350.2317	35.3
350.2436	4.1
351.1043	9.7
351.1303	4.2
351.1540	5.4
351.1908	3.0
351.2101	12.1
351.2329	8.7
352.1369	6.0
352.1585	5.0
352.2480	4.7

Name: Ethyl 1H-indole-3-acetate
PrecursorMZ: 204.10154
RT: 9.2043
ExactMass: 203.094628657
Spectrum_type: 2
charge: 1
Formula: C12H13NO2
SMILES: CCOC(=O)CC1=CNC2=CC=CC=C21
Method: HCD
Collision_energy: [28.333334]
Isolation_window: 4.0
Ion_mode: P
Num Peaks: 103
59.0608	0.4
60.0446	0.3
70.0654	2.0
71.0606	0.4
72.0810	0.7
74.0601	0.4
82.0651	0.4
84.0445	0.6
84.0809	2.5
86.0601	0.4
88.0393	0.3
88.0870	0.3
97.0284	1.1
98.0599	0.4
98.0964	1.7
100.0755	0.4
102.0549	0.5
107.0728	2.8
109.0759	0.8
110.0599	0.5
112.0868	0.4
113.0707	0.5
114.0548	0.7
116.0704	0.9
122.0598	0.6
126.0547	0.6
126.0910	0.5
128.0702	1.0
129.1019	1.6
130.0860	1.2
132.0653	0.4
133.0968	0.3
134.0597	0.4
134.0809	0.6
138.0546	0.3
140.0702	0.3
141.1016	0.9
142.0494	0.5
142.0858	0.6
142.0969	0.5
143.0811	0.3
143.1175	1.6
144.0651	1.3
144.1015	0.7
145.0491	0.7
147.1122	0.3
152.0702	0.3
154.0859	0.7
157.0967	1.3
158.0809	0.9
158.0913	0.4
158.0965	0.3
158.1284	1.3
160.0964	0.3
161.1281	1.0
170.0807	1.3
172.0964	1.3
172.1077	0.6
173.0915	0.3
175.1184	0.8
176.1064	0.5
184.0959	0.5
185.0914	0.3
186.0754	0.3
186.0863	2.1
186.0909	0.4
186.1119	1.1
187.0987	0.5
187.1070	0.9
188.0701	0.5
188.0912	1.1
202.0856	0.4
202.1068	0.7
202.1180	0.4
202.1220	1.2
202.1432	2.4
203.0811	0.4
203.0898	0.4
203.1021	4.4
203.1134	1.9
203.1174	5.0
203.1258	0.5
203.1384	2.9
203.1467	0.4
203.1494	0.9
204.0814	0.6
204.0856	1.3
204.1013	100.0
204.1110	0.9
204.1174	0.5
204.1215	1.5
204.1337	5.3
204.1378	1.3
204.1584	0.5
205.0965	0.5
205.1047	12.7
205.1327	3.8
206.0806	0.3
206.1013	4.3
206.1074	0.3
206.1168	9.7
206.1277	0.9
206.1372	0.4

Name: Ethyl 2-((3-methoxybenzoyl)amino)acetate
PrecursorMZ: 238.10712
RT: 7.3499
ExactMass: 237.10010796
Spectrum_type: 2
charge: 1
Formula: C12H15NO4
SMILES: CCOC(=O)CNC(=O)C1=CC(=CC=C1)OC
Method: HCD
Collision_energy: [28.333334]
Isolation_window: 4.0
Ion_mode: P
Num Peaks: 69
70.0655	0.8
81.0338	2.6
82.0655	1.4
83.0494	1.0
84.0811	3.3
86.0603	1.9
89.0599	0.9
94.0653	2.3
96.0446	3.1
96.0809	0.8
97.3988	0.8
101.0598	1.6
108.0810	0.8
110.0602	1.3
110.0714	3.4
116.0707	0.7
120.0808	0.8
122.0601	1.4
128.0706	0.7
130.0498	0.7
132.0808	0.7
134.0963	1.9
136.0870	2.7
136.1120	1.8
138.0912	1.2
142.0499	1.7
146.0965	0.8
148.0757	0.8
148.1121	23.8
149.1155	2.7
158.0965	3.7
159.0998	0.7
163.1230	3.3
164.0706	0.7
164.0814	1.1
174.0913	2.0
175.1230	24.2
176.1069	2.0
176.1264	3.1
178.0861	1.5
179.0944	1.7
192.0655	1.1
192.1018	2.6
193.0970	1.8
193.1334	0.7
194.0810	1.4
219.1125	1.8
220.0967	2.9
220.1079	1.6
220.1327	0.9
222.0762	1.3
236.0917	1.7
236.1027	0.9
236.1280	0.7
236.1643	3.6
237.0861	1.4
237.1233	3.7
237.1594	1.4
237.1683	0.8
238.0711	1.5
238.0818	0.8
238.1072	100.0
238.1432	4.0
239.1023	7.6
239.1114	12.5
239.1379	3.4
240.0865	4.7
240.1228	1.7
240.1347	0.9

Name: Ethyl 2-(2,3,4-trimethoxy-6-(1-octanoyl)phenyl)acetate
PrecursorMZ: 381.22711
RT: 1.3294
ExactMass: 380.21988874
Spectrum_type: 2
charge: 1
Formula: C21H32O6
SMILES: CCCCCCCC(=O)C1=CC(=C(C(=C1CC(=O)OCC)OC)OC)OC
Method: HCD
Collision_energy: [28.333334]
Isolation_window: 4.0
Ion_mode: P
Num Peaks: 18
57.0704	30.8
69.0704	20.2
85.0651	24.0
205.0862	19.8
209.0811	12.5
259.1325	17.2
261.1486	14.0
271.1326	15.8
277.1433	30.2
279.1596	15.8
289.1436	30.8
327.1949	19.0
345.2060	57.6
363.2165	100.0
364.2201	24.7
379.2181	26.3
380.2144	40.7
381.2271	50.9

Name: Ethyl 2-)(3-methoxybenzoyl)amino(acetate
PrecursorMZ: 238.10673
RT: 4.3294
ExactMass: 237.10010796
Spectrum_type: 2
charge: 1
Formula: C12H15NO4
SMILES: CCOC(=O)CNC(=O)C1=CC(=CC=C1)OC
Method: HCD
Collision_energy: [28.333334]
Isolation_window: 4.0
Ion_mode: P
Num Peaks: 218
55.0546	0.1
57.0338	0.2
58.0655	0.1
61.0286	0.1
67.0545	0.1
69.0339	0.5
70.0655	1.0
71.0497	0.1
72.0812	0.4
73.0287	0.5
80.0496	0.1
81.0338	0.2
82.0652	0.1
83.0496	0.1
83.0607	0.1
84.0447	0.1
84.0811	0.8
85.0287	0.7
85.0763	0.1
86.0603	0.1
86.0967	0.1
87.0444	1.0
89.0601	0.1
95.0371	0.1
95.0494	0.1
96.0141	0.1
96.0317	0.2
96.0344	0.1
96.0446	23.5
96.0546	0.1
96.0574	0.2
97.0285	0.3
97.0478	0.3
98.0604	0.1
99.0443	0.2
99.0919	0.1
100.0756	0.1
101.0235	0.1
101.0598	0.2
102.0914	0.1
103.0390	0.1
104.1072	0.1
108.0446	0.1
109.0527	0.1
109.0762	0.1
110.0602	0.4
110.0714	0.2
111.0441	0.1
112.0761	0.1
112.0871	0.2
113.0711	0.1
115.0391	0.1
115.0868	0.1
116.0709	0.3
120.0801	0.1
122.0601	0.2
123.0680	0.1
123.0917	0.1
124.0394	1.2
124.0755	0.1
125.0431	0.1
125.0715	0.1
126.0552	0.1
126.0914	0.1
127.0390	0.3
128.0710	0.2
129.1020	0.1
130.0864	0.4
132.0768	0.1
133.0760	0.1
134.0600	0.2
134.0962	0.1
136.0393	0.4
136.0754	0.2
137.0237	0.1
137.0715	0.1
138.0549	0.7
139.0868	0.1
140.0341	0.1
140.0707	0.1
141.0660	0.1
142.0863	0.1
144.0656	0.1
145.0492	0.1
146.0603	0.1
146.0924	0.1
147.1127	0.1
148.0756	0.1
148.1126	0.1
149.0706	0.2
149.1074	0.1
150.0551	0.1
150.0909	0.2
151.0862	0.2
151.1230	0.2
152.0704	0.1
154.0499	0.7
154.0862	0.3
155.0813	0.2
160.0754	0.1
162.0549	0.1
162.0906	0.1
163.1219	0.1
164.0712	0.2
164.1068	0.1
166.0861	0.1
168.0655	7.1
169.0685	0.1
169.0973	0.5
172.0961	0.1
175.0867	0.1
175.1224	0.1
176.0703	0.1
177.1015	0.2
178.0864	0.1
180.0649	0.1
180.1009	0.2
182.0808	0.1
183.1129	0.2
184.0969	0.2
186.0879	0.1
188.0699	0.1
190.0866	0.1
191.1180	0.1
193.0974	0.4
194.0813	0.1
194.1158	0.1
195.0765	0.2
195.1117	0.2
195.1618	0.1
196.1098	0.1
197.1274	0.1
198.0758	0.7
198.1116	0.2
200.0914	0.1
202.0862	0.1
203.1509	0.2
206.0817	0.1
210.1120	0.1
211.1446	0.1
212.0918	0.2
219.1491	0.1
220.0968	0.1
221.1288	0.1
222.1108	0.1
223.1422	0.1
224.0912	0.1
226.1193	0.1
228.1224	0.4
229.1279	0.1
232.1183	0.1
236.1120	0.2
236.1300	0.1
237.1231	0.6
237.1597	1.2
238.1075	2.2
238.1451	0.2
238.1618	0.1
239.1038	1.2
239.1396	0.6
240.0877	0.2
240.1228	2.6
240.1714	0.1
241.1227	0.5
241.1545	0.8
242.1018	3.1
242.1400	0.2
242.1572	0.1
243.1060	0.3
243.1349	1.2
244.1170	3.1
244.1546	0.3
245.1214	0.4
245.1515	0.1
246.0796	0.1
246.1098	0.3
246.1336	1.0
247.1068	0.1
247.1266	0.5
248.1271	0.1
248.1487	0.1
249.1222	0.4
250.1049	0.3
250.1244	0.1
250.1478	0.1
251.1028	0.5
251.1389	1.3
251.1761	0.1
252.1225	1.5
252.1697	0.1
253.1214	0.6
253.1546	0.5
254.1022	3.6
254.1381	0.2
254.1595	0.1
254.1857	0.5
255.1051	0.5
255.1341	1.5
255.1697	0.2
256.0812	0.4
256.1179	2.3
257.1161	0.5
257.1575	0.2
257.9615	0.2
257.9916	0.1
258.0078	0.1
258.0235	0.2
258.0396	0.6
258.0521	0.3
258.0969	100.0
258.1414	0.8
258.1531	0.6
258.1700	0.3
258.1863	0.1
258.2019	0.1
258.2170	0.1
258.2470	0.1
259.1002	2.0

Name: Ethyl 2-amino-3-carbamoylpropanoate
PrecursorMZ: 161.09193
RT: 4.4945
ExactMass: 160.08479225
Spectrum_type: 2
charge: 1
Formula: C6H12N2O3
SMILES: CCOC(=O)C(CC(=O)N)N
Method: HCD
Collision_energy: [28.333334]
Isolation_window: 4.0
Ion_mode: P
Num Peaks: 180
55.0546	0.3
56.0499	0.7
58.0655	0.6
60.0449	0.3
60.0560	0.6
60.0812	0.7
67.0546	0.2
68.0498	0.4
69.0337	0.7
70.0655	4.8
71.0495	0.8
71.0689	0.2
72.0448	1.4
72.0811	0.5
74.0240	3.5
74.0603	0.8
75.0267	0.8
76.0397	0.9
78.9850	0.2
80.0500	0.3
82.0656	0.4
83.0494	0.3
83.0606	1.1
84.0448	0.9
84.0811	2.7
85.0286	0.5
85.0652	0.8
86.0604	1.3
87.0170	0.2
87.0299	0.2
87.0331	0.4
87.0443	60.9
87.0530	0.3
87.0555	0.4
88.0397	0.3
88.0477	2.5
88.0764	0.3
89.0479	0.2
90.0552	21.5
91.0586	0.7
92.0708	0.7
95.0606	6.5
96.0447	0.6
96.0638	0.3
96.0814	0.3
96.9955	1.1
97.0287	0.8
98.0432	0.2
98.0469	0.5
98.0498	0.3
98.0602	65.4
98.0708	0.4
98.0734	0.4
98.0892	0.2
99.0440	0.2
99.0573	0.2
99.0634	3.6
100.0242	0.4
100.0760	0.6
101.0600	3.6
101.0710	3.4
102.0550	1.7
102.0628	0.2
103.0393	0.4
104.0709	0.6
112.0759	5.4
112.0876	0.2
113.0711	0.8
113.0793	0.4
113.1073	0.8
114.0553	0.8
114.0915	2.6
115.0390	0.2
115.0868	1.3
116.0286	0.3
116.0485	0.2
116.0536	0.6
116.0571	0.5
116.0707	90.3
116.0839	0.4
116.0879	0.7
116.1074	0.7
117.0741	5.0
118.0750	0.4
118.0860	0.7
120.0659	0.2
120.0812	0.3
123.0111	0.2
124.0757	0.4
124.0869	0.9
125.0714	0.4
126.0547	0.3
126.0916	0.3
127.0387	0.3
127.0866	2.9
128.0706	4.7
128.0904	0.2
129.0659	2.7
129.0740	0.2
129.1022	0.4
130.0501	0.5
130.0863	1.7
130.0969	0.3
131.1179	0.2
132.0659	0.3
134.0813	0.6
136.0758	0.5
139.0861	0.2
140.0478	0.2
140.0706	35.0
140.0932	0.2
141.0741	2.7
142.0752	0.3
142.0862	1.2
143.0811	0.7
143.1181	0.2
144.0655	9.0
144.1022	0.2
145.0687	0.6
146.0810	0.4
148.0781	0.4
149.0265	0.5
154.0870	0.3
155.0809	0.4
156.1016	0.3
156.1131	1.5
157.0609	0.7
157.0970	0.2
158.0812	2.6
159.0755	1.0
160.0966	1.1
160.1330	0.2
161.0910	0.5
162.0552	1.3
162.0756	0.7
162.1124	0.9
164.0711	0.5
164.0919	1.6
165.0211	0.5
165.0649	0.2
165.1034	0.3
166.0515	0.5
166.0862	1.0
166.0992	0.2
168.0779	5.1
168.1008	0.2
168.1135	0.2
169.0793	0.4
170.0808	0.4
171.1121	0.6
172.0965	0.4
173.0912	0.6
173.1399	2.7
174.0754	0.5
174.0874	1.3
174.1118	0.3
174.1237	1.0
175.0862	0.3
175.1069	0.2
175.1198	0.5
176.0127	0.2
176.0502	0.2
176.0592	0.6
176.0916	100.0
176.1167	0.6
176.1240	0.8
176.1613	0.2
177.0950	7.6
178.1081	4.3
179.1102	0.3
180.0784	2.1
180.1043	12.8
181.0831	0.2
181.0950	0.3
181.1067	1.1
182.0807	0.2
182.1026	0.5
182.1280	0.3
183.0757	0.5
183.1125	0.2

Name: Ethyl 3-(4-hydroxy-6-methyl-2-oxo-1,2-dihydropyridin-3-yl)-3-(3-hydroxyphenyl)propanoate
PrecursorMZ: 318.12935
RT: 8.5671
ExactMass: 317.12632271
Spectrum_type: 2
charge: 1
Formula: C17H19NO5
SMILES: CCOC(=O)CC(C1=CC(=CC=C1)O)C2=C(C=C(NC2=O)C)O
Method: HCD
Collision_energy: [28.333334]
Isolation_window: 4.0
Ion_mode: P
Num Peaks: 15
70.0656	2.8
112.0871	4.7
113.0236	2.9
114.0664	6.6
158.0925	100.0
159.0958	6.6
196.1080	2.0
214.1187	5.0
300.1552	1.9
316.1177	1.8
317.1828	7.0
318.0971	4.6
318.1295	52.8
319.1325	7.4
320.1126	1.8

Name: Ethyl 3-butyl-4-hydroxy-2-oxohydroquinoline-6-carboxylate
PrecursorMZ: 290.13864
RT: 4.1668
ExactMass: 289.13140809
Spectrum_type: 2
charge: 1
Formula: C16H19NO4
SMILES: CCCCC1=C(C2=C(C=CC(=C2)C(=O)OCC)NC1=O)O
Method: HCD
Collision_energy: [28.333334]
Isolation_window: 4.0
Ion_mode: P
Num Peaks: 110
55.0542	1.0
58.0650	2.0
59.0490	0.7
60.0555	0.8
70.0649	2.9
72.0805	0.6
80.0491	1.1
81.0332	0.7
81.0451	2.5
83.0495	1.8
84.0812	3.0
86.0604	0.8
86.0961	0.6
87.0444	0.8
96.0810	0.8
98.0605	0.6
99.0555	3.5
100.0760	2.3
101.0600	9.5
102.0908	0.5
104.1072	2.9
107.0723	0.6
110.0715	1.6
111.0443	0.9
112.0752	0.6
112.0872	1.0
116.0709	1.1
120.0810	0.8
121.0642	0.7
121.0879	0.6
122.0602	0.6
122.0814	2.1
123.0443	1.2
130.0856	2.5
130.0967	1.2
132.0444	1.5
141.1019	0.7
144.1024	0.6
152.0705	0.6
156.0768	0.7
158.0923	0.6
161.1078	0.9
163.0865	0.6
165.1025	1.9
168.0686	1.9
180.1017	0.7
181.0972	11.5
182.0995	1.0
193.1336	1.6
195.1125	2.0
196.0962	0.6
199.1079	12.8
200.1123	1.2
201.1231	0.5
207.1121	1.1
209.0922	1.1
213.1234	0.7
239.1375	0.7
241.1178	2.7
249.1235	0.5
250.1169	0.5
253.1537	0.6
265.1544	0.6
274.1083	1.1
275.1129	0.7
279.1361	0.7
281.1542	0.6
286.1083	0.7
288.1226	1.2
289.1231	1.7
290.1388	17.8
291.1374	6.0
292.1262	3.5
292.1545	10.0
293.1159	1.1
293.1525	5.5
294.1322	4.0
295.1334	2.1
295.1656	12.6
296.1515	7.7
297.1454	8.3
298.1572	2.9
298.1864	9.1
299.1044	1.0
299.1603	100.0
299.2322	0.6
300.1243	1.7
300.1640	20.5
301.1194	1.4
301.1761	27.8
302.1026	2.0
302.1382	1.4
302.1785	4.0
302.2069	2.8
303.1066	0.8
303.1352	2.2
303.1884	1.4
304.1173	12.1
304.1566	1.4
304.2982	0.8
305.1199	2.0
305.1508	2.6
306.1363	5.3
306.1708	1.2
307.1302	5.6
307.1659	3.0
308.1600	7.1
309.1431	17.1
310.1295	0.7
310.1729	1.1

Name: Ethyl 4-(2-hydroxy-3-(1-piperidinyl)propoxy)-3-methyl-1-benzofuran-2-carboxylate
PrecursorMZ: 362.19583
RT: 1.3535
ExactMass: 361.18892296
Spectrum_type: 2
charge: 1
Formula: C20H27NO5
SMILES: CCOC(=O)C1=C(C2=C(O1)C=CC=C2OCC(CN3CCCCC3)O)C
Method: HCD
Collision_energy: [28.333334]
Isolation_window: 4.0
Ion_mode: P
Num Peaks: 138
57.0703	2.7
67.0547	2.6
69.0703	3.9
81.0701	2.2
83.0495	2.4
85.0651	3.3
86.0967	2.4
95.0494	4.1
95.0858	1.5
97.0650	4.4
107.0493	6.7
109.0649	2.3
112.0759	38.7
119.0493	2.7
121.0649	1.5
126.0914	11.7
140.0706	6.1
145.0647	3.6
147.0805	1.5
154.0864	1.8
156.0656	11.2
170.0811	2.9
173.0596	2.3
175.0752	2.2
185.0960	1.7
187.1115	2.8
189.0910	1.4
189.1274	1.6
191.0702	1.6
194.0813	3.4
197.0955	1.7
199.1116	2.2
201.0912	2.3
203.1066	1.5
205.1223	1.3
206.0811	9.5
208.0969	1.6
211.1116	1.6
213.0910	2.3
215.1065	4.1
217.1221	4.2
218.1174	23.4
219.1210	2.9
220.1333	2.0
224.0916	2.4
227.1065	2.9
229.1223	2.0
230.1174	1.9
231.1014	2.4
232.0963	3.1
232.1331	1.8
233.1171	3.0
235.1327	4.1
236.1286	1.8
238.1076	1.8
239.1063	5.2
241.0857	3.0
241.1220	2.2
242.1175	1.4
243.1016	2.5
244.1332	1.7
245.1171	2.0
246.1487	6.8
248.1283	4.0
249.1118	2.1
255.1018	1.5
256.1328	14.2
257.1171	9.9
257.1365	2.4
258.1108	2.2
258.1487	2.6
259.1326	5.6
260.1278	4.3
262.1433	2.4
266.1395	3.1
267.1011	2.8
267.1388	1.4
269.1172	1.3
271.1326	1.6
272.1276	2.3
274.1435	25.3
275.1469	4.0
276.1228	2.9
276.1592	18.1
277.1426	2.2
279.1381	1.5
281.1534	1.7
284.1276	3.3
284.1643	1.3
285.1115	2.1
288.1590	2.6
289.1431	4.0
292.1542	3.3
296.1639	1.8
297.1482	1.6
298.1805	1.5
299.1641	4.6
302.1384	2.8
302.2118	1.8
308.1643	4.3
309.1485	5.6
311.1639	2.7
314.1747	10.8
315.1773	1.8
316.1905	7.2
318.2063	1.9
326.1747	28.7
326.2115	1.5
327.1589	13.8
327.1783	5.8
328.1623	2.7
328.1904	3.8
329.1747	2.5
332.1850	2.1
334.2009	2.9
342.2062	2.2
343.1909	1.8
344.1853	31.7
344.2206	4.3
345.1697	2.6
345.1891	6.2
345.2062	5.4
346.2010	11.6
360.1803	9.2
360.2171	2.3
361.1817	3.8
361.2022	2.4
361.2199	1.6
362.1960	100.0
362.2418	25.3
363.0610	2.0
363.1413	6.3
363.1795	1.5
363.1987	18.6
363.2174	5.0
363.2445	4.6
364.2027	1.7
364.2116	45.7

Name: Ethyl 4-(dimethylamino)benzoate
PrecursorMZ: 194.11754
RT: 5.6133
ExactMass: 193.110278721
Spectrum_type: 2
charge: 1
Formula: C11H15NO2
SMILES: CCOC(=O)C1=CC=C(C=C1)N(C)C
Method: HCD
Collision_energy: [28.333334]
Isolation_window: 4.0
Ion_mode: P
Num Peaks: 17
124.0393	13.4
148.0758	2.5
149.1071	3.3
151.0866	7.3
152.0705	9.3
165.1021	3.1
166.0861	3.1
177.1020	2.5
193.0607	3.7
193.0970	11.6
194.0811	23.9
194.0919	2.4
194.1173	100.0
195.0764	13.1
195.1125	17.1
195.1208	12.0
196.0967	8.1

Name: Ethyl 8-(3-(2-ethoxy-2-oxoethoxy)phenyl)octanoate
PrecursorMZ: 373.1974
RT: 3.0129
ExactMass: 350.20932405
Spectrum_type: 2
charge: 1
Formula: C20H30O5
SMILES: CCOC(=O)CCCCCCCC1=CC(=CC=C1)OCC(=O)OCC
Method: HCD
Collision_energy: [28.333334]
Isolation_window: 4.0
Ion_mode: P
Num Peaks: 76
70.0656	9.1
72.0812	2.1
81.0338	1.8
83.0495	2.0
84.0812	11.1
86.0605	2.3
87.0444	2.2
96.0811	2.3
98.0716	1.8
100.0761	1.9
101.0600	8.4
111.0445	3.8
112.0871	2.6
116.0709	3.6
118.0866	2.0
120.0810	3.0
126.0552	2.0
128.0708	2.4
130.0865	11.6
137.0707	2.2
141.0480	2.1
146.0925	2.9
149.0234	4.0
154.0863	2.5
156.1024	2.4
176.1071	14.9
181.0962	2.1
194.1172	2.6
195.1132	1.8
216.0863	3.1
225.1226	2.3
237.1245	2.0
255.1342	3.6
258.1103	1.8
272.1230	3.2
273.1448	8.6
332.1522	2.4
345.1660	6.1
360.1441	6.9
363.1768	2.7
371.1895	4.4
372.1428	28.2
372.2096	5.5
373.1466	11.2
373.1977	100.0
374.1620	9.4
374.2007	18.6
375.1588	10.3
375.1989	2.5
376.1421	4.7
376.1849	5.2
377.1364	2.7
377.1748	13.4
378.1570	18.0
379.1532	7.1
379.1988	7.8
380.1346	13.8
380.1846	15.0
381.1720	15.3
382.1447	9.7
382.1954	6.6
383.1920	8.4
384.1645	7.7
384.2097	8.1
385.1419	1.9
385.2050	12.9
386.1584	3.7
386.1977	2.1
387.1552	5.1
387.1945	5.7
388.1425	8.1
388.1899	3.3
389.1746	7.4
390.1557	12.8
391.1558	6.0
391.1959	3.0

Name: Ethyl Hematommate
PrecursorMZ: 242.10183
RT: 5.9677
ExactMass: 224.06847348
Spectrum_type: 2
charge: 1
Formula: C11H12O5
SMILES: CCOC(=O)C1=C(C(=C(C=C1C)O)C=O)O
Method: HCD
Collision_energy: [28.333334]
Isolation_window: 4.0
Ion_mode: P
Num Peaks: 173
57.0338	6.0
69.0700	1.1
69.8919	0.7
70.0653	2.8
70.3691	0.7
72.0809	1.1
75.0442	12.1
80.0496	1.1
81.0336	4.9
81.0699	0.6
82.0652	0.9
83.0493	2.9
83.0605	18.7
84.0445	7.0
84.0809	2.4
86.0601	1.1
86.0965	11.0
87.0441	2.2
93.0546	2.2
95.0490	1.0
95.0605	1.1
96.0441	0.7
97.0284	1.5
98.0600	2.2
98.0963	2.3
99.0438	0.7
100.0756	1.5
100.1120	5.4
101.0596	1.5
102.0547	0.7
105.0697	2.0
108.0443	5.1
109.0520	1.3
110.0600	2.3
111.0440	15.4
112.0474	1.7
112.0754	1.1
114.0548	1.0
116.0704	1.1
119.0702	1.9
121.0643	0.7
121.0758	0.9
122.0598	3.7
124.0755	2.8
126.0546	2.3
126.0660	5.3
128.0703	0.8
129.0656	3.2
130.0495	1.4
130.0860	3.3
131.0701	3.2
132.1016	6.8
133.0756	1.5
134.0597	2.0
134.0961	0.9
135.0914	2.9
135.0994	1.8
136.0391	1.6
136.0754	2.3
138.0543	1.2
140.0701	1.2
141.0651	0.6
142.0493	0.8
144.0653	1.1
146.0597	1.6
147.0914	2.1
148.0753	1.0
149.0804	2.4
149.1150	1.1
150.0545	1.9
151.0626	1.8
151.0862	2.4
152.0703	23.3
152.0816	1.0
153.0655	1.0
153.0735	1.1
153.1018	3.2
160.0754	1.2
161.1069	2.4
162.0544	1.3
163.0862	3.5
164.0702	6.6
165.0541	0.6
165.0736	0.9
165.1018	3.6
166.0858	1.1
166.0971	3.9
167.0810	0.6
167.0909	1.5
169.0964	0.7
173.0701	0.8
175.0861	1.9
176.0702	3.1
176.1260	2.3
177.1018	4.5
178.0610	1.8
178.0857	2.2
179.0811	1.7
179.1174	1.3
180.0651	1.3
180.1010	0.8
181.0602	1.3
181.0965	1.5
182.0807	3.1
183.0761	1.4
188.0700	1.6
189.1017	5.0
193.0967	2.1
194.0806	4.3
194.1171	0.8
195.1121	2.2
196.0962	2.9
196.1074	5.1
196.1438	7.2
197.0914	1.7
197.1278	8.7
197.1642	1.5
198.1119	1.4
198.1318	1.1
200.0004	0.8
205.0963	2.3
206.0806	4.7
207.1122	12.4
208.0962	2.8
212.1023	19.1
212.1468	1.9
213.1062	1.2
215.1379	0.6
222.1118	1.7
222.1228	1.2
223.1068	5.3
224.0912	11.4
224.1020	1.6
224.1275	1.4
225.0855	2.1
225.0949	0.8
225.1226	16.4
226.0695	0.7
226.1068	4.4
226.1182	0.7
240.0862	3.6
240.1061	1.4
240.1222	5.5
240.1336	5.0
240.1580	0.6
241.0882	1.3
241.0973	2.0
241.1172	13.9
241.1273	1.1
241.1370	0.9
241.1537	5.5
241.1687	2.7
242.0820	2.8
242.0923	1.8
242.1015	100.0
242.1129	43.2
242.1217	1.3
242.1377	5.0
242.1491	20.3
242.1735	0.9
243.0865	1.4
243.0962	1.0
243.1057	10.1
243.1131	2.1
243.1157	4.5
243.1329	35.4
243.1521	1.7
243.1691	2.9
244.0961	3.5
244.1068	0.6
244.1173	9.2
244.1295	1.3
244.1365	1.7

Name: Ethyl Oleate
PrecursorMZ: 311.29383
RT: 1.2285
ExactMass: 310.287180451
Spectrum_type: 2
charge: 1
Formula: C20H38O2
SMILES: CCCCCCCC/C=C\CCCCCCCC(=O)OCC
Method: HCD
Collision_energy: [28.333334]
Isolation_window: 4.0
Ion_mode: P
Num Peaks: 65
55.0546	5.0
57.0703	12.5
67.0546	14.9
69.0702	52.8
70.0735	2.4
71.0859	8.7
79.0545	3.0
81.0702	70.2
82.0735	4.3
83.0858	39.8
84.0892	2.7
85.0650	13.8
85.1014	4.9
93.0700	7.8
95.0857	100.0
96.0890	6.4
97.1013	37.9
98.1048	2.4
99.0806	17.1
107.0856	11.9
109.1013	85.7
110.1046	8.1
111.1169	28.4
113.0962	12.6
120.0807	3.3
121.1012	12.3
123.1168	55.8
124.1201	4.5
125.1325	11.7
127.1118	3.2
129.1273	6.3
135.1167	16.0
136.1202	2.0
137.1324	21.4
138.1356	2.3
139.1480	2.6
141.1274	2.2
143.1429	5.8
149.1324	24.2
150.1357	3.7
151.1480	19.1
155.1431	2.1
157.1588	2.1
163.1480	16.6
165.1637	13.2
166.1671	1.8
169.1587	5.1
177.1636	9.2
179.1793	10.9
183.1743	3.1
191.1791	4.9
193.1948	4.8
197.1899	2.7
205.1947	5.8
219.2102	5.4
223.2057	2.2
237.2206	2.8
275.2729	26.7
276.2760	4.3
293.2835	19.5
294.2870	4.4
311.2941	22.6
312.2976	4.9
312.3619	1.9
313.2728	1.9

Name: Ethyl butylacetylaminopropionate
PrecursorMZ: 216.15937
RT: 8.7121
ExactMass: 215.15214353
Spectrum_type: 2
charge: 1
Formula: C11H21NO3
SMILES: CCCCN(CCC(=O)OCC)C(=O)C
Method: HCD
Collision_energy: [28.333334]
Isolation_window: 4.0
Ion_mode: P
Num Peaks: 22
70.0655	3.0
72.0812	3.9
84.0811	2.0
86.0967	29.2
114.0915	11.5
142.1227	2.1
170.1176	1.9
198.1118	2.1
214.1437	3.4
215.0816	1.8
215.1023	2.6
215.1385	5.6
215.1778	1.8
216.1025	2.6
216.1233	5.1
216.1593	100.0
217.0966	2.3
217.1166	2.1
217.1340	2.6
217.1629	11.1
218.0810	1.9
218.1384	3.6

Name: Ethyl piperidine-2-carboxylate
PrecursorMZ: 158.11749
RT: 7.5012
ExactMass: 157.110278721
Spectrum_type: 2
charge: 1
Formula: C8H15NO2
SMILES: CCOC(=O)C1CCCCN1
Method: HCD
Collision_energy: [28.333334]
Isolation_window: 4.0
Ion_mode: P
Num Peaks: 13
95.0605	1.5
98.0966	2.9
99.0554	1.5
112.0758	2.4
115.9641	1.7
140.1069	1.5
157.0608	1.8
157.0973	3.4
157.1698	12.3
158.1174	100.0
158.1538	3.1
159.1207	7.5
160.0968	1.8

Name: Ethylenediaminetetraacetic Acid
PrecursorMZ: 293.09773
RT: 8.3051
ExactMass: 292.09066547
Spectrum_type: 2
charge: 1
Formula: C10H16N2O8
SMILES: C(CN(CC(=O)O)CC(=O)O)N(CC(=O)O)CC(=O)O
Method: HCD
Collision_energy: [28.333334]
Isolation_window: 4.0
Ion_mode: P
Num Peaks: 26
74.0604	2.3
86.0604	4.3
88.0396	6.1
101.0600	1.1
102.0552	2.1
112.0759	1.4
114.0551	7.2
132.0656	57.0
133.0688	2.6
160.0605	100.0
161.0638	6.1
247.0924	2.5
291.1693	1.2
291.1814	2.5
291.1997	2.0
291.2429	1.2
292.1179	4.2
292.1388	1.2
292.1539	1.6
292.1671	1.8
293.0978	23.0
293.1605	1.1
294.1002	2.3
294.1356	1.3
294.1814	2.0
295.1640	2.4

Name: Etiocholanolone
PrecursorMZ: 291.23108
RT: 1.0493
ExactMass: 290.224580195
Spectrum_type: 2
charge: 1
Formula: C19H30O2
SMILES: C[C@]12CC[C@H](C[C@H]1CC[C@@H]3[C@@H]2CC[C@]4([C@H]3CCC4=O)C)O
Method: HCD
Collision_energy: [28.333334]
Isolation_window: 4.0
Ion_mode: P
Num Peaks: 19
57.0702	15.4
67.0545	23.6
69.8460	13.1
79.0543	21.0
81.0700	42.1
93.0699	50.7
95.0855	34.3
107.0855	43.2
109.1010	29.9
119.0854	16.7
121.1009	36.2
133.1007	13.2
135.1164	45.5
147.1164	15.1
149.1320	33.2
161.1320	12.6
163.1475	14.0
291.2304	100.0
292.2350	20.7

Name: Eupalinilide B
PrecursorMZ: 361.16014
RT: 5.8553
ExactMass: 360.15728848
Spectrum_type: 2
charge: 1
Formula: C20H24O6
SMILES: C/C(=C\CO)/C(=O)O[C@@H]1CC(=C)[C@@H]2C=C[C@@]([C@@H]2[C@@H]3[C@@H]1C(=C)C(=O)O3)(C)O
Method: HCD
Collision_energy: [28.333334]
Isolation_window: 4.0
Ion_mode: P
Num Peaks: 45
59.0608	1.2
70.0656	5.0
84.0812	4.3
112.0871	1.2
114.0550	1.2
114.1027	1.3
116.0708	1.6
128.0711	1.2
130.0862	2.4
139.0392	1.0
147.1130	1.0
158.0821	1.3
181.0971	4.1
182.0811	1.1
199.1078	1.3
204.0985	1.3
217.1297	2.1
253.1185	1.6
255.0654	1.2
271.1288	41.2
272.1321	6.0
285.1453	1.2
288.1312	1.3
299.0911	1.9
301.0696	1.8
315.0864	1.0
341.1015	2.7
342.1020	1.1
343.1606	3.8
359.1551	1.6
360.1382	2.2
360.1765	1.0
361.1615	100.0
362.1646	18.6
363.1681	3.7
364.1733	2.1
366.1565	2.2
370.1671	3.9
373.1680	1.9
374.1190	3.4
375.1805	3.0
376.1375	2.7
376.1836	2.1
377.1642	2.2
379.1770	1.1

Name: Eupalinilide D
PrecursorMZ: 337.07925
RT: 6.4688
ExactMass: 314.0921014
Spectrum_type: 2
charge: 1
Formula: C15H19ClO5
SMILES: CC1=C[C@H]([C@@H]2[C@H]1[C@@H]3[C@@H]([C@@H](C[C@@]2(CCl)O)O)C(=C)C(=O)O3)O
Method: HCD
Collision_energy: [28.333334]
Isolation_window: 4.0
Ion_mode: P
Num Peaks: 11
84.0810	8.2
143.0700	5.1
192.1016	5.2
319.1280	5.3
336.1622	4.8
336.2541	5.7
337.0789	100.0
337.1389	9.1
337.1755	8.5
338.0822	12.8
338.3411	16.6

Name: Eurycomalactone
PrecursorMZ: 349.16029
RT: 12.9857
ExactMass: 348.15728848
Spectrum_type: 2
charge: 1
Formula: C19H24O6
SMILES: C[C@H]1[C@@H]2[C@@H]([C@@H]3[C@@]4([C@@H](CC(=O)[C@]3([C@H]1C(=O)O2)C)C(=CC(=O)[C@H]4O)C)C)O
Method: HCD
Collision_energy: [28.333334]
Isolation_window: 4.0
Ion_mode: P
Num Peaks: 12
169.0969	2.7
176.8752	3.4
230.1259	2.8
241.1189	1.5
258.1205	2.9
259.1287	24.7
260.1317	3.1
313.1381	1.5
349.1605	100.0
350.1638	16.2
351.1650	3.2
356.3517	1.5

Name: Evodiamine
PrecursorMZ: 304.14371
RT: 8.4684
ExactMass: 303.137162174
Spectrum_type: 2
charge: 1
Formula: C19H17N3O
SMILES: CN1[C@@H]2C3=C(CCN2C(=O)C4=CC=CC=C41)C5=CC=CC=C5N3
Method: HCD
Collision_energy: [28.333334]
Isolation_window: 4.0
Ion_mode: P
Num Peaks: 18
84.0813	46.4
98.0604	10.9
116.0709	21.0
128.0709	14.5
181.0975	34.2
213.1228	15.7
223.1196	15.1
240.1456	100.0
241.1483	12.4
273.1446	10.0
291.1550	19.5
304.1442	78.2
304.2998	14.5
305.1460	10.1
306.0682	10.1
309.1668	30.7
310.1321	21.2
313.1396	65.1

Name: Evodine
PrecursorMZ: 330.12921
RT: 8.8211
ExactMass: 329.12632271
Spectrum_type: 2
charge: 1
Formula: C18H19NO5
SMILES: CC(=C)C(COC1=C(C2=C(C=C1)C(=C3C=COC3=N2)OC)OC)O
Method: HCD
Collision_energy: [28.333334]
Isolation_window: 4.0
Ion_mode: P
Num Peaks: 16
84.0448	13.3
102.0551	7.7
114.0915	13.3
130.0500	7.5
138.0549	11.0
156.0655	14.3
183.0764	9.0
183.0917	40.3
184.0948	10.4
201.0866	8.1
259.0174	7.2
267.0980	8.0
295.0925	10.0
313.1029	41.1
330.1296	100.0
331.1315	13.9

Name: Evoxine
PrecursorMZ: 348.14401
RT: 4.3808
ExactMass: 347.13688739
Spectrum_type: 2
charge: 1
Formula: C18H21NO6
SMILES: CC(C)(C(COC1=C(C2=C(C=C1)C(=C3C=COC3=N2)OC)OC)O)O
Method: HCD
Collision_energy: [28.333334]
Isolation_window: 4.0
Ion_mode: P
Num Peaks: 29
70.0656	1.4
84.0812	1.5
101.0599	2.5
172.1119	1.2
191.1177	1.5
231.1254	1.1
248.1283	1.9
254.1022	2.8
274.1074	20.9
275.1113	3.4
302.1381	4.0
330.1336	20.3
331.1362	3.4
348.1443	100.0
349.1466	20.5
350.1491	2.7
351.1539	2.2
352.1885	1.1
353.1711	9.9
354.1541	22.2
355.1534	4.1
355.1875	8.0
356.1965	2.2
357.1648	2.5
357.2083	2.6
363.1566	2.3
364.1355	3.1
365.1752	1.8
366.1543	1.9

Name: Excavatin M
PrecursorMZ: 383.11004
RT: 2.0897
ExactMass: 360.12090297
Spectrum_type: 2
charge: 1
Formula: C19H20O7
SMILES: CC1(CC(OC1=O)CC2(C(O2)COC3=CC4=C(C=C3)C=CC(=O)O4)C)O
Method: HCD
Collision_energy: [28.333334]
Isolation_window: 4.0
Ion_mode: P
Num Peaks: 4
139.9148	14.8
340.2584	13.0
383.1100	100.0
384.1131	20.4

Name: Fagomine
PrecursorMZ: 148.09659
RT: 10.8002
ExactMass: 147.08954328
Spectrum_type: 2
charge: 1
Formula: C6H13NO3
SMILES: C1CN[C@@H]([C@H]([C@@H]1O)O)CO
Method: HCD
Collision_energy: [28.333334]
Isolation_window: 4.0
Ion_mode: P
Num Peaks: 30
56.0498	4.8
57.0452	4.5
58.0655	8.1
60.0448	8.5
60.0811	7.4
67.0546	8.5
68.0498	12.2
70.0653	7.0
71.0494	5.2
73.0650	8.5
82.0653	8.1
84.0810	8.3
86.0602	49.6
88.0394	39.9
90.0914	10.5
94.0652	14.6
104.0705	4.5
104.1069	6.4
112.0756	26.8
130.0860	55.1
146.1285	12.5
147.0586	13.0
148.0965	100.0
148.1118	16.1
148.1328	8.5
149.0229	5.3
149.1000	7.7
149.1070	62.4
150.0910	12.0
150.1121	5.0

Name: Fallacinol
PrecursorMZ: 318.09684
RT: 1.678
ExactMass: 300.0633881
Spectrum_type: 2
charge: 1
Formula: C16H12O6
SMILES: COC1=CC2=C(C(=C1)O)C(=O)C3=C(C2=O)C=C(C=C3O)CO
Method: HCD
Collision_energy: [28.333334]
Isolation_window: 4.0
Ion_mode: P
Num Peaks: 69
68.9975	2.8
70.0656	7.5
81.0338	3.0
84.0812	5.5
101.0599	2.8
107.0493	5.5
111.0445	3.1
116.0712	3.4
123.0443	3.1
130.0866	3.5
137.0237	3.0
138.0550	14.7
152.0709	3.1
161.0600	7.2
181.0974	12.9
189.0547	13.7
189.0782	7.5
195.1132	7.5
202.0870	5.9
206.0814	2.7
208.0605	4.0
212.0706	6.6
213.0548	6.4
214.0622	11.5
214.0859	3.9
215.0703	37.5
216.0737	4.4
227.0705	2.8
230.0814	43.9
231.0652	2.7
231.0851	8.5
241.0496	2.8
244.0972	2.9
245.0444	21.3
246.0474	2.7
255.0649	3.6
256.0613	2.8
272.0908	8.3
283.0600	34.1
284.0637	5.8
300.0866	14.0
301.0701	32.8
302.0731	5.5
316.1179	2.7
317.1102	3.4
318.0971	100.0
319.0842	18.9
319.1644	2.7
320.0847	2.9
320.1380	7.8
320.1965	5.7
321.1410	3.8
322.1493	4.1
324.1487	3.9
325.1454	4.6
325.1848	4.5
326.1622	8.0
327.1645	4.1
328.1500	6.9
329.1028	4.9
329.1449	2.8
330.0966	9.1
330.1642	3.5
331.1576	4.2
332.1111	5.1
333.1716	3.6
334.1454	3.9
336.1555	3.1
337.1399	3.4

Name: Famciclovir
PrecursorMZ: 322.15431
RT: 5.3001
ExactMass: 321.1437041
Spectrum_type: 2
charge: 1
Formula: C14H19N5O4
SMILES: CC(=O)OCC(CCN1C=NC2=CN=C(N=C21)N)COC(=O)C
Method: HCD
Collision_energy: [28.333334]
Isolation_window: 4.0
Ion_mode: P
Num Peaks: 37
56.0499	4.0
60.0562	2.8
70.0656	9.3
84.0812	2.9
87.0792	1.8
112.0873	3.7
114.1029	1.9
115.0867	4.1
116.0709	4.3
122.0814	7.3
126.0663	10.5
130.0862	1.9
131.1290	1.9
158.0928	7.2
175.1192	18.0
176.0826	2.3
187.1431	3.8
196.0719	1.9
198.1241	2.0
199.1077	3.2
210.0794	4.0
223.1187	1.9
231.1328	24.6
232.1364	2.3
241.1296	10.1
258.1562	100.0
259.1592	11.8
262.1190	6.4
322.1545	98.8
323.1579	18.0
324.1500	9.2
325.1775	11.1
326.1794	3.0
330.3358	1.9
336.1440	1.9
338.1736	5.0
340.1956	2.8

Name: Fenoxycarb
PrecursorMZ: 302.13839
RT: 7.793866666666666
ExactMass: 301.13140809
Spectrum_type: 2
charge: 1
Formula: C17H19NO4
SMILES: CCOC(=O)NCCOC1=CC=C(C=C1)OC2=CC=CC=C2
Method: HCD
Collision_energy: [28.333334]
Isolation_window: 4.0
Ion_mode: P
Num Peaks: 25
55.0546	7.6
70.0654	5.1
72.0811	3.4
83.0493	4.0
84.0810	3.6
101.0597	18.1
112.0757	4.6
116.0704	3.7
130.0858	4.0
173.0376	24.0
200.1027	3.4
202.0858	32.4
203.0894	4.3
300.1404	4.2
300.1565	3.5
301.0957	43.3
301.1510	24.3
302.1016	13.8
302.1375	100.0
302.1703	11.8
303.1387	12.2
304.1168	6.8
304.1381	4.0
304.1529	6.0
304.2111	11.3

Name: Fexofenadine
PrecursorMZ: 502.29484
RT: 7.4487
ExactMass: 501.28790873
Spectrum_type: 2
charge: 1
Formula: C32H39NO4
SMILES: CC(C)(C1=CC=C(C=C1)C(CCCN2CCC(CC2)C(C3=CC=CC=C3)(C4=CC=CC=C4)O)O)C(=O)O
Method: HCD
Collision_energy: [28.333334]
Isolation_window: 4.0
Ion_mode: P
Num Peaks: 24
51.8085	1.7
55.8094	1.5
55.8109	5.0
55.9224	1.6
69.3246	1.5
91.0545	2.0
97.3986	1.5
129.0699	1.5
131.0855	6.3
171.1168	23.6
172.1201	2.9
233.1171	4.2
250.1593	1.5
262.1590	4.6
466.2738	33.6
467.2771	10.4
484.2846	15.0
485.2878	4.7
500.2787	2.1
501.1943	2.5
501.2835	3.5
502.2950	100.0
503.2983	32.8
504.3025	2.7

Name: Fexofenadine Hydrochloride
PrecursorMZ: 502.29473
RT: 5.1217
ExactMass: 537.2645865
Spectrum_type: 2
charge: 1
Formula: C32H40ClNO4
SMILES: CC(C)(C1=CC=C(C=C1)C(CCCN2CCC(CC2)C(C3=CC=CC=C3)(C4=CC=CC=C4)O)O)C(=O)O.Cl
Method: HCD
Collision_energy: [28.333334]
Isolation_window: 4.0
Ion_mode: P
Num Peaks: 55
51.8085	3.7
51.9199	1.2
53.8096	1.4
55.8108	5.5
55.9223	1.6
70.0656	0.9
72.0811	0.8
82.0655	1.3
86.0967	0.9
87.0443	2.1
91.0544	3.7
96.0809	1.0
116.0707	0.8
124.1120	0.8
129.0698	3.3
131.0855	17.0
132.0889	1.2
143.0855	1.7
171.1168	54.1
172.1201	5.6
173.1325	0.8
177.0912	0.9
189.1275	1.8
191.0699	1.0
217.1220	0.8
219.1169	1.0
233.1169	7.3
234.1206	1.6
246.1487	1.1
250.1588	3.0
260.1645	2.1
262.1587	9.1
263.1620	2.0
272.1640	1.2
280.1691	1.1
288.1748	0.7
298.1800	2.1
344.1595	1.1
345.1679	1.0
466.2737	67.1
467.2770	22.3
468.2806	2.5
469.2446	1.4
484.2843	26.3
485.2877	9.1
486.2918	0.9
500.2788	1.7
501.2718	3.1
501.2780	3.5
502.2180	0.9
502.2949	100.0
502.3715	0.8
503.2983	33.5
504.2730	0.8
504.3037	2.8

Name: Flavan-3,3',4',5,5',7-hexol
PrecursorMZ: 329.06455
RT: 1.2666
ExactMass: 306.07395278
Spectrum_type: 2
charge: 1
Formula: C15H14O7
SMILES: C1C(C(OC2=CC(=CC(=C21)O)O)C3=CC(=C(C(=C3)O)O)O)O
Method: HCD
Collision_energy: [28.333334]
Isolation_window: 4.0
Ion_mode: P
Num Peaks: 23
86.0965	1.5
112.0756	0.5
121.0280	0.7
126.0912	0.6
188.0701	0.7
202.0858	1.0
240.0410	0.4
257.0429	0.4
286.0463	0.9
313.0331	0.9
314.0410	43.2
315.0444	7.4
316.0462	0.8
327.0482	0.4
329.0233	0.6
329.0325	0.5
329.0645	100.0
329.1053	0.7
329.1467	0.5
329.2219	0.4
330.0678	18.8
331.0701	1.8
331.2077	0.8

Name: Flavanomarein
PrecursorMZ: 473.10504
RT: 6.1591
ExactMass: 450.11621151
Spectrum_type: 2
charge: 1
Formula: C21H22O11
SMILES: C1[C@H](OC2=C(C1=O)C=CC(=C2O)O[C@H]3[C@@H]([C@H]([C@@H]([C@H](O3)CO)O)O)O)C4=CC(=C(C=C4)O)O
Method: HCD
Collision_energy: [28.333334]
Isolation_window: 4.0
Ion_mode: P
Num Peaks: 4
52.5674	5.5
473.1036	100.0
473.1318	16.3
474.1074	14.0

Name: Flavin Mononucleotide
PrecursorMZ: 439.10126
RT: 5.5744
ExactMass: 456.10461526
Spectrum_type: 2
charge: 1
Formula: C17H21N4O9P
SMILES: CC1=CC2=C(C=C1C)N(C3=NC(=O)NC(=O)C3=N2)C[C@@H]([C@@H]([C@@H](COP(=O)(O)O)O)O)O
Method: HCD
Collision_energy: [28.333334]
Isolation_window: 4.0
Ion_mode: P
Num Peaks: 17
70.0655	5.6
81.0338	9.6
86.0967	5.2
89.0599	7.9
98.9844	5.0
99.0442	7.7
114.0916	5.5
116.0707	11.1
243.0876	16.9
299.2577	11.3
323.1135	7.3
341.1241	17.7
359.1345	7.6
396.0954	16.8
421.0906	10.1
439.1009	100.0
440.1049	18.3

Name: Flindersine
PrecursorMZ: 228.10137
RT: 1.3812
ExactMass: 227.094628657
Spectrum_type: 2
charge: 1
Formula: C14H13NO2
SMILES: CC1(C=CC2=C(O1)C3=CC=CC=C3NC2=O)C
Method: HCD
Collision_energy: [28.333334]
Isolation_window: 4.0
Ion_mode: P
Num Peaks: 12
67.0545	11.4
81.0700	6.5
95.0855	9.3
109.1010	25.7
123.1165	4.7
165.0694	11.1
180.0805	6.6
182.0959	100.0
183.0992	11.5
228.1011	66.0
229.1046	9.1
229.1423	9.0

Name: Flunixin
PrecursorMZ: 297.08393
RT: 8.416
ExactMass: 296.07726208
Spectrum_type: 2
charge: 1
Formula: C14H11F3N2O2
SMILES: CC1=C(C=CC=C1NC2=C(C=CC=N2)C(=O)O)C(F)(F)F
Method: HCD
Collision_energy: [28.333334]
Isolation_window: 4.0
Ion_mode: P
Num Peaks: 5
132.0441	27.2
295.1644	25.6
296.1107	29.0
297.0838	100.0
297.1430	31.9

Name: Fluocinolone Acetonide
PrecursorMZ: 453.20914
RT: 2.0148
ExactMass: 452.201045
Spectrum_type: 2
charge: 1
Formula: C24H30F2O6
SMILES: C[C@]12C[C@@H]([C@]3([C@H]([C@@H]1C[C@@H]4[C@]2(OC(O4)(C)C)C(=O)CO)C[C@@H](C5=CC(=O)C=C[C@@]53C)F)F)O
Method: HCD
Collision_energy: [28.333334]
Isolation_window: 4.0
Ion_mode: P
Num Peaks: 3
97.4575	10.3
453.2087	100.0
454.2129	17.7

Name: Fluopyram
PrecursorMZ: 397.053
RT: 6.5491
ExactMass: 396.0464096
Spectrum_type: 2
charge: 1
Formula: C16H11ClF6N2O
SMILES: C1=CC=C(C(=C1)C(=O)NCCC2=C(C=C(C=N2)C(F)(F)F)Cl)C(F)(F)F
Method: HCD
Collision_energy: [28.333334]
Isolation_window: 4.0
Ion_mode: P
Num Peaks: 5
59.0609	8.7
396.1835	7.8
397.0530	100.0
398.0567	13.5
399.0529	6.1

Name: Fluvastatin
PrecursorMZ: 394.18169
RT: 5.6631
ExactMass: 411.18458647
Spectrum_type: 2
charge: 1
Formula: C24H26FNO4
SMILES: CC(C)N1C2=CC=CC=C2C(=C1/C=C/[C@@H](C[C@@H](CC(=O)O)O)O)C3=CC=C(C=C3)F
Method: HCD
Collision_energy: [28.333334]
Isolation_window: 4.0
Ion_mode: P
Num Peaks: 125
58.0529	2.6
69.0338	3.8
69.0699	2.8
70.0654	3.6
72.0809	33.8
81.0335	5.1
84.0444	7.0
84.0808	3.7
85.0283	3.4
86.0964	48.9
86.0989	4.5
87.0555	3.2
87.0997	3.3
96.0442	8.7
96.0808	2.7
97.0284	3.3
98.0965	2.9
99.0438	2.7
110.0714	4.2
110.0964	2.7
113.1073	24.5
114.1105	3.0
118.0862	2.3
120.0655	2.9
127.0388	3.1
127.1228	27.5
128.1260	3.6
132.1018	5.6
133.0607	5.3
137.1071	9.0
138.0911	6.5
141.1020	2.3
144.0654	3.6
150.0912	27.5
151.0945	3.1
151.1228	10.8
152.1068	5.7
155.1178	2.7
162.0762	3.0
164.1068	50.3
165.1101	4.4
168.1016	3.0
178.1219	2.9
180.1016	9.6
182.1172	4.5
185.1648	2.6
188.0912	4.0
194.1174	7.9
196.0966	4.4
196.1329	10.2
198.0756	13.1
198.0866	4.7
198.1121	7.9
201.0866	2.1
207.1125	3.1
209.1644	3.9
210.1121	8.3
211.0709	10.3
211.1436	2.7
212.1277	14.2
216.1226	14.7
217.1266	2.1
227.1750	9.7
228.1785	2.7
229.1542	6.6
230.1383	32.6
231.1698	21.4
232.1283	4.0
232.1734	4.1
233.1491	9.6
241.0816	2.1
243.1698	5.9
246.0967	5.4
255.1698	13.8
256.1735	5.7
257.1490	11.7
263.1751	5.3
265.1546	3.2
272.1962	38.2
273.2001	13.1
274.1758	3.2
293.1127	8.2
293.1489	8.5
296.1962	8.8
297.1804	13.7
298.1834	3.0
299.1596	3.4
305.1124	3.3
309.1802	52.8
310.1391	38.0
310.1835	15.7
311.1427	4.5
311.1593	100.0
312.1628	8.6
313.1748	2.7
322.1390	6.7
323.1590	3.4
339.1907	6.0
340.1496	18.9
341.1522	3.0
341.1699	15.0
357.2013	18.9
358.1606	9.4
358.2044	4.7
359.1806	65.5
360.1837	6.7
375.2114	8.8
376.1718	10.8
376.2155	2.4
377.1918	26.6
392.2378	9.6
393.1773	2.9
393.1826	6.1
393.2167	3.3
393.2208	5.4
393.2427	6.8
394.1555	3.2
394.1803	9.0
394.1852	6.6
394.2145	5.7
394.2700	2.9
395.1583	3.5
395.2008	27.8
395.2326	3.5
396.2046	2.6

Name: Formyl-l-lysine
PrecursorMZ: 175.10778
RT: 5.0991
ExactMass: 174.10044231
Spectrum_type: 2
charge: 1
Formula: C7H14N2O3
SMILES: C(CCN)C[C@@H](C(=O)O)NC=O
Method: HCD
Collision_energy: [28.333334]
Isolation_window: 4.0
Ion_mode: P
Num Peaks: 44
58.0656	2.1
60.0813	7.6
67.0547	2.8
69.0340	7.8
70.0656	6.3
78.9851	1.7
84.0812	75.9
85.0653	4.2
85.0844	4.2
96.9955	8.8
98.0603	2.4
101.1075	3.5
102.0915	2.8
112.0760	26.6
113.0712	7.6
113.0793	1.9
114.0552	1.6
115.0868	4.8
116.0709	10.0
129.1024	34.0
130.0864	42.0
130.1052	3.4
131.0901	3.0
135.0443	2.3
140.0706	2.8
144.0656	2.0
147.1129	13.2
158.0814	10.3
159.0763	13.6
162.0763	3.6
165.0216	20.9
175.1079	53.8
176.0917	11.0
176.1104	3.0
178.1079	3.5
180.0816	21.0
180.1051	100.0
181.0841	2.7
181.1071	9.4
182.1020	7.1
184.0603	2.4
190.1075	4.6
194.1024	2.5
194.1176	8.0

Name: Forskolin
PrecursorMZ: 433.21949
RT: 3.5866
ExactMass: 410.23045342
Spectrum_type: 2
charge: 1
Formula: C22H34O7
SMILES: CC(=O)O[C@H]1[C@H]([C@@H]2[C@]([C@H](CCC2(C)C)O)([C@@]3([C@@]1(O[C@@](CC3=O)(C)C=C)C)O)C)O
Method: HCD
Collision_energy: [28.333334]
Isolation_window: 4.0
Ion_mode: P
Num Peaks: 16
70.0657	12.3
89.0601	11.4
112.0873	9.1
120.0812	9.2
133.0865	6.6
149.0238	7.2
166.0868	11.2
209.0925	10.4
251.1144	6.8
268.1413	10.5
270.1922	11.0
286.1514	55.5
287.1540	6.8
433.2200	100.0
434.2251	23.2
435.2242	6.5

Name: Fraxidin
PrecursorMZ: 223.05983
RT: 5.0135
ExactMass: 222.05282342
Spectrum_type: 2
charge: 1
Formula: C11H10O5
SMILES: COC1=C(C(=C2C(=C1)C=CC(=O)O2)O)OC
Method: HCD
Collision_energy: [28.333334]
Isolation_window: 4.0
Ion_mode: P
Num Peaks: 86
74.0603	3.5
81.0336	2.3
85.0287	1.4
86.0966	1.4
95.0605	2.2
103.0543	1.3
105.0699	1.4
107.0491	1.5
108.0807	3.2
111.0441	1.3
120.0807	25.5
121.0283	1.6
121.0840	2.1
122.0232	1.4
122.0599	1.5
131.0489	6.6
133.1009	2.9
134.0599	2.6
135.0438	2.6
136.0754	2.7
137.0230	5.4
147.0438	9.1
148.0756	2.1
149.0595	4.6
150.0548	1.5
151.0387	1.3
152.0703	2.8
158.0963	1.5
159.0439	4.5
160.0753	1.9
162.0548	1.9
163.0387	6.4
164.0704	4.7
165.0545	3.6
165.0646	3.8
166.0859	5.2
175.0387	3.1
175.0865	1.9
176.0702	2.6
176.1066	9.0
176.1430	1.6
177.0542	6.4
177.0657	1.6
177.1019	2.2
178.0858	7.3
178.1224	1.8
179.0810	1.7
188.0700	1.4
192.0413	7.3
193.0497	3.3
203.0811	2.5
204.0651	7.8
204.0760	2.1
204.1015	2.3
205.0490	3.5
205.0968	4.9
206.0808	6.3
206.1170	1.4
207.0761	2.0
207.1126	1.8
221.0915	6.1
221.1005	2.3
221.1279	7.5
222.0756	10.3
222.0869	4.0
222.0976	4.0
222.1120	17.2
222.1231	3.1
222.1313	1.4
222.1483	27.7
223.0596	100.0
223.0777	1.2
223.1071	19.6
223.1162	2.1
223.1435	9.3
223.1522	2.9
224.0626	10.4
224.0915	37.0
224.1024	7.1
224.1107	1.5
224.1275	9.9
224.1387	2.6
224.1635	2.0
225.0952	1.5
225.1227	5.0
225.1588	2.4

Name: Fraxinol
PrecursorMZ: 223.05993
RT: 6.4357
ExactMass: 222.05282342
Spectrum_type: 2
charge: 1
Formula: C11H10O5
SMILES: COC1=C(C(=C2C=CC(=O)OC2=C1)OC)O
Method: HCD
Collision_energy: [28.333334]
Isolation_window: 4.0
Ion_mode: P
Num Peaks: 9
121.0285	7.9
176.0702	6.5
221.1071	14.1
222.0760	19.0
222.1116	9.5
223.0600	100.0
224.0637	11.9
224.0918	27.7
224.1280	14.1

Name: FruLeuIle
PrecursorMZ: 407.23889
RT: 4.71912
ExactMass: 406.23151605
Spectrum_type: 2
charge: 1
Formula: C18H34N2O8
SMILES: CC[C@@H](C)[C@@H](C(=O)O)NC(=O)[C@H](CC(C)C)NC[C@@]1([C@H]([C@@H]([C@@H](CO1)O)O)O)O
Method: HCD
Collision_energy: [28.333334]
Isolation_window: 4.0
Ion_mode: P
Num Peaks: 51
69.0340	2.0
69.0703	2.2
81.0339	5.3
85.0289	2.0
86.0968	65.3
87.1002	2.9
89.0601	3.6
96.0447	9.9
98.0966	2.5
99.0443	1.7
120.0810	2.2
128.1071	3.3
132.1020	3.8
136.0759	2.9
164.1072	40.6
165.1105	3.2
168.1020	2.3
178.1224	2.2
194.1175	6.8
196.1333	8.5
199.1807	11.0
200.1285	1.7
210.1125	19.2
211.1159	2.4
212.1281	14.4
227.1754	10.4
230.1387	28.1
231.1422	3.1
240.1232	2.4
245.1861	10.9
249.1347	5.5
258.1337	2.5
277.1301	2.1
277.1911	6.2
295.1648	2.0
305.1859	1.9
323.1965	100.0
324.2000	18.0
353.2070	14.0
354.2097	2.2
371.2177	43.5
372.2210	7.6
389.2282	22.9
390.2315	4.8
407.0298	3.0
407.1645	2.2
407.2394	22.2
408.2246	4.2
408.2452	3.1
408.2915	2.8
409.1832	3.5

Name: Ftidkiazunxncj-wbyqcalvsa-
PrecursorMZ: 427.19607
RT: 0.7862
ExactMass: 426.18898253
Spectrum_type: 2
charge: 1
Formula: C21H30O9
SMILES: C[C@]1(CC[C@@H]2[C@@H]([C@@H]3[C@H]1C[C@@H](C3=C)O[C@H]4[C@@H]([C@H]([C@@H]([C@H](O4)CO)O)O)O)OC(=O)C2=C)O
Method: HCD
Collision_energy: [28.333334]
Isolation_window: 4.0
Ion_mode: P
Num Peaks: 12
69.0702	21.3
83.0494	77.4
163.1114	23.4
169.0496	42.7
177.1273	31.2
205.1223	78.0
273.1119	78.4
291.1226	100.0
329.1744	72.2
347.1851	40.5
409.1854	62.0
427.2473	22.7

Name: Fudosteine
PrecursorMZ: 144.04779
RT: 10.7752
ExactMass: 179.06161445
Spectrum_type: 2
charge: 1
Formula: C6H13NO3S
SMILES: C(CO)CSC[C@@H](C(=O)O)N
Method: HCD
Collision_energy: [28.333334]
Isolation_window: 4.0
Ion_mode: P
Num Peaks: 16
62.9294	13.3
67.0545	3.4
93.0700	10.7
103.9557	11.8
111.0805	8.1
113.0294	11.5
121.9661	100.0
126.0371	10.0
144.0476	77.4
144.0806	3.8
144.1017	4.4
144.9273	5.0
144.9820	8.0
145.0511	5.8
145.0759	4.7
146.1174	21.3

Name: Fumigaclavine A
PrecursorMZ: 299.17501
RT: 6.58995
ExactMass: 298.168127949
Spectrum_type: 2
charge: 1
Formula: C18H22N2O2
SMILES: C[C@@H]1CN([C@@H]2CC3=CNC4=CC=CC(=C34)[C@H]2[C@H]1OC(=O)C)C
Method: HCD
Collision_energy: [28.333334]
Isolation_window: 4.0
Ion_mode: P
Num Peaks: 14
55.0546	19.3
83.0494	13.3
101.0598	43.9
199.1226	63.6
200.1262	6.9
209.1280	5.1
283.1635	7.1
299.1594	17.7
299.1749	100.0
299.1957	24.8
300.1215	6.5
300.1595	5.2
300.1785	22.8
301.1749	11.8

Name: Furaquinocin C
PrecursorMZ: 393.16862
RT: 11.952
ExactMass: 370.17802393
Spectrum_type: 2
charge: 1
Formula: C22H26O5
SMILES: CC1C(C2=C(C=C3C(=C2O1)C(=O)C(=C(C3=O)OC)C)O)(C)CCC=C(C)C
Method: HCD
Collision_energy: [28.333334]
Isolation_window: 4.0
Ion_mode: P
Num Peaks: 20
57.0703	2.1
71.0860	3.1
89.0600	1.9
105.0371	70.9
106.0411	2.8
107.0329	3.0
149.0234	13.2
150.0266	1.8
167.0340	1.7
198.1010	2.5
239.1389	20.5
240.1430	2.6
329.1706	100.0
330.1745	17.3
331.1763	2.4
393.1689	50.5
394.1718	11.1
395.1660	2.7
401.1537	4.0
402.1619	1.8

Name: Fusaric Acid
PrecursorMZ: 180.10181
RT: 5.689
ExactMass: 179.094628657
Spectrum_type: 2
charge: 1
Formula: C10H13NO2
SMILES: CCCCC1=CN=C(C=C1)C(=O)O
Method: HCD
Collision_energy: [28.333334]
Isolation_window: 4.0
Ion_mode: P
Num Peaks: 74
57.0339	2.4
60.0448	6.0
69.0338	0.9
71.0495	1.3
74.0603	1.2
80.0497	3.2
81.0338	1.2
82.0654	2.4
83.0494	2.5
86.0603	3.0
91.0544	8.9
92.0708	0.9
96.0445	16.6
96.9952	0.9
97.0286	1.5
97.0479	0.9
98.0601	1.6
100.0758	4.8
101.0599	1.2
102.0551	1.6
110.0601	2.0
118.0863	1.4
122.0598	1.0
123.0677	1.8
124.0504	1.0
132.0807	1.2
133.0646	1.0
133.0759	1.5
134.0599	0.9
134.0963	8.5
136.0756	3.7
136.0968	1.5
136.1118	1.1
137.0457	1.7
137.0596	1.5
138.0912	1.5
142.0861	1.1
151.0623	0.6
151.0865	1.2
152.0705	1.0
152.1070	1.4
153.1020	0.8
160.0967	4.0
161.0709	2.4
161.0998	0.8
162.0550	0.8
162.0911	1.5
163.0500	0.8
163.0615	0.7
163.0864	1.5
164.0704	3.4
167.0575	1.2
178.0729	1.0
178.0861	2.8
178.1072	1.5
178.1220	0.7
178.8732	5.7
179.0814	10.0
179.1176	1.4
180.0656	1.9
180.0805	5.4
180.0879	9.1
180.1016	100.0
180.1040	7.4
180.1375	1.3
181.0525	1.3
181.0603	1.8
181.0718	10.5
181.0839	0.8
181.0970	5.7
181.1049	10.2
182.0675	3.5
182.0809	7.8
182.1173	1.4

Name: Fusarochromanone
PrecursorMZ: 293.14951
RT: 6.1433
ExactMass: 292.14230712
Spectrum_type: 2
charge: 1
Formula: C15H20N2O4
SMILES: CC1(CC(=O)C2=C(O1)C=CC(=C2N)C(=O)CC(CO)N)C
Method: HCD
Collision_energy: [28.333334]
Isolation_window: 4.0
Ion_mode: P
Num Peaks: 35
70.0655	13.6
80.0499	5.2
81.0338	75.9
82.0371	4.8
84.0812	5.2
102.0915	6.5
114.0914	5.1
116.0708	6.6
136.0757	19.3
150.0914	100.0
151.0947	10.0
176.1280	5.2
211.1072	5.0
225.1225	4.8
275.1387	5.2
291.1698	10.3
291.2426	4.6
292.1166	12.9
292.1294	15.0
292.1531	35.6
292.1698	6.8
292.2271	34.7
293.1125	6.6
293.1276	16.6
293.1489	89.7
293.1846	15.5
293.2217	57.0
294.1325	19.1
294.1512	13.1
294.1689	6.7
294.1824	5.7
294.2256	7.9
295.1281	8.1
295.1428	13.7
295.1644	8.6

Name: GABA 2-oxoglutaric acid (known isomers: 0; isobaric peaks in run: 4)
PrecursorMZ: 234.09698
RT: 8.4328
Spectrum_type: 2
charge: 1
SMILES: O=C(O)CCCNC(CCC(=O)O)C(=O)O
Method: HCD
Collision_energy: [28.333334]
Isolation_window: 4.0
Ion_mode: P
Num Peaks: 14
74.0604	8.3
84.0446	11.0
86.0603	7.7
87.0442	42.6
102.0548	9.5
124.0756	58.8
130.0497	17.0
148.0601	12.9
152.0704	40.7
170.0809	60.8
188.0914	44.1
234.0760	7.7
234.0968	100.0
234.1852	8.6

Name: GABA Glyceraldehyde (known isomers: 0; isobaric peaks in run: 0)
PrecursorMZ: 178.10728
RT: 9.4169
Spectrum_type: 2
charge: 1
SMILES: O=C(O)CCCNC[C@@H](O)CO
Method: HCD
Collision_energy: [28.333334]
Isolation_window: 4.0
Ion_mode: P
Num Peaks: 32
60.0812	3.0
70.0654	1.1
74.0603	4.9
86.0602	3.4
87.0443	27.7
88.0395	4.2
88.0476	0.9
92.0708	14.8
96.0808	1.2
96.9953	4.6
98.0601	21.3
99.0635	1.2
112.0757	3.3
116.0706	5.3
124.0756	5.9
132.1017	0.9
142.0861	19.6
143.0893	1.8
160.0967	7.5
176.8751	20.9
177.0655	0.8
177.1021	1.2
177.1314	3.3
177.1381	0.8
178.0862	2.4
178.1071	100.0
178.1217	1.6
178.8732	4.6
179.0811	1.2
179.1105	6.9
179.1175	0.8
180.1048	48.9

Name: GABA alpha-Ketoisocaproic acid (known isomers: 0; isobaric peaks in run: 0)
PrecursorMZ: 218.13827
RT: 6.131
Spectrum_type: 2
charge: 1
SMILES: CC(C)CC(NCCCC(=O)O)C(=O)O
Method: HCD
Collision_energy: [28.333334]
Isolation_window: 4.0
Ion_mode: P
Num Peaks: 29
70.0652	7.3
72.0810	20.1
86.0965	26.3
87.0442	34.1
98.0601	30.9
116.0703	8.0
125.0230	9.0
130.0648	6.4
132.1017	6.9
154.1222	43.1
158.0597	31.0
158.1173	11.3
172.0963	10.6
172.1328	70.8
173.1363	7.2
174.0546	7.2
192.0651	12.3
202.0494	11.2
217.0599	8.0
217.0967	10.0
218.0809	20.7
218.1012	11.7
218.1170	8.5
218.1380	54.7
219.0758	8.2
219.1118	14.5
219.1411	7.9
220.0598	100.0
220.0961	22.0

Name: GI254023X
PrecursorMZ: 392.25377
RT: 2.630933333333333
ExactMass: 391.24710654
Spectrum_type: 2
charge: 1
Formula: C21H33N3O4
SMILES: C[C@@H]([C@@H](CCCC1=CC=CC=C1)C(=O)N[C@H](C(=O)NC)C(C)(C)C)N(C=O)O
Method: HCD
Collision_energy: [28.333334]
Isolation_window: 4.0
Ion_mode: P
Num Peaks: 6
86.0966	100.0
120.0807	75.4
199.1801	15.5
227.1752	15.8
233.1644	44.6
261.1592	38.5

Name: GW791343
PrecursorMZ: 375.19841
RT: 5.0649
ExactMass: 374.19181773
Spectrum_type: 2
charge: 1
Formula: C20H24F2N4O
SMILES: CC1=C(C=C(C=C1)CN2CCNCC2)NC(=O)CNC3=CC(=C(C=C3)F)F
Method: HCD
Collision_energy: [28.333334]
Isolation_window: 4.0
Ion_mode: P
Num Peaks: 44
70.0631	2.8
70.0675	5.0
84.0776	1.7
84.0833	3.9
105.0647	7.4
105.0726	28.9
109.0787	1.7
112.0897	2.6
116.0734	5.0
130.0890	2.0
149.0263	11.1
155.0844	1.9
158.0956	6.1
173.0952	2.3
175.1220	12.1
207.1159	1.7
241.1309	2.1
246.1560	5.4
249.1228	1.8
303.1703	17.8
357.1850	2.3
374.1587	5.3
374.3625	2.5
375.1643	2.0
375.1993	31.8
376.2079	4.7
377.1787	7.9
378.2077	3.3
379.1945	3.0
380.1724	4.6
381.1704	3.6
382.1970	2.7
383.1867	4.9
384.1428	2.5
384.2176	8.3
385.2105	5.1
386.2075	1.8
387.1747	6.6
388.1787	3.4
389.1701	2.4
389.2218	1.9
391.1984	4.5
392.1880	2.2
393.2024	100.0

Name: Gabapentin
PrecursorMZ: 172.13313
RT: 1.4008
ExactMass: 171.125928785
Spectrum_type: 2
charge: 1
Formula: C9H17NO2
SMILES: C1CCC(CC1)(CC(=O)O)CN
Method: HCD
Collision_energy: [28.333334]
Isolation_window: 4.0
Ion_mode: P
Num Peaks: 11
67.0546	50.3
83.0857	6.1
95.0856	6.8
109.1012	100.0
110.1045	10.6
119.0856	6.7
137.0958	6.4
155.1065	12.7
173.1074	6.6
173.1170	39.8
173.1645	7.2

Name: Gabexate
PrecursorMZ: 322.17675
RT: 4.9456
ExactMass: 321.16885622
Spectrum_type: 2
charge: 1
Formula: C16H23N3O4
SMILES: CCOC(=O)C1=CC=C(C=C1)OC(=O)CCCCCN=C(N)N
Method: HCD
Collision_energy: [28.333334]
Isolation_window: 4.0
Ion_mode: P
Num Peaks: 13
84.0813	5.9
89.0602	5.7
98.9844	12.5
122.0814	30.4
210.0796	17.4
262.1188	6.5
276.1705	7.8
277.1544	30.6
278.1586	6.8
322.1763	100.0
323.1803	18.5
328.1975	9.8
330.3363	9.5

Name: Gal(b1-4)Man
PrecursorMZ: 325.11238
RT: 4.231
ExactMass: 342.11621151
Spectrum_type: 2
charge: 1
Formula: C12H22O11
SMILES: C([C@@H]1[C@@H]([C@@H]([C@H]([C@@H](O1)O[C@@H]2[C@H](OC([C@H]([C@H]2O)O)O)CO)O)O)O)O
Method: HCD
Collision_energy: [28.333334]
Isolation_window: 4.0
Ion_mode: P
Num Peaks: 123
69.0339	24.9
70.0655	18.5
72.0811	3.8
73.0288	6.3
81.0339	14.4
82.0656	4.9
83.0494	4.2
84.0448	8.7
84.0811	31.5
85.0288	100.0
86.0321	4.1
86.0604	5.0
87.0444	7.3
88.0395	4.0
90.0550	4.3
96.0446	4.2
97.0287	40.5
98.0601	5.0
99.0443	18.4
101.0236	4.0
101.0600	7.3
102.0552	7.8
109.0287	7.5
110.0603	7.5
111.0442	6.3
114.0551	13.3
115.0392	5.9
116.0707	13.9
117.0548	8.2
123.0441	4.3
125.0235	57.5
126.0268	3.9
126.0550	8.6
127.0391	90.0
128.0428	5.2
128.0707	19.0
129.0547	4.7
130.0501	12.0
130.0863	16.8
138.0554	4.7
139.0392	9.1
142.0498	3.8
144.0659	6.6
145.0496	73.9
146.0815	6.7
152.0703	4.4
156.0656	4.6
156.0767	4.3
158.0815	4.4
159.0765	6.6
162.0762	6.9
163.0394	8.2
163.0601	14.1
165.0543	4.0
168.0513	6.0
168.0654	5.2
170.0572	4.7
180.0652	4.5
181.0486	8.9
186.0754	5.1
192.0657	4.3
198.1123	8.4
210.0760	3.8
215.0698	4.2
216.0980	4.6
223.0712	3.9
224.1054	7.0
225.0885	6.5
225.1242	3.8
234.0960	6.0
237.0871	24.6
242.1132	10.1
243.1088	13.9
246.1337	9.1
251.0660	6.8
254.1141	15.0
265.0819	4.8
267.0979	8.2
268.0935	8.3
283.0600	8.5
285.1081	9.5
293.0771	9.2
302.1320	5.0
303.1179	10.4
306.1214	8.5
308.1139	4.0
313.1062	3.9
314.1340	4.5
317.0845	4.7
320.1454	13.1
323.1201	5.5
324.1011	5.4
324.1287	6.1
325.1037	18.1
325.1397	9.2
325.1754	8.6
326.1275	11.1
327.1207	14.5
328.1064	6.3
328.1462	8.7
329.1405	35.6
330.1211	5.6
330.1574	5.6
331.1190	13.7
331.1522	21.1
332.1462	26.8
333.1374	38.6
334.1523	8.9
335.1520	8.1
336.1315	23.9
337.0984	7.2
337.1334	4.7
337.1629	6.0
338.1519	7.3
339.1170	9.0
340.0799	15.3
340.1082	7.4
340.1475	4.9
341.1365	13.8
342.1306	12.0
343.1155	4.6
343.1520	18.8
344.1442	10.4

Name: GalCer(d18:1/16:1)
PrecursorMZ: 698.55574
RT: 3.2393
Spectrum_type: 2
charge: 1
Method: HCD
Collision_energy: [28.333334]
Isolation_window: 4.0
Ion_mode: P
Num Peaks: 42
56.0499	2.8
57.0701	1.3
60.0448	2.1
67.0546	3.2
69.0702	2.9
77.6177	1.2
79.0544	1.6
81.0701	3.8
82.0653	3.5
83.0858	2.4
85.0286	2.1
93.0701	1.9
95.0856	3.7
96.0808	1.6
97.1012	1.8
97.4573	2.1
107.0855	1.3
109.1012	1.8
121.1011	2.9
135.1168	1.9
250.2526	1.6
252.2680	17.4
253.2717	2.5
262.2523	11.5
263.2559	4.6
264.2680	100.0
265.2715	14.3
266.2849	1.3
272.2577	2.5
282.2786	6.0
506.4925	2.5
516.4765	1.9
517.4793	2.1
518.4922	20.6
519.4956	6.4
520.5071	4.7
521.5113	1.7
536.5028	5.5
537.5060	1.4
697.5422	2.5
698.5549	20.9
699.5584	9.8

Name: Galbelgin
PrecursorMZ: 395.18097
RT: 3.7459
ExactMass: 372.19367399
Spectrum_type: 2
charge: 1
Formula: C22H28O5
SMILES: CC1C(C(OC1C2=CC(=C(C=C2)OC)OC)C3=CC(=C(C=C3)OC)OC)C
Method: HCD
Collision_energy: [28.333334]
Isolation_window: 4.0
Ion_mode: P
Num Peaks: 67
55.0547	2.3
70.0656	11.7
72.0813	5.4
83.0496	3.5
84.0812	7.4
96.0812	2.3
101.0601	15.7
111.0445	2.5
112.0872	2.2
114.1030	2.7
116.0710	6.0
120.0806	2.6
130.0869	3.7
134.0607	2.5
141.0660	3.8
146.0929	2.3
148.0620	3.6
169.0610	8.1
194.1175	5.1
205.0971	3.2
217.0970	3.1
220.1192	24.7
222.1128	7.8
234.1125	11.9
236.1274	2.6
237.1336	2.4
241.0975	2.8
259.1079	6.8
264.1212	2.4
277.1184	10.1
282.1329	12.1
283.1360	2.5
295.1282	3.7
300.1675	2.5
305.1498	9.8
306.1523	2.5
377.1766	2.4
393.1688	4.9
394.1481	2.9
394.1997	13.9
395.1826	100.0
396.1837	24.9
397.1536	5.7
397.2115	11.2
398.1952	6.3
399.1620	8.3
399.2168	4.5
400.1606	17.4
400.2112	3.3
401.1558	3.2
401.2090	12.9
402.1524	11.4
403.1515	5.5
403.1976	4.3
404.1752	13.1
405.1665	14.5
406.1979	7.9
407.1878	19.4
408.1631	10.1
409.1576	4.0
409.2116	14.7
410.1947	10.9
411.1660	8.5
411.2169	5.8
412.1419	2.7
412.2095	4.9
413.1902	8.4

Name: Gamma-Butyrobetaine
PrecursorMZ: 146.11752
RT: 4.5072
ExactMass: 145.110278721
Spectrum_type: 2
charge: 1
Formula: C7H15NO2
SMILES: C[N+](C)(C)CCCC(=O)[O-]
Method: HCD
Collision_energy: [28.333334]
Isolation_window: 4.0
Ion_mode: P
Num Peaks: 10
55.0547	2.6
60.0813	32.0
83.0495	2.9
87.0444	19.2
101.0600	31.3
102.0632	1.9
146.1176	20.3
147.1212	1.9
160.1333	100.0
161.1369	9.4

Name: Gamma-Linolenic acid
PrecursorMZ: 279.23154
RT: 4.5856
ExactMass: 278.224580195
Spectrum_type: 2
charge: 1
Formula: C18H30O2
SMILES: CCCCC/C=C\C/C=C\C/C=C\CCCCC(=O)O
Method: HCD
Collision_energy: [28.333334]
Isolation_window: 4.0
Ion_mode: P
Num Peaks: 70
55.0546	2.9
57.0703	2.3
67.0546	45.7
68.0580	2.1
69.0702	8.3
71.0495	1.7
71.0859	5.3
79.0545	4.4
81.0701	60.6
82.0734	3.2
83.0858	7.0
85.0650	2.2
85.1014	12.1
91.0543	3.1
93.0700	9.5
95.0857	55.4
96.0891	4.0
97.0649	2.4
97.1013	4.7
99.0806	5.8
105.0700	2.9
107.0856	8.5
109.1012	22.4
110.1046	2.5
111.0806	2.0
113.0961	13.3
119.0856	3.0
121.0284	2.6
121.1011	9.8
123.0804	1.9
123.1168	15.4
131.0854	5.1
133.1011	7.0
135.1167	8.2
137.0959	1.6
137.1323	16.1
139.1119	2.0
145.1011	3.5
147.1166	7.5
149.0960	3.0
149.1323	10.3
151.1118	3.5
151.1479	5.7
153.1272	3.0
159.1167	3.1
161.1322	2.9
163.1116	2.7
163.1480	3.6
164.0707	2.1
165.1274	2.7
167.1429	4.3
173.1323	6.9
177.1272	2.6
179.1429	1.6
181.1219	2.0
187.1480	2.3
191.1430	3.0
195.1377	4.1
209.1534	4.2
223.1686	3.0
235.1071	2.0
243.2104	4.5
261.2209	11.4
262.2242	2.3
278.2189	1.9
279.0924	7.9
279.2314	100.0
280.0958	2.1
280.2348	19.1
281.1144	1.8

Name: Gamma-Tocotrienol
PrecursorMZ: 411.32507
RT: 1.0661
ExactMass: 410.318480578
Spectrum_type: 2
charge: 1
Formula: C28H42O2
SMILES: CC1=C(C=C2CC[C@@](OC2=C1C)(C)CC/C=C(\C)/CC/C=C(\C)/CCC=C(C)C)O
Method: HCD
Collision_energy: [28.333334]
Isolation_window: 4.0
Ion_mode: P
Num Peaks: 69
57.0703	2.6
62.0605	4.0
67.0546	1.0
69.0703	10.3
69.4079	0.9
71.0859	1.1
81.0702	4.7
83.0858	3.9
86.0967	3.1
93.0700	2.0
95.0857	5.3
97.0649	1.0
97.1013	1.8
105.0700	1.0
107.0857	2.9
109.0650	0.9
109.1013	4.8
111.1168	1.0
119.0856	1.6
121.1012	2.7
123.1168	2.3
128.1070	2.9
133.1011	2.4
135.0803	0.9
135.1168	2.1
137.1323	1.4
145.1013	1.2
145.1335	7.3
146.1371	1.0
147.1168	3.4
149.0961	2.6
149.1323	1.6
151.0753	6.6
159.1168	1.1
161.1325	1.6
163.1483	1.1
165.0911	1.2
173.0960	9.2
175.1117	5.8
175.1480	1.3
177.0909	2.8
187.1479	1.0
189.0908	1.2
189.1273	3.9
189.1634	1.1
191.1065	18.2
192.1098	2.0
203.1429	4.0
203.1794	1.3
205.1222	2.0
213.1275	0.9
215.1428	1.5
217.1221	0.9
217.1585	7.1
218.1619	1.3
368.2700	1.3
393.3147	4.2
394.3186	1.1
409.3785	2.1
410.3127	1.0
410.3819	1.2
411.3254	100.0
411.3555	2.2
411.3666	1.1
411.3949	2.1
412.3288	29.5
412.4178	1.4
413.3389	6.1
413.3784	1.0

Name: Garcinoic acid
PrecursorMZ: 427.28342
RT: 2.5725
ExactMass: 426.27700969
Spectrum_type: 2
charge: 1
Formula: C27H38O4
SMILES: CC1=CC(=CC2=C1O[C@](CC2)(C)CC/C=C(\C)/CC/C=C(\C)/CC/C=C(\C)/C(=O)O)O
Method: HCD
Collision_energy: [28.333334]
Isolation_window: 4.0
Ion_mode: P
Num Peaks: 67
57.0338	3.3
69.0702	46.4
69.4649	4.9
75.0443	4.5
81.0337	5.8
81.0701	7.5
86.0965	4.9
87.0442	4.0
89.0598	5.5
93.0699	4.2
95.0856	4.6
97.0648	18.4
97.4570	3.5
99.0804	8.1
101.0710	6.1
107.0856	5.6
109.1011	8.3
111.0440	4.1
121.0646	3.3
121.1011	3.9
123.0803	9.8
125.0959	4.9
127.1116	6.3
131.0700	8.2
134.0809	9.2
136.0615	16.3
145.1010	5.5
158.1173	3.9
159.1165	3.7
162.0406	9.2
173.0958	8.6
173.1324	4.0
179.1428	3.5
189.0907	4.8
191.1061	8.1
197.1321	4.3
207.1013	5.9
213.1269	3.7
225.1271	4.9
227.1425	3.5
231.1375	5.0
239.1420	3.8
249.1479	10.0
255.1739	6.9
265.1580	5.6
283.1684	12.5
295.1142	14.9
295.2044	3.8
299.1631	3.4
301.1790	13.5
313.2150	7.6
314.1703	3.4
329.2106	3.9
331.2257	14.2
335.1994	6.5
353.2102	15.9
354.2141	4.1
371.2204	11.9
372.2245	3.2
391.2625	4.5
409.2726	33.7
410.2763	10.7
411.2210	5.4
427.2160	4.7
427.2831	100.0
428.2865	27.8
429.2913	4.2

Name: Gelsemine
PrecursorMZ: 323.1804
RT: 6.0834
ExactMass: 322.168127949
Spectrum_type: 2
charge: 1
Formula: C20H22N2O2
SMILES: CN1C[C@]2([C@@H]3C[C@@H]4[C@]5([C@H]2[C@H]1[C@H]3CO4)C6=CC=CC=C6NC5=O)C=C
Method: HCD
Collision_energy: [28.333334]
Isolation_window: 4.0
Ion_mode: P
Num Peaks: 152
58.0656	3.3
60.0561	14.3
69.0340	4.9
70.0656	59.8
71.0496	3.8
71.0690	3.4
72.0812	11.8
81.0338	4.6
82.0654	4.8
84.0447	4.7
84.0811	100.0
85.0288	10.9
85.0652	2.9
85.0843	5.0
86.0604	5.7
86.0968	5.4
87.0444	6.8
89.0601	10.1
91.0393	2.7
94.0655	3.7
96.0446	3.2
96.0811	6.2
97.0287	5.8
98.0602	6.6
98.0966	11.5
98.9844	29.2
99.0441	3.8
100.0759	5.3
102.0551	3.2
103.0394	3.1
104.0708	3.0
108.0810	2.8
110.0604	4.8
110.0716	3.2
111.0443	4.3
112.0761	3.9
112.0871	18.5
113.0711	3.6
114.0552	5.8
114.0917	4.3
114.1028	8.7
115.0867	5.2
116.0708	23.7
118.0863	3.0
122.0814	17.0
124.0760	2.9
126.0554	3.4
126.0916	2.8
127.0392	4.0
128.0708	31.1
129.1023	10.3
130.0864	74.0
130.0970	6.6
131.0899	4.4
133.0858	5.0
136.0761	6.0
140.0707	5.1
141.1023	3.0
142.0864	12.3
144.0655	3.5
144.1020	20.2
145.0499	3.2
147.1129	83.2
148.1164	4.1
150.0913	4.3
152.0706	2.7
154.0863	4.0
156.0656	3.0
158.0811	4.5
158.0928	6.9
159.0762	3.3
162.0551	2.8
174.0758	3.3
174.9922	4.6
175.1192	20.0
178.0857	3.1
179.1179	3.2
180.1000	3.2
181.0494	8.8
181.0957	2.9
182.0801	4.7
190.0865	3.0
198.1125	5.7
201.1022	5.0
209.1650	3.5
210.0787	12.2
215.1166	2.9
216.1231	11.8
225.1236	4.0
231.1248	3.6
232.1076	5.3
233.1253	10.4
234.1347	3.2
246.0757	12.7
255.1340	4.7
256.1303	3.0
265.1525	6.1
266.1615	3.3
269.1496	4.1
270.1452	3.9
271.1269	7.2
274.1185	2.8
279.1809	3.2
283.1760	3.4
285.1582	4.6
308.1350	5.0
309.1533	2.8
311.1331	2.7
313.1504	5.1
314.1464	4.7
316.1492	6.9
317.1412	4.3
321.1671	7.1
322.0910	5.6
322.1267	5.4
322.1570	4.8
322.2473	5.3
323.1494	4.2
323.1845	16.0
324.1290	8.8
324.1636	18.6
324.2018	16.2
325.1412	8.7
325.1701	4.2
326.1424	9.7
326.1802	19.9
327.1585	11.5
328.1563	10.5
328.1970	20.6
329.1537	15.2
330.1187	4.5
330.1788	56.6
330.3356	5.2
331.1488	9.4
331.1813	6.3
332.1514	19.5
333.1762	5.7
334.1285	5.5
334.1707	17.6
335.1486	14.2
335.1832	6.1
337.1401	3.6
337.1707	3.9
338.1242	3.2
338.1827	21.3
339.1773	9.1
340.1556	7.1
340.2585	9.0
341.1365	12.8
341.1819	4.9
342.1300	5.3
342.1705	5.8

Name: Gelsenicine
PrecursorMZ: 327.1701
RT: 1.2801
ExactMass: 326.16304257
Spectrum_type: 2
charge: 1
Formula: C19H22N2O3
SMILES: CCC1=N[C@H]2C[C@@]3([C@H]4C[C@@H]1[C@@H]2CO4)C5=CC=CC=C5N(C3=O)OC
Method: HCD
Collision_energy: [28.333334]
Isolation_window: 4.0
Ion_mode: P
Num Peaks: 52
57.0703	1.9
58.0655	2.8
80.0499	43.2
81.0340	3.6
81.0532	2.0
83.0496	2.4
84.0812	2.1
91.0546	5.1
120.0811	17.2
133.0765	3.6
146.0603	16.2
166.0864	8.6
186.2219	4.3
192.0655	3.3
240.2689	2.6
267.1132	2.4
268.1202	9.8
269.1263	2.2
275.0920	3.2
326.1267	2.4
326.3784	100.0
327.1340	51.4
327.1708	67.4
327.3817	28.0
328.1363	6.6
328.1731	12.5
328.3841	3.2
329.1470	4.6
330.1355	5.3
330.1743	2.2
331.1323	2.9
331.1662	3.3
332.1520	6.3
332.3311	11.5
333.1468	5.8
333.1853	3.3
333.3338	3.2
334.1280	2.3
334.1680	5.5
335.1597	8.2
336.1425	2.1
337.1805	2.7
339.1281	2.5
340.1137	2.1
341.1513	4.7
341.1821	1.9
342.1305	3.5
343.1269	3.1
343.1677	3.3
344.1494	5.8
345.1460	3.6
346.1682	3.4

Name: Genatropin
PrecursorMZ: 306.16955
RT: 7.3364
ExactMass: 305.16270821
Spectrum_type: 2
charge: 1
Formula: C17H23NO4
SMILES: C[N+]1(C2CCC1CC(C2)OC(=O)C(CO)C3=CC=CC=C3)[O-]
Method: HCD
Collision_energy: [28.333334]
Isolation_window: 4.0
Ion_mode: P
Num Peaks: 64
58.0655	25.9
70.0654	8.7
81.0337	3.7
84.0810	14.5
86.0966	4.7
91.0543	2.9
93.0700	4.7
108.0808	4.5
110.0712	5.7
110.0965	4.7
112.0869	3.0
116.0703	2.2
124.0752	1.7
128.0704	1.8
130.0861	10.8
131.0488	3.7
137.0595	10.5
140.1067	6.1
144.0654	1.7
150.0547	5.0
160.1077	1.9
168.0651	2.0
175.0989	22.1
176.1069	1.7
183.0800	1.9
192.1017	5.3
210.0870	2.9
215.1065	2.2
239.1022	3.2
243.1007	2.7
248.1017	1.6
248.1279	2.4
262.1909	3.1
287.1224	2.1
288.1219	2.7
288.1580	5.3
290.1232	2.5
304.1665	2.0
304.1885	2.3
304.2990	1.7
305.1230	8.1
305.1318	1.6
305.1481	13.1
305.1610	5.6
305.1845	27.0
306.0956	3.3
306.1170	5.1
306.1324	100.0
306.1540	3.6
306.1683	74.5
306.1812	3.2
306.2048	10.8
307.1245	4.8
307.1360	16.5
307.1401	1.7
307.1632	7.6
307.1721	11.6
307.2004	57.3
308.1123	1.7
308.1327	4.2
308.1476	3.9
308.1836	2.0
308.1960	18.8
308.2203	8.2

Name: Geniposidic Acid
PrecursorMZ: 397.11026
RT: 8.263
ExactMass: 374.12129689
Spectrum_type: 2
charge: 1
Formula: C16H22O10
SMILES: C1C=C([C@@H]2[C@H]1C(=CO[C@H]2O[C@H]3[C@@H]([C@H]([C@@H]([C@H](O3)CO)O)O)O)C(=O)O)CO
Method: HCD
Collision_energy: [28.333334]
Isolation_window: 4.0
Ion_mode: P
Num Peaks: 5
69.4958	12.2
97.4565	8.3
397.1100	100.0
398.1131	12.1
398.1434	17.1

Name: Genistein
PrecursorMZ: 271.05977
RT: 2.7766
ExactMass: 270.05282342
Spectrum_type: 2
charge: 1
Formula: C15H10O5
SMILES: C1=CC(=CC=C1C2=COC3=CC(=CC(=C3C2=O)O)O)O
Method: HCD
Collision_energy: [28.333334]
Isolation_window: 4.0
Ion_mode: P
Num Peaks: 3
94.9296	6.4
271.0595	100.0
272.0630	14.5

Name: Germicidin B
PrecursorMZ: 183.10157
RT: 1.1438
ExactMass: 182.094294304
Spectrum_type: 2
charge: 1
Formula: C10H14O3
SMILES: CCC1=C(C=C(OC1=O)C(C)C)O
Method: HCD
Collision_energy: [28.333334]
Isolation_window: 4.0
Ion_mode: P
Num Peaks: 58
67.0547	2.9
69.0703	0.9
79.0546	4.2
81.0339	1.2
81.0702	10.7
83.0495	1.2
91.0545	3.5
93.0701	2.9
95.0493	2.1
95.0858	29.5
96.0891	2.4
98.9844	4.4
99.0806	0.8
105.0701	21.1
106.0734	1.4
107.0493	1.3
107.0857	4.7
109.0650	29.6
109.1013	4.3
110.0683	2.3
111.0443	0.9
111.0806	2.1
119.0857	2.8
121.0649	1.8
121.1013	1.8
123.0441	1.0
123.0806	100.0
124.0838	8.4
125.0597	2.5
125.0961	0.9
127.0155	2.4
133.0649	4.6
135.0803	1.0
137.0961	6.5
141.0911	1.7
149.0961	0.8
151.0754	57.9
152.0787	5.1
155.0469	1.1
155.1069	0.8
165.0911	4.7
168.0655	1.4
169.0859	8.9
170.0894	0.9
181.0858	0.9
181.1220	1.1
182.0813	1.5
182.1174	3.1
183.0918	4.6
183.1016	14.3
184.0963	2.0
184.1049	1.7
184.1116	0.9
184.1332	1.9
185.0420	10.1
185.0784	5.4
185.1075	0.8
185.1331	0.9

Name: Gitogenin
PrecursorMZ: 433.33076
RT: 1.2334333333333334
ExactMass: 432.32395988
Spectrum_type: 2
charge: 1
Formula: C27H44O4
SMILES: C[C@@H]1CC[C@@]2([C@H]([C@H]3[C@@H](O2)C[C@@H]4[C@@]3(CC[C@H]5[C@H]4CC[C@@H]6[C@@]5(C[C@H]([C@@H](C6)O)O)C)C)C)OC1
Method: HCD
Collision_energy: [28.333334]
Isolation_window: 4.0
Ion_mode: P
Num Peaks: 20
69.1185	9.3
85.0649	10.0
97.4310	11.0
112.8956	17.9
113.0597	8.7
147.1165	13.8
161.1323	15.0
254.1979	14.1
255.2102	78.9
256.2132	14.1
271.2052	10.3
272.2083	27.8
273.2207	100.0
274.2241	19.4
414.3081	15.2
415.3200	34.4
416.3244	8.8
432.3174	19.9
433.3305	64.7
434.3335	16.0

Name: Gliocladic Acid
PrecursorMZ: 237.14847
RT: 5.9297
ExactMass: 254.15180918
Spectrum_type: 2
charge: 1
Formula: C14H22O4
SMILES: CC(C)[C@H]1CCC(=C[C@@H]1/C=C(\CO)/C(=O)O)CO
Method: HCD
Collision_energy: [28.333334]
Isolation_window: 4.0
Ion_mode: P
Num Peaks: 173
55.0547	6.5
67.0547	23.6
69.0339	3.4
69.0703	13.0
70.0656	7.7
71.0495	6.4
79.0546	30.3
81.0339	6.3
81.0702	42.7
82.0736	4.0
83.0495	8.6
83.0859	8.2
84.0447	6.3
85.0288	3.6
85.0651	6.9
87.0444	7.5
91.0545	22.7
93.0701	33.7
95.0494	10.2
95.0858	44.3
97.0650	15.1
99.0443	4.2
99.0807	8.5
101.0599	10.8
102.0551	4.9
105.0701	14.7
107.0494	24.2
107.0605	5.5
107.0857	22.5
108.0446	16.1
108.0527	3.0
108.0891	3.3
109.0650	16.3
109.0761	7.2
109.1014	10.7
111.0442	8.4
111.0806	8.1
113.0599	8.1
115.0392	4.2
116.0708	14.5
117.0701	22.8
119.0493	5.3
119.0857	18.3
121.0649	93.3
121.1013	11.4
122.0602	3.0
122.0683	7.9
123.0442	10.5
123.0806	21.2
125.0598	27.7
125.0961	4.6
126.0549	7.8
128.0707	18.9
129.0699	4.7
130.0499	21.0
131.0856	26.8
133.0648	11.0
133.1011	9.7
135.0805	76.9
135.1167	5.4
136.0758	5.1
136.0837	8.5
137.0598	8.6
137.0961	10.4
138.0550	19.2
139.0753	7.5
140.0343	8.4
141.0700	11.9
143.0857	4.9
144.0808	48.2
145.0648	5.3
145.1013	10.3
146.0450	4.1
147.0805	4.5
147.1169	8.3
148.0758	4.6
149.0598	4.6
149.0962	7.3
149.1325	8.1
151.0754	5.2
152.0704	3.8
153.0912	6.1
155.0856	6.1
157.1013	10.1
159.0808	4.8
159.1169	26.2
160.1204	3.1
161.0961	3.4
161.1325	9.1
163.0752	5.5
163.1117	5.8
163.1485	3.8
164.0707	8.2
165.1022	5.7
166.0864	4.2
171.1170	4.7
172.1205	3.3
173.0560	4.3
173.0965	5.1
173.1325	49.5
174.0762	6.0
174.1358	7.0
175.1119	8.7
175.1484	9.0
176.0707	3.7
177.0909	3.7
177.1274	9.4
178.0861	3.5
179.0814	3.4
183.1168	26.1
184.1203	4.6
185.1325	9.0
189.1275	3.6
190.0861	11.3
190.1310	3.5
191.0815	15.3
191.1068	7.2
191.1430	29.3
192.0655	100.0
192.0882	16.9
192.1019	6.8
192.1464	4.1
193.0688	10.8
193.0972	9.6
193.1226	3.1
193.1589	3.7
201.1274	54.7
202.1309	8.6
203.1432	9.2
209.1536	3.3
217.1222	6.8
218.0812	45.4
218.1258	7.7
219.0764	11.8
219.0849	4.4
219.1379	71.8
220.0607	3.9
220.0967	8.7
220.1075	3.8
220.1416	10.4
221.0808	6.2
221.0919	12.4
221.1535	15.9
224.0920	4.3
235.1189	3.7
235.1324	5.9
236.0786	4.8
236.0919	80.9
236.1030	8.5
236.1288	9.9
236.1379	7.9
236.1640	6.5
236.1752	5.3
237.0867	88.2
237.0961	5.5
237.1232	13.8
237.1485	49.8
237.1603	22.4
237.1843	4.7
238.0718	9.3
238.0908	9.6
238.0936	11.5
238.1072	33.9
238.1186	37.5
238.1429	45.0
238.1524	4.3
239.0912	10.7
239.1023	20.4
239.1195	5.7
239.1380	6.9
239.1408	3.5
239.1641	11.9
239.1777	4.2

Name: Glu-C13:1
PrecursorMZ: 342.22726
RT: 4.6552
Spectrum_type: 2
charge: 1
SMILES: O=C(NC(C(O)=O)CCC(O)=O)CCCCCCCCCCC=C
Method: HCD
Collision_energy: [28.333334]
Isolation_window: 4.0
Ion_mode: P
Num Peaks: 36
69.0702	3.0
70.0654	2.4
72.0811	2.8
81.0702	3.9
86.0966	94.2
87.1000	4.4
91.0544	4.6
93.0547	2.1
93.0700	3.0
95.0856	2.0
105.0700	6.7
107.0857	2.3
116.0706	3.8
119.0855	5.9
121.1011	10.3
132.1018	100.0
133.1051	6.5
147.1167	27.1
148.1199	3.1
165.1272	15.0
166.1306	2.0
175.1115	3.0
184.0966	24.3
193.1220	10.3
211.1324	4.0
324.2163	21.5
325.2195	4.5
341.1491	3.0
341.1698	2.1
342.1335	2.5
342.2266	14.2
343.1302	2.7
343.1649	2.6
343.1855	9.2
343.2286	2.3
344.1112	2.0

Name: Glu-C22:2
PrecursorMZ: 448.3417
RT: 0.6339
Spectrum_type: 2
charge: 1
SMILES: O=C(NC(C(O)=O)CCC(O)=O)CCCCCCCCCCCC=CCC=CCCCCC
Method: HCD
Collision_energy: [28.333334]
Isolation_window: 4.0
Ion_mode: P
Num Peaks: 133
51.2578	1.4
51.2605	5.0
51.3720	1.6
55.0548	0.7
57.0340	0.9
57.0704	1.9
62.0606	3.2
67.0547	5.1
69.0339	0.6
69.0704	4.6
70.0657	1.5
71.0496	1.6
71.0860	2.0
72.0814	0.9
79.0546	1.8
81.0339	1.4
81.0703	7.1
83.0495	1.4
83.0860	2.7
84.0813	3.0
85.0288	3.5
85.0653	1.9
85.1016	0.9
86.0968	1.6
87.0444	0.7
89.0603	0.8
91.0545	1.3
93.0702	3.2
95.0494	1.0
95.0604	0.9
95.0859	6.9
97.0651	1.6
97.1016	1.7
99.0446	0.7
99.0808	1.7
100.0759	0.9
101.0600	0.9
105.0702	2.0
107.0858	3.5
109.0652	0.9
109.0765	1.8
109.1015	4.2
110.0718	1.4
111.0445	1.0
111.0810	0.9
113.0600	0.9
113.0962	0.6
116.0710	0.8
119.0858	2.4
120.0811	0.6
121.0653	1.0
121.1015	3.1
123.0808	1.0
123.1171	1.6
125.0599	0.6
125.0964	1.1
126.0914	0.7
127.0755	0.7
128.0709	2.0
129.0699	0.6
130.0860	0.9
131.0857	1.6
133.1014	2.6
135.0806	1.2
135.1170	2.2
137.0596	0.9
137.0962	1.1
137.1328	0.6
139.1120	0.6
141.0661	55.4
141.0892	0.7
142.0698	3.4
143.0855	0.9
145.1014	2.0
147.1171	1.7
149.0962	1.7
149.1326	1.3
151.0755	0.9
151.1120	0.9
155.0107	1.2
156.0771	1.3
157.1009	1.0
159.1170	1.9
161.0966	0.9
161.1327	2.0
163.1120	0.9
165.0913	1.0
168.1018	0.6
171.1166	1.1
173.1319	1.1
175.1110	0.9
175.1484	0.8
180.1019	2.3
181.1009	0.6
183.1162	0.9
185.1328	1.0
187.1482	0.7
189.1276	0.6
193.1210	0.8
199.1484	0.8
201.1277	0.7
203.1432	0.7
215.1427	0.7
219.1376	0.8
221.1543	0.6
223.1478	0.6
255.2106	0.6
273.2213	0.6
282.2791	0.7
305.1858	0.7
313.2740	11.2
314.2768	2.5
430.2777	1.2
430.3319	21.0
431.3349	6.6
432.3383	0.9
436.2814	1.7
447.3654	1.3
448.3493	2.9
449.2933	0.8
449.3471	0.8
450.2942	1.5
451.3166	1.3
452.3141	2.9
453.3392	3.3
454.2855	1.7
454.3427	0.6
459.3219	11.4
460.3266	3.9
461.3378	100.0
462.3411	29.8
463.3486	8.2
464.3508	1.7

Name: Glu-Phe
PrecursorMZ: 295.12797
RT: 1.4749
ExactMass: 294.12157168
Spectrum_type: 2
charge: 1
Formula: C14H18N2O5
SMILES: C1=CC=C(C=C1)C[C@@H](C(=O)O)NC(=O)[C@H](CCC(=O)O)N
Method: HCD
Collision_energy: [28.333334]
Isolation_window: 4.0
Ion_mode: P
Num Peaks: 28
81.0336	5.6
86.0965	49.8
100.1120	6.0
102.0548	9.3
120.0805	100.0
121.0837	9.0
130.0496	8.4
136.0753	18.7
150.0546	7.4
152.1067	7.3
154.0857	4.6
163.1226	3.9
166.0858	55.6
167.0892	6.1
168.1014	4.3
182.0809	4.9
223.1071	3.7
276.1219	3.6
294.0967	5.3
294.1308	7.4
294.1448	3.8
294.1809	7.6
295.1270	6.5
295.1637	9.5
296.1114	4.8
296.1606	6.7
297.1445	5.1
297.1793	9.9

Name: Glu-Pro
PrecursorMZ: 245.11273
RT: 5.7879
ExactMass: 244.10592162
Spectrum_type: 2
charge: 1
Formula: C10H16N2O5
SMILES: C1C[C@H](N(C1)C(=O)[C@H](CCC(=O)O)N)C(=O)O
Method: HCD
Collision_energy: [28.333334]
Isolation_window: 4.0
Ion_mode: P
Num Peaks: 39
70.0653	9.6
72.0809	8.5
81.0336	11.4
82.0653	10.2
84.0445	21.9
84.0809	21.5
86.0601	14.3
86.0965	18.2
90.0550	11.1
95.0491	12.0
97.0282	8.6
100.0756	8.2
102.0550	10.1
110.0599	17.1
112.0756	8.3
116.0704	15.2
128.0703	100.0
130.0496	28.7
130.0859	14.6
147.0761	18.3
169.0966	11.3
185.0915	41.0
188.0336	28.4
201.0865	10.1
210.0755	9.2
226.1067	9.2
227.1019	62.8
228.0870	9.8
228.1059	9.7
244.0962	15.3
244.1171	17.4
244.1305	18.5
245.1125	24.9
245.1277	12.7
245.1486	15.5
246.0363	9.9
246.0969	16.9
246.1122	11.9
247.1434	24.4

Name: Glufosinate
PrecursorMZ: 182.05779
RT: 4.9898
Spectrum_type: 2
charge: 1
SMILES: CP(=O)(O)CCC(N)C(=O)O
Method: HCD
Collision_energy: [28.333334]
Isolation_window: 4.0
Ion_mode: P
Num Peaks: 18
91.0544	80.1
92.0577	6.6
95.0605	6.4
109.0761	6.7
136.0756	21.2
164.0704	38.5
180.8711	13.0
181.0605	7.7
181.0969	22.8
181.1089	7.1
182.0575	100.0
182.0807	9.3
182.1174	21.2
182.1286	15.3
183.0606	7.7
183.0763	8.9
183.0915	23.0
183.1126	16.7

Name: Glutamate conjugated chenodeoxycholic acid
PrecursorMZ: 522.3415
RT: 5.5304
ExactMass: 521.33525284
Spectrum_type: 2
charge: 1
Formula: C29H47NO7
SMILES: C[C@H](CCC(=O)NC(CCC(=O)O)C(=O)O)[C@H]1CC[C@@H]2[C@@]1(CC[C@H]3[C@H]2[C@@H](C[C@H]4[C@@]3(CC[C@H](C4)O)C)O)C
Method: HCD
Collision_energy: [28.333334]
Isolation_window: 4.0
Ion_mode: P
Num Peaks: 22
81.0701	15.0
84.0446	12.1
86.0965	10.3
95.0856	15.2
102.0550	13.3
109.1012	10.7
110.0713	18.5
130.0497	33.2
148.0603	92.9
184.0731	11.7
321.2572	18.4
339.2678	32.6
340.2707	10.5
486.3208	100.0
487.3235	32.2
504.3318	34.1
520.5087	17.9
521.5118	11.4
522.1965	16.7
522.3444	10.3
522.5233	11.0
524.1760	12.2

Name: Glutamic acid diethyl ester
PrecursorMZ: 204.12286
RT: 9.1513
ExactMass: 203.11575802
Spectrum_type: 2
charge: 1
Formula: C9H17NO4
SMILES: CCOC(=O)CC[C@@H](C(=O)OCC)N
Method: HCD
Collision_energy: [28.333334]
Isolation_window: 4.0
Ion_mode: P
Num Peaks: 22
72.0811	5.6
74.0604	100.0
84.0810	8.6
88.0395	10.6
100.0757	24.2
128.0705	22.1
129.1022	7.4
130.0861	5.6
158.0812	5.5
186.1122	16.8
187.1075	19.1
203.0815	7.2
203.1025	11.3
203.1182	8.6
203.1388	26.7
203.1471	8.2
204.0861	8.0
204.1018	5.3
204.1227	59.0
204.1338	22.3
205.0972	6.5
205.1178	8.4

Name: Glutamyl-valyl-phenylalanine
PrecursorMZ: 394.1968
RT: 5.6028
ExactMass: 393.18998559
Spectrum_type: 2
charge: 1
Formula: C19H27N3O6
SMILES: CC(C)[C@@H](C(=O)N[C@@H](CC1=CC=CC=C1)C(=O)O)NC(=O)[C@H](CCC(=O)O)N
Method: HCD
Collision_energy: [28.333334]
Isolation_window: 4.0
Ion_mode: P
Num Peaks: 24
70.0655	6.6
72.0811	34.1
86.0966	100.0
116.0706	6.4
120.0807	73.4
121.0839	6.1
136.0755	8.1
166.0861	28.0
183.1124	7.0
186.1233	12.2
201.1231	11.9
214.1179	9.1
219.1487	19.9
229.1178	36.9
235.1067	6.0
247.1435	19.1
281.1126	16.7
295.1275	9.5
393.1750	7.4
393.2030	8.8
394.1968	13.6
395.1619	5.6
395.1948	7.2
396.2144	7.7

Name: Glutamyltyrosine
PrecursorMZ: 311.12364
RT: 8.67
ExactMass: 310.1164863
Spectrum_type: 2
charge: 1
Formula: C14H18N2O6
SMILES: C1=CC(=CC=C1C[C@@H](C(=O)O)NC(=O)CC[C@@H](C(=O)O)N)O
Method: HCD
Collision_energy: [28.333334]
Isolation_window: 4.0
Ion_mode: P
Num Peaks: 38
55.0548	0.9
83.0495	0.7
84.0811	1.1
97.0286	0.8
97.3986	0.8
100.0760	3.4
101.0600	4.4
112.0396	0.8
118.0864	4.7
123.0440	0.8
136.0758	63.1
137.0790	4.2
137.0837	4.2
164.0707	1.0
182.0813	10.1
183.0848	0.9
193.0973	3.4
195.0654	2.0
211.1077	5.8
226.0710	1.3
265.1181	3.2
274.0921	1.1
292.1028	4.0
293.1496	1.8
309.1063	0.8
309.1446	3.0
309.1807	1.4
310.1283	5.0
310.1421	1.2
311.1236	100.0
311.1599	56.6
312.1265	14.0
312.1440	4.9
312.1631	9.4
313.0807	1.0
313.1030	1.8
313.1395	3.3
313.1772	2.0

Name: Gly-Ile-Lys
PrecursorMZ: 159.1128
RT: 2.9924
ExactMass: 316.21105539
Spectrum_type: 2
charge: 1
Formula: C14H28N4O4
SMILES: CC[C@H](C)[C@@H](C(=O)N[C@@H](CCCCN)C(=O)O)NC(=O)CN
Method: HCD
Collision_energy: [28.333334]
Isolation_window: 4.0
Ion_mode: P
Num Peaks: 30
56.0499	7.5
58.0655	1.7
59.0495	4.0
72.0447	10.4
74.0603	0.9
83.0606	2.8
86.0602	100.0
87.0636	3.2
89.0711	14.0
98.0601	2.6
100.0757	3.1
101.0597	58.7
102.0631	3.1
112.0631	8.2
118.0862	8.2
126.0660	5.1
127.0501	1.5
127.0864	13.7
129.0657	5.5
131.0812	1.4
143.0814	1.1
144.0890	2.0
158.1173	1.5
158.1539	1.3
159.0763	7.5
159.1125	36.1
160.0755	2.3
160.1159	2.4
161.0707	2.4
161.0918	5.2

Name: Gly-Leu-Lys
PrecursorMZ: 159.11281
RT: 9.2277
ExactMass: 316.21105539
Spectrum_type: 2
charge: 1
Formula: C14H28N4O4
SMILES: CC(C)C[C@@H](C(=O)N[C@@H](CCCCN)C(=O)O)NC(=O)CN
Method: HCD
Collision_energy: [28.333334]
Isolation_window: 4.0
Ion_mode: P
Num Peaks: 99
55.0546	2.6
56.0498	1.0
58.0655	2.4
59.0495	1.7
59.0607	16.0
60.0447	1.8
60.0811	7.0
68.0498	2.3
69.0702	3.4
69.3313	1.4
69.8603	1.6
70.0654	23.6
71.0494	8.4
71.0688	1.2
72.0811	4.1
74.0239	6.1
75.9356	1.4
79.0544	1.5
81.0336	1.4
82.0653	2.8
83.0494	6.0
84.0446	2.3
84.0810	5.0
85.0649	1.1
86.0602	5.9
86.0966	27.9
87.0442	4.5
88.0395	1.8
88.0758	1.8
96.0809	3.5
97.0649	3.6
97.4552	1.0
98.0601	13.7
98.0714	1.3
98.0964	2.1
99.0441	2.0
100.0757	55.4
101.0597	37.4
101.0709	1.1
101.0791	3.0
102.0550	1.1
102.0631	1.3
102.0914	3.1
103.1229	1.0
111.0552	1.4
112.0757	20.7
112.0868	5.4
112.1120	5.5
113.0709	15.7
113.0790	1.3
114.0549	5.0
114.0913	18.7
115.0866	2.8
116.0706	21.8
116.9620	3.0
117.0740	1.3
117.9595	1.9
118.0862	7.1
124.0755	2.1
125.0596	2.1
134.9725	3.2
140.0704	3.7
140.1068	21.1
141.0656	1.4
141.1101	1.5
142.0245	1.4
142.0498	1.2
142.0608	1.7
142.0860	37.7
142.1224	17.1
143.0894	1.8
143.1257	1.5
144.0653	4.6
157.0969	5.4
157.1334	1.7
157.1697	2.3
158.0811	29.3
158.0917	18.3
158.1174	30.6
158.1279	6.6
158.1538	6.4
159.0762	13.0
159.0843	2.4
159.1019	1.3
159.1126	92.3
159.1197	2.3
159.1489	16.0
160.0754	16.3
160.0911	1.3
160.0966	100.0
160.1078	2.7
160.1153	7.1
160.1329	12.7
160.1441	1.8
160.1518	1.7
160.9012	1.7
161.0709	1.9
161.0788	1.4
161.1001	4.7

Name: GlyTouCan:G36918VO
PrecursorMZ: 360.14955
RT: 9.2312
ExactMass: 342.11621151
Spectrum_type: 2
charge: 1
Formula: C12H22O11
SMILES: C([C@@H]1[C@H]([C@@H]([C@H]([C@H](O1)OC[C@@H]2[C@H]([C@@H](C(O2)(CO)O)O)O)O)O)O)O
Method: HCD
Collision_energy: [28.333334]
Isolation_window: 4.0
Ion_mode: P
Num Peaks: 75
57.0338	1.8
61.0288	5.5
69.0338	9.2
69.3284	3.2
70.0654	7.8
71.0494	2.3
73.0287	3.1
81.0337	3.4
84.0810	4.8
85.0286	100.0
86.0319	4.3
86.0602	2.9
87.0442	5.6
91.0391	9.3
97.0285	21.7
99.0441	7.2
100.0758	4.2
101.0598	3.1
109.0284	7.8
112.0756	2.7
115.0390	2.1
116.0706	2.7
127.0389	49.9
128.0422	3.2
130.0861	3.8
144.0653	2.7
145.0494	83.9
146.0527	5.1
146.0922	14.4
152.0708	2.1
158.0809	2.3
163.0599	62.3
164.0635	4.6
166.0974	4.5
178.0971	2.2
180.0865	1.9
198.0874	4.1
200.1031	4.2
217.1291	3.8
271.1394	7.9
283.1397	5.5
287.2686	4.6
289.0913	2.9
316.1321	2.1
325.1123	23.8
326.1164	3.5
334.1238	2.1
334.1423	41.1
343.1608	10.5
344.1298	2.0
344.1497	2.3
344.1841	2.0
358.1664	2.7
359.1562	10.1
359.1614	15.6
359.1819	5.2
359.1923	2.7
359.2003	3.5
359.2294	2.9
359.2894	7.6
360.1069	2.6
360.1123	4.8
360.1293	2.1
360.1428	2.9
360.1480	3.2
360.1776	16.3
361.1429	4.4
361.1720	44.9
361.1970	3.8
362.0926	2.3
362.1069	3.1
362.1159	4.5
362.1384	92.5
362.1574	28.4
362.1915	33.8

Name: GlyTouCan:G54631HK
PrecursorMZ: 381.07885
RT: 9.4185
ExactMass: 342.11621151
Spectrum_type: 2
charge: 1
Formula: C12H22O11
SMILES: C([C@@H]1[C@H]([C@@H]([C@H]([C@@H](O1)OC[C@@H]2[C@H]([C@@H]([C@H](C(O2)O)O)O)O)O)O)O)O
Method: HCD
Collision_energy: [28.333334]
Isolation_window: 4.0
Ion_mode: P
Num Peaks: 4
69.3973	8.5
381.0786	100.0
382.0822	12.8
383.0951	45.4

Name: Glyasperin D
PrecursorMZ: 371.19073
RT: 5.8832
ExactMass: 370.17802393
Spectrum_type: 2
charge: 1
Formula: C22H26O5
SMILES: CC(=CCC1=C(C=C2C(=C1OC)C[C@@H](CO2)C3=C(C=C(C=C3)O)O)OC)C
Method: HCD
Collision_energy: [28.333334]
Isolation_window: 4.0
Ion_mode: P
Num Peaks: 24
57.0339	30.6
59.0495	4.3
75.0443	53.2
84.0445	5.3
86.0966	9.9
87.0442	8.7
101.0597	7.5
102.0551	5.3
113.0597	5.3
129.0545	17.7
130.0498	5.0
131.0701	100.0
132.0732	5.6
148.0603	14.7
149.0807	40.5
197.1281	6.2
205.1067	9.5
223.1171	12.7
279.1433	4.6
371.1247	4.3
371.1907	87.3
372.1960	13.8
372.2490	5.6
372.3461	12.4

Name: Glycan Lacto-N-biose
PrecursorMZ: 366.13905
RT: 8.9798
Spectrum_type: 2
charge: 1
Method: HCD
Collision_energy: [28.333334]
Isolation_window: 4.0
Ion_mode: P
Num Peaks: 18
84.0447	7.2
85.0288	6.2
91.0392	6.0
97.0285	4.3
98.0602	6.2
126.0549	38.3
127.0389	5.3
138.0549	100.0
139.0582	6.8
144.0654	19.1
168.0655	35.3
186.0759	37.7
204.0864	63.5
205.0900	6.1
365.1052	5.5
365.1558	4.6
366.1390	70.5
367.1430	10.5

Name: Glyceryl Monooleate
PrecursorMZ: 339.28893
RT: 10.1365
ExactMass: 356.29265975
Spectrum_type: 2
charge: 1
Formula: C21H40O4
SMILES: CCCCCCCC/C=C\CCCCCCCC(=O)OCC(CO)O
Method: HCD
Collision_energy: [28.333334]
Isolation_window: 4.0
Ion_mode: P
Num Peaks: 67
55.0546	6.9
57.0339	9.8
57.0703	12.3
67.0546	12.2
69.0702	26.0
69.7438	1.5
70.0654	2.1
70.0735	1.4
71.0495	2.0
71.0859	10.0
79.0545	4.1
81.0701	18.7
83.0858	24.2
84.0810	2.1
85.0651	1.8
85.1014	6.1
87.0442	1.4
93.0700	7.0
95.0857	21.9
96.0890	1.8
97.0649	3.4
97.1013	14.9
101.0597	2.8
107.0856	6.2
109.1012	11.3
111.0804	2.7
111.1169	5.5
121.1012	10.9
123.1168	4.2
125.0962	1.7
126.0912	2.3
130.0862	1.9
135.1167	7.4
146.0922	1.5
149.1323	4.7
152.0703	1.5
163.1480	1.5
164.0705	4.9
182.0809	4.1
196.0966	2.4
239.1024	1.4
247.2416	1.5
265.2522	2.4
289.1540	2.2
322.1486	5.0
323.2726	2.5
337.2731	3.8
338.1409	2.4
338.1811	6.5
338.2068	3.2
338.2765	3.2
338.3411	3.0
339.1526	6.0
339.1873	4.6
339.2703	4.5
339.2886	100.0
340.1180	1.9
340.1382	1.7
340.1590	8.9
340.1883	2.2
340.2210	2.0
340.2921	23.1
341.1344	1.8
341.1468	1.9
341.1686	8.2
341.2833	5.1
341.3043	20.8

Name: Glyceryl Myristate
PrecursorMZ: 285.24201
RT: 1.0538
ExactMass: 302.24570956
Spectrum_type: 2
charge: 1
Formula: C17H34O4
SMILES: CCCCCCCCCCCCCC(=O)OCC(CO)O
Method: HCD
Collision_energy: [28.333334]
Isolation_window: 4.0
Ion_mode: P
Num Peaks: 51
55.0546	1.7
57.0339	8.3
57.0703	26.0
67.0546	6.8
69.0702	12.1
69.1637	2.1
69.1657	2.0
69.7110	1.5
71.0858	28.0
72.0892	1.6
74.0602	1.5
81.0701	16.0
83.0857	8.7
85.0650	1.6
85.1014	16.2
88.0759	2.7
89.0599	3.4
93.0700	2.1
95.0856	19.9
96.0890	2.0
97.0649	1.8
97.1013	7.6
97.4572	1.9
102.0914	1.9
103.0755	2.3
107.0856	2.3
109.1012	12.0
111.1169	3.6
121.1011	2.4
123.1168	5.6
135.1167	1.9
137.1324	2.6
149.1322	1.6
201.0541	1.8
211.2051	5.0
224.1279	3.8
229.2157	5.6
245.1280	5.5
284.1487	1.9
284.2591	2.8
284.2942	28.7
285.1233	1.4
285.2417	100.0
285.2551	2.8
285.2969	5.0
286.1418	3.7
286.2153	3.7
286.2451	17.6
287.1382	6.9
287.1987	1.9
287.2487	1.6

Name: Glycidyl trimethylammonium
PrecursorMZ: 116.10709
RT: 5.6364
ExactMass: 116.10753907
Spectrum_type: 2
charge: 1
Formula: C6H14NO+
SMILES: C[N+](C)(C)CC1CO1
Method: HCD
Collision_energy: [28.333334]
Isolation_window: 4.0
Ion_mode: P
Num Peaks: 24
57.0339	2.7
58.0656	47.1
59.0734	4.5
69.0339	3.2
69.0702	39.0
70.0655	25.0
70.0736	3.5
72.0811	3.0
73.0651	6.1
97.0648	2.5
98.0237	3.2
98.0602	4.6
98.0966	3.1
99.0077	9.7
114.8930	14.8
115.0502	7.7
115.0754	2.2
115.0948	3.5
115.1231	3.2
116.0707	16.8
116.1070	100.0
117.0659	3.6
117.1103	7.1
118.0862	49.8

Name: Glycodeoxycholic Acid
PrecursorMZ: 450.32121
RT: 5.0653
ExactMass: 449.31412347
Spectrum_type: 2
charge: 1
Formula: C26H43NO5
SMILES: C[C@H](CCC(=O)NCC(=O)O)[C@H]1CC[C@@H]2[C@@]1([C@H](C[C@H]3[C@H]2CC[C@H]4[C@@]3(CC[C@H](C4)O)C)O)C
Method: HCD
Collision_energy: [28.333334]
Isolation_window: 4.0
Ion_mode: P
Num Peaks: 75
57.0339	5.0
62.0605	4.2
67.0547	5.5
69.0703	9.2
75.0445	4.1
76.0397	23.1
79.0546	7.7
81.0338	4.5
81.0702	13.1
83.0859	5.1
85.0651	7.3
87.0444	4.5
89.0600	15.0
93.0550	10.4
93.0702	12.4
95.0858	15.9
99.0807	6.0
105.0701	6.8
107.0858	10.6
109.1013	8.3
119.0857	10.9
121.1013	10.8
131.0855	5.8
132.0444	6.7
133.0860	8.7
133.1013	10.5
135.1169	14.6
145.1012	9.0
147.1168	12.1
149.0962	4.5
149.1326	9.1
157.1013	5.2
158.0813	8.2
159.1170	9.2
161.1326	11.1
163.1486	5.0
171.1169	5.7
173.1326	6.0
175.1118	5.3
175.1482	5.7
177.1120	4.9
177.1273	5.3
185.1325	4.6
187.1478	5.6
189.1636	4.7
201.1637	8.5
203.1430	4.5
211.1481	8.4
215.1793	11.8
227.1792	4.6
229.1585	8.1
243.1745	5.1
311.2578	17.9
321.2573	13.6
322.2615	5.0
325.1553	5.9
339.2680	20.0
340.2714	4.9
361.1401	5.0
413.2691	7.4
414.3001	100.0
415.3042	28.3
430.3314	27.5
431.2773	6.5
431.3352	16.9
432.3104	12.1
434.2659	5.2
449.1939	16.6
449.2527	5.1
449.2887	5.8
450.1974	4.2
451.2092	18.4
451.3234	3.8
452.2136	4.6
452.2754	5.0

Name: Glycolithocholic Acid
PrecursorMZ: 434.32597
RT: 1.6726
ExactMass: 433.31920885
Spectrum_type: 2
charge: 1
Formula: C26H43NO4
SMILES: C[C@H](CCC(=O)NCC(=O)O)[C@H]1CC[C@@H]2[C@@]1(CC[C@H]3[C@H]2CC[C@H]4[C@@]3(CC[C@H](C4)O)C)C
Method: HCD
Collision_energy: [28.333334]
Isolation_window: 4.0
Ion_mode: P
Num Peaks: 7
164.1069	8.9
176.1067	4.6
203.1302	5.0
416.3152	100.0
417.3185	28.9
434.3250	11.3
435.3298	4.1

Name: Glycoursodeoxycholic acid
PrecursorMZ: 414.30009
RT: 4.6634
ExactMass: 449.31412347
Spectrum_type: 2
charge: 1
Formula: C26H43NO5
SMILES: C[C@H](CCC(=O)NCC(=O)O)[C@H]1CC[C@@H]2[C@@]1(CC[C@H]3[C@H]2[C@H](C[C@H]4[C@@]3(CC[C@H](C4)O)C)O)C
Method: HCD
Collision_energy: [28.333334]
Isolation_window: 4.0
Ion_mode: P
Num Peaks: 128
55.0547	1.3
67.0547	3.4
69.0703	2.6
73.0289	1.7
76.0397	29.1
79.0546	2.2
80.0548	1.9
81.0338	1.3
81.0702	9.1
83.0859	2.7
85.0652	3.5
87.0443	1.5
89.0600	13.2
91.0543	1.9
93.0701	5.0
95.0858	9.2
97.1015	1.1
97.3998	1.1
102.0679	1.5
105.0700	4.8
107.0857	10.0
109.0650	1.1
109.1014	7.2
111.0807	1.3
112.0759	1.6
117.0701	1.1
119.0857	6.4
121.1013	7.7
123.0806	1.6
123.1170	2.7
125.0963	2.3
131.0855	2.9
133.0860	6.8
133.1013	8.9
135.1169	9.3
137.0961	2.2
143.0857	1.4
145.1013	5.5
147.1169	11.0
149.0962	2.0
149.1326	7.9
151.1119	1.6
155.0856	1.1
156.0657	1.4
157.1013	2.7
158.0813	14.3
159.1169	6.8
161.1326	10.8
162.1362	1.3
163.1119	4.0
163.1482	3.7
169.1015	2.0
171.1168	2.0
172.0968	1.6
173.1326	4.6
175.1117	2.6
175.1481	9.0
177.1124	2.1
177.1275	5.0
183.1169	2.0
185.1325	4.0
187.1481	4.3
189.1274	2.5
189.1638	4.9
191.1431	2.5
197.1326	1.9
198.1127	1.1
199.1253	1.4
199.1484	4.8
201.1638	13.0
202.1672	2.2
203.1431	3.1
203.1795	2.7
210.1125	2.1
211.1482	5.7
212.1283	1.8
212.1516	1.2
213.1639	4.0
215.1431	1.3
215.1794	14.2
216.1828	2.4
217.1586	2.1
217.1951	1.2
221.1385	1.4
224.1286	1.2
225.1636	3.6
226.1440	1.4
227.1794	3.2
229.1586	4.7
229.1951	4.4
231.1745	2.0
238.1439	2.6
239.1791	3.1
241.1950	2.2
243.1744	3.3
243.2106	3.3
252.1593	1.8
253.1956	1.1
257.1898	1.9
264.1597	1.1
266.1751	1.4
278.1749	1.8
288.1226	1.4
289.1185	1.3
290.1018	1.6
297.2573	1.7
304.1902	1.8
318.2067	1.1
321.2575	16.6
322.2610	3.5
332.2222	1.6
339.2681	21.1
340.2713	5.2
377.2693	1.4
395.2802	1.3
413.1717	1.9
413.2673	2.4
414.1566	1.3
414.2024	1.8
414.2069	2.1
414.3002	100.0
414.3329	2.6
414.3422	1.8
415.1505	1.9
415.1835	1.8
415.1880	1.7
415.3045	25.7
416.3082	2.6

Name: Glycyl-L-glutamine
PrecursorMZ: 204.09767
RT: 8.4477
ExactMass: 203.0906059
Spectrum_type: 2
charge: 1
Formula: C7H13N3O4
SMILES: C(CC(=O)N)[C@@H](C(=O)O)NC(=O)CN
Method: HCD
Collision_energy: [28.333334]
Isolation_window: 4.0
Ion_mode: P
Num Peaks: 30
70.0655	3.9
75.0557	1.8
84.0448	2.1
84.0811	3.1
96.0446	1.6
102.0551	4.7
114.0663	100.0
115.0696	4.3
116.0705	2.6
126.0549	2.0
130.0498	5.3
130.0864	3.1
140.0706	2.5
140.1069	2.4
144.0656	2.4
144.1018	3.2
158.0812	7.4
158.1176	2.0
167.0817	2.0
170.0448	4.2
185.0919	2.5
186.0874	2.1
186.1123	2.0
187.0714	1.6
203.1025	8.9
203.1503	2.1
204.0867	6.6
204.0978	22.9
204.1228	8.5
206.1021	2.4

Name: Glycyl-L-phenylalanine
PrecursorMZ: 223.10744
RT: 5.965
ExactMass: 222.10044231
Spectrum_type: 2
charge: 1
Formula: C11H14N2O3
SMILES: C1=CC=C(C=C1)C[C@@H](C(=O)O)NC(=O)CN
Method: HCD
Collision_energy: [28.333334]
Isolation_window: 4.0
Ion_mode: P
Num Peaks: 40
69.0702	1.5
81.0701	2.7
90.0551	1.6
93.0700	2.1
95.0491	2.3
95.0855	2.8
100.0758	7.6
108.0444	11.6
111.0441	2.0
120.0807	100.0
121.0841	8.0
124.0392	2.2
131.0490	1.8
132.0476	1.6
149.0596	2.3
159.1167	1.3
166.0860	71.8
167.0893	7.0
177.1019	25.3
178.0497	5.2
178.0859	5.0
178.1052	2.3
180.0652	1.9
192.1019	1.4
205.0968	4.5
206.0444	8.8
206.0808	2.4
222.0757	2.5
222.1120	11.5
222.1482	1.6
223.0706	2.3
223.1069	9.4
223.1325	1.4
223.1441	3.2
223.1689	1.3
224.0915	11.3
224.1024	1.4
224.1106	1.4
224.1274	3.9
225.1233	1.6

Name: Glycyl-L-valine
PrecursorMZ: 175.10766
RT: 6.524
ExactMass: 174.10044231
Spectrum_type: 2
charge: 1
Formula: C7H14N2O3
SMILES: CC(C)[C@@H](C(=O)O)NC(=O)CN
Method: HCD
Collision_energy: [28.333334]
Isolation_window: 4.0
Ion_mode: P
Num Peaks: 38
55.0546	0.6
72.0769	0.8
72.0811	100.0
72.0852	0.7
73.0844	3.5
81.0337	0.6
85.0398	1.0
86.0602	1.4
86.0967	6.0
87.0442	3.3
87.1000	0.8
88.1122	0.7
98.0602	1.0
102.0550	1.1
114.0550	1.0
118.0862	84.3
119.0895	3.9
127.1228	1.8
128.0705	1.5
129.0922	0.6
129.1021	78.1
130.0860	2.7
130.1053	5.1
130.1224	1.5
156.0653	1.2
156.1018	3.2
157.0970	2.2
173.1282	4.7
174.0759	1.2
174.0911	1.0
174.1121	0.8
174.1315	1.4
174.1485	4.3
175.0708	1.1
175.0863	0.6
175.1074	4.1
176.0703	4.9
177.0656	6.9

Name: Glycyl-glycyl-proline
PrecursorMZ: 230.11321
RT: 8.6861
ExactMass: 229.10625597
Spectrum_type: 2
charge: 1
Formula: C9H15N3O4
SMILES: C1C[C@H](N(C1)C(=O)CNC(=O)CN)C(=O)O
Method: HCD
Collision_energy: [28.333334]
Isolation_window: 4.0
Ion_mode: P
Num Peaks: 26
70.0654	10.7
84.0809	6.6
99.0441	3.6
101.0597	4.3
116.0705	6.5
129.1020	4.2
130.0860	5.0
132.0765	46.2
166.0861	4.5
171.1126	4.2
172.0965	14.0
183.0761	13.3
212.0909	4.0
214.1178	4.2
229.0812	12.7
229.0923	7.3
229.1178	11.5
229.1337	5.8
230.1013	8.1
230.1128	100.0
230.1380	15.6
231.0968	5.3
231.1167	7.9
231.1336	9.0
231.1443	37.5
232.1171	11.1

Name: Golgicide A
PrecursorMZ: 285.11927
RT: 7.9508
ExactMass: 284.11250478
Spectrum_type: 2
charge: 1
Formula: C17H14F2N2
SMILES: C1C=C[C@H]2[C@@H]1C(NC3=C2C=C(C=C3F)F)C4=CN=CC=C4
Method: HCD
Collision_energy: [28.333334]
Isolation_window: 4.0
Ion_mode: P
Num Peaks: 22
87.0444	4.7
101.0599	2.6
114.0916	9.2
157.0609	4.2
164.0706	6.5
166.0866	2.4
182.0811	2.1
184.0968	3.0
190.0864	6.7
192.1004	2.7
199.0826	2.2
200.0924	2.9
210.1111	10.4
267.1090	2.7
283.1274	2.4
284.1130	36.6
284.1490	19.7
285.1193	100.0
285.1533	2.6
286.1288	21.6
287.1043	2.4
287.1364	3.7

Name: Graveolide
PrecursorMZ: 266.17478
RT: 6.6617
ExactMass: 248.1412445
Spectrum_type: 2
charge: 1
Formula: C15H20O3
SMILES: C[C@@H]1C[C@H]2[C@H](C[C@]3([C@H]1CCC3=O)C)C(=C)C(=O)O2
Method: HCD
Collision_energy: [28.333334]
Isolation_window: 4.0
Ion_mode: P
Num Peaks: 147
55.0549	3.9
59.0498	2.6
67.0547	2.4
69.0341	1.1
69.0703	3.7
69.3023	1.7
70.0656	1.4
74.0062	3.9
75.0559	0.9
79.0545	1.3
81.0338	2.7
81.0701	2.9
83.0494	6.4
83.0858	2.1
84.0812	1.0
85.0654	1.0
91.0544	1.4
93.0700	2.0
95.0494	1.1
95.0609	0.9
95.0856	3.5
96.0445	6.3
97.0650	1.4
97.1014	1.6
97.4557	1.0
100.0758	1.6
101.0598	24.4
102.0631	1.3
105.0700	1.5
107.0855	2.1
109.0652	0.9
109.0763	1.1
109.1013	2.0
111.0441	5.6
119.0854	1.1
120.0113	2.7
120.9955	1.2
121.0650	0.9
121.1012	2.8
122.0600	1.4
123.0807	0.9
126.0912	1.7
130.0496	1.1
131.0854	1.3
133.1009	2.1
135.0804	1.1
135.1166	1.4
136.0616	23.3
136.0754	1.5
137.0598	0.9
137.0708	3.4
137.0959	1.1
138.0218	2.3
139.0753	1.0
145.1011	1.4
147.1168	0.9
149.0711	0.9
149.0960	1.7
150.0549	1.4
150.0910	1.1
151.1118	0.9
152.0706	1.3
154.0861	1.4
155.0812	1.2
156.0656	1.2
162.0218	17.2
163.0251	0.9
163.0864	1.0
163.1227	1.5
164.0707	1.4
164.1432	3.5
165.0545	1.0
165.1385	3.7
165.1465	0.9
166.0862	2.1
166.1224	51.9
167.1258	5.0
172.0965	2.7
175.1228	3.0
178.0859	1.0
180.0322	2.9
180.0653	1.4
185.1069	1.1
191.0449	1.1
192.1014	0.9
193.0427	1.6
195.1124	2.1
196.1078	2.9
201.1019	1.6
202.0857	1.2
202.0968	0.9
203.0811	1.6
203.1175	7.5
204.1017	1.6
206.0804	1.0
207.1011	1.6
207.1122	8.0
208.0959	0.9
219.1124	10.2
220.0960	3.2
220.1072	2.0
221.0915	5.1
221.1278	4.1
222.1121	1.9
231.1124	9.3
231.1370	1.4
247.1069	2.5
247.1687	1.8
247.2412	1.2
248.0914	5.2
248.1268	1.6
249.0853	1.7
249.1228	7.0
249.1476	1.2
249.1846	2.5
250.1066	2.7
250.1178	1.0
264.1214	0.9
264.1436	1.0
264.1581	1.4
264.1953	8.2
265.0811	2.8
265.1169	8.7
265.1543	7.6
265.1897	14.3
265.2522	4.1
266.1007	22.3
266.1128	9.4
266.1370	11.7
266.1491	7.6
266.1744	100.0
266.1899	2.9
266.1961	2.5
266.2044	1.2
267.0427	1.1
267.0947	2.2
267.1148	2.4
267.1328	19.7
267.1672	2.2
267.1768	13.7
267.1933	1.0
267.2064	1.6
268.1025	3.7
268.1163	7.7
268.1292	2.0
268.1528	3.6
268.1649	1.1

Name: Grayanotoxin I
PrecursorMZ: 413.25326
RT: 6.2147
ExactMass: 412.24610348
Spectrum_type: 2
charge: 1
Formula: C22H36O7
SMILES: CC(=O)O[C@@H]1[C@H]2CC[C@@H]3[C@]1(C[C@H]([C@]4([C@H]([C@]3(C)O)C[C@@H](C4(C)C)O)O)O)C[C@@]2(C)O
Method: HCD
Collision_energy: [28.333334]
Isolation_window: 4.0
Ion_mode: P
Num Peaks: 180
67.0547	24.8
69.0703	20.9
70.0656	23.0
71.0496	11.6
79.0546	22.0
81.0338	10.3
81.0703	37.5
83.0495	11.5
83.0859	18.2
84.0448	7.0
84.0812	16.6
85.0288	9.3
85.0651	12.3
87.0444	12.4
91.0545	15.2
93.0701	22.1
95.0494	10.5
95.0858	31.0
97.0651	15.4
97.1014	11.1
99.0444	8.8
101.0600	14.4
105.0701	21.9
107.0494	13.5
107.0858	31.8
109.0651	12.2
109.1014	14.2
111.0443	22.1
111.0808	11.3
113.0599	10.5
114.0916	7.8
116.0709	18.8
117.0703	12.4
119.0857	27.5
121.0650	22.2
121.1014	27.9
123.0806	22.6
125.0598	10.5
125.0962	12.8
127.0392	11.9
129.0701	11.6
131.0856	22.1
133.1013	24.6
135.0806	26.3
135.1169	14.0
137.0596	10.3
137.0961	13.4
139.0756	8.1
141.0913	8.5
143.0704	8.7
143.0855	12.3
145.1013	29.2
147.0808	11.6
147.1170	19.6
149.0962	27.2
149.1327	8.4
151.0756	8.1
151.1119	8.5
153.0912	8.2
157.1015	14.0
159.1169	21.7
161.0964	13.6
161.1324	11.5
163.1119	17.6
169.1015	15.1
171.1171	24.8
173.0967	9.9
173.1326	20.9
175.1120	24.8
175.1484	7.4
177.1275	8.3
179.1068	7.0
181.1016	8.9
183.1168	17.7
185.1327	20.6
187.1122	12.7
187.1484	12.1
189.1275	17.2
191.1067	27.3
191.1432	8.6
193.1222	11.1
195.1177	8.4
197.1326	16.1
199.1121	14.7
199.1483	12.7
201.1276	15.2
203.1065	16.0
203.1429	10.0
205.1224	8.8
207.1380	12.5
209.1173	12.1
209.1326	14.0
211.1481	16.0
212.0919	13.2
213.1275	14.5
213.1638	7.4
215.1068	7.0
215.1432	19.7
217.1224	26.5
217.1587	7.9
219.1382	19.5
221.1174	7.4
221.1535	11.5
223.1084	7.4
225.1272	8.0
227.1433	11.6
229.1225	8.8
229.1587	15.5
231.1380	12.5
231.1743	8.8
233.1536	19.1
235.1323	14.2
235.1693	13.1
237.1283	8.7
237.1487	10.5
239.1430	9.6
241.1181	27.9
241.1587	8.7
243.1379	12.6
245.1536	14.8
247.1693	28.5
249.1848	13.6
255.1593	10.4
257.1535	15.8
259.1693	10.7
261.1487	8.2
261.1849	7.6
265.1801	16.0
272.1391	9.3
275.1646	14.5
277.1952	8.0
287.1235	7.6
293.1746	9.5
295.2047	10.6
297.1080	17.7
297.2217	8.9
299.2000	7.7
305.1903	8.1
313.2163	25.0
315.2315	21.0
323.2009	28.3
324.2041	7.9
325.2163	28.9
329.2115	7.3
331.2266	19.5
333.2418	9.6
335.2219	7.6
339.1954	7.8
341.2113	54.1
342.2143	11.0
343.2268	42.1
349.2364	10.8
351.2532	9.2
357.2058	16.1
358.2094	11.7
359.2216	100.0
360.2252	19.4
361.2373	58.5
368.1807	10.7
369.1288	23.7
375.2164	18.2
375.2537	9.4
376.2200	12.4
377.2320	78.1
378.2353	22.1
379.2480	54.6
393.2267	7.6
394.2299	7.4
395.2420	45.0
396.2462	11.6
411.2335	14.4
412.1772	8.9
412.2390	10.4
413.1671	26.1
413.2032	23.9
413.2315	9.4
413.2507	20.4
414.1885	14.7
415.2138	8.0
415.2470	13.3

Name: Griseofulvin
PrecursorMZ: 353.07814
RT: 2.9932
ExactMass: 352.071366
Spectrum_type: 2
charge: 1
Formula: C17H17ClO6
SMILES: C[C@@H]1CC(=O)C=C([C@]12C(=O)C3=C(O2)C(=C(C=C3OC)OC)Cl)OC
Method: HCD
Collision_energy: [28.333334]
Isolation_window: 4.0
Ion_mode: P
Num Peaks: 3
353.0780	100.0
353.2282	8.3
354.0812	19.5

Name: Guaiacol
PrecursorMZ: 107.04926
RT: 9.5777
ExactMass: 124.052429494
Spectrum_type: 2
charge: 1
Formula: C7H8O2
SMILES: COC1=CC=CC=C1O
Method: HCD
Collision_energy: [28.333334]
Isolation_window: 4.0
Ion_mode: P
Num Peaks: 4
79.0545	5.6
95.0492	4.1
107.0492	100.0
108.0525	7.2

Name: Guanidinoacetic Acid
PrecursorMZ: 118.06119
RT: 4.6926
ExactMass: 117.053826475
Spectrum_type: 2
charge: 1
Formula: C3H7N3O2
SMILES: C(C(=O)O)N=C(N)N
Method: HCD
Collision_energy: [28.333334]
Isolation_window: 4.0
Ion_mode: P
Num Peaks: 6
58.0654	11.9
59.0733	7.5
72.0810	7.0
86.0351	100.0
118.0610	28.7
118.0862	84.9

Name: Guanine
PrecursorMZ: 152.05666
RT: 7.0162
ExactMass: 151.0494098
Spectrum_type: 2
charge: 1
Formula: C5H5N5O
SMILES: C1=NC2=C(N1)C(=O)NC(=N2)N
Method: HCD
Collision_energy: [28.333334]
Isolation_window: 4.0
Ion_mode: P
Num Peaks: 33
82.0653	0.7
88.0758	0.3
96.0445	0.4
96.9952	0.3
109.0511	0.7
110.0349	2.1
110.0600	0.5
124.0756	0.3
126.0549	0.5
126.0912	0.6
128.0453	1.9
132.1019	0.5
134.0458	0.3
134.0633	1.0
135.0300	2.1
136.0755	1.2
150.0912	0.9
150.1122	0.9
151.0865	0.4
152.0437	0.7
152.0463	0.5
152.0565	100.0
152.0669	0.4
152.0696	5.9
152.0812	0.7
152.1066	0.8
153.0404	9.5
153.0535	1.9
153.0598	5.5
153.0733	0.5
154.0437	0.4
154.0496	1.4
154.0862	0.6

Name: Guineesine
PrecursorMZ: 384.25299
RT: 7.3121
ExactMass: 383.24604391
Spectrum_type: 2
charge: 1
Formula: C24H33NO3
SMILES: CC(C)CNC(=O)/C=C/C=C/CCCCCC/C=C/C1=CC2=C(C=C1)OCO2
Method: HCD
Collision_energy: [28.333334]
Isolation_window: 4.0
Ion_mode: P
Num Peaks: 37
59.0609	3.0
72.0812	1.9
86.0968	11.6
91.0545	6.0
100.1123	49.5
101.1157	4.6
105.0701	14.2
117.0700	11.9
119.0493	15.7
121.0650	2.7
131.0493	2.6
131.0856	10.1
133.0284	8.6
133.0648	7.8
135.0440	7.0
145.0648	3.3
191.0704	1.9
195.1170	2.0
219.1168	6.2
234.1853	6.7
235.1118	3.6
237.1274	8.9
238.1309	2.3
247.1113	2.3
265.1224	6.4
322.2488	2.0
340.2599	3.8
382.2374	7.2
383.2407	18.6
384.1449	3.2
384.2177	9.7
384.2531	100.0
385.2547	20.2
386.1227	2.1
386.1617	1.9
386.2330	2.1
386.2637	2.1

Name: Gyromitrin
PrecursorMZ: 101.07097
RT: 2.3542
ExactMass: 100.063662883
Spectrum_type: 2
charge: 1
Formula: C4H8N2O
SMILES: C/C=N/N(C)C=O
Method: HCD
Collision_energy: [28.333334]
Isolation_window: 4.0
Ion_mode: P
Num Peaks: 28
55.0545	1.8
56.0498	9.5
57.0450	2.6
58.0290	2.1
58.0654	8.7
59.0606	100.0
60.0446	5.3
60.0559	2.5
60.0640	2.1
60.0810	1.7
70.0653	1.6
72.0809	2.0
82.0481	4.0
82.0652	7.7
83.0605	1.4
83.0856	1.7
99.0551	6.9
99.0744	5.2
99.0915	7.1
100.0503	3.0
100.0755	4.6
100.0867	1.5
100.1119	2.9
101.0344	2.6
101.0707	6.7
101.1072	4.9
102.0912	2.5
102.1275	6.4

Name: H-Asn-OMe
PrecursorMZ: 147.07653
RT: 4.618
ExactMass: 146.06914219
Spectrum_type: 2
charge: 1
Formula: C5H10N2O3
SMILES: COC(=O)[C@H](CC(=O)N)N
Method: HCD
Collision_energy: [28.333334]
Isolation_window: 4.0
Ion_mode: P
Num Peaks: 18
60.0449	11.6
87.0557	25.3
88.0397	70.5
102.0553	100.0
103.0587	5.1
105.0700	4.2
123.9646	15.8
130.0500	10.8
130.0864	15.5
146.0602	12.7
147.0556	4.7
147.0761	7.3
147.0918	5.8
147.1171	4.0
148.0757	10.5
148.0871	7.0
148.0968	5.0
149.0711	27.1

Name: H-Leu-ile-OH
PrecursorMZ: 245.18538
RT: 1.458
ExactMass: 244.17869263
Spectrum_type: 2
charge: 1
Formula: C12H24N2O3
SMILES: CC[C@H](C)[C@@H](C(=O)O)NC(=O)[C@H](CC(C)C)N
Method: HCD
Collision_energy: [28.333334]
Isolation_window: 4.0
Ion_mode: P
Num Peaks: 145
56.0497	0.1
58.0654	0.1
67.0545	0.1
69.0701	2.6
69.3151	0.1
69.3819	0.1
69.4320	0.1
69.6729	0.1
69.6901	0.1
69.8509	0.1
70.0653	0.2
70.0734	0.1
72.0810	0.1
79.0543	0.1
81.0700	0.1
84.0445	0.1
84.0809	0.2
86.0601	0.1
86.0703	0.3
86.0756	0.1
86.0862	0.1
86.0910	0.6
86.0965	100.0
86.1019	0.6
86.1051	0.1
86.1144	0.1
86.1216	0.3
86.1237	0.0
87.0937	0.3
87.0998	5.4
87.1023	0.2
91.0543	0.1
93.0699	0.1
95.0603	0.1
95.0855	0.2
97.4563	0.1
98.0599	0.1
98.0964	0.2
100.0392	0.3
100.1120	0.9
105.0698	0.2
107.0854	0.1
109.0760	0.1
109.1012	0.1
110.0711	0.1
112.0867	0.1
112.1119	0.1
113.0345	0.1
116.0704	0.1
119.0853	0.2
120.0807	0.1
121.1009	0.1
122.0710	0.1
126.0910	0.1
128.1065	0.1
128.1431	0.2
130.0859	0.1
130.1223	0.1
131.0488	0.3
131.0852	0.1
132.1016	4.9
133.1007	0.1
133.1048	0.3
135.1164	0.1
136.0865	0.1
137.0819	0.1
140.1430	0.1
142.1223	0.2
143.0851	0.1
144.1015	0.2
145.1008	0.2
147.1165	0.1
148.0866	0.1
149.0820	0.1
151.0975	0.1
154.0494	0.1
154.1223	0.1
156.0400	1.1
157.0430	0.1
157.1010	0.1
159.0755	0.1
159.1165	0.1
161.0818	0.1
161.0955	0.1
162.0774	0.1
162.1021	0.1
163.0974	0.1
164.0928	0.1
170.0555	1.3
171.0396	0.2
171.0589	0.1
171.1163	0.1
173.1321	0.1
183.0908	0.1
185.1319	0.1
187.0972	0.1
187.1476	0.1
188.0659	0.5
196.0835	0.1
198.0906	0.1
198.1116	0.1
199.1476	0.1
199.1799	2.3
200.0701	0.1
200.1063	0.8
200.1835	0.2
201.1016	0.1
201.1098	0.1
201.1633	0.1
202.1079	0.1
203.1036	0.1
204.1238	0.1
217.1326	0.1
226.0854	0.1
226.1431	0.1
226.1793	0.1
227.1422	0.1
227.1744	0.2
228.0645	0.1
228.1008	0.1
228.1587	0.1
229.1577	0.1
243.1695	0.1
243.2098	0.1
244.0595	0.1
244.0956	0.3
244.1060	0.2
244.1171	0.1
244.1307	0.2
244.1551	0.1
245.0912	0.2
245.1162	0.1
245.1278	0.3
245.1497	0.3
245.1529	0.2
245.1851	5.5
246.0753	0.4
246.1118	0.6
246.1326	0.1
246.1468	0.1
246.1887	0.8
247.1063	0.3
247.1317	0.1
247.1433	0.1
247.1678	0.3

Name: H-Leu-val-OH
PrecursorMZ: 231.17017
RT: 4.9407
ExactMass: 230.16304257
Spectrum_type: 2
charge: 1
Formula: C11H22N2O3
SMILES: CC(C)C[C@@H](C(=O)N[C@@H](C(C)C)C(=O)O)N
Method: HCD
Collision_energy: [28.333334]
Isolation_window: 4.0
Ion_mode: P
Num Peaks: 15
72.0448	2.3
100.0760	100.0
101.0792	4.8
114.0915	8.2
131.1182	1.6
171.1496	1.3
172.0968	2.9
212.1758	1.3
213.1599	5.3
230.1864	86.6
231.1708	1.2
231.1900	11.6
238.1073	9.2
239.1101	1.2
241.1541	1.5

Name: H-Tyr-val-OH
PrecursorMZ: 281.14939
RT: 2.6551
ExactMass: 280.14230712
Spectrum_type: 2
charge: 1
Formula: C14H20N2O4
SMILES: CC(C)[C@@H](C(=O)O)NC(=O)[C@H](CC1=CC=C(C=C1)O)N
Method: HCD
Collision_energy: [28.333334]
Isolation_window: 4.0
Ion_mode: P
Num Peaks: 82
70.0642	1.5
74.0590	1.2
80.0484	8.8
80.0537	1.9
81.0324	0.9
83.0482	1.0
84.0797	1.4
87.0430	1.5
101.0584	3.4
102.0536	2.0
110.0587	0.7
111.0429	0.9
112.0744	0.8
116.0692	1.0
120.0641	2.1
122.0601	2.3
130.0864	1.2
136.0758	1.0
138.0915	2.5
140.0708	1.1
146.0910	1.2
151.0865	1.2
152.0705	0.7
156.1019	0.8
164.0707	1.0
165.1025	0.7
166.0858	0.8
178.0862	0.7
179.0815	1.7
180.1019	5.5
181.0951	1.0
182.0803	0.9
197.0381	1.0
197.0916	1.4
199.1076	0.8
233.1408	0.9
235.1439	1.4
237.1233	0.9
257.1128	2.2
264.1261	0.8
279.1376	2.9
280.1208	3.9
280.1565	1.5
281.1237	1.3
281.1497	31.9
282.1348	9.5
283.1349	2.9
283.1661	2.0
284.0911	1.3
284.1133	3.7
284.1500	5.0
285.1484	2.4
285.1813	4.3
286.1781	1.4
287.1621	1.9
288.1246	2.4
288.1840	1.0
289.1173	1.9
289.2117	1.4
290.1033	2.5
290.1417	3.2
291.1336	8.7
292.1206	3.1
292.1551	2.1
293.1160	2.6
293.1505	5.8
294.1323	2.3
294.1619	3.4
295.1308	3.2
295.1653	4.4
296.1133	2.1
296.1516	5.7
297.0931	2.2
297.1445	14.0
298.1294	1.4
298.1692	1.8
299.1089	1.2
299.1608	8.7
300.0852	0.7
300.1553	100.0
301.1215	0.7
301.1576	7.3

Name: HC Blue 2
PrecursorMZ: 286.13947
RT: 2.5775
ExactMass: 285.13247072
Spectrum_type: 2
charge: 1
Formula: C12H19N3O5
SMILES: C1=CC(=C(C=C1N(CCO)CCO)[N+](=O)[O-])NCCO
Method: HCD
Collision_energy: [28.333334]
Isolation_window: 4.0
Ion_mode: P
Num Peaks: 41
58.0658	10.2
69.0342	10.8
70.0657	26.3
80.0499	17.2
84.0813	32.9
89.0601	12.8
95.0607	40.0
102.0917	11.5
122.0813	43.6
130.0865	44.9
132.0446	24.1
168.0690	39.0
174.0770	10.3
175.1196	10.0
206.1175	17.9
268.1291	44.6
285.1270	12.8
285.1824	13.6
286.1404	39.5
286.3102	15.2
287.1407	40.4
288.1282	11.5
288.2040	23.8
289.1567	12.7
290.1400	33.6
291.1376	15.1
291.1716	32.0
292.1627	15.9
293.1531	17.9
293.1857	100.0
294.1732	33.0
295.1674	26.9
296.1488	63.4
297.1518	11.5
300.1241	16.7
301.1218	10.7
302.1412	28.2
303.1358	15.8
304.1556	15.1
304.3001	16.5
305.1529	19.8

Name: HC Red 3
PrecursorMZ: 198.08725
RT: 6.9603
ExactMass: 197.08004122
Spectrum_type: 2
charge: 1
Formula: C8H11N3O3
SMILES: C1=CC(=C(C=C1N)[N+](=O)[O-])NCCO
Method: HCD
Collision_energy: [28.333334]
Isolation_window: 4.0
Ion_mode: P
Num Peaks: 51
68.0498	1.8
70.0656	1.1
82.0654	3.7
84.0447	1.4
86.0967	1.2
87.0443	1.9
96.0446	1.7
98.0603	2.3
100.0759	1.5
101.0599	1.7
110.0602	8.7
112.0759	5.3
114.0663	11.4
124.0394	1.7
124.0758	1.7
128.0707	3.8
130.0866	1.2
136.0870	2.9
137.0709	1.0
138.0549	1.1
138.0662	20.5
139.0742	1.9
140.0705	1.4
152.0708	7.8
152.0819	87.9
153.0851	5.6
154.0498	2.9
154.0862	1.5
154.0972	1.3
155.0701	2.2
162.0662	3.2
178.0497	1.1
179.0814	5.9
180.0654	6.5
180.0767	25.9
180.0838	1.1
181.0798	2.1
182.0923	13.7
196.0604	5.0
196.0968	4.1
197.0920	2.3
198.0219	21.2
198.0764	13.3
198.0871	100.0
198.1124	1.5
199.0256	1.9
199.0909	7.6
199.1075	5.7
199.1186	1.1
200.0920	1.6
200.1028	26.6

Name: Hapalindole A
PrecursorMZ: 339.16596
RT: 2.953
ExactMass: 338.1549764
Spectrum_type: 2
charge: 1
Formula: C21H23ClN2
SMILES: C[C@@]1([C@@H](C[C@H]2[C@@H]([C@H]1[N+]#[C-])C3=CNC4=CC=CC(=C43)C2(C)C)Cl)C=C
Method: HCD
Collision_energy: [28.333334]
Isolation_window: 4.0
Ion_mode: P
Num Peaks: 89
57.0340	2.7
60.0562	69.5
70.0657	12.3
71.0497	2.3
72.0813	2.3
81.0339	4.0
83.0497	2.3
84.0448	2.4
84.0812	9.2
86.0606	2.8
87.0447	2.6
94.0653	2.4
95.0607	2.6
96.0449	3.6
96.0811	3.0
97.0288	12.6
99.0443	3.8
101.0601	8.0
102.0552	3.5
108.0447	2.5
110.0605	2.7
111.0443	5.3
112.0871	3.9
114.0665	3.4
114.1031	3.5
116.0706	3.1
126.0554	6.5
128.0708	3.4
129.0549	3.3
130.0865	5.2
132.0447	3.2
142.0869	2.8
144.0770	8.2
146.0926	8.8
152.0706	2.5
159.0654	3.0
163.0868	4.9
164.0821	3.2
178.0854	3.0
180.1014	2.4
196.1104	5.8
204.0649	2.5
206.0808	2.5
207.0766	6.9
232.1089	5.1
252.0864	3.2
269.1135	3.5
296.1169	4.1
296.1721	7.7
297.1237	3.0
337.1418	3.3
337.1697	4.2
338.1233	3.4
338.1632	16.5
339.1589	25.7
340.1413	13.7
340.1839	15.8
341.1744	21.5
342.1556	13.8
343.1273	3.5
343.1974	100.0
344.1356	40.9
344.1971	16.2
345.1382	10.6
345.2033	5.2
346.1266	14.1
346.2117	5.1
346.3315	2.5
347.1277	3.3
347.1657	4.8
348.0998	9.1
348.1470	14.2
349.1412	10.3
349.1768	2.5
350.1437	16.7
351.1562	20.9
352.1396	13.4
352.1823	2.7
353.1737	18.9
354.1567	12.2
354.1699	12.4
355.1467	4.6
355.1862	8.6
356.1362	24.3
356.1785	9.6
357.1366	18.8
357.1747	5.5
357.2103	3.8
358.1316	7.1

Name: Haplamine
PrecursorMZ: 258.11259
RT: 2.2985
ExactMass: 257.10519334
Spectrum_type: 2
charge: 1
Formula: C15H15NO3
SMILES: CC1(C=CC2=C(O1)C3=C(C=CC(=C3)OC)NC2=O)C
Method: HCD
Collision_energy: [28.333334]
Isolation_window: 4.0
Ion_mode: P
Num Peaks: 173
56.0494	2.3
68.0493	1.9
69.0332	2.2
70.0655	5.2
71.0488	2.2
72.0805	1.8
74.0599	1.8
81.0339	6.6
82.0654	3.2
83.0494	2.8
84.0448	6.0
84.0811	4.0
85.0281	2.0
86.0603	4.4
86.0967	7.7
87.0444	5.1
90.0546	1.7
95.0598	2.1
96.0447	6.1
97.0286	9.2
98.0603	3.5
98.0969	2.6
99.0443	5.9
100.0759	7.0
101.0599	11.4
102.0553	5.8
108.0445	2.5
109.0277	1.8
110.0603	3.1
111.0444	4.3
112.0760	2.9
114.0551	9.4
114.0663	3.7
116.0707	8.2
117.0548	6.9
118.0865	3.4
121.0643	1.7
125.0710	2.8
126.0551	7.7
127.0385	2.0
128.0707	6.2
130.0500	27.2
130.0647	1.7
130.0866	3.0
134.0601	4.2
136.0758	5.7
137.0461	4.1
137.0701	2.4
138.0553	14.6
138.0908	1.8
139.0862	2.2
140.0702	3.3
141.0654	3.9
142.0502	3.2
142.0864	7.2
144.0651	5.4
144.1021	2.6
149.0836	9.6
150.0547	1.7
150.0917	5.4
152.0563	21.5
152.0700	5.7
152.0815	1.8
154.0854	1.9
155.0816	4.0
156.0652	1.8
158.0925	9.7
159.0915	8.5
164.0702	2.9
166.0514	1.7
166.0856	3.2
167.0816	2.2
168.0651	5.8
168.0771	4.8
169.0881	2.3
170.0811	5.8
170.0961	11.8
172.0965	2.2
173.0919	1.9
176.0706	1.8
178.0861	1.7
180.1017	1.7
181.0976	1.7
182.0808	4.8
183.1127	5.3
184.0748	4.2
185.0931	2.4
186.0765	3.4
186.0892	2.9
188.0706	2.2
193.0973	2.2
194.0808	1.7
195.1130	3.8
196.0725	1.9
196.0973	2.1
197.0922	16.1
198.0909	5.5
198.1126	2.5
200.1063	3.9
202.0863	11.8
204.0656	4.7
205.0498	1.9
210.0729	2.9
211.1078	87.6
212.1110	11.7
216.1021	13.7
216.1230	4.4
217.1045	2.1
221.0922	2.1
222.0754	4.2
223.1082	3.7
225.1244	3.5
226.0708	2.7
228.0994	11.8
230.1174	3.9
232.0737	3.2
236.1027	1.7
238.0715	4.5
239.1033	4.1
240.0941	2.4
241.1189	3.8
242.1041	2.7
244.1178	7.8
246.0755	3.7
252.0884	2.1
252.1215	2.4
254.1155	5.0
255.1347	10.1
255.2428	4.3
256.0814	2.7
256.1283	11.8
257.1117	16.8
257.1519	4.3
258.1125	100.0
258.1341	5.8
258.1499	1.7
259.1166	9.7
259.1324	8.4
260.0667	6.0
260.1289	35.5
261.1327	2.0
262.1292	5.8
262.1507	2.9
263.1045	2.5
263.1388	1.7
263.1759	2.0
264.0837	3.4
265.0867	1.8
265.1190	5.7
265.1551	3.0
266.1017	8.8
266.1379	2.4
267.1024	5.2
267.1351	9.1
268.1179	20.7
269.0601	4.3
269.1144	86.8
269.1501	14.8
270.0975	2.0
270.1356	30.2
271.1321	16.4
271.1663	4.2
272.1248	38.5
273.1443	37.6
274.0904	5.7
274.1440	12.7
275.0988	3.0
275.1465	1.7
275.1755	1.8
276.1532	4.2
277.1181	3.9
278.0848	4.7
278.1141	3.5

Name: Harmalol
PrecursorMZ: 201.10207
RT: 6.6168
ExactMass: 200.094963011
Spectrum_type: 2
charge: 1
Formula: C12H12N2O
SMILES: CC1=NCCC2=C1NC3=C2C=CC(=C3)O
Method: HCD
Collision_energy: [28.333334]
Isolation_window: 4.0
Ion_mode: P
Num Peaks: 36
60.0447	1.3
68.0498	1.2
70.0654	2.0
86.0966	0.7
98.0965	7.2
114.0661	1.3
116.0705	3.7
154.0972	0.6
154.1224	1.0
156.0806	0.7
157.0757	1.6
158.0597	0.7
158.0921	2.9
160.0754	3.1
182.0807	0.9
183.0760	1.0
184.0752	1.2
184.0967	0.8
199.1073	3.4
200.0541	0.8
200.0914	5.2
200.1027	6.4
200.1107	0.7
200.1276	3.1
201.0667	0.9
201.0865	1.6
201.1018	100.0
201.1217	3.7
202.0494	1.6
202.0858	8.3
202.0968	2.7
202.1056	15.3
202.1426	0.7
202.1796	1.3
203.0811	2.8
203.1010	0.8

Name: Harmol
PrecursorMZ: 199.08651
RT: 4.4437875
ExactMass: 198.079312947
Spectrum_type: 2
charge: 1
Formula: C12H10N2O
SMILES: CC1=C2C(=C3C=CC(=O)C=C3N2)C=CN1
Method: HCD
Collision_energy: [28.333334]
Isolation_window: 4.0
Ion_mode: P
Num Peaks: 26
70.0654	1.4
116.0706	1.0
120.0444	1.6
126.0912	2.2
130.0650	1.9
132.0442	1.0
132.0805	1.2
152.0706	1.8
153.1022	1.8
154.0861	11.8
156.0807	1.4
158.0599	13.6
160.0755	1.9
180.0654	1.6
181.0758	100.0
182.0788	10.9
183.0915	5.1
184.0754	3.0
197.0919	1.0
198.0764	1.0
198.1024	3.9
199.0863	99.8
199.0958	1.1
199.1060	1.4
200.0899	13.4
201.1019	15.7

Name: Harringtonine
PrecursorMZ: 554.2303
RT: 8.335
ExactMass: 531.24683176
Spectrum_type: 2
charge: 1
Formula: C28H37NO9
SMILES: CC(C)(CC[C@@](CC(=O)OC)(C(=O)O[C@H]1[C@H]2C3=CC4=C(C=C3CCN5[C@@]2(CCC5)C=C1OC)OCO4)O)O
Method: HCD
Collision_energy: [28.333334]
Isolation_window: 4.0
Ion_mode: P
Num Peaks: 40
61.5823	5.0
70.0655	10.6
72.0812	6.1
84.0812	6.2
89.0600	2.9
110.0969	2.4
112.1122	2.5
127.0867	5.0
129.1388	2.2
133.0859	2.2
151.0865	3.6
154.0865	2.9
159.0588	3.4
169.0971	21.7
201.0691	20.1
281.1471	2.9
305.1472	3.7
306.1308	2.2
311.2071	3.4
374.1667	2.8
392.1785	18.2
393.1796	4.1
398.1694	2.3
416.1780	20.0
417.1786	4.4
418.1734	2.2
434.1887	70.4
435.1916	14.5
436.1852	8.2
471.1959	3.4
518.2110	4.6
553.2160	5.4
554.2308	100.0
555.2337	26.8
556.2299	13.7
557.2252	3.1
561.2272	19.4
562.2290	6.2
563.2407	3.6
567.2478	2.3

Name: Hematoxylin
PrecursorMZ: 325.06922
RT: 3.6136
ExactMass: 302.07903816
Spectrum_type: 2
charge: 1
Formula: C16H14O6
SMILES: C1C2=CC(=C(C=C2[C@H]3[C@@]1(COC4=C3C=CC(=C4O)O)O)O)O
Method: HCD
Collision_energy: [28.333334]
Isolation_window: 4.0
Ion_mode: P
Num Peaks: 44
69.0339	7.7
70.0654	8.5
71.0493	7.5
81.0337	45.9
83.0492	7.2
86.0966	13.7
95.0491	7.6
99.0441	23.0
108.0808	9.7
110.0601	7.8
111.0441	21.6
117.0545	8.4
134.0599	35.3
148.0754	7.1
150.0911	7.6
164.0705	8.8
166.0862	11.0
180.1016	7.4
192.1017	9.4
210.1121	43.0
224.1278	7.9
250.1069	63.3
264.1224	22.0
282.1325	9.0
288.1222	7.8
306.1327	21.2
307.1280	8.3
308.1120	13.6
308.1483	25.2
323.1582	25.9
324.0839	12.4
324.1055	10.4
324.1433	82.9
325.0679	22.0
325.1388	24.6
325.1751	15.0
325.1922	18.6
326.1002	19.4
326.1223	52.8
326.1395	10.0
326.1589	100.0
326.3774	75.1
327.0473	7.4
327.1562	10.7

Name: Heptanamide, N-pentyl-
PrecursorMZ: 200.20085
RT: 1.1452
ExactMass: 199.193614421
Spectrum_type: 2
charge: 1
Formula: C12H25NO
SMILES: CCCCCCC(=O)NCCCCC
Method: HCD
Collision_energy: [28.333334]
Isolation_window: 4.0
Ion_mode: P
Num Peaks: 4
88.0759	9.8
102.0915	7.7
200.2008	100.0
201.2042	11.1

Name: Hernandezine
PrecursorMZ: 327.16578
RT: 3.8478
ExactMass: 652.31485175
Spectrum_type: 2
charge: 1
Formula: C39H44N2O7
SMILES: CN1CCC2=CC(=C3C=C2[C@@H]1CC4=CC=C(C=C4)OC5=C(C=CC(=C5)C[C@H]6C7=C(CCN6C)C(=C(C(=C7O3)OC)OC)OC)OC)OC
Method: HCD
Collision_energy: [28.333334]
Isolation_window: 4.0
Ion_mode: P
Num Peaks: 92
60.0562	0.3
70.0656	0.6
71.0496	0.6
72.0814	0.2
74.0604	0.1
83.0494	0.2
84.0812	0.3
86.0603	0.3
87.0445	0.4
88.0761	0.5
95.0607	0.3
98.0603	1.0
98.0967	0.2
100.0760	0.2
101.0600	0.8
104.0711	0.2
110.0604	0.1
110.0842	0.3
122.0604	0.4
122.0813	0.3
128.0710	0.1
128.0820	0.6
130.0869	0.2
132.0449	0.2
138.1027	0.4
140.0813	0.2
142.0862	0.1
146.0926	4.6
147.0968	0.3
162.0915	0.2
166.0867	0.2
174.0761	0.3
178.0989	0.2
180.1018	0.5
182.0929	0.9
184.0965	0.2
197.1039	0.1
198.1124	1.0
208.1103	0.4
210.0857	0.2
211.1057	0.1
216.1351	0.1
225.1346	0.1
226.1191	2.3
227.1193	0.3
240.1341	0.1
241.1177	0.2
242.1384	0.2
243.1459	0.3
257.1610	0.3
280.1095	0.2
286.1768	0.1
300.1914	0.1
325.1435	0.3
325.1852	1.2
326.1176	2.7
326.1624	0.8
327.1205	0.3
327.1651	4.6
328.1395	0.4
328.1808	0.5
329.1816	4.0
330.1295	0.3
330.1951	0.5
331.1345	0.2
331.1910	0.5
332.1498	0.3
333.1441	0.3
334.1266	0.4
334.1641	0.2
335.1233	0.2
335.1629	0.3
336.1474	0.7
337.1390	1.4
338.1705	0.6
339.1556	1.1
340.1385	0.3
340.1892	0.4
341.1750	1.8
342.1552	1.3
342.1902	0.6
343.0097	0.2
343.1097	0.6
343.1294	0.4
343.1976	100.0
343.2850	0.6
343.4106	0.2
344.1123	0.2
344.2009	17.7
345.2040	2.7
346.1465	0.5
346.2081	0.4

Name: Hetisan-2,11,13-triol
PrecursorMZ: 330.20599
RT: 2.0604
ExactMass: 329.19909372
Spectrum_type: 2
charge: 1
Formula: C20H27NO3
SMILES: CC12CC(CC34C1C5CC67C3C(C(C(C6C4N5C2)O)C(=C)C7)O)O
Method: HCD
Collision_energy: [28.333334]
Isolation_window: 4.0
Ion_mode: P
Num Peaks: 10
112.0759	27.0
140.0704	12.3
149.1325	32.6
156.0656	11.1
194.0811	89.8
201.1271	26.5
295.1683	13.3
312.1954	68.3
330.2059	100.0
331.2090	24.3

Name: Hexacyclinic acid
PrecursorMZ: 513.20899
RT: 6.9513
ExactMass: 490.22028266
Spectrum_type: 2
charge: 1
Formula: C26H34O9
SMILES: C[C@@H]1[C@H]([C@H]2[C@@H]([C@H]1OC(=O)C)C=C([C@@H]3[C@@H]2[C@H]4[C@@H](C3)[C@]5(CC[C@@H]6[C@H]([C@]([C@@H]4C(=O)O6)(O5)O)C)C)C(=O)O)O
Method: HCD
Collision_energy: [28.333334]
Isolation_window: 4.0
Ion_mode: P
Num Peaks: 11
57.0236	4.9
89.0602	3.8
300.0236	4.4
313.0309	5.6
442.1227	7.0
467.2022	4.8
495.1986	5.7
513.2092	100.0
514.2125	27.2
515.1777	3.9
515.2113	5.6

Name: Hexadecanamide
PrecursorMZ: 256.26311
RT: 1.3048
ExactMass: 255.256214676
Spectrum_type: 2
charge: 1
Formula: C16H33NO
SMILES: CCCCCCCCCCCCCCCC(=O)N
Method: HCD
Collision_energy: [28.333334]
Isolation_window: 4.0
Ion_mode: P
Num Peaks: 22
55.0546	2.7
57.0702	2.8
67.0546	6.8
69.0702	6.4
69.4350	3.9
70.0100	2.8
71.0495	4.0
81.0701	8.7
83.0858	7.6
95.0856	12.7
97.1011	3.5
109.1011	5.7
223.0862	9.3
238.2525	4.6
255.0915	3.0
255.1122	13.3
255.1486	3.1
256.0987	20.7
256.2629	100.0
257.1028	3.9
257.1281	4.7
257.2664	16.2

Name: Hexaethylene Glycol
PrecursorMZ: 283.17495
RT: 2.3657
ExactMass: 282.16785316
Spectrum_type: 2
charge: 1
Formula: C12H26O7
SMILES: C(COCCOCCOCCOCCOCCO)O
Method: HCD
Collision_energy: [28.333334]
Isolation_window: 4.0
Ion_mode: P
Num Peaks: 14
87.0444	2.0
89.0600	100.0
90.0634	3.9
107.0704	2.0
133.0860	46.7
134.0893	3.0
177.1122	9.8
195.1228	2.8
239.1488	12.2
282.2790	1.5
283.1751	13.6
284.1176	2.5
284.1787	2.0
284.3310	2.7

Name: Hexamethylene Bisacetamide
PrecursorMZ: 201.15949
RT: 2.468166666666667
ExactMass: 200.152477885
Spectrum_type: 2
charge: 1
Formula: C10H20N2O2
SMILES: CC(=O)NCCCCCCNC(=O)C
Method: HCD
Collision_energy: [28.333334]
Isolation_window: 4.0
Ion_mode: P
Num Peaks: 8
69.2622	16.1
86.0967	71.6
97.3986	15.8
128.1069	56.6
142.1225	33.7
145.1334	100.0
159.1491	33.9
201.1595	34.4

Name: Hexamethylenetetramine
PrecursorMZ: 141.1135
RT: 8.1774
ExactMass: 140.1061964
Spectrum_type: 2
charge: 1
Formula: C6H12N4
SMILES: C1N2CN3CN1CN(C2)C3
Method: HCD
Collision_energy: [28.333334]
Isolation_window: 4.0
Ion_mode: P
Num Peaks: 6
58.0656	20.3
85.0764	69.7
98.0715	26.3
112.0871	100.0
141.0660	31.9
141.1135	90.6

Name: Hexamethylphosphoramide
PrecursorMZ: 180.12596
RT: 1.9761
ExactMass: 179.1187492
Spectrum_type: 2
charge: 1
Formula: C6H18N3OP
SMILES: CN(C)P(=O)(N(C)C)N(C)C
Method: HCD
Collision_energy: [28.333334]
Isolation_window: 4.0
Ion_mode: P
Num Peaks: 6
91.0545	4.5
135.0682	100.0
136.0715	4.6
153.0788	29.0
180.1021	3.1
180.1260	23.8

Name: Hexylresorcinol
PrecursorMZ: 195.12254
RT: 2.4383
ExactMass: 194.130679813
Spectrum_type: 2
charge: 1
Formula: C12H18O2
SMILES: CCCCCCC1=C(C=C(C=C1)O)O
Method: HCD
Collision_energy: [28.333334]
Isolation_window: 4.0
Ion_mode: P
Num Peaks: 13
81.0338	1.8
89.0600	100.0
90.0634	4.2
107.0704	5.3
133.0859	22.3
134.0892	1.8
136.0757	3.0
151.0965	3.5
164.0706	6.0
195.1225	7.6
196.0967	1.7
197.0376	1.8
197.1071	1.7

Name: Himeic acid G
PrecursorMZ: 335.1962
RT: 4.6714
ExactMass: 334.18925731
Spectrum_type: 2
charge: 1
Formula: C18H26N2O4
SMILES: COC(=O)CCCCCCCC/C=C/C1=CC(=O)C(=CN1)C(=O)N
Method: HCD
Collision_energy: [28.333334]
Isolation_window: 4.0
Ion_mode: P
Num Peaks: 129
55.0546	0.8
67.0546	0.9
69.0702	1.0
69.0738	0.6
69.0763	1.3
69.2824	0.9
69.5691	0.9
70.0655	0.9
81.0337	1.6
81.0701	1.5
83.0858	1.8
89.0598	0.5
93.0700	1.7
95.0492	0.7
95.0856	1.8
97.4561	0.8
105.0700	1.0
107.0856	1.2
108.0807	1.4
109.0649	0.6
109.1012	1.2
119.0854	0.9
120.0807	1.6
121.1011	1.0
123.0803	0.7
124.0756	2.2
126.0912	2.8
126.1276	0.7
133.1010	0.8
134.0963	1.0
135.1165	0.8
136.0755	1.8
138.0547	1.5
138.0912	1.7
140.1432	2.0
142.1225	0.7
144.1381	4.1
145.1010	0.9
147.1166	0.6
148.0755	2.7
149.0958	0.7
150.0913	1.1
152.0705	0.8
162.0912	1.0
164.0703	0.6
166.0861	8.8
167.0891	0.5
168.1018	2.7
174.0910	1.5
174.1276	0.9
176.1069	1.2
178.0862	0.8
180.1017	6.1
187.1227	0.7
190.1222	1.0
192.1016	1.5
192.1379	3.4
194.1173	1.5
202.1224	1.1
208.0965	1.7
210.1121	34.8
211.1156	4.3
215.1176	2.6
223.1072	3.7
226.1222	1.1
228.1252	0.5
229.1331	2.6
230.1170	0.6
230.1410	7.9
231.1484	1.1
237.1592	1.2
240.1380	0.9
243.1487	38.4
244.1523	5.5
245.1648	0.8
246.1359	1.7
256.0961	0.6
257.1643	1.7
258.1119	1.2
258.1483	0.8
259.1072	1.5
267.1485	1.4
268.1327	0.7
274.1306	11.0
275.1350	2.1
275.1750	0.8
285.1592	5.5
286.1447	1.0
286.1608	1.0
288.1462	2.5
290.1590	0.7
301.1537	1.1
302.1013	0.6
303.1342	0.7
303.1696	100.0
304.1169	1.4
304.1731	17.2
305.1731	1.1
305.1864	3.6
316.1171	0.7
316.1419	1.7
317.1482	1.3
317.2107	0.6
318.1325	1.0
318.1697	0.6
333.1805	1.6
333.2169	0.7
334.1277	3.0
334.1543	6.2
334.1840	1.2
334.2366	1.2
335.1594	4.0
335.1765	2.6
335.1957	51.3
335.2168	1.0
335.2373	0.6
336.1428	3.5
336.1610	1.1
336.1793	1.5
336.1990	10.8
336.2169	0.8
336.2513	1.1
337.1395	0.8
337.1542	1.4
337.1746	4.3
337.2126	3.9
337.2372	0.8
337.2532	1.6
337.2733	1.5

Name: Hippagine
PrecursorMZ: 288.12259
RT: 7.9124
ExactMass: 287.11575802
Spectrum_type: 2
charge: 1
Formula: C16H17NO4
SMILES: C1C(C(C=C2C1N3CC2C4=CC5=C(C=C4C3)OCO5)O)O
Method: HCD
Collision_energy: [28.333334]
Isolation_window: 4.0
Ion_mode: P
Num Peaks: 92
60.0811	1.3
70.0654	1.8
81.0337	0.6
83.0606	0.5
84.0810	1.6
86.0966	0.7
87.0442	1.5
111.0440	0.5
122.0599	0.7
122.0812	0.8
126.0548	2.9
127.0501	1.3
129.0657	3.1
129.1021	0.8
130.0496	0.7
130.0861	0.6
134.0964	0.5
136.1118	0.9
144.1017	5.4
145.1049	0.5
147.0762	1.6
156.0806	0.9
160.0755	6.7
161.0788	0.6
163.0863	0.8
164.1068	0.8
168.0693	0.5
168.0806	0.4
169.0968	0.4
175.0862	1.2
181.0969	0.9
183.0915	0.6
189.1020	0.6
192.0652	0.7
193.0970	1.1
195.1124	1.2
199.1074	0.6
202.0858	2.3
205.0967	0.4
209.0915	0.4
210.0758	0.8
211.1073	0.9
214.0858	8.7
215.0890	1.1
216.1016	1.2
217.0968	1.4
223.1072	0.6
228.0863	1.1
229.0969	2.5
229.1092	23.6
229.1541	1.1
230.1126	3.4
235.1072	1.2
239.1018	0.5
241.1183	0.5
253.1175	1.3
260.0910	1.2
269.1123	0.7
269.1601	0.4
270.0961	0.9
271.0919	0.4
271.1281	3.2
272.1117	0.6
273.0989	5.9
274.1028	0.8
286.1420	0.9
286.1761	0.7
287.1014	1.6
287.1227	3.1
287.1376	7.3
287.1592	1.9
287.1737	0.7
287.1946	1.1
288.0869	4.2
288.1074	4.3
288.1221	100.0
288.1337	0.6
288.1574	2.5
288.1707	1.2
288.1909	0.8
288.2162	0.4
289.0904	0.6
289.1253	15.2
289.1386	15.1
289.1536	5.0
289.1861	0.5
289.2094	0.5
290.1014	1.0
290.1230	2.4
290.1375	5.9
290.1502	0.8
290.1716	0.9

Name: Hippeastrine
PrecursorMZ: 316.12073
RT: 5.1808
ExactMass: 315.11067264
Spectrum_type: 2
charge: 1
Formula: C17H17NO5
SMILES: CN1CCC2=C[C@@H]([C@@H]3[C@H]([C@@H]21)C4=CC5=C(C=C4C(=O)O3)OCO5)O
Method: HCD
Collision_energy: [28.333334]
Isolation_window: 4.0
Ion_mode: P
Num Peaks: 82
55.0547	1.7
59.0495	1.1
70.0656	6.2
72.0813	0.8
83.0496	3.2
84.0812	3.8
86.0603	0.8
89.0423	1.3
100.0758	1.0
101.0600	15.3
102.0633	0.9
104.0708	0.7
110.0603	1.7
111.0443	1.1
112.0873	1.6
114.1027	0.8
116.0710	1.3
122.0814	6.4
128.0708	1.1
130.0864	2.1
135.0912	0.9
137.0713	1.0
138.0789	2.1
138.0914	0.9
139.0867	2.1
151.0868	12.2
152.0906	0.9
165.1027	1.2
175.0860	1.0
193.0973	5.6
210.0794	3.4
211.1071	2.2
211.1443	0.8
217.1182	1.4
229.1184	10.3
230.1215	1.1
236.1282	18.5
237.1315	2.9
238.1321	1.0
239.1390	5.0
252.1238	0.8
253.1311	2.5
271.1292	0.9
278.1384	1.4
310.1082	0.8
314.1691	1.5
315.1577	4.0
316.1196	6.3
316.1800	1.8
317.1174	1.1
317.1818	1.3
318.1350	4.2
318.1791	1.2
319.1286	1.8
319.1633	2.2
320.1139	1.0
320.1504	1.3
321.1431	1.7
322.1279	1.6
322.1694	1.4
323.1621	2.5
324.1476	3.4
325.1440	1.9
325.1782	1.9
326.1011	1.2
326.1594	11.3
327.1563	17.6
327.1910	3.0
328.1197	2.6
328.1579	1.8
328.1882	1.0
329.1708	100.0
330.1341	1.8
330.1741	18.4
330.3362	2.1
331.1812	4.3
332.1446	1.3
332.1861	1.0
333.1474	2.5
334.1263	1.5
334.1632	1.7
335.1622	1.3

Name: His-C18:0
PrecursorMZ: 422.33703
RT: 2.6637
Spectrum_type: 2
charge: 1
SMILES: CCCCCCCCCCCCCCCCCC(NC(CC1=NC=CN1)C(O)=O)=O
Method: HCD
Collision_energy: [28.333334]
Isolation_window: 4.0
Ion_mode: P
Num Peaks: 10
95.0605	3.9
110.0713	100.0
111.0746	5.8
156.0765	74.7
157.0799	6.3
278.1850	5.0
420.3204	5.1
421.2434	13.8
422.3365	42.4
423.3396	9.7

Name: His-C4:0
PrecursorMZ: 226.11843
RT: 5.9789
Spectrum_type: 2
charge: 1
SMILES: CCCC(NC(CC1=NC=CN1)C(O)=O)=O
Method: HCD
Collision_energy: [28.333334]
Isolation_window: 4.0
Ion_mode: P
Num Peaks: 74
69.0703	2.4
71.0495	2.5
79.0545	1.4
84.0447	1.3
85.0650	1.0
86.0968	1.7
95.0606	4.2
96.0810	15.5
97.0649	0.9
98.0603	2.4
101.0598	0.9
105.0702	2.0
109.0762	2.7
110.0604	1.0
110.0714	100.0
110.0791	0.8
111.0684	0.8
111.0747	5.2
113.1075	2.3
114.0915	13.0
116.0707	1.1
123.0440	0.9
130.0499	2.7
136.0756	2.4
137.0709	1.1
138.0660	0.9
156.0768	90.6
157.0801	5.6
161.1073	2.6
164.0705	2.6
166.0975	1.6
179.1178	4.8
180.1020	2.5
180.1130	26.9
180.1202	0.8
181.0968	1.0
181.1164	2.7
182.0812	3.5
189.1020	0.9
190.0972	1.0
191.1061	0.8
207.1126	8.5
208.0969	1.6
208.1078	17.2
209.0379	3.0
209.0921	1.4
209.1106	1.5
209.1278	2.3
209.1647	18.0
210.0758	1.4
210.0874	0.9
210.1124	0.9
210.1679	1.2
224.0914	1.4
224.1026	1.4
224.1279	3.0
225.1230	10.2
225.1594	1.6
226.1077	3.4
226.1183	44.0
226.1266	1.2
226.1424	1.1
227.0479	1.1
227.0816	1.4
227.1028	4.1
227.1225	4.1
227.1391	2.8
227.1507	1.5
227.1752	97.3
227.1838	1.6
228.0868	2.8
228.1227	2.2
228.1338	0.9
228.1787	4.8

Name: His-C5:0
PrecursorMZ: 240.13428
RT: 6.0807
Spectrum_type: 2
charge: 1
SMILES: CCCCC(NC(CC1=NC=CN1)C(O)=O)=O
Method: HCD
Collision_energy: [28.333334]
Isolation_window: 4.0
Ion_mode: P
Num Peaks: 25
89.0600	15.0
95.0606	6.0
110.0714	99.5
114.0915	5.9
133.0860	6.0
156.0768	100.0
157.0801	6.8
175.1228	16.3
194.1287	18.6
221.1284	64.8
222.1137	9.9
222.1231	5.4
222.1321	8.7
224.0907	13.5
238.1071	6.0
239.1023	8.8
239.1138	23.5
239.1387	29.5
239.2119	5.8
240.0867	7.8
240.1228	21.0
240.1344	37.3
240.2321	6.2
242.1020	7.5
242.1145	6.2

Name: Histamine
PrecursorMZ: 112.08691
RT: 5.5269
ExactMass: 111.0796473
Spectrum_type: 2
charge: 1
Formula: C5H9N3
SMILES: C1=C(NC=N1)CCN
Method: HCD
Collision_energy: [28.333334]
Isolation_window: 4.0
Ion_mode: P
Num Peaks: 24
68.0498	5.3
69.9555	0.5
70.0443	0.5
70.0654	0.7
82.0528	0.6
83.0493	0.6
83.0606	2.4
95.0555	0.6
95.0604	100.0
95.0668	0.6
96.0573	0.5
96.0637	2.5
110.0793	1.1
111.0441	1.0
111.0552	3.0
111.0664	0.8
111.0916	1.3
112.0506	1.4
112.0869	5.5
112.8956	1.5
113.0709	42.6
113.1072	0.9
114.0742	0.8
114.0913	1.9

Name: Histidylproline
PrecursorMZ: 235.11888
RT: 5.8701
ExactMass: 252.12224039
Spectrum_type: 2
charge: 1
Formula: C11H16N4O3
SMILES: C1C[C@H](N(C1)C(=O)[C@H](CC2=CN=CN2)N)C(=O)O
Method: HCD
Collision_energy: [28.333334]
Isolation_window: 4.0
Ion_mode: P
Num Peaks: 102
69.0339	1.3
70.0655	9.9
74.0604	2.3
81.0338	3.5
81.0450	0.3
82.0528	1.5
83.0494	0.5
83.0607	0.5
84.0447	0.9
84.0811	0.5
85.0287	0.8
86.0967	1.7
87.0444	0.5
88.0759	0.8
95.0606	0.9
99.0443	2.0
101.0599	0.6
107.0605	0.8
108.0446	1.5
110.0715	18.6
111.0442	2.2
111.0748	0.8
115.0755	0.6
116.0709	0.5
120.0808	0.8
121.0397	0.7
123.0555	0.4
124.0758	0.7
126.0552	0.5
130.0500	1.8
131.0604	1.0
132.1020	0.7
134.0600	0.5
136.0618	5.8
138.0662	1.6
139.0753	0.9
140.0344	0.5
146.0601	0.7
148.0395	0.5
148.0757	0.5
150.0550	0.5
152.0568	1.2
156.0656	0.6
162.0549	0.3
162.0771	2.4
162.1026	4.4
166.0612	4.6
166.0863	0.6
172.0757	2.7
174.0550	1.1
174.0762	1.4
174.1126	0.6
176.0705	0.5
187.1440	0.5
188.0705	0.7
188.1281	1.5
189.1019	0.8
190.0864	2.2
190.0974	3.2
191.0454	0.7
191.0815	1.3
192.1130	0.7
200.0706	3.0
204.1018	0.4
207.1239	4.7
208.1274	0.4
216.0659	0.6
216.1232	0.9
217.0972	12.6
217.1080	2.0
218.0812	6.7
218.0921	0.7
218.1010	1.4
219.0762	2.0
219.0850	0.6
219.1126	0.5
233.1285	1.5
233.1481	0.5
234.0769	3.0
234.0878	1.2
234.0985	13.0
234.1125	5.7
234.1248	0.7
234.1347	16.9
234.1482	1.3
235.0714	2.5
235.1077	13.2
235.1188	100.0
235.1381	1.4
235.1441	1.5
236.0663	2.2
236.0777	8.0
236.0917	13.5
236.1028	2.6
236.1119	1.2
236.1223	9.7
236.1275	3.0
236.1644	1.0
237.0865	7.6
237.0965	0.4
237.1231	2.5
237.1595	6.5

Name: Histidyltryptophyldiketopiperazine
PrecursorMZ: 324.145
RT: 5.235966666666667
ExactMass: 323.1382248
Spectrum_type: 2
charge: 1
Formula: C17H17N5O2
SMILES: C1=CC=C2C(=C1)C(=CN2)CC3C(=O)NC(C(=O)N3)CC4=CN=CN4
Method: HCD
Collision_energy: [28.333334]
Isolation_window: 4.0
Ion_mode: P
Num Peaks: 70
70.0656	4.8
81.0338	6.1
101.0599	2.5
107.0493	2.8
110.0714	11.0
111.0443	7.1
114.0664	2.5
114.0915	3.8
121.0761	4.3
122.0714	4.6
130.0652	20.3
131.0684	2.3
150.0664	3.6
151.1231	4.8
152.0707	2.8
159.0918	8.1
162.0911	2.9
164.0708	3.1
166.0613	3.5
166.0973	2.4
167.0929	9.4
170.0600	4.3
176.0817	2.2
176.8751	2.2
178.0612	2.6
183.1495	3.8
184.0969	5.8
185.1001	2.5
193.0718	2.5
195.0877	38.8
195.1126	6.2
196.0907	2.8
198.1120	2.2
209.1283	3.4
211.1077	25.0
211.1441	8.5
215.1025	3.2
220.1193	17.1
224.1181	8.0
257.1280	2.6
265.2274	7.7
267.2431	8.8
275.1384	2.5
287.1390	3.5
288.1225	3.4
305.1492	21.0
306.1327	6.1
306.1515	4.2
307.1290	9.8
307.1788	5.2
308.1492	3.5
322.1490	5.1
322.1879	4.7
322.2494	2.6
323.1233	4.4
323.1589	45.6
323.1940	4.9
324.1055	2.2
324.1444	100.0
324.1589	5.3
324.2036	20.3
324.2638	3.1
325.1392	19.8
325.1750	17.3
325.1892	4.2
325.2092	2.6
326.1220	9.0
326.1398	5.5
326.1594	34.9
326.2802	3.4

Name: Homocitrulline; LC-tDDA; CE20
PrecursorMZ: 190.11849
RT: 9.280850000000001
Spectrum_type: 2
charge: 1
SMILES: N=C(O)NCCCC[C@H](N)C(=O)O
Method: HCD
Collision_energy: [28.333334]
Isolation_window: 4.0
Ion_mode: P
Num Peaks: 11
84.0810	58.5
127.0865	100.0
128.0704	15.6
130.0862	20.3
144.1018	17.7
165.0212	18.1
173.0918	89.5
190.1070	29.5
190.1434	16.2
192.1015	13.8
192.1226	13.2

Name: Homogentisic Acid
PrecursorMZ: 186.07595
RT: 2.539
ExactMass: 168.04225873
Spectrum_type: 2
charge: 1
Formula: C8H8O4
SMILES: C1=CC(=C(C=C1O)CC(=O)O)O
Method: HCD
Collision_energy: [28.333334]
Isolation_window: 4.0
Ion_mode: P
Num Peaks: 74
60.0448	8.3
68.0499	2.3
69.0338	2.4
70.0655	6.2
72.0446	1.3
80.0497	2.5
81.0338	3.6
82.0653	1.7
83.0493	1.5
84.0447	7.7
84.0811	1.8
94.0653	2.1
96.0445	16.9
97.0285	7.6
98.0601	18.3
99.0441	2.8
108.0445	5.1
109.0284	5.7
109.0761	1.6
114.0550	2.2
114.0662	2.2
116.0706	20.2
122.0600	8.5
124.0396	1.9
124.0756	1.4
126.0549	37.8
126.0912	9.0
127.0388	5.7
127.0582	2.2
128.0705	7.0
136.0756	1.5
138.0548	100.0
138.1024	7.5
138.9846	16.5
139.0581	7.2
139.0866	1.8
139.9880	1.3
140.0705	4.4
140.1070	1.3
141.0657	3.7
141.1021	4.5
142.0862	2.9
142.1225	1.6
144.0653	60.6
145.0687	3.9
146.0599	5.3
150.0549	3.2
156.9953	2.2
166.0973	1.7
167.0604	1.4
167.0813	1.2
168.0654	16.4
169.0688	1.6
169.0969	4.9
170.0597	1.5
170.0811	2.0
184.0967	5.1
184.1078	33.9
184.9896	1.4
185.0920	2.6
185.1115	6.0
185.1277	1.5
186.0758	29.7
186.0870	3.2
186.1122	5.9
186.1232	1.6
187.0714	4.0
187.0791	2.3
187.0864	11.8
187.1074	7.7
188.0702	2.1
188.0912	3.6
188.1028	1.4
188.1278	6.1

Name: Homostachydrine
PrecursorMZ: 158.11757
RT: 7.4882
ExactMass: 157.110278721
Spectrum_type: 2
charge: 1
Formula: C8H15NO2
SMILES: C[N+]1(CCCC[C@H]1C(=O)[O-])C
Method: HCD
Collision_energy: [28.333334]
Isolation_window: 4.0
Ion_mode: P
Num Peaks: 7
111.0554	6.5
157.0606	21.2
157.1697	11.5
158.1174	100.0
158.1537	3.6
159.1207	8.9
160.0968	2.7

Name: Homovanillyl alcohol
PrecursorMZ: 151.07544
RT: 1.1145
ExactMass: 168.078644241
Spectrum_type: 2
charge: 1
Formula: C9H12O3
SMILES: COC1=C(C=CC(=C1)CCO)O
Method: HCD
Collision_energy: [28.333334]
Isolation_window: 4.0
Ion_mode: P
Num Peaks: 20
67.0548	3.1
79.0546	4.4
81.0702	3.3
89.0600	12.3
91.0545	3.7
93.0702	3.2
95.0858	9.2
105.0701	18.1
120.0446	12.2
122.0601	3.1
123.0806	100.0
124.0759	7.6
124.0838	7.9
138.0553	3.0
150.0915	6.8
150.1279	21.3
151.0756	10.4
151.0866	3.0
152.0708	7.4
152.1071	3.8

Name: Homovanillyl alcohol 4-O-glucoside
PrecursorMZ: 353.12034
RT: 7.08776
ExactMass: 330.13146766
Spectrum_type: 2
charge: 1
Formula: C15H22O8
SMILES: COC1=C(C=CC(=C1)CCO)O[C@H]2[C@@H]([C@H]([C@@H]([C@H](O2)CO)O)O)O
Method: HCD
Collision_energy: [28.333334]
Isolation_window: 4.0
Ion_mode: P
Num Peaks: 21
85.0284	3.5
100.0758	5.4
141.0545	4.4
152.0706	4.5
164.0699	3.8
168.0653	6.8
170.0809	17.4
171.0843	4.0
182.0808	22.9
183.0837	3.4
211.1072	5.3
275.1007	3.8
276.0851	3.4
335.1228	6.7
352.1363	4.2
352.1562	4.4
353.1187	100.0
353.1661	7.7
354.1207	13.2
355.1156	5.6
355.1455	4.6

Name: Hordenine
PrecursorMZ: 166.1225
RT: 10.5798
ExactMass: 165.115364102
Spectrum_type: 2
charge: 1
Formula: C10H15NO
SMILES: CN(C)CCC1=CC=C(C=C1)O
Method: HCD
Collision_energy: [28.333334]
Isolation_window: 4.0
Ion_mode: P
Num Peaks: 30
70.0653	2.1
72.0810	2.9
74.0603	3.0
96.9952	8.3
104.0705	7.0
118.0861	1.8
121.0884	3.3
122.0598	2.6
123.0108	6.8
130.0859	3.1
137.1068	2.5
148.0787	13.1
148.0965	8.3
148.1118	2.7
149.1070	5.7
164.1067	6.5
165.0211	2.2
165.1019	15.1
165.1099	5.8
166.0889	23.3
166.0969	4.6
166.1071	55.0
166.1223	100.0
167.0812	5.2
167.1105	3.3
167.1175	35.2
167.1256	10.4
168.0686	48.4
168.1015	2.9
168.1126	2.0

Name: Hsp70-IN-1
PrecursorMZ: 465.2073
RT: 12.8811
ExactMass: 464.19944533
Spectrum_type: 2
charge: 1
Formula: C24H28N6O2S
SMILES: CN1CCN(CC1)C2=NC=C(C(=N2)OCC3=CC=CC=C3)SC4=CC=CC(=C4)NC(=O)CN
Method: HCD
Collision_energy: [28.333334]
Isolation_window: 4.0
Ion_mode: P
Num Peaks: 32
51.6876	1.1
51.6903	5.8
51.8018	1.3
73.0288	0.9
80.0548	0.5
87.0443	1.0
89.0600	7.0
123.0918	3.2
133.0860	3.7
158.0810	1.3
177.1122	1.2
195.1124	0.6
199.1248	0.7
213.1232	26.0
214.1268	3.4
221.1385	0.8
285.1441	1.1
303.1547	10.3
304.1590	1.4
375.1761	9.6
376.1790	1.9
447.1979	1.1
450.2747	0.7
450.7764	0.6
458.7887	0.9
465.0721	0.5
465.2078	100.0
465.3409	0.5
466.2111	23.2
467.2141	4.8
468.2118	0.9
481.2022	0.8

Name: Humantenine
PrecursorMZ: 355.20121
RT: 5.8645
ExactMass: 354.1943427
Spectrum_type: 2
charge: 1
Formula: C21H26N2O3
SMILES: C/C=C/1\CN([C@H]2C[C@@]3([C@H]4C[C@@H]1[C@@H]2CO4)C5=CC=CC=C5N(C3=O)OC)C
Method: HCD
Collision_energy: [28.333334]
Isolation_window: 4.0
Ion_mode: P
Num Peaks: 50
58.0656	4.5
60.0812	14.0
70.0656	1.9
81.0338	1.5
84.0810	1.9
95.0605	2.3
96.0809	2.1
103.0544	5.6
105.0700	11.1
110.0601	2.0
114.0914	20.7
120.0808	13.7
130.0649	2.3
131.0491	5.3
146.0600	28.1
147.0629	1.8
150.0549	3.1
152.0705	3.3
164.0704	3.4
164.1070	1.9
166.0862	5.7
176.8752	5.4
192.0654	5.9
222.1273	3.8
225.0867	1.4
228.1593	1.8
250.1222	4.5
254.1169	2.3
268.1331	5.0
281.1279	2.0
283.7171	4.3
296.1277	2.8
308.1245	3.0
309.1954	1.4
310.1548	1.4
338.2438	1.9
354.1334	4.0
354.1497	3.2
354.1731	2.2
354.2389	3.7
355.1306	3.9
355.1653	7.3
355.2013	100.0
355.2376	1.9
356.1310	2.4
356.1495	8.5
356.2047	20.4
356.2538	4.2
357.1446	6.8
357.1803	11.6

Name: Humulinone
PrecursorMZ: 379.21122
RT: 0.5775666666666667
ExactMass: 378.20423867
Spectrum_type: 2
charge: 1
Formula: C21H30O6
SMILES: CC(C)CC(=O)C1=C(C(C(C1=O)(C(=O)CC=C(C)C)O)(CC=C(C)C)O)O
Method: HCD
Collision_energy: [28.333334]
Isolation_window: 4.0
Ion_mode: P
Num Peaks: 385
55.0547	3.4
57.0341	1.6
57.0704	58.0
58.0737	3.0
59.0497	4.1
60.0449	3.4
67.0547	11.8
68.9977	1.6
69.0340	5.5
69.0703	52.4
70.0737	3.0
71.0133	2.1
71.0496	18.2
71.0859	7.2
73.0653	1.8
79.0546	6.5
81.0338	3.2
81.0703	22.3
82.0737	1.7
83.0495	22.7
83.0859	8.2
84.0531	1.6
85.0651	47.5
85.1015	2.5
86.0606	1.8
86.0685	2.6
86.0969	2.4
87.0445	2.7
89.0423	1.8
89.0600	12.2
91.0539	2.6
93.0701	7.1
95.0494	13.8
95.0858	13.8
97.0651	30.2
97.1013	5.1
98.0685	1.9
99.0082	1.8
99.0442	2.4
99.0807	4.7
102.0553	4.2
104.0707	2.1
105.0700	5.2
107.0494	9.0
107.0857	8.4
109.0650	18.0
109.1014	8.9
111.0444	1.8
111.0807	4.8
111.1172	2.0
112.0760	3.4
113.0599	10.9
116.0709	1.8
117.0703	1.6
119.0491	4.7
119.0856	6.0
121.0650	7.4
121.1013	7.3
123.0442	3.5
123.0805	7.1
123.1169	4.4
125.0598	6.6
125.0962	2.2
126.0914	6.6
127.0755	11.1
131.0856	3.7
132.0657	2.2
132.1022	1.7
133.0648	9.6
133.0859	2.4
133.1012	5.0
135.0441	5.4
135.0807	5.3
135.1169	6.7
137.0598	7.8
137.0961	3.5
137.1327	2.4
139.0754	5.3
141.0547	18.7
143.0707	1.6
143.0856	2.3
145.0646	2.4
145.1012	4.2
147.0806	5.6
147.1169	8.0
149.0235	10.5
149.0598	8.0
149.0962	3.1
149.1327	4.7
151.0397	1.8
151.0756	7.2
151.1234	2.8
153.0548	4.0
155.0704	6.6
157.0498	3.8
157.1012	3.3
159.0808	3.8
159.1171	6.7
161.0596	6.7
161.0964	3.9
161.1327	6.6
163.0754	8.3
163.1119	3.7
163.1485	1.7
165.0184	4.8
165.0546	6.5
165.0910	8.6
165.1391	1.8
167.0340	3.7
167.0703	3.0
169.0863	2.7
170.0814	1.7
171.0655	5.5
171.0810	2.1
171.1167	3.4
173.0596	2.7
173.0958	3.4
173.1324	3.1
175.0755	7.2
175.1116	3.2
175.1480	2.9
177.0544	3.9
177.0910	4.3
177.1271	5.8
179.0703	8.9
179.1058	1.9
179.1430	2.3
181.0861	4.6
183.0653	16.7
185.0959	3.3
187.0755	3.2
187.1115	6.3
187.1485	1.6
189.0544	3.7
189.0909	5.0
189.1274	6.3
191.0702	11.9
191.1059	2.3
191.1432	2.7
193.0487	2.0
193.0859	10.0
195.0650	6.4
195.1018	1.7
195.1213	3.0
195.1384	5.9
197.0811	11.1
197.0968	2.1
199.0747	2.2
199.1120	5.5
201.0918	3.1
201.1270	3.1
201.1646	1.5
203.0704	14.3
203.1064	7.2
203.1432	1.6
204.0751	1.5
205.0495	1.7
205.0861	8.0
205.1223	10.9
207.0658	4.9
207.1011	8.6
207.1370	4.2
209.0806	8.1
209.1524	2.1
211.0593	2.8
211.1135	2.2
213.0928	3.2
213.1276	4.1
213.1489	4.4
215.0716	2.3
215.1067	4.9
217.0499	1.8
217.0866	6.5
217.1221	12.5
218.1256	1.7
219.0655	6.3
219.1018	5.7
219.1375	3.9
221.0810	16.9
221.1157	5.8
221.1659	3.3
222.0850	2.2
223.0612	2.3
223.0959	3.7
223.1324	10.9
225.0746	3.5
227.1075	5.7
229.0877	3.2
229.1220	8.2
230.1262	1.8
231.0658	2.2
231.1017	10.1
231.1377	8.7
232.1412	1.6
233.0815	4.2
233.1171	9.7
234.1210	1.9
235.0607	2.6
235.0969	4.0
235.1326	14.7
236.2373	1.5
237.0388	1.6
237.0762	5.2
237.1124	2.0
237.1470	2.5
238.1059	5.1
239.0370	1.5
239.0898	7.2
239.1272	12.2
240.1118	1.7
241.1224	9.3
242.1260	1.7
243.1015	4.0
243.1385	3.5
245.0809	2.2
245.1171	20.6
246.1210	1.8
247.0965	4.8
247.1331	18.2
248.1370	3.1
249.0755	1.7
249.1118	6.2
249.1487	4.1
251.0910	1.7
251.1274	4.0
253.1434	9.3
255.1018	6.3
255.1383	5.7
257.1171	10.9
258.1210	3.0
259.0982	2.4
259.1328	32.2
260.1361	5.8
261.1125	10.4
261.1484	5.2
263.1278	12.3
263.1640	1.6
264.1300	1.5
265.1046	4.4
265.1433	8.1
267.1198	3.5
269.1159	3.1
271.0975	1.6
271.1331	7.7
272.1361	2.5
273.1128	9.8
273.1487	22.6
274.1155	2.4
274.1508	4.6
275.0942	1.8
275.1276	39.2
276.1318	7.7
277.1433	42.0
278.1469	8.4
279.1233	6.3
279.1589	2.3
281.1366	7.0
283.1218	2.6
283.1369	2.6
285.1131	1.6
285.1487	3.0
287.1272	8.9
288.1304	2.4
289.1077	2.7
289.1436	13.7
290.1459	4.0
290.1760	1.6
291.1243	5.4
291.1587	100.0
292.1618	19.3
293.1021	1.6
293.1384	8.1
293.1652	2.7
294.1408	1.6
294.1707	2.1
295.1516	5.9
297.1479	3.9
297.1847	2.8
299.1644	2.9
301.1433	3.6
301.1800	2.6
303.1228	4.4
303.1594	4.7
303.1952	2.1
305.1375	7.0
305.2941	4.4
306.1718	1.5
307.1555	4.6
311.1518	3.2
313.1801	8.7
314.1825	2.4
315.1590	3.5
315.1956	8.6
316.1976	2.9
317.1379	1.5
317.1747	5.0
317.2941	2.1
319.1904	2.6
319.3108	2.9
321.2892	1.5
325.1797	10.2
326.1829	2.5
329.1753	3.6
331.1901	35.3
331.3104	4.4
332.1935	8.5
333.1689	2.4
333.2051	2.6
333.3260	3.5
335.1847	1.7
335.3036	2.9
341.1766	2.5
342.1770	1.6
343.1534	3.4
343.1901	28.0
344.1917	5.8
345.1677	3.0
345.2062	3.6
347.1852	4.9
347.3046	4.8
349.2007	8.7
349.3218	1.9
350.2047	1.6
351.1799	3.0
357.1695	2.2
359.1850	8.5
359.3059	2.3
360.1836	5.0
361.1632	5.5
361.2010	90.2
361.3209	16.1
362.2032	20.5
362.3238	4.7
363.1727	3.1
363.2183	4.2
363.3394	8.4
364.3434	2.2
365.1967	5.5
365.3160	4.9
367.2116	12.9
368.2176	3.7
373.3208	2.7
375.1790	3.6
375.3375	4.1
376.3379	1.6
377.1963	7.7
377.3130	9.2
377.3541	2.1
378.1887	4.9
378.2320	2.2
378.3163	2.5
379.1737	7.3
379.2122	92.7
379.3314	44.1
380.2141	20.7
380.3348	12.2
381.1753	2.3
381.2240	3.2
381.3133	3.0
381.3493	26.9
382.3527	6.2
383.3260	26.7
383.3650	2.6
384.3298	5.8
388.3389	1.6
389.1977	1.8
389.3160	1.7
390.1883	1.6
391.1750	1.6
391.2170	1.6
391.3309	8.3
392.2080	2.8
392.3314	2.4
393.1902	7.6
393.3484	17.7
394.1944	1.9
394.3521	5.1
395.2083	8.3
395.3167	5.8
395.3715	7.9
396.2092	2.0
396.3672	1.9
397.1847	20.5
397.3426	4.9
397.3849	1.5

Name: Huperzine A
PrecursorMZ: 243.14886
RT: 1.767
ExactMass: 242.141913202
Spectrum_type: 2
charge: 1
Formula: C15H18N2O
SMILES: C/C=C/1\[C@@H]2CC3=C([C@]1(CC(=C2)C)N)C=CC(=O)N3
Method: HCD
Collision_energy: [28.333334]
Isolation_window: 4.0
Ion_mode: P
Num Peaks: 254
58.0658	7.0
67.0547	8.2
68.0499	8.1
69.0340	12.1
70.0656	36.9
71.0496	15.6
72.0813	16.4
74.0605	6.5
79.0546	7.4
81.0340	45.0
81.0703	8.7
82.0654	8.3
83.0496	24.0
84.0448	45.3
84.0812	21.9
85.0289	8.4
85.0652	12.7
86.0604	29.1
86.0968	54.6
87.0444	22.6
88.0398	9.2
88.0762	20.0
90.0553	8.1
91.0545	7.0
93.0703	8.9
95.0494	10.1
95.0858	7.7
96.0448	11.8
97.0287	32.8
98.0604	21.2
98.0969	7.8
99.0443	15.5
100.0760	43.9
101.0601	44.2
102.0553	14.3
102.0917	6.0
105.0703	10.1
107.0494	11.0
108.0450	7.0
109.0652	6.9
110.0603	14.1
110.0714	7.5
111.0444	33.7
111.0557	10.7
112.0760	20.2
113.0598	7.5
113.0714	6.3
114.0553	18.1
114.0665	37.8
115.0393	8.5
116.0709	40.6
118.0867	12.3
119.0855	11.2
121.0651	100.0
121.1017	7.1
122.0604	9.3
122.0689	7.0
123.0446	6.5
123.0919	22.7
124.0395	12.7
124.0759	7.7
125.0237	7.2
125.0600	10.2
125.0711	7.6
126.0553	21.0
126.0915	8.6
127.0392	8.9
128.0710	22.6
129.0549	6.3
130.0501	63.2
130.0866	18.3
131.0857	5.8
132.0658	25.8
132.1020	10.4
133.1011	7.1
134.0605	6.1
136.0759	19.7
137.0599	8.6
137.0710	7.1
138.0551	9.0
138.0913	6.8
140.0709	17.7
141.0663	8.7
142.0503	13.5
142.0867	13.7
144.0659	16.3
144.0813	14.7
144.1021	20.6
146.0275	7.1
146.0604	5.9
147.0781	9.7
148.0611	7.8
148.0753	7.7
150.0551	6.6
150.0911	10.7
151.0756	6.1
152.0708	18.8
153.0548	6.6
153.0662	11.0
154.0498	6.5
154.0866	10.5
155.0816	10.4
156.0659	11.9
156.0810	43.6
156.1005	9.8
157.0611	17.3
158.1179	6.4
160.0756	10.7
161.0964	11.5
162.0918	11.1
163.0753	7.3
163.1118	8.4
164.0702	9.4
164.1073	6.3
165.0547	8.0
165.0673	6.3
165.0908	13.3
166.0856	16.2
167.0821	11.3
168.0655	13.9
168.0774	34.2
168.1135	8.4
169.0983	9.9
170.0589	8.3
170.0809	8.3
171.1162	5.9
172.0605	6.1
173.0940	7.9
174.0918	13.1
176.0701	6.7
178.0861	15.9
179.0824	7.3
179.1065	16.4
180.0291	6.6
180.0650	15.6
180.1007	9.9
181.0975	11.1
182.0812	32.4
182.1166	8.7
183.0753	10.7
184.0731	16.3
184.0959	13.5
186.0763	11.3
187.1103	5.9
188.0702	11.7
189.0894	7.3
190.0996	13.8
191.1062	9.4
192.1016	16.5
194.0792	9.5
195.0774	14.7
195.1147	7.4
196.0583	9.0
196.0948	19.6
197.0931	15.1
197.1302	10.3
198.0886	6.4
198.1135	16.1
199.1082	11.5
200.0913	6.8
200.1287	9.6
201.1246	6.6
202.0869	8.0
202.1077	8.9
203.0831	7.8
206.0802	13.6
207.1015	5.8
208.0613	7.5
208.0946	21.7
209.0956	7.9
209.1181	8.2
210.0745	10.3
210.1142	8.2
211.1070	8.2
212.0929	8.4
212.1293	5.9
214.0829	16.1
214.1078	8.7
215.1390	7.7
216.1231	24.6
217.0975	7.7
217.1239	9.6
221.0929	7.8
222.0748	11.8
223.1084	7.3
224.0898	17.6
225.0896	15.9
226.0705	13.6
226.1101	11.1
227.1042	19.1
228.0979	12.4
228.1240	13.2
229.1118	6.9
230.0814	13.7
230.1032	10.7
230.1361	9.0
232.0601	7.4
232.1187	6.3
234.0754	8.3
235.1085	13.0
236.0916	11.7
236.1053	11.4
237.0877	25.8
238.1091	6.5
239.1028	17.4
240.0958	12.0
241.0830	6.3
241.1187	28.7
241.1551	8.4
242.1045	42.6
242.1167	23.2
243.0966	17.7
243.1339	20.6
243.1493	16.1
244.0793	8.4
244.1161	33.2
244.1320	78.1
245.1126	39.2
245.1651	10.2
246.0730	9.9
246.0951	7.5
246.1110	6.3
246.1348	29.8
246.1513	11.6
247.1074	8.9
248.0916	8.5
248.1112	14.6
248.1491	26.7
249.0881	6.2
250.0694	8.7
250.1107	7.7
251.0741	7.1
251.1032	32.6
252.0855	24.9
252.1235	20.6
252.1599	38.3
253.1180	34.6
253.1578	6.8
254.1072	48.9
255.0983	95.0
255.1347	60.8
256.1316	87.8
257.1175	45.4
257.1494	14.1
258.1085	65.0
258.1466	25.3
259.0719	7.3
259.1285	55.4
260.0656	5.8
260.1243	24.2
260.1519	7.0
261.1435	12.6
262.1270	44.3
263.1034	12.8

Name: Hydrocotarnine
PrecursorMZ: 222.11223
RT: 8.9336
ExactMass: 221.10519334
Spectrum_type: 2
charge: 1
Formula: C12H15NO3
SMILES: CN1CCC2=CC3=C(C(=C2C1)OC)OCO3
Method: HCD
Collision_energy: [28.333334]
Isolation_window: 4.0
Ion_mode: P
Num Peaks: 18
55.0546	12.8
58.0655	10.4
60.0810	5.4
83.0493	6.8
93.0700	17.1
101.0597	37.2
121.0647	12.5
121.0885	16.2
123.0915	32.0
124.0756	10.2
165.0543	28.4
221.1277	19.9
222.1120	100.0
222.1480	9.7
223.1155	12.1
223.1435	70.6
224.0916	7.7
224.1276	91.3

Name: Hydroheptelidic acid
PrecursorMZ: 321.13057
RT: 2.5306
ExactMass: 298.14163842
Spectrum_type: 2
charge: 1
Formula: C15H22O6
SMILES: CC(C)[C@H]1CC[C@]2(COC(=O)[C@H]2[C@@H]1/C=C(\CO)/C(=O)O)O
Method: HCD
Collision_energy: [28.333334]
Isolation_window: 4.0
Ion_mode: P
Num Peaks: 11
112.8957	2.0
114.0549	3.2
120.0477	1.8
180.1016	1.6
191.0845	10.4
303.1364	2.9
320.2943	2.0
321.1303	100.0
322.1337	13.6
323.1276	1.9
323.1713	2.1

Name: Hydroquinone
PrecursorMZ: 111.0442
RT: 6.1014
ExactMass: 110.03677943
Spectrum_type: 2
charge: 1
Formula: C6H6O2
SMILES: C1=CC(=CC=C1O)O
Method: HCD
Collision_energy: [28.333334]
Isolation_window: 4.0
Ion_mode: P
Num Peaks: 30
53.0390	9.7
55.0182	4.5
55.0546	10.0
65.0389	3.5
66.0342	6.0
68.0260	7.3
69.0338	3.2
69.9507	3.0
70.0654	3.5
70.0907	3.0
81.0337	24.4
82.0528	9.7
83.0494	15.0
83.0606	4.2
95.0242	6.4
96.0207	3.3
109.0284	13.6
110.0601	13.7
111.0441	100.0
111.0552	14.7
111.0804	2.3
111.0917	6.4
112.0396	3.5
112.0473	5.2
112.0506	63.9
112.0756	5.0
112.1120	3.2
112.9998	4.6
113.0347	3.5
113.0597	4.6

Name: Hydroxyisoleucine
PrecursorMZ: 148.09679
RT: 3.8689
ExactMass: 147.08954328
Spectrum_type: 2
charge: 1
Formula: C6H13NO3
SMILES: C[C@@H]([C@H](C)O)[C@@H](C(=O)O)N
Method: HCD
Collision_energy: [28.333334]
Isolation_window: 4.0
Ion_mode: P
Num Peaks: 44
56.0500	4.8
58.0655	3.3
60.0813	16.8
62.0605	4.7
74.0241	36.7
74.0605	1.7
75.0268	9.1
80.0500	2.7
84.0447	1.8
84.0813	2.1
85.0286	2.1
87.0444	22.7
98.0604	3.6
98.0714	1.8
100.0760	6.3
101.0600	7.2
102.0553	14.5
102.0916	3.3
103.0392	14.4
104.0709	2.0
109.0763	3.3
112.0760	12.0
113.0712	4.6
114.0916	1.8
116.0708	1.5
118.0865	5.2
126.0922	1.8
126.1028	1.5
130.0863	2.7
146.1178	4.3
148.0970	10.7
149.0268	8.0
152.0706	3.4
158.0927	8.0
159.0766	13.6
159.1130	14.0
160.0970	7.3
160.1335	2.3
162.1127	88.1
163.1160	4.5
164.0918	3.5
166.0530	4.8
166.1228	100.0
167.1278	9.1

Name: Hydroxylupanine
PrecursorMZ: 265.19084
RT: 6.8417
ExactMass: 264.183778013
Spectrum_type: 2
charge: 1
Formula: C15H24N2O2
SMILES: C1C[C@@H]2[C@H]3C[C@@H](CN2C(=O)C1)[C@@H]4C[C@H](CCN4C3)O
Method: HCD
Collision_energy: [28.333334]
Isolation_window: 4.0
Ion_mode: P
Num Peaks: 52
55.0547	11.4
59.0497	2.5
70.0656	7.4
72.0811	2.2
74.0605	3.6
81.0338	2.3
83.0495	7.6
84.0811	3.7
86.0968	4.6
87.0444	5.1
101.0599	38.0
102.0552	13.8
110.0714	2.9
111.0555	2.4
114.0915	5.1
123.0916	2.4
128.0707	12.4
134.0813	2.7
139.0867	2.7
142.1226	3.2
146.0602	2.4
148.1123	3.2
157.0608	4.9
165.1387	42.6
166.1419	4.0
180.1019	7.2
193.0973	2.2
219.0588	2.6
221.0921	4.4
247.1075	7.2
264.0858	3.1
264.0982	5.1
264.1083	3.6
264.1228	24.0
264.1345	9.2
264.1448	2.6
264.1592	9.4
265.0638	5.0
265.1180	31.9
265.1304	14.5
265.1540	26.4
265.1909	100.0
266.0840	2.7
266.1019	8.9
266.1139	4.5
266.1380	40.8
266.1504	10.2
266.1748	12.7
266.1941	12.8
267.1125	2.6
267.1323	14.2
267.1694	13.4

Name: Hydroxypalmitoyl Sphinganine
PrecursorMZ: 556.52956
RT: 1.1744777777777777
ExactMass: 555.52265968
Spectrum_type: 2
charge: 1
Formula: C34H69NO4
SMILES: CCCCCCCCCCCCCCC[C@H]([C@H](CO)NC(=O)C(CCCCCCCCCCCCCC)O)O
Method: HCD
Collision_energy: [28.333334]
Isolation_window: 4.0
Ion_mode: P
Num Peaks: 107
55.0546	5.4
56.0498	2.1
57.0338	1.9
57.0703	18.6
59.8358	5.0
59.9472	1.6
60.0448	43.5
61.8369	4.0
67.0546	16.9
69.0702	16.9
69.2494	2.8
70.0654	10.4
70.4665	1.3
71.0494	1.7
71.0858	17.2
76.0396	7.0
79.0544	1.7
81.0338	3.7
81.0701	28.7
82.0734	2.0
83.0858	21.2
84.0446	2.2
84.0810	2.7
85.1014	10.2
93.0700	2.5
95.0857	31.4
96.0890	3.7
97.0649	1.8
97.1013	19.2
97.4557	1.9
98.1046	1.6
98.9843	16.1
100.0757	1.8
107.0856	2.2
109.0285	4.2
109.1012	17.4
110.1046	1.7
111.0805	1.8
111.1169	7.0
114.0913	1.8
121.1011	5.2
123.1168	8.3
125.0960	1.5
125.1324	1.9
135.1167	4.7
137.1323	4.3
145.0858	3.1
149.1323	3.5
151.1480	1.3
155.0102	62.8
156.0136	2.3
163.1480	1.9
219.2102	2.9
237.2207	3.8
239.2368	4.0
240.2682	2.8
252.2681	7.5
253.2715	1.7
254.2474	8.3
254.2837	7.2
255.2505	1.3
256.2629	2.1
264.2682	3.1
265.2714	1.3
266.2837	35.1
267.2872	5.8
268.2635	1.9
270.2786	13.3
271.2818	2.1
272.2578	4.3
280.2992	2.1
281.3033	1.3
282.2788	2.1
284.2942	49.5
285.2977	8.9
298.3099	2.7
299.2576	1.8
302.3050	4.6
308.2944	2.3
310.2734	1.5
312.2529	3.3
312.2893	1.3
313.2564	3.2
313.2730	51.7
314.2764	13.0
317.0628	5.3
326.3046	6.2
393.2392	5.9
401.2895	2.6
502.4979	3.3
520.5080	17.6
521.5113	7.8
536.5394	4.2
537.2819	6.1
537.5061	2.7
537.5422	4.6
538.5184	100.0
539.5218	32.3
540.5255	5.4
554.5457	2.7
555.2903	1.8
555.5160	1.3
555.5518	2.8
556.5290	80.3
557.4576	1.8
557.5323	28.1
558.5361	4.5

Name: Hydroxypestalotin
PrecursorMZ: 231.12017
RT: 1.5149
ExactMass: 230.11542367
Spectrum_type: 2
charge: 1
Formula: C11H18O5
SMILES: CCC[C@@H]([C@H]([C@H]1CC(=CC(=O)O1)OC)O)O
Method: HCD
Collision_energy: [28.333334]
Isolation_window: 4.0
Ion_mode: P
Num Peaks: 15
70.0655	1.5
72.0812	3.4
84.0810	1.7
88.0760	3.3
106.0864	5.9
154.0863	2.1
171.1380	2.3
198.1126	1.3
229.1411	5.4
230.1380	5.3
230.1449	1.6
231.1001	3.3
231.1203	100.0
232.1237	9.2
233.1288	1.8

Name: Hyocholic Acid
PrecursorMZ: 431.27642
RT: 1.8509
ExactMass: 408.28757437
Spectrum_type: 2
charge: 1
Formula: C24H40O5
SMILES: C[C@H](CCC(=O)O)[C@H]1CC[C@@H]2[C@@]1(CC[C@H]3[C@H]2[C@@H]([C@@H]([C@H]4[C@@]3(CC[C@H](C4)O)C)O)O)C
Method: HCD
Collision_energy: [28.333334]
Isolation_window: 4.0
Ion_mode: P
Num Peaks: 3
429.3180	10.2
431.2766	100.0
432.2802	26.3

Name: Hypaphorine
PrecursorMZ: 247.14392
RT: 6.294875
ExactMass: 246.136827821
Spectrum_type: 2
charge: 1
Formula: C14H18N2O2
SMILES: C[N+](C)(C)[C@@H](CC1=CNC2=CC=CC=C21)C(=O)[O-]
Method: HCD
Collision_energy: [28.333334]
Isolation_window: 4.0
Ion_mode: P
Num Peaks: 39
60.0812	57.0
72.0811	6.2
81.0338	6.2
114.0915	2.9
130.0499	4.3
144.0807	5.7
146.0601	30.5
147.0635	2.6
147.0764	8.6
156.0808	3.9
160.0758	3.1
188.0705	100.0
189.0738	11.1
203.1177	4.3
230.0813	3.3
245.0949	11.7
245.1282	10.0
246.0767	4.2
246.0978	14.5
246.1121	58.5
246.1234	3.5
246.1329	5.3
246.1475	6.1
247.0717	2.8
247.0913	6.6
247.1072	27.3
247.1438	38.4
248.0374	8.3
248.0582	2.3
248.0732	2.6
248.0917	23.3
248.1119	4.4
248.1276	23.4
248.1392	10.2
248.1484	2.8
249.0859	4.1
249.0973	2.7
249.1229	25.1
249.1581	13.6

Name: Ifenprodil
PrecursorMZ: 326.21071
RT: 6.2715
ExactMass: 325.204179104
Spectrum_type: 2
charge: 1
Formula: C21H27NO2
SMILES: CC(C(C1=CC=C(C=C1)O)O)N2CCC(CC2)CC3=CC=CC=C3
Method: HCD
Collision_energy: [28.333334]
Isolation_window: 4.0
Ion_mode: P
Num Peaks: 14
70.0654	5.9
105.0698	98.4
106.0731	7.7
324.1947	8.4
325.1364	5.5
325.1541	6.6
325.1745	8.5
325.1928	5.4
326.1372	4.1
326.2104	100.0
327.1331	4.2
327.1679	5.9
327.1715	8.2
327.2141	22.5

Name: Ile-Asn
PrecursorMZ: 246.14465
RT: 6.0487
ExactMass: 245.1375561
Spectrum_type: 2
charge: 1
Formula: C10H19N3O4
SMILES: CCC(C)C(C(=O)NC(CC(=O)N)C(=O)O)N
Method: HCD
Collision_energy: [28.333334]
Isolation_window: 4.0
Ion_mode: P
Num Peaks: 45
69.0703	2.2
72.0812	5.0
81.0339	0.9
84.0811	0.8
86.0604	1.9
86.0913	0.7
86.0968	100.0
87.0556	4.4
87.1001	4.5
88.0396	0.7
98.0603	0.8
113.0346	0.9
114.0915	1.0
116.0344	0.8
128.0707	1.8
130.0499	2.8
132.0655	1.2
133.0608	46.2
134.0641	1.8
147.0764	7.0
152.0708	0.9
181.0972	1.0
183.1129	0.7
184.1081	0.7
227.1019	1.2
228.0865	1.0
228.1229	0.9
229.1182	9.0
230.1222	1.0
230.1386	4.0
244.1181	0.8
245.1126	3.4
245.1495	1.1
246.0975	1.9
246.1123	1.6
246.1334	3.5
246.1449	8.8
246.2063	0.7
247.0920	0.9
247.1075	2.4
247.1480	0.9
248.0919	2.2
248.1149	1.3
248.1263	1.3
248.1492	1.7

Name: Ile-Glu
PrecursorMZ: 261.14376
RT: 7.0255
ExactMass: 260.13722174
Spectrum_type: 2
charge: 1
Formula: C11H20N2O5
SMILES: CCC(C)C(C(=O)NC(CCC(=O)O)C(=O)O)N
Method: HCD
Collision_energy: [28.333334]
Isolation_window: 4.0
Ion_mode: P
Num Peaks: 27
70.0653	12.2
81.0336	33.9
84.0445	26.9
86.0965	100.0
87.0998	7.0
100.0755	7.5
130.0496	13.3
130.0859	7.4
132.1016	71.5
144.1015	27.0
158.0596	8.4
198.1117	14.6
216.1219	9.1
244.0631	17.5
244.1174	17.0
259.1645	21.8
260.0906	24.2
260.1125	7.1
260.1272	10.4
261.0981	8.4
261.1223	9.2
261.1438	21.9
262.0731	19.7
262.1065	33.0
262.1279	8.9
263.1003	16.2
263.1379	12.7

Name: Ile-Glu-Lys
PrecursorMZ: 195.12292
RT: 6.6536
ExactMass: 388.23218475
Spectrum_type: 2
charge: 1
Formula: C17H32N4O6
SMILES: CC[C@H](C)[C@@H](C(=O)N[C@@H](CCC(=O)O)C(=O)N[C@@H](CCCCN)C(=O)O)N
Method: HCD
Collision_energy: [28.333334]
Isolation_window: 4.0
Ion_mode: P
Num Peaks: 86
58.0656	2.0
60.0812	0.9
62.0605	0.8
70.0656	6.4
72.0449	0.8
72.0812	7.0
84.0812	4.3
85.0652	1.4
86.0605	0.7
86.0966	0.7
87.0445	1.1
89.0601	1.4
96.0448	1.4
97.0763	3.1
100.0760	0.8
101.0600	3.7
102.0917	4.9
112.0761	0.9
112.0873	1.4
114.0663	1.1
114.1028	100.0
114.1194	0.7
115.0995	0.7
115.1063	5.0
116.0709	1.9
126.0551	1.0
126.0914	1.2
130.0497	0.8
130.0864	2.3
130.0974	0.7
135.0443	2.7
136.0428	0.7
138.0550	0.7
141.1024	1.1
142.0863	3.6
144.1021	11.3
147.1126	0.8
152.0709	1.4
154.0978	0.7
157.0974	0.8
170.5897	0.7
181.1088	4.5
183.0880	0.9
187.1070	0.8
188.0923	1.9
193.0965	1.5
193.6106	0.7
194.0814	4.8
194.1176	16.3
194.1656	0.9
195.0806	0.7
195.1243	2.3
196.0957	0.9
196.1334	15.1
197.0558	0.8
197.0919	0.7
197.1358	2.0
198.0771	0.8
199.1195	15.8
200.0733	0.7
200.1247	1.3
201.1024	15.4
202.1044	1.6
202.1213	2.5
202.1801	8.7
203.1180	0.7
203.1750	6.4
204.1002	5.4
205.1338	1.3
206.1200	0.9
207.1118	1.4
208.0606	0.8
208.0977	1.4
208.1331	2.1
209.1295	1.6
210.0790	4.4
210.1112	1.7
211.1421	1.1
212.1407	2.8
212.1747	0.8
213.1600	0.7
215.1188	2.9
215.6051	0.8
216.0840	0.9
216.1189	0.8
318.2024	3.2

Name: Ile-Gly-Ile
PrecursorMZ: 302.2071
RT: 4.7744
ExactMass: 301.20015635
Spectrum_type: 2
charge: 1
Formula: C14H27N3O4
SMILES: CC[C@H](C)[C@@H](C(=O)NCC(=O)N[C@@H]([C@@H](C)CC)C(=O)O)N
Method: HCD
Collision_energy: [28.333334]
Isolation_window: 4.0
Ion_mode: P
Num Peaks: 155
60.0448	25.7
67.0546	2.9
69.0703	3.5
70.0655	3.8
71.0495	1.4
72.0812	35.3
73.0845	1.5
81.0338	2.7
81.0702	5.6
83.0495	1.0
83.0607	1.4
83.0858	2.6
84.0811	4.1
86.0967	100.0
87.1000	4.8
91.0545	1.7
93.0702	1.4
95.0494	1.0
95.0857	5.7
97.1014	2.0
105.0700	1.4
107.0857	1.6
108.0810	1.4
109.1013	3.3
112.0870	1.8
116.0707	4.2
119.0857	1.5
121.1012	1.7
123.1167	1.5
124.0758	4.8
126.0914	3.1
128.1433	3.2
130.0651	1.7
130.0863	4.0
132.0808	1.5
132.1019	6.6
134.0600	1.9
135.0678	6.3
136.0757	16.3
138.0913	6.2
140.0706	1.3
142.0863	1.7
143.1178	5.4
144.0807	3.8
144.1018	1.3
145.0840	3.3
148.0757	73.9
149.0788	5.8
149.0841	2.5
150.0915	6.0
154.0498	2.9
154.1226	2.2
156.1022	1.0
157.0609	1.4
158.1176	2.4
159.0917	5.8
159.1169	1.1
164.0706	1.6
171.1126	9.6
173.0709	1.1
178.0860	2.4
180.1019	1.7
184.1077	3.2
185.1115	2.5
185.1647	37.3
186.1681	4.1
189.1232	10.9
199.1804	26.0
200.1839	3.0
201.1023	1.3
203.1388	5.5
203.1542	1.4
211.0864	8.9
212.0901	1.3
212.1072	1.9
213.1020	1.6
213.1596	26.2
214.1225	1.7
214.1632	3.0
215.1175	1.2
226.0735	3.0
227.0814	2.5
227.1177	4.3
227.1752	16.1
228.0888	1.5
228.1787	2.3
229.0970	2.9
229.1334	6.7
230.1367	1.1
231.1490	11.1
232.1526	1.9
233.1493	1.6
237.1019	1.3
240.0890	2.9
240.1018	2.2
241.0969	11.9
242.1015	1.7
243.1126	8.9
243.1702	4.7
244.1160	1.2
247.0869	1.5
254.2840	4.6
255.1126	31.4
256.1164	5.2
257.1282	53.1
258.1122	2.2
258.1320	6.6
259.1438	8.0
265.0966	1.7
266.2839	3.1
273.1232	1.2
273.1595	27.4
274.1631	4.6
275.1752	1.4
283.1074	12.3
284.0919	1.0
284.1116	2.5
284.1488	1.3
284.2945	23.5
285.1231	30.1
285.2978	3.9
286.0707	2.1
286.1067	2.6
286.1265	3.9
286.1762	1.1
287.1388	4.2
301.1180	30.5
301.1375	1.3
301.1541	15.4
301.1753	2.6
301.1911	1.6
301.2154	4.0
302.1019	4.6
302.1214	6.5
302.1381	3.1
302.1474	2.4
302.1497	3.0
302.1567	1.9
302.1781	1.2
302.2071	4.4
302.3050	19.9
303.0976	1.0
303.1334	25.7
303.1698	4.4
303.1911	13.0
303.1945	1.0
303.2308	2.7
303.3084	3.8
304.0809	1.5
304.1173	6.7
304.1365	2.9
304.1538	1.6
304.1667	3.1
304.1913	1.7
304.2994	3.7

Name: Ile-Ile-Lys
PrecursorMZ: 187.14417
RT: 14.4135
ExactMass: 372.27365564
Spectrum_type: 2
charge: 1
Formula: C18H36N4O4
SMILES: CC[C@H](C)[C@@H](C(=O)N[C@@H]([C@@H](C)CC)C(=O)N[C@@H](CCCCN)C(=O)O)N
Method: HCD
Collision_energy: [28.333334]
Isolation_window: 4.0
Ion_mode: P
Num Peaks: 22
58.0656	10.0
72.0812	16.2
84.0812	43.3
86.0968	13.0
126.0550	5.4
127.1231	39.6
128.1072	26.2
130.0864	13.5
142.0864	8.8
170.1177	43.2
171.1492	6.8
186.1028	6.5
186.1124	13.1
187.1079	18.8
187.1442	100.0
187.1806	85.2
188.1034	13.5
188.1282	36.8
188.1471	9.1
188.1839	7.3
189.1235	18.0
189.1599	6.4

Name: Ile-Leu-Lys
PrecursorMZ: 187.14402
RT: 4.5767
ExactMass: 372.27365564
Spectrum_type: 2
charge: 1
Formula: C18H36N4O4
SMILES: CC[C@H](C)[C@@H](C(=O)N[C@@H](CC(C)C)C(=O)N[C@@H](CCCCN)C(=O)O)N
Method: HCD
Collision_energy: [28.333334]
Isolation_window: 4.0
Ion_mode: P
Num Peaks: 93
58.0656	4.7
60.0561	1.5
60.0813	2.2
62.0605	2.1
69.0339	9.0
70.0656	2.9
72.0812	2.7
82.0654	1.7
84.0812	1.5
85.0651	3.2
86.0602	0.9
86.0968	2.3
87.0442	2.2
89.0601	4.9
96.9955	1.1
98.0603	3.6
100.0760	1.7
101.0603	1.2
102.0916	6.7
106.9049	1.4
108.9043	0.9
114.0916	1.9
115.9550	0.9
115.9640	0.9
116.0708	14.9
128.0707	1.0
130.0864	2.0
133.0857	1.1
133.9651	1.1
135.0442	5.5
147.9312	1.1
149.0234	2.5
149.0597	1.2
149.0959	0.9
149.1075	1.3
149.9307	0.8
150.0550	4.4
161.1074	4.1
165.0215	24.4
166.0221	1.7
168.1383	3.5
179.0854	0.8
179.1180	100.0
180.1218	10.3
185.1283	10.1
186.0584	2.3
186.1122	0.9
186.1315	2.1
186.1490	7.0
187.1440	31.1
187.1781	0.9
188.0929	1.7
188.1095	1.5
188.1473	3.2
189.1019	0.9
190.1075	5.6
191.0813	1.0
192.1008	0.9
192.1160	1.5
192.1382	0.9
193.0976	5.3
193.1331	1.5
194.0816	2.1
194.1012	0.9
194.1175	22.9
195.1137	6.5
196.0965	9.8
196.1455	18.4
197.1272	3.5
197.1491	1.7
198.1240	7.1
198.1475	1.5
199.1076	0.8
199.1422	1.5
200.0764	0.9
200.1254	4.6
200.1425	1.1
202.1438	4.2
202.1801	22.5
203.1180	26.6
203.1816	2.6
204.0651	2.8
204.1211	3.7
204.1594	22.2
205.1629	2.7
206.0249	1.0
206.1178	2.0
207.1129	2.9
208.0967	15.1
208.1141	0.9
208.1347	1.4
209.1033	1.4
209.1272	1.3

Name: Ile-Pro
PrecursorMZ: 229.15448
RT: 5.8047
ExactMass: 228.1473925
Spectrum_type: 2
charge: 1
Formula: C11H20N2O3
SMILES: CC[C@H](C)[C@@H](C(=O)N1CCC[C@H]1C(=O)O)N
Method: HCD
Collision_energy: [28.333334]
Isolation_window: 4.0
Ion_mode: P
Num Peaks: 32
69.0703	2.1
70.0655	26.6
84.0811	1.8
86.0603	1.9
86.0967	63.1
87.1000	2.9
114.0913	1.5
116.0707	100.0
117.0739	5.3
139.0865	2.0
210.0953	1.4
210.1679	1.4
211.1074	2.0
212.0914	3.9
228.0650	1.4
228.0859	2.2
228.0984	2.2
228.1233	3.1
228.1431	1.6
228.1788	6.3
228.2319	7.0
229.0976	2.6
229.1178	9.2
229.1543	18.9
230.0813	2.9
230.0918	1.5
230.1018	3.7
230.1184	2.2
230.1383	2.4
230.1576	1.8
230.2474	1.4
231.1125	1.4

Name: Ile-Thr
PrecursorMZ: 233.14927
RT: 4.9039
ExactMass: 232.14230712
Spectrum_type: 2
charge: 1
Formula: C10H20N2O4
SMILES: CCC(C)C(C(=O)NC(C(C)O)C(=O)O)N
Method: HCD
Collision_energy: [28.333334]
Isolation_window: 4.0
Ion_mode: P
Num Peaks: 36
69.0702	1.3
69.7678	0.5
72.0811	5.1
74.0603	2.8
81.0337	0.7
86.0911	0.8
86.0966	100.0
86.1020	0.7
87.0999	6.9
97.4572	0.8
102.0550	1.0
114.0662	2.4
118.0863	0.5
120.0654	5.5
130.0497	1.0
130.1225	1.8
132.1016	0.7
136.0755	0.7
146.0599	1.2
187.1438	0.6
188.0700	0.7
215.1384	2.0
231.1695	0.8
232.0966	1.3
232.1172	0.5
233.0915	1.9
233.1282	0.8
233.1489	3.1
234.0761	1.3
234.0871	0.6
234.0983	0.7
234.1122	1.2
234.1493	0.5
234.1847	1.0
235.1070	0.8
235.1187	2.7

Name: Ile-Val
PrecursorMZ: 231.1702
RT: 1.3848
ExactMass: 230.16304257
Spectrum_type: 2
charge: 1
Formula: C11H22N2O3
SMILES: CC[C@H](C)[C@@H](C(=O)N[C@@H](C(C)C)C(=O)O)N
Method: HCD
Collision_energy: [28.333334]
Isolation_window: 4.0
Ion_mode: P
Num Peaks: 108
55.0546	1.9
56.0498	0.5
58.0655	0.6
59.0496	0.4
67.0546	0.4
69.0702	2.3
70.0654	1.9
72.0618	0.3
72.0772	0.6
72.0811	78.6
72.0849	0.6
72.1015	0.3
73.0844	3.1
74.0603	6.1
81.0700	0.6
83.0606	0.6
86.0602	0.4
86.0915	0.6
86.0945	0.8
86.0966	100.0
86.1021	0.6
86.1232	0.3
87.0999	4.5
91.0544	0.7
93.0698	0.6
95.0855	0.6
97.4572	0.4
105.0697	0.7
106.0652	0.4
107.0491	0.5
107.0730	0.8
107.0855	0.5
111.0804	0.4
116.0706	6.0
117.0739	1.1
118.0862	2.3
119.0854	1.1
120.0654	0.4
121.1011	0.5
125.0595	0.4
128.1068	0.5
131.0853	0.9
132.1017	36.2
133.0759	0.4
133.1009	1.0
133.1050	2.1
135.1165	0.5
145.1009	1.1
147.1166	0.5
152.0703	0.3
154.0859	0.4
157.1008	0.4
159.1166	0.7
169.0855	0.8
171.1165	0.7
171.1490	2.6
173.1326	0.6
184.1329	1.4
185.0706	0.5
185.1645	3.6
186.0766	0.3
186.0910	1.2
186.1681	0.3
187.0959	0.4
187.1435	1.5
196.1328	0.7
201.1593	0.8
202.1629	0.5
203.1177	0.3
204.0651	0.5
204.1014	0.3
213.1596	0.3
213.1634	0.5
214.1433	1.4
215.1385	0.5
229.1548	0.5
229.1946	0.4
230.0806	1.0
230.1177	1.7
230.1380	1.9
230.1537	2.6
230.1573	0.4
230.2473	1.1
231.0756	0.8
231.1123	3.1
231.1224	1.2
231.1365	1.4
231.1389	0.5
231.1478	1.0
231.1501	0.7
231.1697	9.6
231.2099	0.7
232.0599	0.9
232.0822	1.0
232.0964	2.4
232.1074	0.3
232.1171	0.4
232.1325	0.6
232.1427	0.6
232.1706	0.5
232.1730	1.0
232.1898	0.5
233.0803	0.4
233.0914	3.3
233.1279	4.2
233.1481	0.4
233.1499	1.7
233.1891	0.4

Name: Imazapic
PrecursorMZ: 276.13373
RT: 4.8454
ExactMass: 275.12699141
Spectrum_type: 2
charge: 1
Formula: C14H17N3O3
SMILES: CC1=CC(=C(N=C1)C2=NC(C(=O)N2)(C)C(C)C)C(=O)O
Method: HCD
Collision_energy: [28.333334]
Isolation_window: 4.0
Ion_mode: P
Num Peaks: 136
58.0656	1.8
60.0560	1.9
69.0339	1.4
70.0655	10.7
72.0448	4.8
72.0811	2.4
81.0340	1.4
82.0654	1.1
84.0811	5.1
85.0287	1.3
86.0605	1.5
86.0967	6.2
88.0396	6.4
93.0701	1.2
94.0653	1.7
95.0606	1.8
96.0445	1.9
96.0811	4.9
97.0285	2.0
98.0603	1.3
98.0967	1.9
100.0759	11.6
108.0445	2.7
110.0715	14.8
111.0442	1.2
112.0869	1.8
116.0710	2.4
120.0808	1.6
121.0649	13.3
122.0601	1.3
122.0812	3.2
123.0442	2.9
123.0553	2.1
126.0551	4.8
127.0391	1.7
128.0710	1.7
130.0864	3.2
132.1021	4.4
136.0755	1.7
137.0599	3.4
138.0549	1.3
138.0915	1.2
141.0659	6.5
143.0579	1.6
144.1019	8.2
149.0231	1.2
150.0775	3.5
150.0914	2.8
152.0707	1.4
154.0861	4.7
156.0768	46.8
157.0805	3.2
158.0815	1.4
161.0694	1.8
162.0910	1.6
163.0992	17.8
164.0708	1.1
164.1036	2.1
165.0547	2.9
166.0863	2.2
168.0686	2.8
171.1123	1.5
172.0967	2.1
174.0913	1.3
175.0991	3.2
175.1190	3.2
176.1065	2.2
183.0805	2.0
189.0898	1.2
197.1283	1.5
201.0907	14.8
202.0942	2.1
210.1116	1.6
212.1280	2.9
215.0823	1.9
230.0809	1.3
230.1385	21.2
231.1433	2.0
232.1323	2.3
237.1598	1.6
248.1275	1.5
248.1494	4.2
257.0915	2.7
257.1617	1.2
258.1337	15.7
259.1382	2.1
260.1279	15.3
261.1311	2.8
272.0896	1.7
274.1068	5.5
274.1872	8.2
275.1062	5.8
275.1386	2.6
276.1220	10.4
276.1441	29.6
277.1230	3.8
277.1524	6.3
278.1387	100.0
278.1881	3.0
279.0925	1.2
279.1419	18.3
279.1706	1.4
280.1150	2.1
280.1395	2.0
280.1981	1.7
281.1505	2.2
281.1891	1.2
282.2161	2.0
283.1449	10.5
283.2119	5.6
284.1438	1.8
284.1941	1.6
285.0871	1.8
285.1237	1.2
285.1605	2.4
286.1030	2.2
287.1034	1.8
287.1385	4.5
287.1748	1.3
288.1256	6.1
288.1920	11.1
289.1196	3.1
289.1544	2.6
289.1941	1.5
290.1025	5.8
290.1391	2.5
291.1040	1.1
291.1354	3.2
291.1716	2.4
292.1193	2.2
292.1544	7.2
293.1149	1.3
293.1513	5.0
293.1868	1.9
294.1526	8.0
295.1639	1.9

Name: Imazapyr
PrecursorMZ: 262.11817
RT: 7.3983
ExactMass: 261.11134135
Spectrum_type: 2
charge: 1
Formula: C13H15N3O3
SMILES: CC(C)C1(C(=O)NC(=N1)C2=C(C=CC=N2)C(=O)O)C
Method: HCD
Collision_energy: [28.333334]
Isolation_window: 4.0
Ion_mode: P
Num Peaks: 26
84.0809	4.7
110.0839	51.4
123.0916	43.0
160.0756	8.9
167.0813	6.5
184.0754	9.7
186.0911	26.6
190.1338	8.6
198.0911	6.4
216.1223	7.7
218.1283	47.5
219.1320	7.5
232.0964	59.2
233.0998	8.4
244.0965	63.5
244.1075	10.4
244.1174	5.1
245.0995	8.8
260.1275	4.6
261.1222	28.1
262.1063	12.1
262.1178	100.0
262.1423	9.4
263.1212	16.1
263.1380	16.1
264.1219	11.3

Name: Imazaquin
PrecursorMZ: 312.13415
RT: 4.2629
ExactMass: 311.12699141
Spectrum_type: 2
charge: 1
Formula: C17H17N3O3
SMILES: CC(C)C1(C(=O)NC(=N1)C2=NC3=CC=CC=C3C=C2C(=O)O)C
Method: HCD
Collision_energy: [28.333334]
Isolation_window: 4.0
Ion_mode: P
Num Peaks: 8
185.0710	15.0
213.0657	22.8
248.1178	11.8
266.1286	100.0
267.1327	11.7
312.1340	57.7
312.3625	12.5
313.1381	13.4

Name: Imazethapyr
PrecursorMZ: 290.14975
RT: 2.4868
ExactMass: 289.14264148
Spectrum_type: 2
charge: 1
Formula: C15H19N3O3
SMILES: CCC1=CC(=C(N=C1)C2=NC(C(=O)N2)(C)C(C)C)C(=O)O
Method: HCD
Collision_energy: [28.333334]
Isolation_window: 4.0
Ion_mode: P
Num Peaks: 39
70.0655	3.6
81.0338	1.2
84.0812	2.2
89.0600	1.9
98.0604	2.0
100.1124	1.9
102.0916	1.5
111.0442	1.3
122.0813	1.4
125.0711	3.2
132.0447	2.5
167.1180	7.0
180.1014	2.2
195.1131	100.0
196.1165	10.9
210.0795	2.2
289.1572	1.9
290.1504	22.2
291.1369	1.2
292.1574	2.9
293.1536	2.4
293.1871	2.7
294.1818	1.6
295.1684	2.0
299.1370	1.6
300.1224	1.3
301.1565	2.1
302.1388	2.7
303.1420	1.9
303.1744	2.1
304.1584	2.0
304.3007	1.7
305.1525	2.9
306.1361	1.5
306.1788	1.4
307.1692	2.7
308.1495	2.0
308.1976	1.1
309.1855	1.2

Name: Imidazole-1-acetic acid
PrecursorMZ: 127.05021
RT: 2.8257
ExactMass: 126.042927438
Spectrum_type: 2
charge: 1
Formula: C5H6N2O2
SMILES: C1=CN(C=N1)CC(=O)O
Method: HCD
Collision_energy: [28.333334]
Isolation_window: 4.0
Ion_mode: P
Num Peaks: 5
70.0291	15.2
95.0241	10.5
109.0397	6.0
127.0501	100.0
128.0532	5.8

Name: Imperialine
PrecursorMZ: 430.33148
RT: 3.7017
ExactMass: 429.32429423
Spectrum_type: 2
charge: 1
Formula: C27H43NO3
SMILES: C[C@H]1CC[C@H]2[C@@]([C@@H]3CC[C@@H]4[C@H]([C@@H]3CN2C1)C[C@H]5[C@H]4CC(=O)[C@@H]6[C@@]5(CC[C@@H](C6)O)C)(C)O
Method: HCD
Collision_energy: [28.333334]
Isolation_window: 4.0
Ion_mode: P
Num Peaks: 37
70.0655	0.7
81.0339	0.7
84.0811	0.5
86.0968	0.6
97.3988	0.5
100.0759	4.2
107.0858	0.4
112.0759	1.0
128.0707	8.9
129.0740	0.4
130.0863	1.5
140.1071	1.2
147.1169	0.6
156.1022	1.0
158.1178	0.5
159.1168	0.5
161.1326	2.2
255.2107	2.0
273.2212	2.8
274.2248	0.7
383.2939	0.7
412.3209	2.3
413.3245	0.7
414.3366	9.6
428.3160	0.8
429.1657	0.5
429.2011	0.6
429.3195	1.1
430.1830	0.5
430.2694	0.8
430.3315	100.0
430.3787	0.4
430.3931	0.6
431.1840	0.7
431.3348	29.4
432.1643	0.6
432.3388	3.2

Name: Indole
PrecursorMZ: 118.06519
RT: 1.442
ExactMass: 117.057849228
Spectrum_type: 2
charge: 1
Formula: C8H7N
SMILES: C1=CC=C2C(=C1)C=CN2
Method: HCD
Collision_energy: [28.333334]
Isolation_window: 4.0
Ion_mode: P
Num Peaks: 7
69.2264	7.2
91.0543	15.9
97.4560	5.1
117.0572	5.8
118.0651	100.0
118.0862	16.9
119.0684	7.9

Name: Indole-3-Butyric Acid
PrecursorMZ: 204.10192
RT: 9.297
ExactMass: 203.094628657
Spectrum_type: 2
charge: 1
Formula: C12H13NO2
SMILES: C1=CC=C2C(=C1)C(=CN2)CCCC(=O)O
Method: HCD
Collision_energy: [28.333334]
Isolation_window: 4.0
Ion_mode: P
Num Peaks: 115
56.0499	0.3
58.0656	1.1
60.0448	0.4
60.0813	2.6
62.0605	1.1
70.0656	3.1
71.0495	1.2
72.0812	1.7
74.0604	3.1
81.0337	0.4
84.0447	0.6
84.0811	5.3
85.0287	0.4
86.0604	5.7
95.0494	0.5
95.0606	2.4
96.0685	2.1
97.0286	1.8
97.3995	0.5
98.0603	0.9
100.0245	0.4
100.0759	1.7
101.0598	1.6
102.0916	0.6
103.0391	0.8
104.1072	1.2
107.0730	1.0
109.0762	19.8
110.0603	1.9
110.0796	1.0
112.0759	0.6
112.0871	1.4
114.0663	0.4
116.0707	0.7
118.0862	0.5
125.0710	0.5
126.0550	1.6
126.0915	1.6
127.0388	0.3
128.0707	1.2
129.1023	5.2
130.0863	0.7
138.0551	1.2
140.0707	0.7
142.0862	0.6
143.0892	0.4
144.0655	1.8
144.1020	2.3
152.0705	0.4
153.1023	0.5
154.0865	0.3
155.0452	0.8
157.0971	0.7
158.0813	2.3
158.1177	1.9
161.1286	0.4
165.0840	0.7
165.5818	0.4
167.0814	0.6
168.0657	0.3
168.1385	0.3
170.0812	0.8
170.1177	0.9
171.1130	0.4
174.0913	0.4
175.0949	0.3
179.9813	0.4
181.1155	0.5
185.0922	0.7
185.1285	2.1
185.1650	0.9
186.0761	0.8
186.0861	0.5
186.0915	0.5
186.1125	2.4
188.0918	6.5
188.1281	1.5
197.9916	0.4
202.0976	0.4
202.1076	0.9
202.1229	0.3
202.1340	0.4
202.1438	1.9
202.1802	0.3
202.1996	0.3
203.1026	3.0
203.1103	3.7
203.1182	3.3
203.1287	0.4
203.1390	19.1
203.1466	0.5
203.1498	1.0
203.1754	0.4
203.6120	1.2
204.0819	0.6
204.0865	2.1
204.1019	100.0
204.1127	6.4
204.1220	3.3
204.1412	0.4
204.1435	1.5
204.1594	5.6
205.0837	0.5
205.0972	1.1
205.1053	12.6
205.1167	0.6
205.1336	3.0
205.1625	0.5
206.0822	0.6
206.0927	3.4
206.1022	7.2
206.1080	0.5
206.1175	8.8
206.1284	1.0
206.1384	11.4

Name: Indole-3-Carbinol
PrecursorMZ: 148.07565
RT: 1.5873666666666666
ExactMass: 147.068413911
Spectrum_type: 2
charge: 1
Formula: C9H9NO
SMILES: C1=CC=C2C(=C1)C(=CN2)CO
Method: HCD
Collision_energy: [28.333334]
Isolation_window: 4.0
Ion_mode: P
Num Peaks: 14
55.0182	0.5
69.5311	0.6
103.0543	1.4
106.0652	1.9
118.0651	0.5
120.0443	0.6
120.0807	3.2
130.0650	3.2
148.0392	0.7
148.0632	0.7
148.0657	0.6
148.0755	100.0
148.0879	0.7
149.0788	10.1

Name: Indole-3-acetaldehyde
PrecursorMZ: 160.07567
RT: 4.4178
ExactMass: 159.068413911
Spectrum_type: 2
charge: 1
Formula: C10H9NO
SMILES: C1=CC=C2C(=C1)C(=CN2)CC=O
Method: HCD
Collision_energy: [28.333334]
Isolation_window: 4.0
Ion_mode: P
Num Peaks: 7
130.0649	6.1
158.1540	2.7
159.0916	7.5
160.0755	100.0
161.0707	9.4
161.0788	8.6
162.0546	3.3

Name: Indole-3-acetamide
PrecursorMZ: 175.08653
RT: 3.0465
ExactMass: 174.079312947
Spectrum_type: 2
charge: 1
Formula: C10H10N2O
SMILES: C1=CC=C2C(=C1)C(=CN2)CC(=O)N
Method: HCD
Collision_energy: [28.333334]
Isolation_window: 4.0
Ion_mode: P
Num Peaks: 24
61.0400	1.4
82.0289	0.9
94.0651	0.9
118.0610	1.1
118.0651	2.0
130.0649	100.0
131.0683	8.9
132.0441	11.8
132.0803	1.5
133.0476	0.9
145.0758	1.6
146.0598	3.5
157.0758	6.2
158.0598	23.9
159.0631	2.3
173.0707	5.5
174.0546	3.2
174.0798	2.2
174.0912	9.4
174.1024	5.2
175.0864	11.6
175.0943	1.0
176.0702	2.6
176.0901	1.0

Name: Indole-3-acetyl-L-leucine
PrecursorMZ: 289.15436
RT: 7.1756
ExactMass: 288.1473925
Spectrum_type: 2
charge: 1
Formula: C16H20N2O3
SMILES: CC(C)CC(C(=O)O)NC(=O)CC1=CNC2=CC=CC=C21
Method: HCD
Collision_energy: [28.333334]
Isolation_window: 4.0
Ion_mode: P
Num Peaks: 69
55.0547	1.3
60.0812	4.7
70.0655	2.8
71.0859	2.0
80.0498	2.9
81.0338	2.0
84.0811	10.2
86.0967	2.3
97.3997	0.9
98.0966	2.4
99.0806	2.3
100.0758	0.9
101.0599	6.9
102.0632	1.2
114.0551	1.7
114.0663	4.0
114.0914	1.2
116.0707	4.5
116.1071	1.5
122.0602	1.2
126.0914	13.1
130.0863	19.4
131.0897	2.3
138.0913	2.3
144.1019	34.7
145.1051	2.0
146.0924	5.4
154.0862	14.7
156.1019	2.6
158.1175	1.1
159.1129	3.0
174.1125	12.9
184.0968	2.2
184.1694	1.4
188.0701	1.6
189.1021	14.2
189.1597	2.7
190.1056	1.4
207.1253	1.2
226.0710	1.2
228.1592	3.1
239.1104	1.2
269.1211	1.2
272.0914	1.1
287.1319	5.1
287.1726	3.1
287.2327	71.7
288.0868	3.2
288.1072	6.5
288.1224	10.1
288.1350	3.1
288.1560	2.5
288.1711	2.1
288.2362	18.8
289.1192	4.9
289.1422	2.5
289.1544	100.0
289.1750	17.3
289.1895	1.4
289.2383	1.9
290.1021	4.5
290.1217	1.2
290.1377	8.0
290.1575	16.4
290.1755	2.5
291.1336	11.2
291.1549	7.3
291.1700	22.9
291.2426	1.5

Name: Indoline
PrecursorMZ: 120.08086
RT: 6.1635
ExactMass: 119.073499291
Spectrum_type: 2
charge: 1
Formula: C8H9N
SMILES: C1CNC2=CC=CC=C21
Method: HCD
Collision_energy: [28.333334]
Isolation_window: 4.0
Ion_mode: P
Num Peaks: 8
58.0656	9.4
59.0734	9.0
93.0700	10.8
103.0543	22.9
118.0863	59.9
120.0556	8.0
120.0807	100.0
121.0396	19.3

Name: Ingenol
PrecursorMZ: 371.18052
RT: 8.6738
ExactMass: 348.19367399
Spectrum_type: 2
charge: 1
Formula: C20H28O5
SMILES: C[C@@H]1C[C@@H]2[C@@H](C2(C)C)[C@@H]3C=C([C@H]([C@]4([C@@]1(C3=O)C=C([C@@H]4O)C)O)O)CO
Method: HCD
Collision_energy: [28.333334]
Isolation_window: 4.0
Ion_mode: P
Num Peaks: 18
55.0547	5.0
101.0598	15.9
111.0554	11.6
135.0552	6.9
153.0658	9.3
176.8752	13.5
211.1074	20.5
213.0867	5.7
235.1073	8.0
253.1179	48.3
254.1213	5.8
311.1596	78.4
312.1631	12.6
370.2040	8.4
371.1818	98.9
371.1903	100.0
372.1846	21.0
373.1974	9.9

Name: Int-777
PrecursorMZ: 468.36831
RT: 1.929
ExactMass: 450.33452456
Spectrum_type: 2
charge: 1
Formula: C27H46O5
SMILES: CC[C@@H]1[C@@H]2C[C@@H](CC[C@@]2([C@H]3C[C@@H]([C@]4([C@H]([C@@H]3[C@@H]1O)CC[C@@H]4[C@H](C)C[C@H](C)C(=O)O)C)O)C)O
Method: HCD
Collision_energy: [28.333334]
Isolation_window: 4.0
Ion_mode: P
Num Peaks: 12
89.0601	9.2
95.0858	8.9
145.1011	9.2
206.1175	8.8
397.3100	100.0
398.3138	22.1
415.3206	55.5
416.3238	16.0
466.7187	10.8
467.2189	11.1
468.3679	17.0
469.2137	13.1

Name: Irigenin trimethyl ether
PrecursorMZ: 403.13857
RT: 3.0537
ExactMass: 402.13146766
Spectrum_type: 2
charge: 1
Formula: C21H22O8
SMILES: COC1=CC(=CC(=C1OC)OC)C2=COC3=CC(=C(C(=C3C2=O)OC)OC)OC
Method: HCD
Collision_energy: [28.333334]
Isolation_window: 4.0
Ion_mode: P
Num Peaks: 20
126.0916	15.5
232.0969	9.4
248.0683	21.4
278.1022	57.1
279.1059	9.4
281.0805	10.3
311.0911	35.7
313.1071	36.3
329.1018	84.9
330.1049	11.4
343.1175	100.0
344.1206	16.4
355.1175	37.2
361.1273	10.5
371.1124	19.6
373.1524	14.8
387.1428	11.0
403.1099	13.6
403.1387	10.7
404.1469	16.4

Name: Irinotecan
PrecursorMZ: 587.28622
RT: 4.65225
ExactMass: 586.27913494
Spectrum_type: 2
charge: 1
Formula: C33H38N4O6
SMILES: CCC1=C2CN3C(=CC4=C(C3=O)COC(=O)[C@@]4(CC)O)C2=NC5=C1C=C(C=C5)OC(=O)N6CCC(CC6)N7CCCCC7
Method: HCD
Collision_energy: [28.333334]
Isolation_window: 4.0
Ion_mode: P
Num Peaks: 47
51.5798	1.1
65.2542	4.4
65.3657	1.4
65.4782	1.3
69.2906	0.9
70.0653	0.7
86.0965	1.2
97.4576	0.8
229.1333	1.5
239.1175	1.1
240.1250	0.9
255.1122	0.8
255.1487	2.2
257.1277	0.8
271.1436	2.2
273.1229	2.0
281.1277	2.4
285.1200	0.6
297.1229	1.7
299.1384	100.0
300.1418	16.1
301.1550	5.5
302.1582	0.8
332.1750	0.6
333.1828	2.9
334.1892	0.8
346.1907	7.3
348.2064	7.3
392.1959	4.8
404.1959	1.1
405.2036	2.5
406.2116	4.9
421.2352	3.2
447.2152	1.6
450.2013	0.7
454.2353	1.1
455.2423	0.7
464.2171	19.4
465.2249	5.8
466.2326	1.6
469.2595	0.8
527.2642	1.9
569.2746	1.4
586.2763	2.8
587.2855	76.3
588.2888	25.2
589.3006	25.4

Name: Irinotecan Hydrochloride
PrecursorMZ: 587.28619
RT: 4.8434
ExactMass: 622.2558127
Spectrum_type: 2
charge: 1
Formula: C33H39ClN4O6
SMILES: CCC1=C2CN3C(=CC4=C(C3=O)COC(=O)[C@@]4(CC)O)C2=NC5=C1C=C(C=C5)OC(=O)N6CCC(CC6)N7CCCCC7.Cl
Method: HCD
Collision_energy: [28.333334]
Isolation_window: 4.0
Ion_mode: P
Num Peaks: 70
51.5799	1.5
65.2524	0.9
65.2543	4.3
65.3658	1.5
65.4783	2.3
97.3996	0.7
121.0887	0.5
211.1232	0.6
227.1179	0.4
229.1333	1.2
239.1177	0.9
240.1255	0.9
245.1284	0.4
253.1333	0.8
255.1124	0.9
255.1490	2.7
256.1189	0.6
271.1441	2.4
273.1230	1.7
281.1281	2.5
282.1321	0.5
283.1440	0.5
287.1390	0.5
288.1471	0.6
297.1233	2.1
298.1267	0.5
299.1028	0.7
299.1388	100.0
299.1742	0.6
300.1422	16.4
301.1554	6.2
302.1585	0.5
314.1620	0.4
332.1751	1.1
333.1832	4.4
334.1913	0.7
346.1911	10.5
348.2067	10.6
362.2219	0.5
374.1857	0.6
386.1845	0.5
392.1965	4.9
404.1957	1.1
405.2044	3.1
406.2122	7.5
407.2184	0.4
418.2135	0.7
420.2277	0.5
421.2357	4.5
447.2149	2.4
450.2020	0.6
454.2356	1.1
455.2414	0.6
462.2017	0.8
464.2177	25.5
465.2255	7.7
466.2332	1.8
467.2432	0.4
469.2592	0.7
527.2651	1.2
528.2702	0.6
569.2759	1.1
570.2809	0.5
571.2919	0.5
585.2712	0.5
586.2772	3.4
587.2861	75.0
587.3816	0.5
588.2895	27.5
589.3013	42.0

Name: Isatin
PrecursorMZ: 148.0393
RT: 4.6598
ExactMass: 147.032028402
Spectrum_type: 2
charge: 1
Formula: C8H5NO2
SMILES: C1=CC=C2C(=C1)C(=O)C(=O)N2
Method: HCD
Collision_energy: [28.333334]
Isolation_window: 4.0
Ion_mode: P
Num Peaks: 9
95.0605	13.0
120.0443	86.8
121.0283	6.7
130.0862	7.5
148.0391	100.0
149.0232	25.8
149.0414	7.2
149.0475	14.1
149.0708	19.5

Name: Isoanhydroicaritin
PrecursorMZ: 369.1307
RT: 8.2052
ExactMass: 368.12598835
Spectrum_type: 2
charge: 1
Formula: C21H20O6
SMILES: CC(=CCC1=C(C=C(C2=C1OC(=C(C2=O)O)C3=CC=C(C=C3)O)O)OC)C
Method: HCD
Collision_energy: [28.333334]
Isolation_window: 4.0
Ion_mode: P
Num Peaks: 29
110.0715	7.0
156.0768	5.8
197.0292	9.4
215.0400	65.5
233.0504	14.0
269.1534	9.7
279.0709	19.0
287.1633	6.9
291.1446	9.1
297.0819	7.6
297.1487	11.7
305.1744	5.6
307.0660	53.4
315.1587	16.8
317.1744	5.3
325.0766	45.1
331.1533	5.1
333.1697	14.9
335.0614	8.8
335.1483	5.3
351.1804	11.4
353.0717	33.6
353.1587	5.5
369.1304	86.4
369.2013	9.6
370.1315	14.5
371.0820	100.0
371.1025	16.4
371.1917	12.9

Name: Isobutyric Acid
PrecursorMZ: 89.05995
RT: 2.6252
ExactMass: 88.052429494
Spectrum_type: 2
charge: 1
Formula: C4H8O2
SMILES: CC(C)C(=O)O
Method: HCD
Collision_energy: [28.333334]
Isolation_window: 4.0
Ion_mode: P
Num Peaks: 6
70.0654	49.6
72.0447	100.0
72.0810	17.0
88.0758	26.9
89.0599	15.3
89.0711	19.3

Name: Isodeoxycholic acid
PrecursorMZ: 415.28141
RT: 4.6149
ExactMass: 392.29265975
Spectrum_type: 2
charge: 1
Formula: C24H40O4
SMILES: C[C@H](CCC(=O)O)[C@H]1CC[C@@H]2[C@@]1([C@H](C[C@H]3[C@H]2[C@@H](C[C@H]4[C@@]3(CCCC4)C)O)O)C
Method: HCD
Collision_energy: [28.333334]
Isolation_window: 4.0
Ion_mode: P
Num Peaks: 4
415.2811	100.0
416.2845	25.2
433.2915	5.0
434.2962	1.2

Name: Isoferulic Acid
PrecursorMZ: 217.04698
RT: 6.5922
ExactMass: 194.0579088
Spectrum_type: 2
charge: 1
Formula: C10H10O4
SMILES: COC1=C(C=C(C=C1)/C=C/C(=O)O)O
Method: HCD
Collision_energy: [28.333334]
Isolation_window: 4.0
Ion_mode: P
Num Peaks: 55
55.0546	2.2
57.0339	40.0
58.0372	1.8
70.0654	89.0
71.0494	41.4
71.0688	3.3
72.0528	1.5
72.0811	2.6
73.0651	0.8
74.0603	4.8
75.0444	1.2
81.0339	1.0
81.0449	1.4
82.0653	1.4
83.0494	12.5
83.0686	0.8
84.0446	4.2
87.0441	0.8
88.0395	1.7
90.0550	1.0
98.9842	100.0
101.0597	23.2
101.0709	1.7
102.0631	1.5
116.0705	10.7
116.9947	1.8
119.0702	4.0
125.0707	2.4
129.0655	1.6
130.0497	1.3
140.0107	0.9
145.0604	0.8
147.0761	1.1
153.0658	3.6
154.0497	1.4
172.0965	1.0
181.0604	8.4
197.0915	1.8
197.1112	1.9
198.1121	1.2
199.0367	0.9
199.0707	1.1
199.1074	2.1
200.1024	2.1
201.0866	1.2
215.1022	1.3
215.1218	4.7
216.0864	0.8
216.0978	2.2
216.1226	2.8
217.0465	1.7
217.1177	23.2
218.0807	13.9
218.1023	0.9
218.1216	2.4

Name: Isokobusone
PrecursorMZ: 223.16908
RT: 3.0528
ExactMass: 222.16197994
Spectrum_type: 2
charge: 1
Formula: C14H22O2
SMILES: CC1(CC2C1CCC(=C)C(CCC2=O)O)C
Method: HCD
Collision_energy: [28.333334]
Isolation_window: 4.0
Ion_mode: P
Num Peaks: 42
55.0545	14.8
67.0546	44.3
69.0702	23.9
69.7619	19.1
71.0494	15.9
79.0545	26.1
81.0701	80.0
83.0857	15.0
91.0543	19.8
93.0700	59.9
95.0492	16.5
95.0856	100.0
105.0699	23.6
107.0855	63.9
109.0647	17.9
109.1012	61.8
119.0854	26.4
121.1011	51.9
123.0804	18.5
123.1167	21.0
131.0855	20.1
133.1009	24.3
135.0804	25.0
137.0958	16.1
145.1011	20.9
147.1166	37.7
149.0958	31.1
161.0959	28.6
161.1324	15.6
163.1118	21.0
163.1478	57.2
164.0705	19.5
165.0545	69.3
179.1064	47.9
187.1478	39.4
205.1582	41.5
206.0809	15.9
207.1012	16.9
222.1121	24.8
223.1688	51.3
224.0911	30.6
224.1278	20.4

Name: Isolactarorufin
PrecursorMZ: 289.14072
RT: 1.26775
ExactMass: 266.15180918
Spectrum_type: 2
charge: 1
Formula: C15H22O4
SMILES: CC1(CC2C(C1)C(C34CC3(C2O)COC4=O)(C)O)C
Method: HCD
Collision_energy: [28.333334]
Isolation_window: 4.0
Ion_mode: P
Num Peaks: 4
69.0867	8.7
97.4574	8.2
289.1405	100.0
290.1440	14.2

Name: Isoleucyl-Proline
PrecursorMZ: 229.15475
RT: 0.6347
ExactMass: 228.1473925
Spectrum_type: 2
charge: 1
Formula: C11H20N2O3
SMILES: CC[C@H](C)[C@@H](C(=O)N1CCC[C@H]1C(=O)O)N
Method: HCD
Collision_energy: [28.333334]
Isolation_window: 4.0
Ion_mode: P
Num Peaks: 54
59.0497	0.2
67.0549	0.2
69.0704	2.1
70.0656	26.9
70.0737	0.3
71.0690	1.1
72.0812	1.2
81.0705	0.3
83.0860	0.2
86.0728	0.3
86.0829	0.3
86.0860	0.8
86.0881	0.6
86.0968	100.0
86.1055	0.5
86.1078	0.7
86.1111	0.2
86.1242	0.3
87.0444	0.2
87.0943	0.3
87.1000	5.8
89.0601	4.5
95.0856	0.4
98.0967	0.3
100.1124	0.8
109.1017	0.3
114.1278	0.2
116.0709	6.5
117.0743	0.3
120.0812	0.3
128.1073	0.4
128.1434	0.2
132.1021	5.2
133.0861	2.2
133.1057	0.3
151.0969	0.2
183.1492	0.5
199.1806	2.7
200.1838	0.3
210.1857	0.2
226.1805	0.7
227.1760	0.3
229.1361	0.3
229.1547	8.7
230.1583	1.1
231.1715	0.2
235.1075	0.2
238.1431	0.3
239.1481	0.4
241.1550	0.3
245.1288	0.3
245.1503	0.2
245.1860	8.5
246.1893	1.2

Name: Isoleucylglutamine
PrecursorMZ: 260.16041
RT: 7.1042
ExactMass: 259.15320616
Spectrum_type: 2
charge: 1
Formula: C11H21N3O4
SMILES: CCC(C)C(C(=O)NC(CCC(=O)N)C(=O)O)N
Method: HCD
Collision_energy: [28.333334]
Isolation_window: 4.0
Ion_mode: P
Num Peaks: 90
55.0547	1.5
70.0656	2.0
71.0860	1.8
72.0812	3.3
81.0339	7.3
83.0495	1.3
83.0608	5.4
84.0447	6.9
84.0812	9.1
86.0968	58.4
87.1001	3.2
96.0810	1.6
98.0967	6.7
99.0807	1.2
100.0759	1.3
101.0600	4.6
101.0711	2.7
112.0759	1.6
114.0916	14.6
116.0707	1.6
116.1072	2.1
129.0660	3.4
130.0500	35.0
130.0864	13.6
131.0532	1.9
131.1180	3.6
132.1020	4.6
143.1180	13.3
144.0809	8.4
144.1021	3.1
147.0765	80.0
148.0798	3.8
157.1339	1.5
160.0757	3.8
161.1076	1.8
161.1286	11.4
162.0913	1.2
162.1278	18.8
163.1231	6.4
164.1265	1.4
171.1131	1.6
188.0704	1.3
195.1128	2.6
196.1446	3.3
197.1286	10.2
215.1180	2.2
217.0970	1.2
225.1236	1.1
226.1076	1.9
241.1547	2.4
242.1388	1.2
242.1499	15.8
243.1131	4.2
243.1339	9.2
243.1535	1.7
244.0719	1.6
244.0968	1.1
244.1367	1.1
258.1125	3.6
258.1332	3.0
258.1456	3.9
258.1708	1.5
258.2064	1.3
259.1071	11.8
259.1288	2.6
259.1440	11.3
259.1642	3.6
259.2015	27.1
260.0733	1.1
260.0918	6.7
260.1021	1.1
260.1124	3.6
260.1276	29.7
260.1375	1.2
260.1487	3.1
260.1603	22.1
260.1631	2.2
260.2049	3.6
261.0883	2.4
261.1229	44.5
261.1597	40.2
262.0805	1.9
262.1070	12.5
262.1183	3.2
262.1281	4.8
262.1432	8.8
262.1645	3.7
262.1800	100.0
262.1928	1.6
262.2018	1.3

Name: Isoleucyllysine
PrecursorMZ: 260.19656
RT: 8.8027
ExactMass: 259.18959167
Spectrum_type: 2
charge: 1
Formula: C12H25N3O3
SMILES: CCC(C)C(C(=O)NC(CCCCN)C(=O)O)N
Method: HCD
Collision_energy: [28.333334]
Isolation_window: 4.0
Ion_mode: P
Num Peaks: 73
70.0655	4.0
84.0447	1.3
84.0811	22.4
86.0603	1.8
86.0967	36.2
87.0443	2.5
87.1001	1.6
100.0758	2.1
101.0599	2.1
101.1075	2.8
104.0706	1.0
114.0550	1.1
114.0914	4.6
116.0707	1.6
128.0703	1.2
128.0818	1.0
129.1022	34.5
130.0862	31.9
130.1054	2.2
131.0894	1.6
132.0655	1.4
132.0767	14.0
146.0923	18.2
147.0957	1.0
147.1127	53.9
148.1159	3.3
165.0656	0.9
166.0863	1.3
167.0810	1.6
167.0895	1.4
182.0925	3.0
194.0924	0.9
200.1028	12.8
200.1275	1.4
201.1060	1.0
212.1029	2.1
213.1231	4.7
214.1182	3.2
215.1388	4.4
216.1228	0.9
241.1258	1.3
241.1542	1.0
242.1132	5.3
242.1859	4.8
243.1336	2.0
243.1699	1.7
244.1178	2.0
258.1332	3.4
259.0915	1.3
259.1282	15.3
259.1377	5.1
259.1404	8.8
259.1644	3.3
259.2015	1.4
260.0931	1.6
260.1123	1.8
260.1237	100.0
260.1484	3.8
260.1629	1.3
260.1965	34.8
261.1076	2.7
261.1238	1.5
261.1265	11.9
261.1441	29.3
261.1580	1.4
261.1804	1.0
261.2004	4.0
261.9279	0.9
262.1065	1.5
262.1279	3.0
262.1409	8.5
262.1476	2.6
262.1646	9.5

Name: Isomaltotriose
PrecursorMZ: 522.2024
RT: 9.8075
ExactMass: 504.16903493
Spectrum_type: 2
charge: 1
Formula: C18H32O16
SMILES: C([C@@H]1[C@H]([C@@H]([C@H]([C@H](O1)OC[C@@H]2[C@H]([C@@H]([C@H]([C@H](O2)OC[C@H]([C@H]([C@@H]([C@H](C=O)O)O)O)O)O)O)O)O)O)O)O
Method: HCD
Collision_energy: [28.333334]
Isolation_window: 4.0
Ion_mode: P
Num Peaks: 51
57.0703	9.3
60.0812	3.3
61.0288	5.5
67.0546	7.5
69.0338	8.8
69.0702	8.5
69.8262	2.9
71.0494	3.3
71.0858	10.6
73.0286	3.9
81.0701	11.4
83.0858	7.1
85.0286	100.0
85.1014	6.2
86.0320	5.4
86.0966	9.1
91.0392	12.1
95.0857	12.2
97.0285	18.4
97.1012	4.0
99.0441	5.0
101.0597	4.1
104.1071	42.1
109.0285	5.7
109.1012	7.1
115.0390	2.9
118.0862	10.8
123.1168	3.3
124.9997	4.0
127.0389	48.9
128.0424	2.8
145.0494	83.1
146.0528	4.6
155.0101	3.8
163.0599	58.4
164.0633	3.8
184.0731	56.7
264.2679	12.7
289.0915	5.7
325.1122	55.2
326.1158	7.1
520.3438	3.3
520.5078	11.2
521.5137	4.1
522.3550	12.8
522.5236	32.1
523.3589	3.5
523.4710	13.4
523.5292	7.0
524.3699	10.0
524.5043	4.4

Name: Isomarticin
PrecursorMZ: 377.08544
RT: 5.1115
ExactMass: 376.07943208
Spectrum_type: 2
charge: 1
Formula: C18H16O9
SMILES: CC12CC3=C(C(O1)C[C@@H](O2)C(=O)O)C(=C4C(=O)C=C(C(=O)C4=C3O)OC)O
Method: HCD
Collision_energy: [28.333334]
Isolation_window: 4.0
Ion_mode: P
Num Peaks: 17
195.0757	29.0
243.0644	17.9
271.0583	14.0
295.1646	17.3
299.0537	89.1
300.0566	16.5
303.0850	19.8
311.1589	18.4
315.0845	13.8
317.0640	40.9
327.0488	25.1
331.0797	94.1
332.0828	19.8
359.0744	100.0
360.0779	23.7
377.0851	57.3
378.0889	15.0

Name: Isopentenyladenosine
PrecursorMZ: 336.16608
RT: 6.8259
ExactMass: 335.15935417
Spectrum_type: 2
charge: 1
Formula: C15H21N5O4
SMILES: CC(=CCNC1=C2C(=NC=N1)N(C=N2)[C@H]3[C@@H]([C@@H]([C@H](O3)CO)O)O)C
Method: HCD
Collision_energy: [28.333334]
Isolation_window: 4.0
Ion_mode: P
Num Peaks: 15
148.0616	2.4
180.0655	2.5
210.1123	9.1
220.1189	11.1
317.1492	2.3
319.1285	2.6
335.1241	4.2
335.1591	5.9
336.1469	3.4
336.1661	100.0
336.1902	7.2
337.0811	2.8
337.1377	7.4
337.1699	15.8
338.1211	3.0

Name: Isophorone diamine
PrecursorMZ: 171.18561
RT: 5.8665
ExactMass: 170.17829871
Spectrum_type: 2
charge: 1
Formula: C10H22N2
SMILES: CC1(CC(CC(C1)(C)CN)N)C
Method: HCD
Collision_energy: [28.333334]
Isolation_window: 4.0
Ion_mode: P
Num Peaks: 35
55.0547	1.8
58.0656	72.9
59.0496	1.2
59.0690	2.2
67.0546	1.7
69.0703	1.0
72.0812	1.9
73.0652	0.7
73.0765	0.8
79.0546	1.2
81.0575	0.8
82.0655	2.0
89.0712	0.8
94.0653	0.9
95.0857	1.3
96.0810	12.8
97.0844	0.7
100.1121	0.8
109.1014	4.2
113.1075	5.2
114.0915	4.9
119.0857	1.2
126.0915	1.9
136.1122	1.2
153.1387	6.3
154.1227	15.5
155.1259	1.3
170.0654	1.1
170.0805	1.0
171.1492	100.0
171.1855	25.4
172.1525	9.2
172.1808	1.3
172.1889	2.3
173.1171	1.2

Name: Isopropalin
PrecursorMZ: 310.17561
RT: 4.665
ExactMass: 309.16885622
Spectrum_type: 2
charge: 1
Formula: C15H23N3O4
SMILES: CCCN(CCC)C1=C(C=C(C=C1[N+](=O)[O-])C(C)C)[N+](=O)[O-]
Method: HCD
Collision_energy: [28.333334]
Isolation_window: 4.0
Ion_mode: P
Num Peaks: 37
69.4567	2.1
70.0654	4.2
81.0337	6.6
85.0287	3.0
86.0965	2.0
120.0807	4.8
133.0647	1.9
136.0756	2.8
150.0911	3.6
163.1228	100.0
164.1070	3.4
164.1260	11.5
166.0859	2.8
177.1383	9.7
209.1281	7.2
248.1753	4.3
264.1225	2.1
266.1493	3.3
292.1166	2.7
293.1275	2.6
309.1225	6.6
309.1442	3.9
309.1584	3.3
309.1802	8.5
310.1069	4.8
310.1271	5.9
310.1421	3.2
310.1755	96.2
310.2127	3.0
311.1023	3.4
311.1382	9.9
311.1592	5.4
311.1784	15.5
311.1967	1.7
312.1205	4.6
312.1917	1.8
312.2156	1.9

Name: Isopropyl 2-amino-6-(hydroxymethyl)-4-(4-(methoxycarbonyl)phenyl)-8-oxo-4,8-dihydropyrano(3,2-b)pyran-3-carboxylate
PrecursorMZ: 416.13345
RT: 5.035
ExactMass: 415.12671663
Spectrum_type: 2
charge: 1
Formula: C21H21NO8
SMILES: CC(C)OC(=O)C1=C(OC2=C(C1C3=CC=C(C=C3)C(=O)OC)OC(=CC2=O)CO)N
Method: HCD
Collision_energy: [28.333334]
Isolation_window: 4.0
Ion_mode: P
Num Peaks: 36
70.0654	9.4
72.0811	8.8
85.0286	13.4
86.0966	8.6
89.0599	5.6
116.0705	11.2
136.0755	27.4
165.0545	7.4
173.0593	6.7
182.0810	15.2
207.0804	6.7
208.0964	15.5
231.0649	16.6
235.0748	26.9
236.1278	6.2
248.0914	10.0
263.0699	6.9
267.1009	25.2
275.0546	14.7
289.1172	6.1
293.0802	11.2
295.0958	16.6
321.0750	100.0
322.0784	21.3
327.1219	18.8
353.1010	28.9
354.1043	6.4
370.1277	70.9
371.1312	14.7
414.2282	7.8
415.1522	7.3
415.1865	9.4
416.1357	6.4
416.3358	10.7
417.1659	12.2
417.2018	11.0

Name: Isoproturon
PrecursorMZ: 207.14875
RT: 9.291
ExactMass: 206.141913202
Spectrum_type: 2
charge: 1
Formula: C12H18N2O
SMILES: CC(C)C1=CC=C(C=C1)NC(=O)N(C)C
Method: HCD
Collision_energy: [28.333334]
Isolation_window: 4.0
Ion_mode: P
Num Peaks: 28
69.5846	1.1
72.0810	0.9
97.4574	0.7
107.0729	2.3
134.0597	2.9
148.0755	1.2
149.0595	0.9
149.0833	1.7
150.0910	1.4
162.0909	1.5
188.0913	0.7
205.1048	22.9
205.1327	2.5
206.1074	21.8
206.1170	100.0
206.1274	5.1
206.1366	3.8
206.1533	1.5
206.1643	1.1
207.1114	2.4
207.1205	11.7
207.1486	22.3
208.0964	2.5
208.1326	7.3
208.1438	8.0
208.1523	2.1
209.1278	2.0
209.1642	1.0

Name: Isopyrazam
PrecursorMZ: 360.18743
RT: 8.1693
ExactMass: 359.18091869
Spectrum_type: 2
charge: 1
Formula: C20H23F2N3O
SMILES: CC(C)C1C2CCC1C3=C2C=CC=C3NC(=O)C4=CN(N=C4C(F)F)C
Method: HCD
Collision_energy: [28.333334]
Isolation_window: 4.0
Ion_mode: P
Num Peaks: 25
70.0656	12.4
84.0812	8.7
87.0444	7.0
89.0600	18.3
101.0602	6.9
103.0393	8.4
122.0811	5.9
129.0545	8.7
133.0861	9.4
147.0657	6.2
155.0930	10.4
195.1243	6.2
239.1044	7.0
240.1453	20.6
245.1250	12.9
270.1561	14.5
315.1668	12.0
358.3660	6.2
360.1920	100.0
361.1703	18.1
367.1965	5.9
371.1892	11.6
372.1877	10.4
374.3622	7.0
378.1759	77.9

Name: Isorosmanol
PrecursorMZ: 347.18065
RT: 13.6614
ExactMass: 346.17802393
Spectrum_type: 2
charge: 1
Formula: C20H26O5
SMILES: CC(C)C1=C(C(=C2C(=C1)[C@@H]3[C@@H]([C@@H]4[C@@]2(CCCC4(C)C)C(=O)O3)O)O)O
Method: HCD
Collision_energy: [28.333334]
Isolation_window: 4.0
Ion_mode: P
Num Peaks: 3
257.1492	38.1
347.1807	100.0
348.1843	16.7

Name: Isotalatizidine
PrecursorMZ: 408.27414
RT: 6.3367
ExactMass: 407.26717328
Spectrum_type: 2
charge: 1
Formula: C23H37NO5
SMILES: CCN1C[C@@]2(CC[C@@H]([C@@]34[C@@H]2C[C@@H](C31)[C@]5(C[C@@H]([C@H]6C[C@@H]4[C@@H]5[C@H]6O)OC)O)O)COC
Method: HCD
Collision_energy: [28.333334]
Isolation_window: 4.0
Ion_mode: P
Num Peaks: 45
86.0968	13.3
95.0857	5.8
100.1123	69.9
105.0700	3.8
107.0858	5.0
109.1014	6.6
119.0492	3.6
121.1013	4.7
133.1013	5.3
135.1168	9.6
145.1013	3.7
147.1169	4.9
149.1325	4.3
161.1325	4.4
215.1793	4.2
241.1949	7.7
243.2107	34.8
244.2143	5.6
247.1117	3.8
259.2055	7.3
274.0863	12.8
274.1227	5.8
275.0929	3.7
276.1377	4.1
278.1175	5.1
306.1124	14.5
306.1483	10.3
309.1128	4.1
310.2609	4.6
324.1220	4.2
356.2664	4.4
371.2944	11.2
372.2979	4.4
374.2779	4.0
406.3019	4.5
406.3307	4.4
407.2318	29.5
407.2681	25.2
407.3301	3.6
408.2123	4.1
408.2732	100.0
409.2764	25.7
410.2313	29.4
410.2678	14.9
410.3041	22.3

Name: Isovaleric Acid
PrecursorMZ: 125.05983
RT: 4.3269
ExactMass: 102.068079557
Spectrum_type: 2
charge: 1
Formula: C5H10O2
SMILES: CC(C)CC(=O)O
Method: HCD
Collision_energy: [28.333334]
Isolation_window: 4.0
Ion_mode: P
Num Peaks: 7
79.0546	40.9
97.0650	23.8
123.0553	21.2
124.0394	26.5
124.0756	23.5
125.0598	100.0
125.0711	29.8

Name: Isoxaben
PrecursorMZ: 333.1804
RT: 8.2348
ExactMass: 332.17360725
Spectrum_type: 2
charge: 1
Formula: C18H24N2O4
SMILES: CCC(C)(CC)C1=NOC(=C1)NC(=O)C2=C(C=CC=C2OC)OC
Method: HCD
Collision_energy: [28.333334]
Isolation_window: 4.0
Ion_mode: P
Num Peaks: 23
55.0547	1.2
83.0494	0.6
96.0445	1.0
101.0598	3.2
109.0761	1.1
133.0759	1.4
136.0758	0.8
140.0705	3.7
196.0966	6.1
233.0917	0.5
233.1282	15.9
234.1318	1.9
305.1606	1.4
332.1478	1.9
333.1572	3.3
333.1803	100.0
333.2217	0.6
334.1284	0.7
334.1615	0.9
334.1838	19.2
334.2006	0.5
335.1595	2.2
335.1957	0.8

Name: Isoxanthohumol
PrecursorMZ: 355.15001
RT: 4.0782
ExactMass: 354.1467238
Spectrum_type: 2
charge: 1
Formula: C21H22O5
SMILES: CC(=CCC1=C2C(=C(C=C1O)OC)C(=O)CC(O2)C3=CC=C(C=C3)O)C
Method: HCD
Collision_energy: [28.333334]
Isolation_window: 4.0
Ion_mode: P
Num Peaks: 18
70.0657	11.5
84.0447	6.8
89.0603	5.5
100.0760	13.8
218.1053	18.5
296.1241	12.7
354.1734	5.4
355.1461	100.0
356.1474	14.5
356.3535	7.0
357.1648	15.0
358.1504	9.0
358.3684	6.4
359.0917	6.0
359.1854	7.1
360.1659	14.9
367.1541	5.9
369.1673	7.4

Name: Jacobine N-oxide
PrecursorMZ: 368.17032
RT: 6.286
ExactMass: 367.16310214
Spectrum_type: 2
charge: 1
Formula: C18H25NO7
SMILES: C[C@@H]1C[C@]2([C@@H](O2)C)C(=O)O[C@@H]3CC[N+]4([C@@H]3C(=CC4)COC(=O)[C@]1(C)O)[O-]
Method: HCD
Collision_energy: [28.333334]
Isolation_window: 4.0
Ion_mode: P
Num Peaks: 17
70.0657	8.8
84.0811	10.5
154.0862	5.7
197.1277	6.2
367.1923	9.2
368.1728	100.0
369.1735	16.0
373.1818	6.0
374.1663	16.7
374.3630	8.9
376.1879	7.2
378.2078	8.0
379.1994	7.7
379.2592	17.7
380.1742	14.6
380.2209	17.4
381.2187	6.3

Name: Jasmonic Acid
PrecursorMZ: 211.13258
RT: 1.4503
ExactMass: 210.125594432
Spectrum_type: 2
charge: 1
Formula: C12H18O3
SMILES: CC/C=C\C[C@@H]1[C@H](CCC1=O)CC(=O)O
Method: HCD
Collision_energy: [28.333334]
Isolation_window: 4.0
Ion_mode: P
Num Peaks: 47
69.0702	19.4
69.4850	6.2
81.0701	6.8
85.0649	5.5
86.0966	4.1
88.0758	4.1
89.0598	7.5
91.0543	10.8
93.0699	12.0
95.0491	4.4
97.0761	8.0
105.0699	10.6
107.0855	7.4
109.0648	11.7
109.1011	4.6
119.0855	5.3
123.0109	5.8
131.0853	9.2
133.0857	4.6
133.1009	100.0
134.1043	12.3
137.0594	11.1
147.1165	27.7
149.0959	5.3
150.0547	7.6
151.0752	4.7
151.1114	80.6
152.0704	5.2
152.1146	9.8
155.0700	25.4
165.1272	6.8
166.0862	4.8
175.1114	12.3
193.0970	4.1
193.1218	31.0
194.0808	19.0
194.1253	4.7
195.1218	6.3
209.1282	4.6
210.0789	91.3
210.1118	10.7
211.0823	6.5
211.1071	11.5
211.1326	27.9
211.1438	35.7
212.0816	10.3
212.0915	18.9

Name: Jnj-39758979
PrecursorMZ: 222.17091
RT: 9.5384
ExactMass: 221.16404563
Spectrum_type: 2
charge: 1
Formula: C11H19N5
SMILES: CC(C)C1=CC(=NC(=N1)N)N2CC[C@H](C2)N
Method: HCD
Collision_energy: [28.333334]
Isolation_window: 4.0
Ion_mode: P
Num Peaks: 12
58.0655	4.5
86.0603	4.9
93.0699	3.9
121.0647	5.6
163.1228	100.0
164.1263	10.7
165.0545	13.5
205.1444	8.7
222.1121	9.0
222.1709	62.2
223.1747	5.2
224.1277	25.5

Name: Kaempferol
PrecursorMZ: 287.05473
RT: 1.7694
ExactMass: 286.04773803
Spectrum_type: 2
charge: 1
Formula: C15H10O6
SMILES: C1=CC(=CC=C1C2=C(C(=O)C3=C(C=C(C=C3O2)O)O)O)O
Method: HCD
Collision_energy: [28.333334]
Isolation_window: 4.0
Ion_mode: P
Num Peaks: 79
57.0339	0.8
69.0338	0.8
70.0654	2.9
73.0286	1.0
83.0494	0.8
84.0810	2.0
85.0286	1.1
86.0602	0.8
87.0443	0.9
97.0286	0.9
100.0757	1.6
101.0598	2.8
108.0444	0.8
112.0758	0.9
114.0550	1.7
115.0389	0.8
116.0706	2.3
121.0284	1.3
122.0599	1.1
125.0709	13.8
126.0913	1.0
127.0389	1.9
130.0498	1.0
130.0862	1.1
133.0496	1.4
138.0548	0.9
140.0705	1.2
142.0861	2.1
150.0549	0.9
152.0704	1.2
153.0183	0.8
153.0406	11.4
154.0438	0.9
158.0811	0.7
158.0922	1.8
160.0967	2.1
165.0180	0.7
168.0653	1.5
169.0970	1.1
185.0918	1.6
186.0759	24.9
187.0793	1.9
196.1079	2.0
197.0919	1.6
199.1077	0.7
208.0601	0.8
211.1074	2.3
216.1015	0.7
222.1122	1.5
238.1070	2.2
240.1342	0.7
241.1176	1.6
257.1127	2.4
268.1173	2.9
269.1123	2.9
270.0968	1.4
270.1327	1.1
285.1434	1.3
285.1567	3.9
285.1808	0.7
286.0913	0.9
286.1280	11.3
286.1408	2.4
286.1609	0.9
287.0214	0.8
287.0545	100.0
287.0806	1.1
287.1224	12.7
287.1598	3.4
287.2072	1.7
288.0578	15.5
288.1063	2.4
288.1209	2.3
288.1433	3.2
289.0597	1.4
289.1186	0.9
289.1376	2.1
289.1526	0.7
289.1750	2.5

Name: Kawain, (+-)-
PrecursorMZ: 213.09059
RT: 2.1858
ExactMass: 230.094294304
Spectrum_type: 2
charge: 1
Formula: C14H14O3
SMILES: COC1=CC(=O)OC(C1)/C=C/C2=CC=CC=C2
Method: HCD
Collision_energy: [28.333334]
Isolation_window: 4.0
Ion_mode: P
Num Peaks: 52
69.0701	0.7
70.0653	4.9
72.0809	1.6
81.0335	0.8
81.0700	1.4
86.0965	2.8
96.0444	1.2
97.0647	0.9
98.0600	4.7
99.0440	0.9
110.0598	0.7
110.0963	0.7
112.0756	1.1
116.0704	6.0
124.0755	0.8
126.0546	0.8
139.0863	1.1
152.0616	2.3
153.0695	16.1
154.0728	2.2
154.1222	0.8
165.1018	1.3
166.0858	4.1
166.1222	6.1
167.1174	1.7
168.1014	1.4
170.0722	1.8
180.0565	3.3
180.0648	0.7
181.0642	30.1
182.0672	4.1
194.0805	1.1
198.0669	5.6
199.0706	0.7
211.1065	1.3
212.0725	1.1
212.0910	2.1
212.1274	11.6
213.0685	0.7
213.0737	0.7
213.0903	100.0
213.0987	0.8
213.1118	0.7
213.1222	1.1
213.1306	1.2
213.1627	0.8
214.0604	4.4
214.0855	0.9
214.0937	14.8
214.1063	1.6
214.1429	0.8
214.2521	1.5

Name: Ketamine
PrecursorMZ: 238.0989
RT: 1.1425
ExactMass: 237.0920418
Spectrum_type: 2
charge: 1
Formula: C13H16ClNO
SMILES: CNC1(CCCCC1=O)C2=CC=CC=C2Cl
Method: HCD
Collision_energy: [28.333334]
Isolation_window: 4.0
Ion_mode: P
Num Peaks: 6
125.0151	75.1
179.0618	48.9
207.0567	58.8
220.0882	71.6
238.0985	100.0
240.0960	22.9

Name: Ketotifen
PrecursorMZ: 310.12791
RT: 5.6515
ExactMass: 309.1187354
Spectrum_type: 2
charge: 1
Formula: C19H19NOS
SMILES: CN1CCC(=C2C3=C(C(=O)CC4=CC=CC=C42)SC=C3)CC1
Method: HCD
Collision_energy: [28.333334]
Isolation_window: 4.0
Ion_mode: P
Num Peaks: 96
59.0607	2.4
69.0338	7.4
69.6975	1.5
70.0654	3.3
71.0495	1.3
81.0337	4.2
84.0809	4.4
85.0286	6.1
87.0316	5.0
91.0543	10.2
96.0444	7.3
97.0284	17.4
98.0600	1.8
99.0440	3.4
102.0548	1.3
103.0541	2.5
105.0698	2.1
107.0490	2.0
110.0599	1.4
111.0441	1.6
112.0392	5.8
120.0656	1.9
120.0806	49.5
121.0840	3.6
125.0706	1.9
127.0387	12.7
129.0697	1.6
130.0648	3.9
130.0861	1.3
131.0489	4.4
132.0805	32.8
133.0838	2.4
134.0961	2.3
143.0574	11.4
144.0653	1.3
144.0804	5.8
145.0494	1.8
149.0594	1.7
150.0547	1.8
150.0909	1.4
156.0805	3.3
161.0679	8.3
162.0910	4.6
166.0859	32.8
166.0968	1.5
167.0893	2.6
167.1175	4.3
171.0801	1.6
174.0910	2.2
178.0858	13.5
179.0812	3.8
180.1014	2.4
186.0909	2.1
195.1123	17.4
196.1159	4.0
197.1280	1.7
198.0908	5.6
202.0858	2.5
204.1013	1.5
210.0909	1.7
216.1015	1.5
220.0962	1.4
228.1013	3.2
232.0959	1.3
244.0962	10.6
245.0994	1.4
246.1118	14.9
247.1052	2.4
247.1170	1.9
264.1222	47.5
265.1259	7.1
274.1064	1.5
282.1325	5.1
291.1319	1.8
292.1170	64.8
293.1212	10.6
293.1458	1.8
294.1308	2.9
294.1469	1.7
308.1488	1.6
308.1710	22.2
309.1419	6.7
309.1750	7.5
310.0891	1.3
310.1273	100.0
310.1636	2.8
310.1728	1.8
310.1759	2.4
310.1873	1.4
310.2107	2.0
311.1302	15.9
311.1589	13.5
311.1744	4.0
312.1068	2.3
312.1413	7.6
312.1569	2.1

Name: Ketotifen Fumarate
PrecursorMZ: 310.12833
RT: 3.8189
ExactMass: 425.12969401
Spectrum_type: 2
charge: 1
Formula: C23H23NO5S
SMILES: CN1CCC(=C2C3=C(C(=O)CC4=CC=CC=C42)SC=C3)CC1.C(=C/C(=O)O)\C(=O)O
Method: HCD
Collision_energy: [28.333334]
Isolation_window: 4.0
Ion_mode: P
Num Peaks: 52
55.0547	2.1
70.0656	4.2
83.0496	5.0
84.0812	2.3
86.0604	1.6
101.0599	14.5
116.0709	2.1
130.0864	2.7
145.0761	5.7
146.0922	2.1
194.0803	1.8
195.1129	1.5
198.1239	2.6
210.0761	30.3
211.0795	3.0
214.1074	6.2
265.1174	1.8
278.1384	7.3
279.1360	1.9
283.1390	2.1
308.1208	2.0
308.1558	1.5
309.1450	11.1
310.1285	100.0
310.1698	2.6
311.1310	15.7
311.1624	5.9
312.1449	13.0
313.1478	11.3
314.1586	41.0
315.1030	8.5
315.1600	13.5
316.1132	4.0
316.1701	2.9
317.1793	2.4
318.1336	3.1
319.1294	3.5
320.1229	10.6
320.2065	2.2
321.1107	1.6
321.1507	3.4
322.1295	3.4
323.1269	2.8
323.1625	3.8
324.1522	12.3
325.1398	21.5
325.1751	2.9
326.1618	4.8
327.1641	23.8
328.1388	3.7
328.1752	5.7
329.1812	45.8

Name: Koaburaside monomethyl ether
PrecursorMZ: 364.15954
RT: 2.1094
ExactMass: 346.12638228
Spectrum_type: 2
charge: 1
Formula: C15H22O9
SMILES: COC1=CC(=CC(=C1OC)OC)O[C@H]2[C@@H]([C@H]([C@@H]([C@H](O2)CO)O)O)O
Method: HCD
Collision_energy: [28.333334]
Isolation_window: 4.0
Ion_mode: P
Num Peaks: 125
69.0341	3.7
70.0656	10.9
74.0605	5.3
81.0339	32.1
83.0498	3.2
84.0812	7.2
85.0288	4.0
86.0604	5.0
95.0494	2.9
97.0288	3.9
99.0443	4.3
100.0761	2.9
101.0600	4.1
110.0606	2.8
110.0718	2.6
111.0442	10.6
112.0760	4.0
114.0665	5.4
116.0708	4.2
118.0868	2.8
120.0811	2.8
122.0602	3.2
123.0446	2.6
124.0760	3.2
126.0555	3.1
126.0667	2.6
126.0917	5.3
127.0394	2.8
128.0712	2.9
129.0547	5.7
130.0865	5.1
136.0759	3.5
138.0551	5.5
138.0917	2.8
140.0345	2.7
140.0709	2.8
141.0660	4.4
142.0865	3.2
148.0764	2.6
150.0553	2.8
150.0913	3.7
152.0705	7.1
154.0865	8.9
156.1021	6.3
158.0815	9.4
164.0708	2.9
166.0865	11.5
168.0670	2.7
168.1010	3.8
174.0767	3.2
178.0863	5.0
180.1017	4.6
182.1175	8.3
184.0954	3.2
186.0876	27.5
190.0865	3.2
194.0804	4.9
196.0946	3.7
198.1125	21.5
200.0914	5.3
200.1077	6.1
201.0988	4.2
202.1075	16.1
208.0972	5.9
212.0897	4.5
214.1062	6.1
216.1230	8.6
217.0957	3.0
226.1085	3.1
228.1235	2.8
234.0765	4.2
236.0898	2.9
240.1216	2.9
244.1190	6.0
252.1240	3.5
258.1343	3.6
270.1344	5.0
280.1187	3.7
288.1444	11.1
289.1172	4.4
298.1303	4.2
310.1298	6.2
312.1454	5.8
328.1395	38.3
329.1434	6.9
330.1559	4.4
342.1557	9.8
346.1502	74.3
347.1545	11.9
348.1649	14.0
358.1531	3.4
360.1663	27.2
361.1726	4.2
362.1821	22.9
363.1520	15.4
363.1857	4.5
364.1620	41.1
365.1355	3.9
365.1765	12.5
366.1783	21.5
367.1485	9.1
367.1898	2.9
368.1372	7.2
368.1812	4.4
369.1747	9.6
370.1608	9.7
371.1519	4.5
371.1881	3.3
372.1766	10.0
373.1646	15.5
373.2077	2.8
374.1239	5.5
374.1599	10.4
374.3610	3.0
375.1914	23.9
376.1597	14.0
377.1363	3.7
377.1781	4.1
378.1267	2.7
378.1767	100.0
379.1869	16.5
380.1364	20.6
380.1889	12.0
381.1716	4.1
382.1564	9.0

Name: Koninginin A
PrecursorMZ: 285.20578
RT: 5.4348
ExactMass: 284.19875937
Spectrum_type: 2
charge: 1
Formula: C16H28O4
SMILES: CCCCCC[C@H]1[C@@H]2CC[C@H]3[C@H](CC[C@H]([C@]3(O2)O1)O)O
Method: HCD
Collision_energy: [28.333334]
Isolation_window: 4.0
Ion_mode: P
Num Peaks: 36
57.0338	1.3
60.0812	3.0
67.0545	1.7
79.0546	1.8
81.0701	2.9
91.0543	1.4
93.0700	4.9
95.0857	2.0
107.0855	4.4
109.1012	1.7
114.0913	2.3
119.0855	1.8
121.1011	6.9
131.0853	1.4
133.1012	2.6
135.0649	2.9
135.1167	3.2
137.0958	2.3
147.1166	1.9
149.0959	1.3
213.1637	2.1
231.1740	3.3
249.1844	23.0
250.1881	4.2
256.1284	1.7
267.1951	2.1
268.2992	3.2
284.1122	3.1
284.2965	1.5
284.3306	100.0
285.1228	2.4
285.1840	3.0
285.3339	21.2
286.1280	3.3
286.3100	1.8
286.3371	2.2

Name: Koninginin E
PrecursorMZ: 265.1795
RT: 5.046250000000001
ExactMass: 282.18310931
Spectrum_type: 2
charge: 1
Formula: C16H26O4
SMILES: CCCCCC[C@@H]([C@@H]1CCC2=C(O1)[C@@H](CCC2=O)O)O
Method: HCD
Collision_energy: [28.333334]
Isolation_window: 4.0
Ion_mode: P
Num Peaks: 90
55.0545	3.8
67.0546	46.3
69.0702	8.8
69.9514	2.8
70.0654	11.1
74.0603	2.9
79.0545	13.2
81.0701	59.9
82.0735	3.7
83.0493	5.2
83.0857	10.1
85.0651	4.2
91.0543	9.0
93.0700	18.6
95.0493	3.7
95.0856	98.6
96.0890	6.4
97.0648	5.3
97.1012	6.0
100.0757	18.5
101.0599	4.2
105.0699	6.5
107.0491	9.4
107.0855	14.9
109.0647	4.1
109.1012	44.3
110.1045	2.9
111.0804	6.3
116.0706	24.4
117.0698	3.9
118.0862	2.7
119.0855	17.4
120.0807	5.0
121.0647	10.1
121.1011	22.2
123.0803	8.5
123.1168	11.7
125.0596	14.4
125.0959	4.3
131.0853	9.5
133.1010	16.0
135.0803	7.4
135.1166	18.9
136.0618	2.6
137.0959	13.9
137.1322	2.9
139.0751	100.0
140.0784	8.2
145.1010	13.3
147.0437	2.7
147.0803	3.7
147.1167	3.8
149.0959	13.1
151.1117	4.1
153.0908	57.4
154.0942	5.0
157.0857	6.4
159.1166	4.8
163.1116	5.0
167.1064	5.3
173.1321	4.5
181.1219	2.9
191.1791	5.6
201.1634	24.4
202.1666	4.3
206.1174	2.9
211.1478	6.6
218.1168	3.2
219.1739	14.9
222.1120	2.6
229.1581	8.2
236.0910	2.5
237.1845	8.8
246.1121	4.2
247.1687	21.3
248.0911	4.6
248.1270	3.7
248.1723	3.1
249.0388	5.9
249.1230	2.7
264.0858	3.9
264.1222	12.7
265.1173	10.3
265.1556	3.1
265.1792	80.7
266.1015	17.3
266.1375	6.8
266.1835	14.9
267.1326	4.7
283.1897	10.7

Name: L,L-Diaminopimelic acid
PrecursorMZ: 208.13301
RT: 8.1358
ExactMass: 190.09535693
Spectrum_type: 2
charge: 1
Formula: C7H14N2O4
SMILES: C(C[C@@H](C(=O)O)N)C[C@@H](C(=O)O)N
Method: HCD
Collision_energy: [28.333334]
Isolation_window: 4.0
Ion_mode: P
Num Peaks: 23
87.0442	19.1
89.0599	10.4
112.0756	1.9
120.0807	2.1
122.0963	45.4
123.0996	3.9
131.0490	2.1
149.1070	2.4
190.0860	2.1
191.1174	2.4
206.1173	4.7
207.0760	5.9
207.1124	38.6
207.1207	2.5
208.0965	25.8
208.1165	5.8
208.1327	94.2
209.0916	5.9
209.1078	6.4
209.1279	100.0
209.1362	9.4
210.1120	6.2
210.1319	4.2

Name: L-(-)-Ornithine
PrecursorMZ: 133.09711
RT: 9.6087
ExactMass: 132.08987763
Spectrum_type: 2
charge: 1
Formula: C5H12N2O2
SMILES: C(C[C@@H](C(=O)O)N)CN
Method: HCD
Collision_energy: [28.333334]
Isolation_window: 4.0
Ion_mode: P
Num Peaks: 7
70.0654	100.0
74.0239	40.2
86.0967	14.9
88.0395	23.1
114.0914	10.7
116.0706	35.7
132.1018	14.5

Name: L-2-Aminoadipic Acid
PrecursorMZ: 162.07588
RT: 7.2973
ExactMass: 161.06880783
Spectrum_type: 2
charge: 1
Formula: C6H11NO4
SMILES: C(C[C@@H](C(=O)O)N)CC(=O)O
Method: HCD
Collision_energy: [28.333334]
Isolation_window: 4.0
Ion_mode: P
Num Peaks: 13
56.0498	13.4
73.0287	12.5
74.0602	16.4
88.0394	47.4
98.0600	100.0
102.0549	76.7
105.0334	25.3
116.0705	67.4
144.0651	33.1
162.0551	11.0
162.0575	15.4
162.0757	36.5
164.0914	39.9

Name: L-Alanyl-L-Glutamine
PrecursorMZ: 218.11327
RT: 9.7875
ExactMass: 217.10625597
Spectrum_type: 2
charge: 1
Formula: C8H15N3O4
SMILES: C[C@@H](C(=O)N[C@@H](CCC(=O)N)C(=O)O)N
Method: HCD
Collision_energy: [28.333334]
Isolation_window: 4.0
Ion_mode: P
Num Peaks: 12
84.0446	26.3
89.0711	14.2
101.0709	13.0
129.0657	12.5
130.0497	100.0
147.0761	42.2
171.0761	12.0
172.0601	26.0
184.0599	10.2
201.0866	9.8
218.1134	33.4
220.1188	10.1

Name: L-Alanyl-L-alanine
PrecursorMZ: 161.09203
RT: 7.1352
ExactMass: 160.08479225
Spectrum_type: 2
charge: 1
Formula: C6H12N2O3
SMILES: C[C@@H](C(=O)N[C@@H](C)C(=O)O)N
Method: HCD
Collision_energy: [28.333334]
Isolation_window: 4.0
Ion_mode: P
Num Peaks: 18
60.0811	5.6
90.0551	100.0
91.0583	3.6
102.0550	13.0
115.0866	21.3
116.0527	5.2
116.0706	4.7
143.0812	3.2
160.0616	7.2
160.0756	6.9
160.0966	8.6
160.1330	42.3
160.9012	15.7
161.0708	6.3
161.0916	36.2
161.1364	2.9
162.0550	2.9
162.0909	6.5

Name: L-Alanyl-L-norleucine
PrecursorMZ: 185.12837
RT: 3.2336
ExactMass: 202.13174244
Spectrum_type: 2
charge: 1
Formula: C9H18N2O3
SMILES: CCCC[C@@H](C(=O)O)NC(=O)[C@H](C)N
Method: HCD
Collision_energy: [28.333334]
Isolation_window: 4.0
Ion_mode: P
Num Peaks: 109
55.0182	0.9
55.0546	0.5
60.0448	4.7
67.0546	0.5
69.0337	0.8
69.0702	0.7
69.1922	0.7
69.5875	0.6
70.0654	0.9
71.0494	1.0
72.0810	0.7
81.0337	0.7
81.0701	5.4
83.0494	0.9
83.0858	4.0
84.0446	1.9
86.0966	2.3
93.0700	0.5
95.0492	1.2
95.0855	0.9
96.0445	1.1
96.0809	0.8
97.0649	0.9
97.4569	1.0
98.0601	5.2
99.0441	0.6
100.0758	6.8
109.0284	1.0
109.0649	2.0
110.0601	1.4
111.0440	2.0
111.0804	0.8
112.0757	1.0
113.0709	0.9
115.0502	1.9
122.0601	0.7
124.0392	1.4
124.0756	3.2
124.9998	1.0
125.0709	1.4
125.0787	1.1
125.1073	23.7
126.0548	1.6
126.0815	0.7
126.0912	100.0
126.1101	1.7
127.0390	0.7
127.0501	2.1
127.0752	3.1
127.0945	7.0
128.0703	0.9
138.0546	1.1
138.0911	2.2
139.0752	1.4
139.0943	1.2
140.0704	1.3
140.1068	1.2
141.0656	9.3
141.0907	0.6
141.1099	0.9
142.0862	0.7
143.1177	14.8
144.0652	1.0
144.1017	1.2
144.1210	1.1
145.0603	0.7
148.0753	0.8
150.0912	1.0
152.0705	2.3
154.0495	0.7
155.1177	1.8
156.1210	1.2
159.0762	6.9
166.0496	1.1
166.0861	3.5
166.1053	0.7
167.0702	1.5
167.0813	1.8
167.0892	1.3
167.1177	1.5
168.0652	0.8
168.1017	7.0
169.0605	24.9
169.0721	0.8
169.0955	2.1
170.0444	0.5
170.0642	1.2
170.0796	10.9
171.0828	0.8
172.0601	0.9
183.1121	0.9
184.0604	0.7
184.0730	3.0
184.0869	0.5
184.0961	6.2
184.1077	0.9
184.1157	1.6
184.1325	0.7
185.0741	1.4
185.0918	2.5
185.1029	13.3
185.1281	22.8
186.0757	1.2
186.0869	5.4
186.1124	6.2
186.1313	2.3
186.1484	0.9
187.0863	0.6
187.1069	0.7

Name: L-Arginine
PrecursorMZ: 175.11135
RT: 12.4853
ExactMass: 174.1116757
Spectrum_type: 2
charge: 1
Formula: C6H14N4O2
SMILES: C(C[C@@H](C(=O)O)N)CN=C(N)N
Method: HCD
Collision_energy: [28.333334]
Isolation_window: 4.0
Ion_mode: P
Num Peaks: 21
60.0562	52.9
60.0813	1.7
70.0656	51.4
71.0688	2.2
72.0813	4.4
96.9955	1.8
112.0874	5.1
114.1029	1.7
115.0870	1.9
116.0709	55.9
117.0743	2.9
130.0977	21.4
157.1088	4.2
158.0928	17.8
165.0214	2.3
175.1192	100.0
176.1233	4.9
180.0819	3.9
180.1053	21.7
181.1078	2.4
194.1176	1.7

Name: L-Arginine methyl ester
PrecursorMZ: 189.13464
RT: 4.5288
ExactMass: 188.12732577
Spectrum_type: 2
charge: 1
Formula: C7H16N4O2
SMILES: COC(=O)[C@H](CCCN=C(N)N)N
Method: HCD
Collision_energy: [28.333334]
Isolation_window: 4.0
Ion_mode: P
Num Peaks: 24
60.0562	74.9
69.0340	4.0
70.0656	78.5
71.0690	2.8
80.0501	4.8
98.0601	3.0
112.0871	8.5
116.0709	7.0
130.0864	85.0
131.0899	5.2
157.1084	2.8
165.0218	10.3
172.1083	28.5
189.1348	100.0
190.1384	7.6
192.1011	8.1
193.1334	7.2
194.1175	17.8
200.1185	6.4
202.1804	11.0
206.1169	4.4
207.1126	7.8
208.1334	21.3
209.1267	5.5

Name: L-Arginyl-L-phenylalanine
PrecursorMZ: 322.1866
RT: 8.5418
ExactMass: 321.18008961
Spectrum_type: 2
charge: 1
Formula: C15H23N5O3
SMILES: C1=CC=C(C=C1)C[C@@H](C(=O)O)NC(=O)[C@H](CCCN=C(N)N)N
Method: HCD
Collision_energy: [28.333334]
Isolation_window: 4.0
Ion_mode: P
Num Peaks: 76
60.0560	16.7
70.0654	58.6
71.0688	2.6
72.0811	1.7
84.0810	6.1
87.0442	18.3
97.0760	1.8
98.0601	2.6
110.0600	1.6
112.0870	12.4
115.0866	3.4
116.0705	4.0
120.0807	8.2
122.0598	1.2
126.0912	1.3
128.0702	1.2
130.0862	2.8
130.0972	1.6
131.0701	2.1
136.0392	1.8
140.0816	3.4
154.0861	13.3
157.1082	4.2
158.0924	4.0
166.0863	1.5
172.0966	10.9
175.1186	34.0
176.1216	1.9
177.1019	3.7
180.1014	1.4
181.0969	1.4
190.0971	2.3
196.1439	1.8
197.1282	2.5
223.1073	4.3
229.1177	1.3
236.1489	2.3
239.1026	1.8
242.1283	1.7
246.0739	1.2
246.1118	1.6
259.1536	1.5
262.1544	4.7
263.1385	5.0
263.1588	1.3
277.1521	1.2
287.1210	1.2
288.1333	2.3
303.1525	1.6
304.1362	2.4
305.1603	14.5
306.1609	1.7
320.1458	4.2
320.1816	1.3
320.1945	1.5
321.0811	1.4
321.1418	17.7
321.1794	8.8
322.1111	1.3
322.1252	6.3
322.1466	19.8
322.1842	100.0
322.2046	4.3
322.2126	3.5
322.2218	2.0
323.0730	1.7
323.1209	4.6
323.1564	11.8
323.1717	1.5
323.1906	18.1
324.0922	1.3
324.1248	2.0
324.1399	2.3
324.1566	3.3
324.1862	2.3
324.1986	8.0

Name: L-Aspartic Acid
PrecursorMZ: 134.04478
RT: 9.065
ExactMass: 133.0375077
Spectrum_type: 2
charge: 1
Formula: C4H7NO4
SMILES: C([C@@H](C(=O)O)N)C(=O)O
Method: HCD
Collision_energy: [28.333334]
Isolation_window: 4.0
Ion_mode: P
Num Peaks: 39
60.0448	5.7
61.0526	3.9
68.0498	19.0
69.0338	9.3
69.0702	4.8
70.0654	10.5
71.0495	7.9
72.0811	56.3
73.0637	7.7
74.0239	100.0
74.0603	17.8
81.0575	4.5
86.0602	52.9
86.0966	12.3
87.0442	91.8
87.0635	5.3
87.0793	5.9
88.0395	69.7
88.0476	8.1
88.0758	8.8
108.0682	14.8
109.0760	21.1
114.0913	30.7
115.0950	3.9
116.0341	5.6
116.0705	5.0
125.0469	7.2
130.0974	3.6
132.0653	19.6
132.1017	36.3
133.1050	6.8
133.5841	14.0
134.0446	4.6
134.0712	5.8
134.0810	45.0
135.0913	7.3
136.0214	7.2
136.0616	23.3
136.0754	8.0

Name: L-Aspartyl-L-phenylalanine
PrecursorMZ: 281.11303
RT: 1.4276
ExactMass: 280.10592162
Spectrum_type: 2
charge: 1
Formula: C13H16N2O5
SMILES: C1=CC=C(C=C1)C[C@@H](C(=O)O)NC(=O)[C@H](CC(=O)O)N
Method: HCD
Collision_energy: [28.333334]
Isolation_window: 4.0
Ion_mode: P
Num Peaks: 61
72.0811	3.6
86.0967	2.1
89.0600	11.5
120.0808	2.4
122.0601	2.1
124.0758	2.0
130.0499	2.3
133.0859	5.3
134.0600	18.6
135.0633	1.4
136.0756	16.5
140.0705	16.4
140.1433	3.6
150.0550	3.2
150.0913	2.4
152.0706	77.2
153.0738	5.9
162.0913	1.6
166.0537	1.5
177.1120	1.3
180.1018	1.6
199.0948	1.6
216.1019	2.2
234.1126	3.7
235.1074	1.4
235.1439	1.3
236.1180	2.9
244.0968	1.3
262.1069	4.9
262.1187	1.5
263.1009	1.7
264.1231	2.0
264.1344	2.4
264.1702	1.5
279.0975	1.6
279.1334	8.7
279.1699	1.9
279.2064	2.4
280.1170	14.4
280.1298	5.8
280.1535	6.7
280.1660	3.7
280.1890	2.5
281.0892	2.3
281.0939	2.9
281.1129	100.0
281.1268	4.8
281.1473	8.5
281.1841	3.7
281.2213	1.9
282.0960	3.0
282.1168	9.6
282.1234	39.6
282.1330	1.7
282.1457	5.5
282.1811	1.4
283.1060	3.3
283.1275	5.7
283.1444	1.5
283.1642	8.6
283.2002	2.6

Name: L-DOPA-C18:0
PrecursorMZ: 464.3366
RT: 1.1633
Spectrum_type: 2
charge: 1
SMILES: CCCCCCCCCCCCCCCCCC(NC(C(O)=O)CC1=CC(O)=C(O)C=C1)=O
Method: HCD
Collision_energy: [28.333334]
Isolation_window: 4.0
Ion_mode: P
Num Peaks: 42
70.0657	7.1
72.0813	3.3
81.0339	4.1
84.0449	2.0
84.0812	5.0
86.0968	5.0
89.0602	2.2
100.0760	3.6
110.0605	1.7
110.0715	1.5
111.0444	4.2
116.0709	8.4
118.0866	1.5
120.0811	1.9
126.0917	2.0
128.0708	18.2
130.0503	2.0
130.0865	2.2
136.0758	2.2
137.0599	1.9
140.1076	1.5
149.0602	1.5
156.1016	1.9
182.0807	2.0
187.1088	1.6
271.2054	2.0
345.1829	2.7
445.3148	1.9
446.3267	100.0
447.3298	29.9
448.3346	4.8
463.1776	2.1
464.3335	2.1
466.1835	2.2
467.2098	2.5
468.1624	2.0
470.1591	1.6
470.2698	3.7
474.3578	4.4
475.3605	1.6
478.1870	1.7
480.2056	2.2

Name: L-DOPA-C20:0
PrecursorMZ: 492.36782
RT: 1.9638
Spectrum_type: 2
charge: 1
SMILES: CCCCCCCCCCCCCCCCCCCC(NC(C(O)=O)CC1=CC(O)=C(O)C=C1)=O
Method: HCD
Collision_energy: [28.333334]
Isolation_window: 4.0
Ion_mode: P
Num Peaks: 10
164.1068	38.7
176.1067	22.8
204.1380	20.5
438.3362	23.0
456.3463	96.8
457.3495	26.9
474.3568	100.0
475.3604	26.5
492.3676	85.0
493.3716	25.3

Name: L-DOPA-C20:1
PrecursorMZ: 490.35233
RT: 4.7668
Spectrum_type: 2
charge: 1
SMILES: O=C(NC(C(O)=O)CC1=CC(O)=C(O)C=C1)CCCCCCCCCC=CCCCCCCCC
Method: HCD
Collision_energy: [28.333334]
Isolation_window: 4.0
Ion_mode: P
Num Peaks: 38
52.4821	6.9
52.5936	2.0
54.4833	1.4
54.5885	1.6
89.0590	4.0
89.0622	0.9
100.0749	4.3
100.0786	0.8
128.0695	8.8
128.0748	0.9
133.0848	2.6
140.1058	1.6
156.1019	0.9
161.1313	2.8
165.0906	0.8
177.1121	1.2
221.1381	0.8
255.2105	0.9
273.2211	2.1
297.2210	2.3
315.2313	1.5
383.2942	1.1
412.3209	1.3
430.3313	4.2
431.3347	1.3
454.3319	1.0
472.2871	1.0
472.3419	100.0
473.3452	31.5
474.3479	3.0
488.7327	1.5
489.2307	1.0
489.2857	0.7
490.3526	20.6
490.4984	0.8
491.2993	23.0
491.3560	5.8
492.3018	3.7

Name: L-DOPA-C20:2
PrecursorMZ: 488.3366
RT: 1.15485
Spectrum_type: 2
charge: 1
SMILES: O=C(NC(C(O)=O)CC1=CC(O)=C(O)C=C1)CCCCCCCCCC=CCC=CCCCCC
Method: HCD
Collision_energy: [28.333334]
Isolation_window: 4.0
Ion_mode: P
Num Peaks: 52
54.2594	7.0
54.3708	1.9
70.0648	7.9
70.0670	2.1
81.0331	1.8
81.0694	1.6
93.0692	1.5
95.0848	1.9
100.0750	5.3
107.0848	1.7
109.0640	1.7
109.1003	1.7
110.0593	2.6
119.0847	1.4
120.0799	1.4
121.0639	5.5
121.1003	2.3
123.0794	1.7
135.0803	2.1
135.1158	1.5
140.1060	1.8
147.0801	1.9
149.0959	1.8
149.1325	2.0
156.1018	2.2
161.0960	4.1
161.1324	14.7
162.1357	1.6
165.0909	6.4
178.1224	2.9
213.1636	1.9
217.0640	3.2
253.1948	3.0
271.2052	39.2
272.2086	6.8
273.2223	1.6
381.2783	19.8
382.2817	4.1
399.2873	1.9
410.3047	20.1
411.3089	5.6
428.3154	75.2
429.3189	19.0
430.3250	2.6
470.3263	8.5
471.3293	2.1
487.3176	3.5
487.3749	3.7
488.3369	100.0
488.3684	3.2
489.3402	28.5
490.3445	4.2

Name: L-Dilinoleoyllecithin
PrecursorMZ: 782.56889
RT: 2.8728
ExactMass: 781.56215551
Spectrum_type: 2
charge: 1
Formula: C44H80NO8P
SMILES: CCCCC/C=C\C/C=C\CCCCCCCC(=O)OC[C@H](COP(=O)([O-])OCC[N+](C)(C)C)OC(=O)CCCCCCC/C=C\C/C=C\CCCCC
Method: HCD
Collision_energy: [28.333334]
Isolation_window: 4.0
Ion_mode: P
Num Peaks: 12
60.0812	2.2
86.0966	10.2
104.1071	1.0
124.9997	4.6
184.0563	0.6
184.0731	100.0
184.0902	0.7
185.0765	3.7
781.5554	1.0
782.5679	12.3
783.5715	4.4
784.5847	0.8

Name: L-Histidine
PrecursorMZ: 156.07671
RT: 8.0481
ExactMass: 155.069476538
Spectrum_type: 2
charge: 1
Formula: C6H9N3O2
SMILES: C1=C(NC=N1)C[C@@H](C(=O)O)N
Method: HCD
Collision_energy: [28.333334]
Isolation_window: 4.0
Ion_mode: P
Num Peaks: 45
68.0499	0.3
70.0655	0.5
74.0968	0.5
84.0811	0.3
95.0494	1.7
95.0605	0.7
96.0446	0.5
110.0607	0.3
110.0634	0.6
110.0685	1.0
110.0714	100.0
110.0792	0.7
110.1087	0.3
111.0687	1.3
111.0747	5.1
111.0917	0.4
112.0757	0.3
115.9641	0.5
126.0549	0.4
126.0912	0.6
127.0753	0.4
128.0818	3.4
130.0630	0.3
130.0863	0.5
137.0709	0.9
138.0410	0.6
138.0546	0.3
154.0497	0.7
154.0862	2.4
154.0970	0.3
155.0704	0.6
155.0814	1.0
155.0891	0.5
155.1543	1.1
156.0421	3.1
156.0662	0.3
156.0767	48.5
156.0899	0.4
156.1015	0.6
157.0740	0.4
157.0800	2.9
157.0970	1.5
157.1699	0.8
158.0811	0.6
158.1175	0.4

Name: L-Histidine, methyl ester
PrecursorMZ: 170.09222
RT: 5.8252
ExactMass: 169.085126602
Spectrum_type: 2
charge: 1
Formula: C7H11N3O2
SMILES: COC(=O)[C@H](CC1=CN=CN1)N
Method: HCD
Collision_energy: [28.333334]
Isolation_window: 4.0
Ion_mode: P
Num Peaks: 35
58.0655	2.5
81.0449	14.8
95.0604	6.2
100.0757	3.2
109.0760	4.7
110.0599	1.5
111.0552	2.3
112.0868	3.2
122.0711	9.8
123.0551	1.5
123.0914	2.9
124.0754	4.2
128.0704	1.6
134.0710	9.4
138.0785	1.3
140.0815	1.6
151.0499	1.7
151.0863	5.0
152.0704	8.8
152.0815	27.6
153.0656	2.1
153.0848	2.2
153.1018	2.4
168.0683	1.4
168.1128	2.7
169.0968	19.1
169.1333	1.5
170.0804	2.8
170.0920	100.0
170.0985	2.5
171.0761	1.8
171.0958	6.8
171.1123	14.3
171.1489	5.3
171.1848	1.8

Name: L-Histidinol
PrecursorMZ: 124.08675
RT: 1.7512
ExactMass: 141.090211983
Spectrum_type: 2
charge: 1
Formula: C6H11N3O
SMILES: C1=C(NC=N1)C[C@@H](CO)N
Method: HCD
Collision_energy: [28.333334]
Isolation_window: 4.0
Ion_mode: P
Num Peaks: 32
56.0498	0.5
59.0606	0.4
68.0497	0.6
80.0495	0.3
81.0448	1.0
82.0526	1.0
83.0605	5.3
84.0638	0.4
85.0396	0.7
93.0447	0.8
95.0603	0.3
97.0760	0.5
107.0602	0.8
107.0727	0.6
122.0710	3.1
122.0963	0.7
123.0550	0.4
123.0662	0.3
123.0744	0.4
123.0797	0.3
123.0914	0.3
124.0399	0.3
124.0769	0.7
124.0866	100.0
124.0940	0.5
124.0961	0.6
125.0706	0.9
125.0829	1.6
125.0898	8.1
125.1070	0.3
126.0658	0.3
126.1021	1.1

Name: L-Homoarginine
PrecursorMZ: 189.13452
RT: 13.039
ExactMass: 188.12732577
Spectrum_type: 2
charge: 1
Formula: C7H16N4O2
SMILES: C(CCN=C(N)N)C[C@@H](C(=O)O)N
Method: HCD
Collision_energy: [28.333334]
Isolation_window: 4.0
Ion_mode: P
Num Peaks: 71
58.0649	6.5
60.0554	25.8
60.0587	3.0
62.0598	3.3
69.0332	13.8
70.0649	6.7
72.0804	8.2
74.0709	5.9
84.0812	13.0
86.0603	2.5
86.0968	2.8
87.0445	8.6
88.0760	3.2
89.0600	11.2
96.0447	8.3
96.9955	4.1
97.0764	2.7
98.0603	7.1
98.0968	13.8
101.0601	6.8
102.0916	12.6
104.0711	2.1
106.0865	4.9
106.9048	3.1
108.9044	2.5
114.0918	2.2
114.1029	55.5
115.1062	2.8
115.9537	2.1
116.0709	28.8
116.9615	1.9
118.0320	3.3
126.1021	2.0
130.0864	15.5
131.1293	11.0
133.0855	2.4
133.9643	2.4
135.0441	14.6
136.0419	4.4
142.1226	2.7
143.1178	4.0
144.1015	49.8
144.1128	14.7
145.1048	3.3
147.0102	2.0
149.0235	5.3
149.0599	3.0
149.9307	1.9
165.0216	48.3
166.0228	3.1
172.1083	4.9
182.0481	2.9
186.1239	11.2
187.1438	8.8
188.1391	8.1
189.1347	29.7
190.1077	8.6
190.1365	2.6
192.1376	2.2
193.1000	4.9
194.1178	44.2
195.1222	5.4
196.0968	11.7
198.1120	4.5
200.0733	1.9
202.1802	43.5
203.1504	100.0
203.1831	6.8
204.1541	8.7
206.0246	2.0
208.1345	3.2

Name: L-Homocysteine
PrecursorMZ: 136.0426
RT: 9.044550000000001
ExactMass: 135.0353997
Spectrum_type: 2
charge: 1
Formula: C4H9NO2S
SMILES: C(CS)[C@@H](C(=O)O)N
Method: HCD
Collision_energy: [28.333334]
Isolation_window: 4.0
Ion_mode: P
Num Peaks: 13
63.0141	4.9
64.0219	100.0
73.0287	21.6
96.9953	4.4
120.0475	8.8
136.0214	29.0
136.0426	25.1
136.0616	85.2
136.0755	4.8
137.0649	4.5
137.0708	4.5
138.0546	7.5
138.0911	15.2

Name: L-Homoserine
PrecursorMZ: 120.06556
RT: 3.3757
ExactMass: 119.058243149
Spectrum_type: 2
charge: 1
Formula: C4H9NO3
SMILES: C(CO)[C@@H](C(=O)O)N
Method: HCD
Collision_energy: [28.333334]
Isolation_window: 4.0
Ion_mode: P
Num Peaks: 8
56.0500	49.6
74.0605	100.0
82.0655	7.0
84.0448	10.1
102.0551	28.0
112.0395	9.5
118.0864	20.4
120.0657	8.4

Name: L-Hydroxylysine
PrecursorMZ: 145.09708
RT: 8.6732
ExactMass: 162.10044231
Spectrum_type: 2
charge: 1
Formula: C6H14N2O3
SMILES: C(C[C@@H](C(=O)O)N)[C@H](CN)O
Method: HCD
Collision_energy: [28.333334]
Isolation_window: 4.0
Ion_mode: P
Num Peaks: 11
56.0498	31.1
70.0654	46.2
82.0654	12.3
84.0809	19.7
100.0757	100.0
144.0806	11.6
144.1017	11.2
145.0758	24.1
145.0969	31.4
145.1333	30.2
146.0809	20.3

Name: L-Isoleucyl-L-tryptophan
PrecursorMZ: 318.18121
RT: 4.642266666666666
ExactMass: 317.1739416
Spectrum_type: 2
charge: 1
Formula: C17H23N3O3
SMILES: CC[C@H](C)[C@@H](C(=O)N[C@@H](CC1=CNC2=CC=CC=C21)C(=O)O)N
Method: HCD
Collision_energy: [28.333334]
Isolation_window: 4.0
Ion_mode: P
Num Peaks: 79
60.0449	2.0
69.0703	5.2
70.0656	3.3
72.0812	6.3
77.0060	3.4
81.0339	4.4
86.0968	100.0
87.0556	2.2
87.1002	5.5
94.0324	4.2
114.0916	1.6
116.0709	2.2
124.0758	2.4
130.0651	3.9
132.0809	4.7
132.1020	1.9
135.0441	2.7
141.1024	6.2
144.0810	5.1
144.1384	3.0
146.0602	4.9
148.0758	38.5
149.0839	1.7
159.0918	13.1
159.1130	23.8
160.1164	1.9
166.0864	38.8
167.0897	2.5
170.0603	2.1
172.0871	4.3
172.1334	6.7
173.1286	8.4
174.1028	4.4
176.0705	2.0
176.8755	4.5
178.8734	3.3
185.1649	2.4
186.1490	1.7
187.1078	11.6
188.0707	66.8
189.0740	6.7
194.0813	27.5
195.0841	1.9
201.1233	3.9
205.0972	56.8
206.1006	5.2
213.2045	1.9
225.1024	2.0
227.0813	2.9
228.1023	2.7
259.1435	2.8
271.1559	2.4
273.1598	12.9
274.1639	2.1
291.1702	3.9
299.1028	8.9
299.1387	1.7
300.1064	1.7
301.1546	21.3
302.1597	2.8
317.1124	8.1
317.1479	6.0
317.1609	8.5
317.1864	2.1
317.2075	3.5
318.0964	1.6
318.1100	1.8
318.1139	1.9
318.1315	6.3
318.1815	44.5
318.2023	2.5
319.1278	6.2
319.1654	13.9
319.1846	9.3
319.2025	2.8
320.1122	4.5
320.1479	3.1
320.1657	2.0
320.1999	2.1

Name: L-Leucyl-L-alanine
PrecursorMZ: 203.13888
RT: 1.7085
ExactMass: 202.13174244
Spectrum_type: 2
charge: 1
Formula: C9H18N2O3
SMILES: C[C@@H](C(=O)O)NC(=O)[C@H](CC(C)C)N
Method: HCD
Collision_energy: [28.333334]
Isolation_window: 4.0
Ion_mode: P
Num Peaks: 6
55.0547	1.9
72.0812	100.0
73.0845	4.0
86.0968	3.3
104.0708	9.9
203.1388	2.8

Name: L-Lysine-L-valine
PrecursorMZ: 246.1811
RT: 9.3701
ExactMass: 245.1739416
Spectrum_type: 2
charge: 1
Formula: C11H23N3O3
SMILES: CC(C)[C@@H](C(=O)O)NC(=O)[C@H](CCCCN)N
Method: HCD
Collision_energy: [28.333334]
Isolation_window: 4.0
Ion_mode: P
Num Peaks: 96
60.0561	3.1
70.0655	9.7
72.0812	39.6
84.0811	37.4
85.0844	1.8
86.0603	1.8
86.0968	13.4
90.0553	4.6
96.0444	1.7
98.0603	2.4
98.0966	4.4
100.0759	3.7
101.1075	3.5
112.0758	1.9
112.0871	2.0
114.0550	2.3
114.0915	8.5
115.0867	2.4
116.0707	7.0
118.0862	1.7
120.0808	1.8
121.0885	1.8
126.0913	1.9
128.0706	1.9
129.1023	48.8
130.0863	37.4
130.1054	2.8
131.0576	2.0
131.0896	2.6
132.0768	22.8
132.1019	3.5
133.0318	13.4
140.0819	2.1
142.0863	2.3
144.0656	8.6
147.1128	67.5
148.1161	3.8
154.0864	5.9
158.0811	1.9
158.0923	2.6
161.0708	1.9
171.1128	1.8
172.0970	2.6
174.0762	1.7
175.1189	6.2
182.1175	2.1
183.1126	2.0
184.0716	3.1
186.0763	1.6
186.0873	14.7
188.0918	1.5
199.1440	3.3
200.1281	6.4
201.1233	6.0
203.1137	9.6
210.1231	2.0
211.1439	1.8
212.0915	1.8
227.1388	1.7
227.1754	1.7
228.0976	8.4
228.1229	5.7
228.1341	2.4
228.1592	7.9
228.1706	4.9
229.1182	4.8
229.1541	3.8
230.1021	4.3
230.1387	6.3
245.0904	2.5
245.1003	3.7
245.1128	5.2
245.1209	3.8
245.1291	6.6
245.1492	35.8
245.1603	2.9
245.1858	14.4
246.0771	3.0
246.1088	100.0
246.1332	17.5
246.1467	13.4
246.1701	2.5
246.1808	38.3
247.1078	7.8
247.1099	9.9
247.1175	2.2
247.1285	17.4
247.1431	13.0
247.1645	10.3
247.1844	4.4
248.0944	29.6
248.1127	5.6
248.1277	40.3
248.1387	4.5
248.1494	12.4
248.1637	2.0

Name: L-Lysyl-L-proline
PrecursorMZ: 244.16511
RT: 7.357
ExactMass: 243.15829154
Spectrum_type: 2
charge: 1
Formula: C11H21N3O3
SMILES: C1C[C@H](N(C1)C(=O)[C@H](CCCCN)N)C(=O)O
Method: HCD
Collision_energy: [28.333334]
Isolation_window: 4.0
Ion_mode: P
Num Peaks: 166
58.0656	0.8
59.0496	1.1
60.0561	0.5
67.0547	0.5
69.0338	0.6
70.0656	51.5
71.0495	1.0
71.0689	2.1
72.0812	7.0
74.0605	0.5
81.0339	0.5
84.0448	0.7
84.0811	26.2
85.0286	0.8
85.0652	0.7
85.0843	1.3
86.0604	0.8
86.0717	1.3
86.0967	1.4
87.0445	0.8
87.0557	4.4
88.0761	0.8
89.0600	4.1
90.0553	5.4
96.0447	0.7
97.0286	0.9
97.0763	1.1
98.0602	1.2
98.0967	1.2
98.9844	1.8
99.0443	0.6
100.0760	1.3
101.0601	0.6
101.1075	0.9
102.0552	1.3
104.1072	2.8
108.0447	1.3
108.0808	0.7
110.0606	0.6
110.0715	1.9
110.0966	0.8
111.0440	0.7
112.0761	0.8
112.0872	7.6
113.0713	1.7
114.0554	0.7
114.0664	7.8
114.0916	0.6
114.1026	1.5
115.0505	6.0
115.0868	14.2
116.0542	0.5
116.0708	51.6
116.0890	0.8
117.0742	2.7
118.0864	3.3
122.0605	1.1
122.0708	0.6
123.0444	0.7
123.0555	3.1
124.0396	0.6
124.0758	0.5
125.0711	0.7
126.0551	5.7
128.0708	0.7
129.1023	1.3
130.0864	15.3
131.0903	0.9
132.0768	28.0
133.0806	0.5
133.0864	0.9
133.0971	16.5
134.1013	0.7
136.0763	0.7
142.0864	0.5
147.1127	2.0
150.0914	2.0
152.0706	0.5
153.1022	1.5
154.0864	1.9
156.0762	0.6
158.0925	14.4
159.0765	16.9
159.0955	0.6
160.0798	1.0
163.1231	1.6
164.1069	0.6
166.0850	0.5
166.0976	0.5
167.1178	0.7
169.0973	0.5
170.0811	0.8
171.1126	0.9
172.0970	1.0
175.1192	0.5
184.1091	0.7
196.0968	0.6
197.1282	0.8
198.1124	0.5
199.1073	1.4
202.1187	11.5
202.1420	0.5
203.1217	0.9
209.1275	0.7
210.0793	2.3
212.1040	0.8
213.1244	0.7
216.0862	1.1
216.1214	0.9
227.1533	1.0
228.1238	0.5
229.1296	8.1
230.1133	1.8
230.1340	0.8
234.0972	1.3
235.1209	0.7
238.1196	0.9
242.1039	0.7
242.1371	1.1
243.1330	3.0
244.0970	6.9
244.1191	1.3
244.1678	3.3
245.0981	1.1
245.1274	1.0
245.1509	0.8
246.1339	3.5
246.1531	0.5
247.0867	0.7
247.1402	100.0
247.1643	8.3
248.0356	1.3
248.1435	11.1
248.1678	0.8
249.1219	0.5
249.1454	1.7
250.1063	0.7
250.1649	13.9
251.1045	0.7
251.1390	0.8
251.1690	1.7
252.1225	0.6
252.1687	0.5
253.1188	3.0
253.1547	10.1
254.1025	1.6
254.1392	4.6
255.1327	5.5
256.1152	3.6
256.1602	0.5
257.1227	1.2
257.1487	5.4
257.1970	0.6
258.0813	0.5
258.1501	2.0
258.1810	1.9
259.1265	0.6
259.1441	1.1
259.1677	0.5
260.0914	0.7
260.1506	1.9
261.1526	0.9
262.1276	4.4
263.1387	0.6
263.1598	0.6
264.1271	0.7

Name: L-Malic Acid
PrecursorMZ: 152.05678
RT: 6.9803
ExactMass: 134.02152329
Spectrum_type: 2
charge: 1
Formula: C4H6O5
SMILES: C([C@@H](C(=O)O)O)C(=O)O
Method: HCD
Collision_energy: [28.333334]
Isolation_window: 4.0
Ion_mode: P
Num Peaks: 53
80.0498	0.2
89.0600	0.2
91.0545	0.7
96.0447	0.3
96.9954	0.3
97.3990	0.2
108.0446	0.2
109.0518	0.6
110.0351	1.7
110.0602	0.4
122.0601	0.2
125.0597	0.5
126.0550	0.7
126.0915	0.2
128.0456	1.7
132.1021	0.2
134.0462	0.2
134.0635	0.8
135.0302	1.9
136.0758	0.8
150.0552	0.2
150.0915	4.8
150.1124	0.3
150.1279	1.5
151.0622	0.4
151.0868	0.7
151.0949	0.9
151.1231	0.2
151.1313	0.3
151.9951	0.1
151.9980	0.2
152.0402	0.2
152.0441	0.7
152.0466	0.7
152.0568	100.0
152.0702	8.5
152.0817	0.1
152.1069	1.6
152.1189	0.3
153.0407	9.2
153.0538	1.9
153.0601	5.4
153.0657	0.3
153.0734	0.7
153.1023	0.4
153.1387	0.2
154.0248	0.6
154.0321	4.8
154.0437	0.4
154.0498	1.8
154.0864	0.6
154.0975	0.2
154.1228	0.1

Name: L-Norvaline
PrecursorMZ: 118.08631
RT: 7.909
ExactMass: 117.078978594
Spectrum_type: 2
charge: 1
Formula: C5H11NO2
SMILES: CCC[C@@H](C(=O)O)N
Method: HCD
Collision_energy: [28.333334]
Isolation_window: 4.0
Ion_mode: P
Num Peaks: 16
55.0546	2.2
58.0655	14.0
59.0689	0.6
59.0733	12.1
70.0655	14.5
71.0688	2.0
72.0811	62.4
73.0844	3.3
91.0544	0.8
116.0706	2.5
116.1070	2.3
118.0775	0.6
118.0862	100.0
118.0951	0.7
119.0895	5.2
120.0476	0.6

Name: L-Phenylalanine, methyl ester
PrecursorMZ: 180.10189
RT: 0.6213
ExactMass: 179.094628657
Spectrum_type: 2
charge: 1
Formula: C10H13NO2
SMILES: COC(=O)[C@H](CC1=CC=CC=C1)N
Method: HCD
Collision_energy: [28.333334]
Isolation_window: 4.0
Ion_mode: P
Num Peaks: 16
80.0499	34.6
91.0545	20.5
96.0446	9.7
101.0600	21.7
121.0650	15.6
178.0865	11.6
178.1227	21.0
178.8733	11.9
179.1179	21.1
180.1019	100.0
180.1383	25.9
181.0970	9.6
181.1056	8.8
181.1338	12.9
182.0813	11.5
182.1175	16.1

Name: L-Phenylalanyl-L-alanine
PrecursorMZ: 237.12303
RT: 4.7242
ExactMass: 236.11609238
Spectrum_type: 2
charge: 1
Formula: C12H16N2O3
SMILES: C[C@@H](C(=O)O)NC(=O)[C@H](CC1=CC=CC=C1)N
Method: HCD
Collision_energy: [28.333334]
Isolation_window: 4.0
Ion_mode: P
Num Peaks: 55
81.0337	6.8
90.0551	0.8
91.0543	0.4
93.0699	0.4
95.0856	0.5
100.0758	1.8
103.0391	0.6
103.0544	0.5
109.0647	0.5
120.0717	0.7
120.0807	100.0
120.0876	0.5
120.0897	0.7
121.0395	0.4
121.0648	0.5
121.0840	7.8
135.0802	0.4
152.0816	2.4
162.0912	0.6
164.0702	0.4
172.0601	0.6
172.0758	0.4
175.0862	0.4
190.0859	1.2
191.0811	0.6
191.1176	0.7
192.0651	1.1
192.1015	1.5
192.1126	2.4
193.1331	0.4
200.0703	0.9
208.0966	0.6
218.0807	1.3
219.0756	0.5
219.1122	0.7
220.0963	1.2
220.1074	4.4
220.1320	0.5
235.1062	0.5
236.0914	3.9
236.1277	2.0
236.1636	0.9
237.0863	1.6
237.1018	0.6
237.1227	9.1
237.1476	0.7
237.1595	0.7
238.0275	0.9
238.0708	0.9
238.1069	2.8
238.1179	6.9
238.1268	0.4
238.1430	1.0
239.1014	0.6
239.1379	1.0

Name: L-Phenylalanyl-L-isoleucine
PrecursorMZ: 279.1699
RT: 6.6611
ExactMass: 278.16304257
Spectrum_type: 2
charge: 1
Formula: C15H22N2O3
SMILES: CC[C@H](C)[C@@H](C(=O)O)NC(=O)[C@H](CC1=CC=CC=C1)N
Method: HCD
Collision_energy: [28.333334]
Isolation_window: 4.0
Ion_mode: P
Num Peaks: 91
56.0498	3.1
58.0655	2.1
60.0811	9.0
70.0654	19.3
72.0811	13.4
74.0240	2.3
74.0603	8.6
80.0497	25.8
81.0337	14.2
83.0494	2.5
84.0810	9.8
86.0966	9.8
94.0652	2.2
95.0604	2.1
98.0601	3.3
108.0808	5.6
111.0442	3.4
114.0549	9.1
116.0706	31.5
117.0739	2.9
118.0863	4.3
120.0807	10.5
122.0600	2.1
128.0705	2.1
130.0497	1.7
130.0650	2.7
130.0860	3.3
132.0804	1.7
132.1018	2.5
133.0605	2.1
136.0755	22.2
141.1020	7.2
144.0653	3.4
146.0597	3.2
148.0391	14.7
148.0754	1.9
149.0228	2.0
149.1071	15.0
152.0704	2.6
152.1070	1.9
154.1225	1.8
158.0598	1.6
166.0531	9.3
169.1333	6.9
174.0547	2.5
177.1019	5.4
187.1075	2.0
190.1220	2.1
202.0495	2.0
214.1432	2.4
215.1386	26.1
216.1016	4.0
216.1223	3.7
216.1421	2.5
220.0600	3.7
232.1439	2.1
233.1308	6.1
233.1643	7.9
234.1123	5.1
234.1335	2.5
235.1438	4.6
244.1174	4.1
252.1223	2.1
260.1497	3.2
261.1227	6.9
262.1069	3.7
262.1283	11.2
263.1015	1.7
277.1542	12.1
278.1011	15.1
278.1237	11.5
278.1372	8.1
278.1496	14.8
278.1588	7.1
278.1745	3.9
279.0830	5.6
279.1079	1.7
279.1335	100.0
279.1695	95.2
279.2049	3.4
280.1025	2.4
280.1171	19.6
280.1363	12.2
280.1531	8.3
280.1728	10.7
280.1895	3.2
281.1120	2.2
281.1238	1.8
281.1482	10.6
281.1604	1.8
281.1852	16.9

Name: L-Phenylalanyl-L-leucine
PrecursorMZ: 279.16998
RT: 2.7219
ExactMass: 278.16304257
Spectrum_type: 2
charge: 1
Formula: C15H22N2O3
SMILES: CC(C)C[C@@H](C(=O)O)NC(=O)[C@H](CC1=CC=CC=C1)N
Method: HCD
Collision_energy: [28.333334]
Isolation_window: 4.0
Ion_mode: P
Num Peaks: 20
69.0816	1.1
69.0836	0.6
86.0966	15.9
87.0999	0.7
97.4578	0.8
120.0717	0.7
120.0807	100.0
120.0898	0.6
121.0840	8.3
132.1018	4.3
166.0863	1.0
232.1329	0.6
233.1644	2.5
234.1484	0.6
262.1432	0.6
279.0929	1.0
279.1343	1.4
279.1697	10.0
280.1175	1.1
280.1732	1.2

Name: L-Phenylalanyl-L-phenylalanine
PrecursorMZ: 313.15434
RT: 2.7872666666666666
ExactMass: 312.1473925
Spectrum_type: 2
charge: 1
Formula: C18H20N2O3
SMILES: C1=CC=C(C=C1)C[C@@H](C(=O)N[C@@H](CC2=CC=CC=C2)C(=O)O)N
Method: HCD
Collision_energy: [28.333334]
Isolation_window: 4.0
Ion_mode: P
Num Peaks: 18
71.0859	2.6
95.0857	2.7
112.8957	2.6
116.0707	2.6
120.0808	100.0
121.0841	7.5
141.1275	2.7
154.1227	5.5
166.0863	8.4
168.1019	11.8
169.1052	3.4
177.0544	3.4
295.2261	6.8
311.1603	2.9
312.3623	4.8
313.1544	11.4
313.2117	4.0
313.2731	4.4

Name: L-Prolinamide
PrecursorMZ: 115.08672
RT: 9.5121
ExactMass: 114.079312947
Spectrum_type: 2
charge: 1
Formula: C5H10N2O
SMILES: C1C[C@H](NC1)C(=O)N
Method: HCD
Collision_energy: [28.333334]
Isolation_window: 4.0
Ion_mode: P
Num Peaks: 20
68.0498	0.8
70.0615	0.7
70.0624	0.6
70.0640	1.5
70.0655	100.0
70.0695	0.6
71.0688	1.5
74.9378	1.2
79.0545	0.6
86.0602	0.7
92.9483	0.6
96.0809	0.7
97.0761	1.3
98.0601	1.0
114.0551	0.6
114.0662	2.1
114.0914	11.1
115.0866	3.8
115.0947	0.9
116.0706	23.0

Name: L-Pyroglutamic acid
PrecursorMZ: 130.0499
RT: 3.6964
ExactMass: 129.042593085
Spectrum_type: 2
charge: 1
Formula: C5H7NO3
SMILES: C1CC(=O)N[C@@H]1C(=O)O
Method: HCD
Collision_energy: [28.333334]
Isolation_window: 4.0
Ion_mode: P
Num Peaks: 25
56.0500	0.4
84.0343	0.7
84.0364	0.6
84.0448	100.0
84.0532	0.5
84.0554	0.8
84.0709	0.4
85.0288	1.6
85.0420	0.4
85.0480	4.4
88.0396	2.4
90.0552	1.3
102.0552	39.6
103.0585	1.5
130.0500	40.9
130.0707	0.3
131.0341	0.7
131.0535	2.4
132.0768	0.9
134.0965	1.9
137.1075	0.8
143.1181	0.9
148.0605	12.0
149.0642	0.6
149.1075	3.3

Name: L-Saccharopin
PrecursorMZ: 277.13909
RT: 8.6975
ExactMass: 276.13213636
Spectrum_type: 2
charge: 1
Formula: C11H20N2O6
SMILES: C(CCNC(CCC(=O)O)C(=O)O)CC(C(=O)O)N
Method: HCD
Collision_energy: [28.333334]
Isolation_window: 4.0
Ion_mode: P
Num Peaks: 55
70.0654	19.0
71.0494	4.8
84.0446	13.9
84.0810	100.0
85.0286	14.4
86.0966	9.4
101.0598	6.1
112.0757	18.9
112.0869	8.8
112.1122	5.3
116.0706	8.3
128.0704	8.5
130.0497	9.1
130.0861	56.1
132.1017	5.2
134.0810	15.2
142.0860	5.6
144.0654	5.5
149.0232	5.6
153.0546	8.0
168.1016	5.8
175.1438	6.6
178.0707	7.5
184.0965	13.4
195.1124	10.7
213.1229	51.4
214.1063	5.6
230.1382	14.5
231.1334	27.9
232.1172	4.7
233.1237	7.7
234.1848	13.2
241.0812	5.1
249.1445	6.7
258.0753	5.0
258.1089	9.7
258.1330	15.1
258.1692	6.7
259.1280	48.3
260.1132	8.3
260.1301	5.1
275.1352	15.6
275.1594	15.8
276.0860	9.5
276.1068	8.8
276.1214	46.1
276.1429	24.0
276.1570	4.9
276.1797	7.7
277.1179	11.0
277.1387	59.1
278.1007	11.5
278.1225	25.9
278.1382	39.6
279.1323	12.7

Name: L-Tenuazonic acid
PrecursorMZ: 198.11222
RT: 0.8396
ExactMass: 197.10519334
Spectrum_type: 2
charge: 1
Formula: C10H15NO3
SMILES: CCC(C)C1C(=C(C(=O)N1)C(=O)C)O
Method: HCD
Collision_energy: [28.333334]
Isolation_window: 4.0
Ion_mode: P
Num Peaks: 374
55.0547	0.9
56.0498	0.6
57.0339	1.2
57.0703	0.7
58.0655	0.7
59.0497	0.7
60.0448	1.1
62.0605	11.1
67.0547	1.3
68.0499	1.0
69.0340	1.7
69.0703	2.5
70.0656	6.0
71.0495	1.8
72.0448	0.6
72.0728	0.7
72.0746	0.5
72.0812	100.0
72.0878	0.6
72.0894	0.7
72.1015	0.4
73.0289	0.4
73.0845	4.2
74.0604	1.4
76.0761	2.3
79.0545	0.9
80.0497	1.0
81.0339	5.9
81.0702	1.5
82.0655	2.5
83.0495	2.4
83.0606	1.0
83.0860	0.7
84.0447	3.2
84.0811	2.0
85.0289	0.7
85.0651	2.4
86.0603	3.0
86.0927	0.5
86.0967	29.2
87.0444	2.0
87.1000	1.5
88.0396	0.9
88.0759	0.6
89.0601	3.3
90.0554	0.8
90.0633	1.1
91.0545	1.0
93.0702	1.5
94.0652	1.1
95.0132	0.4
95.0499	2.4
95.0606	13.1
95.0858	1.3
96.0446	3.1
96.0638	0.8
96.0812	0.6
97.0286	0.8
97.0650	1.1
97.0763	0.5
98.0603	4.3
98.0967	2.5
99.0443	2.2
100.0396	0.4
100.0759	5.5
100.1123	2.8
101.0600	3.5
102.0552	2.7
102.0916	1.7
104.0709	0.4
105.0701	2.7
106.0654	0.6
107.0493	9.3
107.0856	1.5
108.0447	4.2
108.0527	0.6
108.0810	1.1
109.0288	0.8
109.0651	1.3
109.0762	2.7
109.1012	0.8
110.0602	9.6
110.0714	0.8
110.0966	0.7
111.0443	3.4
111.0557	1.2
111.0637	0.8
111.0804	0.7
112.0396	0.9
112.0760	2.1
112.0872	5.7
112.1123	2.7
113.0598	1.4
113.0711	0.4
113.0903	0.5
114.0552	1.3
114.0666	0.5
114.0915	1.7
114.1279	1.3
115.0755	0.5
116.0708	10.8
117.0697	0.4
118.0864	5.2
119.0493	0.5
119.0851	1.1
120.0809	2.8
121.0650	1.4
121.0761	0.4
121.1011	0.9
122.0601	2.8
122.0964	0.8
123.0442	1.4
123.0806	1.3
123.0919	2.1
124.0394	0.8
124.0758	2.6
124.1121	0.5
125.0236	0.6
125.0599	1.1
125.0711	2.3
125.0962	0.9
126.0551	2.7
126.0661	0.5
126.0915	2.1
127.0394	0.7
127.0504	1.9
127.0760	0.4
127.0866	4.0
128.0707	4.5
128.1074	0.5
129.0549	0.7
129.0656	0.4
130.0498	2.1
130.0864	1.6
131.0856	1.2
132.0809	0.4
132.1019	1.7
133.0650	1.7
133.0760	0.4
133.0857	1.1
133.1011	2.4
134.0597	1.0
134.0966	0.6
135.0806	1.4
135.0919	1.6
135.1168	0.7
136.0392	0.4
136.0757	3.2
137.0459	0.4
137.0598	2.2
137.0710	0.7
137.0961	0.9
138.0551	1.7
138.0915	2.5
139.0754	0.9
139.0867	0.8
140.0344	0.8
140.0706	2.1
140.1071	0.7
141.0548	0.4
141.1023	0.8
142.0500	1.3
142.0863	1.3
143.0856	0.4
144.0657	3.6
144.0803	0.4
144.1021	2.2
145.0652	0.5
145.1011	0.8
146.0602	0.6
147.0442	0.6
147.0805	0.9
147.0917	0.4
147.1168	1.0
148.0757	2.1
148.0971	0.9
149.0597	1.1
149.0961	1.5
149.1074	0.5
150.0549	1.4
150.0913	5.8
151.0753	2.9
151.0868	6.8
151.1118	1.5
152.0706	8.5
152.0809	0.6
152.1069	3.0
153.0554	1.3
153.0749	0.6
153.0910	0.7
153.1023	2.7
154.0502	0.4
154.0863	6.8
154.1217	0.8
155.0700	0.7
155.0824	0.6
155.1067	0.7
155.1181	0.6
156.0654	0.7
156.1017	2.4
157.1018	0.4
157.1338	0.4
158.0602	1.4
158.0813	0.8
158.1176	6.4
158.1535	0.7
159.1183	0.7
160.0757	2.1
160.0971	0.6
161.0593	0.4
161.0712	0.5
161.0959	0.5
161.1076	0.4
162.0549	0.6
162.0910	2.4
163.0753	1.1
163.0862	1.2
163.1113	0.7
163.1229	0.8
164.0703	2.1
164.1067	2.3
165.0543	0.8
165.0908	0.7
165.1025	1.9
166.0726	0.7
166.0859	6.3
166.0974	0.5
166.1221	1.2
167.0702	0.6
167.0806	1.1
167.1180	1.8
168.0406	0.7
168.0651	0.5
168.1019	3.6
169.0970	7.2
169.1337	0.4
170.0800	5.9
170.1016	0.5
170.1176	1.9
171.0813	0.5
171.1143	0.4
171.1491	3.0
172.0745	1.3
172.0968	0.5
172.1326	0.7
173.1293	0.7
175.0880	0.9
175.1116	0.5
176.0700	0.6
176.1068	0.4
177.1025	2.0
178.0842	2.2
178.1000	1.3
178.1342	1.6
179.0694	0.5
179.0811	0.9
179.1180	0.9
180.0651	1.2
180.1013	5.8
181.0635	0.5
181.0851	0.6
181.0972	1.4
182.0807	1.5
182.1170	1.6
183.0648	0.5
183.1122	0.7
184.0601	0.5
184.0964	1.5
184.1189	0.5
184.1336	0.4
185.1033	31.7
185.1300	0.6
186.0581	0.7
186.1067	2.5
187.0873	0.4
187.1087	0.4
187.1439	0.8
188.0704	3.0
188.1284	0.9
189.1034	0.9
190.0856	2.1
191.0690	0.4
191.0819	0.5
191.1181	0.6
192.0651	1.0
192.1015	4.0
193.0852	0.4
193.0986	1.9
193.1195	0.8
194.0807	3.3
194.1160	1.1
195.1108	2.4
196.0966	6.2
196.1313	2.0
196.1474	5.0
197.0546	0.7
197.0934	3.4
197.1286	6.7
197.1478	1.2
198.0580	0.5
198.0759	1.0
198.0936	0.7
198.1117	5.7
198.1289	0.6
198.1502	0.5
199.0738	0.6
199.0875	1.1
199.1088	1.7
199.1447	0.7
200.0709	4.0
200.0916	2.5
200.1078	0.9
200.1269	2.1
200.1652	0.5
201.0746	0.6
201.1043	0.7
201.1256	0.8
201.1610	0.5
202.0843	0.6
202.0971	0.8
202.1072	0.9
202.1800	1.2
203.0821	1.2
203.1171	0.5
203.1392	1.2
204.0672	1.3
204.1013	4.7
204.1217	0.7
205.0981	2.5
206.0796	4.3
206.1178	2.5
206.1384	2.2
206.1745	1.5
207.0832	0.6
207.1130	7.4
207.1385	0.9
208.0603	0.6
208.0969	8.9
208.1325	7.2
209.0932	2.2
209.1284	19.4
210.0786	3.3
210.1117	15.7
210.1284	1.6
210.1491	2.2
211.1074	11.0
211.1449	4.4
212.0918	3.1
212.1087	1.1
212.1283	5.0
213.0978	1.8
213.1230	11.0
213.1600	1.0
214.0863	1.1
214.1072	4.2
214.1248	1.2
214.1438	5.3
215.0836	0.5
215.1060	0.4
215.1385	3.7
215.1740	1.4
216.0671	1.5
216.1020	2.3
216.1229	2.6
217.0975	3.1
217.1332	0.5
217.1544	7.1
218.0813	3.4
218.1011	0.4
218.1181	3.5
218.1377	0.4
218.1580	0.5
219.0785	0.5
219.1128	3.8

Name: L-Theanine
PrecursorMZ: 175.10779
RT: 8.9026
ExactMass: 174.10044231
Spectrum_type: 2
charge: 1
Formula: C7H14N2O3
SMILES: CCNC(=O)CC[C@@H](C(=O)O)N
Method: HCD
Collision_energy: [28.333334]
Isolation_window: 4.0
Ion_mode: P
Num Peaks: 21
60.0561	3.5
70.0656	31.6
112.0759	100.0
113.0792	5.8
114.0551	4.7
114.0916	2.9
116.0708	11.7
127.0866	2.2
128.1071	4.9
129.1024	6.8
130.0863	6.3
156.0768	7.3
156.1019	2.9
158.0813	3.1
173.0921	10.8
174.0873	7.2
174.1024	4.6
174.1125	6.4
175.1078	11.9
176.0923	13.0
176.8754	8.9

Name: L-Threonine
PrecursorMZ: 120.06556
RT: 3.5813
ExactMass: 119.058243149
Spectrum_type: 2
charge: 1
Formula: C4H9NO3
SMILES: C[C@H]([C@@H](C(=O)O)N)O
Method: HCD
Collision_energy: [28.333334]
Isolation_window: 4.0
Ion_mode: P
Num Peaks: 26
55.0546	3.9
56.0499	41.4
57.0339	2.7
58.0655	3.6
59.0734	4.6
70.0656	2.9
74.0604	100.0
75.0639	3.9
81.0449	3.2
82.0654	29.4
84.0447	6.9
84.0811	5.4
88.0759	2.9
98.0602	2.3
98.0965	2.2
102.0551	24.6
104.0709	2.7
114.0916	2.1
118.0864	36.2
119.0897	3.7
120.0657	7.0
123.0553	6.6
128.0707	15.2
129.0741	2.2
130.0863	5.3
132.1015	3.3

Name: L-Thyronine
PrecursorMZ: 274.10708
RT: 6.263
ExactMass: 273.10010796
Spectrum_type: 2
charge: 1
Formula: C15H15NO4
SMILES: C1=CC(=CC=C1C[C@@H](C(=O)O)N)OC2=CC=C(C=C2)O
Method: HCD
Collision_energy: [28.333334]
Isolation_window: 4.0
Ion_mode: P
Num Peaks: 19
69.4323	2.2
81.0336	1.8
114.0661	1.8
148.0756	2.5
152.0705	2.3
186.0913	1.7
214.0859	6.5
215.0811	2.9
228.1016	4.0
234.1851	5.1
255.1331	1.7
256.0959	2.3
257.0916	3.4
272.1121	3.7
273.1433	2.2
274.0718	1.7
274.1068	100.0
274.1263	3.0
275.1115	13.9

Name: L-Tryptophan, ethyl ester
PrecursorMZ: 233.12819
RT: 6.21095
ExactMass: 232.121177757
Spectrum_type: 2
charge: 1
Formula: C13H16N2O2
SMILES: CCOC(=O)[C@H](CC1=CNC2=CC=CC=C21)N
Method: HCD
Collision_energy: [28.333334]
Isolation_window: 4.0
Ion_mode: P
Num Peaks: 30
74.0603	1.1
86.0602	0.7
90.0552	0.8
96.0445	0.8
102.0550	100.0
103.0583	3.8
114.0550	0.8
116.0706	0.9
118.0652	0.9
126.0549	1.7
132.0654	1.0
140.0704	2.8
144.0807	4.0
146.0599	21.5
147.0633	2.0
156.1383	2.7
159.0995	1.5
168.0653	1.7
170.0600	0.9
174.1486	4.0
188.0703	72.9
189.0737	8.7
214.1070	1.0
216.1592	1.7
232.1174	2.3
233.1281	11.1
234.0764	0.9
234.0979	1.4
234.1322	2.1
234.1697	3.7

Name: L-Tryptophanylglycine
PrecursorMZ: 262.11821
RT: 5.214
ExactMass: 261.11134135
Spectrum_type: 2
charge: 1
Formula: C13H15N3O3
SMILES: C1=CC=C2C(=C1)C(=CN2)C[C@@H](C(=O)NCC(=O)O)N
Method: HCD
Collision_energy: [28.333334]
Isolation_window: 4.0
Ion_mode: P
Num Peaks: 34
70.0654	72.5
81.0337	6.5
96.0808	13.0
116.0705	54.2
120.0806	53.8
126.0910	4.7
130.0648	5.5
132.0805	11.0
144.0804	25.5
149.1071	9.3
158.0961	5.4
159.0913	23.6
170.0597	6.7
188.0699	5.5
200.0701	6.4
203.0811	7.8
218.0667	6.1
226.0856	5.5
244.0963	20.2
245.0910	29.7
245.1276	6.1
261.1220	23.3
261.1587	19.0
262.1063	61.8
262.1177	13.0
262.1281	14.3
262.1429	12.3
262.1644	6.1
263.0951	100.0
263.1095	7.3
263.1380	57.5
264.0721	13.9
264.0985	10.1
264.1218	20.3

Name: L-Tyrosine ethyl ester
PrecursorMZ: 210.11227
RT: 2.4654
ExactMass: 209.10519334
Spectrum_type: 2
charge: 1
Formula: C11H15NO3
SMILES: CCOC(=O)[C@H](CC1=CC=C(C=C1)O)N
Method: HCD
Collision_energy: [28.333334]
Isolation_window: 4.0
Ion_mode: P
Num Peaks: 20
62.0604	100.0
81.0337	35.1
87.0443	4.3
107.0492	67.5
108.0525	5.1
110.0601	3.3
121.0648	3.9
152.0707	2.8
192.1016	6.0
193.0857	4.5
208.0966	3.9
208.1322	4.1
209.0919	2.8
209.1282	4.6
210.0760	2.8
210.1123	18.5
210.1233	4.3
211.1074	7.4
211.1437	4.0
212.0919	2.6

Name: L-Tyrosyl-L-leucine
PrecursorMZ: 295.16496
RT: 4.805
ExactMass: 294.15795719
Spectrum_type: 2
charge: 1
Formula: C15H22N2O4
SMILES: CC(C)C[C@@H](C(=O)O)NC(=O)[C@H](CC1=CC=C(C=C1)O)N
Method: HCD
Collision_energy: [28.333334]
Isolation_window: 4.0
Ion_mode: P
Num Peaks: 34
81.0338	0.6
86.0966	5.8
91.0543	1.5
94.9297	0.4
102.0915	2.1
119.0492	3.1
121.0648	2.6
126.0914	0.5
130.0861	1.2
132.1018	3.1
136.0756	100.0
136.0840	0.6
136.0863	0.6
137.0788	8.0
147.0435	0.5
152.1069	0.4
154.0862	1.1
170.0812	0.6
249.1593	2.5
250.1435	0.8
278.1381	1.7
294.1304	0.7
294.1467	0.7
294.1812	1.5
295.1288	0.8
295.1438	0.8
295.1646	12.7
296.1376	1.0
296.1686	1.9
296.1961	0.4
297.1227	0.5
297.1433	0.8
297.1594	0.6
297.1802	0.5

Name: L-Tyrosyl-L-tyrosine
PrecursorMZ: 345.14403
RT: 5.1231
ExactMass: 344.13722174
Spectrum_type: 2
charge: 1
Formula: C18H20N2O5
SMILES: C1=CC(=CC=C1C[C@@H](C(=O)N[C@@H](CC2=CC=C(C=C2)O)C(=O)O)N)O
Method: HCD
Collision_energy: [28.333334]
Isolation_window: 4.0
Ion_mode: P
Num Peaks: 78
57.0703	0.7
69.3186	0.7
69.6163	0.6
70.0654	3.1
72.0811	3.1
81.0337	1.8
86.0966	3.5
91.0543	2.4
95.0857	0.8
97.4575	0.7
107.0492	1.4
110.0713	1.0
111.0438	0.7
116.0706	0.9
119.0491	4.6
121.0647	1.3
122.0600	0.6
123.0551	0.6
133.0758	0.6
136.0646	0.6
136.0755	100.0
136.0863	0.7
137.0787	7.8
141.1021	0.7
144.0806	1.0
147.0438	0.9
150.0911	2.0
162.0547	1.4
164.1068	1.2
165.0544	3.0
182.0808	5.3
183.1741	1.2
186.1233	2.5
187.1436	1.6
199.0858	0.7
200.1390	1.7
202.0968	1.1
214.1181	1.4
215.1384	1.2
222.0755	1.3
228.1339	0.9
229.1544	0.8
230.0915	0.6
230.1578	1.1
238.1069	0.9
240.2316	43.7
241.2351	11.6
242.2380	1.0
281.1490	2.5
295.1646	1.3
297.1436	1.2
299.1373	1.0
327.1325	0.8
328.1162	1.6
329.1349	0.7
329.1676	0.7
343.1473	0.7
343.1642	1.0
343.2014	1.0
343.2418	0.8
343.2943	1.9
344.1117	2.2
344.1312	1.3
344.1480	7.4
344.1816	0.9
344.1961	1.0
344.2971	0.7
345.1248	0.8
345.1428	16.3
345.1797	2.1
345.2151	0.7
346.1262	2.0
346.1457	3.4
346.1742	2.1
346.1993	0.9
346.2108	2.2
347.1338	1.0
347.1585	0.9

Name: L-Valyl-L-proline
PrecursorMZ: 215.13884
RT: 1.5359
ExactMass: 214.13174244
Spectrum_type: 2
charge: 1
Formula: C10H18N2O3
SMILES: CC(C)[C@@H](C(=O)N1CCC[C@H]1C(=O)O)N
Method: HCD
Collision_energy: [28.333334]
Isolation_window: 4.0
Ion_mode: P
Num Peaks: 43
55.0546	1.9
70.0654	15.2
72.0769	0.9
72.0811	96.6
73.0844	1.9
74.0603	2.2
81.0337	1.3
84.0445	1.0
86.0966	3.5
98.0965	0.8
100.0758	1.3
101.0710	0.8
112.1121	1.0
114.0913	2.0
116.0620	0.9
116.0706	100.0
117.0739	4.8
118.0862	1.8
127.0864	2.0
128.0705	0.9
141.1020	1.0
152.0705	2.3
169.1333	1.0
170.0800	0.8
171.1487	0.9
185.1029	1.4
186.1063	1.0
187.1438	1.5
197.0916	1.3
198.0906	2.7
214.0864	1.0
214.1071	2.7
214.1432	0.9
215.0812	1.4
215.1022	2.7
215.1386	16.0
216.0653	1.0
216.1016	3.0
216.1223	4.0
216.1418	1.7
217.0967	4.2
217.1173	1.0
217.1541	2.5

Name: L-Valyl-L-valine
PrecursorMZ: 217.15446
RT: 4.7275
ExactMass: 216.1473925
Spectrum_type: 2
charge: 1
Formula: C10H20N2O3
SMILES: CC(C)[C@@H](C(=O)N[C@@H](C(C)C)C(=O)O)N
Method: HCD
Collision_energy: [28.333334]
Isolation_window: 4.0
Ion_mode: P
Num Peaks: 37
55.0546	1.8
69.6557	0.4
70.0655	0.5
72.0608	0.4
72.0769	0.6
72.0811	100.0
72.0852	0.8
73.0844	3.9
84.0810	0.3
86.0966	0.7
100.1121	0.4
106.0652	0.3
116.0705	1.0
118.0862	4.0
130.0497	0.5
140.0163	0.3
146.0600	0.6
152.0705	0.4
170.0807	0.7
170.1172	0.6
171.1490	1.9
173.0704	0.7
186.0216	1.5
198.0756	0.4
198.1486	0.4
201.0654	0.4
216.0857	1.0
216.1009	0.4
216.1221	0.7
217.0967	0.8
217.1542	4.0
218.0810	1.3
218.1017	0.3
218.1170	0.6
218.1578	0.4
219.0759	2.4
219.1123	0.5

Name: L-alpha-Aspartyl-L-proline
PrecursorMZ: 231.0974
RT: 6.2723
ExactMass: 230.09027155
Spectrum_type: 2
charge: 1
Formula: C9H14N2O5
SMILES: C1C[C@H](N(C1)C(=O)[C@H](CC(=O)O)N)C(=O)O
Method: HCD
Collision_energy: [28.333334]
Isolation_window: 4.0
Ion_mode: P
Num Peaks: 137
60.0448	2.1
69.0338	4.7
69.0702	2.2
69.1244	2.4
69.1265	2.2
69.6329	1.7
70.0654	79.2
71.0494	5.3
71.0688	4.9
72.0811	30.9
74.0603	3.6
81.0337	8.1
82.0654	4.4
83.0494	2.0
84.0446	12.6
84.0810	3.6
85.0286	1.7
85.0651	2.3
86.0581	1.8
86.0602	100.0
86.0966	53.1
87.0443	1.9
87.0553	3.5
87.0635	4.0
87.1000	3.9
88.0395	3.6
90.0551	18.3
96.0445	1.8
97.4567	2.6
98.0601	9.2
99.0441	13.1
100.0475	1.5
100.0757	5.3
102.0550	17.1
110.0601	9.1
112.0393	2.0
112.0757	4.1
113.0709	61.2
114.0549	84.2
114.0743	2.2
115.0583	3.9
115.0865	15.2
116.0706	37.6
117.0546	25.9
117.0659	1.7
117.0739	2.4
118.0861	3.7
120.0443	3.3
120.0654	3.1
122.0599	1.9
124.0755	4.0
125.0709	1.8
126.0548	3.9
126.0914	2.2
127.0864	4.8
128.0704	41.6
129.0657	4.7
129.0738	2.1
130.0497	12.1
130.0860	2.0
132.1017	11.2
133.0606	5.1
138.0548	2.2
138.0912	3.2
140.0341	1.5
140.0704	4.3
141.0657	2.4
141.1020	3.4
142.0496	7.4
142.0858	2.5
144.1019	2.0
148.0601	2.0
152.0704	10.3
154.0863	1.6
156.0652	1.7
156.1019	2.3
159.0762	21.7
160.0798	1.5
166.0860	16.4
167.0814	3.2
168.0653	14.3
168.1017	8.1
170.0809	1.9
171.0761	2.9
172.0598	2.7
173.0916	4.9
183.1124	4.0
184.0966	12.0
184.1080	1.6
184.1329	2.4
185.0706	1.7
185.0918	12.2
185.1281	21.7
186.0759	11.2
186.1121	15.8
186.1313	1.8
187.0710	3.4
187.1074	3.8
188.0705	3.0
188.0914	1.6
194.0808	4.5
195.0763	2.3
196.0602	4.6
198.0759	6.3
201.1230	5.4
202.1069	14.4
202.1267	2.1
212.0914	10.4
213.0865	33.6
213.1228	4.2
214.0505	1.5
214.0711	2.9
214.0906	3.7
214.1068	6.7
215.0812	2.0
215.1018	4.5
229.1175	5.7
229.1542	13.7
230.0465	2.3
230.0810	21.2
230.1019	52.7
230.1137	4.4
230.1386	6.3
230.1576	3.5
231.0758	2.8
231.0848	3.0
231.0958	12.8
231.1058	3.0
231.1334	66.3
232.0605	3.9
232.0827	7.0
232.0969	5.6
232.1075	7.1
232.1176	17.1
232.1369	5.6
232.1535	2.6
233.0917	7.1

Name: L-beta-Homoisoleucine
PrecursorMZ: 146.11763
RT: 5.0422
ExactMass: 145.110278721
Spectrum_type: 2
charge: 1
Formula: C7H15NO2
SMILES: CC[C@H](C)[C@@H](CC(=O)O)N
Method: HCD
Collision_energy: [28.333334]
Isolation_window: 4.0
Ion_mode: P
Num Peaks: 4
72.0448	15.3
86.0969	100.0
128.1072	85.0
145.1337	58.4

Name: L-beta-Homothreonine
PrecursorMZ: 134.08111
RT: 9.912
ExactMass: 133.07389321
Spectrum_type: 2
charge: 1
Formula: C5H11NO3
SMILES: C[C@H]([C@@H](CC(=O)O)N)O
Method: HCD
Collision_energy: [28.333334]
Isolation_window: 4.0
Ion_mode: P
Num Peaks: 20
60.0448	9.1
68.0498	37.2
69.0338	32.5
70.0654	7.1
74.0603	6.8
80.0497	10.8
90.0550	5.7
96.0809	13.6
98.0601	59.2
114.0913	7.4
116.0706	55.8
132.1017	15.1
134.0634	16.0
134.0810	100.0
134.0962	45.2
135.0845	5.6
135.0915	7.3
136.0214	21.5
136.1120	5.4
154.0497	4.9

Name: L-beta-homoserine
PrecursorMZ: 120.06561
RT: 3.7832
Spectrum_type: 2
charge: 1
SMILES: C(C(CO)N)C(=O)O
Method: HCD
Collision_energy: [28.333334]
Isolation_window: 4.0
Ion_mode: P
Num Peaks: 4
60.0448	100.0
102.0550	19.3
111.0555	15.1
120.0807	14.5

Name: L-isoleucyl-L-arginine
PrecursorMZ: 288.20295
RT: 8.5429
ExactMass: 287.19573968
Spectrum_type: 2
charge: 1
Formula: C12H25N5O3
SMILES: CC[C@H](C)[C@@H](C(=O)N[C@@H](CCCN=C(N)N)C(=O)O)N
Method: HCD
Collision_energy: [28.333334]
Isolation_window: 4.0
Ion_mode: P
Num Peaks: 90
60.0561	5.9
70.0655	8.3
72.0812	1.3
81.0339	4.5
83.0494	0.9
84.0812	1.6
86.0968	26.4
87.1001	1.4
95.0606	1.2
97.0286	1.1
99.0442	0.9
105.0701	1.1
110.0602	1.1
111.0443	1.2
112.0872	2.4
114.0915	1.4
114.1027	1.0
115.0868	2.9
116.0708	4.5
116.1072	2.8
122.0602	1.0
124.0758	0.9
126.0552	4.9
126.0915	1.7
130.0976	1.7
132.0768	2.2
134.0602	1.0
144.0655	1.2
154.0864	1.7
156.1133	9.3
157.1086	1.6
158.0817	1.6
158.0925	8.6
162.0913	0.8
163.0867	0.8
166.0867	1.4
175.1190	49.1
176.1225	2.8
179.0814	1.6
180.1020	1.0
181.0974	1.9
185.1035	1.0
193.0974	0.8
194.0812	1.5
197.0920	1.0
197.1004	1.3
198.1125	1.9
199.1078	2.2
211.1078	0.9
224.0918	1.2
227.1028	1.4
228.1708	0.9
229.1547	1.9
242.1025	2.5
244.1182	1.3
253.1660	2.6
254.1022	3.2
269.1128	1.9
269.1301	1.3
270.1337	1.7
270.1923	0.8
271.1287	3.6
271.1764	6.7
272.1129	5.1
272.1490	1.0
272.1804	1.1
287.1238	6.8
287.1325	7.6
287.1366	5.4
287.1400	5.7
287.1599	2.5
287.1740	1.0
288.0705	2.7
288.1075	3.6
288.1237	3.0
288.1440	12.4
288.1590	2.9
288.2029	100.0
288.2534	4.8
289.1189	0.9
289.1393	21.7
289.1538	3.0
289.1762	0.8
289.2066	12.4
289.2570	1.0
290.0853	5.8
290.1233	16.6
290.1388	5.2
290.1601	6.6
290.2084	1.5

Name: L-phenylalanyl-L-glutamic acid
PrecursorMZ: 295.12874
RT: 5.1895
ExactMass: 294.12157168
Spectrum_type: 2
charge: 1
Formula: C14H18N2O5
SMILES: C1=CC=C(C=C1)C[C@@H](C(=O)N[C@@H](CCC(=O)O)C(=O)O)N
Method: HCD
Collision_energy: [28.333334]
Isolation_window: 4.0
Ion_mode: P
Num Peaks: 59
67.0546	11.6
69.9797	11.0
70.0655	16.6
72.0811	16.8
81.0338	11.7
81.0700	12.1
84.0446	30.9
86.0603	18.1
86.0967	20.5
88.0395	11.6
93.0701	13.4
101.0711	12.2
107.0492	13.1
114.0549	19.6
116.0707	12.2
120.0807	39.1
121.0647	29.2
123.0441	13.7
129.0657	29.7
130.0497	77.3
136.0755	100.0
147.0439	26.1
147.0758	20.4
149.0595	88.9
150.0914	13.0
151.1118	13.4
163.0500	15.3
164.0704	18.8
165.0544	59.2
166.0860	24.2
178.0859	25.8
182.0809	95.0
183.0843	12.4
194.0810	12.0
232.0965	13.6
236.0916	13.3
248.0911	16.6
249.1228	22.6
250.1072	28.6
250.1432	18.2
251.1025	11.7
260.0910	16.4
276.0861	19.2
276.1223	11.4
277.1173	20.1
278.1011	51.3
293.1493	27.0
294.0967	50.8
294.1135	17.6
294.1332	30.4
295.1287	52.9
295.1650	71.0
296.0924	12.2
296.1121	54.5
296.1256	11.4
296.1475	28.8
297.1088	11.9
297.1441	24.1
297.1828	12.9

Name: LM11A-31
PrecursorMZ: 244.20173
RT: 10.0845
ExactMass: 243.19467705
Spectrum_type: 2
charge: 1
Formula: C12H25N3O2
SMILES: CC[C@H](C)[C@@H](C(=O)NCCN1CCOCC1)N
Method: HCD
Collision_energy: [28.333334]
Isolation_window: 4.0
Ion_mode: P
Num Peaks: 61
58.0655	2.1
60.0560	7.4
70.0654	14.6
72.0811	4.2
84.0810	11.3
99.0917	2.7
100.0758	31.3
100.1121	4.8
101.0790	1.3
101.1073	1.5
112.0870	4.3
114.0662	14.1
114.0913	25.3
115.0866	4.8
115.0947	1.9
116.0706	9.8
127.5966	1.6
128.0818	2.9
128.1068	4.1
129.1021	2.4
130.0974	1.7
147.1126	1.5
154.0861	6.4
157.1082	1.5
158.0923	17.1
171.1126	2.5
173.1283	2.7
175.1187	39.1
186.1236	2.6
187.1075	5.0
197.1281	2.1
209.1645	1.2
211.1187	4.2
225.1231	1.3
227.1751	2.5
228.1451	1.9
229.1291	12.6
242.1859	3.8
243.1125	1.5
243.1334	21.1
243.1461	1.4
243.1693	1.8
244.0965	6.0
244.1180	2.1
244.1304	1.4
244.1372	2.0
244.1537	3.8
244.1652	11.2
244.1763	2.3
244.2014	49.4
245.1108	1.6
245.1277	2.3
245.1483	2.3
245.2052	5.6
246.1117	1.4
246.1334	2.9
246.1353	2.7
246.1444	6.5
246.1556	100.0
246.1690	1.2
246.1810	1.2

Name: Labdanolic acid
PrecursorMZ: 307.26256
RT: 1.4957
ExactMass: 324.26644501
Spectrum_type: 2
charge: 1
Formula: C20H36O3
SMILES: C[C@@H](CC[C@@H]1[C@]2(CCCC(C2CC[C@@]1(C)O)(C)C)C)CC(=O)O
Method: HCD
Collision_energy: [28.333334]
Isolation_window: 4.0
Ion_mode: P
Num Peaks: 40
55.0546	6.5
67.0546	17.6
69.0702	28.1
81.0701	58.9
83.0857	24.4
93.0700	13.0
95.0857	100.0
96.0890	7.8
97.1012	17.9
105.0698	8.7
107.0856	30.7
109.1012	72.0
110.1046	8.6
111.1167	9.3
119.0854	11.6
121.1011	23.5
123.1168	38.9
124.1202	6.6
133.1011	7.4
135.1166	19.6
137.1323	15.0
147.1168	9.7
149.0960	6.8
149.1323	17.2
151.1116	6.8
151.1481	10.6
161.1321	9.2
163.1481	13.0
165.1274	9.9
237.1845	7.3
271.2420	10.5
289.2520	20.9
306.2530	13.2
306.2784	55.2
307.2253	10.1
307.2627	36.0
307.2817	10.6
308.2676	8.5
308.2944	46.2
309.2978	7.8

Name: Lactose, anhydrous
PrecursorMZ: 360.14958
RT: 9.4314
ExactMass: 342.11621151
Spectrum_type: 2
charge: 1
Formula: C12H22O11
SMILES: C([C@@H]1[C@@H]([C@@H]([C@H]([C@@H](O1)O[C@H]([C@@H](CO)O)[C@@H]([C@H](C=O)O)O)O)O)O)O
Method: HCD
Collision_energy: [28.333334]
Isolation_window: 4.0
Ion_mode: P
Num Peaks: 68
57.0339	1.6
60.0447	1.1
61.0288	6.5
69.0338	8.4
70.0654	5.4
70.2505	1.0
71.0495	1.9
73.0287	3.1
81.0337	3.3
84.0810	2.6
85.0286	100.0
86.0320	4.5
87.0442	3.7
91.0391	9.2
97.0285	22.3
98.0318	1.0
99.0442	4.7
100.0758	1.6
101.0598	2.0
103.0390	1.3
109.0285	7.7
112.0758	1.5
112.0869	1.2
115.0389	1.5
116.0706	1.7
127.0389	41.0
128.0422	2.8
130.0861	1.6
144.0654	2.5
145.0494	79.4
146.0527	5.2
146.0922	5.7
158.0812	2.2
162.0759	2.1
163.0599	35.3
164.0635	2.1
179.0702	1.2
180.0865	1.9
183.0863	1.2
198.0873	1.2
200.1025	2.1
217.1292	1.4
269.1249	1.2
271.1399	1.2
287.2686	2.8
289.0914	2.3
300.1341	3.0
325.1122	15.7
326.1162	2.5
343.1610	6.1
344.1449	1.1
358.1494	1.2
358.1645	1.6
359.1442	2.2
359.1574	5.7
359.1827	8.8
359.2898	5.4
360.1074	1.5
360.1263	1.2
360.1447	2.2
360.1782	3.2
360.2922	1.3
361.1375	1.8
361.1722	20.0
361.1966	2.8
362.1387	1.6
362.1569	8.0
362.1750	1.9

Name: Latanoprost
PrecursorMZ: 433.29484
RT: 4.6844
ExactMass: 432.28757437
Spectrum_type: 2
charge: 1
Formula: C26H40O5
SMILES: CC(C)OC(=O)CCC/C=C\C[C@H]1[C@H](C[C@H]([C@@H]1CC[C@H](CCC2=CC=CC=C2)O)O)O
Method: HCD
Collision_energy: [28.333334]
Isolation_window: 4.0
Ion_mode: P
Num Peaks: 137
55.0547	8.8
57.0704	7.3
67.0547	20.1
69.0703	49.7
71.0495	11.6
71.0860	11.0
76.0397	6.8
79.0546	25.8
81.0338	11.0
81.0703	63.7
83.0495	6.1
83.0859	13.8
85.0652	28.3
87.0444	7.8
89.0600	8.8
91.0544	18.0
93.0702	31.1
95.0494	6.6
95.0858	33.2
97.0650	14.5
99.0807	56.8
105.0701	21.7
107.0495	12.7
107.0857	26.2
109.0651	9.3
109.1014	17.8
111.0807	11.2
113.0964	6.5
117.0700	12.1
119.0857	22.3
121.0650	11.7
121.1014	17.7
123.0806	6.8
125.0599	7.3
125.0963	6.9
126.0913	6.8
129.0700	9.7
131.0855	21.4
133.0648	7.9
133.1012	35.3
135.0804	10.9
135.1169	36.7
138.0914	7.5
139.0754	7.0
139.1118	10.1
143.0856	12.1
144.0445	30.4
145.1013	21.4
147.0805	10.0
147.1169	19.7
149.0963	10.4
149.1325	13.4
152.1072	5.8
157.1011	13.7
159.1168	15.6
161.0964	8.0
161.1326	15.8
163.1119	6.0
166.0862	6.8
169.1021	6.8
171.1170	12.2
173.0962	9.5
173.1326	11.2
175.1120	13.4
175.1480	7.2
177.1273	15.9
180.1019	40.0
181.1059	26.7
183.1171	12.4
185.1325	11.6
187.1120	9.1
187.1482	9.2
191.1069	6.0
193.1225	10.0
195.1172	8.6
195.1380	9.4
197.0962	6.2
197.1324	7.7
199.1116	8.6
199.1482	10.5
201.1272	10.2
201.1637	9.8
203.1432	7.2
205.1223	6.2
209.1329	7.8
211.1482	7.2
213.1639	8.8
215.1064	6.8
215.1791	9.3
219.1380	5.9
221.1321	5.9
225.1643	6.4
227.1796	6.0
239.1794	8.0
241.1180	11.8
241.1586	8.1
243.1745	10.6
255.1742	6.7
257.1901	6.6
259.1698	6.5
261.1847	13.2
267.1744	8.1
274.1433	6.6
275.2008	6.3
285.1848	12.2
287.1392	8.5
291.1335	8.2
299.2002	8.4
303.1954	6.0
305.1496	9.1
306.1897	10.9
309.1236	11.8
315.2321	7.9
319.1905	6.1
321.2059	10.1
339.2327	7.8
339.2687	6.9
355.2629	6.6
369.2782	8.8
375.2532	26.3
379.2631	15.1
397.2735	31.3
398.2773	5.8
414.3003	24.9
414.3352	12.0
415.2833	53.3
416.2877	15.1
417.2990	7.8
431.2752	25.9
432.2781	23.7
432.3127	5.9
433.1977	14.4
433.2948	100.0
434.2016	8.8
434.2979	31.1
435.2147	6.3
435.3098	25.4

Name: Lauramidopropyl Dimethylamine
PrecursorMZ: 285.28965
RT: 4.6233
ExactMass: 284.282763776
Spectrum_type: 2
charge: 1
Formula: C17H36N2O
SMILES: CCCCCCCCCCCC(=O)NCCCN(C)C
Method: HCD
Collision_energy: [28.333334]
Isolation_window: 4.0
Ion_mode: P
Num Peaks: 17
69.8582	2.0
86.0968	2.5
183.1741	2.6
193.1333	5.3
240.2317	100.0
241.2352	14.2
243.1127	1.8
245.1280	2.0
257.1279	2.1
284.1143	2.2
284.2942	3.3
284.3304	4.0
285.1229	4.4
285.1805	6.8
285.2894	71.9
286.2929	11.3
287.1383	2.5

Name: Lauramidopropyl betaine
PrecursorMZ: 343.29507
RT: 1.5206
ExactMass: 342.28824308
Spectrum_type: 2
charge: 1
Formula: C19H38N2O3
SMILES: CCCCCCCCCCCC(=O)NCCC[N+](C)(C)CC(=O)[O-]
Method: HCD
Collision_energy: [28.333334]
Isolation_window: 4.0
Ion_mode: P
Num Peaks: 29
57.0702	1.3
70.0655	1.4
70.1466	1.1
71.0859	1.2
84.0811	1.3
89.0598	1.9
95.0856	1.7
100.0757	1.1
101.0597	2.6
109.1013	1.3
183.1741	2.6
220.9978	2.2
240.2318	100.0
241.2352	17.7
327.2013	1.5
342.1548	1.7
342.3365	1.4
342.3722	2.4
343.1639	1.8
343.1839	1.3
343.1969	3.3
343.2940	4.3
344.1064	1.1
344.1983	1.9
344.2985	1.2
344.3310	5.5
345.1437	1.4
345.1809	3.2
345.3336	1.1

Name: Lauric Acid
PrecursorMZ: 218.21139
RT: 2.5466
ExactMass: 200.177630004
Spectrum_type: 2
charge: 1
Formula: C12H24O2
SMILES: CCCCCCCCCCCC(=O)O
Method: HCD
Collision_energy: [28.333334]
Isolation_window: 4.0
Ion_mode: P
Num Peaks: 11
57.0703	1.0
70.0656	2.0
71.0858	0.9
88.0760	5.4
102.0915	1.6
106.0864	4.9
200.2008	4.5
217.1046	36.2
218.1080	3.8
218.2114	100.0
219.2148	12.3

Name: Lauric acid diethanolamide
PrecursorMZ: 288.25285
RT: 1.3065
ExactMass: 287.24604391
Spectrum_type: 2
charge: 1
Formula: C16H33NO3
SMILES: CCCCCCCCCCCC(=O)N(CCO)CCO
Method: HCD
Collision_energy: [28.333334]
Isolation_window: 4.0
Ion_mode: P
Num Peaks: 38
57.0702	2.0
70.0654	7.5
71.0858	2.1
73.0287	1.6
81.0701	1.1
83.0857	1.1
85.1013	1.2
88.0758	51.9
89.0792	1.7
95.0856	1.8
99.0441	1.5
106.0863	100.0
107.0895	3.2
109.1012	1.4
116.0705	1.9
131.0488	0.9
135.0439	0.9
183.1013	1.3
201.0542	2.2
201.1117	1.6
202.0576	5.1
203.0700	2.1
227.2001	17.5
228.2034	2.7
257.1279	1.1
258.1359	1.1
270.2422	3.1
287.1381	1.8
287.1468	6.6
287.1839	0.9
287.2001	1.0
288.1600	2.2
288.2526	25.0
289.1404	21.4
289.1541	1.4
289.1639	2.2
289.2561	4.4
290.1438	2.1

Name: Lauric isopropanolamide
PrecursorMZ: 258.24244
RT: 1.1556
ExactMass: 257.235479232
Spectrum_type: 2
charge: 1
Formula: C15H31NO2
SMILES: CCCCCCCCCCCC(=O)NCC(C)O
Method: HCD
Collision_energy: [28.333334]
Isolation_window: 4.0
Ion_mode: P
Num Peaks: 7
57.0702	11.2
72.0446	11.4
230.2474	98.2
231.2507	20.0
240.2318	30.5
258.2421	100.0
259.2456	17.3

Name: Laurolactam
PrecursorMZ: 198.1851
RT: 1.09385
ExactMass: 197.177964357
Spectrum_type: 2
charge: 1
Formula: C12H23NO
SMILES: C1CCCCCC(=O)NCCCCC1
Method: HCD
Collision_energy: [28.333334]
Isolation_window: 4.0
Ion_mode: P
Num Peaks: 32
55.0546	22.1
57.0703	26.3
67.0546	20.0
69.0702	48.9
69.3554	16.1
71.0495	11.1
71.0858	9.8
79.0545	11.0
81.0701	46.6
83.0857	90.5
85.0649	12.5
86.0602	19.3
93.0700	18.5
95.0856	48.2
97.0649	27.3
97.1012	51.6
97.4567	10.5
100.0757	34.5
107.0855	35.2
109.1012	15.0
111.0804	20.5
114.0913	32.4
121.1011	29.1
123.1167	13.9
125.0960	13.5
128.1068	28.3
135.1167	25.3
142.1223	11.1
163.1479	84.9
181.1583	57.9
198.1849	100.0
200.2004	23.1

Name: Lauroyl Lysine
PrecursorMZ: 329.27935
RT: 8.3099
ExactMass: 328.27259301
Spectrum_type: 2
charge: 1
Formula: C18H36N2O3
SMILES: CCCCCCCCCCCC(=O)NCCCC[C@@H](C(=O)O)N
Method: HCD
Collision_energy: [28.333334]
Isolation_window: 4.0
Ion_mode: P
Num Peaks: 7
98.9843	5.0
114.0914	9.0
311.2692	9.1
328.1931	3.8
329.1499	4.0
329.2795	100.0
330.2829	20.0

Name: Lauroyllevocarnitine
PrecursorMZ: 344.2791
RT: 1.91215
ExactMass: 343.27225866
Spectrum_type: 2
charge: 1
Formula: C19H37NO4
SMILES: CCCCCCCCCCCC(=O)O[C@H](CC(=O)[O-])C[N+](C)(C)C
Method: HCD
Collision_energy: [28.333334]
Isolation_window: 4.0
Ion_mode: P
Num Peaks: 6
69.0701	12.3
76.0396	100.0
83.0857	13.7
326.2681	44.1
344.2785	20.3
345.1800	10.6

Name: Lauryldiethanolamine
PrecursorMZ: 274.27364
RT: 1.9464
ExactMass: 273.266779359
Spectrum_type: 2
charge: 1
Formula: C16H35NO2
SMILES: CCCCCCCCCCCCN(CCO)CCO
Method: HCD
Collision_energy: [28.333334]
Isolation_window: 4.0
Ion_mode: P
Num Peaks: 14
57.0702	2.1
69.6185	1.7
69.6211	1.7
70.0654	2.2
71.0858	1.3
88.0759	5.9
102.0914	2.0
106.0863	6.3
234.0424	1.3
234.1846	2.7
256.2629	5.2
273.1230	1.4
274.2733	100.0
275.2768	18.0

Name: Lenalidomide
PrecursorMZ: 260.10291
RT: 1.9001
ExactMass: 259.09569129
Spectrum_type: 2
charge: 1
Formula: C13H13N3O3
SMILES: C1CC(=O)NC(=O)C1N2CC3=C(C2=O)C=CC=C3N
Method: HCD
Collision_energy: [28.333334]
Isolation_window: 4.0
Ion_mode: P
Num Peaks: 20
145.0760	3.8
155.0606	3.3
172.0870	65.6
173.0903	6.9
195.0917	5.3
200.0819	70.8
201.0855	6.4
228.0766	10.6
232.0979	2.1
232.1081	65.2
233.1119	7.7
259.0940	3.5
259.1077	3.0
259.1228	11.6
260.1029	93.5
260.1264	3.5
261.1071	13.7
261.1309	100.0
262.1082	2.3
262.1333	6.3

Name: Lenalidomide-C5-NH2
PrecursorMZ: 330.18067
RT: 4.6293
ExactMass: 329.1739416
Spectrum_type: 2
charge: 1
Formula: C18H23N3O3
SMILES: C1CC(=O)NC(=O)C1N2CC3=C(C=CC=C3C2=O)CCCCCN
Method: HCD
Collision_energy: [28.333334]
Isolation_window: 4.0
Ion_mode: P
Num Peaks: 37
69.6335	1.2
70.0655	2.0
72.0811	3.8
81.0337	1.5
86.0966	4.2
97.4579	0.9
98.0898	0.8
98.0965	100.0
98.9842	4.4
99.0998	6.9
100.1122	2.2
116.0706	1.2
120.0807	2.4
122.0713	1.1
133.0646	1.4
136.0754	2.9
150.0911	2.0
164.1069	0.9
171.1490	1.1
172.0868	1.8
185.1644	1.4
191.0335	3.9
199.1437	1.1
213.1593	1.0
281.1494	1.1
283.1284	2.3
285.1700	1.5
329.1134	1.0
329.1325	0.8
329.1496	1.8
329.1699	1.7
330.1321	1.8
330.1805	36.1
331.1068	1.4
331.1281	1.5
331.1845	7.0
332.1973	0.9

Name: Leu-C12:1
PrecursorMZ: 312.25291
RT: 4.8812
Spectrum_type: 2
charge: 1
SMILES: O=C(NC(CC(C)C)C(O)=O)CCCCCCCCCC=C
Method: HCD
Collision_energy: [28.333334]
Isolation_window: 4.0
Ion_mode: P
Num Peaks: 77
67.0545	5.4
69.0702	4.2
70.0654	12.9
71.0494	3.3
72.0811	6.1
79.0544	2.7
81.0701	8.8
83.0858	4.6
84.0446	4.0
86.0601	2.7
86.0966	7.7
87.0442	2.6
90.0551	3.5
91.0542	4.0
93.0700	5.4
95.0856	8.3
97.1012	3.1
99.0804	4.5
100.1121	7.9
105.0700	2.9
107.0855	6.1
109.1011	5.5
111.0804	4.2
112.0757	3.5
114.0663	5.3
116.0706	7.2
119.0856	4.3
121.1011	6.7
123.0802	2.8
125.0959	3.0
126.1276	4.1
128.1068	4.4
128.1432	3.4
133.1010	5.3
135.1165	3.8
139.1117	3.0
140.0704	10.4
142.1225	7.7
145.1011	3.5
147.1166	4.2
166.0972	11.1
169.1332	6.4
185.0912	2.7
196.1445	2.9
197.1281	6.0
198.1483	2.7
201.0868	2.5
211.1072	2.5
229.1291	17.6
275.1999	11.4
276.2317	6.9
277.2156	4.9
293.2105	4.6
294.1331	3.0
294.2421	18.2
295.1277	3.0
295.2259	4.4
295.2455	3.3
311.1224	5.2
311.1423	4.7
311.1587	7.5
311.1955	4.1
311.2207	3.9
312.1067	3.5
312.1432	7.1
312.1570	3.0
312.1798	2.8
312.2525	100.0
313.1181	6.9
313.1389	8.6
313.1744	2.5
313.1867	39.1
313.2559	18.3
314.1219	5.7
314.1366	2.9
314.1903	4.4
314.3408	9.0

Name: Leu-C13:1
PrecursorMZ: 343.29534
RT: 4.6943
Spectrum_type: 2
charge: 1
SMILES: O=C(NC(CC(C)C)C(O)=O)CCCCCCCCCCC=C
Method: HCD
Collision_energy: [28.333334]
Isolation_window: 4.0
Ion_mode: P
Num Peaks: 86
57.0702	0.9
58.0656	0.9
69.0703	1.1
70.0656	6.5
72.0448	1.4
72.0812	15.9
74.0605	1.5
81.0339	3.0
83.0859	0.7
84.0811	1.0
86.0968	46.7
87.1001	1.7
95.0858	1.5
98.0967	2.0
99.0443	0.8
108.0809	0.9
109.1015	1.4
111.0443	1.8
112.1123	1.2
115.0756	1.1
116.0708	3.9
132.1019	1.8
143.0817	0.8
180.1020	0.7
183.0917	1.9
183.1743	2.0
184.0969	1.9
184.1332	2.5
185.1649	20.9
186.1684	1.7
198.1126	0.7
199.1441	0.8
199.1805	4.8
200.1281	1.2
203.1392	0.9
207.0654	1.4
208.0968	1.2
210.2218	0.9
212.2373	10.5
213.1598	16.6
213.2404	0.8
214.1634	1.3
217.0973	0.7
218.0924	0.7
227.1754	4.6
228.1784	0.7
229.1545	0.9
231.1705	2.1
240.2322	100.0
241.2356	15.0
242.2386	0.9
245.1860	1.4
276.1230	3.6
296.2946	0.7
306.1332	1.1
324.1438	3.7
327.1338	1.0
341.3155	0.9
342.0974	0.8
342.1334	3.2
342.1535	4.3
342.1701	1.5
342.1831	1.0
342.1896	0.6
342.2036	1.0
342.2410	0.7
342.3363	0.7
343.1285	2.1
343.1408	1.3
343.1647	4.2
343.1858	1.7
343.2208	1.8
343.2951	4.7
344.1137	2.2
344.1486	3.8
344.1685	1.8
344.1876	0.7
344.2184	0.9
344.2549	2.8
344.2976	1.0
344.3152	0.7
345.1206	0.6
345.1432	4.7
345.1810	2.9
345.2014	1.6
345.2177	0.7

Name: Leu-C17:1
PrecursorMZ: 382.33106
RT: 1.0286
Spectrum_type: 2
charge: 1
SMILES: O=C(NC(CC(C)C)C(O)=O)CCCCCCCCC=CCCCCCC
Method: HCD
Collision_energy: [28.333334]
Isolation_window: 4.0
Ion_mode: P
Num Peaks: 9
69.2851	8.5
72.0811	100.0
86.0966	9.8
95.0855	5.9
118.0862	91.6
132.1018	11.1
380.3125	5.2
382.3093	7.2
382.3308	14.5

Name: Leu-C18:3
PrecursorMZ: 392.31534
RT: 7.0679
Spectrum_type: 2
charge: 1
SMILES: O=C(NC(CC(C)C)C(O)=O)CCCCC=CCC=CCC=CCCCCC
Method: HCD
Collision_energy: [28.333334]
Isolation_window: 4.0
Ion_mode: P
Num Peaks: 38
81.0701	16.8
83.0859	7.7
93.0700	6.4
95.0856	16.2
105.0700	5.1
107.0856	13.3
109.1012	14.3
119.0856	7.2
121.1011	11.6
133.1011	8.4
135.1168	16.2
147.1168	13.2
149.0232	19.0
149.1325	16.6
161.1325	13.6
163.1481	12.7
175.1482	9.8
195.1379	5.6
201.1636	9.8
203.1792	5.1
211.1482	7.1
215.1793	14.6
221.1535	7.6
243.2107	7.3
247.1692	12.4
261.1846	6.9
275.2001	8.2
311.2733	5.1
321.2582	6.4
339.2679	6.8
357.2784	66.5
358.2820	20.6
374.3049	100.0
375.3082	23.1
392.2176	7.7
392.3154	88.3
393.3188	17.4
410.3261	17.5

Name: Leu-Enkephalin
PrecursorMZ: 336.19138
RT: 4.700466666666666
ExactMass: 555.26929854
Spectrum_type: 2
charge: 1
Formula: C28H37N5O7
SMILES: CC(C)C[C@@H](C(=O)O)NC(=O)[C@H](CC1=CC=CC=C1)NC(=O)CNC(=O)CNC(=O)[C@H](CC2=CC=C(C=C2)O)N
Method: HCD
Collision_energy: [28.333334]
Isolation_window: 4.0
Ion_mode: P
Num Peaks: 33
55.0547	4.0
72.0812	68.6
83.0858	6.8
86.0968	19.4
114.0915	12.3
120.0809	84.5
121.0842	6.2
126.0914	11.2
132.1019	10.6
136.0758	3.8
141.0660	5.8
143.1179	100.0
144.1212	8.4
150.0914	6.6
164.0707	3.6
166.0863	36.3
171.1128	61.7
172.1163	5.7
173.1285	3.7
177.1022	61.0
178.1057	5.3
205.0971	23.3
210.1125	15.6
317.1481	5.0
335.1598	7.9
335.1954	13.5
335.2333	5.4
336.1591	6.3
336.1922	9.3
337.1725	4.6
337.2128	4.7
338.2061	3.7
338.3414	8.0

Name: Leu-Glu
PrecursorMZ: 261.14391
RT: 8.5375
ExactMass: 260.13722174
Spectrum_type: 2
charge: 1
Formula: C11H20N2O5
SMILES: CC(C)C[C@@H](C(=O)N[C@@H](CCC(=O)O)C(=O)O)N
Method: HCD
Collision_energy: [28.333334]
Isolation_window: 4.0
Ion_mode: P
Num Peaks: 41
70.0653	2.2
84.0810	8.1
86.0965	8.8
111.0440	2.3
129.1020	10.2
130.0861	8.7
132.0765	2.2
147.1125	14.2
153.1021	3.0
154.0860	9.9
155.0811	2.2
165.1021	3.0
167.0811	3.6
171.1124	12.1
183.1123	5.0
185.0917	4.7
207.1122	2.4
213.1228	2.3
225.1230	4.0
227.1015	3.3
243.1330	6.9
244.1176	2.4
245.1126	5.1
245.1490	2.3
259.1431	2.3
260.1272	23.7
260.1486	12.0
260.1635	2.9
260.1847	2.1
260.1962	8.3
261.1223	5.1
261.1325	3.4
261.1437	100.0
261.1579	6.2
262.1072	2.5
262.1277	11.7
262.1439	26.0
262.1640	2.2
262.1756	9.3
263.1236	13.4
263.1379	3.5

Name: Leu-Gly
PrecursorMZ: 189.12321
RT: 5.5785
ExactMass: 188.11609238
Spectrum_type: 2
charge: 1
Formula: C8H16N2O3
SMILES: CC(C)C[C@@H](C(=O)NCC(=O)O)N
Method: HCD
Collision_energy: [28.333334]
Isolation_window: 4.0
Ion_mode: P
Num Peaks: 51
55.0546	1.6
60.0448	4.6
69.0338	6.3
69.0702	1.5
70.0654	5.9
72.0811	49.0
73.0845	1.8
74.0603	1.2
81.0337	1.5
83.0494	1.1
84.0446	3.3
85.0649	1.6
86.0602	15.5
86.0966	100.0
87.0443	3.3
87.1000	5.6
98.0601	1.6
100.0759	1.0
104.0707	5.9
110.0602	1.2
111.0440	8.8
112.0756	2.4
115.0389	1.6
116.0705	3.8
118.0651	1.4
124.0756	1.1
128.0705	3.6
130.0497	3.9
130.0859	1.2
131.0813	1.1
142.0861	7.1
144.0807	1.1
144.1020	1.7
146.0598	6.7
148.0966	2.2
154.0861	7.4
162.0548	1.5
163.0864	1.1
170.0809	4.8
171.0651	1.4
172.0966	19.0
188.0703	3.6
188.0912	4.6
189.0655	1.1
189.1016	1.2
189.1223	2.0
190.0499	1.5
190.0610	4.1
190.0861	4.5
190.1068	4.3
191.0813	4.5

Name: Leu-Gly-Gly
PrecursorMZ: 246.14451
RT: 5.9257
ExactMass: 245.1375561
Spectrum_type: 2
charge: 1
Formula: C10H19N3O4
SMILES: CC(C)C[C@@H](C(=O)NCC(=O)NCC(=O)O)N
Method: HCD
Collision_energy: [28.333334]
Isolation_window: 4.0
Ion_mode: P
Num Peaks: 34
69.0702	2.4
70.0654	2.2
72.0811	6.8
81.0338	5.3
86.0966	100.0
87.0554	4.6
87.1000	4.4
100.0759	2.3
112.0755	2.0
114.0914	2.4
133.0606	54.6
134.0642	2.2
143.1177	7.8
156.1018	1.9
171.1128	2.8
200.1277	4.9
200.1640	2.0
201.1018	2.4
228.1226	2.1
229.1178	13.8
245.0908	2.3
245.1281	5.0
245.1483	2.8
246.0758	5.4
246.0873	2.1
246.1124	9.1
246.1325	4.7
246.1447	9.9
246.1694	2.3
247.1066	7.0
247.1190	2.7
247.1434	10.2
248.0914	6.1
248.1279	2.4

Name: Leu-Ile-Arg
PrecursorMZ: 401.2869
RT: 1.7132
ExactMass: 400.27980365
Spectrum_type: 2
charge: 1
Formula: C18H36N6O4
SMILES: CC[C@H](C)[C@@H](C(=O)N[C@@H](CCCN=C(N)N)C(=O)O)NC(=O)[C@H](CC(C)C)N
Method: HCD
Collision_energy: [28.333334]
Isolation_window: 4.0
Ion_mode: P
Num Peaks: 68
58.0657	2.9
60.0562	4.1
70.0656	19.7
72.0812	8.8
81.0339	4.9
84.0812	16.3
86.0968	37.8
96.0811	3.9
101.0599	3.5
111.0445	6.4
112.0872	6.4
116.0708	7.1
120.0811	3.2
130.0863	4.6
144.0812	4.3
156.1132	5.0
158.0928	6.2
160.0756	3.2
175.1192	41.5
176.1219	3.2
199.1807	15.7
227.1748	4.3
271.1767	8.4
277.1187	3.1
307.1440	6.2
352.1660	8.1
353.1491	20.6
354.1536	4.5
393.2738	3.3
395.1736	3.0
400.1799	14.2
401.1698	15.6
401.2163	3.2
401.2872	100.0
402.1547	6.1
402.2072	8.4
402.2894	21.2
403.1900	10.3
404.1732	9.8
404.2171	9.7
405.1570	3.5
405.2137	7.3
406.1882	8.2
406.2335	8.1
407.1717	4.1
407.2320	3.9
408.1523	5.0
408.2094	4.7
409.1848	4.8
410.1612	8.9
411.1590	6.7
411.2104	3.5
411.2887	6.1
412.1991	56.9
413.1726	6.8
413.2026	12.6
414.1567	6.5
414.2095	8.6
415.1476	9.2
415.1927	8.0
415.3027	3.4
416.1639	6.1
416.2158	4.5
417.1662	6.5
417.2173	6.5
418.1857	7.5
419.1770	4.8
419.2308	9.5

Name: Leu-Leu
PrecursorMZ: 245.18557
RT: 8.4764
ExactMass: 244.17869263
Spectrum_type: 2
charge: 1
Formula: C12H24N2O3
SMILES: CC(C)C[C@@H](C(=O)N[C@@H](CC(C)C)C(=O)O)N
Method: HCD
Collision_energy: [28.333334]
Isolation_window: 4.0
Ion_mode: P
Num Peaks: 96
57.0702	2.6
58.0656	8.8
59.0496	4.7
60.0559	1.3
70.0655	17.4
72.0812	13.9
75.0919	1.6
83.0858	1.5
84.0811	30.5
85.0761	1.3
85.0842	1.3
86.0968	1.8
87.0444	2.2
89.0600	19.5
89.1076	2.1
98.0966	1.6
98.9844	13.0
99.0442	1.5
100.0394	1.6
100.0757	1.6
100.1122	1.7
101.0961	1.8
112.0871	8.0
112.1122	13.5
115.0867	1.5
116.0707	2.9
116.1072	3.5
118.0865	1.9
123.0553	1.9
123.0916	1.9
126.0550	2.6
128.0707	2.4
129.1021	1.2
129.1386	8.4
130.0864	16.9
132.1129	2.0
133.0759	2.3
133.0859	6.8
134.0808	1.3
142.0864	1.9
144.9931	1.2
145.1222	1.5
146.1651	10.2
147.1131	1.2
154.0864	6.7
160.9669	2.2
172.0968	12.4
175.1188	1.4
189.1233	3.6
200.1642	1.5
201.1232	3.6
210.0793	19.1
211.0815	1.4
211.1442	1.9
213.1343	4.0
228.1233	1.2
228.1701	1.3
229.1545	31.3
230.1582	3.7
239.1487	1.7
244.1179	2.1
245.1493	1.4
245.1858	20.5
246.1335	7.4
246.1811	100.0
247.1306	6.1
247.1644	3.0
247.1841	11.1
248.0351	17.6
249.0365	2.0
250.0317	2.2
251.0460	1.4
251.1851	1.9
252.1694	3.8
253.1192	2.6
254.1014	1.2
254.1578	1.2
255.1329	7.8
256.1156	7.6
257.1151	2.5
257.1601	1.2
258.0799	2.5
258.1322	5.6
258.1802	3.8
258.2786	1.6
259.1286	1.9
259.2022	1.7
260.1270	2.1
260.1492	1.9
261.0878	2.8
261.1808	2.5
262.1288	2.7
262.1528	2.2
263.0822	7.0
263.1602	2.3
264.1483	2.4

Name: Leu-Pro
PrecursorMZ: 229.15448
RT: 5.3045
ExactMass: 228.1473925
Spectrum_type: 2
charge: 1
Formula: C11H20N2O3
SMILES: CC(C)C[C@@H](C(=O)N1CCC[C@H]1C(=O)O)N
Method: HCD
Collision_energy: [28.333334]
Isolation_window: 4.0
Ion_mode: P
Num Peaks: 68
69.0703	2.5
69.1907	0.6
69.2432	0.6
70.0655	8.8
71.0495	0.7
71.0688	0.4
72.0811	5.6
74.0603	0.4
84.0447	1.1
84.0810	1.0
86.0967	61.7
87.1000	3.1
97.4321	0.8
98.0602	0.5
100.0758	0.4
102.0551	0.6
105.0700	0.4
112.0758	2.4
112.1122	0.7
113.0710	1.2
114.0550	0.8
116.0628	0.7
116.0706	100.0
116.0792	0.5
117.0739	5.4
118.0864	0.4
126.0913	0.8
130.0498	2.2
140.0704	1.0
142.0498	0.7
142.0861	0.4
156.0656	0.8
159.0765	1.7
180.0768	0.4
182.1177	0.7
183.0764	1.1
183.1126	1.4
184.0968	0.6
184.1330	1.2
198.0871	0.6
201.1594	0.7
210.0758	0.5
210.0954	0.5
210.1115	0.6
211.1074	1.1
212.0373	0.6
212.0912	1.0
212.1277	2.2
228.0662	0.8
228.0863	1.0
228.0983	1.1
228.1029	0.5
228.1228	1.2
228.1341	0.7
228.1787	2.1
228.2318	2.3
229.0630	1.0
229.0971	1.2
229.1177	1.9
229.1543	16.2
230.0815	0.8
230.1019	1.1
230.1143	1.1
230.1386	1.6
230.1578	1.7
231.1123	0.4
231.1335	0.6
231.1698	0.5

Name: Leu-Ser
PrecursorMZ: 201.1232
RT: 4.7159
ExactMass: 218.12665706
Spectrum_type: 2
charge: 1
Formula: C9H18N2O4
SMILES: CC(C)C[C@@H](C(=O)N[C@@H](CO)C(=O)O)N
Method: HCD
Collision_energy: [28.333334]
Isolation_window: 4.0
Ion_mode: P
Num Peaks: 41
60.0448	32.0
69.0702	1.1
70.0291	1.1
70.0654	4.8
72.0811	10.5
74.0603	3.4
84.0447	2.3
86.0602	1.5
86.0966	100.0
87.0555	21.0
87.1000	6.0
98.0601	1.0
100.0758	1.2
101.0710	2.6
105.0659	1.2
112.1122	1.5
116.0706	1.5
126.0913	4.7
128.1069	16.4
129.1105	1.0
136.0757	1.4
138.0912	1.0
140.1067	1.2
141.0545	1.1
154.0861	12.8
155.0894	1.1
156.1018	3.6
156.1382	1.7
173.1283	67.5
174.1315	6.6
182.0807	2.0
184.0966	2.7
200.0912	5.6
200.1280	1.3
201.0654	3.1
201.1020	1.9
201.1229	1.0
202.0711	1.1
202.0859	1.9
202.1065	2.1
203.0812	2.4

Name: Leu-Thr
PrecursorMZ: 233.14928
RT: 2.10152
ExactMass: 232.14230712
Spectrum_type: 2
charge: 1
Formula: C10H20N2O4
SMILES: C[C@H]([C@@H](C(=O)O)NC(=O)[C@H](CC(C)C)N)O
Method: HCD
Collision_energy: [28.333334]
Isolation_window: 4.0
Ion_mode: P
Num Peaks: 8
60.0448	33.0
72.0811	16.8
74.0603	15.6
86.0966	74.9
132.1017	23.9
146.1174	100.0
173.1282	58.9
233.1491	17.9

Name: Leu-phe
PrecursorMZ: 279.16986
RT: 4.8103
ExactMass: 278.16304257
Spectrum_type: 2
charge: 1
Formula: C15H22N2O3
SMILES: CC(C)C[C@@H](C(=O)N[C@@H](CC1=CC=CC=C1)C(=O)O)N
Method: HCD
Collision_energy: [28.333334]
Isolation_window: 4.0
Ion_mode: P
Num Peaks: 22
69.0702	3.4
69.3705	0.8
72.0811	0.9
81.0701	0.7
86.0911	0.8
86.0966	100.0
86.1020	0.7
87.0999	5.1
95.0855	0.9
120.0806	7.0
121.0284	0.8
136.0753	0.7
166.0859	7.3
167.0892	0.9
234.1119	0.8
262.1068	0.7
278.1006	1.0
278.1358	0.9
279.0927	1.2
279.1313	1.1
279.1695	5.0
280.1166	2.5

Name: Leuconolam
PrecursorMZ: 327.17024
RT: 1.2958
ExactMass: 326.16304257
Spectrum_type: 2
charge: 1
Formula: C19H22N2O3
SMILES: CC[C@]12CCCN3[C@]1(C(=CC3=O)C4=CC=CC=C4NC(=O)CC2)O
Method: HCD
Collision_energy: [28.333334]
Isolation_window: 4.0
Ion_mode: P
Num Peaks: 40
57.0705	2.5
70.0657	3.5
80.0499	59.2
81.0533	3.2
83.0497	3.1
89.0602	3.5
98.9845	4.3
120.0811	25.1
122.0813	7.1
132.0446	5.8
133.0862	2.4
142.1229	4.3
146.0603	22.0
147.0635	2.2
154.0867	2.7
166.0865	11.3
172.0971	5.2
192.0656	5.6
210.0793	3.0
235.1081	5.2
240.2323	13.2
241.2358	2.3
281.1660	2.6
297.1241	3.6
326.3785	13.4
327.1706	100.0
327.3811	3.5
328.1747	23.5
329.1808	2.5
330.1355	2.6
330.1800	2.2
330.2364	2.7
330.3375	4.3
332.1553	2.3
332.2187	7.3
334.1682	2.3
336.1894	2.2
341.1862	2.4
342.1808	2.9
346.3315	3.8

Name: Leucylglycine
PrecursorMZ: 189.12326
RT: 5.7761
ExactMass: 188.11609238
Spectrum_type: 2
charge: 1
Formula: C8H16N2O3
SMILES: CC(C)CC(C(=O)NCC(=O)O)N
Method: HCD
Collision_energy: [28.333334]
Isolation_window: 4.0
Ion_mode: P
Num Peaks: 23
72.0811	64.4
86.0966	4.2
98.0601	3.2
99.0679	4.1
100.0758	4.2
112.0757	14.5
116.0705	6.3
118.0862	100.0
119.0895	5.4
128.0704	5.6
142.0861	5.1
143.1177	28.3
144.1016	3.9
165.0213	8.7
172.0965	3.5
188.0914	16.0
188.1276	3.5
189.1132	3.9
189.1230	8.3
190.0496	3.6
190.0858	6.4
190.1069	6.0
191.0812	4.1

Name: Leucylleucyltyrosine
PrecursorMZ: 408.24893
RT: 4.6098
ExactMass: 407.24202116
Spectrum_type: 2
charge: 1
Formula: C21H33N3O5
SMILES: CC(C)C[C@@H](C(=O)N[C@@H](CC(C)C)C(=O)N[C@@H](CC1=CC=C(C=C1)O)C(=O)O)N
Method: HCD
Collision_energy: [28.333334]
Isolation_window: 4.0
Ion_mode: P
Num Peaks: 44
69.0701	1.3
70.0654	3.4
72.0811	1.2
81.0337	2.8
86.0966	100.0
87.0999	4.6
120.0807	1.8
136.0755	11.2
164.1068	8.8
165.0544	2.4
168.1016	0.9
182.0810	5.1
194.1173	2.1
196.1329	2.9
199.1801	30.7
200.1836	3.2
210.1121	4.2
212.1277	3.0
227.1749	32.3
228.1785	4.5
230.1382	4.9
245.1853	2.0
249.1593	4.3
257.1849	1.3
277.1543	3.8
277.1904	2.5
295.1645	5.5
323.1957	27.3
324.1549	2.2
324.1993	5.2
353.2067	3.4
354.1649	1.4
371.2169	10.4
372.1752	1.0
372.2201	2.1
389.2275	5.6
390.1856	1.0
390.2305	1.5
407.1568	1.1
407.2380	7.4
408.1425	1.0
408.1949	1.2
408.2482	4.5
410.2069	1.4

Name: Leucylproline
PrecursorMZ: 229.15451
RT: 1.1996
ExactMass: 228.1473925
Spectrum_type: 2
charge: 1
Formula: C11H20N2O3
SMILES: CC(C)C[C@@H](C(=O)N1CCC[C@H]1C(=O)O)N
Method: HCD
Collision_energy: [28.333334]
Isolation_window: 4.0
Ion_mode: P
Num Peaks: 219
58.0656	2.3
62.0605	0.9
69.0704	1.8
70.0656	11.7
71.0495	1.4
72.0812	1.7
74.0717	0.9
81.0339	15.7
82.0374	0.8
82.0655	0.9
83.0496	1.7
83.0607	1.7
84.0812	4.6
86.0605	7.0
86.0968	68.4
87.0444	1.3
87.1001	3.3
88.0762	1.2
89.0423	0.8
89.0601	26.1
93.0701	0.9
94.0655	0.8
95.0496	1.1
95.0604	1.9
97.0763	2.0
98.0605	1.1
98.0967	28.3
99.1000	1.8
100.0761	2.0
100.1122	1.2
101.0600	1.1
109.0762	2.1
110.0603	1.1
110.0717	2.5
111.0443	6.5
111.0556	5.0
111.0918	1.6
112.0511	2.4
112.0760	0.9
112.1125	2.3
113.0713	0.9
114.0665	18.1
114.0914	1.3
116.0709	100.0
117.0744	5.7
120.0812	1.5
121.0650	11.5
122.0603	2.2
122.0688	1.0
123.0923	1.2
124.0765	1.2
125.0712	1.6
126.0552	2.6
126.0664	2.5
126.0913	1.1
126.1279	4.3
127.0393	1.5
128.0708	1.1
128.0814	1.4
128.1435	1.0
130.0863	1.6
132.1020	1.0
133.0860	11.2
134.0600	1.0
135.0909	1.1
136.0759	3.4
137.1073	3.6
138.0662	5.1
139.0867	4.6
140.0706	1.1
148.0758	1.2
150.0551	1.9
150.0915	2.0
151.0631	1.2
151.0864	3.7
151.1231	7.7
152.0567	0.8
152.0707	3.2
152.0823	2.0
153.1024	15.2
154.1062	1.0
156.0769	8.4
156.1136	1.5
160.0759	1.4
163.0867	0.9
164.0569	0.9
164.0705	1.5
165.1019	2.0
165.1390	1.5
166.0857	1.1
166.0973	1.1
167.0815	1.3
167.1183	1.0
169.0970	1.1
172.1334	1.1
175.0869	0.8
175.1226	1.3
176.0682	1.2
176.0834	1.9
177.1126	0.8
179.0816	0.9
181.0976	1.5
181.1338	3.5
183.1131	2.0
186.0914	1.1
187.1231	1.4
188.0710	0.9
189.1032	0.9
190.0980	10.1
191.0818	1.5
191.1186	0.9
192.0990	1.7
193.0969	2.0
193.1336	5.8
194.1175	1.1
195.1224	1.2
196.1094	2.6
200.0703	1.5
200.1277	1.1
200.1410	1.1
201.1030	1.0
202.0840	1.7
202.1234	1.0
204.1013	1.4
204.1148	1.2
205.0978	0.8
207.1130	1.1
208.0718	1.1
209.1284	1.1
210.1249	11.4
211.1115	2.1
211.1269	1.2
211.1442	10.9
212.1475	1.1
214.0845	1.1
214.1438	1.1
216.0659	0.9
217.0976	2.4
218.0781	2.2
219.1127	1.7
220.0953	1.7
220.1090	3.0
221.0935	1.0
221.1283	7.5
222.1130	3.5
223.1063	1.7
224.1291	0.9
225.1233	3.7
226.1196	1.8
227.1005	1.4
227.1394	6.9
227.1764	0.9
228.0649	1.6
228.1021	21.6
228.1345	42.8
229.1007	2.8
229.1182	3.3
229.1550	79.2
230.0801	3.6
230.1176	9.8
230.1387	2.9
230.1582	9.1
230.2480	9.6
231.1130	6.3
231.2517	1.6
232.0968	38.6
232.1146	1.8
232.1349	1.1
232.1551	2.2
233.0975	6.6
233.1286	1.9
234.0771	3.2
234.1130	15.5
234.1702	2.5
234.2042	1.1
235.1208	22.0
235.1442	2.6
236.0929	4.2
236.1266	5.5
236.1670	1.4
237.0873	7.6
237.1243	8.1
237.1606	2.6
238.1083	17.1
238.1438	1.6
238.1785	1.5
239.1044	5.5
239.1405	8.1
240.1011	0.9
240.1212	22.5
241.1190	17.5
241.1553	4.1
242.0813	1.5
242.1167	4.4
242.1487	7.1
242.2843	3.2
243.0815	1.8
243.1341	48.5
243.1705	17.6
244.0970	7.2
244.1341	5.5
244.1557	2.3
244.1734	1.5
245.0933	0.9
245.1113	3.6
245.1314	1.5
245.1503	4.3
246.1123	31.8
246.1329	3.3
246.1705	1.0
247.1110	8.4
247.1431	2.8
248.0935	5.4
248.1285	6.3
248.1475	1.2
249.0970	1.4
249.1248	9.3
249.1599	7.5
250.1049	3.5

Name: Leucylvaline
PrecursorMZ: 231.1703
RT: 3.1398
ExactMass: 230.16304257
Spectrum_type: 2
charge: 1
Formula: C11H22N2O3
SMILES: CC(C)CC(C(=O)NC(C(C)C)C(=O)O)N
Method: HCD
Collision_energy: [28.333334]
Isolation_window: 4.0
Ion_mode: P
Num Peaks: 5
72.0812	49.3
86.0967	100.0
116.0708	13.5
231.1697	10.7
233.0787	13.7

Name: Levetiracetam
PrecursorMZ: 171.11276
RT: 1.8709
ExactMass: 170.105527694
Spectrum_type: 2
charge: 1
Formula: C8H14N2O2
SMILES: CC[C@@H](C(=O)N)N1CCCC1=O
Method: HCD
Collision_energy: [28.333334]
Isolation_window: 4.0
Ion_mode: P
Num Peaks: 4
55.0546	10.1
83.0858	28.3
126.0912	100.0
171.1125	7.5

Name: Levobunolol
PrecursorMZ: 292.19007
RT: 7.2669
ExactMass: 291.18344366
Spectrum_type: 2
charge: 1
Formula: C17H25NO3
SMILES: CC(C)(C)NC[C@@H](COC1=CC=CC2=C1CCCC2=O)O
Method: HCD
Collision_energy: [28.333334]
Isolation_window: 4.0
Ion_mode: P
Num Peaks: 36
70.0654	5.7
80.0497	8.1
84.0444	2.8
84.0810	2.4
96.0444	6.9
97.0284	6.0
108.0443	3.0
111.0439	2.1
114.0549	6.2
116.0705	7.0
126.0547	3.2
130.0497	7.2
142.0496	3.3
144.0653	3.2
230.1533	4.3
232.1692	5.5
237.0863	17.8
255.0969	4.4
256.0804	3.3
273.1075	4.8
291.1167	3.4
291.1343	3.7
291.1692	28.4
291.2422	6.2
292.1171	2.6
292.1540	5.2
292.1735	5.1
292.1896	64.8
293.1119	2.0
293.1478	6.6
293.1849	8.9
293.1931	7.8
294.1167	3.3
294.1322	3.1
294.1810	3.3
294.2054	100.0

Name: Levodopa
PrecursorMZ: 198.076
RT: 5.5378
ExactMass: 197.06880783
Spectrum_type: 2
charge: 1
Formula: C9H11NO4
SMILES: C1=CC(=C(C=C1C[C@@H](C(=O)O)N)O)O
Method: HCD
Collision_energy: [28.333334]
Isolation_window: 4.0
Ion_mode: P
Num Peaks: 84
55.0545	1.8
59.0495	2.3
67.0546	2.1
69.0339	2.5
69.8076	1.9
70.0654	7.6
71.0494	2.4
73.0651	2.0
81.0337	7.4
83.0494	3.3
84.0447	2.1
84.0810	3.9
86.0965	1.6
87.0442	3.3
95.0492	5.7
95.0604	1.5
96.0444	3.0
96.0809	11.5
97.0649	3.2
98.0601	15.1
98.0967	1.9
99.0441	3.2
100.0758	13.1
101.0598	4.8
109.0285	4.0
109.0650	2.3
110.0601	3.1
111.0440	1.7
111.0805	2.7
112.0757	2.3
113.0598	4.4
122.0599	5.2
123.0439	4.4
124.0756	4.7
125.0597	2.9
126.0912	18.6
127.0388	1.8
128.0704	8.8
136.0755	4.6
137.0595	10.2
138.0548	36.0
138.0912	1.6
139.0388	2.7
139.0582	2.4
139.0752	4.4
139.0863	5.9
140.0165	2.1
140.0705	17.4
141.0544	3.8
151.0865	10.7
152.0705	33.5
152.1069	9.4
153.0657	1.7
153.0737	2.8
153.1020	5.4
154.0861	9.9
156.0644	2.2
163.0864	4.8
164.0706	3.0
165.0545	22.6
170.1173	11.1
171.0873	5.4
171.1126	7.7
178.0860	1.6
179.0815	3.8
180.0291	2.0
180.0652	100.0
180.1016	8.8
181.0686	9.4
181.0969	8.6
182.0809	15.6
183.0649	20.4
196.0965	4.9
197.0917	13.9
197.1282	2.0
198.0758	10.9
198.1121	12.6
198.1230	1.9
199.0864	2.6
199.0962	12.8
199.1074	21.5
200.0373	2.9
200.0914	7.5
200.1275	3.8

Name: Levofloxacin
PrecursorMZ: 362.14741
RT: 0.6479
ExactMass: 361.14378429
Spectrum_type: 2
charge: 1
Formula: C18H20FN3O4
SMILES: C[C@H]1COC2=C3N1C=C(C(=O)C3=CC(=C2N4CCN(CC4)C)F)C(=O)O
Method: HCD
Collision_energy: [28.333334]
Isolation_window: 4.0
Ion_mode: P
Num Peaks: 35
58.0655	5.3
59.0609	45.8
70.0656	13.3
80.0499	7.6
81.0339	8.4
84.0812	13.2
89.0601	10.2
101.0600	6.3
104.0711	8.8
110.0604	6.0
111.0443	7.4
114.0916	9.9
126.0914	7.3
128.1070	5.5
133.0860	6.2
148.0756	5.6
152.0707	10.7
164.0705	12.8
166.0865	12.8
168.1019	7.7
178.0857	6.1
182.0814	26.2
182.1175	5.8
194.0813	25.4
196.1335	5.7
321.1802	7.4
360.1327	9.7
361.1294	6.9
361.1732	5.9
362.1474	100.0
363.1562	32.8
364.1450	15.5
368.4253	5.6
375.2201	5.8
376.1842	5.5

Name: Licoagroside B
PrecursorMZ: 455.11563
RT: 9.6345
ExactMass: 432.1267762
Spectrum_type: 2
charge: 1
Formula: C18H24O12
SMILES: CC1=C(C(=O)C=CO1)O[C@H]2[C@@H]([C@H]([C@@H]([C@H](O2)COC(=O)CC(C)(CC(=O)O)O)O)O)O
Method: HCD
Collision_energy: [28.333334]
Isolation_window: 4.0
Ion_mode: P
Num Peaks: 7
69.3167	7.3
97.4574	6.9
176.8750	20.7
178.8733	9.9
455.1151	100.0
456.1184	13.3
457.1156	6.1

Name: Linezolid
PrecursorMZ: 338.14965
RT: 3.028
ExactMass: 337.14378429
Spectrum_type: 2
charge: 1
Formula: C16H20FN3O4
SMILES: CC(=O)NC[C@H]1CN(C(=O)O1)C2=CC(=C(C=C2)N3CCOCC3)F
Method: HCD
Collision_energy: [28.333334]
Isolation_window: 4.0
Ion_mode: P
Num Peaks: 22
70.0655	13.8
84.0811	17.3
89.0602	8.9
130.0865	8.2
132.0445	21.0
134.0601	18.7
150.0915	38.3
152.0708	29.2
240.2321	9.8
292.1435	10.6
297.1233	11.6
338.1489	100.0
339.1540	26.4
342.1341	8.5
344.1491	32.8
345.1454	10.2
346.1677	7.4
346.3316	13.6
348.1503	9.1
350.1727	21.2
352.1902	7.5
356.3505	8.4

Name: Linoleic Acid
PrecursorMZ: 281.2472
RT: 0.9078
ExactMass: 280.240230259
Spectrum_type: 2
charge: 1
Formula: C18H32O2
SMILES: CCCCC/C=C\C/C=C\CCCCCCCC(=O)O
Method: HCD
Collision_energy: [28.333334]
Isolation_window: 4.0
Ion_mode: P
Num Peaks: 138
55.0545	1.3
57.0339	1.5
57.0703	52.9
58.0736	3.1
59.0495	1.7
67.0546	54.2
68.0579	3.1
69.0338	0.8
69.0702	52.1
69.2805	1.5
69.2845	1.5
69.2881	1.0
69.2905	1.0
70.0735	2.5
71.0494	3.8
71.0858	93.4
72.0892	4.5
73.0651	4.8
79.0545	15.3
80.0578	1.2
81.0701	100.0
82.0734	6.2
83.0493	3.5
83.0857	45.3
84.0891	2.5
85.0650	6.8
85.1014	7.3
91.0543	9.1
93.0700	11.7
94.0733	0.9
95.0492	0.7
95.0856	65.6
96.0890	5.8
97.0649	5.5
97.1012	41.5
97.4567	1.2
98.1046	2.8
99.0805	5.6
101.0597	1.4
105.0699	7.8
106.0733	0.8
107.0855	25.8
108.0889	2.3
109.0648	1.4
109.0983	0.7
109.1012	38.5
110.1045	3.9
111.0804	4.3
111.1168	15.2
112.1202	1.2
113.0961	2.5
115.0754	1.4
119.0855	11.4
120.0888	1.1
121.1011	15.9
122.1045	1.4
123.0804	2.7
123.1167	38.5
124.1200	3.4
125.0960	4.8
125.1324	3.9
127.0753	1.3
127.1116	1.8
129.0909	1.2
131.0853	1.6
133.1010	17.4
134.1042	1.8
135.1166	9.7
136.1200	1.3
137.0959	4.0
137.1323	9.3
138.1355	1.4
139.1115	2.8
141.0907	0.9
141.1272	43.2
142.1305	3.6
145.1010	1.2
147.1166	11.2
148.1199	1.7
149.0959	0.7
149.1323	7.8
150.1356	1.0
151.1115	4.6
151.1480	4.2
152.1153	0.7
152.1514	0.9
153.1272	2.3
155.1428	1.9
159.1167	1.2
161.1323	8.9
162.1355	1.2
163.1479	7.4
164.1513	0.9
165.1272	4.5
165.1636	2.8
167.1428	2.2
169.1220	0.8
169.1584	3.1
173.1322	1.9
175.1479	4.8
176.1510	1.0
177.1633	1.6
179.1427	2.4
179.1791	2.3
181.1583	2.1
183.1741	0.9
187.1325	1.0
189.1635	3.2
193.1584	2.1
203.1791	1.1
207.1739	1.4
209.1533	0.8
219.2104	0.8
221.2259	1.5
235.2416	3.4
243.2105	0.7
245.2259	12.5
246.2293	2.0
247.2415	1.5
249.1117	1.2
253.2520	5.2
254.2552	0.7
261.2207	1.3
262.2240	0.9
263.1271	1.7
263.2365	8.0
264.2402	1.4
265.2516	0.7
279.2314	8.2
280.0761	0.7
280.2347	4.5
280.2625	0.7
281.2473	6.0
282.2499	1.2
282.2785	8.3
283.2820	1.3
299.0609	3.4
299.2575	0.8

Name: Linolenic Acid
PrecursorMZ: 279.23172
RT: 4.5209
ExactMass: 278.224580195
Spectrum_type: 2
charge: 1
Formula: C18H30O2
SMILES: CC/C=C\C/C=C\C/C=C\CCCCCCCC(=O)O
Method: HCD
Collision_energy: [28.333334]
Isolation_window: 4.0
Ion_mode: P
Num Peaks: 52
67.0547	79.2
69.0703	11.7
79.0546	6.4
81.0702	99.5
82.0736	5.2
83.0859	7.5
93.0702	8.6
95.0858	100.0
96.0892	6.4
97.1013	5.2
97.3999	4.1
107.0858	9.8
109.1014	46.2
120.0810	7.3
121.1013	10.3
123.1169	27.3
131.0856	7.4
133.1014	5.6
135.1169	7.9
137.1325	19.5
145.1010	4.2
147.1170	5.3
149.0961	4.2
149.1326	6.0
151.1481	7.8
159.1170	5.4
161.1324	4.0
163.1118	5.7
166.0864	4.4
173.1326	10.7
177.1271	5.2
186.0219	13.4
187.1482	5.1
191.1433	4.9
195.1381	5.8
209.1535	8.6
218.0481	4.3
223.1691	6.5
243.2107	5.0
260.0916	4.1
261.2212	4.4
278.0803	11.3
278.1020	8.7
278.1388	4.3
279.0931	9.8
279.1104	5.9
279.1334	7.8
279.2317	61.2
280.1183	8.4
280.2353	11.4
280.2629	4.0
281.1279	6.0

Name: Linoleoylcarnitine
PrecursorMZ: 424.34155
RT: 4.6951
ExactMass: 423.33485892
Spectrum_type: 2
charge: 1
Formula: C25H45NO4
SMILES: CCCCC/C=C\C/C=C\CCCCCCCC(=O)O[C@H](CC(=O)[O-])C[N+](C)(C)C
Method: HCD
Collision_energy: [28.333334]
Isolation_window: 4.0
Ion_mode: P
Num Peaks: 51
55.0546	1.0
57.0339	1.1
57.0703	1.0
60.0812	14.4
67.0546	1.7
69.0703	6.3
70.0655	1.7
71.0859	0.7
73.0287	0.7
81.0702	3.9
83.0858	4.5
85.0233	0.8
85.0287	100.0
86.0320	3.1
86.0966	0.8
87.0443	0.7
89.0599	3.9
93.0701	1.0
95.0857	3.7
97.0650	0.7
97.1013	2.6
107.0857	1.2
109.1013	2.9
111.0555	0.8
111.1170	0.9
119.0856	0.8
121.1012	1.4
123.1168	1.0
124.0393	1.6
125.0962	0.7
133.0858	2.3
133.1010	0.8
135.1168	1.0
136.0756	0.6
144.1018	3.4
147.1165	0.7
149.1323	0.8
161.1325	0.6
177.1121	0.8
245.2263	0.8
263.2368	0.7
365.2683	0.6
367.2838	0.8
371.2579	0.9
406.2465	0.8
423.3296	1.6
424.3087	1.7
424.3416	50.0
425.3072	0.7
425.3450	14.0
426.3574	19.2

Name: Linoleyl alcohol
PrecursorMZ: 249.25736
RT: 1.7071
ExactMass: 266.260965704
Spectrum_type: 2
charge: 1
Formula: C18H34O
SMILES: CCCCC/C=C\C/C=C\CCCCCCCCO
Method: HCD
Collision_energy: [28.333334]
Isolation_window: 4.0
Ion_mode: P
Num Peaks: 11
67.0546	19.1
69.0702	9.8
81.0702	25.6
83.0858	11.3
89.0598	12.4
95.0857	42.4
97.1014	8.7
109.1012	19.3
123.1169	7.6
249.1570	100.0
250.1606	10.9

Name: Lisofylline
PrecursorMZ: 281.16024
RT: 5.4685
ExactMass: 280.15354051
Spectrum_type: 2
charge: 1
Formula: C13H20N4O3
SMILES: C[C@H](CCCCN1C(=O)C2=C(N=CN2C)N(C1=O)C)O
Method: HCD
Collision_energy: [28.333334]
Isolation_window: 4.0
Ion_mode: P
Num Peaks: 24
60.0811	16.2
95.0604	57.4
96.0443	33.4
100.1120	21.7
107.0602	20.4
110.0711	17.6
122.0710	36.3
150.0655	10.4
152.0703	15.1
180.0206	12.3
222.0309	24.7
234.1118	8.7
235.1437	12.5
280.1161	14.3
281.1122	24.1
281.1274	44.8
281.1486	100.0
281.1608	41.2
281.1840	30.3
282.1311	15.3
282.1467	11.9
282.1494	11.6
283.1273	14.9
283.1636	12.4

Name: Lithocholic Acid
PrecursorMZ: 399.28662
RT: 1.0212
ExactMass: 376.29774513
Spectrum_type: 2
charge: 1
Formula: C24H40O3
SMILES: C[C@H](CCC(=O)O)[C@H]1CC[C@@H]2[C@@]1(CC[C@H]3[C@H]2CC[C@H]4[C@@]3(CC[C@H](C4)O)C)C
Method: HCD
Collision_energy: [28.333334]
Isolation_window: 4.0
Ion_mode: P
Num Peaks: 5
94.9298	7.4
112.8958	8.1
139.9144	8.0
399.2864	100.0
400.2894	22.9

Name: Loliolide
PrecursorMZ: 197.11689
RT: 1.228
ExactMass: 196.109944368
Spectrum_type: 2
charge: 1
Formula: C11H16O3
SMILES: C[C@@]12C[C@H](CC(C1=CC(=O)O2)(C)C)O
Method: HCD
Collision_energy: [28.333334]
Isolation_window: 4.0
Ion_mode: P
Num Peaks: 36
69.0701	2.5
89.0598	2.4
91.0542	3.7
93.0699	10.6
95.0492	2.7
95.0855	2.7
105.0699	3.9
107.0855	38.7
108.0889	2.8
109.1011	3.4
119.0854	3.1
121.0646	4.0
124.0755	20.1
133.1009	31.3
134.1042	2.6
135.1165	56.1
136.1118	3.6
136.1198	6.6
137.0594	3.6
137.0956	4.3
138.0546	2.8
138.0910	5.6
151.1114	5.2
152.1429	3.5
161.0958	27.5
166.0859	4.5
178.1223	2.7
179.1062	100.0
180.1095	15.4
196.0965	3.3
196.1329	5.0
197.1167	95.4
198.1117	10.5
198.1201	10.6
198.1480	3.9
198.1848	3.6

Name: Loperamide Hydrochloride
PrecursorMZ: 477.2302
RT: 5.8284
ExactMass: 512.1997337
Spectrum_type: 2
charge: 1
Formula: C29H34Cl2N2O2
SMILES: CN(C)C(=O)C(CCN1CCC(CC1)(C2=CC=C(C=C2)Cl)O)(C3=CC=CC=C3)C4=CC=CC=C4.Cl
Method: HCD
Collision_energy: [28.333334]
Isolation_window: 4.0
Ion_mode: P
Num Peaks: 14
70.0656	10.2
89.0600	20.8
133.0859	8.3
133.1009	6.8
155.0817	15.2
183.0765	26.8
272.1245	17.0
314.1453	8.5
477.2315	100.0
478.2372	21.2
479.2398	5.9
483.1943	8.0
485.2164	7.7
487.2065	5.8

Name: Loratadine
PrecursorMZ: 383.16008
RT: 2.6586
ExactMass: 382.1448057
Spectrum_type: 2
charge: 1
Formula: C22H23ClN2O2
SMILES: CCOC(=O)N1CCC(=C2C3=C(CCC4=C2N=CC=C4)C=C(C=C3)Cl)CC1
Method: HCD
Collision_energy: [28.333334]
Isolation_window: 4.0
Ion_mode: P
Num Peaks: 63
70.0657	17.8
72.0813	18.1
81.0340	3.2
81.0702	2.4
83.0495	4.0
84.0813	10.7
86.0971	3.0
89.0601	2.9
95.0607	2.5
96.0812	4.6
98.0969	2.7
101.0601	11.5
110.0605	2.5
110.0720	2.7
111.0445	3.9
112.0873	4.0
116.0711	2.4
130.0862	2.4
136.0759	3.2
149.0236	10.2
176.1075	2.6
180.1017	3.0
207.1491	3.4
249.1603	4.7
272.1028	2.6
273.1238	17.3
274.1280	2.4
283.1076	11.5
285.1810	2.5
291.1344	8.6
379.2964	4.2
382.1249	17.2
382.1700	6.8
383.1587	46.5
384.1549	9.7
385.1770	12.1
385.2318	29.6
386.1590	12.9
386.2442	4.4
387.1479	8.9
387.1944	7.0
388.1834	18.6
389.1649	10.6
389.2102	5.9
390.1509	2.8
390.2018	10.3
391.1869	100.0
392.1838	23.8
393.1494	2.7
393.2054	8.2
394.1933	2.9
395.1648	6.1
395.2201	4.5
395.2880	3.4
396.1436	3.4
396.1841	3.9
397.1810	7.9
397.3053	14.2
398.1580	10.5
398.3062	2.9
399.2000	7.6
400.1802	10.1
401.1682	12.6

Name: Lotaustralin
PrecursorMZ: 284.11023
RT: 6.8634
ExactMass: 261.12123733
Spectrum_type: 2
charge: 1
Formula: C11H19NO6
SMILES: CC[C@](C)(C#N)O[C@H]1[C@@H]([C@H]([C@@H]([C@H](O1)CO)O)O)O
Method: HCD
Collision_energy: [28.333334]
Isolation_window: 4.0
Ion_mode: P
Num Peaks: 37
70.0656	3.7
86.0603	3.7
100.0757	8.5
101.0598	4.6
128.0704	3.0
140.0679	18.4
160.0756	6.1
165.0653	4.0
167.0313	3.2
176.1068	6.0
182.0786	8.7
194.1171	4.9
198.0869	3.7
218.0807	3.4
220.0967	8.9
222.1098	18.6
224.0901	3.5
236.0909	4.0
237.1228	4.3
238.1070	3.3
240.0969	3.9
248.0913	7.3
265.1174	21.6
266.1012	12.1
267.0948	3.8
268.1161	3.9
268.1289	3.3
283.1261	9.5
283.1421	7.1
283.1640	8.4
284.1100	100.0
284.1239	17.1
284.1459	4.1
285.1116	6.5
285.1416	4.5
286.1269	7.0
286.1393	16.7

Name: Lovastatin
PrecursorMZ: 427.2452
RT: 2.4754
ExactMass: 404.25627424
Spectrum_type: 2
charge: 1
Formula: C24H36O5
SMILES: CC[C@H](C)C(=O)O[C@H]1C[C@H](C=C2[C@H]1[C@H]([C@H](C=C2)C)CC[C@@H]3C[C@H](CC(=O)O3)O)C
Method: HCD
Collision_energy: [28.333334]
Isolation_window: 4.0
Ion_mode: P
Num Peaks: 4
120.0809	7.3
427.2453	100.0
428.2488	22.3
429.2409	12.3

Name: Loxapine
PrecursorMZ: 328.12067
RT: 3.7574
ExactMass: 327.1138399
Spectrum_type: 2
charge: 1
Formula: C18H18ClN3O
SMILES: CN1CCN(CC1)C2=NC3=CC=CC=C3OC4=C2C=C(C=C4)Cl
Method: HCD
Collision_energy: [28.333334]
Isolation_window: 4.0
Ion_mode: P
Num Peaks: 72
70.0656	19.4
72.0813	8.6
81.0338	13.9
84.0812	18.6
87.0446	5.7
95.0606	8.3
96.0448	5.7
101.0599	17.2
110.0604	15.7
110.0716	12.8
111.0444	8.2
116.0708	20.8
129.1024	5.8
130.0864	7.1
136.0761	6.1
138.0548	6.7
142.1229	6.1
146.0274	15.8
150.0917	6.4
152.0709	13.1
156.0767	11.4
163.0753	9.9
166.0863	6.8
180.1015	7.8
181.0972	7.8
210.0585	18.6
216.0326	8.6
271.1205	6.3
275.0901	9.0
275.1167	9.9
310.1103	100.0
311.1126	21.2
312.1147	5.7
319.1282	6.1
326.1325	8.3
327.1347	19.2
328.1142	21.0
329.1145	9.8
329.1498	22.7
329.1902	9.1
330.1307	54.8
331.1317	23.4
331.1656	17.8
332.1123	10.4
332.1481	20.3
332.1883	10.9
333.1470	22.2
333.1815	6.6
334.1320	17.5
334.1760	7.1
335.1219	7.8
335.1641	9.9
336.1431	8.5
337.1467	12.9
337.1806	5.6
338.1240	10.9
339.1641	9.5
340.1115	10.4
341.1128	5.9
341.1494	17.9
342.1345	13.9
342.1631	5.8
343.1251	9.9
343.1638	16.7
344.1085	11.8
344.1489	20.8
344.2213	11.1
345.1447	24.4
345.1798	18.7
345.2201	7.3
346.1390	8.7
347.1635	9.5

Name: Lucidenic acid D
PrecursorMZ: 537.24921
RT: 4.5919
ExactMass: 514.25666817
Spectrum_type: 2
charge: 1
Formula: C29H38O8
SMILES: C[C@H](CCC(=O)O)[C@H]1CC(=O)[C@@]2([C@@]1([C@@H](C(=O)C3=C2C(=O)C[C@@H]4[C@@]3(CCC(=O)C4(C)C)C)OC(=O)C)C)C
Method: HCD
Collision_energy: [28.333334]
Isolation_window: 4.0
Ion_mode: P
Num Peaks: 7
59.6947	5.1
97.3993	2.0
478.2358	9.1
479.2393	3.4
537.2492	100.0
538.2524	33.5
539.2634	13.6

Name: Luteolin
PrecursorMZ: 309.037
RT: 3.2694
ExactMass: 286.04773803
Spectrum_type: 2
charge: 1
Formula: C15H10O6
SMILES: C1=CC(=C(C=C1C2=CC(=O)C3=C(C=C(C=C3O2)O)O)O)O
Method: HCD
Collision_energy: [28.333334]
Isolation_window: 4.0
Ion_mode: P
Num Peaks: 4
97.3988	6.9
308.1126	6.7
309.0371	100.0
310.0404	14.5

Name: Luvangetin
PrecursorMZ: 281.08069
RT: 4.3933
ExactMass: 258.08920892
Spectrum_type: 2
charge: 1
Formula: C15H14O4
SMILES: CC1(C=CC2=C(O1)C(=C3C(=C2)C=CC(=O)O3)OC)C
Method: HCD
Collision_energy: [28.333334]
Isolation_window: 4.0
Ion_mode: P
Num Peaks: 5
121.0285	100.0
122.0319	5.5
253.0855	12.2
281.0805	31.3
282.0863	5.1

Name: Lys-Ile
PrecursorMZ: 260.19647
RT: 8.786333333333333
ExactMass: 259.18959167
Spectrum_type: 2
charge: 1
Formula: C12H25N3O3
SMILES: CC[C@H](C)[C@@H](C(=O)O)NC(=O)[C@H](CCCCN)N
Method: HCD
Collision_energy: [28.333334]
Isolation_window: 4.0
Ion_mode: P
Num Peaks: 14
84.0810	100.0
129.1020	21.1
130.0860	7.6
141.0657	7.4
146.0922	12.2
147.1125	12.6
200.1023	9.4
242.1130	17.4
243.1697	15.2
260.1235	87.6
260.1962	31.0
261.1266	9.5
261.1418	8.9
262.1428	5.3

Name: Lysine, DL-
PrecursorMZ: 147.11259
RT: 11.5235
ExactMass: 146.105527694
Spectrum_type: 2
charge: 1
Formula: C6H14N2O2
SMILES: C(CCN)CC(C(=O)O)N
Method: HCD
Collision_energy: [28.333334]
Isolation_window: 4.0
Ion_mode: P
Num Peaks: 9
60.0811	17.0
84.0809	13.6
88.0394	52.8
130.0861	14.4
147.0914	33.7
148.0753	16.1
148.0965	47.6
148.1118	100.0
149.1070	86.3

Name: Lysolecithin
PrecursorMZ: 496.33971
RT: 4.9711
ExactMass: 495.33248993
Spectrum_type: 2
charge: 1
Formula: C24H50NO7P
SMILES: CCCCCCCCCCCCCCCC(=O)OCC(COP(=O)([O-])OCC[N+](C)(C)C)O
Method: HCD
Collision_energy: [28.333334]
Isolation_window: 4.0
Ion_mode: P
Num Peaks: 146
55.1492	1.3
55.2607	0.3
57.0704	0.5
58.0654	0.8
60.0813	3.2
67.0546	0.3
69.0703	0.5
70.0655	1.0
71.0733	0.4
71.0859	0.6
72.0812	1.4
81.0339	0.6
81.0703	1.0
83.0859	0.5
84.0812	0.6
85.0288	1.5
85.1016	0.3
86.0968	11.4
87.1001	0.6
89.0600	0.4
91.0544	0.3
93.0702	0.4
95.0494	0.3
95.0858	0.8
97.0650	0.3
97.3991	0.3
99.0808	0.3
100.1123	3.6
104.0999	0.3
104.1072	42.8
104.1100	0.3
104.1144	0.3
105.0700	0.5
105.1105	2.2
107.0857	0.4
109.1013	0.4
110.0715	2.4
111.0444	0.3
114.0665	0.4
115.0757	0.3
116.0707	0.4
117.0700	0.6
119.0492	0.6
119.0857	0.4
120.0811	0.5
121.1013	0.3
124.0757	0.3
124.9999	4.4
125.0962	0.6
126.0915	0.3
129.0699	0.3
130.0654	0.4
131.0492	1.1
131.0856	1.2
133.0284	0.3
133.0649	0.5
133.1011	0.4
136.0757	0.9
141.0659	0.6
145.1011	0.4
147.1170	0.3
150.0915	0.3
155.0928	0.6
156.0768	0.7
157.1014	0.3
159.0918	1.1
159.1168	0.3
163.0156	0.4
168.1133	2.4
180.0655	0.3
180.1018	0.4
184.0565	0.8
184.0598	0.7
184.0665	0.3
184.0734	100.0
184.0870	0.4
184.0905	0.6
185.0767	4.7
185.1396	1.0
186.0779	0.4
208.0967	0.3
210.1122	0.3
215.1389	0.5
221.0960	0.3
229.1547	0.4
231.1169	0.5
247.1116	0.6
249.1274	0.6
258.1101	0.7
299.1388	0.6
313.2735	1.4
314.2768	0.3
315.1342	0.3
317.1490	0.5
327.1693	0.3
351.1957	0.4
357.1450	0.5
358.1514	0.6
361.1392	0.3
373.1756	3.0
374.1792	0.6
406.1763	0.5
419.2559	0.3
425.2683	0.3
427.2846	0.7
443.2790	0.3
451.2333	0.3
453.1982	0.3
453.3419	0.3
466.1974	1.2
478.3292	2.9
479.1795	0.4
479.2286	1.7
479.3325	0.8
495.2102	0.3
495.2174	0.4
495.2229	0.4
495.2285	0.3
495.2977	0.4
495.3102	0.4
495.3236	0.4
496.2056	1.1
496.2427	1.5
496.2466	0.5
496.2842	1.1
496.3398	25.8
496.3684	0.3
496.3889	2.4
496.4459	0.7
497.1943	0.5
497.2013	0.4
497.2399	3.8
497.2448	0.5
497.2867	0.3
497.3097	2.0
497.3431	6.7
497.3926	0.7
497.4529	0.3
498.2251	0.7
498.2523	0.5
498.2603	1.3
498.3014	0.9
498.3100	0.4
498.3419	1.2
498.3476	0.8
498.4158	0.4

Name: Lysyl-Isoleucine
PrecursorMZ: 260.19667
RT: 12.5264
ExactMass: 259.18959167
Spectrum_type: 2
charge: 1
Formula: C12H25N3O3
SMILES: CC[C@H](C)[C@@H](C(=O)O)NC(=O)[C@H](CCCCN)N
Method: HCD
Collision_energy: [28.333334]
Isolation_window: 4.0
Ion_mode: P
Num Peaks: 60
60.0813	5.2
70.0656	2.6
72.0813	8.0
84.0812	14.6
86.0970	2.3
89.0719	1.2
94.9300	4.5
100.0760	1.7
102.0922	1.1
110.0970	1.9
114.0665	21.7
114.1028	2.1
122.0721	3.0
126.0916	1.8
128.0716	1.2
130.0865	13.0
140.1070	1.2
144.1023	1.5
154.0865	1.5
155.1182	1.8
160.9674	1.4
163.1084	2.0
170.0815	3.5
172.0972	4.8
176.8754	3.6
187.1083	3.2
189.1602	2.9
201.1237	6.8
203.0928	5.9
205.1083	1.4
213.1239	1.8
215.0944	7.7
215.1390	5.2
225.1423	2.6
243.1705	6.7
244.0972	1.2
251.1214	1.1
255.1452	1.9
258.1812	8.0
259.1422	1.3
259.1863	2.5
260.1247	1.2
260.1526	1.8
260.1971	100.0
261.2003	15.0
262.1658	1.6
262.2013	1.3
263.0827	3.4
266.1854	1.4
269.1303	1.3
272.1136	2.1
272.1716	7.1
272.1986	1.6
274.1074	47.1
274.2122	1.5
275.1104	8.9
276.1229	11.1
276.1660	1.5
277.1245	1.6
278.1383	6.2

Name: Lysyl-Leucine
PrecursorMZ: 260.19651
RT: 9.22845
ExactMass: 259.18959167
Spectrum_type: 2
charge: 1
Formula: C12H25N3O3
SMILES: CC(C)C[C@@H](C(=O)O)NC(=O)[C@H](CCCCN)N
Method: HCD
Collision_energy: [28.333334]
Isolation_window: 4.0
Ion_mode: P
Num Peaks: 63
70.0655	2.0
81.0337	0.9
84.0757	0.8
84.0810	100.0
85.0843	4.9
86.0966	3.4
96.0445	4.5
97.0478	2.5
100.0757	1.4
101.1073	6.2
102.0914	0.9
108.0444	2.7
111.0441	0.8
112.0757	1.1
118.0862	9.5
122.0599	1.1
126.0548	2.7
128.0703	1.3
129.1021	21.6
130.0861	4.2
130.1053	1.6
132.1018	1.1
135.1126	2.3
147.1126	16.5
153.1020	7.6
154.0860	56.9
168.0639	0.9
169.0685	1.2
171.1125	78.7
179.1281	1.1
182.0809	1.4
197.1281	1.6
197.1645	1.7
224.0914	1.2
226.1432	0.8
228.1224	1.1
241.1179	0.8
242.1019	2.2
242.1383	1.4
242.1856	1.0
243.1328	1.2
243.1698	15.1
244.1175	1.2
244.1643	1.8
244.1750	1.3
245.1490	12.0
259.1000	18.3
259.1276	4.3
259.1440	2.5
260.1121	13.2
260.1275	7.2
260.1490	8.0
260.1963	34.0
261.1217	0.9
261.1335	1.9
261.1440	4.3
261.1588	4.4
261.2000	4.2
262.1284	3.3
262.1433	4.4
262.1538	1.1
262.1648	1.0
262.1755	66.5

Name: M-Phenylenediamine
PrecursorMZ: 109.07616
RT: 1.5606
ExactMass: 108.068748264
Spectrum_type: 2
charge: 1
Formula: C6H8N2
SMILES: C1=CC(=CC(=C1)N)N
Method: HCD
Collision_energy: [28.333334]
Isolation_window: 4.0
Ion_mode: P
Num Peaks: 21
65.0388	0.6
67.0420	0.8
80.0497	2.0
81.0700	0.7
82.0653	8.7
83.0605	1.5
92.0496	1.6
93.0448	1.9
93.0573	0.8
107.0492	1.1
108.0444	1.3
108.0807	3.8
109.0682	0.7
109.0760	100.0
109.0839	1.1
110.0600	33.6
110.0712	2.0
110.0793	6.4
111.0552	4.9
111.0632	0.8
127.0500	0.9

Name: MK-0557
PrecursorMZ: 407.15182
RT: 5.5978
ExactMass: 406.14411864
Spectrum_type: 2
charge: 1
Formula: C22H19FN4O3
SMILES: C1CC2(CCC1C(=O)NC3=NN(C=C3)C4=CC=CC=C4F)C5=C(C=CN=C5)C(=O)O2
Method: HCD
Collision_energy: [28.333334]
Isolation_window: 4.0
Ion_mode: P
Num Peaks: 9
218.1022	1.4
254.1017	2.6
347.1306	4.3
389.1410	4.3
407.1517	100.0
407.1754	3.2
408.1551	15.3
408.1836	1.5
409.1562	1.2

Name: Madecassic Acid
PrecursorMZ: 505.35226
RT: 0.6216
ExactMass: 504.34508925
Spectrum_type: 2
charge: 1
Formula: C30H48O6
SMILES: C[C@@H]1CC[C@@]2(CC[C@@]3(C(=CC[C@H]4[C@]3(C[C@H]([C@@H]5[C@@]4(C[C@H]([C@@H]([C@@]5(C)CO)O)O)C)O)C)[C@@H]2[C@H]1C)C)C(=O)O
Method: HCD
Collision_energy: [28.333334]
Isolation_window: 4.0
Ion_mode: P
Num Peaks: 173
57.8166	2.0
59.0496	6.9
60.0812	5.4
67.0547	6.6
69.0339	4.0
69.0704	8.5
70.0655	5.1
71.0496	8.9
71.0860	2.4
72.0812	4.1
79.0546	4.9
81.0339	6.4
81.0703	19.2
83.0495	6.8
83.0859	5.8
84.0810	3.8
85.0288	3.3
85.0652	7.7
86.0968	22.9
87.0444	5.6
89.0601	25.1
91.0544	3.5
93.0702	14.0
95.0494	11.3
95.0858	20.1
97.0650	8.0
97.1015	3.2
99.0442	3.8
99.0807	6.7
101.0599	2.1
103.0390	2.4
104.1072	80.2
105.0701	8.9
105.1107	3.1
107.0858	21.3
109.0650	9.8
109.1014	20.8
111.0443	4.8
111.0807	6.9
111.1170	2.0
113.0600	4.3
115.0754	2.0
117.0700	2.3
119.0857	14.7
121.0650	5.2
121.1014	21.9
122.1044	2.5
123.0806	11.4
123.1170	11.4
124.9999	6.5
125.0600	4.0
125.0963	16.0
127.0756	5.2
127.1119	10.7
131.0704	7.6
131.0855	5.3
133.0859	15.4
133.1013	15.8
135.0806	9.9
135.1169	11.0
137.0598	5.2
137.0962	15.1
137.1321	2.0
139.0756	4.0
139.1119	6.8
141.0659	36.6
141.0902	4.2
142.0263	3.0
142.0693	2.1
143.0862	3.1
143.1068	11.9
145.1012	11.1
147.0805	3.0
147.1169	14.4
149.0961	12.8
149.1327	6.8
151.0757	5.7
151.1118	6.9
153.0914	5.2
153.1275	3.2
155.1069	8.4
157.1010	5.3
159.0813	2.3
159.1166	8.9
160.0754	2.6
161.0963	7.1
161.1327	6.1
163.0757	2.8
163.1119	9.5
163.1482	3.2
165.0912	7.7
165.1275	5.1
167.1068	3.8
169.1010	2.3
169.1222	2.3
171.1167	6.8
173.0960	3.1
173.1326	6.8
175.1116	4.8
175.1481	5.9
177.0907	3.2
177.1122	3.2
177.1274	3.1
179.1065	5.8
181.1219	3.8
183.1166	3.1
184.0734	100.0
185.0770	3.5
185.0952	1.9
185.1321	4.9
187.1120	3.0
187.1482	5.5
189.1274	4.9
191.1056	2.3
191.1433	4.0
193.1590	2.1
197.1323	3.5
199.1483	4.3
201.1277	2.5
201.1639	3.1
203.1061	2.6
203.1429	4.0
205.1224	4.0
205.1578	2.5
207.1371	3.9
209.1330	2.0
209.1535	3.1
211.1485	4.4
213.1273	2.0
213.1641	4.1
215.1422	3.8
217.1582	3.4
219.1376	2.8
221.1534	3.4
225.1656	2.2
227.1425	2.1
229.1583	3.3
231.1369	3.4
231.1745	2.0
233.1533	2.5
245.1543	2.1
247.1714	2.4
272.1516	4.0
273.2206	2.0
414.3374	4.8
417.3120	4.3
453.3354	1.9
459.3190	2.0
469.3333	4.8
471.3523	2.5
483.3085	2.1
485.3249	3.1
487.3470	5.5
488.3376	1.9
489.3616	3.3
499.3048	2.1
501.2843	3.3
501.3153	3.3
501.7940	2.1
502.3303	4.2
503.3224	3.7
504.3382	4.7
505.3530	7.7
506.3525	3.3
507.3701	5.0
508.3597	2.4
510.3572	3.2
511.3432	2.0
517.3113	3.0
518.3370	5.0
519.3423	34.2
520.3405	51.1
521.3495	13.7

Name: Maltitol
PrecursorMZ: 345.13984
RT: 8.087399999999999
ExactMass: 344.13186158
Spectrum_type: 2
charge: 1
Formula: C12H24O11
SMILES: C([C@@H]1[C@H]([C@@H]([C@H]([C@H](O1)O[C@H]([C@@H](CO)O)[C@@H]([C@H](CO)O)O)O)O)O)O
Method: HCD
Collision_energy: [28.333334]
Isolation_window: 4.0
Ion_mode: P
Num Peaks: 34
70.0655	0.9
116.0707	0.6
118.0863	0.8
132.0657	0.8
132.0766	0.8
150.0914	0.6
165.1134	0.7
195.0874	3.1
209.1030	1.3
211.1188	3.7
231.0971	0.7
237.0975	0.9
255.1085	33.3
256.1125	3.1
258.1080	0.7
268.1161	0.8
281.1251	0.9
283.1397	0.9
285.1190	1.5
297.1194	1.6
301.1501	0.7
327.1296	3.6
344.1490	1.7
344.1836	0.7
345.0963	0.6
345.1060	0.6
345.1401	100.0
345.1757	0.7
345.1828	0.7
346.0896	2.6
346.1436	14.9
347.1445	0.9
347.1594	0.6
347.1971	1.7

Name: Maltol
PrecursorMZ: 127.03909
RT: 9.0246
ExactMass: 126.031694049
Spectrum_type: 2
charge: 1
Formula: C6H6O3
SMILES: CC1=C(C(=O)C=CO1)O
Method: HCD
Collision_energy: [28.333334]
Isolation_window: 4.0
Ion_mode: P
Num Peaks: 25
53.0391	10.0
55.0184	4.7
69.0340	70.8
71.0496	5.8
81.0339	42.6
82.0655	28.5
83.0607	6.0
84.0448	6.4
84.0812	5.5
97.0287	7.0
98.0604	4.8
99.0444	14.8
100.0760	4.5
108.0446	4.1
109.0287	100.0
110.0320	7.3
125.0712	6.3
126.0551	10.6
126.0914	10.0
126.1279	3.6
127.0391	31.4
127.0503	4.4
127.0729	4.3
128.0707	17.9
129.0660	5.6

Name: Maltose
PrecursorMZ: 365.10494
RT: 9.4241
ExactMass: 342.11621151
Spectrum_type: 2
charge: 1
Formula: C12H22O11
SMILES: C([C@@H]1[C@H]([C@@H]([C@H]([C@H](O1)O[C@@H]2[C@H](OC([C@@H]([C@H]2O)O)O)CO)O)O)O)O
Method: HCD
Collision_energy: [28.333334]
Isolation_window: 4.0
Ion_mode: P
Num Peaks: 6
69.4954	3.5
97.4574	3.1
203.0526	5.9
365.1047	100.0
366.1080	14.4
367.1207	23.0

Name: Man(a1-2)Man
PrecursorMZ: 343.12277
RT: 4.2246
ExactMass: 342.11621151
Spectrum_type: 2
charge: 1
Formula: C12H22O11
SMILES: C([C@@H]1[C@H]([C@@H]([C@@H]([C@H](O1)O[C@H]2[C@H]([C@@H]([C@H](OC2O)CO)O)O)O)O)O)O
Method: HCD
Collision_energy: [28.333334]
Isolation_window: 4.0
Ion_mode: P
Num Peaks: 164
57.0340	1.9
69.0340	10.1
70.0656	9.6
71.0496	1.2
72.0812	2.2
73.0289	2.9
74.0604	1.0
81.0339	4.0
82.0654	1.3
83.0494	1.1
84.0448	3.4
84.0812	9.1
85.0288	67.7
86.0320	2.5
86.0605	2.3
87.0446	1.5
88.0397	1.0
90.0551	1.3
91.0394	1.1
96.0446	1.1
96.0809	1.1
97.0287	26.6
98.0319	1.1
98.0604	1.8
98.0967	1.2
99.0443	6.4
100.0760	3.3
101.0236	1.4
101.0601	1.7
102.0552	3.2
109.0288	2.6
110.0605	1.4
111.0443	2.3
112.0762	2.0
114.0552	8.2
114.0915	3.5
115.0392	2.8
116.0710	4.1
117.0549	1.5
122.0604	1.2
123.0442	2.0
126.0551	1.6
126.0915	1.0
127.0391	70.8
128.0424	4.6
128.0707	4.8
129.0660	3.3
130.0499	3.6
130.0862	3.4
132.0655	1.1
132.0768	3.0
137.0233	1.0
137.0599	1.0
138.0549	3.1
139.0391	2.6
140.0702	1.5
141.0650	1.3
142.0500	1.1
142.0864	21.6
143.0806	3.9
143.0902	1.1
144.0656	2.7
145.0496	65.8
146.0528	4.2
148.0605	1.1
152.0705	2.1
156.0656	2.4
157.0973	1.1
162.0765	1.4
163.0400	2.6
163.0602	14.6
165.0535	1.1
168.0658	1.5
168.1014	1.5
169.0966	1.9
170.0565	3.0
170.0802	1.8
173.0921	5.1
174.0760	1.2
180.0640	1.4
180.0867	5.3
181.0486	1.5
182.0792	1.1
183.0883	4.8
185.0928	1.1
186.0757	4.4
186.1244	1.1
187.1078	1.3
189.1234	1.4
198.0962	1.7
198.1246	15.9
199.1274	1.4
201.0883	1.1
206.1022	1.1
213.0878	1.5
213.1234	2.4
216.0834	1.1
217.1163	1.5
227.1026	1.0
229.1189	1.0
239.1020	2.7
240.1015	1.2
242.1499	32.9
243.1535	3.8
246.1331	2.6
255.1103	2.1
257.1162	2.1
258.1088	9.0
259.0809	2.5
259.1105	1.1
267.0990	1.0
268.1291	7.9
269.1295	1.1
270.1453	5.7
271.0831	1.1
274.1291	1.1
276.1184	1.2
283.0602	3.9
283.1398	1.4
286.1399	4.6
286.1760	11.7
287.1802	1.2
289.0919	3.1
301.1504	5.6
312.1551	4.0
314.1341	4.4
314.1709	8.3
325.0702	1.8
325.1113	4.6
329.1392	1.5
330.1659	2.9
340.1499	5.1
341.1330	1.6
342.1307	2.5
343.0800	1.3
343.1156	2.3
343.1510	4.6
344.1432	4.0
345.1365	10.1
346.1575	1.9
347.1558	90.8
348.1611	13.3
349.1630	5.7
350.1581	4.1
351.1181	2.3
351.1790	3.8
352.1136	1.5
352.1601	1.3
353.1359	2.3
354.1272	1.9
355.0127	1.8
355.1158	1.4
355.1514	3.1
356.1507	2.3
357.1283	3.0
357.1724	1.7
358.1608	100.0
359.0969	2.5
359.1646	16.2
360.1036	1.0
360.1328	2.0
360.1685	2.0
361.1355	1.3
361.1721	8.3

Name: Manninotriose
PrecursorMZ: 487.16538
RT: 10.023
ExactMass: 504.16903493
Spectrum_type: 2
charge: 1
Formula: C18H32O16
SMILES: C([C@@H]1[C@@H]([C@@H]([C@H]([C@H](O1)OC[C@@H]2[C@@H]([C@@H]([C@H]([C@H](O2)OC[C@H]([C@H]([C@@H]([C@H](C=O)O)O)O)O)O)O)O)O)O)O)O
Method: HCD
Collision_energy: [28.333334]
Isolation_window: 4.0
Ion_mode: P
Num Peaks: 18
55.0182	1.6
61.0288	2.2
69.0338	7.7
73.0287	2.6
85.0286	54.0
86.0320	1.8
91.0391	5.8
97.0285	33.0
99.0442	4.6
109.0285	9.1
115.0390	2.3
127.0389	100.0
128.0422	5.5
145.0494	56.0
146.0529	3.2
163.0599	16.1
289.0912	3.4
325.1126	3.7

Name: Margaroyl-EA
PrecursorMZ: 314.3048
RT: 2.3997
ExactMass: 313.298079487
Spectrum_type: 2
charge: 1
Formula: C19H39NO2
SMILES: CCCCCCCCCCCCCCCCC(=O)NCCO
Method: HCD
Collision_energy: [28.333334]
Isolation_window: 4.0
Ion_mode: P
Num Peaks: 17
55.0546	1.3
57.0703	5.7
69.0702	4.2
71.0859	5.7
74.0604	100.0
83.0858	3.9
85.1014	3.4
92.0708	4.3
97.1013	4.3
111.1169	1.6
120.0807	2.0
312.3618	1.5
313.2736	2.7
314.3049	20.6
315.2310	2.3
315.3086	5.1
316.3206	83.4

Name: Marimastat
PrecursorMZ: 332.21745
RT: 4.7239
ExactMass: 331.21072103
Spectrum_type: 2
charge: 1
Formula: C15H29N3O5
SMILES: CC(C)C[C@H]([C@@H](C(=O)NO)O)C(=O)N[C@H](C(=O)NC)C(C)(C)C
Method: HCD
Collision_energy: [28.333334]
Isolation_window: 4.0
Ion_mode: P
Num Peaks: 97
55.0546	1.1
60.0447	8.4
67.0545	1.2
69.0702	1.1
71.0494	1.2
72.0811	30.3
73.0844	1.1
74.0603	5.9
81.0337	1.6
81.0701	1.8
83.0857	1.9
86.0966	83.4
87.0554	8.6
87.0999	4.3
91.0543	1.1
93.0700	1.5
95.0856	1.9
97.0107	1.1
98.0965	2.3
105.0698	1.1
107.0856	1.4
109.1012	1.0
119.0856	1.4
120.0654	2.5
120.0807	2.8
121.0647	1.9
121.0840	1.7
121.1011	2.9
126.0911	2.7
128.1068	5.7
132.1017	10.5
133.1009	1.0
134.0600	1.1
135.1164	1.5
136.0755	3.0
137.0789	2.0
138.0911	1.7
147.0802	2.7
147.1167	1.1
148.0755	2.1
161.0596	4.1
170.1173	1.0
172.0865	1.8
173.0958	1.2
173.1282	100.0
174.1315	8.4
185.1645	28.8
186.1679	2.6
187.1436	1.1
194.0806	1.0
199.1799	2.8
201.1229	49.6
202.1264	5.0
208.0964	11.3
213.1593	25.0
214.1628	2.2
215.1387	3.5
219.1333	1.8
227.1747	2.4
233.1490	4.7
241.0966	3.5
244.0984	1.0
245.1854	2.7
255.1122	4.6
267.1735	2.6
273.1585	1.4
283.1070	3.3
285.1837	1.4
287.1375	1.2
288.1574	1.1
295.1685	3.9
301.1176	4.4
312.3253	2.6
313.1790	3.9
313.3283	1.0
314.1015	1.4
314.2066	6.1
315.1325	1.6
315.2098	1.1
316.1168	1.1
316.1500	1.1
330.3357	3.0
331.1278	3.5
331.1645	4.2
331.1887	4.6
331.2215	1.1
332.1123	4.1
332.1455	4.3
332.1927	1.1
332.2167	5.5
332.3158	1.4
333.1428	5.2
333.1796	7.8
333.2212	1.4
334.1240	2.8
334.1281	1.2
334.1634	2.0

Name: Matrine
PrecursorMZ: 249.19599
RT: 9.3811
ExactMass: 248.188863393
Spectrum_type: 2
charge: 1
Formula: C15H24N2O
SMILES: C1C[C@@H]2[C@H]3CCCN4[C@H]3[C@@H](CCC4)CN2C(=O)C1
Method: HCD
Collision_energy: [28.333334]
Isolation_window: 4.0
Ion_mode: P
Num Peaks: 33
86.0967	15.5
100.1123	41.1
101.1157	2.3
101.1201	2.3
105.0701	3.2
131.0491	2.2
148.0757	21.8
149.0598	38.6
149.0789	2.4
150.0631	2.0
166.0863	6.1
186.1124	1.1
190.0859	1.2
204.1230	1.1
214.1074	1.3
230.1384	1.4
232.1180	3.7
248.0922	2.0
248.1139	1.8
248.1269	2.0
248.1493	2.8
248.1644	4.0
249.1226	1.8
249.1590	1.7
249.1960	33.4
250.0710	1.2
250.1077	4.0
250.1293	2.2
250.1447	1.6
250.1800	100.0
250.1986	5.3
251.1015	1.5
251.1840	10.4

Name: Mecarbinate
PrecursorMZ: 234.11207
RT: 5.8341
ExactMass: 233.10519334
Spectrum_type: 2
charge: 1
Formula: C13H15NO3
SMILES: CCOC(=O)C1=C(N(C2=C1C=C(C=C2)O)C)C
Method: HCD
Collision_energy: [28.333334]
Isolation_window: 4.0
Ion_mode: P
Num Peaks: 33
69.5490	1.1
81.0337	9.0
102.0550	100.0
103.0583	4.1
111.0440	2.4
118.0651	1.2
124.0755	1.0
144.0806	3.9
146.0598	26.0
147.0632	2.6
170.0597	1.6
187.8826	1.2
188.0702	67.3
188.1065	0.8
189.0736	8.5
210.8986	1.2
216.1016	1.5
232.0971	1.2
233.0914	1.4
233.1279	8.8
234.0578	0.7
234.0759	1.9
234.0982	1.8
234.1120	10.1
234.1226	1.0
234.1319	1.1
234.1485	0.9
234.1850	1.5
235.1068	1.9
235.1173	1.9
235.1429	1.5
236.0914	1.2
236.1276	1.3

Name: Meconin
PrecursorMZ: 195.06521
RT: 9.2381
ExactMass: 194.0579088
Spectrum_type: 2
charge: 1
Formula: C10H10O4
SMILES: COC1=C(C2=C(COC2=O)C=C1)OC
Method: HCD
Collision_energy: [28.333334]
Isolation_window: 4.0
Ion_mode: P
Num Peaks: 18
55.0547	9.5
58.0656	8.5
83.0496	5.4
89.0599	7.1
96.0447	51.9
101.0599	34.2
135.0441	23.0
149.0598	24.0
165.0547	100.0
166.0580	7.9
194.0812	5.0
194.1175	66.5
195.0650	7.4
195.1137	7.8
195.1202	7.8
196.0607	5.4
196.0968	51.2
197.0995	5.4

Name: Medroxyprogesterone
PrecursorMZ: 345.2423
RT: 0.5631
ExactMass: 344.23514488
Spectrum_type: 2
charge: 1
Formula: C22H32O3
SMILES: C[C@H]1C[C@@H]2[C@H](CC[C@]3([C@H]2CC[C@@]3(C(=O)C)O)C)[C@@]4(C1=CC(=O)CC4)C
Method: HCD
Collision_energy: [28.333334]
Isolation_window: 4.0
Ion_mode: P
Num Peaks: 488
55.0546	3.1
57.0339	2.0
57.0704	8.4
59.0497	3.8
67.0547	9.4
69.0339	5.4
69.0703	19.2
70.0657	4.3
71.0496	9.0
71.0860	3.3
72.0812	9.1
79.0546	6.3
81.0339	9.8
81.0703	28.5
82.0655	1.2
82.0737	2.0
83.0495	15.5
83.0859	20.1
84.0448	1.2
84.0811	2.0
84.0892	1.4
85.0287	3.7
85.0652	16.8
85.1017	1.2
86.0605	2.4
86.0968	24.5
87.0444	3.6
87.1003	1.6
88.0760	1.3
89.0600	3.2
91.0541	6.4
93.0702	33.7
94.0654	3.2
94.0733	3.0
95.0494	13.7
95.0858	28.9
96.0891	1.6
97.0651	12.0
97.1014	5.3
98.0604	1.6
99.0443	12.2
99.0807	7.6
101.0599	8.1
105.0701	13.0
107.0495	4.7
107.0858	23.2
108.0892	2.4
109.0287	1.5
109.0650	15.7
109.1014	21.5
110.0604	1.8
110.0685	1.3
110.1047	2.0
111.0444	5.7
111.0807	18.1
111.1171	2.1
112.0760	11.5
113.0600	7.3
113.0960	2.8
114.0557	1.7
115.0392	2.3
115.0756	2.8
116.0707	1.7
117.0700	3.8
119.0494	2.2
119.0857	20.4
120.0809	4.5
120.0891	1.5
121.0650	10.1
121.1013	23.3
122.0604	1.1
122.1048	2.2
123.0442	2.5
123.0806	14.3
123.1170	10.9
124.0760	6.0
125.0599	7.5
125.0963	8.5
126.0553	2.0
126.0915	48.5
127.0391	1.4
127.0755	6.7
127.0949	3.0
127.1119	4.7
128.0708	5.5
129.0552	3.0
129.0698	2.5
129.0908	2.1
131.0857	12.0
132.1020	5.5
133.0649	3.1
133.0868	2.0
133.1013	22.5
134.1048	2.3
135.0443	2.6
135.0806	11.4
135.1169	13.3
136.0755	4.0
136.1205	1.4
137.0600	7.0
137.0962	10.7
137.1325	3.5
138.0548	2.9
138.0912	2.4
139.0388	2.1
139.0755	7.2
139.1116	5.2
140.0378	1.4
140.0703	3.1
140.1070	1.4
141.0547	3.3
141.0911	4.6
141.1276	1.2
142.0862	2.1
142.1225	2.0
143.0702	1.3
143.0856	6.7
143.1071	2.5
145.0650	2.5
145.1012	19.8
146.1049	2.2
146.1176	8.3
147.0805	7.7
147.1169	12.7
148.1207	1.5
149.0601	3.6
149.0962	13.9
149.1325	7.1
150.0913	1.1
150.1000	1.2
151.0755	7.4
151.1119	7.7
152.0703	2.6
153.0553	2.6
153.0911	6.5
153.1273	2.5
154.0853	2.1
155.0705	2.9
155.0857	2.2
155.1066	3.2
156.1021	1.1
157.1013	10.2
159.0804	4.4
159.1170	16.2
160.1205	2.2
161.0604	1.9
161.0962	9.1
161.1326	9.2
162.0912	1.2
163.0752	5.7
163.1118	9.8
163.1483	3.0
164.0704	9.4
164.1061	2.8
165.0556	2.0
165.0909	9.5
165.1274	3.6
166.0856	3.5
166.1218	1.9
167.0338	1.7
167.0704	3.1
167.1065	4.9
168.1015	2.9
169.0860	2.1
169.1013	5.3
169.1223	2.2
171.0805	1.5
171.1019	1.4
171.1165	8.5
172.1204	1.2
173.0602	1.5
173.0963	6.0
173.1324	11.6
175.0756	3.8
175.1117	10.2
175.1482	6.2
177.0548	1.3
177.0910	5.2
177.1271	5.4
177.1639	1.9
178.0852	1.7
178.1230	1.2
179.0701	2.8
179.1065	5.7
179.1424	2.1
180.1018	1.3
181.0858	2.9
181.1012	1.8
181.1219	2.9
182.0807	1.9
183.1013	1.8
183.1165	6.5
184.0970	1.2
185.0965	3.1
185.1325	8.3
186.1141	2.1
186.1361	1.3
187.0751	1.9
187.1119	6.4
187.1482	6.5
189.0547	1.2
189.0908	3.8
189.1273	8.3
189.1640	3.3
190.0851	1.7
191.0704	2.8
191.1061	5.1
191.1426	3.6
192.1014	2.6
192.1372	3.9
193.0856	3.3
193.1206	5.0
193.1583	1.8
194.1174	10.7
195.0655	1.6
195.1012	2.2
195.1184	3.6
195.1381	1.3
196.0968	100.0
196.1332	24.7
197.1004	10.9
197.1170	1.4
197.1327	6.9
199.0752	1.1
199.0959	1.2
199.1118	4.2
199.1483	6.0
201.0912	2.3
201.1276	5.1
201.1639	4.5
202.0875	1.2
203.0699	2.8
203.1064	4.7
203.1432	4.5
203.1801	1.8
204.1010	1.6
204.1399	1.4
205.0856	2.9
205.1217	9.3
205.1586	2.1
206.1547	1.4
207.1014	1.7
207.1165	1.3
207.1373	7.6
208.0950	1.9
208.1323	2.4
209.0445	10.5
209.0801	1.1
209.1134	1.9
209.1326	2.5
209.1541	1.6
210.0477	1.2
210.1128	2.8
210.1499	3.0
211.0604	1.6
211.1149	2.7
211.1490	4.5
212.1072	4.4
212.1282	2.7
213.0931	1.8
213.1273	4.5
213.1634	4.7
214.1238	1.2
215.1072	3.6
215.1434	4.8
215.1787	2.2
216.1031	1.3
217.0863	2.8
217.1221	5.8
217.1572	2.6
218.1198	2.0
219.1020	2.0
219.1348	5.3
220.0974	1.6
220.1328	3.3
221.1165	1.8
221.1318	2.0
221.1540	3.2
222.1108	2.1
223.0940	1.8
223.1328	2.9
223.1482	2.0
223.1698	1.5
224.1284	4.8
225.1309	2.3
225.1470	1.1
225.1667	2.7
227.1080	2.0
227.1441	2.6
227.1799	2.5
228.1034	1.2
228.1231	27.8
229.0876	2.3
229.1240	6.3
229.1581	3.3
230.1166	2.0
231.0999	2.1
231.1366	2.8
231.1726	2.1
232.0971	1.9
232.1326	2.1
233.0795	1.7
233.1166	2.4
233.1318	1.7
233.1505	3.9
234.1142	1.3
234.1503	1.4
235.1295	3.7
236.1274	1.6
237.1633	1.9
239.1442	2.1
239.1815	1.9
241.1229	1.8
241.1594	3.1
241.1943	1.2
243.1002	2.2
243.1381	3.0
243.1739	2.4
244.1346	1.3
245.1157	2.9
245.1525	3.2
246.1128	2.3
246.1498	1.4
247.0961	1.4
247.1340	1.8
247.1677	2.6
248.1286	1.3
249.1494	1.7
249.1843	3.1
251.1789	1.5
253.1942	1.3
254.1175	4.3
255.0990	2.0
255.1379	1.2
255.1770	1.6
257.1192	2.5
257.1523	2.8
258.1130	1.7
259.1313	3.1
259.1694	4.1
260.1300	1.5
261.1115	1.3
261.1482	3.4
261.1845	1.6
262.1462	1.3
263.1249	2.7
263.2018	1.2
265.1052	2.3
267.1733	1.3
269.1178	1.4
269.1552	1.8
269.1896	2.7
271.1332	3.6
271.1693	2.1
271.2050	1.3
272.1292	3.0
273.1121	2.0
273.1518	1.5
273.1850	2.1
275.1278	3.7
275.1645	1.6
275.2007	1.5
276.1616	1.5
277.1460	2.0
281.1899	1.2
283.1153	2.4
283.1710	1.4
283.2047	1.6
285.1207	1.7
285.1846	2.4
287.1278	1.5
287.1654	1.7
287.2004	9.4
288.2031	1.8
289.1437	4.0
289.1803	2.2
289.2151	1.9
290.1405	2.3
291.1233	1.7
291.1963	1.9
297.1845	3.5
299.1290	1.1
299.1650	2.1
299.2004	6.0
300.2015	1.5
301.1508	1.7
301.1810	2.5
301.2156	4.9
303.1615	2.0
303.1959	1.6
303.2311	1.8
305.1766	1.6
305.2113	2.9
306.1477	3.6
307.1960	1.3
309.2171	2.6
311.1650	1.4
311.1993	1.2
313.1797	2.3
313.2156	1.4
314.1763	1.3
315.1619	1.6
315.1952	6.6
315.2306	1.2
316.1961	2.0
317.1479	1.5
317.2108	6.8
318.2090	1.9
319.1598	2.1
319.1915	1.7
319.2253	4.6
321.1774	2.3
321.2420	1.5
324.1601	3.4
325.2146	1.8
326.1765	1.9
327.1595	1.5
327.1947	2.6
327.2311	5.8
329.1767	3.6
331.1902	2.9
331.2262	1.6
332.1886	1.4
332.2252	1.5
333.1713	2.3
333.2058	5.4
334.2061	1.8
335.1872	1.6
335.2217	5.5
335.2935	1.3
337.2008	2.1
337.2373	3.0
340.1799	1.8
341.1767	1.2
342.1712	5.4
343.1884	2.7
343.2276	2.6
344.1500	2.5
344.1874	4.8
344.2269	2.0
345.1710	4.8
345.2052	8.9
345.2423	9.8
346.1282	2.0
346.1693	1.7
346.2037	3.3
346.2438	2.7
346.3320	2.4
347.1870	5.2
347.2216	2.2
347.2577	2.3
348.1443	1.3
348.1860	2.5
348.2194	1.7
349.2045	4.7
350.2000	3.1
350.2352	1.3
351.1814	5.3
351.2252	4.7
352.1788	2.5
352.2223	3.8
352.3085	3.2
353.2007	2.8
353.2455	2.3
354.1921	9.1
355.2220	2.6
356.1532	1.4
356.1787	1.7
356.2238	1.4
357.1668	2.0
357.2061	2.1
358.1281	1.3
358.1667	1.9
358.2396	1.3
359.1858	4.6
359.2215	3.5
360.1813	17.5
360.2185	1.4
361.1972	6.6
361.2384	4.7
362.1596	2.0
362.1970	3.6
362.2414	3.4
362.3261	3.9
363.1794	3.1
363.2212	1.9
363.2531	2.1
364.2147	1.3

Name: Mefloquine Hydrochloride
PrecursorMZ: 379.126
RT: 5.155
ExactMass: 414.0933598
Spectrum_type: 2
charge: 1
Formula: C17H17ClF6N2O
SMILES: C1CCN[C@H](C1)[C@H](C2=CC(=NC3=C2C=CC=C3C(F)(F)F)C(F)(F)F)O.Cl
Method: HCD
Collision_energy: [28.333334]
Isolation_window: 4.0
Ion_mode: P
Num Peaks: 20
89.0599	4.7
124.0757	5.5
155.0103	2.2
164.0705	2.8
192.0653	5.7
208.0965	3.6
224.0912	3.5
331.1646	2.9
349.1750	12.9
377.1465	11.5
377.1691	4.4
378.1508	6.6
378.2147	100.0
379.1258	47.6
379.1471	3.9
379.2182	22.0
380.1298	9.0
380.2128	8.3
381.1186	3.2
381.1980	3.5

Name: Melilotic acid
PrecursorMZ: 149.05969
RT: 7.0705
ExactMass: 166.062994177
Spectrum_type: 2
charge: 1
Formula: C9H10O3
SMILES: C1=CC=C(C(=C1)CCC(=O)O)O
Method: HCD
Collision_energy: [28.333334]
Isolation_window: 4.0
Ion_mode: P
Num Peaks: 15
79.0545	27.4
84.0447	7.5
93.0701	20.5
103.0543	100.0
104.0577	9.2
107.0493	48.4
108.0525	4.7
121.0648	14.4
131.0490	10.6
148.0392	5.7
148.0755	8.4
149.0232	4.0
149.0597	9.8
149.0709	5.2
150.0550	9.6

Name: Mephedrone
PrecursorMZ: 178.12264
RT: 3.945
ExactMass: 177.115364102
Spectrum_type: 2
charge: 1
Formula: C11H15NO
SMILES: CC1=CC=C(C=C1)C(=O)C(C)NC
Method: HCD
Collision_energy: [28.333334]
Isolation_window: 4.0
Ion_mode: P
Num Peaks: 23
58.0655	1.1
60.0813	4.2
69.0339	2.3
78.9846	1.1
86.0604	2.8
96.9954	4.7
116.0708	3.9
135.0439	1.7
136.0759	1.1
160.1124	1.5
165.0216	7.5
178.1229	100.0
179.1259	8.9
180.0808	13.1
180.1041	73.1
181.0843	1.8
181.1063	7.5
182.1022	1.3
190.1074	1.5
192.1019	4.8
193.1332	1.3
194.1177	12.8
195.1225	1.5

Name: Meptazinol
PrecursorMZ: 234.18513
RT: 1.2236
ExactMass: 233.177964357
Spectrum_type: 2
charge: 1
Formula: C15H23NO
SMILES: CCC1(CCCCN(C1)C)C2=CC(=CC=C2)O
Method: HCD
Collision_energy: [28.333334]
Isolation_window: 4.0
Ion_mode: P
Num Peaks: 41
58.0656	0.9
86.0967	8.8
100.1123	27.2
101.1156	1.5
101.1201	1.6
105.0701	7.8
106.0734	0.7
107.0857	0.9
117.0700	1.0
119.0857	1.1
121.1015	0.9
133.0648	93.5
133.0755	0.8
134.0681	8.1
135.0441	1.1
135.0803	1.0
147.0806	1.7
149.0598	6.6
159.1168	1.2
160.0968	1.9
161.1326	1.4
175.1117	0.8
178.1226	4.9
179.1261	0.7
217.1223	1.4
233.1162	1.2
233.1287	1.8
233.1534	1.0
233.1648	0.8
234.1123	1.4
234.1345	1.7
234.1487	3.0
234.1603	1.0
234.1851	100.0
235.1313	2.4
235.1443	1.3
235.1691	1.0
235.1886	16.3
236.1279	2.3
236.1644	10.9
236.1905	1.1

Name: Mequitazine
PrecursorMZ: 323.15955
RT: 1.2988
ExactMass: 322.15036988
Spectrum_type: 2
charge: 1
Formula: C20H22N2S
SMILES: C1CN2CCC1C(C2)CN3C4=CC=CC=C4SC5=CC=CC=C53
Method: HCD
Collision_energy: [28.333334]
Isolation_window: 4.0
Ion_mode: P
Num Peaks: 108
70.0655	22.2
72.0812	8.2
81.0338	11.1
81.0704	2.9
83.0495	4.6
84.0448	5.3
84.0811	7.5
86.0967	13.0
95.0495	2.8
96.0446	3.7
96.0811	2.7
98.0602	4.0
98.0965	3.5
110.0603	4.1
111.0443	13.3
112.0756	4.3
114.0553	2.8
114.0912	3.7
116.0707	12.5
120.0810	11.4
122.0602	12.7
122.0714	10.1
124.0757	44.4
125.0791	3.4
126.0549	3.3
126.0913	19.0
128.0706	3.0
130.0653	5.1
132.1020	2.7
136.0756	16.6
138.0550	3.1
138.0913	28.0
139.0967	5.5
140.0701	4.4
140.1071	2.8
144.1020	2.8
145.0319	3.8
146.0602	4.1
150.0551	15.5
150.0914	5.2
152.0705	13.2
154.0862	12.0
164.0706	96.7
164.1070	7.3
165.0747	9.5
166.0862	11.7
168.0653	7.4
168.1015	4.8
178.0858	5.5
180.0655	15.8
180.1004	3.9
182.0810	100.0
183.0851	9.9
183.1495	3.2
187.1443	4.1
192.0653	3.2
194.0807	7.4
196.0968	2.8
198.0756	6.6
208.0969	5.2
210.1113	3.6
211.1442	3.4
213.1234	8.5
220.1186	8.4
221.0922	2.7
245.1268	2.7
250.1071	5.7
264.1229	2.8
267.1336	7.8
281.1497	7.0
287.1389	5.3
289.1538	10.7
292.1175	8.0
304.1177	2.8
305.1486	4.9
306.1335	3.7
307.1642	5.1
308.1624	3.4
321.1445	5.7
322.1303	5.8
322.1789	4.0
323.1616	14.2
324.1467	9.3
325.1420	4.5
325.1754	6.7
326.1687	4.6
327.1646	5.5
328.1495	5.1
329.1463	3.2
329.1774	2.7
330.1291	3.8
331.1010	8.6
332.1122	4.3
333.1460	4.9
333.1808	2.7
334.1292	5.3
334.1824	5.2
335.1247	2.7
335.1589	5.9
336.1686	9.2
337.1361	5.5
337.1733	6.7
338.1249	4.2
338.1735	4.4
339.1602	4.3
340.1411	3.0
341.1789	4.3
342.1552	4.8

Name: Meranzin hydrate
PrecursorMZ: 301.10423
RT: 1.438
ExactMass: 278.11542367
Spectrum_type: 2
charge: 1
Formula: C15H18O5
SMILES: CC(C)(C(CC1=C(C=CC2=C1OC(=O)C=C2)OC)O)O
Method: HCD
Collision_energy: [28.333334]
Isolation_window: 4.0
Ion_mode: P
Num Peaks: 3
213.0519	17.9
301.1041	100.0
302.1079	13.5

Name: Meso-Dihydroguaiaretic Acid
PrecursorMZ: 353.17025
RT: 9.2212
ExactMass: 330.18310931
Spectrum_type: 2
charge: 1
Formula: C20H26O4
SMILES: C[C@H](CC1=CC(=C(C=C1)O)OC)[C@@H](C)CC2=CC(=C(C=C2)O)OC
Method: HCD
Collision_energy: [28.333334]
Isolation_window: 4.0
Ion_mode: P
Num Peaks: 6
101.0597	4.7
235.1072	7.3
253.1177	10.0
353.1697	100.0
354.1733	20.1
355.1857	5.8

Name: Metalaxyl
PrecursorMZ: 280.15425
RT: 4.7091
ExactMass: 279.14705815
Spectrum_type: 2
charge: 1
Formula: C15H21NO4
SMILES: CC1=C(C(=CC=C1)C)N(C(C)C(=O)OC)C(=O)COC
Method: HCD
Collision_energy: [28.333334]
Isolation_window: 4.0
Ion_mode: P
Num Peaks: 114
57.0704	3.0
58.0657	5.1
69.0339	3.7
70.0657	21.7
72.0813	16.8
81.0451	4.7
83.0496	3.0
84.0812	37.2
85.0652	3.0
86.0605	3.6
86.0967	3.1
87.0445	4.1
89.0601	8.4
95.0605	5.3
96.0813	3.1
98.0967	3.1
100.0760	4.6
101.0601	11.0
104.0710	3.6
105.0373	7.4
110.0604	38.6
110.0714	4.9
112.0873	5.1
114.1030	3.4
116.0710	4.0
120.0811	6.8
122.0715	16.8
122.0814	18.2
123.0794	5.0
124.0760	11.2
125.0713	7.2
130.0865	4.5
132.0447	16.0
133.0862	4.6
136.0760	3.3
144.0481	14.1
148.0760	3.4
149.0236	13.4
150.0917	5.8
154.0865	4.6
163.1234	11.1
164.1074	3.1
168.0689	15.5
176.1073	55.4
177.1124	5.9
180.1020	3.1
182.1292	4.5
187.0869	17.8
193.1340	45.7
194.1372	6.3
209.1287	22.4
219.1137	4.0
220.1335	38.1
221.1369	6.3
222.1718	7.7
223.1445	8.2
224.1028	3.4
237.1601	2.9
239.1396	6.9
263.1506	9.2
265.1115	8.9
277.1557	3.1
278.1397	14.8
278.1619	5.7
279.0938	3.4
279.1411	14.9
279.1714	11.1
280.1552	50.4
280.1784	14.2
281.1523	35.0
281.1859	16.5
282.1324	4.1
282.1952	22.5
283.1223	18.4
283.1680	16.3
283.1991	3.1
284.1287	13.4
284.1991	9.5
284.3307	4.4
285.1257	17.3
285.1812	100.0
286.1195	5.4
286.1490	4.3
286.1840	14.6
286.3104	8.5
287.1041	5.0
287.1388	37.3
288.0860	4.5
288.1405	6.0
288.1713	26.5
289.1215	4.9
289.1587	9.7
290.1378	27.4
290.2691	4.9
291.1359	20.5
291.1723	15.2
292.1540	28.4
293.1543	29.6
293.1866	13.1
294.1318	5.4
294.1839	7.5
295.1653	41.1
296.1443	11.8
296.2007	6.2
297.1503	6.4
297.1835	12.6
298.1633	13.0
298.1924	20.3
298.2148	3.2
299.1392	6.5
299.1635	4.3
299.2065	15.0
300.1293	3.2
300.2647	4.2

Name: Metaproterenol
PrecursorMZ: 212.12806
RT: 14.2117
ExactMass: 211.1208434
Spectrum_type: 2
charge: 1
Formula: C11H17NO3
SMILES: CC(C)NCC(C1=CC(=CC(=C1)O)O)O
Method: HCD
Collision_energy: [28.333334]
Isolation_window: 4.0
Ion_mode: P
Num Peaks: 44
70.0655	0.8
72.0812	0.8
86.0967	1.3
87.0443	1.0
106.0864	0.8
107.0730	1.2
108.0810	4.7
110.0602	0.9
110.0715	0.8
120.0808	0.8
123.0918	23.5
124.0952	1.2
126.0551	1.1
126.0915	1.0
152.0707	0.7
153.1024	0.9
166.0864	1.1
168.1133	1.3
194.0813	1.4
194.1176	1.0
195.1128	1.2
210.1126	7.7
210.1333	1.1
210.1600	1.2
211.1075	0.9
211.1162	2.2
211.1442	1.5
211.1552	0.7
212.0920	5.2
212.1024	0.7
212.1065	0.7
212.1281	100.0
212.1361	1.3
212.1492	0.8
212.8515	0.9
213.1233	35.3
213.1318	9.0
213.1593	1.3
214.0710	1.2
214.1073	5.6
214.1184	1.4
214.1262	1.7
214.1338	0.9
214.1439	0.8

Name: Methadone
PrecursorMZ: 310.21631
RT: 5.7855
ExactMass: 309.209264485
Spectrum_type: 2
charge: 1
Formula: C21H27NO
SMILES: CCC(=O)C(CC(C)N(C)C)(C1=CC=CC=C1)C2=CC=CC=C2
Method: HCD
Collision_energy: [28.333334]
Isolation_window: 4.0
Ion_mode: P
Num Peaks: 70
70.0655	1.0
72.0811	1.5
81.0702	2.4
83.0860	1.8
84.0447	0.9
86.0967	15.9
91.0544	1.1
93.0701	1.4
95.0858	2.0
96.0446	1.0
100.1123	51.4
101.0599	1.0
101.1156	2.5
101.1202	2.2
105.0337	10.7
105.0700	1.6
107.0857	2.4
116.0707	1.2
118.0414	1.2
126.0915	3.4
145.1012	4.3
147.0441	9.3
149.1326	1.4
158.0599	2.1
166.0777	2.1
166.0862	1.5
167.0858	7.3
181.1012	41.8
182.1044	5.7
209.0960	29.5
210.0994	4.1
211.0754	2.8
213.0909	1.9
222.1125	3.9
227.1065	1.9
232.0969	1.0
247.1075	4.0
264.1223	1.1
277.2167	2.2
291.1337	1.1
291.1704	2.2
292.1162	2.2
293.1534	3.1
294.1326	1.6
308.2222	2.1
309.1074	1.4
309.1444	4.1
309.1806	4.0
309.2171	2.9
309.2577	9.6
310.1277	5.6
310.1438	2.5
310.1778	2.2
310.2163	100.0
310.2606	1.9
311.1039	2.4
311.1236	2.7
311.1390	1.5
311.1599	5.0
311.1635	13.5
311.1976	1.9
311.2195	21.1
312.0865	1.1
312.1064	1.4
312.1229	1.7
312.1436	4.5
312.1581	1.7
312.1684	2.6
312.1952	8.4
312.3622	1.8

Name: Methamphetamine
PrecursorMZ: 150.12774
RT: 5.89075
ExactMass: 149.120449483
Spectrum_type: 2
charge: 1
Formula: C10H15N
SMILES: C[C@@H](CC1=CC=CC=C1)NC
Method: HCD
Collision_energy: [28.333334]
Isolation_window: 4.0
Ion_mode: P
Num Peaks: 14
58.0656	14.4
91.0545	100.0
92.0578	8.7
96.9954	2.5
108.0809	4.1
119.0854	1.9
134.0634	6.4
149.0233	4.4
149.1074	2.5
150.0914	2.4
150.1278	58.3
151.0866	2.7
151.1311	7.2
152.0704	1.9

Name: Methionine sulfoxide, DL-
PrecursorMZ: 166.05321
RT: 8.8166
ExactMass: 165.04596439
Spectrum_type: 2
charge: 1
Formula: C5H11NO3S
SMILES: CS(=O)CCC(C(=O)O)N
Method: HCD
Collision_energy: [28.333334]
Isolation_window: 4.0
Ion_mode: P
Num Peaks: 16
56.0499	18.9
74.0239	100.0
74.0603	2.6
75.0266	20.7
89.0484	1.8
96.9953	2.2
102.0550	18.5
123.0109	5.8
148.0789	3.1
149.0266	16.0
164.1164	4.9
165.0212	2.9
166.0532	12.9
166.0888	6.5
167.0814	3.9
168.0692	34.4

Name: Methyl (3alpha,5beta,7alpha)-7-acetoxy-3-hydroxy-12-oxocholan-24-oate
PrecursorMZ: 485.28697
RT: 2.5227
ExactMass: 462.29813906
Spectrum_type: 2
charge: 1
Formula: C27H42O6
SMILES: C[C@H](CCC(=O)OC)[C@H]1CC[C@@H]2[C@@]1(C(=O)C[C@H]3[C@H]2[C@@H](C[C@H]4[C@@]3(CC[C@H](C4)O)C)OC(=O)C)C
Method: HCD
Collision_energy: [28.333334]
Isolation_window: 4.0
Ion_mode: P
Num Peaks: 6
157.1012	21.3
313.2730	100.0
314.2761	15.1
466.2733	26.1
484.2840	76.4
485.2887	22.1

Name: Methyl 1-(2-(5-(4-methoxyphenyl)isoxazol-3-yl)acetyl)piperidine-4-carboxylate
PrecursorMZ: 359.15937
RT: 5.4232
ExactMass: 358.15287181
Spectrum_type: 2
charge: 1
Formula: C19H22N2O5
SMILES: COC1=CC=C(C=C1)C2=CC(=NO2)CC(=O)N3CCC(CC3)C(=O)OC
Method: HCD
Collision_energy: [28.333334]
Isolation_window: 4.0
Ion_mode: P
Num Peaks: 8
96.0444	55.1
116.0705	10.5
121.0644	8.0
136.0753	13.7
162.0548	19.2
182.0808	6.7
359.1591	100.0
360.1630	21.7

Name: Methyl 1-methyl-1,2,3,4-tetrahydrobeta-carboline-3-carboxylate, chloride
PrecursorMZ: 245.12844
RT: 1.3629
ExactMass: 280.0978555
Spectrum_type: 2
charge: 1
Formula: C14H17ClN2O2
SMILES: CC1C2=C(CC(N1)C(=O)OC)C3=CC=CC=C3N2.Cl
Method: HCD
Collision_energy: [28.333334]
Isolation_window: 4.0
Ion_mode: P
Num Peaks: 38
69.0703	0.7
81.0703	1.1
83.0859	1.5
88.0396	8.9
95.0859	1.0
97.1014	1.0
107.0858	0.7
114.0553	1.1
116.0708	2.1
130.0653	2.2
143.0729	1.0
144.0810	1.5
154.0653	3.5
158.0830	0.8
158.0966	100.0
158.1101	0.7
159.0926	1.0
159.0998	11.3
160.0758	11.1
161.0790	1.5
163.1482	0.8
168.0809	8.1
169.0838	0.9
170.0600	0.7
180.1748	0.7
185.1073	1.3
196.0758	1.0
202.0863	16.6
203.0899	1.8
208.1699	1.4
228.1019	12.5
229.1056	1.8
244.0973	1.4
245.1001	1.0
245.1148	2.0
245.1279	11.7
246.1123	1.3
246.1325	1.5

Name: Methyl 17-ethyl-14-methoxy-3,13-diazapentacyclo(13.3.1.02,10.04,9.013,18)nonadeca-2(10),4,6,8-tetraene-1-carboxylate
PrecursorMZ: 369.21776
RT: 8.348
ExactMass: 368.20999276
Spectrum_type: 2
charge: 1
Formula: C22H28N2O3
SMILES: CCC1CC2CC3(C1N(C2OC)CCC4=C3NC5=CC=CC=C45)C(=O)OC
Method: HCD
Collision_energy: [28.333334]
Isolation_window: 4.0
Ion_mode: P
Num Peaks: 42
70.0654	2.5
84.0809	3.2
87.0441	1.5
96.0443	1.5
104.0707	2.0
110.0599	1.9
110.0964	2.3
111.0439	2.4
116.0706	2.1
126.0913	2.1
130.0860	2.8
151.1074	2.7
154.0860	68.8
155.0892	5.2
172.0965	100.0
173.0998	8.2
197.1281	11.1
245.1496	1.5
263.1595	5.4
270.1805	2.4
279.1545	7.6
288.1912	2.5
304.1859	9.3
350.1436	1.4
368.1338	6.1
368.1548	4.5
368.1823	1.5
369.1422	4.6
369.1622	9.5
369.2179	17.9
369.7189	6.2
370.1280	4.0
370.1494	11.5
370.1692	4.3
370.1979	1.9
371.1442	2.3
371.1595	1.7
371.1819	8.3
395.2490	6.0
459.2799	6.1
566.3384	20.6
567.3415	4.8

Name: Methyl 2-((4-hydroxy-3-methoxyphenyl)methylidene)-3-oxo-1-benzofuran-5-carboxylate
PrecursorMZ: 327.08611
RT: 6.7039
ExactMass: 326.07903816
Spectrum_type: 2
charge: 1
Formula: C18H14O6
SMILES: COC1=C(C=CC(=C1)C=C2C(=O)C3=C(O2)C=CC(=C3)C(=O)OC)O
Method: HCD
Collision_energy: [28.333334]
Isolation_window: 4.0
Ion_mode: P
Num Peaks: 47
55.0183	9.4
70.0656	11.5
80.0498	8.3
84.0447	12.1
102.0552	7.5
114.0915	10.1
116.0708	8.6
130.0499	13.9
153.0659	36.4
171.0766	5.3
181.0606	14.2
195.0806	13.4
199.0712	14.6
207.0807	11.9
209.0947	6.7
211.0755	11.4
212.0662	9.8
217.0817	19.6
221.0597	49.9
222.0630	8.9
223.0753	21.4
235.0753	15.5
237.0911	6.8
239.0701	42.8
240.0733	5.4
253.0859	15.7
263.0701	57.1
264.0742	12.2
265.0860	14.5
267.0651	31.0
281.0808	56.3
282.0844	10.8
282.1074	6.4
285.0752	5.5
299.0913	6.1
309.0751	6.0
310.1031	5.8
325.1396	7.4
326.1202	6.7
326.1380	17.9
327.0858	100.0
327.1184	10.1
327.1551	6.8
328.0428	19.9
328.0909	27.6
328.1158	11.0
328.1384	23.4

Name: Methyl 2-((4-methoxyphenyl)methylidene)-3-oxo-1-benzofuran-5-carboxylate
PrecursorMZ: 311.0912
RT: 6.2737
ExactMass: 310.08412354
Spectrum_type: 2
charge: 1
Formula: C18H14O5
SMILES: COC1=CC=C(C=C1)C=C2C(=O)C3=C(O2)C=CC(=C3)C(=O)OC
Method: HCD
Collision_energy: [28.333334]
Isolation_window: 4.0
Ion_mode: P
Num Peaks: 16
100.0759	10.8
121.0285	9.6
147.0440	25.9
223.0752	28.8
224.0780	3.6
237.0907	17.6
247.0748	3.6
249.0906	4.3
251.0700	100.0
252.0735	14.1
265.0856	15.7
283.0961	8.1
293.0806	14.0
310.1281	5.0
311.0904	17.2
312.3620	6.8

Name: Methyl 2-(2,6-dihydroxy-4-methylbenzoyl)-3,5-dihydroxybenzoate
PrecursorMZ: 319.08084
RT: 1.7329
ExactMass: 318.07395278
Spectrum_type: 2
charge: 1
Formula: C16H14O7
SMILES: CC1=CC(=C(C(=C1)O)C(=O)C2=C(C=C(C=C2O)O)C(=O)OC)O
Method: HCD
Collision_energy: [28.333334]
Isolation_window: 4.0
Ion_mode: P
Num Peaks: 89
67.0547	2.2
70.0656	7.9
81.0340	3.3
84.0812	5.6
85.0652	4.8
96.0447	2.3
100.0761	2.6
101.0600	4.3
107.0495	5.5
111.0443	3.3
114.0666	2.8
116.0707	3.1
123.0442	3.2
126.0914	2.8
130.0865	3.8
136.0759	2.5
137.0239	3.3
138.0552	14.8
150.0917	2.3
152.0709	2.5
161.0599	4.3
164.0707	3.4
166.0503	2.1
166.0863	2.6
177.1025	2.2
181.0973	13.5
189.0550	9.4
189.0786	8.7
195.1130	8.0
202.0867	5.3
206.0809	3.5
208.0602	3.0
211.0755	2.2
212.0709	7.3
213.0553	5.2
214.0623	8.4
214.0858	2.6
215.0705	24.8
216.0741	4.1
227.0703	2.2
230.0814	43.7
231.0652	2.6
231.0854	7.0
239.0702	2.3
245.0445	14.5
246.0485	2.4
254.0807	2.1
255.0641	2.8
258.0768	2.4
272.0915	7.6
283.0601	25.3
284.0642	4.3
285.0749	2.6
300.0865	13.4
301.0697	25.1
302.0738	4.5
307.1369	2.3
312.0865	3.0
318.0974	100.0
318.1286	2.9
318.1508	2.4
319.0781	9.1
319.0998	9.3
319.1661	2.6
320.1376	7.0
320.1979	6.2
321.1423	2.9
322.1438	4.3
323.1248	2.4
323.1674	2.7
324.1521	4.0
324.1913	2.8
325.1484	4.2
325.1812	6.1
326.1300	2.4
326.1619	9.4
327.1609	5.7
328.1483	6.1
329.1037	6.4
329.1454	2.5
330.0962	7.7
330.1612	5.2
331.1589	5.8
332.1084	4.3
333.1741	4.9
334.1421	3.6
335.1661	3.1
336.1567	3.2
337.1412	4.6

Name: Methyl 2-(2-hydroxypropanoylamino)-3-methylbutanoate
PrecursorMZ: 204.12285
RT: 6.2683
ExactMass: 203.11575802
Spectrum_type: 2
charge: 1
Formula: C9H17NO4
SMILES: CC(C)C(C(=O)OC)NC(=O)C(C)O
Method: HCD
Collision_energy: [28.333334]
Isolation_window: 4.0
Ion_mode: P
Num Peaks: 4
55.0546	17.2
72.0811	53.4
149.0231	33.5
204.1226	100.0

Name: Methyl 2-(4-ethenyl-2,6-dihydroxy-3-(3-hydroxyprop-1-EN-2-YL)-4-methylcyclohexyl)prop-2-enoate
PrecursorMZ: 335.12533
RT: 1.4971
ExactMass: 296.16237386
Spectrum_type: 2
charge: 1
Formula: C16H24O5
SMILES: CC1(CC(C(C(C1C(=C)CO)O)C(=C)C(=O)OC)O)C=C
Method: HCD
Collision_energy: [28.333334]
Isolation_window: 4.0
Ion_mode: P
Num Peaks: 27
71.0496	7.8
108.0810	3.2
113.0597	3.0
157.0498	3.3
159.1170	6.6
161.1325	5.0
179.0702	6.4
182.1175	5.0
187.1118	6.3
201.1273	3.0
205.1226	5.2
211.1117	3.9
223.1328	11.3
227.1068	2.9
229.1223	16.0
231.1019	3.5
247.1328	14.1
249.1122	4.5
253.1582	2.7
269.1538	3.0
281.1535	8.0
299.1641	12.9
317.1745	11.2
335.1261	15.7
335.1846	100.0
336.1263	3.0
336.1882	21.6

Name: Methyl 3-)(3-methoxybenzoyl)amino(-4-(4-methylpiperazin-1-yl)benzoate
PrecursorMZ: 384.19116
RT: 6.0219
ExactMass: 383.18450629
Spectrum_type: 2
charge: 1
Formula: C21H25N3O4
SMILES: CN1CCN(CC1)C2=C(C=C(C=C2)C(=O)OC)NC(=O)C3=CC(=CC=C3)OC
Method: HCD
Collision_energy: [28.333334]
Isolation_window: 4.0
Ion_mode: P
Num Peaks: 25
57.0704	5.7
59.0609	5.2
70.0655	8.8
71.0859	10.7
84.0811	51.1
86.0967	3.6
87.0445	4.0
89.0600	17.4
130.0864	17.5
133.0859	8.7
149.0234	60.3
150.0272	4.6
167.0340	9.9
224.0942	4.8
225.1233	4.3
255.1128	50.1
256.1162	7.7
339.1703	17.8
340.1715	3.5
367.1957	3.2
371.2276	10.0
384.1916	100.0
385.1950	24.8
386.1988	4.8
402.2391	4.7

Name: Methyl 3-methyl-2-))2-(4-methyl-2-oxochromen-7-yl)oxyacetyl(amino(pentanoate
PrecursorMZ: 362.15985
RT: 3.4993
ExactMass: 361.15253745
Spectrum_type: 2
charge: 1
Formula: C19H23NO6
SMILES: CCC(C)C(C(=O)OC)NC(=O)COC1=CC2=C(C=C1)C(=CC(=O)O2)C
Method: HCD
Collision_energy: [28.333334]
Isolation_window: 4.0
Ion_mode: P
Num Peaks: 19
70.0656	13.4
101.0598	6.7
262.1079	10.2
301.1312	21.3
302.1363	6.8
360.1653	7.7
362.1596	100.0
363.1607	23.9
364.1458	7.6
366.1625	11.9
367.1526	8.7
368.1776	8.2
369.1791	12.5
370.1499	12.4
372.1657	9.1
374.3634	6.9
376.1509	7.0
378.1765	14.0
379.1489	6.2

Name: Methyl 3-oxo-2-((3,4,5-trimethoxyphenyl)methylidene)-1-benzofuran-5-carboxylate
PrecursorMZ: 371.11243
RT: 4.9474
ExactMass: 370.10525291
Spectrum_type: 2
charge: 1
Formula: C20H18O7
SMILES: COC1=CC(=CC(=C1OC)OC)C=C2C(=O)C3=C(O2)C=CC(=C3)C(=O)OC
Method: HCD
Collision_energy: [28.333334]
Isolation_window: 4.0
Ion_mode: P
Num Peaks: 49
89.0600	5.8
116.0709	3.0
126.0915	4.1
132.0114	8.1
133.0860	3.8
152.0706	6.3
176.8758	3.7
194.0812	37.4
195.0846	7.7
212.0917	35.5
213.0953	5.7
241.0860	5.8
253.0857	3.1
255.0653	4.8
269.0808	12.5
270.0840	2.5
283.0964	3.6
285.1121	2.3
287.0913	12.6
296.0676	2.5
297.0756	29.7
298.0794	4.1
299.0919	4.5
310.1835	3.1
311.0913	60.3
312.0948	13.5
312.1991	3.3
314.0781	2.2
324.1994	2.1
329.1019	100.0
330.1052	19.6
331.1073	2.3
338.0788	5.7
339.0861	17.5
340.0897	2.4
353.1017	7.1
356.0890	5.1
369.4286	13.1
370.1288	2.2
370.2047	11.4
370.4324	2.8
371.1123	65.8
371.1603	2.6
372.1160	14.1
372.1665	4.0
372.2202	11.3
373.1162	2.8
373.1399	2.6
373.1744	2.4

Name: Methyl 3alpha-hydroxy-12-oxo-5beta-cholan-24-oate (11,11-D2)
PrecursorMZ: 405.29872
RT: 1.4636
ExactMass: 404.29265975
Spectrum_type: 2
charge: 1
Formula: C25H40O4
SMILES: C[C@H](CCC(=O)OC)[C@H]1CC[C@@H]2[C@@]1(C(=O)C[C@H]3[C@H]2CC[C@H]4[C@@]3(CC[C@H](C4)O)C)C
Method: HCD
Collision_energy: [28.333334]
Isolation_window: 4.0
Ion_mode: P
Num Peaks: 102
67.0545	3.8
69.0701	2.1
79.0542	2.0
81.0699	8.9
83.0856	3.1
85.0648	3.9
86.0964	1.4
91.0540	1.9
93.0698	5.4
95.0854	10.2
97.4574	2.9
99.0439	2.3
105.0697	5.6
107.0854	9.8
109.1010	9.6
113.0595	3.5
115.0751	4.1
119.0853	7.3
121.1009	6.9
123.0803	1.9
123.1165	2.6
125.0958	2.3
131.0851	5.0
133.1008	7.3
135.0800	1.4
135.1164	6.2
137.0958	1.7
143.0852	2.9
145.0858	1.6
145.1007	51.1
146.1041	5.3
147.1164	12.5
149.0955	1.4
149.1320	23.2
150.1355	1.7
151.1113	1.6
153.0905	1.4
157.1006	3.6
159.1164	9.4
160.1195	1.7
161.1320	8.4
163.1476	5.3
171.1164	3.1
173.1319	3.2
175.1476	3.6
183.1165	1.9
185.1320	4.6
187.1474	5.8
189.1628	2.3
193.1216	2.7
199.1474	13.8
200.1505	1.8
201.1631	11.3
202.1664	1.8
203.1788	1.4
209.1319	3.7
211.1473	2.6
213.1630	15.0
214.1663	2.5
215.1786	17.9
216.1819	3.3
222.1119	1.7
223.1475	1.6
225.1628	2.7
227.1422	5.6
227.1786	8.3
228.1816	1.9
229.1581	2.6
231.1737	1.4
237.1625	1.8
239.1786	1.6
241.1578	1.5
241.1940	4.9
243.2097	1.6
245.1526	7.3
247.1688	2.2
255.1732	4.1
259.1683	3.5
261.1843	2.1
273.1838	2.8
279.2099	1.4
293.2253	1.7
295.2046	1.7
309.2564	100.0
310.2598	23.0
311.2627	2.0
319.2405	10.5
320.2444	2.3
323.1950	3.4
327.2670	3.9
337.2513	30.7
338.2546	6.8
355.2617	76.2
356.2652	18.8
369.2773	23.2
370.2808	6.0
373.2722	70.7
374.2756	18.7
387.2878	7.3
388.2916	2.3
405.2984	42.7
406.3017	12.0

Name: Methyl 4-(2-methyl-1-oxo-1,2-dihydroisoquinoline-4-carboxamido)benzoate
PrecursorMZ: 359.10019
RT: 6.8681
ExactMass: 336.111007
Spectrum_type: 2
charge: 1
Formula: C19H16N2O4
SMILES: CN1C=C(C2=CC=CC=C2C1=O)C(=O)NC3=CC=C(C=C3)C(=O)OC
Method: HCD
Collision_energy: [28.333334]
Isolation_window: 4.0
Ion_mode: P
Num Peaks: 26
70.0655	3.9
81.0339	4.3
101.0600	3.3
103.0544	3.4
111.0555	8.2
114.0551	6.2
114.0915	3.0
116.0707	3.5
131.0493	5.3
180.1019	4.3
259.1075	18.8
357.1448	6.2
357.1835	4.6
358.1288	8.1
358.1482	6.5
358.1673	5.4
358.2570	3.5
359.1003	100.0
359.1241	3.2
359.1597	31.9
360.1048	21.5
360.1441	12.7
360.1631	6.0
361.0999	4.1
361.1405	4.0
361.1877	3.2

Name: Methyl 4-(4-hydroxy-3-methoxyphenyl)-2-methyl-5-oxo-1,4,5,6,7,8-hexahydroquinoline-3-carboxylate
PrecursorMZ: 344.1487
RT: 3.9086
ExactMass: 343.14197277
Spectrum_type: 2
charge: 1
Formula: C19H21NO5
SMILES: CC1=C(C(C2=C(N1)CCCC2=O)C3=CC(=C(C=C3)O)OC)C(=O)OC
Method: HCD
Collision_energy: [28.333334]
Isolation_window: 4.0
Ion_mode: P
Num Peaks: 15
107.0491	2.6
133.0646	69.1
134.0679	7.3
136.0754	9.0
152.0702	2.9
194.0808	34.4
195.0842	3.2
206.0807	100.0
207.0841	12.2
240.2316	5.8
326.1378	33.3
327.1411	4.9
344.1485	27.2
345.1470	2.7
345.1519	4.6

Name: Methyl 4-(4-methoxyphenyl)-2,7,7-trimethyl-5-oxo-1,4,5,6,7,8-hexahydroquinoline-3-carboxylate
PrecursorMZ: 356.1855
RT: 6.7777
ExactMass: 355.17835828
Spectrum_type: 2
charge: 1
Formula: C21H25NO4
SMILES: CC1=C(C(C2=C(N1)CC(CC2=O)(C)C)C3=CC=C(C=C3)OC)C(=O)OC
Method: HCD
Collision_energy: [28.333334]
Isolation_window: 4.0
Ion_mode: P
Num Peaks: 43
58.0656	17.9
70.0656	3.9
72.0812	33.1
73.0846	1.2
81.0339	1.3
84.0812	0.9
111.0444	1.3
114.0916	3.3
130.1591	2.0
147.0442	1.4
176.8755	1.4
187.0997	1.0
257.1173	1.9
279.1015	2.0
280.1092	4.9
281.1133	0.9
284.1057	1.2
285.1122	3.3
296.1057	3.3
311.1277	4.0
354.1689	0.9
354.1739	2.9
355.1690	5.6
355.1854	1.2
355.2016	1.5
355.2074	2.2
356.1165	1.0
356.1306	1.1
356.1518	9.8
356.1663	6.3
356.1858	100.0
356.1897	84.8
356.2154	1.6
357.1451	1.2
357.1502	1.5
357.1707	3.1
357.1888	20.3
357.2196	1.1
357.2534	1.3
358.1483	1.8
358.1689	6.4
358.2036	3.2
358.2354	1.1

Name: Methyl 5-oxo-DL-prolinate
PrecursorMZ: 144.0655
RT: 4.8325
ExactMass: 143.058243149
Spectrum_type: 2
charge: 1
Formula: C6H9NO3
SMILES: COC(=O)C1CCC(=O)N1
Method: HCD
Collision_energy: [28.333334]
Isolation_window: 4.0
Ion_mode: P
Num Peaks: 25
56.0499	1.1
69.2208	0.3
84.0187	0.3
84.0362	0.3
84.0394	0.7
84.0446	100.0
84.0499	0.6
84.0691	0.4
84.0810	0.3
85.0286	0.2
85.0418	0.4
85.0479	4.7
97.4566	0.3
100.0216	0.6
102.0550	0.5
116.0706	4.6
117.0697	0.2
117.0740	0.3
121.9661	0.6
143.0855	0.2
144.0653	12.2
144.0806	0.4
145.0688	0.9
145.1010	0.7
146.0599	1.0

Name: Methyl Stearate
PrecursorMZ: 316.32072
RT: 2.2097
ExactMass: 298.287180451
Spectrum_type: 2
charge: 1
Formula: C19H38O2
SMILES: CCCCCCCCCCCCCCCCCC(=O)OC
Method: HCD
Collision_energy: [28.333334]
Isolation_window: 4.0
Ion_mode: P
Num Peaks: 6
60.0449	26.9
74.0604	100.0
112.8959	13.3
316.3207	87.8
317.1501	17.0
317.3244	17.6

Name: Methyl alpha-eleostearate
PrecursorMZ: 293.24672
RT: 1.0384
ExactMass: 292.240230259
Spectrum_type: 2
charge: 1
Formula: C19H32O2
SMILES: CCCC/C=C/C=C/C=C\CCCCCCCC(=O)OC
Method: HCD
Collision_energy: [28.333334]
Isolation_window: 4.0
Ion_mode: P
Num Peaks: 38
67.0545	67.2
69.0701	11.6
69.3168	8.6
69.5440	10.8
79.0544	10.9
81.0700	100.0
82.0734	7.0
83.0857	10.5
93.0699	17.8
95.0855	97.0
96.0888	7.4
97.1012	7.4
97.4566	8.7
105.0699	7.4
107.0854	18.4
109.1011	60.5
119.0853	7.5
121.1010	21.6
123.1166	38.2
131.0853	7.5
133.1008	8.7
135.1165	20.1
137.0958	6.8
137.1322	13.9
147.1166	7.1
149.1322	14.1
151.1114	8.6
159.1166	7.1
161.1320	8.9
163.1479	7.1
173.1322	9.1
243.2098	11.4
261.2204	18.9
291.2302	9.9
292.2345	8.3
293.2104	8.6
293.2466	48.5
294.2504	8.2

Name: Methyl arachidonate
PrecursorMZ: 319.2625
RT: 1.2655
ExactMass: 318.255880323
Spectrum_type: 2
charge: 1
Formula: C21H34O2
SMILES: CCCCC/C=C\C/C=C\C/C=C\C/C=C\CCCC(=O)OC
Method: HCD
Collision_energy: [28.333334]
Isolation_window: 4.0
Ion_mode: P
Num Peaks: 107
55.0545	3.2
57.0703	6.7
67.0546	66.3
68.0579	3.5
69.0338	7.0
69.0702	18.3
71.0495	6.3
71.0858	12.2
79.0545	29.1
81.0337	24.0
81.0701	82.9
82.0734	4.7
83.0494	4.8
83.0858	15.8
85.0650	6.9
87.0442	26.5
91.0544	19.8
93.0700	46.0
94.0734	2.8
95.0493	18.8
95.0856	81.2
96.0890	6.1
97.0649	6.5
97.1012	9.0
99.0805	12.3
105.0699	21.2
107.0856	30.9
108.0888	2.7
109.0648	3.5
109.1012	43.5
111.0805	3.6
113.0597	81.3
114.0631	4.7
117.0699	10.3
119.0855	28.0
120.0889	2.8
121.0648	5.7
121.1011	50.1
122.1044	3.3
123.0804	6.0
123.1167	26.3
129.0697	3.0
131.0854	19.8
133.1010	25.7
134.1044	2.7
135.0803	4.1
135.1166	33.8
137.0960	6.1
137.1323	11.9
139.0751	4.3
143.0853	3.9
143.1065	2.8
145.1010	18.6
146.1042	2.9
147.1167	24.4
148.1201	3.0
149.0960	3.9
149.1323	23.7
150.1358	2.7
151.1115	3.5
151.1480	4.9
157.1011	4.6
159.1167	15.0
161.1323	19.7
163.1118	2.8
163.1479	16.1
167.1066	2.6
171.1165	10.2
173.1323	11.7
175.1479	16.2
177.1635	7.3
181.1220	9.3
185.1321	9.0
187.1478	11.7
189.1635	8.6
199.1478	5.1
201.1635	8.6
203.1790	4.5
205.1587	3.1
213.1633	3.9
215.1792	3.5
217.1949	4.7
219.1735	6.1
219.2106	3.3
225.1479	8.4
227.1792	3.7
229.1949	3.4
243.2101	7.6
245.2260	40.0
246.2294	7.3
255.2105	2.6
257.2258	9.2
259.2415	7.1
273.2571	2.6
275.2366	3.1
283.2415	14.4
284.2449	3.2
299.2368	3.2
301.2520	43.4
302.2557	9.2
303.2689	2.9
317.2470	11.6
318.2511	7.2
319.2625	100.0
320.2663	22.1
321.1452	2.4
321.2788	14.6

Name: Methyl deoxycholate
PrecursorMZ: 389.30451
RT: 1.8763
ExactMass: 406.30830982
Spectrum_type: 2
charge: 1
Formula: C25H42O4
SMILES: C[C@H](CCC(=O)OC)[C@H]1CC[C@@H]2[C@@]1([C@H](C[C@H]3[C@H]2CC[C@H]4[C@@]3(CC[C@H](C4)O)C)O)C
Method: HCD
Collision_energy: [28.333334]
Isolation_window: 4.0
Ion_mode: P
Num Peaks: 17
81.0701	31.4
89.0599	53.6
95.0857	35.3
107.0855	26.7
121.1010	37.9
133.0857	32.7
133.1011	25.5
135.1165	62.2
147.1166	34.8
149.1323	28.3
161.1323	61.0
309.2568	36.8
355.2622	36.7
357.2779	100.0
371.2273	41.9
373.2727	34.0
389.3035	50.1

Name: Methyl hippurate
PrecursorMZ: 194.08096
RT: 7.3778
ExactMass: 193.07389321
Spectrum_type: 2
charge: 1
Formula: C10H11NO3
SMILES: COC(=O)CNC(=O)C1=CC=CC=C1
Method: HCD
Collision_energy: [28.333334]
Isolation_window: 4.0
Ion_mode: P
Num Peaks: 27
69.0338	1.1
83.0494	1.0
87.0442	13.7
89.0598	1.5
95.0492	1.0
96.0444	1.9
110.0601	17.5
111.0440	2.3
129.0544	2.0
134.0597	1.2
135.0439	1.7
148.0755	2.1
176.0703	3.0
178.0858	1.3
192.0654	1.6
192.1227	1.6
192.1378	1.1
193.0966	1.4
194.0808	100.0
194.0997	1.0
194.1171	4.7
194.1532	1.2
195.0761	1.0
195.0842	10.9
195.1122	1.1
196.0600	1.2
196.0964	20.2

Name: Methylbetain
PrecursorMZ: 132.10189
RT: 16.2584
ExactMass: 131.094628657
Spectrum_type: 2
charge: 1
Formula: C6H13NO2
SMILES: CC(C(=O)[O-])[N+](C)(C)C
Method: HCD
Collision_energy: [28.333334]
Isolation_window: 4.0
Ion_mode: P
Num Peaks: 5
58.0655	11.9
59.0734	13.4
86.0966	10.2
132.1018	100.0
133.1050	7.9

Name: Methylisothiazolinone
PrecursorMZ: 116.01656
RT: 1.985
ExactMass: 115.00918496
Spectrum_type: 2
charge: 1
Formula: C4H5NOS
SMILES: CN1C(=O)C=CS1
Method: HCD
Collision_energy: [28.333334]
Isolation_window: 4.0
Ion_mode: P
Num Peaks: 8
70.9952	3.2
79.0545	2.2
86.0603	3.8
98.9899	2.5
114.0914	39.4
115.0947	5.6
116.0165	100.0
117.0197	5.8

Name: Methylone
PrecursorMZ: 208.09665
RT: 4.7316
ExactMass: 207.08954328
Spectrum_type: 2
charge: 1
Formula: C11H13NO3
SMILES: CC(C(=O)C1=CC2=C(C=C1)OCO2)NC
Method: HCD
Collision_energy: [28.333334]
Isolation_window: 4.0
Ion_mode: P
Num Peaks: 49
57.0703	0.8
60.0448	0.8
70.0655	0.7
72.0810	0.8
73.0844	0.6
81.0337	1.0
89.0598	5.6
100.0757	1.5
108.0444	0.6
120.0807	1.8
121.0646	0.9
133.0858	0.9
136.0757	0.7
146.0599	0.8
147.0437	0.6
148.0755	0.9
149.0594	1.5
150.0548	6.2
150.0913	0.7
152.0704	1.3
162.0911	1.7
164.0704	1.2
167.0559	1.4
177.0545	0.7
189.1020	1.1
190.0859	2.9
191.0811	0.9
192.0653	0.7
206.0809	9.3
206.0917	0.7
206.1008	1.0
206.1175	1.2
207.0759	1.8
207.0847	3.0
207.1125	7.9
208.0601	1.8
208.0756	0.7
208.0803	0.7
208.0965	100.0
208.1052	3.0
208.1168	1.3
208.1327	13.6
209.0915	3.4
209.0999	10.6
209.1278	8.7
209.1365	1.4
210.0758	1.3
210.1121	2.0
210.1233	4.6

Name: Methylprednisolone
PrecursorMZ: 375.21598
RT: 1.2691
ExactMass: 374.20932405
Spectrum_type: 2
charge: 1
Formula: C22H30O5
SMILES: C[C@H]1C[C@H]2[C@@H]3CC[C@@]([C@]3(C[C@@H]([C@@H]2[C@@]4(C1=CC(=O)C=C4)C)O)C)(C(=O)CO)O
Method: HCD
Collision_energy: [28.333334]
Isolation_window: 4.0
Ion_mode: P
Num Peaks: 42
59.0495	1.8
81.0700	0.4
95.0855	0.3
145.0644	0.3
157.0645	1.1
157.1010	1.1
159.0803	0.6
161.0959	0.7
171.0802	2.1
185.0955	0.9
187.1114	0.7
188.0827	0.5
189.0913	0.4
203.0866	0.7
203.0905	0.6
203.1063	100.0
203.1219	0.3
203.1262	0.8
204.1096	12.1
205.1118	0.5
209.1320	0.3
215.1062	3.7
216.1098	0.5
217.1219	0.3
225.1266	0.5
227.1426	2.8
228.1462	0.4
229.1217	1.0
243.1375	0.7
243.1738	2.7
244.1769	0.5
267.1737	3.2
268.1769	0.6
269.1888	0.5
285.1842	11.5
286.1877	2.1
313.1789	1.0
357.2053	3.3
358.2079	0.7
375.2157	31.8
376.2192	7.0
377.2231	0.5

Name: Methyltestosterone
PrecursorMZ: 303.23135
RT: 1.07035
ExactMass: 302.224580195
Spectrum_type: 2
charge: 1
Formula: C20H30O2
SMILES: C[C@]12CCC(=O)C=C1CC[C@@H]3[C@@H]2CC[C@]4([C@H]3CC[C@]4(C)O)C
Method: HCD
Collision_energy: [28.333334]
Isolation_window: 4.0
Ion_mode: P
Num Peaks: 76
55.0545	3.2
57.0702	3.7
67.0546	8.6
69.0702	6.2
70.0556	2.9
71.0858	3.4
79.0545	3.4
81.0701	29.9
83.0857	6.4
91.0543	4.4
93.0700	18.6
95.0856	26.5
97.1012	4.7
97.4553	3.6
99.0441	18.1
105.0699	17.3
107.0855	25.2
109.1012	20.8
113.0597	5.7
119.0855	25.2
120.0889	3.3
121.1011	48.3
122.1044	4.1
123.1167	21.8
131.0701	3.7
131.0853	7.3
133.1010	21.3
135.1166	17.0
137.1323	3.4
141.0909	3.1
145.1010	12.3
147.1166	15.5
149.0959	4.0
149.1323	12.8
157.1011	4.0
159.1166	20.9
160.1193	5.0
161.1323	25.0
162.1355	3.4
163.1479	4.9
167.1064	4.9
171.1166	3.5
173.1322	11.2
175.1479	13.2
179.1063	3.3
185.1323	3.6
187.1478	16.9
188.1510	4.6
189.1634	26.0
190.1669	4.5
193.1219	10.0
197.1320	3.6
207.1375	6.1
211.1478	5.1
215.1428	3.6
215.1791	3.1
221.1535	3.9
227.1789	9.8
229.1946	35.7
230.1979	5.6
233.1532	6.4
240.2316	11.2
243.1121	13.2
247.1687	10.0
267.2099	8.9
273.1841	3.9
283.2055	3.5
285.2206	21.6
286.2237	6.3
301.2154	28.4
302.2194	14.0
303.1331	5.9
303.2311	100.0
304.2346	20.6
304.2994	4.5
305.2100	5.3

Name: Methyltricaprylylammonium
PrecursorMZ: 368.4246
RT: 5.0673
ExactMass: 368.425625727
Spectrum_type: 2
charge: 1
Formula: C25H54N+
SMILES: CCCCCCCC[N+](C)(CCCCCCCC)CCCCCCCC
Method: HCD
Collision_energy: [28.333334]
Isolation_window: 4.0
Ion_mode: P
Num Peaks: 27
57.0703	1.2
60.0812	3.6
69.0703	1.2
70.0655	1.1
71.0858	1.0
86.0967	1.6
89.0599	1.2
97.1013	1.1
97.3982	0.8
133.0859	0.8
309.2785	3.6
350.3776	0.9
352.3934	12.7
367.3674	1.1
368.2370	0.8
368.2583	2.7
368.2960	1.1
368.3518	1.9
368.3870	1.1
368.4247	100.0
369.3532	0.8
369.4281	26.1
370.2527	1.3
370.2736	3.8
370.3678	3.9
370.4040	7.9
370.4312	2.4

Name: Methyprylon
PrecursorMZ: 184.1332
RT: 3.9304
ExactMass: 183.125928785
Spectrum_type: 2
charge: 1
Formula: C10H17NO2
SMILES: CCC1(C(=O)C(CNC1=O)C)CC
Method: HCD
Collision_energy: [28.333334]
Isolation_window: 4.0
Ion_mode: P
Num Peaks: 116
55.0546	0.9
58.0657	2.9
59.0497	1.3
60.0813	0.6
62.0606	1.4
69.0340	5.5
70.0656	1.8
72.0813	1.0
83.0496	4.8
84.0449	0.5
84.0812	1.8
86.0605	0.6
86.0968	1.3
87.0446	1.3
89.0602	1.8
93.0702	0.7
95.0607	50.5
96.0448	3.4
96.0636	2.5
96.9954	0.9
97.0765	0.9
98.0604	2.3
100.0761	0.5
101.0600	20.0
102.0634	1.2
102.0917	3.2
106.9048	0.6
107.0732	1.1
108.0447	1.9
108.9046	0.8
109.0761	0.5
111.0556	0.5
113.1076	0.6
114.0915	1.0
115.9545	0.7
115.9645	0.5
116.0709	9.6
116.9623	0.6
121.0688	1.0
126.0552	1.3
126.0915	0.7
128.1070	0.6
129.1024	1.5
130.0864	0.9
133.0865	0.7
133.9649	1.2
134.9727	0.6
135.0443	4.7
138.0915	0.5
142.0863	0.5
147.9313	0.5
148.0743	1.1
149.0235	1.4
149.1079	0.6
149.9312	0.5
156.1021	0.7
156.5871	1.9
165.0216	17.0
166.0232	1.1
166.1228	1.0
170.1173	0.6
177.1021	1.2
179.1179	0.5
182.1018	2.3
182.1172	0.5
182.1296	0.5
183.0874	0.7
183.1134	2.8
184.1212	0.5
184.1334	16.0
185.1057	0.9
185.1265	2.9
186.0581	1.5
186.1490	12.5
187.1445	1.1
187.1519	0.8
187.1809	0.5
188.1072	13.6
188.1261	0.5
189.1099	1.8
189.1246	0.5
189.1601	1.1
190.0503	0.8
190.0866	0.6
190.1073	3.5
190.1231	1.4
191.1183	0.5
191.1398	0.6
192.1021	26.0
192.1380	2.2
193.1044	2.8
193.1335	10.3
194.0819	1.5
194.1179	22.2
194.1354	1.1
195.0762	0.6
195.1129	100.0
195.1502	0.8
196.1159	10.2
196.1334	2.5
197.0916	0.5
197.1280	6.1
198.0594	1.7
198.0757	0.5
198.0956	1.4
198.1253	0.9
198.1475	1.2
199.1438	4.2
200.0740	0.9
201.1047	0.6
201.1231	0.6
201.1599	0.8
202.1803	13.7
203.0817	2.3
203.1841	1.3
204.1013	1.9

Name: Metolachlor morpholinone
PrecursorMZ: 234.14878
RT: 7.59455
ExactMass: 233.141578849
Spectrum_type: 2
charge: 1
Formula: C14H19NO2
SMILES: CCC1=CC=CC(=C1N2C(COCC2=O)C)C
Method: HCD
Collision_energy: [28.333334]
Isolation_window: 4.0
Ion_mode: P
Num Peaks: 10
101.0599	16.9
134.0965	48.2
187.8830	16.7
189.8809	14.0
210.8989	21.9
212.8970	16.0
234.1488	100.0
234.1850	11.8
235.1530	12.3
236.1645	16.3

Name: Metoprolol
PrecursorMZ: 268.1903
RT: 8.5524
ExactMass: 267.18344366
Spectrum_type: 2
charge: 1
Formula: C15H25NO3
SMILES: CC(C)NCC(COC1=CC=C(C=C1)CCOC)O
Method: HCD
Collision_energy: [28.333334]
Isolation_window: 4.0
Ion_mode: P
Num Peaks: 6
267.1700	12.3
267.1804	3.7
268.1173	4.1
268.1538	7.2
268.1902	100.0
269.1941	17.1

Name: Metoprolol Acid
PrecursorMZ: 268.15402
RT: 8.5107
ExactMass: 267.14705815
Spectrum_type: 2
charge: 1
Formula: C14H21NO4
SMILES: CC(C)NCC(COC1=CC=C(C=C1)CC(=O)O)O
Method: HCD
Collision_energy: [28.333334]
Isolation_window: 4.0
Ion_mode: P
Num Peaks: 14
87.0443	15.4
182.1173	28.5
183.1206	2.9
267.1328	10.2
267.1691	7.6
267.1790	7.4
268.1174	9.7
268.1538	100.0
268.1909	2.6
269.1126	2.4
269.1478	7.6
269.1579	11.2
270.0972	5.9
270.1446	6.6

Name: Metronidazole
PrecursorMZ: 172.07164
RT: 6.5809
ExactMass: 171.06439116
Spectrum_type: 2
charge: 1
Formula: C6H9N3O3
SMILES: CC1=NC=C(N1CCO)[N+](=O)[O-]
Method: HCD
Collision_energy: [28.333334]
Isolation_window: 4.0
Ion_mode: P
Num Peaks: 56
56.0499	2.6
67.0546	2.8
81.0337	5.0
84.0446	4.7
86.0966	7.9
87.0555	3.8
95.0492	2.7
95.0605	5.2
97.0285	3.2
98.0603	3.0
98.0714	3.4
100.0758	3.5
102.0550	20.6
109.0397	3.3
109.1012	4.8
110.0601	3.8
111.0440	3.2
111.0553	19.4
113.0598	4.7
114.0661	2.4
115.0502	6.5
116.0704	2.6
124.0757	3.1
125.0709	2.7
126.0550	6.5
126.0661	27.7
126.0912	5.5
126.1277	3.5
127.1229	4.4
128.0705	6.6
128.1067	4.2
130.0495	2.5
131.0449	4.0
137.0709	4.5
141.0657	8.1
144.0765	12.2
152.0705	2.7
153.0657	21.5
154.0502	3.5
154.0608	7.4
155.0813	9.4
156.0653	3.8
156.1017	5.2
170.0809	6.0
171.0762	12.9
171.1491	3.5
171.1853	4.9
172.0714	100.0
172.0962	4.6
172.1329	3.6
173.0748	6.2
173.0917	9.0
173.1276	10.2
173.1646	11.2
174.0758	4.2
174.1123	2.5

Name: Metyrosine
PrecursorMZ: 196.0967
RT: 5.3963
ExactMass: 195.08954328
Spectrum_type: 2
charge: 1
Formula: C10H13NO3
SMILES: C[C@](CC1=CC=C(C=C1)O)(C(=O)O)N
Method: HCD
Collision_energy: [28.333334]
Isolation_window: 4.0
Ion_mode: P
Num Peaks: 38
86.0601	0.7
89.0598	0.7
119.0602	0.7
133.0758	21.8
134.0599	0.5
134.0790	0.8
136.0756	0.5
138.0661	0.8
149.0710	0.6
150.0548	3.0
150.0911	2.4
151.0864	1.2
151.1229	0.6
153.0402	0.7
153.1020	2.4
154.0438	0.6
161.0707	0.6
177.1020	5.6
178.0496	0.5
178.0859	9.8
178.1045	0.5
179.0647	0.7
179.0811	100.0
179.0893	0.9
179.0975	0.8
180.0845	3.7
194.0809	0.9
195.0759	0.8
195.0842	1.1
195.1124	7.0
196.0602	2.4
196.0964	11.9
196.1153	0.9
197.0670	0.6
197.0917	13.0
197.0999	1.4
197.1281	0.5
198.0946	0.7

Name: Mexiletine
PrecursorMZ: 180.13821
RT: 2.8523
ExactMass: 179.131014166
Spectrum_type: 2
charge: 1
Formula: C11H17NO
SMILES: CC1=C(C(=CC=C1)C)OCC(C)N
Method: HCD
Collision_energy: [28.333334]
Isolation_window: 4.0
Ion_mode: P
Num Peaks: 6
60.0813	22.9
121.0650	100.0
122.0684	8.1
136.0760	1.4
180.1385	83.1
181.1420	10.4

Name: Midazolam
PrecursorMZ: 326.08591
RT: 5.6501
ExactMass: 325.0782033
Spectrum_type: 2
charge: 1
Formula: C18H13ClFN3
SMILES: CC1=NC=C2N1C3=C(C=C(C=C3)Cl)C(=NC2)C4=CC=CC=C4F
Method: HCD
Collision_energy: [28.333334]
Isolation_window: 4.0
Ion_mode: P
Num Peaks: 43
70.0656	5.1
84.0812	8.7
89.0600	6.0
98.9845	7.0
104.0706	3.3
120.0804	3.1
122.0815	26.6
130.0865	3.9
132.0446	14.1
148.0759	10.6
187.0990	3.8
194.1174	4.0
207.1122	3.2
210.0796	15.9
240.2323	3.4
297.1234	8.3
324.1448	9.4
324.1942	4.4
325.0901	13.1
325.1804	7.4
326.0868	58.9
326.2076	7.6
327.0880	11.1
327.1359	4.4
327.2020	4.1
328.0851	3.2
328.2275	5.5
329.1528	4.8
330.1734	4.1
330.3370	9.3
331.1674	7.6
332.1585	3.7
333.1884	4.1
334.1719	6.2
335.1603	6.3
336.1927	9.8
337.1750	6.5
338.1604	100.0
338.2045	5.5
339.1627	20.0
340.1684	3.5
340.2223	4.3
343.1671	3.5

Name: Midodrine
PrecursorMZ: 237.12331
RT: 8.772466666666666
ExactMass: 254.12665706
Spectrum_type: 2
charge: 1
Formula: C12H18N2O4
SMILES: COC1=CC(=C(C=C1)OC)C(CNC(=O)CN)O
Method: HCD
Collision_energy: [28.333334]
Isolation_window: 4.0
Ion_mode: P
Num Peaks: 100
55.0547	1.3
58.0656	1.4
70.0655	1.7
72.0811	1.3
73.0652	0.7
74.0605	0.7
81.0338	1.4
83.0495	0.8
84.0811	3.2
87.0444	3.1
98.0603	0.7
101.0599	3.9
102.0915	3.0
107.0730	1.1
108.0446	1.5
108.0809	1.9
109.0762	2.1
115.0756	3.4
120.0807	2.6
121.0887	5.9
124.0393	1.1
126.0550	0.8
128.0707	0.7
130.0863	0.7
132.0807	0.7
134.0964	0.7
135.0917	0.8
136.0757	0.6
136.0968	0.6
137.0709	0.8
137.1074	5.0
138.0550	0.6
138.0914	3.5
140.0705	0.6
143.0815	2.2
146.0601	0.6
148.0757	1.9
148.1121	0.8
149.0710	2.3
150.0550	1.4
150.0914	4.6
151.0866	0.9
151.1230	1.2
152.0705	0.7
153.1022	0.9
165.1024	1.2
166.0863	9.5
167.0895	0.9
175.1230	1.6
176.1070	0.7
178.0863	0.6
179.1177	0.6
180.0655	0.6
180.1020	0.6
190.0862	0.6
191.0817	0.6
191.1178	11.6
192.1021	1.7
192.1130	1.7
192.1212	1.2
193.0972	0.6
193.1335	6.0
196.1444	2.6
218.0811	0.6
218.1019	1.3
219.1127	0.8
220.0967	1.8
220.1080	1.3
220.1445	0.7
221.1284	3.1
235.1073	7.7
235.1173	1.2
235.1447	6.8
235.1650	1.7
236.0747	1.1
236.0922	7.8
236.1027	1.8
236.1126	2.6
236.1281	22.9
236.1385	1.6
236.1488	6.2
236.1644	2.9
237.0862	1.7
237.0977	1.4
237.1045	0.6
237.1144	1.7
237.1232	100.0
237.1502	0.7
237.1596	59.4
238.0717	1.4
238.1076	25.0
238.1269	10.5
238.1436	45.0
238.1548	7.9
238.1631	8.3
239.1012	2.6
239.1131	1.4
239.1386	14.2
239.1478	2.7
239.1748	1.1

Name: Migalastat
PrecursorMZ: 164.09177
RT: 6.725233333333333
ExactMass: 163.0844579
Spectrum_type: 2
charge: 1
Formula: C6H13NO4
SMILES: C1[C@@H]([C@H]([C@H]([C@H](N1)CO)O)O)O
Method: HCD
Collision_energy: [28.333334]
Isolation_window: 4.0
Ion_mode: P
Num Peaks: 31
55.0547	13.2
56.0499	31.3
56.9652	4.8
57.0339	6.0
59.0495	4.0
67.0546	29.0
73.0652	5.4
82.0654	9.0
83.0494	28.8
91.0545	2.9
97.4321	3.7
98.0602	3.1
100.0758	100.0
101.0598	94.5
101.0791	5.5
102.0631	4.7
110.0601	9.4
118.0864	3.5
128.0705	15.0
136.0756	53.0
137.0788	4.6
146.0810	41.5
147.0844	3.1
163.0501	7.6
163.0753	3.1
163.0867	3.3
164.0566	23.1
164.0705	28.6
164.0812	5.3
164.0917	8.9
165.0659	5.7

Name: Miglitol
PrecursorMZ: 208.11753
RT: 7.1981
ExactMass: 207.11067264
Spectrum_type: 2
charge: 1
Formula: C8H17NO5
SMILES: C1[C@@H]([C@H]([C@@H]([C@H](N1CCO)CO)O)O)O
Method: HCD
Collision_energy: [28.333334]
Isolation_window: 4.0
Ion_mode: P
Num Peaks: 46
56.0498	7.4
60.0447	44.9
67.0545	28.6
69.0338	5.4
70.0654	5.4
71.0495	6.5
72.0446	4.2
82.0653	5.6
83.0494	9.9
84.0445	5.2
84.0810	4.2
85.0650	11.3
87.0442	5.9
94.0652	10.9
95.0492	37.2
100.0757	7.2
102.0550	6.6
112.0756	54.8
113.0597	35.1
124.0392	15.3
124.0755	4.9
130.0860	39.7
131.0699	5.9
142.0860	5.5
148.0965	42.1
154.0860	18.9
160.1329	6.2
164.0702	3.9
166.1071	11.4
172.0965	30.6
177.0544	7.5
190.1069	100.0
191.0812	5.8
191.1104	7.6
207.0761	6.7
207.1124	8.2
207.1488	4.6
208.0965	27.0
208.1171	16.9
208.1330	4.8
208.1694	14.0
209.0806	5.3
209.0916	16.5
210.0755	14.4
210.1121	17.5
210.1272	9.6

Name: Miltirone
PrecursorMZ: 305.14922
RT: 4.5023
Spectrum_type: 2
charge: 1
SMILES: O=C1C(=O)C(=CC=2C=CC3=C(C21)CCCC3(C)C)C(C)C
Method: HCD
Collision_energy: [28.333334]
Isolation_window: 4.0
Ion_mode: P
Num Peaks: 21
112.0757	10.5
150.0546	13.8
162.0911	9.9
164.0702	10.2
176.0702	22.4
258.1120	12.1
259.1434	59.8
288.1223	10.6
289.1187	12.4
289.1540	36.6
303.1325	14.6
304.1166	46.8
304.1513	17.1
305.1116	11.0
305.1487	100.0
306.0961	12.8
306.1327	47.9
306.1513	17.2
306.1816	16.4
307.1285	34.5
307.1634	16.4

Name: Minocycline
PrecursorMZ: 458.192
RT: 0.9355
ExactMass: 457.18490021
Spectrum_type: 2
charge: 1
Formula: C23H27N3O7
SMILES: CN(C)[C@H]1[C@@H]2C[C@@H]3CC4=C(C=CC(=C4C(=C3C(=O)[C@@]2(C(=C(C1=O)C(=O)N)O)O)O)O)N(C)C
Method: HCD
Collision_energy: [28.333334]
Isolation_window: 4.0
Ion_mode: P
Num Peaks: 7
164.0705	5.6
235.1075	19.5
263.1022	7.7
295.1283	100.0
296.1319	13.0
458.1915	47.7
459.1946	13.3

Name: Minoxidil
PrecursorMZ: 210.1347
RT: 5.4154
ExactMass: 209.12766012
Spectrum_type: 2
charge: 1
Formula: C9H15N5O
SMILES: C1CCN(CC1)C2=NC(=N)N(C(=C2)N)O
Method: HCD
Collision_energy: [28.333334]
Isolation_window: 4.0
Ion_mode: P
Num Peaks: 7
137.0820	7.2
164.0931	11.5
192.1241	25.4
193.1322	30.0
210.1134	9.0
210.1346	100.0
211.1376	6.8

Name: Mitraphylline
PrecursorMZ: 369.18033
RT: 2.5644
ExactMass: 368.17360725
Spectrum_type: 2
charge: 1
Formula: C21H24N2O4
SMILES: C[C@H]1[C@H]2CN3CC[C@]4([C@@H]3C[C@@H]2C(=CO1)C(=O)OC)C5=CC=CC=C5NC4=O
Method: HCD
Collision_energy: [28.333334]
Isolation_window: 4.0
Ion_mode: P
Num Peaks: 22
69.0340	7.0
70.0656	6.4
87.0443	8.3
89.0600	23.1
99.0441	6.1
101.0600	6.7
111.0443	9.5
120.0443	7.4
129.0549	8.5
133.0859	8.9
147.0653	8.7
210.0795	6.3
285.1228	6.2
308.1515	22.1
309.1549	7.1
367.1979	9.7
368.4244	5.6
369.1807	100.0
370.1848	21.6
372.3474	6.0
374.3625	9.3
387.1880	5.5

Name: Mkn-003B
PrecursorMZ: 195.13779
RT: 4.6351
ExactMass: 212.1412445
Spectrum_type: 2
charge: 1
Formula: C12H20O3
SMILES: CC(C)(CCCCCC1C=CC(=O)O1)O
Method: HCD
Collision_energy: [28.333334]
Isolation_window: 4.0
Ion_mode: P
Num Peaks: 57
55.0546	2.3
59.0495	3.3
67.0546	89.5
68.0579	3.7
69.0702	9.9
71.0494	5.7
79.0545	16.3
81.0337	4.7
81.0701	100.0
82.0735	5.8
83.0493	6.2
83.0857	9.0
85.0650	3.6
89.0598	6.4
91.0543	9.3
93.0700	47.2
94.0734	2.7
95.0493	3.2
95.0856	48.6
96.0890	2.8
97.0649	12.0
99.0805	3.6
105.0699	4.7
107.0855	19.4
109.0648	3.0
109.1012	7.9
111.0804	5.5
113.0597	2.5
117.0699	10.9
119.0854	3.9
121.0648	5.4
121.1011	11.0
131.0854	11.2
133.1010	23.1
134.1044	2.0
135.0802	4.2
135.1166	57.7
136.1200	5.8
148.0425	2.6
149.0959	6.7
149.1323	28.1
150.0911	2.3
150.1355	3.5
159.1166	32.5
160.1200	4.3
166.1225	3.9
177.0908	4.7
177.1271	24.0
178.0859	3.9
178.1305	3.0
194.0670	3.3
194.0809	14.6
194.1172	4.5
195.1124	3.3
195.1376	23.2
196.0965	18.6
196.1412	2.8

Name: Mkn-003C
PrecursorMZ: 244.19046
RT: 1.0671
ExactMass: 226.15689456
Spectrum_type: 2
charge: 1
Formula: C13H22O3
SMILES: CCC(C)(CCCCCC1C=CC(=O)O1)O
Method: HCD
Collision_energy: [28.333334]
Isolation_window: 4.0
Ion_mode: P
Num Peaks: 67
55.0546	12.2
57.0703	10.6
67.0546	25.8
69.0702	36.1
69.2257	6.3
69.2806	4.9
71.0494	6.7
71.0858	8.0
79.0544	8.2
81.0701	72.5
82.0733	4.0
83.0493	4.6
83.0858	78.4
84.0890	3.2
85.0650	9.9
85.1013	3.3
86.0601	3.5
91.0543	4.8
93.0700	20.0
95.0856	39.8
97.0649	16.7
97.1012	67.5
97.4578	4.1
98.1045	5.1
99.0805	7.6
100.0757	5.8
105.0698	3.4
107.0855	33.8
109.1012	10.5
111.0805	21.4
111.1169	10.0
114.0914	4.2
121.1011	41.5
123.1167	6.2
125.0960	13.0
131.0853	5.0
133.1010	17.2
135.1166	6.3
139.1114	4.7
143.1065	18.3
147.1166	5.4
149.1323	7.6
163.1479	100.0
164.1512	11.4
165.0697	8.3
165.0906	4.9
167.1428	3.4
173.1322	14.4
180.1745	7.6
181.1584	79.4
182.1616	10.2
191.1428	9.2
198.1849	11.6
209.1532	26.2
210.1563	3.6
226.0804	4.6
226.1797	31.5
227.1638	10.0
227.1829	4.2
242.2474	26.3
243.1121	6.0
243.1163	14.2
243.2508	7.9
244.1903	20.8
244.2050	6.5
245.1743	59.9
246.1771	8.9

Name: Mollugin
PrecursorMZ: 285.10951
RT: 1.4022
ExactMass: 284.10485899
Spectrum_type: 2
charge: 1
Formula: C17H16O4
SMILES: CC1(C=CC2=C(O1)C3=CC=CC=C3C(=C2C(=O)OC)O)C
Method: HCD
Collision_energy: [28.333334]
Isolation_window: 4.0
Ion_mode: P
Num Peaks: 3
197.0572	21.6
285.1093	100.0
286.1127	13.7

Name: Monocrotaline N-Oxide
PrecursorMZ: 342.15477
RT: 1.1913
ExactMass: 341.14745207
Spectrum_type: 2
charge: 1
Formula: C16H23NO7
SMILES: C[C@H]1C(=O)O[C@@H]2CC[N+]3([C@@H]2C(=CC3)COC(=O)[C@]([C@]1(C)O)(C)O)[O-]
Method: HCD
Collision_energy: [28.333334]
Isolation_window: 4.0
Ion_mode: P
Num Peaks: 62
70.0657	62.3
81.0340	23.3
83.0497	7.6
84.0814	9.2
89.0602	8.2
96.0448	6.7
111.0444	61.5
121.0287	14.6
121.0763	6.0
123.0443	8.0
132.0446	18.4
146.0603	17.6
147.0545	8.3
150.0554	7.1
158.0815	8.9
162.0913	9.6
163.0867	38.4
166.0978	9.6
180.1016	18.4
188.0708	26.0
195.1132	8.5
207.0884	11.8
237.0760	11.5
240.2322	16.4
297.1227	10.6
324.1454	17.6
326.1634	7.5
340.1414	11.0
340.1841	10.4
341.1751	12.8
342.1572	100.0
343.1599	22.6
344.1086	10.1
344.1749	25.4
345.1434	12.6
346.1266	22.3
346.2003	16.7
346.3307	13.3
347.1285	7.2
347.1638	17.2
348.1430	31.0
349.1394	16.7
349.1856	11.5
350.1190	9.4
350.1553	29.5
351.1621	35.1
352.1417	14.4
353.1383	5.9
353.1767	20.6
354.1308	6.9
354.1684	15.8
355.1498	18.8
356.1720	10.6
356.3522	11.8
357.1703	6.3
358.1338	13.5
358.3682	8.9
359.1185	7.0
359.1635	6.3
359.1828	6.5
360.1672	45.8
361.1735	6.1

Name: Monolaurin
PrecursorMZ: 257.21084
RT: 0.94975
ExactMass: 274.21440943
Spectrum_type: 2
charge: 1
Formula: C15H30O4
SMILES: CCCCCCCCCCCC(=O)OCC(CO)O
Method: HCD
Collision_energy: [28.333334]
Isolation_window: 4.0
Ion_mode: P
Num Peaks: 8
57.0339	11.9
57.0703	34.9
71.0859	20.3
85.1016	12.4
95.0858	25.9
109.1013	14.0
257.2109	100.0
258.2143	14.0

Name: Monomethyl glutarate
PrecursorMZ: 129.05458
RT: 5.7077
ExactMass: 146.0579088
Spectrum_type: 2
charge: 1
Formula: C6H10O4
SMILES: COC(=O)CCCC(=O)O
Method: HCD
Collision_energy: [28.333334]
Isolation_window: 4.0
Ion_mode: P
Num Peaks: 28
53.0390	9.5
55.0183	13.4
55.0547	22.5
57.0339	27.4
57.0703	9.3
61.0289	13.3
69.0339	67.5
71.0495	22.7
73.0288	17.6
74.0968	14.0
81.0338	34.8
82.0654	10.6
83.0494	74.6
84.0447	7.4
85.0287	27.1
86.0603	19.9
95.0493	7.1
99.0442	19.2
109.0285	100.0
110.0319	21.4
111.0441	25.8
127.0389	23.3
127.0757	17.1
128.0458	10.2
128.0708	10.5
129.0545	18.0
130.0651	42.4
130.1589	55.6

Name: Monomethylphylodulcin
PrecursorMZ: 301.10699
RT: 8.1136
ExactMass: 300.09977361
Spectrum_type: 2
charge: 1
Formula: C17H16O5
SMILES: COC1=C(C=C(C=C1)[C@H]2CC3=C(C(=CC=C3)O)C(=O)O2)OC
Method: HCD
Collision_energy: [28.333334]
Isolation_window: 4.0
Ion_mode: P
Num Peaks: 81
55.0182	0.8
59.0607	0.9
70.0655	9.6
87.0444	2.0
101.0598	1.8
107.0493	14.7
108.0526	1.0
114.0663	1.7
116.0708	11.0
117.0740	0.8
119.0493	2.2
121.0651	1.4
123.0441	9.0
126.0549	0.8
128.0707	0.8
131.0492	1.9
135.0442	1.8
140.0342	1.4
140.0705	0.9
143.0492	0.8
144.1019	0.7
145.0650	1.2
147.0440	9.0
148.0474	0.9
158.0925	7.9
161.0597	3.8
163.0390	6.0
164.0424	0.9
165.0545	1.0
167.0854	0.9
177.0543	1.4
189.0545	4.9
195.0804	10.4
196.0838	1.1
203.0483	1.7
205.0647	1.7
213.0909	1.1
219.0804	2.0
222.0874	1.2
223.0752	28.7
224.0787	4.0
226.0622	0.9
237.0908	2.3
239.0701	3.7
240.0736	1.6
240.1019	0.8
241.0857	100.0
242.0891	15.5
243.0918	0.9
247.0750	1.9
255.1011	3.8
257.0806	4.8
258.0843	2.8
265.0856	6.7
266.0892	0.8
268.0924	0.8
270.1446	16.0
271.1482	1.4
281.0804	0.8
283.0962	64.0
284.0997	11.3
285.0900	0.9
285.1038	1.1
299.0908	1.7
299.1062	1.4
299.1600	0.7
299.1962	1.6
300.0962	1.8
300.1227	2.0
300.1559	0.8
301.0855	0.8
301.1064	16.9
301.1756	1.7
302.0682	0.9
302.1102	2.8
302.1355	4.2
302.1707	24.0
303.0672	1.1
303.1006	5.9
303.1351	0.7
303.1739	2.6

Name: Montanin D
PrecursorMZ: 363.18003
RT: 8.0255
ExactMass: 362.17293854
Spectrum_type: 2
charge: 1
Formula: C20H26O6
SMILES: C[C@@H]1C[C@H]([C@@]23CO[C@@]2(CCC[C@@H]3[C@@]14C[C@H](OC4=O)C5=COC=C5)CO)O
Method: HCD
Collision_energy: [28.333334]
Isolation_window: 4.0
Ion_mode: P
Num Peaks: 72
59.0612	10.9
67.0550	3.2
79.0550	3.2
81.0702	16.6
91.0550	4.3
93.0701	12.8
95.0858	23.0
105.0700	10.9
107.0857	12.3
109.1014	35.5
119.0857	49.3
120.0891	4.0
121.1013	3.7
125.0962	4.7
131.0855	6.5
133.1012	10.5
135.0806	4.0
135.1173	3.0
137.0961	16.4
143.0862	3.0
145.1012	5.8
147.1169	4.6
149.0967	2.9
151.1119	5.0
153.0912	6.0
157.1014	3.9
159.1170	4.1
169.1010	3.7
171.1169	4.9
183.1169	4.2
185.1324	4.5
194.0810	3.3
197.1325	5.0
199.1480	3.6
211.1488	3.0
213.1635	3.9
215.1435	2.9
215.1798	3.1
225.1636	23.5
226.1670	4.7
227.1794	17.0
229.1584	5.6
235.1480	4.4
243.1382	3.9
243.1743	31.6
244.1775	5.6
245.1899	27.7
246.1933	4.6
253.1585	16.2
254.1625	3.1
259.1694	5.7
261.1849	11.8
271.1692	78.8
272.1724	13.6
281.1539	3.2
287.1641	3.9
289.1797	48.5
290.1830	8.6
299.1640	33.0
300.1673	7.3
305.1746	10.8
307.1908	3.3
317.1746	100.0
318.1780	19.5
335.1852	23.1
336.1886	4.7
345.1695	60.5
346.1730	10.2
362.2418	6.7
363.1559	3.3
363.1797	43.5
364.1834	8.9

Name: Moroidin-(QALVWRGH)
PrecursorMZ: 473.2396
RT: 6.9522
ExactMass: 944.46168417
Spectrum_type: 2
charge: 1
Formula: C44H60N14O10
SMILES: CC(C)CC1C(=O)NC(C(=O)NC2CC3=C(NC4=C3C=CC(=C4)CC(C(=O)N1)NC(=O)C5CCC(=O)N5)N6C=C(CC(NC(=O)CNC(=O)C(NC2=O)CCCN=C(N)N)C(=O)O)N=C6)C(C)C
Method: HCD
Collision_energy: [28.333334]
Isolation_window: 4.0
Ion_mode: P
Num Peaks: 33
52.5825	5.4
60.0561	5.8
70.0656	4.3
72.0812	27.4
89.1077	2.2
97.0763	5.7
107.0494	3.9
113.0712	1.6
114.1028	53.8
115.0868	1.9
115.1061	3.0
131.1292	17.8
219.0651	3.1
255.1015	14.1
256.1048	2.4
297.1120	21.9
298.1152	4.6
315.1226	9.3
316.1259	2.1
325.1068	3.2
333.1446	2.1
414.1903	4.8
456.2116	3.6
471.2242	2.1
472.2047	2.1
472.2269	5.8
473.1316	2.9
473.1479	4.1
473.2395	100.0
474.2105	1.5
474.2427	27.1
475.2467	3.2
475.3253	13.9

Name: Moroidin-)QALVWRGH(
PrecursorMZ: 473.23953
RT: 2.1386
ExactMass: 944.46168417
Spectrum_type: 2
charge: 1
Formula: C44H60N14O10
SMILES: CC(C)CC1C(=O)NC(C(=O)NC2CC3=C(NC4=C3C=CC(=C4)CC(C(=O)N1)NC(=O)C5CCC(=O)N5)N6C=C(CC(NC(=O)CNC(=O)C(NC2=O)CCCN=C(N)N)C(=O)O)N=C6)C(C)C
Method: HCD
Collision_energy: [28.333334]
Isolation_window: 4.0
Ion_mode: P
Num Peaks: 28
52.5800	1.6
52.5829	5.2
60.0561	4.8
72.0812	24.1
89.1078	1.6
97.0763	4.0
107.0495	2.2
114.1028	45.5
115.0870	2.1
115.1060	2.4
131.1293	18.1
255.1015	10.7
256.1057	1.7
297.1121	19.2
298.1162	3.8
315.1227	8.6
316.1267	1.8
325.1080	3.0
333.1435	2.0
353.1008	2.3
414.1918	5.6
455.2304	1.7
456.2135	3.6
472.2303	1.8
473.2400	100.0
474.2432	28.9
475.2462	4.8
483.2260	2.5

Name: Morpholine
PrecursorMZ: 88.07603
RT: 2.6561
ExactMass: 87.068413911
Spectrum_type: 2
charge: 1
Formula: C4H9NO
SMILES: C1COCCN1
Method: HCD
Collision_energy: [28.333334]
Isolation_window: 4.0
Ion_mode: P
Num Peaks: 7
68.0500	0.7
70.0656	26.1
71.0689	1.2
86.0969	0.7
88.0761	100.0
88.0872	0.7
89.0794	4.4

Name: Muramic acid
PrecursorMZ: 252.10762
RT: 4.8771
ExactMass: 251.10050188
Spectrum_type: 2
charge: 1
Formula: C9H17NO7
SMILES: C[C@H](C(=O)O)O[C@H]1[C@@H]([C@H](OC([C@@H]1N)O)CO)O
Method: HCD
Collision_energy: [28.333334]
Isolation_window: 4.0
Ion_mode: P
Num Peaks: 87
60.0449	0.4
69.0339	1.0
70.0656	0.7
72.0447	0.3
72.0813	0.5
74.0603	0.3
81.0340	0.5
84.0448	0.7
84.0812	1.2
85.0287	0.7
86.0605	6.5
87.0444	5.0
90.0553	0.6
96.0446	0.9
96.9953	0.3
97.0288	3.5
98.0604	10.3
99.0442	0.4
99.0636	0.6
100.0761	0.5
102.0553	1.1
103.0396	0.4
104.0709	4.8
109.0287	0.9
110.0603	0.6
112.0762	0.5
114.0551	0.4
115.0391	0.3
116.0709	9.5
117.0745	0.6
124.0759	0.3
126.0551	1.2
127.0392	1.5
128.0709	2.8
128.0815	0.4
129.0659	0.5
130.0864	1.2
138.0549	0.3
140.0705	0.3
144.0657	1.8
146.0814	1.2
152.0711	0.5
156.0655	0.5
160.9674	0.4
162.0763	0.9
164.0708	1.7
166.0862	0.4
168.0677	0.8
170.0816	0.9
174.0760	0.6
176.0710	0.3
182.0813	9.1
183.0853	1.1
188.0918	0.5
194.0814	3.8
195.0848	0.4
196.0977	0.5
210.0793	1.4
212.0919	3.3
213.0962	0.4
216.0865	2.0
230.1025	22.4
231.1059	2.8
232.1185	0.4
234.0974	6.0
235.1011	0.6
236.1120	0.3
244.1174	0.6
246.0978	0.3
248.0603	0.7
248.1131	100.0
248.1679	0.7
249.1163	11.2
250.1169	1.6
252.1077	0.5
254.1233	0.3
258.1192	0.3
260.1506	0.6
261.1165	0.9
262.1288	3.0
263.0832	1.1
263.1265	1.2
264.1078	0.9
266.1236	25.3
267.1271	3.1
268.1402	1.2
269.1133	0.4

Name: MuricholicAcid
PrecursorMZ: 391.28319
RT: 4.6655
ExactMass: 408.28757437
Spectrum_type: 2
charge: 1
Formula: C24H40O5
SMILES: C[C@H](CCC(=O)O)[C@H]1CC[C@@H]2[C@@]1(CC[C@H]3[C@H]2[C@@H](C([C@H]4[C@@]3(CC[C@H](C4)O)C)O)O)C
Method: HCD
Collision_energy: [28.333334]
Isolation_window: 4.0
Ion_mode: P
Num Peaks: 5
149.0229	37.0
309.2569	31.4
337.2513	35.9
355.2618	100.0
373.2726	36.4

Name: Murideoxycholic acid
PrecursorMZ: 785.59238
RT: 3.1826
ExactMass: 392.29265975
Spectrum_type: 2
charge: 1
Formula: C24H40O4
SMILES: C[C@H](CCC(=O)O)[C@H]1CC[C@@H]2[C@@]1(CC[C@H]3[C@H]2C[C@H]([C@H]4[C@@]3(CC[C@H](C4)O)C)O)C
Method: HCD
Collision_energy: [28.333334]
Isolation_window: 4.0
Ion_mode: P
Num Peaks: 35
81.0702	4.7
95.0857	3.9
97.3998	1.7
107.0857	3.5
109.1013	4.0
121.1013	2.0
133.1012	2.3
135.1169	5.5
147.1167	3.9
149.1325	3.7
161.1326	4.1
163.1482	2.8
167.1068	1.9
175.1482	4.2
181.1222	2.3
189.1638	2.4
195.1379	5.2
201.1636	2.6
203.1792	2.3
207.1382	1.9
215.1794	5.7
221.1535	5.3
229.1950	3.3
235.1688	1.9
243.2105	3.1
247.1691	5.4
261.1848	2.9
275.2003	2.9
321.2573	3.2
339.2680	8.5
340.2711	2.1
357.2786	100.0
358.2820	22.0
375.2891	8.6
376.2927	2.0

Name: Murracarpin
PrecursorMZ: 313.10421
RT: 1.438
ExactMass: 290.11542367
Spectrum_type: 2
charge: 1
Formula: C16H18O5
SMILES: CC(=C)C(C(C1=C(C=CC2=C1OC(=O)C=C2)OC)OC)O
Method: HCD
Collision_energy: [28.333334]
Isolation_window: 4.0
Ion_mode: P
Num Peaks: 3
112.8957	100.0
139.9145	32.4
313.1045	43.5

Name: Mycosporine
PrecursorMZ: 262.12821
RT: 1.6048
ExactMass: 261.12123733
Spectrum_type: 2
charge: 1
Formula: C11H19NO6
SMILES: COC1=C(C[C@](CC1=O)(CO)O)NC(CO)CO
Method: HCD
Collision_energy: [28.333334]
Isolation_window: 4.0
Ion_mode: P
Num Peaks: 317
55.0547	1.7
56.0499	4.0
57.0341	1.0
58.0657	1.0
60.0449	1.7
67.0549	1.0
68.0499	1.3
69.0340	2.4
70.0656	6.3
71.0497	2.3
72.0449	1.0
72.0812	3.8
73.0289	1.2
74.0605	1.2
79.0548	1.0
80.0501	0.9
81.0339	7.0
81.0702	1.1
82.0655	4.5
83.0496	3.8
84.0448	6.7
84.0812	4.0
85.0289	1.5
85.0654	1.4
86.0604	3.9
86.0968	7.6
87.0444	5.8
88.0396	1.1
90.0555	0.9
93.0703	1.0
94.0657	0.9
95.0495	1.3
95.0606	2.0
95.0859	0.9
96.0447	4.2
96.0812	0.8
97.0287	7.6
97.0654	1.1
98.0603	3.4
98.0969	2.7
99.0444	5.3
100.0760	6.8
101.0600	11.5
102.0554	3.3
102.0915	1.2
105.0702	1.1
107.0494	1.1
108.0449	1.0
109.0286	1.6
109.0653	0.8
109.0765	0.8
110.0605	1.9
110.0719	1.4
111.0444	3.7
111.0556	0.9
112.0397	0.8
112.0758	2.8
112.0873	0.8
113.0599	1.2
114.0552	11.4
114.0666	1.4
114.0917	1.5
115.0394	1.7
115.0505	0.9
116.0709	6.2
117.0549	7.1
118.0865	4.0
119.0860	1.0
120.0809	2.1
121.0286	1.9
121.0649	1.2
121.1016	0.9
122.0603	1.5
123.0448	1.1
124.0398	0.8
124.0762	1.8
125.0237	1.3
125.0613	1.6
125.0713	2.0
126.0552	9.9
126.0916	1.2
127.0393	2.4
127.0588	0.9
127.0870	0.8
128.0708	6.0
129.0549	1.0
130.0501	21.4
130.0864	5.5
131.0531	1.0
131.0861	0.9
132.0657	1.2
132.1017	1.5
133.1017	0.8
134.0603	1.4
135.0808	0.9
136.0394	1.2
136.0619	1.5
136.0759	4.0
137.0459	9.3
137.0599	1.1
137.0696	2.1
138.0553	21.0
138.0912	2.2
139.0393	0.7
139.0590	1.6
139.0869	2.0
140.0710	4.7
140.1071	1.1
141.0662	1.7
142.0502	3.3
142.0865	7.7
144.0658	6.9
144.1021	3.3
146.0602	0.8
147.0789	1.0
148.0607	1.4
148.0759	0.9
149.0601	1.2
150.0554	1.8
150.0914	2.1
151.0870	1.5
152.0570	43.6
152.0712	3.8
152.0819	1.0
153.0595	1.9
154.0501	1.0
154.0864	1.9
155.0819	3.2
156.0657	1.6
156.0777	0.9
156.1020	1.5
157.0603	1.3
158.0607	0.8
158.0818	1.4
158.0929	6.6
158.1169	1.3
159.0776	0.9
159.0925	1.3
160.0405	0.7
160.0759	3.0
160.0967	1.0
162.0550	0.7
162.0917	1.0
163.0756	0.8
164.0708	2.7
165.0548	0.8
165.1034	0.8
166.0526	1.5
166.0859	2.4
167.0343	1.1
167.0819	1.7
168.0656	6.7
169.0975	2.5
170.0814	4.9
171.0762	1.3
172.0609	1.0
172.0970	1.8
173.0926	1.6
176.0708	1.0
178.0856	1.8
179.0819	0.9
180.0656	1.9
180.1009	1.6
181.0978	1.4
182.0809	4.3
183.1131	6.4
184.0968	1.1
184.1322	2.2
185.0924	3.2
186.0762	4.4
186.0912	2.7
188.0704	1.5
192.0660	1.6
192.0795	0.7
193.0977	2.2
194.0817	1.3
195.1133	2.9
196.0724	1.0
196.0965	2.5
197.0440	0.8
197.0924	15.1
197.1294	0.8
198.0911	1.4
198.1129	2.3
201.0883	0.8
202.0864	2.1
203.1050	0.9
204.0643	1.5
204.1026	1.3
206.0822	1.3
207.1153	1.2
208.0954	1.9
209.0925	1.0
210.0766	2.4
210.0905	0.8
211.1078	100.0
211.1489	0.8
212.1113	10.7
213.0873	1.6
213.1124	0.9
214.0691	1.1
214.1079	1.0
215.0840	0.8
215.1399	1.1
216.1232	8.1
217.1232	1.3
218.0816	1.1
220.0982	0.8
222.0758	2.3
222.1116	2.2
223.1078	3.2
224.0914	1.0
225.1245	2.6
226.0715	2.1
226.1080	1.4
227.1033	0.8
228.0995	8.1
228.1225	0.9
229.1022	1.2
230.0809	0.8
230.1390	0.9
232.0798	0.8
232.0981	0.8
232.1184	1.1
234.0767	0.9
234.1338	1.7
235.1079	0.8
236.0989	1.2
237.0860	0.9
237.1236	1.0
238.0709	3.8
241.1189	1.5
242.1107	2.1
243.1353	1.0
244.1178	12.8
245.1211	1.6
246.0757	3.4
246.1339	0.8
247.1054	0.9
248.0914	1.0
249.0891	1.0
249.1236	1.1
250.1068	1.7
251.1033	1.4
251.1386	0.9
252.0843	1.3
252.1218	1.5
253.1190	2.4
254.1156	4.8
255.0971	0.8
255.1344	9.5
256.0808	2.3
256.1398	1.2
257.1136	1.5
258.1343	3.8
260.0727	0.8
260.0907	0.8
260.1258	3.4
260.1522	0.9
261.0883	1.2
261.1223	0.9
261.1452	2.4
262.1057	1.0
262.1276	15.7
263.1028	3.7
263.1346	2.5
263.1764	1.3
264.0855	4.6
264.1264	1.3
264.1469	1.4
265.0852	1.8
265.1183	5.1
265.1545	1.0
265.1922	0.8
266.1022	7.1
266.1379	2.2
267.1014	4.3
267.1342	7.0
267.2074	0.7
268.0833	1.1
268.1178	13.8
269.0590	2.7
269.1132	87.7
269.1489	11.7
270.0932	2.6
270.1098	4.0
270.1380	10.9
271.1299	11.8
271.1658	3.4
272.0588	0.9
272.1252	30.5
272.1599	1.1
273.1448	26.7
274.0917	3.9
274.1440	11.2
274.2018	1.3
275.0967	1.1
275.1231	1.3
275.1494	1.4
276.1067	2.6
276.1451	4.5
277.1162	5.6
277.1491	1.3
277.1776	1.0
278.0904	2.1
278.1051	1.8
278.1353	0.9
279.0978	3.7
279.1341	5.2
279.1706	1.2
280.0819	0.9
280.1149	4.6
280.1386	1.0
281.1137	6.9
281.1492	6.0
282.1010	2.0
282.1335	7.9

Name: Mycosporine glutaminol
PrecursorMZ: 303.15464
RT: 1.2347
ExactMass: 302.14778643
Spectrum_type: 2
charge: 1
Formula: C13H22N2O6
SMILES: COC1=C(CC(CC1=O)(CO)O)NC(CCC(=O)N)CO
Method: HCD
Collision_energy: [28.333334]
Isolation_window: 4.0
Ion_mode: P
Num Peaks: 247
55.0547	4.2
57.0340	1.0
58.0657	1.5
59.0497	1.4
67.0548	1.5
69.0340	1.5
69.0704	3.3
70.0656	9.0
71.0496	1.7
72.0812	5.9
74.0242	1.7
80.0499	3.5
81.0340	11.4
81.0703	2.5
83.0496	4.7
83.0860	29.9
84.0447	1.1
84.0812	7.9
84.0889	1.7
85.0289	1.5
85.0651	1.2
86.0605	1.4
86.0968	6.6
87.0445	2.4
91.0546	4.2
93.0703	1.3
94.0655	1.1
95.0496	2.2
95.0859	2.3
96.0448	15.4
97.0286	1.3
97.0651	3.1
98.0603	2.2
98.0967	1.1
99.0444	2.1
100.0760	4.7
101.0601	6.1
103.0393	1.8
105.0702	2.5
107.0493	1.1
107.0859	1.6
108.0449	1.7
108.0813	1.7
109.0285	1.1
109.0652	1.5
110.0603	3.1
111.0444	8.8
111.0921	2.1
112.0760	4.0
113.0597	1.2
114.0552	3.2
114.0667	3.1
116.0709	10.9
118.0865	1.9
119.0855	1.4
120.0812	2.5
121.0650	1.8
121.1016	1.5
122.0603	3.8
123.0443	4.2
124.0396	1.1
124.0760	6.9
125.0965	1.0
126.0563	1.5
126.0663	1.0
126.0916	100.0
127.0391	1.6
127.0951	6.8
128.0710	1.2
128.1069	1.2
129.0550	1.3
129.1024	1.8
130.0865	6.2
131.0862	1.0
132.1018	2.7
133.1013	1.6
134.0606	1.2
135.0806	1.4
136.0759	7.1
137.0600	1.8
137.0962	1.3
138.0556	1.3
138.0915	19.1
139.0957	1.4
140.0708	2.0
140.1073	1.4
142.0866	1.7
142.0977	5.1
144.1022	1.1
147.0657	1.6
148.0757	2.4
149.0596	1.0
150.0553	2.7
150.0913	2.8
152.0708	11.1
152.1071	1.9
153.0742	1.1
154.0867	1.2
154.1228	1.8
157.0971	1.9
158.0816	1.2
159.1141	1.0
160.0757	1.6
162.0554	1.0
162.0905	1.3
164.0708	51.3
164.1074	1.1
165.0749	5.7
166.0865	29.8
166.0981	1.2
166.1228	1.0
167.0918	2.2
168.1022	2.3
169.0982	1.1
170.0811	3.9
170.0921	3.9
173.1295	1.3
176.0701	2.1
178.0860	2.6
180.1018	5.3
181.0985	1.0
182.0813	17.0
183.0842	1.1
184.0968	4.1
188.0707	2.7
190.0859	2.1
192.1012	1.6
193.0978	1.0
194.0801	2.0
195.1130	4.7
196.0971	3.1
197.1294	1.0
200.0714	1.0
202.0865	1.2
204.1021	1.7
205.0972	1.2
206.0816	1.2
207.1135	6.1
208.0969	1.5
209.1298	1.4
212.1282	1.1
213.1403	2.3
214.0870	1.2
214.1803	1.1
217.0982	1.1
218.0813	1.2
220.0961	1.4
221.1289	1.2
230.0811	1.1
233.0675	2.0
243.1124	1.4
244.0964	1.2
245.1291	1.0
255.1114	1.0
256.0961	1.4
257.1288	2.8
258.1110	2.2
260.0917	1.1
263.1409	1.0
263.1759	1.3
267.1121	1.5
272.1288	1.5
274.1083	1.2
274.1485	1.0
284.1954	1.3
285.1240	13.2
286.1314	2.1
287.1392	2.0
288.1231	1.6
288.1475	1.0
289.1209	1.4
289.1542	7.3
291.1410	1.8
291.1705	59.8
292.1187	1.1
292.1745	10.0
293.1510	1.1
293.1833	1.3
294.1357	1.2
299.1388	1.2
301.1202	3.2
301.1547	2.3
301.2225	2.0
302.1035	2.8
302.1386	6.9
302.1706	1.2
303.1307	7.1
303.1592	21.4
303.2079	1.6
304.1192	9.6
304.1572	8.4
304.2276	1.4
305.1159	2.7
305.1507	7.1
305.1877	3.7
305.2237	1.3
306.0951	1.7
306.1361	8.4
306.1799	4.2
306.2408	7.5
307.1341	3.8
307.1655	25.5
307.2015	9.5
307.2421	1.7
308.1124	1.9
308.1476	2.0
308.1739	6.0
308.2253	3.6
309.1507	4.3
309.1809	45.9
309.2178	2.4
310.1299	4.0
310.1872	6.7
311.1335	1.5
311.1644	3.9
312.1175	1.3
312.1507	5.3
312.1912	2.1
313.1204	1.3
313.1494	1.5
313.1865	7.1
314.1033	1.4
314.1332	4.1
314.1717	1.2
314.2080	1.8
315.1315	4.7
315.1672	2.0
316.1193	4.3
316.1538	4.8
316.2199	2.0
317.1189	1.2
317.1501	8.1
317.1885	2.3
318.1345	8.6
318.1780	2.5
319.1307	5.6
319.1664	6.2
319.2022	2.4
320.1134	1.9
320.1524	5.0
320.1947	1.6
321.1463	6.8
321.1811	7.4
321.2180	4.4
322.1301	4.8
322.1714	1.9
322.2443	2.1

Name: Mycosporine-methylamine-threonine
PrecursorMZ: 303.15477
RT: 5.2652
ExactMass: 302.14778643
Spectrum_type: 2
charge: 1
Formula: C13H22N2O6
SMILES: CC(C(C(=O)O)NC1=C(C(=NC)CC(C1)(CO)O)OC)O
Method: HCD
Collision_energy: [28.333334]
Isolation_window: 4.0
Ion_mode: P
Num Peaks: 67
70.0656	3.9
83.0495	1.3
84.0812	6.9
87.0443	2.2
98.0603	2.0
100.0760	1.6
101.0600	5.2
109.0762	2.0
110.0719	1.2
112.0759	1.4
114.0665	1.2
116.0710	2.1
123.0683	1.5
128.0712	1.2
129.1024	2.4
130.0865	4.2
132.0446	1.3
142.0865	2.3
144.0659	1.2
152.0708	1.3
156.0770	1.6
160.0976	1.0
188.0923	1.3
198.1240	1.4
214.1071	1.2
215.1017	1.3
221.1284	3.1
225.1230	2.2
229.1183	1.1
239.1395	1.5
242.0574	1.0
242.1512	1.2
256.1005	1.0
257.0812	3.9
262.1185	1.2
284.0919	48.3
285.0690	1.1
285.0983	8.7
285.1411	1.5
288.1445	2.3
301.1438	1.2
302.1024	100.0
302.1309	3.7
303.1056	18.7
303.1551	26.5
304.1096	3.0
304.1610	4.6
305.1610	2.7
306.1551	11.4
307.1562	1.7
308.1603	1.5
309.1452	3.1
309.1818	1.3
310.1268	3.1
310.1826	2.6
311.1603	12.1
312.1547	1.9
313.1425	1.3
314.1296	1.3
314.1603	9.8
315.1024	2.1
315.1547	19.5
316.1578	3.6
317.1720	4.2
318.0977	1.6
319.1588	1.2
322.1504	4.0

Name: Myosmine
PrecursorMZ: 147.09174
RT: 2.2202
ExactMass: 146.084398327
Spectrum_type: 2
charge: 1
Formula: C9H10N2
SMILES: C1CC(=NC1)C2=CN=CC=C2
Method: HCD
Collision_energy: [28.333334]
Isolation_window: 4.0
Ion_mode: P
Num Peaks: 18
60.0812	8.9
64.9277	10.9
87.0444	15.5
105.9540	6.3
118.0653	3.9
121.0650	4.6
121.9662	4.5
123.9644	69.2
130.0652	52.3
131.0684	4.4
145.0761	3.7
146.0602	7.5
146.1175	18.6
146.9803	4.7
147.0917	100.0
148.0951	9.9
148.1121	4.8
149.0597	8.9

Name: Myrislignan
PrecursorMZ: 397.16029
RT: 8.0501
ExactMass: 374.17293854
Spectrum_type: 2
charge: 1
Formula: C21H26O6
SMILES: C[C@@H]([C@@H](C1=CC(=C(C=C1)O)OC)O)OC2=C(C=C(C=C2OC)CC=C)OC
Method: HCD
Collision_energy: [28.333334]
Isolation_window: 4.0
Ion_mode: P
Num Peaks: 21
70.0656	8.6
84.0813	6.3
89.0600	4.9
112.0872	5.2
217.0974	13.8
220.1194	23.4
235.1078	14.3
309.1448	30.4
310.1475	5.4
383.1931	10.5
397.1606	100.0
397.2004	5.2
398.1623	22.1
399.1768	97.1
399.2213	5.2
400.1720	24.4
401.2062	20.4
402.1582	6.8
412.1557	6.2
413.1886	9.5
415.1414	7.4

Name: Myristalkonium ion
PrecursorMZ: 332.33091
RT: 5.1655
ExactMass: 332.331725344
Spectrum_type: 2
charge: 1
Formula: C23H42N+
SMILES: CCCCCCCCCCCCCC[N+](C)(C)CC1=CC=CC=C1
Method: HCD
Collision_energy: [28.333334]
Isolation_window: 4.0
Ion_mode: P
Num Peaks: 10
58.0656	22.0
91.0545	58.9
92.0578	3.8
114.0916	5.5
176.8755	3.6
240.2684	25.5
241.2720	5.5
301.1179	2.4
332.3309	100.0
333.3343	24.3

Name: Myristamidopropyl Betaine
PrecursorMZ: 371.32638
RT: 4.72
ExactMass: 370.31954321
Spectrum_type: 2
charge: 1
Formula: C21H42N2O3
SMILES: CCCCCCCCCCCCCC(=O)NCCC[N+](C)(C)CC(=O)[O-]
Method: HCD
Collision_energy: [28.333334]
Isolation_window: 4.0
Ion_mode: P
Num Peaks: 30
57.0702	0.9
58.0655	0.5
69.0702	0.5
71.0858	0.9
81.0702	0.4
85.1014	0.6
86.0966	3.4
89.0599	0.5
94.0322	0.5
95.0857	1.0
109.1012	0.5
116.0706	1.0
133.0859	0.4
146.1174	2.7
197.1282	0.6
211.2052	1.1
214.1071	0.6
268.2330	0.7
268.2391	0.6
268.2630	100.0
268.2872	0.5
268.2929	0.7
269.2664	17.5
270.2697	0.5
370.2335	0.5
370.2580	0.4
371.1587	0.6
371.3261	6.4
372.1945	0.5
372.3292	1.3

Name: Myristamine oxide
PrecursorMZ: 258.27885
RT: 5.2548
ExactMass: 257.27186474
Spectrum_type: 2
charge: 1
Formula: C16H35NO
SMILES: CCCCCCCCCCCCCC[N+](C)(C)[O-]
Method: HCD
Collision_energy: [28.333334]
Isolation_window: 4.0
Ion_mode: P
Num Peaks: 15
69.0702	12.5
83.0858	11.4
97.1013	8.9
104.1070	18.2
122.0599	8.8
122.0964	7.4
142.0321	11.9
164.1069	11.1
240.2680	100.0
241.2714	14.7
257.0915	8.4
258.1098	10.6
258.1331	8.6
258.2784	27.8
259.1430	23.5

Name: N'-(8-methyl-2,3-dihydro-4H-chromen-4-ylidene)-2-(4-methylphenoxy)acetohydrazide
PrecursorMZ: 325.15412
RT: 1.241
ExactMass: 324.1473925
Spectrum_type: 2
charge: 1
Formula: C19H20N2O3
SMILES: CC1=CC=C(C=C1)OCC(=O)N/N=C/2\CCOC3=C(C=CC=C23)C
Method: HCD
Collision_energy: [28.333334]
Isolation_window: 4.0
Ion_mode: P
Num Peaks: 15
59.0495	5.2
98.9842	6.8
107.0491	10.7
150.0911	3.1
174.0910	2.4
177.1020	2.2
189.1017	2.0
191.1175	4.4
192.1014	3.1
219.1122	5.3
231.1123	18.2
232.1162	2.4
283.1434	2.1
325.1538	100.0
326.1572	20.4

Name: N(2) Succinyl arginine
PrecursorMZ: 275.13463
RT: 8.9798
Spectrum_type: 2
charge: 1
Method: HCD
Collision_energy: [28.333334]
Isolation_window: 4.0
Ion_mode: P
Num Peaks: 67
58.0656	2.9
60.0561	7.5
70.0655	29.2
71.0496	2.2
72.0812	7.6
84.0811	8.8
86.0602	1.8
88.0760	2.0
95.0606	5.1
97.0763	2.0
100.0395	3.8
100.0761	2.0
101.0600	1.8
112.0872	16.5
113.0712	2.8
114.0550	2.9
114.1028	2.3
115.0868	6.4
116.0708	11.4
118.0499	3.3
128.0706	1.9
130.0863	3.7
130.0976	2.5
140.0819	6.7
142.0977	2.7
143.0816	3.4
152.0707	2.3
158.0925	7.3
175.1190	39.2
176.1225	2.0
197.0921	6.5
198.0761	5.6
210.0873	3.2
212.1028	4.8
215.1028	2.7
216.0656	3.2
216.0867	8.1
222.0874	4.7
229.1547	4.4
231.0974	4.0
234.1854	3.0
240.0980	8.0
247.1400	4.7
257.1605	1.9
258.0760	5.3
258.1088	5.0
273.1199	11.7
273.1429	2.0
273.1575	3.1
274.0735	1.8
274.0921	2.0
274.1072	27.1
274.1247	3.7
274.1387	5.8
274.1874	24.7
275.1103	4.0
275.1351	100.0
275.1581	18.0
275.1893	3.6
276.0867	8.6
276.1218	21.3
276.1405	11.3
276.1571	2.5
276.1945	2.5
277.1193	2.9
277.1393	10.7
277.1546	4.5

Name: N(6),N(6)-Dimethyl-L-lysine
PrecursorMZ: 175.14413
RT: 12.2535
ExactMass: 174.136827821
Spectrum_type: 2
charge: 1
Formula: C8H18N2O2
SMILES: CN(C)CCCC[C@@H](C(=O)O)N
Method: HCD
Collision_energy: [28.333334]
Isolation_window: 4.0
Ion_mode: P
Num Peaks: 25
60.0561	36.1
60.0812	6.4
70.0656	39.3
72.0812	16.4
84.0812	10.1
86.0968	7.0
96.9955	6.0
112.0873	3.7
116.0709	36.5
130.0863	8.1
130.0976	12.7
158.0925	11.8
165.0216	5.7
173.1647	3.6
175.1192	56.7
176.1243	3.3
176.8756	100.0
178.1223	3.5
178.8736	21.6
180.0827	4.4
180.1051	71.4
181.1079	7.8
184.0606	6.3
189.1351	3.7
194.1177	9.3

Name: N(6)-OH-Me-Adenosine
PrecursorMZ: 298.11442
RT: 2.9563
ExactMass: 297.1073186
Spectrum_type: 2
charge: 1
Formula: C11H15N5O5
SMILES: C1=NC(=C2C(=N1)N(C=N2)C3C(C(C(O3)CO)O)O)NCO
Method: HCD
Collision_energy: [28.333334]
Isolation_window: 4.0
Ion_mode: P
Num Peaks: 64
70.0657	2.1
84.0813	1.7
85.0295	0.8
87.0446	1.0
96.0447	1.0
116.0710	2.0
118.0866	2.2
121.0650	4.5
122.0604	1.2
123.0561	0.9
124.0399	1.3
126.0557	1.0
126.0916	3.4
132.0452	0.9
136.0621	1.4
136.0759	1.0
138.0914	2.0
141.0659	1.2
152.0704	1.3
158.0931	1.2
164.0710	1.2
166.0726	100.0
167.0765	5.9
168.0688	15.6
170.0812	5.5
182.0807	0.9
265.1179	0.9
281.1113	1.2
282.1342	1.1
283.1288	1.2
285.1430	0.8
288.1442	5.2
289.1476	0.9
296.1120	2.4
297.1080	2.5
297.1435	1.8
298.1130	20.5
299.1194	5.0
299.1580	5.6
300.1114	1.4
300.1457	1.6
301.1408	4.3
302.1270	3.2
302.1837	1.5
303.1562	2.7
304.1401	1.7
305.1095	0.9
306.1561	10.6
307.1275	1.4
307.1615	1.5
308.1117	2.5
309.1132	1.3
309.1434	1.1
310.1290	4.8
311.1220	3.6
311.1618	0.9
312.1089	1.1
312.1493	2.3
313.1412	4.4
314.1229	8.2
315.1253	1.0
315.1549	2.6
316.1405	4.2
317.1401	1.1

Name: N(6)-acetimidoyl-L-lysine
PrecursorMZ: 188.13929
RT: 11.2238
ExactMass: 187.132076794
Spectrum_type: 2
charge: 1
Formula: C8H17N3O2
SMILES: CC(=NCCCC[C@@H](C(=O)O)N)N
Method: HCD
Collision_energy: [28.333334]
Isolation_window: 4.0
Ion_mode: P
Num Peaks: 77
58.0656	9.6
59.0608	5.1
69.0340	11.4
70.0656	28.9
72.0813	32.4
80.0498	9.2
84.0812	82.8
85.0652	5.1
85.0845	5.6
86.0969	16.4
87.0444	5.9
94.0654	7.2
94.9299	5.7
96.0447	11.3
100.0757	5.3
101.0601	14.4
102.0916	16.0
108.0812	5.1
110.0603	5.4
114.0915	5.9
116.0709	20.4
121.6153	10.5
126.0553	10.2
126.0916	5.2
128.1074	6.7
130.0865	100.0
131.0900	5.5
135.0441	12.4
143.1181	42.4
144.9276	8.0
160.9016	18.5
165.0218	24.8
185.1652	5.9
187.1088	5.2
187.1443	7.4
187.1806	9.3
188.1401	73.7
189.1402	11.6
190.1085	17.2
190.1435	10.8
191.1028	31.1
192.1015	12.1
193.0322	9.1
193.0985	5.1
193.1331	7.0
194.1177	66.9
194.1656	5.7
195.1171	8.6
196.0957	18.8
196.1326	15.6
197.1278	10.8
198.0758	50.6
198.1119	16.5
199.0788	5.3
199.1060	9.5
200.0913	15.2
200.1524	6.1
201.1027	48.7
201.1241	6.9
201.1601	5.5
202.0869	6.0
202.1066	9.2
202.1437	10.4
202.1807	20.8
202.1944	11.3
203.1503	7.0
204.1021	27.6
204.1230	6.3
205.1189	53.0
206.1197	11.4
206.1388	5.7
206.1654	44.6
207.1125	19.2
207.1689	7.0
208.0966	7.7
208.1325	12.1
209.1301	7.8

Name: N(delta)-(5-Methyl-4-oxo-2-imidazolin-2-yl)ornithine
PrecursorMZ: 229.12905
RT: 9.775549999999999
ExactMass: 228.12224039
Spectrum_type: 2
charge: 1
Formula: C9H16N4O3
SMILES: CC1C(=O)NC(=NCCC[C@@H](C(=O)O)N)N1
Method: HCD
Collision_energy: [28.333334]
Isolation_window: 4.0
Ion_mode: P
Num Peaks: 29
69.5129	1.4
70.0654	32.1
71.0688	1.5
84.0809	2.7
86.0714	4.1
96.0443	1.4
98.0965	1.1
110.0600	1.5
114.0661	100.0
115.0694	3.7
116.0705	29.7
117.0738	1.7
166.0860	3.6
166.0969	1.9
182.0806	2.9
184.1075	2.5
194.0806	1.2
212.0910	4.0
228.0869	1.9
228.1010	1.4
228.1227	4.5
228.2315	1.8
229.1174	2.1
229.1286	30.2
229.1533	3.2
230.1011	11.8
230.1159	5.0
230.1375	4.4
231.1329	1.3

Name: N,2,7-trimethyl-N-(3-(trifluoromethyl)benzyl)imidazo(1,2-a)pyridine-3-carboxamide
PrecursorMZ: 362.14721
RT: 5.9339
ExactMass: 361.14019669
Spectrum_type: 2
charge: 1
Formula: C19H18F3N3O
SMILES: CC1=CC2=NC(=C(N2C=C1)C(=O)N(C)CC3=CC(=CC=C3)C(F)(F)F)C
Method: HCD
Collision_energy: [28.333334]
Isolation_window: 4.0
Ion_mode: P
Num Peaks: 13
70.0654	3.0
86.0967	6.0
361.1394	4.3
361.1746	4.7
361.2122	3.2
362.1245	4.2
362.1471	100.0
362.2408	30.1
363.1308	28.4
363.1517	19.1
363.1891	6.9
363.2444	6.0
364.1368	5.3

Name: N,N'-Bis(1-methylethyl)urea
PrecursorMZ: 145.13351
RT: 1.3161
ExactMass: 144.126263138
Spectrum_type: 2
charge: 1
Formula: C7H16N2O
SMILES: CC(C)NC(=O)NC(C)C
Method: HCD
Collision_energy: [28.333334]
Isolation_window: 4.0
Ion_mode: P
Num Peaks: 13
60.0812	100.0
61.0400	12.5
61.0845	3.4
86.0602	4.3
86.0966	39.2
103.0866	10.3
144.0806	13.0
144.1381	2.3
145.0840	2.3
145.1333	47.2
146.0597	4.3
146.1366	4.9
147.0549	2.9

Name: N,N'-Bis(2-methoxyethoxycarbonyl)-4-methyl-1,3-phenylenediamine
PrecursorMZ: 327.15447
RT: 8.2182
ExactMass: 326.14778643
Spectrum_type: 2
charge: 1
Formula: C15H22N2O6
SMILES: CC1=C(C=C(C=C1)NC(=O)OCCOC)NC(=O)OCCOC
Method: HCD
Collision_energy: [28.333334]
Isolation_window: 4.0
Ion_mode: P
Num Peaks: 15
55.0546	4.6
69.9428	2.1
83.0494	2.4
101.0597	11.4
127.0501	9.7
227.1021	92.1
228.1059	10.2
326.1198	3.1
326.1801	2.2
326.3044	2.3
327.1539	100.0
328.1377	3.8
328.1570	18.1
329.1333	4.4
329.1707	3.1

Name: N,N'-Dicyclohexylurea
PrecursorMZ: 225.19595
RT: 1.173825
ExactMass: 224.188863393
Spectrum_type: 2
charge: 1
Formula: C13H24N2O
SMILES: C1CCC(CC1)NC(=O)NC2CCCCC2
Method: HCD
Collision_energy: [28.333334]
Isolation_window: 4.0
Ion_mode: P
Num Peaks: 14
61.0400	3.4
69.2093	2.9
83.0858	5.2
97.4326	3.1
100.1122	31.5
139.9146	4.2
143.1177	6.4
179.0701	14.6
224.1642	5.4
225.0759	5.5
225.1265	3.4
225.1958	100.0
226.1995	14.8
227.1750	6.0

Name: N,N'-bis(4-hydroxy-3-methoxycinnamoyl)-1,4-butanediamine
PrecursorMZ: 441.20132
RT: 3.0739
ExactMass: 440.19473662
Spectrum_type: 2
charge: 1
Formula: C24H28N2O6
SMILES: COC1=C(C=CC(=C1)C=CC(=O)NCCCCNC(=O)C=CC2=CC(=C(C=C2)O)OC)O
Method: HCD
Collision_energy: [28.333334]
Isolation_window: 4.0
Ion_mode: P
Num Peaks: 31
72.0811	2.6
81.0337	0.3
86.0966	0.5
89.1075	2.0
115.0866	0.6
117.0335	0.9
145.0282	18.5
146.0315	1.5
149.0596	0.5
150.0912	0.3
177.0382	0.6
177.0416	0.6
177.0543	100.0
177.0669	0.4
177.0704	0.7
178.0576	9.6
179.0603	0.3
186.0548	0.5
247.1436	0.8
248.1276	3.5
249.1311	0.4
265.1540	31.4
266.1575	4.1
291.1333	3.9
292.1368	0.6
440.1916	0.3
440.2776	0.8
441.2010	21.2
441.2817	0.3
442.2045	5.8
443.2071	0.6

Name: N,N,N-trimethyl-2-(phosphonooxy)ethanaminium
PrecursorMZ: 184.07324
RT: 10.1756
ExactMass: 184.07386996
Spectrum_type: 2
charge: 1
Formula: C5H15NO4P+
SMILES: C[N+](C)(C)CCOP(=O)(O)O
Method: HCD
Collision_energy: [28.333334]
Isolation_window: 4.0
Ion_mode: P
Num Peaks: 90
55.0546	0.7
60.0812	10.7
69.0338	1.2
69.0748	1.5
69.4649	1.0
69.8232	0.9
70.0654	2.0
71.0732	0.9
72.0811	0.7
80.0497	0.8
81.0701	0.7
83.0494	0.8
83.0606	0.8
83.0857	1.2
84.0446	1.6
84.0810	1.1
86.0966	43.8
87.0443	1.1
87.1000	2.4
91.0544	4.0
95.0856	0.8
96.0445	1.4
97.0286	0.8
97.4574	1.1
98.0602	1.4
98.9842	1.2
99.0441	0.8
100.0758	0.8
101.0598	0.8
104.1070	1.2
109.0284	0.9
109.0760	1.4
110.0600	0.6
112.0758	1.1
116.0706	0.7
122.0600	1.7
123.0441	0.9
124.0756	1.5
124.9997	28.8
125.0708	1.0
126.0032	0.8
126.0548	2.6
126.0912	8.2
136.0756	3.6
137.0709	1.6
137.0789	1.3
138.0548	11.0
138.0912	2.6
139.0864	1.7
140.0454	0.7
140.0704	2.1
144.0653	4.2
149.0709	1.1
156.0653	4.8
156.1017	1.3
164.0703	2.5
165.0659	1.3
165.0740	1.3
165.1021	0.6
166.0498	1.8
166.0861	2.3
167.0813	2.7
168.0653	1.9
168.1018	1.1
182.0809	2.2
182.0925	1.5
182.1012	0.8
182.1174	3.1
182.1288	0.9
183.0767	2.0
183.0846	0.8
183.0915	2.6
183.1125	5.7
183.1220	0.6
183.1489	1.0
184.0605	38.4
184.0730	100.0
184.0964	4.2
184.1080	2.8
184.1329	4.7
185.0636	3.4
185.0764	5.0
185.0916	4.5
185.1281	18.9
186.0761	4.1
186.0874	1.1
186.1123	6.8
186.1237	1.8
186.1314	0.8
186.1485	4.0

Name: N,N,N-trimethyl-3-)(2-methylacryloyl)amino(propan-1-aminium
PrecursorMZ: 185.16476
RT: 0.5484
ExactMass: 185.165388298
Spectrum_type: 2
charge: 1
Formula: C10H21N2O+
SMILES: CC(=C)C(=O)NCCC[N+](C)(C)C
Method: HCD
Collision_energy: [28.333334]
Isolation_window: 4.0
Ion_mode: P
Num Peaks: 7
69.0338	5.7
98.0602	5.1
126.0913	100.0
127.0946	7.3
178.8825	2.9
184.1807	3.2
185.1647	4.6

Name: N,N,N-trimethylglycinium
PrecursorMZ: 118.08638
RT: 2.2823
ExactMass: 118.086803626
Spectrum_type: 2
charge: 1
Formula: C5H12NO2+
SMILES: C[N+](C)(C)CC(=O)O
Method: HCD
Collision_energy: [28.333334]
Isolation_window: 4.0
Ion_mode: P
Num Peaks: 12
58.0656	100.0
58.0686	0.8
59.0690	4.1
59.0733	0.8
61.0289	0.8
61.0401	3.2
70.0656	0.8
92.0497	0.9
118.0864	25.3
119.0897	1.3
120.0444	1.1
120.0809	2.6

Name: N,N-Bis(2-hydroxyethyl)-p-toluidine
PrecursorMZ: 196.13314
RT: 5.2336
ExactMass: 195.125928785
Spectrum_type: 2
charge: 1
Formula: C11H17NO2
SMILES: CC1=CC=C(C=C1)N(CCO)CCO
Method: HCD
Collision_energy: [28.333334]
Isolation_window: 4.0
Ion_mode: P
Num Peaks: 17
74.0718	1.5
88.0397	2.7
107.0730	1.2
108.0814	0.8
162.0766	0.8
178.1232	1.0
186.0874	4.2
194.1174	2.5
196.0960	0.8
196.1333	100.0
197.1368	13.0
198.1391	1.0
204.0979	23.0
205.1014	1.7
206.1382	1.0
208.1175	2.2
209.1282	1.0

Name: N,N-Bis(2-hydroxyethyl)formamide
PrecursorMZ: 134.08117
RT: 4.831625
ExactMass: 133.07389321
Spectrum_type: 2
charge: 1
Formula: C5H11NO3
SMILES: C(CO)N(CCO)C=O
Method: HCD
Collision_energy: [28.333334]
Isolation_window: 4.0
Ion_mode: P
Num Peaks: 5
70.0655	50.5
88.0760	89.1
106.0864	91.9
116.0707	63.9
136.0215	100.0

Name: N,N-Dibutylformamide
PrecursorMZ: 158.1539
RT: 1.0991333333333333
ExactMass: 157.14666423
Spectrum_type: 2
charge: 1
Formula: C9H19NO
SMILES: CCCCN(CCCC)C=O
Method: HCD
Collision_energy: [28.333334]
Isolation_window: 4.0
Ion_mode: P
Num Peaks: 15
55.0546	0.8
57.0703	6.3
60.0447	1.1
69.0702	3.3
69.7990	0.7
70.0654	1.3
83.0858	1.9
84.0810	1.5
102.0914	37.3
103.0948	1.7
116.1070	0.9
158.1402	0.7
158.1538	100.0
158.1675	0.8
159.1570	9.7

Name: N,N-Diethyl-5,7-dimethyl-2-(4-(2-methylpropyl)piperazine-1-carbonyl)pyrido(2,3-D)pyrimidin-4-amine
PrecursorMZ: 399.28669
RT: 1.0221333333333333
ExactMass: 398.27940973
Spectrum_type: 2
charge: 1
Formula: C22H34N6O
SMILES: CCN(CC)C1=NC(=NC2=C1C(=CC(=N2)C)C)C(=O)N3CCN(CC3)CC(C)C
Method: HCD
Collision_energy: [28.333334]
Isolation_window: 4.0
Ion_mode: P
Num Peaks: 6
139.9145	3.5
399.2865	100.0
399.3603	4.6
399.3976	3.8
400.2900	21.5
401.2857	4.8

Name: N,N-Diethyl-para-anisamide
PrecursorMZ: 208.13293
RT: 8.796
ExactMass: 207.125928785
Spectrum_type: 2
charge: 1
Formula: C12H17NO2
SMILES: CCN(CC)C(=O)C1=CC=C(C=C1)OC
Method: HCD
Collision_energy: [28.333334]
Isolation_window: 4.0
Ion_mode: P
Num Peaks: 14
55.0547	20.7
59.0495	5.5
83.0494	11.2
87.0442	11.7
101.0598	64.7
108.0808	43.6
109.0761	48.9
123.0916	10.3
207.1124	17.3
208.0962	6.8
208.1329	91.2
209.1280	100.0
209.1365	10.3
210.1121	10.3

Name: N,N-Diethylbenzamide
PrecursorMZ: 178.12265
RT: 6.985
ExactMass: 177.115364102
Spectrum_type: 2
charge: 1
Formula: C11H15NO
SMILES: CCN(CC)C(=O)C1=CC=CC=C1
Method: HCD
Collision_energy: [28.333334]
Isolation_window: 4.0
Ion_mode: P
Num Peaks: 37
60.0812	0.5
69.2022	0.5
70.0655	0.4
81.0337	0.4
88.0759	3.6
96.9952	0.7
97.4572	0.4
106.0863	0.5
109.0760	0.5
120.0807	1.9
121.0648	0.4
121.0885	5.4
122.0917	0.3
123.0916	0.8
135.1041	2.3
176.0976	0.5
176.1068	0.8
176.1180	1.4
176.1430	0.4
176.8750	0.4
177.1022	1.2
177.1222	0.8
177.1384	3.6
178.0682	0.4
178.0971	1.0
178.1225	32.4
178.1335	100.0
178.1466	0.4
178.1499	0.7
178.2094	0.3
179.0924	0.4
179.1176	1.7
179.1256	3.1
179.1369	10.4
179.1538	4.2
180.1048	6.3
180.1378	1.3

Name: N,N-Dimethyl-2-(morpholin-4-yl)ethanamine
PrecursorMZ: 159.14917
RT: 10.5317
Spectrum_type: 2
charge: 1
SMILES: CN(C)CCN1CCOCC1
Method: HCD
Collision_energy: [28.333334]
Isolation_window: 4.0
Ion_mode: P
Num Peaks: 32
70.0655	24.7
71.0495	4.5
72.0811	37.8
73.0845	1.2
86.0602	1.2
86.0967	1.2
88.0759	1.7
89.1075	1.3
98.0602	1.2
100.0758	7.1
113.0710	22.3
114.0550	5.6
114.0744	1.3
114.0914	13.3
115.0866	3.1
116.0707	1.6
116.9619	1.1
117.9594	1.4
142.0862	3.7
142.1225	100.0
143.1258	8.2
158.0402	1.3
158.0814	1.2
158.0918	2.5
158.1288	2.8
158.1540	1.5
159.0763	8.8
159.1491	27.3
160.0967	16.7
160.1445	1.8
160.1523	2.2
160.9013	2.6

Name: N,N-Dimethyl-N-(2-phenoxyethyl)-1-dodecanaminium
PrecursorMZ: 334.31016
RT: 1.0272333333333332
ExactMass: 334.310989899
Spectrum_type: 2
charge: 1
Formula: C22H40NO+
SMILES: CCCCCCCCCCCC[N+](C)(C)CCOC1=CC=CC=C1
Method: HCD
Collision_energy: [28.333334]
Isolation_window: 4.0
Ion_mode: P
Num Peaks: 9
69.0702	3.4
72.0811	14.3
81.0338	4.1
81.0702	3.7
98.0602	15.6
333.2978	34.5
334.3101	100.0
335.3136	20.7
336.3260	10.9

Name: N,N-Dimethylglycine
PrecursorMZ: 104.07074
RT: 7.7987
ExactMass: 103.06332853
Spectrum_type: 2
charge: 1
Formula: C4H9NO2
SMILES: CN(C)CC(=O)O
Method: HCD
Collision_energy: [28.333334]
Isolation_window: 4.0
Ion_mode: P
Num Peaks: 6
56.0499	30.1
58.0655	44.9
59.0608	25.6
102.1278	100.0
104.1070	32.5
105.0699	25.3

Name: N,N-Dimethyloctanamide
PrecursorMZ: 172.16962
RT: 1.1055
ExactMass: 171.162314293
Spectrum_type: 2
charge: 1
Formula: C10H21NO
SMILES: CCCCCCCC(=O)N(C)C
Method: HCD
Collision_energy: [28.333334]
Isolation_window: 4.0
Ion_mode: P
Num Peaks: 21
57.0704	4.6
60.0449	4.1
72.0447	1.6
73.0288	1.6
74.0605	3.1
86.0968	2.0
89.0712	2.3
100.0760	2.3
100.1124	2.0
109.1014	3.6
114.1280	3.3
116.1072	14.1
126.0915	2.4
128.1071	3.9
130.1591	12.0
171.1380	11.2
171.1495	3.4
172.1696	100.0
173.0807	2.3
173.1651	20.9
173.1730	10.1

Name: N,N-Dimethylproline
PrecursorMZ: 144.10188
RT: 2.9563
ExactMass: 144.102453689
Spectrum_type: 2
charge: 1
Formula: C7H14NO2+
SMILES: C[N+]1(CCC[C@H]1C(=O)O)C
Method: HCD
Collision_energy: [28.333334]
Isolation_window: 4.0
Ion_mode: P
Num Peaks: 3
84.0810	100.0
144.1017	43.1
146.0599	20.5

Name: N,N-Dimethyltetradecylamine
PrecursorMZ: 242.284
RT: 3.0822
ExactMass: 241.276950121
Spectrum_type: 2
charge: 1
Formula: C16H35N
SMILES: CCCCCCCCCCCCCCN(C)C
Method: HCD
Collision_energy: [28.333334]
Isolation_window: 4.0
Ion_mode: P
Num Peaks: 6
139.9146	57.0
141.9129	9.5
242.2840	100.0
243.1202	6.4
243.2873	14.6
244.2633	29.7

Name: N,N-diethyl-2-methoxybenzamide
PrecursorMZ: 208.13298
RT: 8.7974
ExactMass: 207.125928785
Spectrum_type: 2
charge: 1
Formula: C12H17NO2
SMILES: CCN(CC)C(=O)C1=CC=CC=C1OC
Method: HCD
Collision_energy: [28.333334]
Isolation_window: 4.0
Ion_mode: P
Num Peaks: 18
55.0547	17.5
59.0496	4.1
83.0494	13.2
87.0443	12.8
101.0598	67.8
108.0809	47.2
109.0761	61.8
109.0841	3.5
114.0914	2.5
123.0916	8.9
207.1125	14.4
208.0967	4.8
208.1164	2.5
208.1329	93.7
209.1281	100.0
209.1365	10.0
210.1121	6.5
210.1313	3.3

Name: N,N-diethyl-3-methoxybenzamide
PrecursorMZ: 208.13297
RT: 9.0468
ExactMass: 207.125928785
Spectrum_type: 2
charge: 1
Formula: C12H17NO2
SMILES: CCN(CC)C(=O)C1=CC(=CC=C1)OC
Method: HCD
Collision_energy: [28.333334]
Isolation_window: 4.0
Ion_mode: P
Num Peaks: 8
55.0546	10.3
101.0598	26.6
108.0808	58.0
208.1328	100.0
209.1279	20.3
209.1364	13.3
210.0790	21.8
210.1120	13.2

Name: N,N-diethyl-4-hydroxybenzamide
PrecursorMZ: 194.11747
RT: 3.7628
ExactMass: 193.110278721
Spectrum_type: 2
charge: 1
Formula: C11H15NO2
SMILES: CCN(CC)C(=O)C1=CC=C(C=C1)O
Method: HCD
Collision_energy: [28.333334]
Isolation_window: 4.0
Ion_mode: P
Num Peaks: 8
55.0547	7.8
59.0497	1.8
83.0495	7.0
94.0654	71.9
95.0687	4.4
101.0600	29.0
194.1176	100.0
195.1218	12.2

Name: N,N-dimethyl(4-((3-oxo-3-(2-oxochromen-3-yl)propyl)amino)phenyl)carboxamide
PrecursorMZ: 387.13119
RT: 1.2005
ExactMass: 364.14230712
Spectrum_type: 2
charge: 1
Formula: C21H20N2O4
SMILES: CN(C)C(=O)C1=CC=C(C=C1)NCCC(=O)C2=CC3=CC=CC=C3OC2=O
Method: HCD
Collision_energy: [28.333334]
Isolation_window: 4.0
Ion_mode: P
Num Peaks: 8
86.0966	5.0
355.1050	15.3
385.1153	5.3
386.1193	6.0
387.1311	100.0
387.1527	3.7
388.1346	16.1
389.1319	3.8

Name: N,N-dimethyl-4-nitrosoaniline
PrecursorMZ: 151.08657
RT: 1.364
ExactMass: 150.079312947
Spectrum_type: 2
charge: 1
Formula: C8H10N2O
SMILES: CN(C)C1=CC=C(C=C1)N=O
Method: HCD
Collision_energy: [28.333334]
Isolation_window: 4.0
Ion_mode: P
Num Peaks: 8
106.0651	4.8
133.0758	76.2
134.0792	7.8
150.0912	7.6
151.0864	100.0
152.0705	6.0
152.0896	7.2
152.1068	8.8

Name: N,N-dimethyl-p-phenylenediamine
PrecursorMZ: 137.10731
RT: 4.7763
ExactMass: 136.100048391
Spectrum_type: 2
charge: 1
Formula: C8H12N2
SMILES: CN(C)C1=CC=C(C=C1)N
Method: HCD
Collision_energy: [28.333334]
Isolation_window: 4.0
Ion_mode: P
Num Peaks: 40
67.0546	0.8
69.4041	0.6
69.7574	0.4
78.9851	1.1
79.0545	0.6
81.0701	0.7
82.0652	0.5
91.0544	1.0
93.0700	0.9
95.0492	0.6
95.0605	3.4
95.0856	0.5
96.0445	0.6
96.0683	2.0
97.4565	0.4
107.0856	0.5
108.0808	0.7
109.0648	0.4
109.0762	0.5
121.0760	1.7
123.0678	0.5
135.0915	0.5
136.0214	0.6
136.0617	0.9
136.0755	3.5
137.0457	0.8
137.0596	2.6
137.0709	0.8
137.0960	1.7
137.1072	100.0
137.1159	0.6
137.1181	0.6
138.0546	1.1
138.0664	0.6
138.0911	6.6
138.1043	0.7
138.1104	9.2
139.0753	0.4
139.0864	7.7
139.1227	1.6

Name: N,N-dimethyl-proline-proline betaine
PrecursorMZ: 241.15436
RT: 7.0619
Spectrum_type: 2
charge: 1
SMILES: O=C(N1C(C(O)=O)CCC1)C2CCC[N+]2(C)C
Method: HCD
Collision_energy: [28.333334]
Isolation_window: 4.0
Ion_mode: P
Num Peaks: 9
123.0916	7.4
141.1020	12.4
213.1594	7.2
240.0864	9.5
240.1225	9.7
240.1586	6.9
241.1177	28.2
241.1540	100.0
242.1578	11.2

Name: N-((+)-Jasmonoyl)-(L)-isoleucine
PrecursorMZ: 324.2165
RT: 5.0562
ExactMass: 323.20965841
Spectrum_type: 2
charge: 1
Formula: C18H29NO4
SMILES: CC/C=C\C[C@H]1[C@@H](CCC1=O)CC(=O)N[C@@H]([C@@H](C)CC)C(=O)O
Method: HCD
Collision_energy: [28.333334]
Isolation_window: 4.0
Ion_mode: P
Num Peaks: 42
79.0545	8.4
81.0701	12.2
83.0494	9.0
86.0966	100.0
91.0543	19.1
93.0700	17.9
105.0699	28.7
109.0648	11.8
119.0855	16.6
124.0756	25.7
131.0855	23.9
132.1017	68.0
133.1010	76.1
147.1166	38.2
149.0959	18.2
151.0751	13.0
151.1115	39.0
157.1010	9.3
164.0704	18.6
175.1117	29.2
182.0809	26.3
191.0811	14.0
193.1220	24.4
197.0921	8.9
244.1074	13.6
260.2004	13.7
262.1188	8.7
274.0915	20.7
278.2108	21.4
281.1490	10.5
290.1131	10.9
305.1494	23.6
306.2055	22.0
308.1240	17.0
323.1245	11.1
323.1594	28.7
323.1972	12.2
324.1439	12.3
324.1581	8.3
324.2161	56.5
325.1372	22.6
326.1349	86.4

Name: N-((1-(2-hydroxyethoxy)cyclopentyl)methyl)-6-methoxy-1H-indole-2-carboxamide
PrecursorMZ: 333.1803
RT: 2.748
ExactMass: 332.17360725
Spectrum_type: 2
charge: 1
Formula: C18H24N2O4
SMILES: COC1=CC2=C(C=C1)C=C(N2)C(=O)NCC3(CCCC3)OCCO
Method: HCD
Collision_energy: [28.333334]
Isolation_window: 4.0
Ion_mode: P
Num Peaks: 11
57.0702	9.9
95.0856	10.9
245.1281	14.4
257.1644	90.5
258.1677	13.4
260.1516	11.5
301.1540	27.9
302.1610	22.3
313.2730	10.9
333.1802	100.0
334.1833	22.3

Name: N-((1S,trans)-2-Hydroxycyclopentyl)adenosine
PrecursorMZ: 352.16112
RT: 3.8542
ExactMass: 351.15426879
Spectrum_type: 2
charge: 1
Formula: C15H21N5O5
SMILES: C1C[C@@H]([C@H](C1)O)NC2=C3C(=NC=N2)N(C=N3)[C@H]4[C@@H]([C@@H]([C@H](O4)CO)O)O
Method: HCD
Collision_energy: [28.333334]
Isolation_window: 4.0
Ion_mode: P
Num Peaks: 11
220.1194	100.0
221.1226	11.0
351.1554	4.3
352.1616	49.2
353.1663	10.5
354.1645	3.8
356.1776	4.3
356.3536	5.9
358.3677	4.4
366.1649	5.5
369.1911	9.9

Name: N-((2R)-1-Hydroxypropan-2-yl)hexadecanamide
PrecursorMZ: 314.3047
RT: 1.3037
ExactMass: 313.298079487
Spectrum_type: 2
charge: 1
Formula: C19H39NO2
SMILES: CCCCCCCCCCCCCCCC(=O)N[C@H](C)CO
Method: HCD
Collision_energy: [28.333334]
Isolation_window: 4.0
Ion_mode: P
Num Peaks: 29
56.0499	3.0
57.0703	6.3
60.0448	9.8
67.0546	3.7
69.0702	4.9
71.0858	5.6
81.0701	5.5
83.0858	4.6
85.1014	3.8
86.0603	2.6
95.0857	7.2
97.1012	3.6
97.4007	1.9
107.0856	1.7
109.1012	4.4
121.1012	1.7
123.1169	1.9
268.2992	5.2
278.2829	1.9
284.2943	22.8
285.2977	4.5
296.2943	18.1
297.2977	3.5
312.3622	2.7
313.1405	1.7
313.2732	6.4
314.3048	100.0
315.2318	4.8
315.3082	20.3

Name: N-((2S,3R,4S,5R)-3,4,5,6-Tetrahydroxy-1-oxohexan-2-yl)acetamide
PrecursorMZ: 222.09698
RT: 7.5139
ExactMass: 221.0899372
Spectrum_type: 2
charge: 1
Formula: C8H15NO6
SMILES: CC(=O)N[C@H](C=O)[C@H]([C@@H]([C@@H](CO)O)O)O
Method: HCD
Collision_energy: [28.333334]
Isolation_window: 4.0
Ion_mode: P
Num Peaks: 30
56.0500	18.9
60.0448	5.8
74.0604	55.6
84.0447	8.3
85.0287	13.5
87.0443	6.2
90.0552	9.3
94.0653	25.9
97.3986	6.7
101.0599	10.2
124.0757	17.4
126.0550	17.1
136.0617	11.3
138.0549	9.9
144.0653	6.3
175.0865	11.6
204.0872	11.0
206.1020	12.3
220.1181	13.1
221.0920	59.9
221.1289	10.7
222.0759	18.5
222.0981	100.0
222.1121	23.6
222.1334	15.3
223.1091	12.9
223.1440	20.9
224.0915	43.8
224.1130	5.9
224.1279	49.0

Name: N-((4-(pyrimidin-2-yl)piperazin-1-yl)carbonyl)valine
PrecursorMZ: 308.17114
RT: 7.05915
ExactMass: 307.16443955
Spectrum_type: 2
charge: 1
Formula: C14H21N5O3
SMILES: CC(C)C(C(=O)O)NC(=O)N1CCN(CC1)C2=NC=CC=N2
Method: HCD
Collision_energy: [28.333334]
Isolation_window: 4.0
Ion_mode: P
Num Peaks: 42
70.0655	12.5
72.0811	1.1
81.0338	3.4
84.0810	2.1
111.0441	4.7
112.0870	6.6
154.0861	1.0
159.0916	1.4
160.0612	1.1
197.1281	1.7
202.1087	1.5
211.1437	1.4
212.0929	1.4
220.1187	3.1
230.1033	4.3
242.1020	1.1
254.1402	1.3
272.1500	11.2
273.1547	1.3
288.1438	1.1
290.1232	4.1
290.1604	3.7
306.1308	1.2
306.1689	3.1
306.1819	2.5
307.1289	1.4
307.1629	11.3
307.1765	5.5
307.1998	8.2
308.1119	1.8
308.1327	4.0
308.1496	7.7
308.1710	100.0
308.1989	2.5
309.1435	2.6
309.1574	3.6
309.1759	14.9
309.2151	3.0
310.1273	2.5
310.1434	1.8
310.1635	4.8
310.1808	1.4

Name: N-((4R)-4-((3R,5S,9S,10S,12S,13R,14S,17R)-3,12-dihydroxy-10,13-dimethylhexadecahydro-1H-cyclopenta(a)phenanthren-17-yl)pentanoyl)-N-methylglycine
PrecursorMZ: 446.32628
RT: 4.7237
ExactMass: 463.32977354
Spectrum_type: 2
charge: 1
Formula: C27H45NO5
SMILES: C[C@H](CCC(=O)N(C)CC(=O)O)[C@H]1CC[C@@H]2[C@@]1([C@H](C[C@H]3[C@H]2CC[C@H]4[C@@]3(CC[C@H](C4)O)C)O)C
Method: HCD
Collision_energy: [28.333334]
Isolation_window: 4.0
Ion_mode: P
Num Peaks: 51
70.0650	2.1
70.0668	1.2
73.0288	1.8
80.0549	1.3
81.0338	0.7
87.0443	1.1
89.0576	1.1
89.0599	10.1
89.0621	1.6
94.9298	1.3
97.3989	1.0
100.0756	3.2
100.0784	0.7
102.0681	1.1
120.0803	1.0
124.0807	0.8
128.0701	7.4
128.0716	4.0
128.0747	0.9
133.0857	5.6
140.1067	1.0
161.1321	2.5
176.8750	1.7
177.1121	2.1
199.1253	0.9
217.1323	0.8
221.1382	1.1
243.1513	0.7
245.1284	1.1
255.2106	1.5
271.2055	3.1
272.2093	0.7
273.2212	3.6
381.2788	1.1
428.2614	1.8
428.2656	1.6
428.3157	100.0
429.3190	28.3
430.3313	42.3
436.7745	1.2
444.3100	0.8
444.7058	0.7
445.2077	0.8
445.2132	0.8
445.2187	0.9
445.3120	1.3
446.2046	1.8
446.3263	17.3
447.2934	0.8
447.3292	4.9
448.3417	6.9

Name: N-((4R)-4-((3R,5S,9S,10S,13R,14S,17R)-3-hydroxy-10,13-dimethylhexadecahydro-1H-cyclopenta(a)phenanthren-17-yl)pentanoyl)-N-methylglycine
PrecursorMZ: 448.34199
RT: 2.9984
ExactMass: 447.33485892
Spectrum_type: 2
charge: 1
Formula: C27H45NO4
SMILES: C[C@H](CCC(=O)N(C)CC(=O)O)[C@H]1CC[C@@H]2[C@@]1(CC[C@H]3[C@H]2CC[C@H]4[C@@]3(CC[C@H](C4)O)C)C
Method: HCD
Collision_energy: [28.333334]
Isolation_window: 4.0
Ion_mode: P
Num Peaks: 39
70.0656	2.1
81.0339	3.6
81.0702	2.3
83.0497	1.7
93.0702	2.0
95.0494	2.0
95.0857	2.5
100.0759	3.4
107.0858	2.4
109.1014	3.3
119.0857	2.3
121.1014	3.0
123.1171	1.7
128.0707	22.0
133.1011	2.5
135.1168	2.2
140.1070	2.5
145.1012	2.1
147.1168	2.9
156.1020	6.6
159.1168	2.2
161.1326	9.2
163.1121	2.3
255.2108	7.2
256.2139	2.2
273.2212	18.5
274.2248	3.4
383.2938	3.6
412.3217	2.5
430.3315	100.0
431.3350	26.8
432.3392	2.4
447.2150	1.8
448.3421	68.2
449.1939	2.3
449.3040	2.5
449.3454	18.0
450.1776	2.0
450.3485	1.7

Name: N-((4R)-4-((3R,5S,9S,10S,13R,14S,17R)-3-hydroxy-10,13-dimethylhexadecahydro-1H-cyclopenta)a(phenanthren-17-yl)pentanoyl)-N-methylglycine
PrecursorMZ: 430.331
RT: 0.6098
ExactMass: 447.33485892
Spectrum_type: 2
charge: 1
Formula: C27H45NO4
SMILES: C[C@H](CCC(=O)N(C)CC(=O)O)[C@H]1CC[C@@H]2[C@@]1(CC[C@H]3[C@H]2CC[C@H]4[C@@]3(CC[C@H](C4)O)C)C
Method: HCD
Collision_energy: [28.333334]
Isolation_window: 4.0
Ion_mode: P
Num Peaks: 356
55.0546	2.6
56.0500	2.7
57.0339	1.6
57.0704	7.4
59.0496	2.4
59.0609	3.4
60.0448	1.2
60.0812	2.3
62.0604	1.3
67.0547	12.1
69.0340	2.4
69.0703	19.0
70.0656	12.0
70.0736	1.4
71.0496	5.7
71.0860	5.2
72.0812	9.4
73.0288	1.3
74.0241	4.9
75.0267	2.2
79.0546	5.3
81.0339	5.8
81.0703	32.0
82.0735	1.5
83.0495	5.0
83.0859	12.4
84.0812	4.4
85.0288	19.0
85.0652	6.3
85.1016	2.0
86.0604	1.4
86.0968	25.8
87.0444	2.9
87.1001	1.6
89.0601	8.4
91.0544	5.1
93.0702	16.2
95.0494	5.7
95.0605	3.1
95.0858	36.0
96.0892	2.2
97.0651	5.2
97.1015	9.8
98.0602	1.3
98.0967	1.8
99.0443	2.9
99.0808	5.5
100.0760	3.2
101.0602	2.3
105.0701	11.8
107.0491	2.8
107.0858	22.3
108.0893	2.0
109.0651	6.0
109.1014	34.2
110.0596	1.2
110.0716	41.3
110.1044	2.2
111.0442	2.1
111.0745	2.0
111.0807	6.5
111.1169	4.1
112.0760	4.7
113.0600	2.5
113.0963	4.1
114.0917	3.6
116.0709	3.0
117.0697	2.7
119.0857	15.9
120.0811	8.4
120.0892	1.6
121.0649	8.1
121.1014	22.4
122.1047	2.1
123.0442	2.0
123.0551	1.2
123.0805	5.7
123.1170	15.4
124.0758	1.5
124.1122	1.4
124.1204	1.7
125.0598	3.0
125.0961	7.1
126.0912	1.3
126.1281	1.8
127.0756	3.5
127.1120	5.1
128.0709	3.3
128.1070	2.0
129.0699	1.2
130.0862	1.9
131.0856	7.5
131.1176	1.9
132.1022	3.9
133.0650	1.6
133.0863	5.3
133.1012	18.5
134.1052	1.8
135.0807	8.0
135.1169	18.0
136.0757	7.4
136.1204	2.5
137.0459	2.5
137.0598	19.2
137.0962	7.6
137.1326	6.6
138.0636	1.4
138.0912	2.6
139.0504	2.4
139.0756	3.8
139.1118	4.6
140.1071	14.1
140.1433	3.1
141.0667	1.4
141.0912	1.3
141.1272	1.6
143.0858	4.0
143.1070	2.3
144.0659	1.8
144.1018	1.2
145.0622	1.3
145.1013	14.2
146.1049	1.7
146.1179	2.4
147.0806	4.5
147.1169	18.4
148.1212	2.5
149.0270	1.9
149.0597	1.6
149.0964	10.1
149.1075	2.0
149.1326	14.3
150.1365	1.9
151.0754	20.6
151.1119	3.9
151.1484	2.4
152.0689	1.7
152.0804	1.5
153.0408	5.1
153.0548	1.8
153.0917	2.0
153.1278	3.2
154.0860	1.6
154.0975	1.2
155.0102	2.8
155.0855	1.9
155.1068	1.5
156.0769	56.6
156.1020	15.6
157.0811	3.0
157.1012	6.2
157.1339	1.2
158.1177	1.4
159.0809	2.0
159.1170	14.6
160.1207	1.7
161.0963	6.1
161.1325	34.8
162.0914	1.2
162.1263	1.5
162.1386	3.4
163.0754	2.5
163.1119	7.5
163.1483	6.4
164.0710	1.3
164.0833	10.3
164.1048	2.5
165.0554	2.0
165.0911	100.0
165.1275	3.2
166.0532	8.3
166.0963	9.7
167.0564	11.3
167.0704	5.0
167.1072	1.3
169.0260	1.5
169.1006	2.6
171.1169	5.9
173.0962	4.2
173.1325	11.2
174.1362	1.2
175.0757	2.3
175.1118	5.1
175.1482	7.4
176.1073	1.4
177.0546	4.3
177.0911	7.2
177.1260	2.6
177.1638	3.9
178.1219	2.0
179.0717	3.8
179.0855	89.5
179.1053	2.7
179.1435	1.7
180.0888	12.5
180.1026	2.0
181.0872	1.2
182.0564	3.3
182.0806	2.1
183.1167	3.6
185.0958	1.6
185.1320	5.3
185.1534	1.9
187.1114	3.3
187.1481	7.5
189.0908	4.3
189.1274	3.8
189.1636	5.3
191.1065	13.2
191.1429	2.1
191.1794	2.7
192.1099	1.2
193.0860	1.6
193.1589	1.6
195.1182	1.7
197.0208	1.4
197.1326	4.4
199.1113	1.6
199.1482	6.6
200.0665	4.1
201.1268	3.2
201.1640	7.2
203.1062	7.6
203.1419	2.5
203.1794	4.5
205.1221	11.6
205.1586	1.3
206.1269	1.7
207.1744	1.3
209.1335	2.2
211.1483	3.6
213.1275	1.5
213.1639	7.0
215.1070	1.5
215.1423	3.4
215.1794	6.5
217.1227	4.8
217.1571	2.3
217.1941	2.4
219.1366	2.1
219.1733	2.2
221.1537	1.6
223.1483	1.3
225.1634	2.8
227.1791	4.6
227.2010	4.5
229.1599	2.5
229.1939	2.6
230.1217	1.4
231.1391	2.2
231.1735	2.1
233.1526	1.7
235.1694	1.2
237.1641	1.2
239.1794	2.7
241.1585	1.3
241.1951	2.4
243.1731	1.6
243.2104	1.4
245.1547	1.5
245.1867	2.7
251.1797	2.2
253.1568	1.3
253.1952	4.6
254.1991	1.6
255.2107	24.6
256.2141	5.5
257.2245	1.6
259.1693	1.4
259.2037	1.6
265.1943	1.4
267.1757	2.5
267.2102	1.4
269.1907	2.5
269.2264	1.7
271.1700	1.5
271.2056	5.4
273.2212	62.8
274.2243	13.1
275.2007	1.3
275.2316	1.2
281.2258	2.4
287.2020	2.6
289.2163	4.8
289.2528	1.5
299.2000	1.3
299.2360	1.4
349.2896	1.2
365.3233	1.9
366.2980	4.4
367.2998	3.8
369.3162	1.9
372.1699	2.0
378.1447	52.9
379.1478	12.6
380.1516	2.0
381.3155	1.3
383.2917	7.1
383.3323	1.6
384.2970	1.6
384.3335	1.2
385.3105	3.1
386.3116	1.3
395.2944	1.2
397.3097	1.4
399.3254	1.4
400.3221	1.3
401.3050	1.3
407.2873	1.2
410.3050	2.7
411.3234	2.5
412.3216	14.4
413.3235	3.5
414.3383	14.4
415.3371	3.7
416.2936	1.5
423.3228	1.3
426.2987	3.1
428.3155	22.7
428.3703	5.4
429.3182	17.3
429.3748	3.1
430.2791	2.4
430.3305	53.1
430.3743	3.7
431.1834	1.5
431.3337	18.1
432.1925	5.3
432.3481	33.6
433.1944	1.4
433.3544	8.6
434.2082	6.0
434.2961	3.8
434.3492	1.3
435.2088	1.4
435.3294	2.6
436.2843	1.6
436.3359	1.3
437.2962	1.5
437.3497	3.5
438.3548	2.3
439.3099	5.6
439.3619	3.1
440.3222	1.5
441.3318	2.6
441.3767	1.7
442.3415	2.0
443.2266	3.0
443.3068	1.4
443.3529	2.9
444.3093	7.0
444.3604	2.5
445.2676	1.3
445.3173	2.8
446.3251	14.7
447.3299	3.8

Name: N-(1,3-Dihydroxyoctadec-4-en-2-yl)hexadecanamide
PrecursorMZ: 538.51914
RT: 1.081157142857143
ExactMass: 537.512095
Spectrum_type: 2
charge: 1
Formula: C34H67NO3
SMILES: CCCCCCCCCCCCCCCC(=O)NC(CO)C(C=CCCCCCCCCCCCCC)O
Method: HCD
Collision_energy: [28.333334]
Isolation_window: 4.0
Ion_mode: P
Num Peaks: 21
60.0448	56.9
67.0546	12.1
81.0702	11.5
95.0857	15.1
145.0861	12.2
252.2681	17.9
256.2629	14.0
264.2682	100.0
265.2720	18.5
268.2631	11.6
270.2783	24.6
280.2627	13.2
282.2789	19.1
284.2942	26.1
298.2737	14.9
520.5087	49.6
521.5106	17.7
522.5242	36.7
538.5189	56.0
539.5215	17.4
540.5345	36.7

Name: N-(1,3-benzodioxol-5-ylmethyl)-3-(7-methoxy-4-methyl-2-oxo-2H-chromen-3-yl)propanamide
PrecursorMZ: 418.12579
RT: 2.9843
ExactMass: 395.13688739
Spectrum_type: 2
charge: 1
Formula: C22H21NO6
SMILES: CC1=C(C(=O)OC2=C1C=CC(=C2)OC)CCC(=O)NCC3=CC4=C(C=C3)OCO4
Method: HCD
Collision_energy: [28.333334]
Isolation_window: 4.0
Ion_mode: P
Num Peaks: 6
112.8957	2.2
114.8929	2.3
139.9146	2.6
418.1255	100.0
419.1288	18.2
420.1254	2.2

Name: N-(1-(3-(2-methoxyphenyl)-1H-pyrazole-5-carbonyl)piperidin-3-yl)-N,5-dimethylpyrimidin-2-amine
PrecursorMZ: 407.21875
RT: 1.1916
ExactMass: 406.21172409
Spectrum_type: 2
charge: 1
Formula: C22H26N6O2
SMILES: CC1=CN=C(N=C1)N(C)C2CCCN(C2)C(=O)C3=CC(=NN3)C4=CC=CC=C4OC
Method: HCD
Collision_energy: [28.333334]
Isolation_window: 4.0
Ion_mode: P
Num Peaks: 4
406.2735	10.8
407.2189	100.0
408.2220	23.9
409.2360	14.4

Name: N-(1-(4-methoxy-6-oxopyran-2-yl)-2-methylpropyl)acetamide
PrecursorMZ: 240.12273
RT: 7.6744
ExactMass: 239.11575802
Spectrum_type: 2
charge: 1
Formula: C12H17NO4
SMILES: CC(C)C(C1=CC(=CC(=O)O1)OC)NC(=O)C
Method: HCD
Collision_energy: [28.333334]
Isolation_window: 4.0
Ion_mode: P
Num Peaks: 49
55.0546	7.2
59.0495	1.9
83.0494	5.3
87.0442	3.9
96.0444	2.3
101.0597	26.8
102.0633	1.6
108.0445	1.8
110.0601	1.9
111.0917	3.5
122.0600	18.2
123.0552	9.4
124.0391	2.6
126.0548	2.9
127.0501	4.3
138.0547	1.6
138.0912	2.0
139.0500	10.0
139.0864	1.8
140.0339	7.2
140.0704	26.4
141.0656	8.9
141.0734	1.9
144.0653	7.1
152.1068	2.6
155.0813	2.2
180.0764	2.2
194.0808	3.1
221.0911	1.9
222.1121	7.6
223.1071	9.4
224.0914	3.8
238.1070	10.0
238.1435	3.7
239.1015	12.8
239.1109	2.6
239.1382	10.0
240.0686	2.7
240.0863	27.6
240.1226	88.1
240.1320	2.6
241.0909	3.4
241.1171	60.3
241.1535	4.4
242.1021	6.6
242.1130	3.6
242.1215	2.3
242.1381	2.1
242.2109	100.0

Name: N-(1-(5-(dimethylamino)pyrimidin-2-yl)-1H-pyrazol-4-yl)-2-phenylbutanamide
PrecursorMZ: 351.19275
RT: 3.1428
ExactMass: 350.18550935
Spectrum_type: 2
charge: 1
Formula: C19H22N6O
SMILES: CCC(C1=CC=CC=C1)C(=O)NC2=CN(N=C2)C3=NC=C(C=N3)N(C)C
Method: HCD
Collision_energy: [28.333334]
Isolation_window: 4.0
Ion_mode: P
Num Peaks: 5
178.0863	15.1
278.1045	24.4
351.1334	100.0
351.1926	25.5
352.1366	17.3

Name: N-(1-Deoxy-1-fructosyl)phenylalanine
PrecursorMZ: 328.13896
RT: 1.337
ExactMass: 327.13180201
Spectrum_type: 2
charge: 1
Formula: C15H21NO7
SMILES: C1=CC=C(C=C1)C[C@@H](C(=O)O)NCC2([C@H]([C@@H]([C@H](O2)CO)O)O)O
Method: HCD
Collision_energy: [28.333334]
Isolation_window: 4.0
Ion_mode: P
Num Peaks: 166
57.0341	18.0
59.0610	7.3
69.0341	12.7
70.0657	18.2
71.0497	20.4
72.0813	17.8
74.0605	6.7
75.0445	5.7
81.0340	25.2
81.0704	4.5
83.0495	10.6
84.0448	14.1
84.0813	6.7
85.0289	12.4
86.0603	6.9
86.0969	21.3
87.0445	6.5
91.0546	7.4
95.0494	7.5
97.0288	17.7
98.0605	5.8
98.9845	45.1
99.0443	11.7
100.0760	5.1
101.0600	20.6
102.0554	6.2
107.0493	8.2
109.0286	6.8
109.0653	5.0
110.0605	8.1
111.0443	13.8
112.0761	6.8
113.0600	5.3
114.0553	6.6
116.0710	29.1
119.0708	7.4
120.0810	44.9
121.0651	5.0
122.0605	5.8
122.0715	5.5
123.0443	10.6
124.0760	8.4
126.0550	5.1
126.0917	6.3
127.0395	13.2
128.0710	7.9
129.0552	4.4
130.0503	7.3
130.0654	8.5
130.0867	5.3
131.0493	5.2
132.0812	18.4
132.1021	7.4
136.0759	16.9
137.0600	8.4
138.0550	8.5
139.0391	6.0
140.0712	7.8
142.0867	4.6
143.0582	5.2
144.0653	4.6
144.1022	5.8
148.0760	6.8
149.0601	8.9
150.0548	7.0
150.0915	8.4
152.0710	13.0
154.0865	7.0
155.0454	6.3
156.0667	4.8
161.0700	4.8
162.0551	9.1
162.0916	5.3
163.0395	5.0
164.0709	27.9
165.0551	10.7
165.0750	14.5
166.0530	6.0
166.0866	43.6
168.0662	7.9
169.0980	5.9
170.0819	6.9
175.0875	9.4
177.0545	5.2
178.0863	17.0
180.0659	14.5
181.0979	5.3
182.0814	27.0
183.0859	15.8
185.0930	4.7
190.0864	4.4
192.0652	7.7
192.1023	4.9
194.0820	9.0
196.0977	4.4
198.0767	4.4
199.1091	4.7
200.0919	4.8
202.0872	4.9
204.1028	5.7
206.0820	4.9
208.0971	6.1
210.0751	10.8
210.1136	5.1
212.0921	4.4
213.1247	4.6
214.1079	4.4
217.0473	48.8
220.0970	4.7
222.1124	8.7
223.1077	12.7
224.1299	7.0
226.1079	4.5
236.0910	6.8
240.1352	6.7
244.0634	13.9
244.0969	10.4
246.1122	10.2
249.1239	5.6
250.1071	18.8
253.1184	6.4
264.1234	33.1
265.1290	6.5
267.1343	15.0
269.0813	8.8
274.1081	11.3
282.1345	5.5
291.1342	4.7
292.0865	8.6
292.1175	60.2
293.1239	9.8
309.1448	5.6
310.0971	6.3
310.1288	100.0
311.0932	7.0
311.1316	13.3
313.1400	7.7
315.1652	7.3
321.1442	6.0
324.1434	7.8
326.1253	8.1
327.1240	7.3
327.1592	17.9
328.1409	24.4
329.1417	9.1
329.1763	7.8
330.1599	7.7
331.1024	8.9
331.1531	15.3
334.1326	8.2
335.1148	19.0
336.1088	5.0
336.1467	8.5
337.1462	63.7
338.1248	10.3
338.1637	7.9
339.1596	10.8
340.1426	13.9
341.1418	6.2
341.1770	7.9
342.1155	4.6
342.1567	14.9
343.1577	12.5
344.1426	7.8
345.1673	9.7
346.1183	4.8

Name: N-(1-oxo-1-(3,5,6,7-tetrahydrospiro(imidazo(4,5-c)pyridine-4,4'-piperidin)-1'-yl)propan-2-yl)furan-2-carboxamide (M+H)+
PrecursorMZ: 380.17009
RT: 2.6176
ExactMass: 357.18008961
Spectrum_type: 2
charge: 1
Formula: C18H23N5O3
SMILES: CC(C(=O)N1CCC2(CC1)C3=C(CCN2)NC=N3)NC(=O)C4=CC=CO4
Method: HCD
Collision_energy: [28.333334]
Isolation_window: 4.0
Ion_mode: P
Num Peaks: 72
57.0340	1.1
59.0496	14.3
67.0547	2.0
69.0339	0.7
69.0702	0.5
69.0848	0.7
70.0655	0.5
71.0495	1.8
72.0812	3.8
73.0287	0.9
79.0546	1.9
81.0338	1.3
81.0703	1.5
83.0495	2.2
84.0811	0.5
85.0652	0.6
86.0968	5.2
91.0544	1.0
93.0701	2.5
95.0494	3.1
95.0858	1.2
97.0650	0.8
99.0443	3.3
100.0759	0.6
103.0546	0.6
103.0755	1.7
107.0858	0.6
109.0650	2.1
109.1014	0.6
111.0806	0.5
113.0600	0.6
117.0548	0.5
117.0701	0.5
117.0912	1.4
119.0856	1.0
120.0809	4.4
121.0557	0.8
121.0649	100.0
121.0738	0.6
121.0839	0.8
122.0682	7.6
131.0703	14.0
135.0804	2.0
136.0756	1.3
137.0597	1.5
137.0962	0.9
138.0913	23.1
139.0947	1.9
155.0702	0.8
163.0754	0.9
164.0706	3.1
166.0863	0.5
185.1648	2.1
189.1122	0.7
213.1596	2.0
219.1491	1.5
220.1332	1.4
247.1435	1.3
248.1281	1.1
262.1435	0.7
300.1589	1.2
318.1701	0.5
336.1800	2.5
362.1594	0.5
378.2153	7.2
379.1553	0.7
379.2182	3.2
380.1701	55.8
380.2133	1.6
381.1732	11.4
381.2471	0.5
382.1757	1.5

Name: N-(1-oxo-1-spiro)1,5,6,7-tetrahydroimidazo)4,5-c(pyridine-4,4'-piperidine(-1'-ylpropan-2-yl)furan-2-carboxamide
PrecursorMZ: 380.17032
RT: 5.4978
ExactMass: 357.18008961
Spectrum_type: 2
charge: 1
Formula: C18H23N5O3
SMILES: CC(C(=O)N1CCC2(CC1)C3=C(CCN2)NC=N3)NC(=O)C4=CC=CO4
Method: HCD
Collision_energy: [28.333334]
Isolation_window: 4.0
Ion_mode: P
Num Peaks: 35
70.0657	3.5
71.0860	2.4
84.0813	6.5
89.0600	2.4
112.0874	1.3
114.1029	1.3
130.0868	2.2
133.0863	1.5
149.0236	9.1
167.0340	1.5
187.0995	3.3
188.1065	2.1
261.1234	1.7
307.1392	4.1
333.1843	1.7
334.1774	1.9
348.2024	2.8
376.2005	1.7
378.2038	3.3
379.1957	2.5
380.1709	100.0
380.2097	3.8
381.1730	22.2
382.1784	3.6
383.1632	1.9
383.1970	2.3
384.2278	3.4
390.2058	3.5
391.1839	1.8
391.2174	1.5
392.2187	1.7
393.2256	16.7
394.2366	3.9
395.2222	7.9
396.2193	3.6

Name: N-(1H-Indol-3-YL-acetyl)valine acid
PrecursorMZ: 275.13897
RT: 6.9351
ExactMass: 274.13174244
Spectrum_type: 2
charge: 1
Formula: C15H18N2O3
SMILES: CC(C)[C@@H](C(=O)O)NC(=O)CC1=CNC2=CC=CC=C21
Method: HCD
Collision_energy: [28.333334]
Isolation_window: 4.0
Ion_mode: P
Num Peaks: 55
70.0655	2.7
80.0500	8.0
81.0339	4.0
83.0496	2.6
84.0812	32.4
86.0968	5.2
101.0601	13.7
111.0444	5.8
112.0760	89.9
113.0793	5.7
116.0709	3.4
130.0660	5.1
130.0865	74.7
131.0898	4.8
140.0708	100.0
141.0742	8.4
166.0979	5.7
180.0806	2.6
239.1173	4.6
257.1287	54.6
258.1326	9.5
264.1596	7.4
273.1262	2.4
274.1084	3.8
274.2131	4.9
275.1392	37.7
276.1224	6.1
276.1439	4.7
277.1265	3.0
277.1567	3.3
278.1024	2.7
278.1393	4.3
279.1352	9.1
279.1704	8.6
280.1563	6.2
281.1499	12.3
282.1328	3.6
282.1704	6.7
283.1653	17.7
285.2174	7.5
286.1102	2.8
287.1965	4.8
287.2329	4.7
288.1212	5.2
289.1209	2.9
290.1026	2.4
290.1394	4.6
291.1358	6.5
291.1705	5.5
292.1186	4.0
292.1563	10.6
293.1541	6.8
293.1862	15.9
294.1336	2.9
294.1905	3.0

Name: N-(2,3-dimethylphenyl)-2-))9-(4-methylphenyl)-6-oxo-6,9-dihydro-1H-purin-8-yl(sulfanylacetamide
PrecursorMZ: 420.14988
RT: 7.2315
ExactMass: 419.1415961
Spectrum_type: 2
charge: 1
Formula: C22H21N5O2S
SMILES: CC1=CC=C(C=C1)N2C3=C(C(=O)NC=N3)N=C2SCC(=O)NC4=CC=CC(=C4C)C
Method: HCD
Collision_energy: [28.333334]
Isolation_window: 4.0
Ion_mode: P
Num Peaks: 15
57.0703	4.1
71.0861	7.0
81.0339	7.9
85.0288	5.3
85.1017	4.1
89.0600	4.0
96.0447	15.9
97.0287	9.7
109.0285	11.4
127.0392	7.1
149.0237	6.3
420.1502	100.0
421.1512	16.5
422.1583	4.5
434.1658	11.8

Name: N-(2,4-Dimethylphenyl)formamide
PrecursorMZ: 150.09125
RT: 5.4854
ExactMass: 149.084063974
Spectrum_type: 2
charge: 1
Formula: C9H11NO
SMILES: CC1=CC(=C(C=C1)NC=O)C
Method: HCD
Collision_energy: [28.333334]
Isolation_window: 4.0
Ion_mode: P
Num Peaks: 52
55.0182	0.5
67.0546	0.6
79.0544	0.7
80.0497	0.3
81.0700	0.7
91.0544	0.5
93.0699	0.6
94.0652	0.9
95.0492	0.3
95.0856	0.4
96.0808	0.5
105.0699	1.0
106.0651	1.1
107.0729	1.8
107.0855	0.4
108.0445	0.3
108.0807	19.0
109.0841	1.6
110.0599	0.4
120.0807	0.3
122.0599	1.2
122.0711	0.3
122.0963	4.2
123.0551	0.5
123.0803	0.3
123.0995	0.4
124.0755	0.7
132.0806	1.2
135.0676	0.3
137.0469	0.7
148.0755	1.0
149.0706	0.4
149.0783	0.4
149.0959	0.6
150.0550	1.5
150.0661	22.3
150.0786	0.9
150.0815	0.6
150.0864	1.4
150.0911	100.0
150.1011	0.4
150.1038	0.6
150.1507	0.3
151.0627	0.3
151.0693	1.7
151.0751	0.3
151.0871	0.9
151.0943	11.2
151.1110	0.5
151.1223	0.4
152.0702	3.2
152.0971	0.3

Name: N-(2,4-dimethoxyphenyl)-2-(2-methoxyphenyl)acetamide
PrecursorMZ: 302.1383
RT: 8.4749
ExactMass: 301.13140809
Spectrum_type: 2
charge: 1
Formula: C17H19NO4
SMILES: COC1=CC(=C(C=C1)NC(=O)CC2=CC=CC=C2OC)OC
Method: HCD
Collision_energy: [28.333334]
Isolation_window: 4.0
Ion_mode: P
Num Peaks: 38
69.4366	1.3
70.0654	2.8
84.0809	2.5
100.0758	1.7
107.0730	12.2
108.0806	2.7
110.0713	2.6
114.0913	1.6
121.0647	12.2
123.0439	2.9
128.0816	1.9
138.0911	4.9
153.0545	1.6
156.0766	1.5
195.0644	1.4
274.1067	6.2
283.1396	1.9
286.1280	2.8
300.1218	1.7
300.1908	1.9
300.2016	1.4
301.1164	5.0
301.1381	1.4
301.1531	8.3
302.1220	4.7
302.1372	100.0
302.1495	1.7
302.1712	1.9
302.1745	2.4
302.2061	2.1
303.1168	1.6
303.1332	9.4
303.1399	12.0
303.1686	12.2
304.1161	3.9
304.1372	1.9
304.1524	4.2
304.1674	7.8

Name: N-(2,4-dimethylphenyl)-1-methyl-6-(piperidin-1-yl)-1H-pyrazolo(3,4-d)pyrimidin-4-amine
PrecursorMZ: 337.21347
RT: 1.6331
ExactMass: 336.20624479
Spectrum_type: 2
charge: 1
Formula: C19H24N6
SMILES: CC1=CC(=C(C=C1)NC2=C3C=NN(C3=NC(=N2)N4CCCCC4)C)C
Method: HCD
Collision_energy: [28.333334]
Isolation_window: 4.0
Ion_mode: P
Num Peaks: 3
337.2133	100.0
338.2164	18.4
338.3401	21.1

Name: N-(2,5-Dimethyl(1,3)oxazolo(5,4-d)pyrimidin-7-yl)leucine
PrecursorMZ: 279.14517
RT: 6.2034
ExactMass: 278.13789045
Spectrum_type: 2
charge: 1
Formula: C13H18N4O3
SMILES: CC1=NC(=C2C(=N1)OC(=N2)C)NC(CC(C)C)C(=O)O
Method: HCD
Collision_energy: [28.333334]
Isolation_window: 4.0
Ion_mode: P
Num Peaks: 49
55.0547	5.5
72.0812	11.1
83.0608	14.5
86.0968	8.9
95.0607	4.8
101.0599	11.0
114.0917	3.8
123.0919	8.3
125.1074	17.7
134.0716	3.7
136.0871	4.6
149.0237	6.3
178.1592	28.7
190.1344	4.1
205.1448	79.5
206.1485	9.1
207.1604	9.7
233.1078	5.2
233.1397	55.0
234.1435	4.9
235.1232	9.7
251.1177	6.8
251.1503	4.6
259.1442	3.7
261.1228	4.2
261.1350	12.8
262.1073	4.1
277.1174	5.7
277.1544	13.0
278.1008	5.1
278.1142	5.3
278.1373	8.7
278.1502	8.1
278.2114	68.3
279.0944	17.2
279.1132	100.0
279.1333	10.9
279.1456	61.1
279.1700	4.5
279.2065	11.7
279.2175	7.6
280.0967	3.8
280.1175	29.4
280.1303	3.8
280.1501	7.6
280.1662	6.4
280.2102	3.9
281.1285	5.5
281.1488	5.6

Name: N-(2,5-dimethylphenyl)-4,6-di(morpholin-4-yl)-1,3,5-triazin-2-amine
PrecursorMZ: 371.21891
RT: 4.59635
ExactMass: 370.21172409
Spectrum_type: 2
charge: 1
Formula: C19H26N6O2
SMILES: CC1=CC(=C(C=C1)C)NC2=NC(=NC(=N2)N3CCOCC3)N4CCOCC4
Method: HCD
Collision_energy: [28.333334]
Isolation_window: 4.0
Ion_mode: P
Num Peaks: 5
69.1860	5.6
94.9298	10.4
370.2061	13.8
371.2189	100.0
372.2221	19.7

Name: N-(2,6-dimethylphenyl)-3,4,5-triethoxybenzamide
PrecursorMZ: 358.20106
RT: 4.4509
ExactMass: 357.19400834
Spectrum_type: 2
charge: 1
Formula: C21H27NO4
SMILES: CCOC1=CC(=CC(=C1OCC)OCC)C(=O)NC2=C(C=CC=C2C)C
Method: HCD
Collision_energy: [28.333334]
Isolation_window: 4.0
Ion_mode: P
Num Peaks: 39
72.0809	1.0
81.0702	1.2
86.0967	3.3
89.0600	2.3
95.0857	1.3
107.0494	2.4
109.0649	1.1
109.1013	1.3
116.0707	2.5
121.1011	1.0
133.0859	0.9
137.0598	3.4
166.0864	1.4
205.0491	1.0
207.0800	1.1
223.0752	1.5
225.0914	1.5
241.0859	3.1
265.0857	1.6
274.1436	2.8
283.0963	6.8
293.0808	1.4
314.1381	1.9
315.1224	4.5
322.1796	1.9
325.1062	4.5
340.1906	33.0
341.1938	7.2
357.1436	1.2
357.1816	1.0
357.2790	3.9
358.1283	2.0
358.1647	1.5
358.2011	100.0
359.1358	5.1
359.1597	3.3
359.2045	23.6
360.1431	2.6
360.2051	2.4

Name: N-(2-(((1S,9aR)-octahydro-1H-quinolizin-1-yl)methyl)-3-oxo-1,2,3,4-tetrahydrobenzo(4,5)imidazo(1,2-a)pyrazin-8-yl)propionamide (M+H)+
PrecursorMZ: 410.25321
RT: 3.1641
ExactMass: 409.24777525
Spectrum_type: 2
charge: 1
Formula: C23H31N5O2
SMILES: CCC(=O)NC1=CC2=C(C=C1)N3CC(=O)N(CC3=N2)CC4CCCN5C4CCCC5
Method: HCD
Collision_energy: [28.333334]
Isolation_window: 4.0
Ion_mode: P
Num Peaks: 8
62.0605	7.4
137.0959	9.5
208.1327	13.0
275.1993	6.6
374.2319	5.3
392.2425	11.5
410.2529	100.0
411.2557	24.1

Name: N-(2-(1H-imidazol-2-yl)ethyl)octanamide
PrecursorMZ: 238.19113
RT: 2.3225
ExactMass: 237.184112366
Spectrum_type: 2
charge: 1
Formula: C13H23N3O
SMILES: CCCCCCCC(=O)NCCC1=NC=CN1
Method: HCD
Collision_energy: [28.333334]
Isolation_window: 4.0
Ion_mode: P
Num Peaks: 9
95.0605	100.0
96.0639	6.0
97.4009	3.0
112.0870	82.1
113.0903	3.8
220.1804	10.4
221.0709	3.6
238.1911	97.3
239.1946	13.6

Name: N-(2-(1H-imidazol-2-yl)ethyl)pentanamide
PrecursorMZ: 196.14435
RT: 3.4093
ExactMass: 195.137162174
Spectrum_type: 2
charge: 1
Formula: C10H17N3O
SMILES: CCCCC(=O)NCCC1=NC=CN1
Method: HCD
Collision_energy: [28.333334]
Isolation_window: 4.0
Ion_mode: P
Num Peaks: 16
57.0703	3.1
85.0650	2.7
94.9298	4.7
95.0606	100.0
96.0639	5.1
112.0870	68.0
113.0904	3.9
155.0562	1.3
178.1338	19.8
179.1371	2.4
196.1443	73.1
197.0377	4.3
197.0926	2.1
197.1071	29.0
197.1275	2.1
197.1479	6.8

Name: N-(2-(2-(2-hydroxy-5-oxo-4,5-dihydro-3H-benzo(e)(1,4)diazepin-3-yl)acetamido)ethyl)-1-methyl-1H-indole-2-carboxamide (M+H)+
PrecursorMZ: 434.18022
RT: 5.7368
ExactMass: 433.17500423
Spectrum_type: 2
charge: 1
Formula: C23H23N5O4
SMILES: CN1C2=CC=CC=C2C=C1C(=O)NCCNC(=O)CC3C(=O)NC4=CC=CC=C4C(=O)N3
Method: HCD
Collision_energy: [28.333334]
Isolation_window: 4.0
Ion_mode: P
Num Peaks: 14
69.3486	30.1
70.0654	27.9
72.0811	31.8
86.0966	59.1
116.0707	61.4
188.0704	46.1
201.1233	28.2
205.0970	38.3
227.1021	48.7
283.0958	38.4
325.1067	30.1
371.1118	100.0
433.1624	26.9
436.2073	43.1

Name: N-(2-(2-benzylphenoxy)ethyl)-3-phenylprop-2-ynamide
PrecursorMZ: 337.14651
RT: 7.0658
ExactMass: 355.157228913
Spectrum_type: 2
charge: 1
Formula: C24H21NO2
SMILES: C1=CC=C(C=C1)CC2=CC=CC=C2OCCNC(=O)C#CC3=CC=CC=C3
Method: HCD
Collision_energy: [28.333334]
Isolation_window: 4.0
Ion_mode: P
Num Peaks: 26
57.0702	1.8
69.0702	2.8
69.7047	1.8
71.0858	1.6
81.0337	2.1
81.0701	2.5
83.0858	3.9
95.0857	2.7
97.1013	3.2
97.4568	1.5
100.0757	2.1
111.1169	2.0
121.1011	1.7
135.1167	1.7
174.0761	1.6
181.0968	1.4
303.3041	1.5
319.1274	1.4
321.3148	2.3
336.1075	1.4
337.1461	100.0
338.1232	1.7
338.1496	12.2
338.3409	12.5
339.0845	2.8
339.1532	5.1

Name: N-(2-(2-methoxyphenyl)-4-oxo-4H-chromen-6-yl)picolinamide
PrecursorMZ: 373.11905
RT: 2.3295500000000002
ExactMass: 372.111007
Spectrum_type: 2
charge: 1
Formula: C22H16N2O4
SMILES: COC1=CC=CC=C1C2=CC(=O)C3=C(O2)C=CC(=C3)NC(=O)C4=CC=CC=N4
Method: HCD
Collision_energy: [28.333334]
Isolation_window: 4.0
Ion_mode: P
Num Peaks: 3
86.0967	11.1
373.1192	100.0
374.1227	19.3

Name: N-(2-(7-methoxy-1,8-dioxo-1H,2H,3H,4H,8H-pyrido(1,2-a)pyrazin-2-yl)ethyl)-2-methylpropanamide
PrecursorMZ: 308.16005
RT: 8.65035
ExactMass: 307.15320616
Spectrum_type: 2
charge: 1
Formula: C15H21N3O4
SMILES: CC(C)C(=O)NCCN1CCN2C=C(C(=O)C=C2C1=O)OC
Method: HCD
Collision_energy: [28.333334]
Isolation_window: 4.0
Ion_mode: P
Num Peaks: 16
74.0604	6.2
84.0810	29.8
123.0551	11.6
130.0861	35.7
140.1069	7.9
176.8750	3.9
186.1122	4.3
250.1073	6.0
290.1228	13.6
307.1271	4.4
307.1638	10.1
308.1321	6.0
308.1600	100.0
309.1438	9.6
309.1629	15.0
309.1805	22.7

Name: N-(2-(acetyl-(2-(acetyl(2-hydroxyethyl)amino)ethyl)amino)ethyl)-N-methylacetamide
PrecursorMZ: 288.19156
RT: 1.5432
ExactMass: 287.18450629
Spectrum_type: 2
charge: 1
Formula: C13H25N3O4
SMILES: CC(=O)N(C)CCN(CCN(CCO)C(=O)C)C(=O)C
Method: HCD
Collision_energy: [28.333334]
Isolation_window: 4.0
Ion_mode: P
Num Peaks: 53
69.0703	1.6
72.0812	38.8
73.0845	1.5
86.0912	0.6
86.0967	100.0
86.1022	0.7
86.1230	0.4
87.1001	5.0
98.0966	1.4
103.0392	1.2
104.0708	25.1
105.0742	0.8
111.0442	1.0
114.0914	0.6
115.0867	0.4
129.1023	1.1
130.0863	0.4
132.1020	1.5
143.0814	0.7
157.0970	0.5
157.1202	0.5
157.1336	78.7
157.1443	0.5
157.1469	0.6
158.1307	0.5
158.1368	7.0
170.1175	0.4
171.1491	21.3
172.1526	1.7
175.1077	14.6
176.1113	1.0
185.1284	47.3
186.1318	4.5
189.1233	5.1
199.1440	12.5
200.1476	1.3
217.1546	3.3
218.1576	0.4
228.1229	0.4
256.1654	0.6
258.1340	0.7
259.1368	0.5
286.1279	0.5
287.1382	0.9
288.1214	0.4
288.1457	1.2
288.1922	3.1
289.1039	1.0
289.1191	0.5
289.1402	0.5
289.1551	1.1
289.1927	0.7
290.1493	0.6

Name: N-(2-Amino-1-hydroxy-4-methylpentylidene)tryptophan
PrecursorMZ: 318.18094
RT: 3.0907
ExactMass: 317.1739416
Spectrum_type: 2
charge: 1
Formula: C17H23N3O3
SMILES: CC(C)CC(C(=O)NC(CC1=CNC2=CC=CC=C21)C(=O)O)N
Method: HCD
Collision_energy: [28.333334]
Isolation_window: 4.0
Ion_mode: P
Num Peaks: 21
60.0448	100.0
69.0703	8.1
81.0702	14.5
86.0967	10.9
95.0857	17.5
97.1014	8.5
109.1013	9.7
114.8932	8.3
130.0651	9.5
132.0807	14.7
144.0808	27.9
159.0917	66.8
170.0600	14.3
268.2993	17.8
280.2997	10.3
298.3102	76.5
299.3135	23.6
301.1544	45.9
316.3207	78.9
317.3240	34.2
318.1816	16.9

Name: N-(2-Hydroxyethyl)pentadecanamide
PrecursorMZ: 286.27362
RT: 0.5508
ExactMass: 285.266779359
Spectrum_type: 2
charge: 1
Formula: C17H35NO2
SMILES: CCCCCCCCCCCCCCC(=O)NCCO
Method: HCD
Collision_energy: [28.333334]
Isolation_window: 4.0
Ion_mode: P
Num Peaks: 130
57.0703	35.5
58.0656	10.3
59.0496	11.1
59.0609	12.8
60.0448	5.7
62.0605	17.1
67.0547	20.1
69.0339	6.5
69.0703	23.7
71.0495	17.4
71.0859	24.7
72.0448	15.1
73.0287	11.0
73.0652	5.8
74.0605	5.5
81.0702	24.0
83.0859	16.4
85.0651	15.9
85.1015	12.1
86.0601	7.3
87.0443	15.1
88.0760	9.0
89.0600	49.1
91.0544	12.7
93.0701	11.1
95.0492	5.3
95.0858	73.0
97.0651	11.1
97.1012	9.4
98.9841	7.3
99.0442	10.9
99.0805	9.9
100.0760	5.3
101.0598	17.1
102.0917	8.8
104.0710	7.2
106.0653	6.9
106.0865	10.1
107.0705	8.7
107.0855	13.7
109.0650	5.6
109.1014	36.4
111.0807	9.9
111.1170	10.6
113.0599	23.3
113.0962	12.6
115.0756	5.6
116.0707	12.2
119.0853	8.0
121.1013	19.2
122.0814	29.6
123.0804	14.6
123.1168	22.1
125.0962	8.4
127.1120	5.4
131.0702	7.4
132.0444	100.0
133.0481	7.8
133.0860	25.5
133.1011	13.4
135.0807	5.8
135.1167	14.6
137.0964	11.1
137.1325	6.3
139.0756	5.4
139.1119	9.5
145.1017	5.2
147.0804	15.5
147.1172	5.4
149.1323	11.4
153.1273	5.8
155.1064	12.0
157.0496	6.4
159.1171	5.6
168.0688	22.0
173.1174	7.3
177.1121	6.9
195.1378	14.4
203.1272	6.7
212.2368	7.5
215.1274	10.0
226.2164	14.8
230.2476	35.0
231.2510	5.5
239.1973	10.9
240.2320	51.7
240.2682	6.8
241.2362	8.0
243.2511	8.5
244.1690	7.0
251.0464	11.9
251.0824	10.7
256.2636	24.3
258.2429	80.8
258.2789	55.4
259.2463	12.7
259.2807	9.8
268.2632	18.9
282.2795	6.0
283.1745	30.0
284.2356	8.4
284.2949	19.7
284.3307	8.9
285.2965	5.3
286.1804	16.3
286.2165	36.8
286.2740	60.8
286.3100	20.3
287.2770	13.7
288.2545	24.9
289.2559	6.0
290.2115	7.2
290.2697	11.2
294.2303	6.7
295.2600	78.8
296.2422	7.5
296.2634	10.6
297.1234	6.8
298.3112	6.4
299.0635	6.8
300.2320	21.8
300.2890	23.7
301.2930	5.4
302.1022	6.4
302.1965	5.7
302.3031	8.2
304.1907	33.6
304.2272	5.9
304.2994	14.1
305.1886	7.4

Name: N-(2-hydroxyoctadecanoyl)sphinganine
PrecursorMZ: 584.56101
RT: 1.1619
ExactMass: 583.55395981
Spectrum_type: 2
charge: 1
Formula: C36H73NO4
SMILES: CCCCCCCCCCCCCCCCC(C(=O)N[C@@H](CO)[C@@H](CCCCCCCCCCCCCCC)O)O
Method: HCD
Collision_energy: [28.333334]
Isolation_window: 4.0
Ion_mode: P
Num Peaks: 35
55.0547	3.7
57.0703	8.1
60.0448	39.9
62.9504	4.9
64.9517	3.7
67.0546	11.5
69.0703	15.2
70.0655	8.0
71.0859	6.3
81.0702	22.2
83.0858	16.5
95.0857	24.0
97.1013	13.7
97.4311	4.4
109.1013	14.2
111.1169	5.9
123.1169	6.1
251.2367	3.7
266.2841	4.6
268.2630	11.0
268.2991	7.8
280.2995	46.8
281.3030	7.7
284.2945	6.4
298.3100	65.1
299.3135	10.5
316.3202	5.9
340.3206	9.7
530.5287	3.8
548.5397	27.0
549.5422	9.3
566.5502	100.0
567.5535	37.1
584.5606	84.1
585.5640	31.9

Name: N-(2-hydroxypropyl)methacrylamide
PrecursorMZ: 144.10189
RT: 2.2565
ExactMass: 143.094628657
Spectrum_type: 2
charge: 1
Formula: C7H13NO2
SMILES: CC(CNC(=O)C(=C)C)O
Method: HCD
Collision_energy: [28.333334]
Isolation_window: 4.0
Ion_mode: P
Num Peaks: 8
62.9295	12.6
103.9557	10.0
121.9662	100.0
126.0913	30.2
127.0754	5.6
144.1018	6.4
144.9821	7.9
146.0599	8.4

Name: N-(2-indol-3-ylethyl)(2-methylpropoxy)carboxamide
PrecursorMZ: 283.14156
RT: 3.0552
ExactMass: 260.152477885
Spectrum_type: 2
charge: 1
Formula: C15H20N2O2
SMILES: CC(C)COC(=O)NCCC1=CNC2=CC=CC=C21
Method: HCD
Collision_energy: [28.333334]
Isolation_window: 4.0
Ion_mode: P
Num Peaks: 3
97.4328	55.2
282.1808	37.9
283.1415	100.0

Name: N-(2-methoxyethyl)-N-((4-methyloxan-4-yl)methyl)-2-phenoxypropanamide
PrecursorMZ: 336.21644
RT: 6.3671
ExactMass: 335.20965841
Spectrum_type: 2
charge: 1
Formula: C19H29NO4
SMILES: CC(C(=O)N(CCOC)CC1(CCOCC1)C)OC2=CC=CC=C2
Method: HCD
Collision_energy: [28.333334]
Isolation_window: 4.0
Ion_mode: P
Num Peaks: 20
56.0499	16.8
57.0702	8.7
69.0702	16.8
81.0700	12.5
83.0857	12.5
95.0856	12.1
97.1012	12.4
107.0855	8.8
109.1011	8.4
210.1122	17.2
225.1636	8.4
237.1633	8.4
271.1692	10.7
289.1792	30.4
300.1950	21.9
318.2056	37.5
321.3146	8.7
336.2162	100.0
337.2192	16.5
338.3410	55.6

Name: N-(2-methoxyethyl)-N-)(4-methyloxan-4-yl)methyl(-2-phenoxypropanamide
PrecursorMZ: 336.21653
RT: 1.5782
ExactMass: 335.20965841
Spectrum_type: 2
charge: 1
Formula: C19H29NO4
SMILES: CC(C(=O)N(CCOC)CC1(CCOCC1)C)OC2=CC=CC=C2
Method: HCD
Collision_energy: [28.333334]
Isolation_window: 4.0
Ion_mode: P
Num Peaks: 44
60.0448	8.2
69.3945	1.5
69.7472	1.0
80.0497	3.0
81.0702	1.2
90.0550	1.0
91.0543	11.3
92.0577	1.6
94.0652	4.5
95.0855	1.2
97.4561	1.1
105.0700	1.2
117.0699	0.9
148.1119	1.7
164.0705	2.4
168.0691	1.1
181.0968	4.4
182.0808	2.3
210.1123	1.2
232.1693	1.0
257.1280	4.2
258.1314	1.0
264.1014	1.5
270.1847	4.3
282.1847	5.9
283.1880	1.2
300.1951	3.5
303.1330	3.4
318.2057	4.7
319.2089	1.4
334.3101	1.1
334.3375	2.5
335.1593	1.5
336.2162	100.0
336.2509	2.3
336.2690	2.2
337.1174	1.4
337.1389	1.3
337.1735	1.4
337.2196	20.1
337.2537	1.0
338.2225	1.5
338.2475	1.0
338.2849	1.2

Name: N-(2-phenylethyl)acetamide
PrecursorMZ: 164.10689
RT: 9.29425
ExactMass: 163.099714038
Spectrum_type: 2
charge: 1
Formula: C10H13NO
SMILES: CC(=O)NCCC1=CC=CC=C1
Method: HCD
Collision_energy: [28.333334]
Isolation_window: 4.0
Ion_mode: P
Num Peaks: 38
56.0499	4.1
60.0812	9.9
74.0240	17.4
75.0266	2.9
85.0287	2.0
96.9954	2.4
100.0245	3.6
102.0551	5.1
102.0915	2.4
103.0391	9.6
104.0707	11.3
116.0707	2.3
118.0350	2.7
119.0492	2.5
120.0808	37.3
121.0886	24.5
122.0918	1.9
123.0441	8.4
128.0705	1.8
141.0509	2.6
146.0812	2.5
148.0789	4.4
149.0266	3.5
162.1124	62.6
163.0501	2.1
163.1157	12.3
163.1229	2.8
164.0706	4.7
164.0922	8.2
164.1069	100.0
165.1022	2.2
165.1102	9.4
165.1386	3.4
166.0535	2.3
166.0866	7.9
166.0889	7.9
166.1073	2.0
166.1226	2.6

Name: N-(3,4-dimethoxyphenethyl)-2-(3,4-dimethoxyphenyl)acetamide
PrecursorMZ: 382.16025
RT: 6.7762
ExactMass: 359.1732729
Spectrum_type: 2
charge: 1
Formula: C20H25NO5
SMILES: COC1=C(C=C(C=C1)CCNC(=O)CC2=CC(=C(C=C2)OC)OC)OC
Method: HCD
Collision_energy: [28.333334]
Isolation_window: 4.0
Ion_mode: P
Num Peaks: 26
70.0655	4.7
83.0494	6.2
84.0809	3.2
96.0444	41.5
110.0714	3.2
126.0912	9.4
134.0446	3.6
136.0755	3.5
141.0656	5.3
143.0450	6.0
154.0860	5.7
167.0448	3.4
182.0811	3.2
213.0502	3.6
221.1279	23.7
222.1315	3.5
267.1335	8.5
347.1849	3.2
381.1266	4.0
381.1306	3.3
381.1641	6.2
381.2023	3.2
382.1604	100.0
383.1442	3.9
383.1637	19.2
384.1074	3.0

Name: N-(3-(4-Cyclohexylpiperazin-1-YL)propyl)-2-(3-methyl-4-oxo-4H,5H-(1,2)oxazolo(5,4-D)pyrimidin-5-YL)acetamide
PrecursorMZ: 417.26082
RT: 1.9003
ExactMass: 416.2535889
Spectrum_type: 2
charge: 1
Formula: C21H32N6O3
SMILES: CC1=NOC2=C1C(=O)N(C=N2)CC(=O)NCCCN3CCN(CC3)C4CCCCC4
Method: HCD
Collision_energy: [28.333334]
Isolation_window: 4.0
Ion_mode: P
Num Peaks: 4
112.8957	27.8
139.9146	24.5
417.2610	100.0
418.2645	22.5

Name: N-(3-(trifluoromethyl)phenyl)-6,7-dihydro-5H-cyclopenta(d)(1,2,4)triazolo(1,5-a)pyrimidin-8-amine
PrecursorMZ: 320.11244
RT: 9.484566666666666
ExactMass: 319.10447989
Spectrum_type: 2
charge: 1
Formula: C15H12F3N5
SMILES: C1CC2=C(N3C(=NC=N3)N=C2C1)NC4=CC=CC(=C4)C(F)(F)F
Method: HCD
Collision_energy: [28.333334]
Isolation_window: 4.0
Ion_mode: P
Num Peaks: 6
209.1648	71.5
211.0754	54.8
257.0810	86.7
318.0962	62.1
320.1113	66.9
322.2486	100.0

Name: N-(3-Indolylacetyl)-L-isoleucine
PrecursorMZ: 289.15402
RT: 1.4494
ExactMass: 288.1473925
Spectrum_type: 2
charge: 1
Formula: C16H20N2O3
SMILES: CC[C@H](C)[C@@H](C(=O)O)NC(=O)CC1=CNC2=CC=CC=C21
Method: HCD
Collision_energy: [28.333334]
Isolation_window: 4.0
Ion_mode: P
Num Peaks: 37
96.0443	2.0
98.0598	0.8
100.0755	2.7
101.0596	1.0
111.0438	1.3
116.0702	1.0
120.0805	2.6
124.0388	0.8
128.0702	1.4
144.0803	100.0
145.0836	9.9
154.0857	1.7
161.1069	1.4
164.0702	0.9
166.0857	43.0
208.1111	0.8
229.1327	1.4
231.1485	1.6
242.1162	1.2
243.1481	1.6
245.1272	0.9
253.1324	4.8
254.1161	1.1
270.1110	1.3
271.1429	38.5
272.1270	1.4
272.1462	6.4
288.0854	0.8
288.1208	2.2
289.1172	2.4
289.1535	9.6
290.1002	2.8
290.1369	1.2
290.1561	1.4
290.2678	1.5
291.1325	1.2
291.1693	2.2

Name: N-(3-Methylphenyl)aniline
PrecursorMZ: 184.11198
RT: 7.99
ExactMass: 183.104799419
Spectrum_type: 2
charge: 1
Formula: C13H13N
SMILES: CC1=CC(=CC=C1)NC2=CC=CC=C2
Method: HCD
Collision_energy: [28.333334]
Isolation_window: 4.0
Ion_mode: P
Num Peaks: 16
81.0338	16.8
91.0545	26.9
92.0578	5.9
95.0494	5.2
105.0700	64.9
106.0733	4.6
122.0602	5.3
138.0547	4.2
184.0605	4.1
184.0964	4.1
184.1122	49.5
184.1331	100.0
185.1152	7.0
185.1365	9.7
185.1648	17.5
186.0760	7.6

Name: N-(3-Oxobutanoyl)-DL-homoserine lactone
PrecursorMZ: 186.07602
RT: 6.2545
ExactMass: 185.06880783
Spectrum_type: 2
charge: 1
Formula: C8H11NO4
SMILES: CC(=O)CC(=O)NC1CCOC1=O
Method: HCD
Collision_energy: [28.333334]
Isolation_window: 4.0
Ion_mode: P
Num Peaks: 46
57.0339	2.6
57.0703	1.4
69.6284	1.3
69.8326	1.0
70.0655	1.8
71.0858	1.0
72.0811	1.0
83.0494	1.3
84.0446	46.2
85.0286	1.0
85.0480	1.9
98.0602	2.0
100.0758	2.9
102.0550	39.2
103.0583	1.8
110.0964	0.9
112.0757	0.9
114.0549	1.4
115.0503	2.6
116.0705	4.0
126.0913	1.4
130.0497	100.0
131.0530	4.8
138.0911	17.3
139.0498	1.0
139.0944	2.9
140.0704	1.4
142.0861	1.1
144.0653	3.3
144.0765	0.9
146.0599	5.3
158.0810	2.7
159.0440	1.4
166.0860	2.7
167.0813	1.4
170.0599	3.7
184.0966	2.4
185.0708	0.9
185.0919	1.4
185.2006	1.0
186.0217	1.7
186.0757	1.1
186.2213	3.4
187.0705	1.0
187.1069	1.2
188.0703	2.5

Name: N-(3-carboxypropanoyl)tryptophan
PrecursorMZ: 327.09507
RT: 7.4602
ExactMass: 304.10592162
Spectrum_type: 2
charge: 1
Formula: C15H16N2O5
SMILES: C1=CC=C2C(=C1)C(=CN2)CC(C(=O)O)NC(=O)CCC(=O)O
Method: HCD
Collision_energy: [28.333334]
Isolation_window: 4.0
Ion_mode: P
Num Peaks: 50
69.0339	1.7
70.0655	4.4
81.0339	3.6
83.0494	1.6
84.0811	3.8
85.0288	2.9
88.0395	2.9
97.0286	3.3
101.0599	2.8
111.0443	3.1
114.0663	2.5
114.0914	2.2
116.0707	1.9
117.0548	1.7
127.0391	3.2
129.0547	2.7
130.0862	1.9
140.0817	1.5
181.0974	2.0
182.1005	1.8
186.0873	1.7
212.1028	8.7
213.1070	1.7
239.1389	2.2
248.0387	2.3
255.0861	2.6
273.0965	3.4
291.1074	3.9
310.1267	2.7
325.1394	5.5
325.1547	2.3
325.1764	2.6
325.2114	9.1
326.0643	1.6
326.1227	8.3
326.1405	2.7
326.1596	7.3
326.2151	2.2
327.0950	100.0
327.1340	1.9
327.1552	7.9
327.1914	3.5
328.0982	11.8
328.1377	6.2
328.1521	6.2
328.1884	3.0
329.0933	2.8
329.1336	1.7
329.1485	5.6
329.1708	2.5

Name: N-(3-methylphenyl)-Nalpha-(phenoxycarbonyl)tryptophanamide
PrecursorMZ: 414.18115
RT: 5.7564
ExactMass: 413.1739416
Spectrum_type: 2
charge: 1
Formula: C25H23N3O3
SMILES: CC1=CC(=CC=C1)NC(=O)C(CC2=CNC3=CC=CC=C32)NC(=O)OC4=CC=CC=C4
Method: HCD
Collision_energy: [28.333334]
Isolation_window: 4.0
Ion_mode: P
Num Peaks: 27
80.0498	20.3
89.0600	5.7
91.0546	4.5
105.0701	2.8
120.0810	3.1
130.0651	13.4
131.0492	4.7
133.0861	3.6
144.0809	3.4
146.0602	4.0
159.0917	9.1
180.1018	3.6
185.0710	12.3
188.0704	6.9
207.1128	7.5
234.1275	5.7
235.1076	3.4
244.1119	27.6
245.1153	3.3
289.1340	3.4
290.1175	6.5
414.1572	3.9
414.1810	100.0
414.2375	5.1
414.3367	4.2
415.1840	26.8
416.1900	3.1

Name: N-(3-oxohexanoyl)-L-homoserine lactone
PrecursorMZ: 214.10692
RT: 5.6537
ExactMass: 213.10010796
Spectrum_type: 2
charge: 1
Formula: C10H15NO4
SMILES: CCCC(=O)CC(=O)N[C@H]1CCOC1=O
Method: HCD
Collision_energy: [28.333334]
Isolation_window: 4.0
Ion_mode: P
Num Peaks: 32
70.0653	100.0
84.0445	28.5
84.0809	15.4
86.0601	54.9
98.0600	10.7
101.0595	20.7
110.0599	20.3
113.0707	41.5
114.0547	29.7
116.0704	28.7
124.0753	16.0
127.0863	20.9
128.0703	18.1
139.0496	15.1
150.0909	13.4
159.0758	38.4
168.0682	11.5
168.1014	75.5
169.0643	12.9
186.1119	11.3
194.0806	20.0
196.0964	18.5
197.0592	14.6
198.0755	23.1
198.1120	11.4
212.0912	13.5
213.0854	12.0
213.1225	19.2
214.1068	72.6
214.1176	12.0
215.0697	72.7
215.1385	11.9

Name: N-(4,5-dimethyl-1,3-thiazol-2-yl)-1,3-benzodioxole-5-carboxamide
PrecursorMZ: 299.04534
RT: 7.3012
ExactMass: 276.05686342
Spectrum_type: 2
charge: 1
Formula: C13H12N2O3S
SMILES: CC1=C(SC(=N1)NC(=O)C2=CC3=C(C=C2)OCO3)C
Method: HCD
Collision_energy: [28.333334]
Isolation_window: 4.0
Ion_mode: P
Num Peaks: 6
297.1421	20.3
298.1262	13.4
298.1817	19.1
299.0451	100.0
300.0489	15.7
300.1061	12.2

Name: N-(4-(acetylamino)phenyl)-3-(3,4-dimethoxyphenyl)acrylamide
PrecursorMZ: 363.13135
RT: 5.123766666666667
ExactMass: 340.14230712
Spectrum_type: 2
charge: 1
Formula: C19H20N2O4
SMILES: CC(=O)NC1=CC=C(C=C1)NC(=O)C=CC2=CC(=C(C=C2)OC)OC
Method: HCD
Collision_energy: [28.333334]
Isolation_window: 4.0
Ion_mode: P
Num Peaks: 6
246.1443	5.2
362.1219	4.7
362.2411	7.3
363.1313	100.0
363.1535	8.9
364.1351	21.2

Name: N-(4-(aminosulfonyl)benzyl)-2-(1,3-dimethyl-2,6-dioxo-1,2,3,6-tetrahydro-7H-purin-7-yl)acetamide
PrecursorMZ: 429.09454
RT: 7.8964
ExactMass: 406.10593887
Spectrum_type: 2
charge: 1
Formula: C16H18N6O5S
SMILES: CN1C2=C(C(=O)N(C1=O)C)N(C=N2)CC(=O)NCC3=CC=C(C=C3)S(=O)(=O)N
Method: HCD
Collision_energy: [28.333334]
Isolation_window: 4.0
Ion_mode: P
Num Peaks: 5
234.0761	4.4
428.1337	3.6
429.0948	100.0
430.0978	23.5
431.0949	5.7

Name: N-(4-Aminobenzoyl)-L-glutamic acid
PrecursorMZ: 267.09759
RT: 1.4706
ExactMass: 266.09027155
Spectrum_type: 2
charge: 1
Formula: C12H14N2O5
SMILES: C1=CC(=CC=C1C(=O)N[C@@H](CCC(=O)O)C(=O)O)N
Method: HCD
Collision_energy: [28.333334]
Isolation_window: 4.0
Ion_mode: P
Num Peaks: 119
69.0340	0.9
70.0657	1.7
71.0496	0.4
81.0339	0.4
83.0497	1.3
84.0813	0.7
87.0445	0.6
89.0601	0.6
95.0608	6.9
96.0640	0.4
98.0969	2.4
99.0444	1.0
100.0762	0.7
106.0866	0.3
108.0447	0.4
109.0764	0.6
110.0604	0.4
110.0718	1.2
111.0445	9.5
112.0476	0.5
112.0874	2.1
116.0709	0.4
121.0766	0.3
122.0605	1.0
125.0713	0.3
126.0553	1.8
126.0664	1.0
133.0766	1.9
133.0859	0.4
136.0621	2.3
136.0762	0.7
136.0872	2.0
138.0554	0.6
141.0663	0.9
145.0767	0.5
149.0235	0.9
149.0713	0.8
150.0554	19.4
151.0590	1.6
151.0865	0.4
152.0710	0.6
154.0873	0.6
154.0978	13.2
155.0816	0.3
155.1016	1.0
159.0769	0.8
160.0758	0.4
163.0870	0.6
164.0708	0.4
166.0729	1.4
169.0976	0.6
170.1181	0.7
172.0972	1.1
173.0924	4.2
174.0951	0.4
175.0869	1.1
176.0710	0.4
181.0973	0.9
182.0940	0.5
192.1144	0.4
193.0975	6.7
194.0822	0.4
194.1010	0.7
195.1139	0.5
210.1252	0.5
211.1081	23.0
212.1114	2.3
218.0821	0.3
222.1234	0.4
228.1347	6.8
229.1382	0.7
237.1236	0.5
250.1135	0.5
251.1025	0.7
252.1352	8.1
253.1176	0.7
253.1394	0.9
255.1346	0.7
265.1182	1.0
266.1014	1.8
267.0987	2.2
267.1372	1.5
268.1190	3.3
269.1139	5.6
269.1519	0.7
270.1189	2.4
270.1453	100.0
270.2074	0.6
271.1502	12.3
272.1137	3.4
272.1526	2.9
273.1169	0.5
273.1447	7.5
274.1074	0.5
274.1477	0.6
275.1018	0.5
275.1594	0.3
276.0879	0.4
276.1224	0.5
276.1434	0.6
277.1199	0.8
277.1762	0.9
278.1040	0.6
278.1262	4.4
279.1018	0.4
279.1332	1.4
280.1173	2.1
281.1157	1.5
281.1502	0.8
282.1302	0.5
283.1302	2.5
283.1659	0.4
284.1129	0.9
284.1521	0.5
284.3318	0.4
285.1469	1.8
286.1278	0.9
286.3102	0.4
287.1617	1.1

Name: N-(4-acetamidophenyl)-3,5-dimethoxybenzamide
PrecursorMZ: 315.13354
RT: 8.386
ExactMass: 314.12665706
Spectrum_type: 2
charge: 1
Formula: C17H18N2O4
SMILES: CC(=O)NC1=CC=C(C=C1)NC(=O)C2=CC(=CC(=C2)OC)OC
Method: HCD
Collision_energy: [28.333334]
Isolation_window: 4.0
Ion_mode: P
Num Peaks: 23
107.0730	1.2
166.0862	0.7
176.8752	1.0
185.1073	0.9
186.0912	2.3
187.0994	3.6
271.1436	2.2
287.1390	2.9
313.1187	1.3
313.1541	2.5
314.1021	0.8
314.1227	5.3
314.1388	2.0
314.1578	1.9
314.2076	0.9
315.1337	100.0
315.1700	1.6
316.1174	2.1
316.1372	19.1
316.1538	2.0
316.1674	2.1
317.1397	0.9
317.1484	2.4

Name: N-(4-aminobutyl)octadec-9-enamide
PrecursorMZ: 353.35237
RT: 4.6379
ExactMass: 352.345364031
Spectrum_type: 2
charge: 1
Formula: C22H44N2O
SMILES: CCCCCCCCC=CCCCCCCCC(=O)NCCCCN
Method: HCD
Collision_energy: [28.333334]
Isolation_window: 4.0
Ion_mode: P
Num Peaks: 15
72.0811	5.2
176.8754	17.2
178.0502	5.8
180.0654	4.9
196.0967	9.5
298.1072	31.7
299.1105	5.2
308.2946	100.0
309.2979	22.1
336.3257	21.7
337.3287	5.6
353.3524	64.5
354.1697	36.1
354.3557	15.4
355.1723	8.3

Name: N-(4-mesitylthiazol-2-yl)benzamide
PrecursorMZ: 323.12119
RT: 6.4947
ExactMass: 322.11398438
Spectrum_type: 2
charge: 1
Formula: C19H18N2OS
SMILES: CC1=CC(=C(C(=C1)C)C2=CSC(=N2)NC(=O)C3=CC=CC=C3)C
Method: HCD
Collision_energy: [28.333334]
Isolation_window: 4.0
Ion_mode: P
Num Peaks: 39
70.0655	2.6
81.0702	3.1
83.0495	2.8
93.0701	2.6
97.0652	2.7
101.0598	5.7
110.0601	2.3
112.0759	2.4
114.0916	3.7
116.0708	3.3
130.0864	6.6
152.0707	3.5
156.1020	20.5
166.0864	6.5
174.1125	4.1
184.0968	5.4
196.0967	2.5
198.1125	4.0
209.1646	5.3
216.1230	11.8
226.0686	7.2
226.1074	2.4
234.1335	9.6
244.1180	3.7
262.1284	2.5
304.1392	11.2
304.1656	4.0
305.1739	2.7
321.1427	2.9
321.1827	4.6
322.1280	3.4
322.1492	18.8
322.1768	3.3
322.2489	8.3
323.1211	100.0
323.1596	4.8
324.1243	14.8
324.1440	5.6
325.1762	3.4

Name: N-(4-methoxyphenyl)-4-(2-methylpropyl)-1,5-dioxo-2,3,4,5-tetrahydropyrrolo(1,2-a)quinazoline-3a(1H)-carboxamide
PrecursorMZ: 430.16065
RT: 5.4975
ExactMass: 407.18450629
Spectrum_type: 2
charge: 1
Formula: C23H25N3O4
SMILES: CC(C)CN1C(=O)C2=CC=CC=C2N3C1(CCC3=O)C(=O)NC4=CC=C(C=C4)OC
Method: HCD
Collision_energy: [28.333334]
Isolation_window: 4.0
Ion_mode: P
Num Peaks: 30
81.0338	1.4
89.0599	1.2
100.0759	2.4
128.0707	18.6
140.1072	1.5
156.1021	1.4
161.1327	2.5
251.0812	1.6
255.2105	1.7
273.2211	2.8
279.0767	1.7
281.0917	1.9
283.0708	1.2
299.1025	13.4
300.1057	1.9
309.0870	1.6
327.0974	17.7
328.1006	3.2
350.1128	1.5
380.1238	2.0
398.1345	29.6
399.1378	6.8
428.3158	1.6
430.1607	6.8
430.1957	1.3
430.3314	100.0
431.1610	1.6
431.3349	26.8
432.2758	1.1
432.3376	2.4

Name: N-(4-methoxyphenyl)-7,7-dimethyl-2-oxo-1,8-dioxaspiro(4.5)decane-4-carboxamide
PrecursorMZ: 334.16467
RT: 5.9612
ExactMass: 333.15762283
Spectrum_type: 2
charge: 1
Formula: C18H23NO5
SMILES: CC1(CC2(CCO1)C(CC(=O)O2)C(=O)NC3=CC=C(C=C3)OC)C
Method: HCD
Collision_energy: [28.333334]
Isolation_window: 4.0
Ion_mode: P
Num Peaks: 82
69.0703	2.2
70.0655	6.2
81.0339	5.6
81.0702	2.4
83.0859	2.1
93.0701	2.2
95.0858	3.0
96.0447	3.8
97.3993	2.5
98.0602	3.8
105.0702	1.8
107.0493	21.9
107.0858	3.5
108.0527	1.9
111.0442	1.6
113.0237	2.2
114.0915	2.0
116.0708	11.3
119.0856	2.6
120.0810	2.9
121.1014	1.6
123.0442	2.4
126.0914	5.0
128.0707	42.1
133.0648	36.0
133.1011	2.2
134.0682	3.9
136.0757	2.8
145.0496	2.1
145.0649	7.3
145.1013	2.3
150.0915	2.5
159.0805	2.3
161.0599	4.3
164.0707	47.4
165.0741	2.8
166.0867	2.5
173.1324	1.9
177.0661	1.8
179.0701	2.3
187.0754	16.5
188.0790	1.6
192.0655	21.5
194.0812	5.0
205.0605	2.4
205.0859	14.6
209.1046	11.7
210.1126	27.0
211.1162	2.2
216.1230	9.4
236.0375	2.9
239.1026	25.5
239.1071	2.7
263.1066	13.1
264.1102	2.5
269.0658	3.1
281.1171	100.0
282.1205	19.9
287.0765	2.2
287.1390	2.8
297.1851	2.4
299.1273	9.3
299.2006	4.3
300.1312	1.7
315.1345	2.9
315.1952	5.5
317.1367	3.8
317.2108	4.4
332.1662	2.6
333.1447	5.6
333.1651	1.6
333.1811	10.5
333.2055	8.7
333.2426	2.1
334.1270	4.2
334.1643	4.8
335.1059	3.7
335.1237	24.4
335.1594	7.0
335.1971	10.1
335.2214	7.0
336.1268	4.1

Name: N-(5-(Acetylamino)pentylene)acetamide
PrecursorMZ: 187.14406
RT: 3.009266666666667
ExactMass: 186.136827821
Spectrum_type: 2
charge: 1
Formula: C9H18N2O2
SMILES: CC(=O)NCCCCCNC(=O)C
Method: HCD
Collision_energy: [28.333334]
Isolation_window: 4.0
Ion_mode: P
Num Peaks: 9
72.0810	26.6
86.0966	100.0
118.0862	14.1
128.1068	58.0
132.1018	17.6
142.1225	13.7
145.1334	84.9
146.1367	5.6
187.1437	23.8

Name: N-(5-(ethylamino)pentyl)acetamide
PrecursorMZ: 173.1649
RT: 14.4744
ExactMass: 172.157563266
Spectrum_type: 2
charge: 1
Formula: C9H20N2O
SMILES: CCNCCCCCNC(=O)C
Method: HCD
Collision_energy: [28.333334]
Isolation_window: 4.0
Ion_mode: P
Num Peaks: 35
58.0655	0.6
60.0449	0.9
67.0546	0.6
69.0703	0.8
70.0656	0.9
72.0448	3.8
86.0968	10.4
97.3989	0.6
100.1123	0.7
109.1014	1.8
113.0712	0.8
114.0551	0.7
114.0915	1.5
114.1279	14.8
115.0755	3.2
115.1312	1.0
126.0914	0.8
128.0707	0.6
128.1071	20.7
129.1104	1.5
156.0770	1.0
156.1020	1.8
172.0970	1.1
172.1082	0.6
172.1333	2.2
173.1034	1.9
173.1175	0.6
173.1287	1.6
173.1493	0.6
173.1649	100.0
173.1804	0.6
174.1125	9.9
174.1490	4.2
174.1618	0.5
174.1682	9.9

Name: N-(5-aminopentyl)-N-hydroxy-N'-(5-(hydroxy(4-((5-(hydroxyimino)pentyl)amino)-4-oxobutanoyl)amino)pentyl)butanediamide
PrecursorMZ: 517.32851
RT: 1.1306
ExactMass: 516.32714776
Spectrum_type: 2
charge: 1
Formula: C23H44N6O7
SMILES: C(CCN)CCN(C(=O)CCC(=O)NCCCCCN(C(=O)CCC(=O)NCCCC/C=N/O)O)O
Method: HCD
Collision_energy: [28.333334]
Isolation_window: 4.0
Ion_mode: P
Num Peaks: 9
57.4812	5.9
95.0857	3.6
486.1108	11.1
517.3262	100.0
517.3522	6.7
518.1371	8.8
518.3242	7.0
518.3307	29.9
519.3353	4.2

Name: N-(6-methoxyquinolin-8-yl)alanine
PrecursorMZ: 247.10737
RT: 4.9008
ExactMass: 246.10044231
Spectrum_type: 2
charge: 1
Formula: C13H14N2O3
SMILES: CC(C(=O)O)NC1=C2C(=CC(=C1)OC)C=CC=N2
Method: HCD
Collision_energy: [28.333334]
Isolation_window: 4.0
Ion_mode: P
Num Peaks: 20
70.0653	6.8
81.0335	7.1
86.0966	22.2
102.0550	7.8
158.0598	26.7
160.0752	6.5
175.0863	7.1
201.1019	74.0
202.1053	9.5
229.0968	9.1
230.0808	11.6
231.1124	6.2
246.0755	7.3
246.1120	46.2
246.1331	17.9
247.1070	100.0
248.0915	18.4
248.1110	11.4
248.1273	21.9
249.1223	12.0

Name: N-(7,7-dimethyl-9-oxo-6,8-dihydrodibenzofuran-2-yl)quinoline-8-sulfonamide
PrecursorMZ: 421.12125
RT: 9.2896
ExactMass: 420.1143783
Spectrum_type: 2
charge: 1
Formula: C23H20N2O4S
SMILES: CC1(CC2=C(C(=O)C1)C3=C(O2)C=CC(=C3)NS(=O)(=O)C4=CC=CC5=C4N=CC=C5)C
Method: HCD
Collision_energy: [28.333334]
Isolation_window: 4.0
Ion_mode: P
Num Peaks: 35
70.0654	6.1
81.0337	2.4
82.0653	1.6
84.0810	11.3
85.0286	5.1
86.0966	1.6
96.0444	1.7
97.0284	2.1
110.0601	2.9
124.0391	7.5
125.0426	3.9
128.0706	3.5
130.0861	4.2
154.0860	3.7
225.1228	3.7
301.0790	7.2
338.1700	2.8
357.2235	1.6
368.1805	2.6
404.2020	1.7
419.1688	2.0
420.1428	2.8
420.1869	2.0
420.2075	2.6
421.0972	2.2
421.1209	100.0
421.1780	5.6
421.2188	2.8
422.1033	5.3
422.1246	12.3
422.1825	2.1
422.2119	3.2
422.2480	3.5
423.1219	4.7
423.2181	2.1

Name: N-(8-methyl-11-oxo-10,11-dihydrodibenzo(b,f)(1,4)oxazepin-2-yl)cyclopropanecarboxamide
PrecursorMZ: 309.12261
RT: 1.4595
ExactMass: 308.11609238
Spectrum_type: 2
charge: 1
Formula: C18H16N2O3
SMILES: CC1=CC2=C(C=C1)OC3=C(C=C(C=C3)NC(=O)C4CC4)C(=O)N2
Method: HCD
Collision_energy: [28.333334]
Isolation_window: 4.0
Ion_mode: P
Num Peaks: 114
67.0545	0.2
69.0701	0.2
70.0654	0.1
79.0543	0.2
81.0336	0.3
81.0700	0.7
83.0493	0.1
83.0857	0.1
91.0542	0.1
93.0698	0.3
95.0493	0.2
95.0854	0.4
97.0647	0.2
97.1011	0.2
99.0803	0.2
105.0697	0.2
107.0854	0.3
109.0646	0.3
109.1011	0.2
111.0804	0.1
116.0704	0.1
119.0854	0.3
120.0442	0.1
120.0806	0.2
121.0644	0.2
121.1010	0.3
123.0801	0.3
123.1164	0.1
125.0958	0.2
130.0648	0.1
131.0726	0.4
131.0851	0.2
132.0440	0.4
132.0804	0.8
133.1007	0.2
135.0801	0.2
135.1164	0.1
144.0441	0.1
145.1009	0.2
147.1162	0.2
149.0956	0.2
150.0909	0.3
151.0751	0.2
159.0676	0.1
159.1162	0.1
160.0753	1.0
161.0957	0.2
162.0910	0.1
163.1115	0.1
163.1224	0.2
164.0702	0.1
164.1066	0.2
166.0858	0.2
166.1223	0.1
168.1017	0.2
194.1167	0.1
221.1059	0.5
222.1144	2.5
223.1178	0.3
232.0987	0.3
233.1071	0.1
235.0858	0.5
235.1219	0.5
236.0940	0.6
237.1020	0.4
237.1381	0.2
245.1066	0.5
246.0919	0.2
246.1143	1.6
247.1223	0.9
248.0933	0.7
248.1259	0.1
249.1013	4.6
250.1088	1.8
251.0806	0.2
251.1132	0.3
261.1011	0.2
262.1088	0.4
263.1169	3.6
264.1204	0.7
267.1122	0.2
273.1834	0.4
275.1991	0.1
281.1276	0.4
289.1787	0.1
291.1115	1.4
291.1942	0.6
292.1155	0.3
292.1983	0.1
307.1644	0.1
307.1869	0.1
308.1118	0.2
308.1478	0.2
308.1972	0.3
308.2200	0.2
308.9518	0.2
309.0633	0.1
309.0741	0.2
309.0853	0.7
309.0929	0.6
309.1222	100.0
309.1510	0.3
309.1597	0.7
309.1714	0.2
309.1803	0.4
309.2035	0.4
309.2216	0.1
309.3029	0.2
310.0884	0.1
310.1254	19.7
310.1751	0.1
311.1013	0.3
311.1280	1.4
311.1606	0.1

Name: N-(Benzyloxycarbonyl)-DL-tryptophan
PrecursorMZ: 361.11566
RT: 5.3382
ExactMass: 338.12665706
Spectrum_type: 2
charge: 1
Formula: C19H18N2O4
SMILES: C1=CC=C(C=C1)COC(=O)NC(CC2=CNC3=CC=CC=C32)C(=O)O
Method: HCD
Collision_energy: [28.333334]
Isolation_window: 4.0
Ion_mode: P
Num Peaks: 10
70.0655	7.2
72.0811	4.0
86.0967	6.6
116.0707	4.0
213.1228	4.0
230.1203	4.3
361.1155	100.0
361.1371	3.5
362.1188	17.2
362.2405	8.7

Name: N-(Carboxymethyl)-N,N-dimethyl-3-tetradecanamidopropan-1-aminium
PrecursorMZ: 371.32668
RT: 4.7258
ExactMass: 371.32736824
Spectrum_type: 2
charge: 1
Formula: C21H43N2O3+
SMILES: CCCCCCCCCCCCCC(=O)NCCC[N+](C)(C)CC(=O)O
Method: HCD
Collision_energy: [28.333334]
Isolation_window: 4.0
Ion_mode: P
Num Peaks: 64
57.0702	1.0
58.0656	0.6
67.0546	0.5
69.0703	0.5
71.0859	1.0
81.0702	1.5
83.0859	0.4
85.0287	1.0
85.1014	0.7
89.0600	1.2
93.0701	0.6
95.0858	1.9
97.1015	0.5
105.0701	0.4
107.0857	0.8
109.1014	1.5
111.1172	0.4
115.0754	0.4
119.0857	0.5
121.1013	0.8
123.0805	0.4
123.1170	0.7
133.0859	0.6
133.1012	0.7
135.1169	0.7
145.1011	0.3
147.1168	0.8
149.1325	0.7
152.0705	0.3
159.1168	0.4
161.1325	0.6
163.1482	0.4
173.1324	0.3
175.1482	0.3
187.1482	0.4
189.1637	0.3
201.1638	0.3
209.1532	0.3
211.2056	1.2
215.1794	0.8
229.1582	0.3
235.1694	0.3
261.1855	0.4
268.2333	0.8
268.2393	0.5
268.2634	100.0
268.2872	0.6
268.2934	0.7
269.2668	18.1
270.2699	1.3
275.2002	0.3
321.2578	0.4
339.2683	0.4
370.2951	0.4
370.3683	0.7
371.1387	0.5
371.2218	0.5
371.2572	0.3
371.2943	5.0
371.3266	6.5
372.1425	0.3
372.2972	1.3
372.3301	1.3
373.1162	0.7

Name: N-(N-L-Leucylglycyl)-L-leucine
PrecursorMZ: 302.20699
RT: 5.3589
ExactMass: 301.20015635
Spectrum_type: 2
charge: 1
Formula: C14H27N3O4
SMILES: CC(C)C[C@@H](C(=O)NCC(=O)N[C@@H](CC(C)C)C(=O)O)N
Method: HCD
Collision_energy: [28.333334]
Isolation_window: 4.0
Ion_mode: P
Num Peaks: 87
69.0702	1.5
70.0654	8.8
72.0811	40.8
73.0843	1.6
75.0556	3.0
81.0338	2.8
83.0495	1.3
84.0810	4.1
85.0286	1.7
86.0966	84.2
87.0999	4.5
91.0543	2.9
98.0965	1.8
111.0441	4.9
114.0549	2.7
114.0914	2.4
116.0705	5.5
118.0862	5.0
121.0647	9.4
123.0439	2.4
124.0755	1.6
130.0649	10.9
130.0861	1.2
132.0806	2.3
132.1017	19.5
136.0754	1.4
137.0595	1.3
138.0911	4.3
141.1020	1.4
143.1177	100.0
143.1220	1.9
144.0806	5.1
144.1016	1.7
144.1209	6.4
148.0754	15.9
157.0971	1.4
157.1333	35.6
158.1365	3.4
159.0915	10.3
159.1128	1.6
165.0545	1.5
170.0599	4.6
171.1125	44.4
172.1158	3.3
180.1014	1.6
183.1123	1.3
185.1281	25.5
186.1233	1.8
186.1315	2.2
187.1073	1.5
189.1229	5.1
200.1390	1.8
203.1386	6.3
215.1386	1.8
231.1698	2.7
257.1069	2.9
257.1273	2.1
258.1115	1.4
273.1589	3.1
283.1070	1.7
284.1026	5.6
285.1226	11.8
286.1050	2.3
286.1252	1.7
300.3250	2.3
301.1160	6.8
301.1389	1.5
301.1533	11.4
301.1743	3.1
301.2472	3.7
302.1009	7.6
302.1214	2.2
302.1369	13.2
302.1508	2.3
302.1699	2.0
302.1731	1.8
302.2072	4.8
303.1056	1.2
303.1112	2.8
303.1327	12.1
303.1533	4.5
303.1691	16.0
304.1164	10.9
304.1361	2.1
304.1517	3.7
304.1721	2.1
304.2989	6.5

Name: N-(heptadecanoyl)-sphinganine
PrecursorMZ: 554.55058
RT: 1.06635
ExactMass: 553.54339513
Spectrum_type: 2
charge: 1
Formula: C35H71NO3
SMILES: CCCCCCCCCCCCCCCCC(=O)N[C@@H](CO)[C@@H](CCCCCCCCCCCCCCC)O
Method: HCD
Collision_energy: [28.333334]
Isolation_window: 4.0
Ion_mode: P
Num Peaks: 32
55.0547	5.4
57.0703	8.1
59.6159	4.5
60.0448	48.2
67.0546	10.6
69.0702	11.2
70.0655	10.5
71.0858	5.2
81.0702	19.6
83.0858	10.9
95.0857	24.6
97.1014	9.9
109.1013	12.3
256.2631	25.1
257.2667	4.2
266.2839	17.9
267.2875	4.5
270.2790	20.3
280.2995	17.3
281.3025	4.6
284.2943	28.9
285.2978	6.8
298.3099	31.8
299.3139	4.5
518.5296	7.4
535.5272	16.0
536.5037	5.9
536.5396	100.0
537.5433	32.8
553.5386	9.2
554.5501	60.1
555.5535	21.7

Name: N-(hexadecanoyl)-sphinganine
PrecursorMZ: 540.53492
RT: 1.0690538461538461
ExactMass: 539.52774506
Spectrum_type: 2
charge: 1
Formula: C34H69NO3
SMILES: CCCCCCCCCCCCCCC[C@H]([C@H](CO)NC(=O)CCCCCCCCCCCCCCC)O
Method: HCD
Collision_energy: [28.333334]
Isolation_window: 4.0
Ion_mode: P
Num Peaks: 43
55.0547	3.9
57.0703	7.1
58.0586	4.8
60.0448	44.8
67.0547	11.9
69.0703	11.8
69.2054	4.3
70.0655	7.7
71.0859	7.1
81.0702	21.3
83.0858	12.5
85.1016	4.2
89.0600	4.7
95.0857	27.0
97.1013	9.9
97.3984	4.3
109.1013	13.4
123.1169	4.9
242.2477	19.3
252.2682	8.8
254.2840	5.3
256.2632	36.7
257.2667	4.8
264.2684	10.4
265.2720	6.7
266.2841	30.8
267.2876	5.4
270.2789	15.9
280.2996	13.6
284.2945	53.4
285.2979	11.9
298.3101	20.0
299.3130	4.2
302.3052	7.8
313.2734	4.2
504.5132	8.9
521.5115	7.1
522.5242	100.0
523.5278	38.1
524.5287	4.1
539.5220	6.8
540.5348	75.2
541.5381	24.8

Name: N-(octahydro-2H-quinolizin-1-ylmethyl)-1,4,5,6-tetrahydrocyclopenta(c)pyrazole-3-carboxamide
PrecursorMZ: 325.20057
RT: 1.034
ExactMass: 302.21066147
Spectrum_type: 2
charge: 1
Formula: C17H26N4O
SMILES: C1CCN2CCCC(C2C1)CNC(=O)C3=NNC4=C3CCC4
Method: HCD
Collision_energy: [28.333334]
Isolation_window: 4.0
Ion_mode: P
Num Peaks: 9
98.9842	100.0
174.9919	20.1
209.1169	29.1
237.1117	22.8
250.9997	8.4
269.1378	7.9
293.1745	6.3
325.1994	6.3
327.0776	21.2

Name: N-(octahydro-2H-quinolizin-1-ylmethyl)-5-(pyridin-3-yl)-1H-pyrazole-3-carboxamide
PrecursorMZ: 340.2107
RT: 2.7592
ExactMass: 339.20591044
Spectrum_type: 2
charge: 1
Formula: C19H25N5O
SMILES: C1CCN2CCCC(C2C1)CNC(=O)C3=CC(=NN3)C4=CN=CC=C4
Method: HCD
Collision_energy: [28.333334]
Isolation_window: 4.0
Ion_mode: P
Num Peaks: 40
69.3349	10.2
70.0654	7.0
74.0239	10.4
79.0545	7.1
81.0700	7.1
83.0857	19.0
86.0966	8.5
91.0544	7.3
100.0758	6.3
105.0699	17.9
107.0855	17.6
119.0854	14.3
121.1010	18.3
124.0757	7.8
126.0912	47.0
128.0703	10.1
130.0861	18.1
138.0910	7.8
140.1068	7.3
147.1166	100.0
148.0964	12.3
148.1199	14.8
150.0548	11.3
152.0703	21.0
165.1272	33.5
166.0861	6.0
193.1220	63.9
194.1256	10.5
196.1329	14.4
289.1538	25.6
307.1642	12.5
321.1805	6.8
322.2003	31.2
338.3399	8.8
339.1549	10.1
339.1901	27.8
340.1735	7.4
340.2099	17.1
340.2473	6.8
341.1516	10.8

Name: N-(tetradecanoyl)-sphinganine
PrecursorMZ: 512.50331
RT: 1.081511111111111
ExactMass: 511.49644494
Spectrum_type: 2
charge: 1
Formula: C32H65NO3
SMILES: CCCCCCCCCCCCCCC[C@H]([C@H](CO)NC(=O)CCCCCCCCCCCCC)O
Method: HCD
Collision_energy: [28.333334]
Isolation_window: 4.0
Ion_mode: P
Num Peaks: 74
54.9439	4.8
55.0554	0.8
56.0499	1.5
56.9451	2.8
57.0566	0.8
57.0703	4.9
60.0448	33.1
67.0546	10.0
69.0702	8.3
69.1431	1.4
69.1486	1.3
70.0654	7.1
71.0494	0.8
71.0858	4.7
81.0701	14.9
82.0735	0.8
83.0857	9.0
85.1013	2.5
88.0759	1.3
89.0599	2.0
95.0856	17.5
96.0890	1.1
97.1012	6.7
97.4557	1.1
102.0914	0.8
109.1012	9.7
110.1045	0.8
111.1168	2.4
123.1168	4.0
133.0857	0.8
137.1323	1.7
173.0708	1.0
226.2524	1.4
228.2317	4.1
236.2367	1.0
237.2406	0.6
238.2524	2.9
240.2681	4.6
241.2716	0.7
242.2473	38.0
243.2508	5.4
252.2680	34.2
253.2714	5.2
256.2629	5.6
257.2661	1.0
264.2677	1.3
265.2715	0.7
266.2471	0.8
266.2836	4.1
270.2664	0.7
270.2785	49.5
271.2820	8.3
274.2734	0.7
284.2941	4.9
285.2976	0.9
288.2890	7.6
289.2923	1.3
302.3050	1.1
476.4816	6.0
477.4851	2.1
493.4794	1.1
494.4161	0.7
494.4921	100.0
494.5660	0.8
495.3895	0.7
495.4955	33.4
496.4991	3.5
510.4868	0.8
511.4894	1.2
512.4192	0.8
512.5027	57.4
512.5330	0.6
513.5060	18.9
514.5083	2.4

Name: N-)(4-methoxyphenoxy)acetyl(tryptophan
PrecursorMZ: 369.14405
RT: 1.1642166666666667
ExactMass: 368.13722174
Spectrum_type: 2
charge: 1
Formula: C20H20N2O5
SMILES: COC1=CC=C(C=C1)OCC(=O)NC(CC2=CNC3=CC=CC=C32)C(=O)O
Method: HCD
Collision_energy: [28.333334]
Isolation_window: 4.0
Ion_mode: P
Num Peaks: 64
70.0656	5.3
72.0813	3.1
81.0339	2.8
83.0496	1.8
84.0812	2.7
86.0968	7.2
111.0443	7.6
116.0708	6.9
120.0809	2.2
123.0442	32.3
124.0474	2.7
130.0652	11.2
132.0808	4.1
132.1019	2.9
136.0760	1.7
137.0599	3.1
144.0810	4.6
146.0601	15.4
150.0915	3.3
159.0919	47.3
160.0957	6.0
163.0391	6.2
165.0550	3.8
170.0602	2.6
180.1016	1.4
182.0815	1.4
185.0710	3.9
187.0867	2.8
188.0706	100.0
189.0741	13.0
194.0817	1.5
197.1286	1.4
198.1126	2.1
205.0972	47.0
206.1005	6.2
215.1388	4.2
216.1232	10.0
217.0975	2.2
231.0775	2.7
243.1336	1.4
253.1544	1.8
293.1494	9.8
294.1528	1.4
323.1380	15.5
324.1411	2.7
341.1710	13.9
342.1747	2.5
351.1335	3.6
352.1353	1.5
359.1821	5.9
367.1253	5.3
368.1315	3.4
368.1757	1.6
369.1432	18.5
370.1480	4.6
374.1678	1.7
377.1921	8.3
378.1554	1.5
378.1939	1.8
379.1494	1.4
380.1762	2.5
380.2188	1.8
381.1950	1.4
382.1960	1.6

Name: N-)2-(1H-imidazol-2-yl)ethyl(pentanamide
PrecursorMZ: 196.14443
RT: 0.7101
ExactMass: 195.137162174
Spectrum_type: 2
charge: 1
Formula: C10H17N3O
SMILES: CCCCC(=O)NCCC1=NC=CN1
Method: HCD
Collision_energy: [28.333334]
Isolation_window: 4.0
Ion_mode: P
Num Peaks: 35
55.0548	3.0
57.0704	9.5
59.0496	1.9
79.0546	1.6
83.0860	4.5
85.0653	2.4
87.0444	2.4
89.0601	100.0
90.0633	4.7
95.0607	73.4
96.0640	3.4
101.0964	8.4
107.0707	4.4
110.0602	2.0
112.0872	49.2
113.0905	3.1
122.0603	11.5
133.0861	21.8
145.1223	2.1
151.0969	5.9
178.1342	16.3
179.1373	2.2
192.1023	1.6
194.1176	1.9
195.1221	5.2
196.0964	3.1
196.1446	60.3
197.1478	6.0
202.1800	2.1
204.1385	13.7
208.0963	3.4
209.1284	13.8
210.0794	3.0
210.1127	3.2
210.1314	1.9

Name: N-)2-(2-benzylphenoxy)ethyl(-3-phenylprop-2-ynamide
PrecursorMZ: 337.14626
RT: 2.3324
ExactMass: 355.157228913
Spectrum_type: 2
charge: 1
Formula: C24H21NO2
SMILES: C1=CC=C(C=C1)CC2=CC=CC=C2OCCNC(=O)C#CC3=CC=CC=C3
Method: HCD
Collision_energy: [28.333334]
Isolation_window: 4.0
Ion_mode: P
Num Peaks: 14
70.0657	0.7
85.0286	0.9
181.0973	0.8
315.1652	1.1
336.1446	0.6
337.1465	100.0
338.1500	14.5
339.1524	3.1
345.0602	1.1
350.1642	0.7
352.1356	1.0
353.1200	13.5
354.1247	1.9
355.1183	1.3

Name: N-2-Naphthalenyl-1-pentyl-1H-indole-3-carboxamide
PrecursorMZ: 379.17892
RT: 11.4796
ExactMass: 356.188863393
Spectrum_type: 2
charge: 1
Formula: C24H24N2O
SMILES: CCCCCN1C=C(C2=CC=CC=C21)C(=O)NC3=CC4=CC=CC=C4C=C3
Method: HCD
Collision_energy: [28.333334]
Isolation_window: 4.0
Ion_mode: P
Num Peaks: 14
70.0657	1.4
124.0758	2.0
142.0864	1.2
149.0237	2.5
176.8755	5.1
178.8735	3.4
198.1129	1.0
262.1285	4.3
316.7859	1.0
360.1665	0.9
378.1761	100.0
379.1794	19.9
380.1819	3.9
381.1852	1.0

Name: N-2-Propen-1-yladenosine
PrecursorMZ: 308.13433
RT: 10.0789
ExactMass: 307.12805404
Spectrum_type: 2
charge: 1
Formula: C13H17N5O4
SMILES: C=CCNC1=C2C(=NC=N1)N(C=N2)[C@H]3[C@@H]([C@@H]([C@H](O3)CO)O)O
Method: HCD
Collision_energy: [28.333334]
Isolation_window: 4.0
Ion_mode: P
Num Peaks: 10
154.0864	13.4
192.0879	100.0
272.1132	31.9
290.1240	20.4
307.1650	30.6
308.1338	52.6
308.1493	49.9
308.1720	19.8
309.1430	14.6
310.1518	13.5

Name: N-6-Trimethyllysine
PrecursorMZ: 189.15945
RT: 12.2516
ExactMass: 188.152477885
Spectrum_type: 2
charge: 1
Formula: C9H20N2O2
SMILES: C[N+](C)(C)CCCC[C@@H](C(=O)[O-])N
Method: HCD
Collision_energy: [28.333334]
Isolation_window: 4.0
Ion_mode: P
Num Peaks: 13
69.5710	1.7
84.0810	2.1
97.3989	1.7
100.0758	100.0
101.0791	5.2
114.0913	7.9
130.0861	3.0
130.1224	2.0
165.0212	2.2
172.1330	2.4
189.1595	53.2
190.1435	3.8
190.1630	4.8

Name: N-Acetyl-5-Aminosalicylic Acid
PrecursorMZ: 196.06028
RT: 7.8056
ExactMass: 195.05315777
Spectrum_type: 2
charge: 1
Formula: C9H9NO4
SMILES: CC(=O)NC1=CC(=C(C=C1)O)C(=O)O
Method: HCD
Collision_energy: [28.333334]
Isolation_window: 4.0
Ion_mode: P
Num Peaks: 17
81.0338	6.2
96.0446	6.0
138.0217	55.6
148.0755	15.4
150.0547	9.4
152.0704	9.2
178.0496	21.3
179.0814	6.4
194.0811	7.1
194.1536	11.9
196.0601	100.0
196.0965	11.5
196.1328	8.0
197.0633	7.9
197.0917	10.8
198.0428	8.5
198.0757	27.8

Name: N-Acetyl-Alpha-D-Glucosamine
PrecursorMZ: 204.08655
RT: 8.0857
ExactMass: 221.0899372
Spectrum_type: 2
charge: 1
Formula: C8H15NO6
SMILES: CC(=O)N[C@@H]1[C@H]([C@@H]([C@H](O[C@@H]1O)CO)O)O
Method: HCD
Collision_energy: [28.333334]
Isolation_window: 4.0
Ion_mode: P
Num Peaks: 18
84.0447	11.7
98.0602	8.4
114.0662	6.5
126.0549	44.3
138.0549	79.2
144.0654	26.9
144.0806	7.7
146.0599	54.7
158.1174	8.6
159.0918	7.8
168.0652	10.6
176.0703	10.3
186.0761	8.5
188.0704	100.0
203.0812	9.4
204.0653	23.7
204.0867	8.1
206.0248	11.6

Name: N-Acetyl-D-Mannosamine
PrecursorMZ: 204.08645
RT: 6.5209
ExactMass: 221.0899372
Spectrum_type: 2
charge: 1
Formula: C8H15NO6
SMILES: CC(=O)N[C@H]1[C@H]([C@@H]([C@H](OC1O)CO)O)O
Method: HCD
Collision_energy: [28.333334]
Isolation_window: 4.0
Ion_mode: P
Num Peaks: 42
58.0655	1.0
60.0448	1.7
61.0287	1.3
69.0338	0.7
74.0603	1.0
80.0496	0.7
81.0337	1.9
84.0446	13.9
86.0602	1.0
96.0445	6.7
97.0285	3.2
98.0601	8.7
99.0441	1.0
109.0284	3.4
114.0550	0.9
124.0392	0.8
126.0548	38.0
127.0388	3.1
127.0582	2.2
130.0497	1.8
138.0547	100.0
138.0657	0.7
139.0580	7.3
140.0702	0.6
144.0653	29.0
145.0686	1.8
157.0759	2.8
158.1172	1.8
159.0761	0.8
168.0653	13.2
169.0685	1.3
186.0758	6.4
202.1071	0.9
202.1803	0.6
203.0812	3.3
203.1023	2.5
204.0321	3.5
204.0659	0.8
204.0861	4.7
205.0601	0.9
205.0968	4.9
206.0824	1.1

Name: N-Acetyl-L-Citrulline
PrecursorMZ: 218.11297
RT: 5.9721
ExactMass: 217.10625597
Spectrum_type: 2
charge: 1
Formula: C8H15N3O4
SMILES: CC(=O)N[C@@H](CCCNC(=O)N)C(=O)O
Method: HCD
Collision_energy: [28.333334]
Isolation_window: 4.0
Ion_mode: P
Num Peaks: 32
60.0447	7.7
70.0653	52.0
72.0809	7.1
84.0445	9.1
102.0548	3.9
110.0965	3.5
112.0756	5.3
113.0708	36.9
114.0548	72.0
115.0582	3.4
115.0864	26.3
116.0705	4.3
130.0495	6.4
138.0909	4.9
155.0811	6.5
156.1015	12.7
157.0968	5.6
159.0760	100.0
160.0794	6.0
171.1122	4.4
174.1120	13.8
183.0759	9.7
184.0962	7.0
201.0864	32.8
202.1067	6.8
217.0964	2.7
217.1172	7.9
218.0446	3.2
218.1018	4.1
219.1122	3.0
220.0595	3.6
220.1172	22.8

Name: N-Acetyl-L-alanine
PrecursorMZ: 132.06523
RT: 5.522
ExactMass: 131.058243149
Spectrum_type: 2
charge: 1
Formula: C5H9NO3
SMILES: C[C@@H](C(=O)O)NC(=O)C
Method: HCD
Collision_energy: [28.333334]
Isolation_window: 4.0
Ion_mode: P
Num Peaks: 10
55.0548	7.4
60.0562	24.1
72.0813	2.5
73.0653	34.6
74.0687	1.6
90.0917	28.4
91.0950	1.6
115.0868	2.2
132.1133	100.0
133.1170	6.8

Name: N-Acetyl-L-histidine
PrecursorMZ: 198.0872
RT: 6.519685714285714
ExactMass: 197.08004122
Spectrum_type: 2
charge: 1
Formula: C8H11N3O3
SMILES: CC(=O)N[C@@H](CC1=CN=CN1)C(=O)O
Method: HCD
Collision_energy: [28.333334]
Isolation_window: 4.0
Ion_mode: P
Num Peaks: 70
70.0656	3.9
84.0812	7.0
86.0606	1.2
87.0444	3.5
90.0554	3.1
95.0606	1.9
96.0444	1.0
102.0918	1.1
104.0709	1.3
110.0716	57.0
110.0783	1.0
111.0749	2.8
116.0707	1.5
118.0653	2.2
120.0810	1.3
128.1072	3.1
130.0861	1.5
132.0811	3.2
140.1071	9.3
144.0811	8.4
146.0602	46.1
147.0638	4.4
152.0714	2.0
152.0820	31.7
153.0864	2.2
154.0979	1.8
154.1231	1.5
155.0813	1.0
156.0770	32.0
157.0812	1.9
157.1338	3.2
159.0919	7.5
161.0922	2.3
167.0819	0.9
170.0602	2.4
171.1497	1.0
180.0772	6.4
182.0932	2.0
184.1088	1.7
188.0449	1.4
188.0547	1.1
188.0708	100.0
189.0742	11.4
196.0981	1.9
197.0947	0.9
198.0746	3.1
198.0898	17.6
199.0912	1.3
199.1100	0.9
200.1040	3.3
200.1295	3.5
201.0875	2.3
201.1234	8.3
202.1082	1.1
202.1802	3.2
203.1393	4.8
205.0983	1.5
206.1021	1.0
208.0969	2.5
209.0922	2.2
210.0779	11.1
211.0814	1.2
212.1034	18.4
213.1070	2.0
215.1023	1.8
216.1007	1.4
216.1245	2.1
217.1181	2.0
217.1569	1.0
218.1144	9.6

Name: N-Acetyl-L-leucine
PrecursorMZ: 174.11242
RT: 4.5813
ExactMass: 173.10519334
Spectrum_type: 2
charge: 1
Formula: C8H15NO3
SMILES: CC(C)C[C@@H](C(=O)O)NC(=O)C
Method: HCD
Collision_energy: [28.333334]
Isolation_window: 4.0
Ion_mode: P
Num Peaks: 11
72.0811	7.7
86.0966	100.0
97.4315	7.5
128.1068	60.6
132.1017	23.1
156.1018	79.6
157.1052	7.9
173.0708	11.3
174.0546	13.4
174.1123	9.0
175.0865	11.4

Name: N-Acetyl-L-proline
PrecursorMZ: 158.08094
RT: 3.0814
ExactMass: 157.07389321
Spectrum_type: 2
charge: 1
Formula: C7H11NO3
SMILES: CC(=O)N1CCC[C@H]1C(=O)O
Method: HCD
Collision_energy: [28.333334]
Isolation_window: 4.0
Ion_mode: P
Num Peaks: 6
70.0653	4.0
112.0756	100.0
113.0789	5.8
157.1695	8.1
158.0809	5.7
158.1536	8.9

Name: N-Acetyl-L-tryptophan
PrecursorMZ: 247.10754
RT: 6.9202
ExactMass: 246.10044231
Spectrum_type: 2
charge: 1
Formula: C13H14N2O3
SMILES: CC(=O)N[C@@H](CC1=CNC2=CC=CC=C21)C(=O)O
Method: HCD
Collision_energy: [28.333334]
Isolation_window: 4.0
Ion_mode: P
Num Peaks: 55
84.0811	4.9
88.0760	3.3
101.0600	6.0
102.0551	9.7
120.0809	24.9
129.1023	3.3
130.0499	18.6
130.0651	10.1
132.0656	3.9
132.0765	4.1
132.0811	4.7
144.0809	3.8
146.0601	4.1
147.0917	8.8
151.0628	8.9
152.1072	4.3
156.0809	27.2
158.0969	3.2
160.0758	55.8
161.0791	4.7
165.1149	14.2
174.0914	6.9
184.0755	2.8
187.0991	7.7
188.0704	6.9
189.0660	3.0
201.1022	23.1
202.0867	3.2
203.0924	3.6
203.1179	4.4
214.0822	3.4
228.0980	2.9
229.0968	5.8
230.0812	8.7
231.0761	4.2
231.0863	4.8
231.1130	6.3
245.1285	4.1
245.1848	3.0
246.0774	41.6
246.1115	34.5
246.1335	6.0
246.1484	15.1
247.0824	7.7
247.1075	88.2
247.1439	100.0
248.0918	65.0
248.1026	6.2
248.1121	11.8
248.1276	27.3
248.1487	13.6
248.6106	2.8
249.0970	7.1
249.1231	54.6
249.1591	7.4

Name: N-Acetyl-Muramic Acid
PrecursorMZ: 316.1002
RT: 6.1246
ExactMass: 293.11106656
Spectrum_type: 2
charge: 1
Formula: C11H19NO8
SMILES: C[C@H](C(=O)O)O[C@H]1[C@@H]([C@H](OC([C@@H]1NC(=O)C)O)CO)O
Method: HCD
Collision_energy: [28.333334]
Isolation_window: 4.0
Ion_mode: P
Num Peaks: 30
60.0448	1.5
83.0106	1.3
84.0810	1.4
113.0209	2.0
121.0285	1.4
136.0391	2.0
138.0548	1.9
150.0547	2.6
151.0389	3.5
152.0704	1.4
156.0654	2.4
176.8750	2.7
178.0499	2.7
179.0337	7.7
182.0446	4.3
196.0602	4.5
208.0577	3.6
226.0683	16.5
227.0716	1.5
238.0707	2.1
244.0788	14.5
255.1333	1.4
256.0808	1.4
298.0900	3.4
315.1547	3.2
315.1785	2.4
316.0998	100.0
316.1148	2.3
317.1026	11.2
317.1495	1.4

Name: N-Acetylcadaverine
PrecursorMZ: 145.1335
RT: 10.8282
ExactMass: 144.126263138
Spectrum_type: 2
charge: 1
Formula: C7H16N2O
SMILES: CC(=O)NCCCCCN
Method: HCD
Collision_energy: [28.333334]
Isolation_window: 4.0
Ion_mode: P
Num Peaks: 14
60.0448	3.0
60.0812	30.2
69.0702	20.5
72.0447	6.0
86.0966	40.2
87.0806	5.6
87.1000	2.8
128.1069	26.3
129.1102	2.1
145.1334	14.7
146.1287	3.2
146.1370	1.5
146.1537	100.0
147.1571	2.9

Name: N-Acetylcaprolactam
PrecursorMZ: 156.10197
RT: 2.9096
ExactMass: 155.094628657
Spectrum_type: 2
charge: 1
Formula: C8H13NO2
SMILES: CC(=O)N1CCCCCC1=O
Method: HCD
Collision_energy: [28.333334]
Isolation_window: 4.0
Ion_mode: P
Num Peaks: 10
68.0499	5.3
96.0446	6.5
96.0810	21.9
124.0758	13.4
155.0813	12.7
156.0421	9.4
156.1020	100.0
157.1055	6.9
158.1175	6.7
158.1539	7.6

Name: N-Acetyltyramine
PrecursorMZ: 180.10184
RT: 2.2391
ExactMass: 179.094628657
Spectrum_type: 2
charge: 1
Formula: C10H13NO2
SMILES: CC(=O)NCCC1=CC=C(C=C1)O
Method: HCD
Collision_energy: [28.333334]
Isolation_window: 4.0
Ion_mode: P
Num Peaks: 4
121.0648	100.0
122.0682	9.2
138.0912	72.8
180.1020	13.9

Name: N-Benzoyl-DL-alanine
PrecursorMZ: 194.08103
RT: 7.7087
ExactMass: 193.07389321
Spectrum_type: 2
charge: 1
Formula: C10H11NO3
SMILES: CC(C(=O)O)NC(=O)C1=CC=CC=C1
Method: HCD
Collision_energy: [28.333334]
Isolation_window: 4.0
Ion_mode: P
Num Peaks: 7
81.0337	5.3
148.0755	100.0
149.0789	8.8
153.0543	3.7
194.0447	4.2
194.0809	32.4
194.1172	6.8

Name: N-Butylphthalimide
PrecursorMZ: 204.10178
RT: 5.1839
ExactMass: 203.094628657
Spectrum_type: 2
charge: 1
Formula: C12H13NO2
SMILES: CCCCN1C(=O)C2=CC=CC=C2C1=O
Method: HCD
Collision_energy: [28.333334]
Isolation_window: 4.0
Ion_mode: P
Num Peaks: 47
60.0448	0.5
68.0499	0.7
72.0812	1.3
80.0498	0.6
81.0338	0.5
86.0967	5.4
95.0606	5.7
97.3984	0.5
118.0652	0.5
123.0792	1.8
126.0550	0.8
132.1020	0.7
146.0270	0.9
158.1177	0.5
158.1540	0.7
160.0758	0.8
160.0868	1.2
162.0761	0.6
162.1026	8.3
176.1070	0.5
177.1023	0.5
186.1125	0.4
187.0867	1.4
188.0705	1.0
189.0782	0.8
203.0814	3.4
203.0921	0.8
203.1182	1.0
204.0436	3.5
204.0658	2.1
204.0764	1.7
204.0812	0.5
204.0866	1.6
204.1018	100.0
204.1107	1.2
204.1223	1.0
204.1592	0.7
205.0608	1.0
205.0969	8.9
205.1054	12.0
205.1329	0.6
206.0448	0.6
206.0670	1.3
206.0811	4.6
206.0922	4.1
206.1011	0.6
206.1175	1.2

Name: N-Caprylyl-DL-phenylalanine
PrecursorMZ: 292.19036
RT: 1.5529
ExactMass: 291.18344366
Spectrum_type: 2
charge: 1
Formula: C17H25NO3
SMILES: CCCCCCCC(=O)NC(CC1=CC=CC=C1)C(=O)O
Method: HCD
Collision_energy: [28.333334]
Isolation_window: 4.0
Ion_mode: P
Num Peaks: 5
57.0704	9.7
120.0807	100.0
166.0861	88.7
291.1339	12.7
293.2944	13.6

Name: N-Carbamyltryptophan
PrecursorMZ: 248.10283
RT: 5.5008
ExactMass: 247.09569129
Spectrum_type: 2
charge: 1
Formula: C12H13N3O3
SMILES: C1=CC=C2C(=C1)C(=CN2)CC(C(=O)O)NC(=O)N
Method: HCD
Collision_energy: [28.333334]
Isolation_window: 4.0
Ion_mode: P
Num Peaks: 33
69.0701	1.8
69.6655	2.8
72.0811	2.9
86.0967	7.5
87.0555	1.8
120.0808	4.2
130.0495	2.1
130.0651	4.8
132.0807	4.5
141.1022	2.8
144.0806	4.1
146.0599	24.5
147.0632	2.9
159.0916	28.5
160.0947	3.0
166.0861	4.1
170.0601	2.4
185.0707	12.1
187.0862	7.5
187.1073	2.6
188.0703	100.0
189.0737	11.0
202.0972	6.9
205.0968	12.2
212.0911	4.0
229.1179	2.3
231.0760	12.4
247.0712	2.1
247.1074	2.9
248.0915	3.7
249.0868	4.3
249.1230	3.1
250.0705	1.9

Name: N-Desmethyltramadol
PrecursorMZ: 250.17997
RT: 8.5124
ExactMass: 249.172878976
Spectrum_type: 2
charge: 1
Formula: C15H23NO2
SMILES: CNC[C@H]1CCCC[C@@]1(C2=CC(=CC=C2)OC)O
Method: HCD
Collision_energy: [28.333334]
Isolation_window: 4.0
Ion_mode: P
Num Peaks: 16
86.0967	14.2
87.1000	0.8
100.1123	31.7
101.1156	1.8
101.1201	2.7
121.0650	1.0
149.0598	38.2
150.0632	3.5
249.1573	1.7
250.1068	0.7
250.1442	0.9
250.1800	100.0
250.2068	0.8
251.1835	15.0
252.1593	0.7
252.1846	0.9

Name: N-Formyl-L-kynurenine
PrecursorMZ: 237.08688
RT: 0.7064
ExactMass: 236.07970687
Spectrum_type: 2
charge: 1
Formula: C11H12N2O4
SMILES: C1=CC=C(C(=C1)C(=O)C[C@@H](C(=O)O)N)NC=O
Method: HCD
Collision_energy: [28.333334]
Isolation_window: 4.0
Ion_mode: P
Num Peaks: 330
55.0547	2.2
56.0500	2.9
57.0341	2.9
59.0497	4.1
60.0450	3.1
67.0547	3.2
68.0500	2.0
69.0339	6.9
69.0704	5.6
70.0656	24.9
71.0496	6.7
72.0813	14.6
74.0605	6.3
79.0549	2.3
80.0499	3.9
81.0340	14.4
81.0704	3.7
82.0656	3.8
83.0496	8.9
84.0448	19.9
84.0812	5.2
85.0288	6.0
85.0653	4.7
86.0605	72.3
86.0969	21.9
87.0444	8.6
87.0637	3.2
88.0397	3.6
88.0761	2.4
89.0601	16.0
90.0553	3.7
91.0545	2.9
93.0702	4.1
94.0654	2.1
95.0494	7.5
95.0857	3.1
96.0447	6.0
96.0812	1.8
97.0287	16.5
97.0651	3.9
98.0604	13.5
98.0969	3.9
99.0444	8.9
100.0396	2.2
100.0760	22.1
101.0600	27.4
102.0553	5.5
103.0392	2.9
104.0709	14.3
105.0695	2.9
106.0654	1.9
107.0494	21.2
107.0858	3.3
108.0447	6.5
109.0287	5.9
109.0651	3.4
110.0604	11.0
111.0443	11.8
112.0398	5.2
112.0760	12.0
113.0600	2.9
113.0716	2.5
114.0553	23.3
114.0916	2.5
115.0393	2.7
116.0709	21.1
117.0547	3.9
118.0865	7.0
119.0856	3.9
120.0810	6.1
121.0284	1.8
121.0649	8.9
121.0760	2.4
121.1011	1.9
122.0240	2.5
122.0603	5.6
123.0443	4.1
123.0805	3.1
124.0396	5.0
124.0759	7.0
125.0236	4.6
125.0598	5.4
125.0710	4.3
125.0962	1.8
126.0551	13.0
126.0915	6.5
127.0390	5.3
127.0502	2.2
128.0708	9.7
128.1073	2.0
129.0546	2.8
129.0661	2.5
130.0501	14.8
130.0647	2.2
130.0865	7.0
131.0854	2.3
132.0659	3.5
132.0807	2.4
132.1019	4.4
133.0644	2.6
133.0859	9.0
133.1010	2.4
134.0601	4.0
134.0814	6.5
134.0966	2.2
135.0440	2.9
135.0807	3.7
136.0394	4.8
136.0758	10.5
137.0597	4.7
137.0707	2.7
138.0551	7.3
138.0914	4.5
139.0388	2.5
139.0754	2.6
140.0343	100.0
140.0705	10.4
141.0380	6.5
141.0545	2.2
141.0661	2.7
142.0329	8.9
142.0500	45.9
142.0861	5.3
143.0533	2.9
144.0657	4.6
144.0806	2.3
144.1020	3.2
146.0599	3.2
146.0813	3.2
146.0962	1.9
147.0447	2.5
147.0791	2.8
147.0916	2.4
148.0756	5.3
149.0263	2.6
149.0596	3.8
149.0710	3.9
149.0961	1.9
150.0547	3.9
150.0913	6.6
151.0390	2.8
151.0752	4.8
151.0870	2.7
152.0338	1.8
152.0707	9.9
153.0546	2.5
153.0660	2.2
154.0500	10.9
154.0864	6.2
155.0702	2.6
156.0659	3.6
158.0812	2.9
159.0781	2.4
159.0917	3.3
161.0594	2.4
161.0714	3.5
161.0957	2.1
162.0543	2.3
162.0913	3.9
163.0765	3.1
163.0872	3.5
164.0706	17.9
164.1059	2.2
165.0544	4.1
165.0908	3.7
165.1015	3.6
166.0510	3.1
166.0863	16.2
167.0698	2.7
167.0822	2.4
167.1183	3.4
168.0657	5.7
168.1016	4.1
169.0612	2.2
169.0969	2.2
170.0268	2.3
170.0446	3.1
170.0810	3.2
172.0973	4.2
173.0936	1.8
174.0759	4.4
174.0911	2.2
175.0750	2.1
175.0877	4.6
176.0707	6.0
177.0529	3.4
177.0668	2.3
177.0907	2.0
177.1036	2.7
178.0497	3.0
178.0860	11.1
179.0681	4.0
179.0841	2.7
180.0653	9.3
180.1013	5.7
181.0983	4.0
182.0813	9.5
182.1168	2.1
183.1138	2.7
184.0604	3.2
184.0965	4.6
185.0925	1.9
186.0759	2.2
186.1123	4.2
188.0704	4.4
188.0911	2.0
189.1041	4.7
190.0855	6.6
191.0676	2.1
191.0834	4.9
192.0655	29.6
192.1013	10.5
193.0677	4.0
193.0853	2.2
193.0992	3.8
194.0813	15.3
194.1158	3.1
195.0642	1.9
195.1129	24.3
196.0589	2.9
196.0967	13.1
197.0553	6.0
197.0931	4.5
197.1289	7.1
198.0754	3.9
198.1122	11.4
200.0705	2.1
200.0912	3.3
200.1271	3.7
201.0651	2.4
201.1023	2.3
201.1245	3.0
202.0859	5.8
202.1065	4.2
202.1441	2.5
203.0836	2.5
204.0663	2.2
204.1043	3.2
204.1221	3.5
205.0985	5.3
206.0812	6.6
206.1168	2.0
207.0625	2.9
207.1146	6.7
208.0625	2.6
208.0967	19.1
209.0938	3.1
210.0746	3.9
210.1110	4.6
211.1101	4.1
212.0910	6.6
214.1069	3.9
218.0809	4.0
219.0758	2.0
219.1118	3.3
220.0614	4.2
220.0966	5.7
221.0904	5.2
221.1288	2.0
222.0762	9.0
222.1119	3.7
223.1090	4.9
224.0917	8.6
224.1269	1.9
225.0857	3.4
225.1239	10.5
226.0717	3.0
226.1067	12.1
227.1055	2.1
228.0856	2.2
228.1227	3.6
229.1184	2.0
230.1046	3.0
230.1387	30.4
231.1423	4.3
232.0591	1.9
232.0967	2.5
232.1167	4.6
233.0905	1.9
234.0764	3.5
234.1124	2.3
235.1052	3.7
236.0909	20.2
236.1290	2.4
237.0862	14.4
237.1226	10.6
238.0707	14.0
238.1090	11.7
239.0707	1.9
239.1016	14.8
239.1380	4.1
240.0863	23.6
240.1221	6.1
240.1587	4.5
241.0875	3.1
241.1174	13.3
242.1011	14.5
242.1362	2.9
243.0990	4.2
243.1341	26.0
244.1177	34.7
245.1147	6.6
246.0749	2.1
246.0964	2.9
246.1339	8.6
247.1042	1.9
247.1312	2.2
248.0905	6.2
248.1122	4.4
248.1493	7.3
249.0864	1.8
249.1203	2.5
250.0705	3.5
250.1051	6.2
250.1264	2.5
251.1010	7.3
252.0856	10.6
252.1222	9.4
253.0840	2.0
253.1173	13.0
254.1002	13.7
254.1440	2.4
255.0651	30.8
255.0959	5.6
255.1339	11.3
256.0681	3.5
256.1173	13.4
257.1121	9.3
257.1484	6.0
258.1317	1.8

Name: N-Formyl-l-kynurenine
PrecursorMZ: 237.08644
RT: 4.9081
ExactMass: 236.07970687
Spectrum_type: 2
charge: 1
Formula: C11H12N2O4
SMILES: C1=CC=C(C(=C1)C(=O)C[C@@H](C(=O)O)N)NC=O
Method: HCD
Collision_energy: [28.333334]
Isolation_window: 4.0
Ion_mode: P
Num Peaks: 166
59.0607	0.8
67.0545	1.5
68.0497	1.5
69.0701	1.0
69.2018	0.8
69.2583	1.0
69.2998	0.7
69.3018	0.7
70.0653	2.9
71.0493	0.7
72.0810	0.7
79.0544	0.8
80.0496	1.2
81.0336	3.2
81.0700	2.0
83.0492	0.7
84.0445	8.7
85.0761	0.5
86.0601	0.5
86.0965	1.6
87.0998	0.6
91.0541	0.8
93.0699	1.1
94.0652	0.7
95.0491	0.7
95.0855	2.2
96.0444	2.9
97.0647	0.5
97.4562	0.8
98.0600	0.7
100.0754	0.6
105.0698	1.0
107.0490	1.0
107.0602	2.3
107.0855	1.0
108.0443	33.4
109.0477	1.9
109.0646	0.6
109.0759	1.5
109.1011	1.4
110.0600	1.0
110.0712	4.7
111.0439	0.7
112.0868	0.7
114.0548	13.8
114.0911	1.3
116.0705	0.8
119.0853	1.1
120.0806	20.7
121.0646	2.5
121.0839	1.6
121.1010	0.5
122.0598	0.9
123.0803	0.9
124.0388	0.7
124.0755	0.8
125.0707	1.5
126.0547	7.4
126.0912	0.8
130.0496	19.4
131.0529	0.9
131.0851	0.6
132.0803	0.5
133.1009	4.9
134.0594	0.8
135.0801	0.7
136.0391	0.7
136.0753	2.1
138.0547	0.7
139.0862	0.6
142.0495	31.9
143.0528	1.8
146.0596	0.8
147.0800	0.5
148.0753	0.9
149.0593	0.7
149.0705	0.5
150.0546	1.4
150.0909	0.7
151.0972	0.7
152.0702	0.8
159.1164	0.7
161.1318	0.5
162.0545	0.5
162.0910	2.5
162.1020	1.2
163.0860	0.5
164.0702	4.8
165.1018	0.8
166.0528	1.1
166.0608	0.7
166.0858	9.3
167.0893	0.8
170.0443	1.9
172.0752	0.6
172.0963	2.7
174.0909	0.7
175.1225	10.1
176.0701	1.2
178.0721	0.9
178.0858	1.6
179.0808	0.7
181.1691	0.6
182.0807	0.7
190.0859	2.0
190.0969	3.9
190.1219	0.6
191.0809	16.8
191.1173	1.4
192.0650	6.7
192.0843	2.1
192.1013	34.0
192.1121	0.7
193.0966	1.2
193.1048	2.0
193.1330	2.4
197.0914	1.0
200.0701	1.5
202.0857	1.0
207.1233	0.8
208.0962	1.0
212.8959	0.7
218.0806	3.3
218.1171	0.8
219.0755	1.3
219.1121	2.2
219.1375	0.9
220.0592	0.5
220.0963	12.0
220.1073	0.7
220.1324	1.3
221.0661	1.0
221.0914	0.9
221.1002	0.8
221.1278	33.8
222.0754	1.1
225.0862	4.3
235.1071	1.4
235.1182	17.0
235.1426	0.7
235.1670	0.6
236.0910	11.7
236.1023	6.9
236.1222	4.5
236.1270	1.4
236.1637	1.1
237.0615	0.7
237.0764	1.3
237.0862	100.0
237.1029	0.8
237.1222	8.1
237.1331	0.9
237.1474	1.3
237.1596	1.2
238.0712	4.5
238.0897	12.4
238.1066	17.5
238.1178	3.2
238.1269	0.6
238.1428	4.4
238.1789	1.0
239.0805	0.5
239.0912	0.7
239.1015	2.1
239.1128	0.8
239.1380	11.8

Name: N-Fructosyl phenylalanine
PrecursorMZ: 328.1387
RT: 5.537
ExactMass: 327.13180201
Spectrum_type: 2
charge: 1
Formula: C15H21NO7
SMILES: C1=CC=C(C=C1)CC(C(=O)O)NCC2(C(C(C(O2)CO)O)O)O
Method: HCD
Collision_energy: [28.333334]
Isolation_window: 4.0
Ion_mode: P
Num Peaks: 93
69.0338	3.7
70.0654	17.4
72.0810	1.9
74.0603	2.4
80.0497	12.7
81.0337	4.1
83.0493	1.5
84.0810	2.2
85.0286	3.6
86.0966	4.4
87.0317	1.8
91.0543	3.9
97.0285	7.3
98.9843	4.9
99.0441	1.9
107.0491	1.9
110.0713	3.9
111.0439	1.5
112.0393	2.7
116.0705	5.9
120.0807	26.9
121.0840	2.4
122.0599	2.0
127.0388	7.7
130.0649	1.8
131.0491	1.9
132.0806	16.2
133.0839	1.6
136.0755	4.7
143.0575	5.6
144.0807	3.7
146.0598	4.4
161.0680	4.5
162.0911	3.3
164.1068	4.2
166.0533	2.5
166.0860	22.7
167.0894	2.5
168.0655	2.0
178.0860	9.4
182.1173	3.3
183.1489	4.1
187.1439	1.8
198.0911	3.2
202.0857	2.4
211.1437	4.6
213.1228	10.0
214.1266	1.7
217.1179	2.3
226.1179	3.9
228.1019	2.4
229.1544	1.9
234.1119	2.2
244.0962	6.9
246.1119	9.0
262.0336	1.5
264.1224	31.5
265.1168	2.8
265.1266	2.8
272.1237	2.7
281.1142	2.2
281.1491	7.6
282.1326	2.9
292.1172	40.2
293.1208	6.6
309.0295	3.2
310.1276	100.0
311.1309	16.1
326.2065	3.6
327.0399	8.0
327.0751	2.3
327.1336	6.9
327.1535	9.5
327.1698	27.2
327.1902	2.0
327.2082	2.3
327.2274	2.2
328.0320	4.9
328.1165	3.2
328.1366	7.7
328.1511	11.1
328.1720	3.7
328.1854	3.0
329.1150	6.7
329.1332	3.7
329.1490	7.0
329.1700	3.0
329.1860	7.3
330.1280	2.8
330.1318	2.7
330.1474	1.6
330.1819	2.7
330.1997	2.5

Name: N-Fructosyl tyrosine
PrecursorMZ: 344.1334
RT: 2.8358
ExactMass: 343.12671663
Spectrum_type: 2
charge: 1
Formula: C15H21NO8
SMILES: C1=CC(=CC=C1CC(C(=O)O)NCC2(C(C(C(O2)CO)O)O)O)O
Method: HCD
Collision_energy: [28.333334]
Isolation_window: 4.0
Ion_mode: P
Num Peaks: 32
69.0340	3.7
85.0288	2.6
97.0285	6.8
99.0441	2.3
107.0492	6.0
116.0709	3.3
119.0492	3.6
123.0442	6.8
127.0390	6.2
136.0757	17.3
143.0583	2.7
144.0656	6.0
147.0441	5.0
148.0757	13.9
160.0761	2.5
161.0685	3.2
165.0546	22.5
178.0862	2.3
182.0810	16.8
194.0813	7.2
214.0867	2.9
260.0920	3.3
262.1067	4.7
280.1179	27.3
281.1212	5.2
298.1288	2.7
308.1128	35.1
309.1167	6.0
326.1232	100.0
327.1264	17.8
328.1280	3.9
344.1346	9.6

Name: N-Iminoethyl-L-lysine
PrecursorMZ: 188.13937
RT: 16.1823
ExactMass: 187.132076794
Spectrum_type: 2
charge: 1
Formula: C8H17N3O2
SMILES: CC(=NCCCC[C@@H](C(=O)O)N)N
Method: HCD
Collision_energy: [28.333334]
Isolation_window: 4.0
Ion_mode: P
Num Peaks: 26
60.0813	12.1
70.0656	22.8
72.0812	21.0
84.0811	100.0
86.0968	20.3
116.0708	16.0
126.0914	32.4
128.0707	10.0
129.1023	25.6
130.0863	96.2
142.0863	25.3
142.1228	11.3
143.1179	48.0
144.1019	32.1
144.5996	9.6
146.0602	19.2
187.1077	19.5
187.1440	26.9
188.0916	12.6
188.1283	31.5
188.1395	63.4
189.1241	23.0
189.1346	21.2
189.1597	21.0
190.1074	16.5
190.1438	23.6

Name: N-Linoleoylethanolamine
PrecursorMZ: 324.28904
RT: 1.1462666666666665
ExactMass: 323.282429423
Spectrum_type: 2
charge: 1
Formula: C20H37NO2
SMILES: CCCCC/C=C\C/C=C\CCCCCCCC(=O)NCCO
Method: HCD
Collision_energy: [28.333334]
Isolation_window: 4.0
Ion_mode: P
Num Peaks: 36
55.0546	1.0
57.0702	0.7
62.0604	100.0
62.0637	0.7
63.0638	2.0
67.0546	4.7
69.0702	2.9
69.1410	0.8
79.0544	1.1
81.0701	7.0
83.0858	2.4
91.0544	0.7
93.0700	1.8
95.0857	7.5
97.0649	0.7
97.1013	1.5
97.4002	0.7
105.0700	1.0
107.0856	1.5
109.1013	3.8
119.0856	1.1
121.1012	1.9
123.1169	2.0
133.1012	1.4
135.1167	1.3
137.1324	1.0
147.1167	0.9
149.1322	0.8
161.1324	1.0
245.2262	1.7
263.2359	1.1
306.2789	3.1
307.2627	2.5
324.2892	28.8
325.2925	6.2
326.3054	4.4

Name: N-Malonyltryptophan
PrecursorMZ: 291.09724
RT: 6.495
ExactMass: 290.09027155
Spectrum_type: 2
charge: 1
Formula: C14H14N2O5
SMILES: C1=CC=C2C(=C1)C(=CN2)CC(C(=O)O)NC(=O)CC(=O)O
Method: HCD
Collision_energy: [28.333334]
Isolation_window: 4.0
Ion_mode: P
Num Peaks: 22
114.0915	13.3
130.0650	62.1
159.0916	39.3
166.0864	8.5
170.0601	8.8
184.0756	17.7
185.0709	22.4
188.0704	47.7
201.1022	15.4
227.0812	48.6
228.0855	9.1
245.0917	100.0
246.0953	11.5
273.0865	18.8
290.1022	19.3
291.0970	15.1
291.1327	10.6
291.2428	29.5
292.0815	12.5
292.1164	9.6
292.2270	11.9
293.1491	9.8

Name: N-Methyl-1-dodecanamine
PrecursorMZ: 200.23719
RT: 5.927533333333334
ExactMass: 199.229999929
Spectrum_type: 2
charge: 1
Formula: C13H29N
SMILES: CCCCCCCCCCCCNC
Method: HCD
Collision_energy: [28.333334]
Isolation_window: 4.0
Ion_mode: P
Num Peaks: 11
57.0703	6.9
74.0968	6.8
81.0702	5.3
97.3985	5.5
114.0914	6.6
160.9014	11.7
199.1805	5.5
200.2372	100.0
201.2407	14.9
202.1802	9.0
202.2165	43.8

Name: N-Methyl-L-Alanine
PrecursorMZ: 104.07074
RT: 8.436066666666667
ExactMass: 103.06332853
Spectrum_type: 2
charge: 1
Formula: C4H9NO2
SMILES: C[C@@H](C(=O)O)NC
Method: HCD
Collision_energy: [28.333334]
Isolation_window: 4.0
Ion_mode: P
Num Peaks: 10
56.0499	69.4
58.0655	100.0
60.0560	16.7
79.0544	16.4
102.0914	16.5
102.1278	26.9
103.0543	30.7
104.0707	51.0
104.1070	29.7
105.0699	84.0

Name: N-Methyl-L-glutamic acid
PrecursorMZ: 162.07597
RT: 3.396
ExactMass: 161.06880783
Spectrum_type: 2
charge: 1
Formula: C6H11NO4
SMILES: CN[C@@H](CCC(=O)O)C(=O)O
Method: HCD
Collision_energy: [28.333334]
Isolation_window: 4.0
Ion_mode: P
Num Peaks: 72
56.0499	3.3
57.0534	0.5
58.0655	0.3
61.0111	0.4
65.0060	0.4
69.0339	0.2
70.0655	0.5
74.0028	0.4
74.0240	100.0
74.0308	0.7
74.0327	0.7
74.0428	0.3
74.0604	2.5
75.0267	26.2
76.0302	0.8
77.0224	1.0
82.0654	2.8
84.0448	1.0
84.0810	0.3
85.0286	0.8
87.0443	6.4
88.0396	0.7
88.0476	0.2
90.0552	1.6
94.0655	0.3
98.0602	4.7
99.0634	0.3
100.0758	0.4
102.0371	0.2
102.0551	21.9
103.0583	0.9
112.0759	9.8
113.0790	0.7
114.0550	0.7
116.0707	5.1
117.0743	0.3
120.0480	0.4
121.0319	0.5
128.0508	0.3
128.0707	42.7
128.0861	0.3
128.0903	0.3
129.0740	2.8
130.0770	0.3
130.0862	7.3
131.0160	0.9
131.0331	0.3
131.0898	0.4
132.0658	0.2
136.0754	0.2
140.0703	0.9
142.0720	0.3
144.0656	2.2
148.0428	0.3
149.0267	18.6
150.0300	0.9
151.0220	0.8
152.0568	0.3
158.0812	1.8
162.0562	0.3
162.0760	2.1
166.0532	16.6
167.0569	1.0
168.0482	0.7
168.0690	0.3
174.0760	5.6
174.1102	0.3
175.0793	0.4
176.0917	8.7
177.0959	0.7
180.1047	1.5
184.0602	0.5

Name: N-Methyl-L-threonine
PrecursorMZ: 134.08112
RT: 9.9679
ExactMass: 133.07389321
Spectrum_type: 2
charge: 1
Formula: C5H11NO3
SMILES: C[C@H]([C@@H](C(=O)O)NC)O
Method: HCD
Collision_energy: [28.333334]
Isolation_window: 4.0
Ion_mode: P
Num Peaks: 8
58.0655	44.2
70.0654	29.2
88.0759	23.2
90.0552	16.7
98.0601	100.0
116.0706	27.1
134.0632	42.7
134.0962	14.5

Name: N-Methylaniline
PrecursorMZ: 108.08084
RT: 15.0728
ExactMass: 107.073499291
Spectrum_type: 2
charge: 1
Formula: C7H9N
SMILES: CNC1=CC=CC=C1
Method: HCD
Collision_energy: [28.333334]
Isolation_window: 4.0
Ion_mode: P
Num Peaks: 5
80.0498	11.2
105.0034	5.5
108.0809	100.0
109.0842	9.1
110.0601	7.7

Name: N-Methylcorydaldine
PrecursorMZ: 222.11224
RT: 6.882
ExactMass: 221.10519334
Spectrum_type: 2
charge: 1
Formula: C12H15NO3
SMILES: CN1CCC2=CC(=C(C=C2C1=O)OC)OC
Method: HCD
Collision_energy: [28.333334]
Isolation_window: 4.0
Ion_mode: P
Num Peaks: 16
74.0603	6.4
159.0761	4.5
204.1015	4.6
206.0806	3.4
220.0964	3.6
220.1187	6.6
221.0903	5.0
221.1002	3.7
221.1280	4.0
222.0762	8.0
222.0968	6.8
222.1121	100.0
223.1067	3.8
223.1159	11.4
224.0913	47.5
224.1275	14.8

Name: N-Methyllaurotetanine
PrecursorMZ: 342.16952
RT: 6.4147
ExactMass: 341.16270821
Spectrum_type: 2
charge: 1
Formula: C20H23NO4
SMILES: CN1CCC2=CC(=C(C3=C2[C@@H]1CC4=CC(=C(C=C43)OC)O)OC)OC
Method: HCD
Collision_energy: [28.333334]
Isolation_window: 4.0
Ion_mode: P
Num Peaks: 16
58.0655	41.0
70.0654	5.2
237.0911	4.7
265.0852	27.9
282.0877	7.1
297.1113	40.9
298.1154	5.5
299.1274	5.7
341.1472	5.1
341.1513	6.4
342.1347	5.0
342.1537	7.1
342.1696	100.0
343.1304	5.6
343.1726	19.9
344.1489	7.0

Name: N-Methylleucine
PrecursorMZ: 146.11751
RT: 6.722166666666666
ExactMass: 145.110278721
Spectrum_type: 2
charge: 1
Formula: C7H15NO2
SMILES: CC(C)C[C@@H](C(=O)O)NC
Method: HCD
Collision_energy: [28.333334]
Isolation_window: 4.0
Ion_mode: P
Num Peaks: 5
69.8449	3.0
100.1122	100.0
101.1155	5.6
146.0598	3.3
146.1175	7.0

Name: N-Methylphenylalanine
PrecursorMZ: 180.10173
RT: 6.3996
ExactMass: 179.094628657
Spectrum_type: 2
charge: 1
Formula: C10H13NO2
SMILES: CN[C@@H](CC1=CC=CC=C1)C(=O)O
Method: HCD
Collision_energy: [28.333334]
Isolation_window: 4.0
Ion_mode: P
Num Peaks: 38
60.0812	0.9
80.0497	1.1
88.0394	0.8
91.0543	18.6
96.9952	1.1
103.0542	1.1
107.0492	1.3
119.0726	0.7
124.0504	8.8
131.0490	2.4
134.0600	0.6
134.0962	100.0
134.1066	0.7
135.0995	9.9
136.0753	1.1
138.0660	6.0
142.0609	5.8
149.0595	0.7
154.0859	0.8
154.0975	0.9
164.0703	1.3
168.0402	1.3
178.0860	0.8
179.0814	0.7
180.0652	16.7
180.0805	11.1
180.1017	18.6
180.1048	6.8
181.0717	78.1
181.0840	2.1
181.0968	3.8
181.1051	2.0
182.0558	0.9
182.0744	2.3
182.0813	3.4
182.0924	0.7
182.1172	3.9
182.1900	0.9

Name: N-Methyltyramine
PrecursorMZ: 152.10695
RT: 9.4577
ExactMass: 151.099714038
Spectrum_type: 2
charge: 1
Formula: C9H13NO
SMILES: CNCCC1=CC=C(C=C1)O
Method: HCD
Collision_energy: [28.333334]
Isolation_window: 4.0
Ion_mode: P
Num Peaks: 21
93.0700	1.5
96.9953	5.1
110.0269	0.5
121.0556	0.6
121.0648	100.0
121.0739	0.8
122.0681	9.0
133.0759	1.1
134.0631	13.5
134.0963	2.9
135.0623	0.7
151.0614	1.3
151.0865	0.9
151.0942	0.8
151.1227	0.8
152.0569	0.7
152.0739	4.1
152.1069	5.5
153.0659	0.6
153.1102	0.6
154.0496	0.6

Name: N-Methylvaline
PrecursorMZ: 132.10187
RT: 4.6813
ExactMass: 131.094628657
Spectrum_type: 2
charge: 1
Formula: C6H13NO2
SMILES: CC(C)C(C(=O)O)NC
Method: HCD
Collision_energy: [28.333334]
Isolation_window: 4.0
Ion_mode: P
Num Peaks: 8
55.0547	10.3
60.0561	22.7
72.0812	2.8
73.0652	35.5
90.0916	27.5
132.1032	3.7
132.1131	100.0
133.1169	5.9

Name: N-Myristoyl Arginine
PrecursorMZ: 385.31697
RT: 1.5162
ExactMass: 384.31004115
Spectrum_type: 2
charge: 1
Formula: C20H40N4O3
SMILES: CCCCCCCCCCCCCC(=O)NC(CCCN=C(N)N)C(=O)O
Method: HCD
Collision_energy: [28.333334]
Isolation_window: 4.0
Ion_mode: P
Num Peaks: 10
96.0810	5.3
114.0915	6.8
209.1648	17.8
210.1683	2.0
226.1912	2.8
227.1754	10.0
322.2487	47.4
323.2519	9.8
340.2593	100.0
341.2626	20.2

Name: N-Nitrosopyrrolidine
PrecursorMZ: 101.07098
RT: 3.6366
ExactMass: 100.063662883
Spectrum_type: 2
charge: 1
Formula: C4H8N2O
SMILES: C1CCN(C1)N=O
Method: HCD
Collision_energy: [28.333334]
Isolation_window: 4.0
Ion_mode: P
Num Peaks: 45
55.0375	0.9
55.0545	0.4
56.0498	4.0
57.0450	2.9
58.0290	2.1
58.0484	1.0
58.0529	1.3
58.0654	3.4
59.0582	0.6
59.0607	100.0
59.0638	0.8
59.0755	0.5
60.0446	5.5
60.0559	2.1
60.0640	1.9
70.0653	1.0
71.0606	0.7
72.0446	1.6
72.0683	0.9
72.0810	1.0
81.0448	0.9
82.0419	1.3
82.0482	9.1
82.0652	4.4
83.0241	1.3
83.0605	1.2
83.0685	0.5
84.0683	0.6
84.0809	0.6
99.0552	6.6
99.0685	1.6
99.0745	8.5
99.0916	4.9
100.0391	0.8
100.0504	3.1
100.0586	0.6
100.0754	1.5
100.0868	1.3
100.0948	0.6
100.1120	0.6
101.0344	3.3
101.0708	5.4
101.1072	3.9
102.0913	0.6
102.1276	0.9

Name: N-Palmitoyldopamine
PrecursorMZ: 392.31548
RT: 7.114
ExactMass: 391.30864417
Spectrum_type: 2
charge: 1
Formula: C24H41NO3
SMILES: CCCCCCCCCCCCCCCC(=O)NCCC1=CC(=C(C=C1)O)O
Method: HCD
Collision_energy: [28.333334]
Isolation_window: 4.0
Ion_mode: P
Num Peaks: 18
81.0701	14.8
95.0856	12.8
107.0858	12.1
116.0705	14.1
135.1168	16.8
147.1167	14.3
149.0232	37.7
215.1791	14.3
247.1693	13.3
357.2782	72.1
358.2818	19.4
374.3048	100.0
375.3080	23.3
392.1333	16.3
392.3152	86.2
393.1049	13.8
393.3189	19.7
410.3256	24.7

Name: N-Palmitoylsphingomyelin
PrecursorMZ: 703.57462
RT: 4.736833333333333
ExactMass: 702.56757524
Spectrum_type: 2
charge: 1
Formula: C39H79N2O6P
SMILES: CCCCCCCCCCCCCCCC(=O)N[C@@H](COP(=O)([O-])OCC[N+](C)(C)C)[C@@H](/C=C/CCCCCCCCCCCCC)O
Method: HCD
Collision_energy: [28.333334]
Isolation_window: 4.0
Ion_mode: P
Num Peaks: 39
58.0654	0.3
59.0732	0.1
60.0812	2.1
71.0733	0.4
78.1756	0.2
86.0967	9.1
87.1001	0.4
98.9842	0.3
104.1072	1.4
120.0808	0.2
124.9999	4.4
164.0706	0.2
173.1285	0.6
182.0812	0.4
183.9921	0.3
184.0414	0.1
184.0468	0.1
184.0516	0.3
184.0564	0.8
184.0603	0.8
184.0667	1.7
184.0733	100.0
184.0905	0.5
184.0956	0.2
184.1004	0.1
184.1509	0.1
184.1583	0.1
185.0700	0.1
185.0766	4.0
186.0775	0.4
201.1232	0.2
207.1124	0.1
212.0910	0.1
264.2686	0.2
366.2021	0.2
685.5637	0.1
703.5744	5.2
704.5777	2.1
705.5888	1.8

Name: N-Phenyl diethanolamine
PrecursorMZ: 182.11757
RT: 5.7744
ExactMass: 181.110278721
Spectrum_type: 2
charge: 1
Formula: C10H15NO2
SMILES: C1=CC=C(C=C1)N(CCO)CCO
Method: HCD
Collision_energy: [28.333334]
Isolation_window: 4.0
Ion_mode: P
Num Peaks: 23
60.0812	1.2
83.0859	0.4
90.0553	1.2
91.0486	0.7
91.0545	100.0
91.0604	0.8
92.0578	6.7
96.9953	1.4
100.1122	1.0
120.0808	0.5
139.1231	0.5
164.0707	0.5
164.1070	1.1
180.1050	10.0
181.1055	0.8
181.1086	1.0
182.1024	0.7
182.1175	21.4
182.1902	7.5
183.0916	0.6
183.1208	2.3
183.1855	0.9
183.1935	1.0

Name: N-Phenyl-p-phenylenediamine
PrecursorMZ: 185.10726
RT: 5.8957
ExactMass: 184.100048391
Spectrum_type: 2
charge: 1
Formula: C12H12N2
SMILES: C1=CC=C(C=C1)NC2=CC=C(C=C2)N
Method: HCD
Collision_energy: [28.333334]
Isolation_window: 4.0
Ion_mode: P
Num Peaks: 24
70.0655	3.2
84.0447	6.4
92.0577	1.8
105.0701	1.8
116.0707	2.5
138.1278	3.5
144.0807	3.7
156.0812	1.8
167.0816	2.7
168.0765	3.6
168.0815	2.3
183.0916	13.6
183.1128	2.1
184.0769	1.8
184.0943	8.5
184.1331	11.7
185.0712	2.4
185.0922	2.8
185.1072	100.0
185.1283	1.6
186.0869	8.5
186.1106	13.0
186.1487	2.7
187.0859	2.5

Name: N-Phenylglycine
PrecursorMZ: 152.0706
RT: 5.5686
ExactMass: 151.06332853
Spectrum_type: 2
charge: 1
Formula: C8H9NO2
SMILES: C1=CC=C(C=C1)NCC(=O)O
Method: HCD
Collision_energy: [28.333334]
Isolation_window: 4.0
Ion_mode: P
Num Peaks: 12
89.0599	4.7
93.0573	2.5
95.0605	10.9
106.0652	9.4
112.0870	4.5
150.0913	3.9
151.0612	3.4
152.0704	100.0
153.0406	2.7
153.0660	3.6
153.0737	9.7
154.0973	7.2

Name: N-Stearoyl Threonine
PrecursorMZ: 386.32545
RT: 5.9704
ExactMass: 385.31920885
Spectrum_type: 2
charge: 1
Formula: C22H43NO4
SMILES: CCCCCCCCCCCCCCCCCC(=O)NC(C(C)O)C(=O)O
Method: HCD
Collision_energy: [28.333334]
Isolation_window: 4.0
Ion_mode: P
Num Peaks: 3
216.1951	5.5
386.3252	100.0
387.3286	23.2

Name: N-Tert-butyl-1'-(4,5,6,7-tetrahydro-1H-indazole-3-carbonyl)-4,5-dihydrospiro(1,4-benzodiazepine-3,3'-pyrrolidin)-2-amine
PrecursorMZ: 421.27079
RT: 1.1646333333333334
ExactMass: 420.26375967
Spectrum_type: 2
charge: 1
Formula: C24H32N6O
SMILES: CC(C)(C)N=C1C2(CCN(C2)C(=O)C3=NNC4=C3CCCC4)NCC5=CC=CC=C5N1
Method: HCD
Collision_energy: [28.333334]
Isolation_window: 4.0
Ion_mode: P
Num Peaks: 6
146.0809	11.8
420.2546	17.3
420.2815	19.7
421.2707	100.0
422.2738	23.7
422.3253	31.7

Name: N-Trans-Feruloyloctopamine
PrecursorMZ: 312.12306
RT: 3.0101
ExactMass: 329.12632271
Spectrum_type: 2
charge: 1
Formula: C18H19NO5
SMILES: COC1=C(C=CC(=C1)/C=C/C(=O)NCC(C2=CC=C(C=C2)O)O)O
Method: HCD
Collision_energy: [28.333334]
Isolation_window: 4.0
Ion_mode: P
Num Peaks: 10
120.0809	7.7
135.0441	7.9
145.0285	20.9
161.0963	6.3
177.0547	100.0
178.0582	11.2
311.1624	6.5
312.1224	14.0
312.3622	11.4
313.1545	4.2

Name: N-Valylphenylalanine
PrecursorMZ: 265.15438
RT: 4.6062
ExactMass: 264.1473925
Spectrum_type: 2
charge: 1
Formula: C14H20N2O3
SMILES: CC(C)C(C(=O)NC(CC1=CC=CC=C1)C(=O)O)N
Method: HCD
Collision_energy: [28.333334]
Isolation_window: 4.0
Ion_mode: P
Num Peaks: 21
55.0547	1.2
72.0778	0.5
72.0811	100.0
72.0853	0.7
73.0844	3.8
118.0863	1.2
120.0807	50.7
121.0841	3.9
136.0755	0.5
166.0861	15.6
167.0894	1.4
219.1487	2.3
264.0868	0.6
264.1222	0.7
265.1174	1.0
265.1308	1.6
265.1540	11.6
266.1006	0.7
266.1376	0.7
266.1535	0.7
266.1571	1.6

Name: N-acetyl-D-tryptophan
PrecursorMZ: 247.1074
RT: 6.1599
ExactMass: 246.10044231
Spectrum_type: 2
charge: 1
Formula: C13H14N2O3
SMILES: CC(=O)N[C@H](CC1=CNC2=CC=CC=C21)C(=O)O
Method: HCD
Collision_energy: [28.333334]
Isolation_window: 4.0
Ion_mode: P
Num Peaks: 47
74.0239	2.4
83.0494	2.8
86.0966	13.6
100.0216	3.2
100.0757	4.0
102.0550	2.7
128.0706	3.3
130.0649	8.7
132.0806	5.3
132.1019	4.3
135.0106	2.5
144.0805	10.1
146.0267	5.5
146.0599	8.3
147.0762	3.5
156.0806	100.0
157.0839	10.1
158.0962	2.3
159.0914	3.0
160.0755	4.7
168.0805	4.1
170.0598	10.2
174.0911	22.9
182.0808	3.3
182.1173	3.4
183.0914	2.4
184.0755	8.5
188.0702	21.4
190.9767	2.9
200.1278	6.8
201.1021	3.1
202.0859	8.1
203.0811	3.8
212.0702	4.7
228.1228	5.2
229.0967	10.7
230.0807	29.3
230.1010	2.6
231.0848	4.4
246.0763	3.5
246.0975	3.9
246.1332	6.1
247.1072	19.8
248.0581	2.3
248.0914	4.5
248.1119	4.0
249.0864	2.5

Name: N-acetyl-DL-aspartic acid
PrecursorMZ: 176.05527
RT: 8.0495
ExactMass: 175.04807239
Spectrum_type: 2
charge: 1
Formula: C6H9NO5
SMILES: CC(=O)NC(CC(=O)O)C(=O)O
Method: HCD
Collision_energy: [28.333334]
Isolation_window: 4.0
Ion_mode: P
Num Peaks: 12
74.0239	18.9
88.0395	90.0
105.0006	17.5
116.0343	30.9
128.0705	10.7
130.0499	15.6
130.0861	14.2
130.1226	9.4
134.0447	100.0
174.1123	13.1
176.0915	23.1
178.0862	10.1

Name: N-acetyl-L-ornithine
PrecursorMZ: 175.10769
RT: 4.4112
ExactMass: 174.10044231
Spectrum_type: 2
charge: 1
Formula: C7H14N2O3
SMILES: CC(=O)NC(CCCN)C(=O)O
Method: HCD
Collision_energy: [28.333334]
Isolation_window: 4.0
Ion_mode: P
Num Peaks: 27
70.0656	34.8
84.0811	2.1
86.0968	2.2
112.0759	2.1
113.0712	48.8
114.0552	7.7
114.0746	2.3
115.0868	21.7
116.0708	12.4
128.1071	5.6
129.1023	2.9
130.0976	2.3
141.0659	2.1
158.0814	5.3
159.0765	100.0
160.0803	6.6
175.1075	1.6
176.1035	7.5
178.1226	1.7
180.1024	4.7
182.1168	1.9
187.1805	26.6
188.1842	3.4
189.1240	1.7
191.1180	1.8
194.1177	4.1
197.0554	3.1

Name: N-acetyl-L-threonine
PrecursorMZ: 162.07612
RT: 8.1983
ExactMass: 161.06880783
Spectrum_type: 2
charge: 1
Formula: C6H11NO4
SMILES: C[C@H]([C@@H](C(=O)O)NC(=O)C)O
Method: HCD
Collision_energy: [28.333334]
Isolation_window: 4.0
Ion_mode: P
Num Peaks: 24
56.0499	0.8
70.0655	0.7
76.0397	2.3
84.0447	23.4
87.0443	12.2
98.0602	19.6
99.0635	0.8
102.0551	100.0
102.0621	0.7
103.0585	3.6
114.0915	0.7
116.0708	10.6
116.1072	1.3
126.0549	1.7
130.0499	2.8
144.0655	3.7
145.0496	0.9
160.0758	0.7
160.0968	0.8
160.9015	2.4
162.0761	28.4
162.1124	1.3
163.0503	1.4
163.0795	1.5

Name: N-acetyl-alpha-D-galactosamine
PrecursorMZ: 204.08655
RT: 7.3994
ExactMass: 221.0899372
Spectrum_type: 2
charge: 1
Formula: C8H15NO6
SMILES: CC(=O)N[C@@H]1[C@H]([C@H]([C@H](O[C@@H]1O)CO)O)O
Method: HCD
Collision_energy: [28.333334]
Isolation_window: 4.0
Ion_mode: P
Num Peaks: 46
60.0449	7.4
84.0447	15.6
87.0444	1.3
96.0446	6.1
97.0286	5.0
97.3993	1.5
98.0602	6.6
99.0442	1.3
108.0445	2.3
109.0286	2.8
114.0551	1.4
114.0664	3.3
116.0708	1.2
118.0652	1.8
126.0550	38.7
127.0389	2.4
127.0583	2.3
132.0810	3.3
138.0549	87.6
139.0582	6.3
142.0498	1.9
143.0644	1.8
144.0655	29.5
144.0808	7.4
145.0689	1.8
146.0600	52.9
147.0633	1.8
158.1176	1.2
159.0918	7.2
162.0550	6.9
168.0655	13.1
170.0600	2.4
184.0603	1.7
186.0761	6.8
188.0342	3.5
188.0705	100.0
189.0740	4.8
202.1800	1.3
203.0816	2.1
204.0653	1.4
204.0864	5.1
205.0971	1.8
206.0246	3.4
206.0453	4.3
206.0548	2.7
206.0815	1.3

Name: N-acetyl-beta-D-galactosamine
PrecursorMZ: 204.08648
RT: 6.6337
ExactMass: 221.0899372
Spectrum_type: 2
charge: 1
Formula: C8H15NO6
SMILES: CC(=O)N[C@@H]1[C@H]([C@H]([C@H](O[C@H]1O)CO)O)O
Method: HCD
Collision_energy: [28.333334]
Isolation_window: 4.0
Ion_mode: P
Num Peaks: 24
60.0448	14.4
84.0446	47.6
96.0445	18.5
97.0285	10.8
98.0601	18.4
109.0284	4.3
111.0441	7.1
116.0707	6.7
126.0548	100.0
127.0388	5.5
127.0582	7.4
138.0548	75.7
139.0581	5.3
144.0653	61.1
157.0758	5.2
158.1174	3.6
168.0653	13.3
186.0758	12.4
202.1072	5.2
203.0809	6.6
204.0652	12.1
204.0861	11.6
204.1011	4.3
205.0968	7.4

Name: N-acetylcadaverine Oxaloacetic acid (known isomers: 0; isobaric peaks in run: 3)
PrecursorMZ: 261.14374
RT: 7.9509
Spectrum_type: 2
charge: 1
SMILES: CC(=O)NCCCCCNC(CC(=O)O)C(=O)O
Method: HCD
Collision_energy: [28.333334]
Isolation_window: 4.0
Ion_mode: P
Num Peaks: 8
84.0808	38.9
110.0963	26.4
130.0859	26.8
156.1014	23.2
197.1281	13.2
215.1382	100.0
219.1335	12.7
261.1435	85.0

Name: N-acetylhomoproline
PrecursorMZ: 172.09658
RT: 3.5607
ExactMass: 171.08954328
Spectrum_type: 2
charge: 1
Formula: C8H13NO3
SMILES: CC(=O)N1CCCC1CC(=O)O
Method: HCD
Collision_energy: [28.333334]
Isolation_window: 4.0
Ion_mode: P
Num Peaks: 20
70.0654	25.5
72.0810	100.0
84.0809	23.9
98.0601	15.4
112.0756	51.2
114.0912	87.7
124.0755	20.8
126.0911	70.2
130.0860	50.7
131.1176	44.2
153.0655	41.4
154.0858	31.1
156.0401	28.4
156.0638	67.2
170.0800	14.7
171.0873	47.3
171.0921	25.1
172.0964	75.6
173.0707	34.8
173.0913	18.4

Name: N-acetylmuramic acid
PrecursorMZ: 294.11824
RT: 7.5518
ExactMass: 293.11106656
Spectrum_type: 2
charge: 1
Formula: C11H19NO8
SMILES: C[C@H](C(=O)O)O[C@H]([C@H](C=O)NC(=O)C)[C@@H]([C@@H](CO)O)O
Method: HCD
Collision_energy: [28.333334]
Isolation_window: 4.0
Ion_mode: P
Num Peaks: 72
55.0547	2.9
60.0449	45.5
69.0339	9.7
70.0656	4.9
80.0498	5.1
81.0338	7.5
82.0655	3.4
83.0494	15.5
84.0447	12.0
84.0811	3.0
86.0604	2.8
96.0446	3.8
98.0602	9.0
99.0443	5.0
101.0600	6.1
102.0551	10.0
110.0602	56.3
111.0442	39.5
111.0635	3.1
112.0758	5.6
114.0551	8.5
116.0708	5.8
117.0547	2.8
121.0286	4.5
126.0550	11.3
128.0706	27.4
129.0547	14.6
136.0392	3.4
138.0549	35.4
139.0583	3.0
140.0705	3.2
144.0655	9.1
146.0812	13.5
149.0711	2.8
152.0706	16.7
164.0917	7.6
168.0656	6.7
170.0812	12.6
176.0819	3.7
178.0863	3.1
179.0816	2.9
186.0761	9.2
188.0917	51.2
189.0951	3.7
206.1022	44.4
207.1057	3.4
230.1022	25.0
234.0971	7.0
248.1130	34.6
249.1159	4.1
252.1077	19.9
258.0972	4.8
276.1077	100.0
277.1107	12.1
278.1014	3.5
278.1137	3.6
292.1169	5.2
292.1406	5.5
293.1139	5.5
293.1253	7.6
293.1489	16.4
294.0978	3.8
294.1181	53.5
294.1333	11.5
294.1518	3.0
294.1676	10.3
295.1273	9.7
295.1640	12.7
296.1107	21.5
296.1250	6.4
296.1475	7.3
296.1857	2.9

Name: N-acetylornithine
PrecursorMZ: 175.10771
RT: 4.543
ExactMass: 174.10044231
Spectrum_type: 2
charge: 1
Formula: C7H14N2O3
SMILES: CC(=O)N[C@@H](CCCN)C(=O)O
Method: HCD
Collision_energy: [28.333334]
Isolation_window: 4.0
Ion_mode: P
Num Peaks: 38
60.0560	1.0
60.0812	0.7
70.0654	48.9
71.0494	2.2
71.0688	1.3
86.0603	0.8
87.0919	0.6
97.0761	1.5
101.0597	0.9
112.0758	1.6
113.0710	63.9
114.0550	10.6
114.0743	2.6
115.0866	22.2
116.0455	0.8
116.0706	11.9
116.0899	1.0
117.0545	0.8
117.0740	0.6
130.0974	5.6
133.0970	1.4
134.0810	0.8
139.0864	1.0
140.1069	0.9
141.0656	2.4
142.0497	1.3
157.0970	1.5
158.0810	4.2
159.0624	0.7
159.0763	100.0
159.0868	0.5
159.0900	0.7
160.0795	5.3
174.1122	1.4
175.1075	1.3
176.1027	11.2
176.1278	5.2
176.8751	0.6

Name: N-benzyl-4-(3-(((1-methylpiperidin-4-yl)amino)methyl)phenyl)benzenesulfonamide
PrecursorMZ: 450.22275
RT: 5.4247
ExactMass: 449.21369841
Spectrum_type: 2
charge: 1
Formula: C26H31N3O2S
SMILES: CN1CCC(CC1)NCC2=CC(=CC=C2)C3=CC=C(C=C3)S(=O)(=O)NCC4=CC=CC=C4
Method: HCD
Collision_energy: [28.333334]
Isolation_window: 4.0
Ion_mode: P
Num Peaks: 15
50.0250	5.4
70.0654	11.4
72.0811	5.1
83.0856	5.5
126.0912	7.7
263.1385	6.7
264.1101	4.6
279.1335	5.4
289.1174	12.4
307.1282	56.4
308.1320	7.7
432.2119	66.6
433.2156	16.5
450.2226	100.0
451.2270	29.3

Name: N-butyl-N-ethyl-4-(5-methyl-1,3,4-oxadiazol-2-yl)furan-2-sulfonamide
PrecursorMZ: 314.11685
RT: 5.3195
ExactMass: 313.10962727
Spectrum_type: 2
charge: 1
Formula: C13H19N3O4S
SMILES: CCCCN(CC)S(=O)(=O)C1=CC(=CO1)C2=NN=C(O2)C
Method: HCD
Collision_energy: [28.333334]
Isolation_window: 4.0
Ion_mode: P
Num Peaks: 24
84.0812	6.6
111.0267	12.3
112.0761	22.7
114.0918	4.4
126.0375	6.6
128.0531	13.6
152.0168	10.9
154.0326	4.0
169.0432	3.2
170.1180	3.8
171.0591	6.0
176.8756	11.6
236.0746	3.9
246.0879	3.0
251.0852	34.7
252.0891	3.9
312.3627	17.5
313.1184	4.0
313.1761	4.8
313.3671	4.7
314.1171	100.0
315.1196	14.7
315.1926	5.4
316.1177	11.8

Name: N-cyclopentyl-2-(5-(2-methyl-2,3-dihydrobenzofuran-5-yl)isoxazol-3-yl)acetamide
PrecursorMZ: 327.1702
RT: 6.1532
ExactMass: 326.16304257
Spectrum_type: 2
charge: 1
Formula: C19H22N2O3
SMILES: CC1CC2=C(O1)C=CC(=C2)C3=CC(=NO3)CC(=O)NC4CCCC4
Method: HCD
Collision_energy: [28.333334]
Isolation_window: 4.0
Ion_mode: P
Num Peaks: 83
55.0546	1.3
57.0704	1.0
70.0656	5.1
72.0812	1.4
80.0499	63.2
81.0338	1.0
81.0532	3.1
83.0495	3.3
84.0812	1.1
86.0967	1.6
98.9844	1.2
101.0600	1.2
105.0701	55.6
106.0734	5.0
114.0552	1.3
114.0916	2.1
116.0708	1.9
120.0809	23.8
121.0842	1.6
131.0492	0.9
139.0868	1.1
140.0531	0.8
141.1023	3.9
146.0601	23.1
147.0633	1.7
154.1229	0.9
163.0867	1.6
164.0708	1.7
166.0864	9.7
167.0898	0.9
168.0478	1.8
183.1495	0.9
188.0706	2.2
192.0655	5.5
204.1382	1.2
209.1282	1.0
211.1080	0.9
211.1444	0.9
213.1236	2.3
220.0288	5.8
228.1383	4.6
229.0972	1.0
229.1549	0.9
256.0818	0.9
260.0918	1.2
278.1022	3.3
281.1647	2.1
290.1025	2.4
308.1123	1.7
325.1551	2.6
325.1916	1.2
326.0371	1.2
326.1019	0.9
326.1222	2.9
326.1393	1.5
326.1552	1.4
326.1609	1.3
326.1881	1.3
326.2114	66.0
327.1347	3.8
327.1704	100.0
327.2018	1.0
327.2054	2.3
327.2111	1.4
327.2144	14.7
327.2279	1.2
328.0532	4.0
328.1174	1.7
328.1331	12.6
328.1365	3.8
328.1542	1.4
328.1726	19.4
328.1908	15.3
328.2171	1.3
328.2228	1.5
328.2265	0.9
329.1332	1.2
329.1488	2.5
329.1517	1.2
329.1689	1.0
329.1740	1.1
329.1899	1.3
329.1951	2.0

Name: N-cyclopentyl-2-(6-methyl-2,4-dioxo-1,3-diazaspiro(4.5)decan-3-yl)acetamide
PrecursorMZ: 308.19648
RT: 7.6194
ExactMass: 307.18959167
Spectrum_type: 2
charge: 1
Formula: C16H25N3O3
SMILES: CC1CCCCC12C(=O)N(C(=O)N2)CC(=O)NC3CCCC3
Method: HCD
Collision_energy: [28.333334]
Isolation_window: 4.0
Ion_mode: P
Num Peaks: 24
71.0494	3.1
84.0810	46.2
85.0651	4.3
85.0844	3.1
86.0967	3.7
88.0759	5.0
100.0757	3.4
102.0914	3.6
109.0761	9.8
130.0862	67.5
131.0895	3.2
154.0863	2.6
154.1225	3.8
176.8751	3.0
200.1279	8.6
207.1127	5.0
307.1257	2.6
307.1641	12.7
307.2010	26.8
308.1963	100.0
309.1441	2.5
309.1801	10.5
309.1993	14.7
309.2168	3.5

Name: N-ethyl-2-pyrrolidone
PrecursorMZ: 114.09143
RT: 9.1727
ExactMass: 113.084063974
Spectrum_type: 2
charge: 1
Formula: C6H11NO
SMILES: CCN1CCCC1=O
Method: HCD
Collision_energy: [28.333334]
Isolation_window: 4.0
Ion_mode: P
Num Peaks: 13
58.0655	6.7
69.0338	38.6
69.5806	1.6
70.0371	1.5
70.0654	49.6
71.0494	16.3
79.0544	1.6
86.0602	2.4
86.0966	2.5
97.4576	1.5
114.0913	100.0
115.0946	6.7
116.0705	12.1

Name: N-ethyl-3-methylaniline
PrecursorMZ: 136.11203
RT: 7.4949
ExactMass: 135.104799419
Spectrum_type: 2
charge: 1
Formula: C9H13N
SMILES: CCNC1=CC=CC(=C1)C
Method: HCD
Collision_energy: [28.333334]
Isolation_window: 4.0
Ion_mode: P
Num Peaks: 23
57.0703	2.9
80.0497	16.7
81.0530	0.9
96.0445	1.0
107.0730	12.7
108.0808	1.3
109.0760	0.8
110.0600	0.7
121.0885	2.1
134.0962	10.9
135.0915	1.2
135.0996	3.2
136.0214	5.6
136.0621	1.2
136.0756	1.8
136.1011	0.7
136.1119	100.0
136.1227	0.7
137.0708	1.2
137.1071	7.4
137.1152	10.1
138.0547	1.5
138.0911	6.3

Name: N-hexanoyl-d,l-homoserine
PrecursorMZ: 218.13845
RT: 8.6834
ExactMass: 217.13140809
Spectrum_type: 2
charge: 1
Formula: C10H19NO4
SMILES: CCCCCC(=O)NC(CCO)C(=O)O
Method: HCD
Collision_energy: [28.333334]
Isolation_window: 4.0
Ion_mode: P
Num Peaks: 65
55.0546	2.3
56.0499	0.5
59.0495	0.9
59.0608	0.4
60.0812	3.1
74.0603	2.8
83.0494	3.0
84.0447	0.3
84.0810	0.6
85.0286	1.3
90.0550	0.4
95.0606	0.9
98.0601	0.7
100.0758	5.8
101.0598	29.8
102.0631	1.3
102.0914	0.3
104.1070	2.8
110.0601	1.6
112.0757	1.7
114.0550	0.6
116.0707	0.2
118.0862	9.0
119.0603	0.6
119.0896	0.4
122.0712	0.3
126.0912	1.0
128.0706	0.5
133.0758	0.2
138.0912	6.5
139.0946	0.6
140.0704	0.3
140.1067	0.4
154.0861	0.3
154.1225	4.6
155.1259	0.4
156.1018	0.8
158.0810	10.4
159.0650	2.3
159.0844	0.8
160.0603	5.0
172.0966	0.7
172.1330	0.7
182.1173	14.5
182.1536	0.4
183.1208	1.4
200.1278	0.4
200.1645	0.3
217.0967	0.8
217.1176	1.5
217.1542	1.3
218.0809	1.5
218.0921	0.4
218.1022	1.8
218.1169	1.9
218.1205	0.5
218.1383	100.0
218.1558	0.6
218.1602	0.7
218.1736	0.3
219.1123	2.6
219.1329	2.7
219.1418	10.4
220.0967	0.6
220.1184	1.4

Name: N-hydroxypipecolic acid
PrecursorMZ: 146.08112
RT: 6.0941
ExactMass: 145.07389321
Spectrum_type: 2
charge: 1
Formula: C6H11NO3
SMILES: C1CCN(C(C1)C(=O)O)O
Method: HCD
Collision_energy: [28.333334]
Isolation_window: 4.0
Ion_mode: P
Num Peaks: 13
56.0498	5.5
74.0604	28.0
82.0654	8.0
84.0447	65.7
85.0399	5.6
98.0603	6.8
100.0758	9.2
110.0601	22.1
128.0706	14.7
145.0759	9.0
146.0599	27.5
146.0811	100.0
147.0845	7.6

Name: N-lactoyl-phenylalanine
PrecursorMZ: 238.10721
RT: 9.2228
ExactMass: 237.10010796
Spectrum_type: 2
charge: 1
Formula: C12H15NO4
SMILES: C[C@@H](C(=O)N[C@@H](CC1=CC=CC=C1)C(=O)O)O
Method: HCD
Collision_energy: [28.333334]
Isolation_window: 4.0
Ion_mode: P
Num Peaks: 41
55.0547	2.5
70.0655	2.8
81.0338	2.0
83.0493	1.8
89.0598	1.8
101.0599	6.5
116.0706	2.1
120.0808	7.3
121.0886	8.1
136.0757	3.3
137.1074	2.6
138.0913	9.3
139.0865	2.3
148.0758	4.9
158.0811	2.9
166.0863	11.2
191.1179	12.9
192.1021	2.2
192.1210	1.8
193.1332	2.2
210.1123	3.5
236.0912	3.8
236.1108	13.5
236.1277	42.0
236.1484	2.3
237.0856	2.2
237.1230	100.0
237.1595	10.1
238.1073	97.4
238.1172	2.6
238.1269	14.1
238.1433	30.4
238.1544	1.7
239.1117	11.6
239.1384	32.8
239.1747	1.9
240.0875	2.1
240.1226	9.2
240.1336	2.5
240.1427	1.9
240.1589	11.2

Name: N-methyl-2-pyrrolidone
PrecursorMZ: 100.07586
RT: 2.4231
ExactMass: 99.068413911
Spectrum_type: 2
charge: 1
Formula: C5H9NO
SMILES: CN1CCCC1=O
Method: HCD
Collision_energy: [28.333334]
Isolation_window: 4.0
Ion_mode: P
Num Peaks: 16
55.0546	0.8
56.0499	11.3
57.0532	0.5
71.0494	1.7
72.0811	1.7
80.0497	0.9
82.0653	4.3
97.4551	0.5
98.0601	3.5
98.9842	6.1
99.0441	1.7
99.0554	0.5
100.0689	0.6
100.0757	100.0
100.0826	0.6
101.0791	5.0

Name: N-methyl-L-glutamic acid
PrecursorMZ: 162.07605
RT: 9.1968
ExactMass: 161.06880783
Spectrum_type: 2
charge: 1
Formula: C6H11NO4
SMILES: CN[C@@H](CCC(=O)O)C(=O)O
Method: HCD
Collision_energy: [28.333334]
Isolation_window: 4.0
Ion_mode: P
Num Peaks: 15
60.0812	18.0
70.0655	16.3
84.0446	18.3
85.0286	7.2
98.0601	19.9
100.0244	11.7
102.0550	27.5
103.0390	20.9
105.0335	11.3
116.0706	75.6
144.0653	11.8
162.0548	9.6
162.0759	60.6
162.1123	100.0
163.1157	7.0

Name: N-methyl-L-histidine
PrecursorMZ: 170.09225
RT: 5.26875
ExactMass: 169.085126602
Spectrum_type: 2
charge: 1
Formula: C7H11N3O2
SMILES: CN[C@@H](CC1=CN=CN1)C(=O)O
Method: HCD
Collision_energy: [28.333334]
Isolation_window: 4.0
Ion_mode: P
Num Peaks: 38
57.0451	1.5
58.0655	6.5
70.0655	0.7
72.0447	0.8
72.0811	1.0
74.0716	11.4
82.0654	1.0
86.0603	2.5
89.0712	0.9
96.0446	0.8
97.0286	1.8
100.0758	35.7
101.0792	1.7
110.0601	5.7
112.0506	10.7
114.0550	0.8
124.0757	0.8
125.0709	0.7
126.0913	4.0
127.0865	1.1
128.0705	1.8
142.0974	1.4
152.0710	1.2
152.0817	7.6
154.0862	0.9
168.0691	3.9
168.1020	1.1
169.0610	1.1
169.0763	5.3
170.0803	1.6
170.0923	100.0
170.1077	0.7
170.1172	1.0
171.0890	0.9
171.0956	7.0
171.1125	0.6
171.1491	1.5
172.0967	1.5

Name: N-methyl-L-tryptophan
PrecursorMZ: 219.1126
RT: 6.757722222222222
ExactMass: 218.105527694
Spectrum_type: 2
charge: 1
Formula: C12H14N2O2
SMILES: CN[C@@H](CC1=CNC2=CC=CC=C21)C(=O)O
Method: HCD
Collision_energy: [28.333334]
Isolation_window: 4.0
Ion_mode: P
Num Peaks: 43
70.0500	2.3
84.0447	2.9
86.0602	1.8
88.0395	24.0
97.0285	1.8
98.0602	2.7
99.0442	1.8
100.0757	11.5
101.0598	1.7
101.0710	1.9
112.0757	2.5
118.0651	2.4
126.0549	2.8
128.0704	1.9
132.0806	75.7
133.0839	7.1
140.0702	2.5
144.0654	4.2
144.0805	7.6
146.0599	39.8
147.0633	2.6
148.0615	2.4
152.0705	5.1
154.0862	2.7
158.0810	1.8
161.0959	3.6
172.0966	6.8
173.1070	3.4
174.0760	2.5
182.0809	3.5
184.0967	1.9
188.0703	100.0
189.0736	11.9
191.0696	3.0
200.0914	2.6
200.1281	2.8
202.1070	10.7
218.0805	3.6
218.1019	10.0
219.1125	9.5
219.1375	2.4
220.0967	2.7
220.1182	26.7

Name: N-methyl-N-(2-(pyridin-4-yl)ethyl)-3-(trifluoromethyl)-(1,2,4)triazolo(4,3-b)pyridazin-6-amine
PrecursorMZ: 323.12303
RT: 4.029
Spectrum_type: 2
charge: 1
SMILES: CN(CCc1ccncc1)c1nn2c(C(F)(F)F)nnc2cc1
Method: HCD
Collision_energy: [28.333334]
Isolation_window: 4.0
Ion_mode: P
Num Peaks: 8
95.0492	98.2
111.0439	100.0
263.1019	41.0
270.0754	28.6
288.0856	31.3
322.1269	31.9
323.1592	18.0
324.1422	32.5

Name: N-methyl-N-phenyl-3-(3,4,5-trimethoxyphenyl)-4,5-dihydro-1,2-oxazole-5-carboxamide
PrecursorMZ: 393.14175
RT: 4.971
ExactMass: 370.15287181
Spectrum_type: 2
charge: 1
Formula: C20H22N2O5
SMILES: CN(C1=CC=CC=C1)C(=O)C2CC(=NO2)C3=CC(=C(C(=C3)OC)OC)OC
Method: HCD
Collision_energy: [28.333334]
Isolation_window: 4.0
Ion_mode: P
Num Peaks: 7
89.0599	4.4
95.0858	3.0
149.0232	5.3
155.0102	3.4
393.1415	100.0
394.1455	21.4
395.1409	6.7

Name: N-oleoyl leucine
PrecursorMZ: 396.34697
RT: 1.1897
ExactMass: 395.3399443
Spectrum_type: 2
charge: 1
Formula: C24H45NO3
SMILES: CCCCCCCC/C=C\CCCCCCCC(=O)N[C@@H](CC(C)C)C(=O)O
Method: HCD
Collision_energy: [28.333334]
Isolation_window: 4.0
Ion_mode: P
Num Peaks: 6
86.0967	100.0
132.1018	97.9
133.1053	4.9
350.3407	6.2
396.3464	20.2
397.3500	5.9

Name: N-oleoyl phenylalanine
PrecursorMZ: 430.33084
RT: 0.9906
ExactMass: 429.32429423
Spectrum_type: 2
charge: 1
Formula: C27H43NO3
SMILES: CCCCCCCC/C=C\CCCCCCCC(=O)N[C@@H](CC1=CC=CC=C1)C(=O)O
Method: HCD
Collision_energy: [28.333334]
Isolation_window: 4.0
Ion_mode: P
Num Peaks: 35
57.0703	2.0
69.0701	2.0
69.0932	1.8
69.0953	2.4
71.0858	2.7
73.0471	7.1
81.0700	2.3
83.0856	2.9
91.0575	20.8
95.0856	2.2
97.1012	2.1
97.4564	2.3
109.1012	1.9
120.0807	100.0
121.0840	7.2
131.0491	2.2
149.0445	2.3
149.0594	2.2
151.0752	1.8
165.0908	6.0
166.0860	83.5
167.0552	8.4
167.0700	4.8
167.0894	5.3
342.9965	1.8
359.0276	12.9
360.0279	4.8
361.0249	2.5
384.3256	1.7
429.0879	7.1
429.3723	2.3
430.0882	4.0
430.3307	10.4
431.0859	1.9
431.3542	6.0

Name: N-pentylheptadecanamide
PrecursorMZ: 340.35708
RT: 5.2957
ExactMass: 339.350115059
Spectrum_type: 2
charge: 1
Formula: C22H45NO
SMILES: CCCCCCCCCCCCCCCCC(=O)NCCCCC
Method: HCD
Collision_energy: [28.333334]
Isolation_window: 4.0
Ion_mode: P
Num Peaks: 25
57.0702	3.7
70.0654	7.7
71.0494	3.8
72.0811	5.4
86.0966	8.2
95.0857	4.1
116.0707	4.9
140.0340	6.5
155.1429	38.0
164.0704	7.5
164.1070	3.7
166.1224	7.4
180.0652	4.7
182.0808	7.3
186.2212	8.1
222.1119	9.8
339.1530	8.5
339.3438	4.9
340.0297	3.6
340.3566	100.0
341.1306	4.2
341.1703	5.8
341.3602	22.3
342.1678	4.4
342.3729	10.5

Name: N-pentylundecanamide
PrecursorMZ: 256.26321
RT: 5.2091
ExactMass: 255.256214676
Spectrum_type: 2
charge: 1
Formula: C16H33NO
SMILES: CCCCCCCCCCC(=O)NCCCCC
Method: HCD
Collision_energy: [28.333334]
Isolation_window: 4.0
Ion_mode: P
Num Peaks: 28
55.0546	17.0
57.0703	17.3
67.0546	64.0
69.0702	41.9
69.3459	22.1
69.8909	13.5
70.0654	18.4
81.0701	67.4
83.0858	57.0
95.0856	100.0
97.1012	24.9
109.1012	70.8
112.0756	18.7
123.1168	15.7
127.0388	23.3
227.1751	19.3
238.1068	15.6
238.2525	57.7
240.2681	55.2
254.2837	50.8
255.1327	23.1
255.1698	29.4
255.2872	23.8
256.1180	34.9
256.2629	76.3
257.0916	13.5
258.1113	15.1
258.2790	15.1

Name: N1,N8-Diacetylspermidine
PrecursorMZ: 230.18596
RT: 4.5348
ExactMass: 229.17902698
Spectrum_type: 2
charge: 1
Formula: C11H23N3O2
SMILES: CC(=O)NCCCCNCCCNC(=O)C
Method: HCD
Collision_energy: [28.333334]
Isolation_window: 4.0
Ion_mode: P
Num Peaks: 11
72.0449	1.6
100.0759	100.0
101.0792	5.2
114.0916	9.8
131.1183	1.4
171.1494	1.2
212.1756	1.2
213.1599	5.3
230.1863	85.8
231.1895	11.0
232.1914	1.1

Name: N2-(5-chloro-2-methylphenyl)-N4-(4-methoxyphenyl)-6-morpholino-1,3,5-triazine-2,4-diamine
PrecursorMZ: 427.16456
RT: 9.9259
ExactMass: 426.1571017
Spectrum_type: 2
charge: 1
Formula: C21H23ClN6O2
SMILES: CC1=C(C=C(C=C1)Cl)NC2=NC(=NC(=N2)NC3=CC=C(C=C3)OC)N4CCOCC4
Method: HCD
Collision_energy: [28.333334]
Isolation_window: 4.0
Ion_mode: P
Num Peaks: 28
89.0601	5.7
103.0392	2.3
107.0608	1.8
122.0715	100.0
123.0744	6.0
124.0872	7.2
133.0865	3.7
134.0714	20.0
136.0869	3.0
140.0817	1.8
144.0482	3.3
146.0713	4.2
150.0662	7.7
160.0872	3.9
164.0821	45.0
165.0857	4.0
176.0820	2.5
180.0772	1.7
206.0929	3.9
218.0926	4.2
230.0936	1.8
248.1038	4.6
266.1138	15.4
284.1242	39.5
285.1270	6.7
415.2567	1.8
427.1652	8.5
428.1697	2.4

Name: N2-Acetyl-DL-lysine
PrecursorMZ: 189.12317
RT: 9.1962
ExactMass: 188.11609238
Spectrum_type: 2
charge: 1
Formula: C8H16N2O3
SMILES: CC(=O)NC(CCCCN)C(=O)O
Method: HCD
Collision_energy: [28.333334]
Isolation_window: 4.0
Ion_mode: P
Num Peaks: 41
60.0448	4.0
70.0654	14.1
74.0239	2.5
84.0810	72.9
85.0650	14.6
85.0843	4.0
102.0914	5.7
113.0599	2.3
113.0709	8.1
116.0705	2.4
119.9750	4.7
126.0912	55.2
127.0864	9.0
127.0942	3.6
129.1021	88.0
130.0861	100.0
130.1052	5.7
131.0894	5.8
142.0861	7.6
142.1224	4.5
144.1017	4.4
144.1130	2.6
146.0598	2.7
147.1125	4.6
153.1020	6.1
154.0861	9.2
165.0211	2.5
170.0810	3.6
171.1125	13.8
172.0965	40.8
173.0919	20.5
173.0998	3.8
179.9594	3.0
188.0913	4.8
188.1277	12.5
189.0862	2.7
189.1231	17.3
190.0857	3.0
190.1070	6.8
190.1181	6.7
190.1432	5.5

Name: N5-(1-iminoethyl)-L-ornithine
PrecursorMZ: 174.12358
RT: 10.5749
ExactMass: 173.11642673
Spectrum_type: 2
charge: 1
Formula: C7H15N3O2
SMILES: CC(=NCCC[C@@H](C(=O)O)N)N
Method: HCD
Collision_energy: [28.333334]
Isolation_window: 4.0
Ion_mode: P
Num Peaks: 59
58.0654	1.4
59.0496	0.5
59.0609	0.6
60.0560	0.9
60.0812	7.4
69.0339	3.4
70.0655	5.9
72.0812	2.1
74.0717	5.0
78.9844	1.2
84.0811	0.9
86.0604	0.7
87.0445	0.4
89.0600	2.3
96.9954	9.1
97.9950	0.4
98.0601	0.8
98.9843	0.7
100.0759	0.7
115.0059	0.6
115.0867	1.1
116.0708	12.0
117.0743	0.5
120.0113	0.6
120.0475	0.5
121.0316	0.5
130.0864	0.7
133.0859	0.7
133.0975	0.7
135.0440	1.3
144.1130	2.3
149.0235	0.8
158.0811	0.5
158.0928	1.7
165.0214	9.6
166.0232	0.7
172.1083	1.2
173.1287	0.5
174.1241	0.9
175.1190	1.1
176.0920	0.7
178.1077	0.4
178.1234	0.7
179.0838	0.6
180.0643	0.4
180.0815	18.7
180.1049	100.0
181.0843	2.3
181.1071	9.3
182.1013	4.9
186.0584	0.6
189.1345	12.3
190.1073	1.9
190.1377	0.9
192.1228	0.5
192.1387	0.4
193.0998	0.9
194.1016	0.4
194.1175	5.2

Name: N6,N6,N6-Trimethyl-L-lysine
PrecursorMZ: 189.1595
RT: 13.8883
ExactMass: 188.152477885
Spectrum_type: 2
charge: 1
Formula: C9H20N2O2
SMILES: C[N+](C)(C)CCCC[C@@H](C(=O)[O-])N
Method: HCD
Collision_energy: [28.333334]
Isolation_window: 4.0
Ion_mode: P
Num Peaks: 27
60.0812	22.9
69.0339	1.8
72.0812	1.2
80.0498	15.1
84.0811	92.4
85.0844	5.4
86.0968	1.2
87.0444	1.2
88.0761	1.3
89.0600	4.7
102.0915	1.9
106.0864	6.2
116.0708	3.1
118.0863	1.4
130.0863	100.0
131.0898	6.1
135.0438	1.4
144.1387	1.5
164.1071	2.2
165.0214	4.6
189.1596	38.6
190.1075	1.5
190.1628	3.9
194.1175	4.4
202.1798	4.4
203.1500	1.4
209.1283	23.5

Name: N6-Methyladenosine
PrecursorMZ: 282.11934
RT: 7.2637
ExactMass: 281.11240398
Spectrum_type: 2
charge: 1
Formula: C11H15N5O4
SMILES: CNC1=C2C(=NC=N1)N(C=N2)[C@H]3[C@@H]([C@@H]([C@H](O3)CO)O)O
Method: HCD
Collision_energy: [28.333334]
Isolation_window: 4.0
Ion_mode: P
Num Peaks: 12
100.0757	3.0
118.0864	2.5
150.0773	100.0
151.0807	6.6
166.0494	4.7
281.1130	2.7
281.1489	3.5
282.0963	2.6
282.1192	14.1
282.1332	3.4
283.1077	2.9
283.1281	5.4

Name: NA-Dopamine 13:0
PrecursorMZ: 350.26813
RT: 5.6277
ExactMass: 349.26169398
Spectrum_type: 2
charge: 1
Formula: C21H35NO3
SMILES: CCCCCCCCCCCCC(=O)NCCC1=CC(=C(C=C1)O)O
Method: HCD
Collision_energy: [28.333334]
Isolation_window: 4.0
Ion_mode: P
Num Peaks: 41
69.9046	2.0
70.0653	3.8
72.0810	2.1
84.0444	3.2
86.0965	5.5
91.0542	2.7
136.0754	10.4
150.0908	2.2
154.0496	2.2
164.0702	2.5
164.1066	2.7
189.1229	1.9
224.0914	3.3
247.1069	8.2
256.1196	3.2
257.1282	2.4
267.1330	12.3
271.1433	13.5
272.1465	2.0
275.1014	3.3
288.2313	2.8
297.1442	2.2
306.2417	2.8
313.1386	5.4
315.1540	5.5
331.1278	2.6
333.1651	4.1
348.2520	6.8
348.3250	3.9
349.1387	2.2
349.1581	2.9
349.2559	11.8
349.3283	2.3
350.1340	2.7
350.2444	3.3
350.2678	100.0
351.0996	2.4
351.1539	2.9
351.1700	2.5
351.2712	19.6
352.2741	2.3

Name: NA-Dopamine 21:0
PrecursorMZ: 462.3936
RT: 1.048
ExactMass: 461.38689449
Spectrum_type: 2
charge: 1
Formula: C29H51NO3
SMILES: CCCCCCCCCCCCCCCCCCCCC(=O)NCCC1=CC(=C(C=C1)O)O
Method: HCD
Collision_energy: [28.333334]
Isolation_window: 4.0
Ion_mode: P
Num Peaks: 19
69.0701	12.4
81.0701	10.7
95.0856	10.6
109.1012	9.8
123.1168	7.0
164.0830	9.5
164.1068	33.4
165.0908	72.7
166.0937	8.3
176.1065	9.4
204.1377	10.4
205.1220	15.0
426.3723	78.4
427.3764	22.5
444.3575	10.3
444.3831	100.0
445.3875	31.5
462.3948	36.8
463.4009	9.4

Name: NA-Paba 20:0
PrecursorMZ: 432.34645
RT: 3.2654
ExactMass: 431.3399443
Spectrum_type: 2
charge: 1
Formula: C27H45NO3
SMILES: CCCCCCCCCCCCCCCCCCCC(=O)NC1=CC=C(C=C1)C(=O)O
Method: HCD
Collision_energy: [28.333334]
Isolation_window: 4.0
Ion_mode: P
Num Peaks: 6
89.0599	4.4
112.0756	7.6
273.2209	4.5
414.3356	100.0
415.3392	25.4
432.3464	7.3

Name: NA-Paba 22:0
PrecursorMZ: 460.3781
RT: 1.1226
ExactMass: 459.37124443
Spectrum_type: 2
charge: 1
Formula: C29H49NO3
SMILES: CCCCCCCCCCCCCCCCCCCCCC(=O)NC1=CC=C(C=C1)C(=O)O
Method: HCD
Collision_energy: [28.333334]
Isolation_window: 4.0
Ion_mode: P
Num Peaks: 55
51.1521	1.6
51.1535	5.1
51.2649	1.5
55.0547	0.9
67.0546	1.4
69.0703	1.3
70.0655	2.0
81.0702	2.5
83.0495	0.9
83.0858	1.1
91.0577	1.0
93.0701	1.0
95.0858	2.1
107.0857	1.0
109.1014	1.5
111.0443	8.0
113.0598	1.0
114.0914	1.2
121.0650	1.1
121.1013	1.0
124.1121	1.7
126.1278	3.4
128.0820	2.8
135.1168	1.1
139.0866	2.4
142.0976	4.1
145.1013	0.9
147.1169	1.4
161.1326	1.4
165.0911	3.7
170.0812	3.4
192.1017	2.0
253.1949	8.8
254.1985	1.6
285.2211	11.2
286.2243	2.1
359.0281	1.3
426.3729	0.9
429.0881	0.9
442.3680	10.5
443.3725	2.7
444.3844	1.0
445.1200	1.0
458.3597	1.4
459.3070	1.5
459.3622	3.7
459.3965	1.4
460.3111	1.3
460.3511	4.6
460.3785	100.0
461.3532	1.5
461.3818	32.6
461.4088	1.2
461.4825	1.4
462.3872	2.7

PrecursorMZ: 294.15438
RT: 8.9848
Spectrum_type: 2
charge: 1
SMILES: NCCCCCCOC1OC(C(=O)O)C(O)C(O)C1O
Method: HCD
Collision_energy: [28.333334]
Isolation_window: 4.0
Ion_mode: P
Num Peaks: 29
73.0287	12.8
84.0810	8.7
85.0286	11.8
86.0966	24.5
88.0395	16.1
97.0285	9.4
99.0441	9.5
115.0391	10.8
132.1018	22.5
132.1130	10.4
133.1163	8.5
144.1018	29.8
161.9950	22.0
168.1018	13.6
210.1122	24.7
230.1383	45.0
248.1488	25.6
258.1331	47.9
276.1437	100.0
277.1467	16.0
293.0627	14.8
293.1486	9.1
293.1506	15.6
293.2051	10.1
293.2105	48.4
294.1179	11.8
294.1544	43.9
294.2145	11.0
295.2006	9.8

Name: NE,NE,NE-TRIMETHYLLYSINE
PrecursorMZ: 189.15976
RT: 13.7502
Spectrum_type: 2
charge: 1
SMILES: C[N+](C)(C)CCCC[C@H](N)C(=O)[O-]
Method: HCD
Collision_energy: [28.333334]
Isolation_window: 4.0
Ion_mode: P
Num Peaks: 59
58.0656	15.4
60.0813	40.9
62.0606	7.9
69.0340	34.9
70.0657	5.2
72.0812	6.2
84.0812	68.9
85.0845	3.9
86.0606	4.0
86.0969	6.4
87.0445	17.6
88.0761	7.4
89.0601	27.1
96.9955	10.0
98.0603	11.6
100.0760	4.2
102.0917	26.3
104.0709	4.7
106.0866	9.9
106.9049	5.7
108.9045	4.6
114.0915	6.9
114.1030	4.7
115.9543	4.7
116.0709	53.2
118.0320	7.5
123.0112	4.7
130.0865	91.1
131.0904	5.8
133.0866	5.6
133.9653	4.2
134.0631	3.4
135.0107	4.8
135.0443	28.2
136.0416	8.0
147.0108	3.8
147.9312	4.5
149.0237	12.3
149.0598	5.5
149.9310	5.1
165.0217	99.8
166.0225	8.3
167.0180	4.3
182.0482	6.3
182.0809	7.9
189.1600	71.6
190.1076	18.5
190.1627	5.8
192.1383	5.8
192.6162	16.0
193.1002	7.7
194.1178	97.6
195.1220	11.6
200.0571	4.6
200.0749	4.0
202.1803	100.0
203.1844	11.1
206.0251	5.9
208.1344	8.1

Name: Nadolol
PrecursorMZ: 310.20482
RT: 8.4565
ExactMass: 309.19400834
Spectrum_type: 2
charge: 1
Formula: C17H27NO4
SMILES: CC(C)(C)NCC(COC1=CC=CC2=C1C[C@@H]([C@@H](C2)O)O)O
Method: HCD
Collision_energy: [28.333334]
Isolation_window: 4.0
Ion_mode: P
Num Peaks: 51
70.0656	4.8
81.0339	6.5
84.0811	4.5
110.0604	4.0
110.0966	6.3
111.0444	4.2
118.0865	6.8
144.0657	5.8
154.0864	80.0
155.0897	5.7
161.1284	7.0
172.0969	100.0
173.1002	9.3
179.1286	27.4
179.6303	6.1
187.1441	7.4
197.1285	28.0
202.1076	6.4
204.1707	4.1
220.1179	10.8
224.6602	6.3
263.1602	10.3
270.1812	9.7
288.1918	12.6
290.1230	5.2
291.1265	9.0
292.1378	3.5
294.1329	6.7
308.1332	5.3
309.1400	9.5
309.1559	5.4
309.1791	12.3
310.1267	40.2
310.1427	5.6
310.1644	15.1
310.1871	4.5
310.2044	94.5
310.7064	31.4
311.1246	7.2
311.1575	12.7
311.1958	6.4
311.2084	4.8
312.1064	6.9
312.1260	5.4
312.1437	84.7
312.1610	3.9
312.1805	3.4
357.2495	18.9
358.2520	3.4
448.3130	40.7
449.3158	8.0

Name: Naloxone Hydrochloride
PrecursorMZ: 328.15401
RT: 2.1595
ExactMass: 363.1237359
Spectrum_type: 2
charge: 1
Formula: C19H22ClNO4
SMILES: C=CCN1CC[C@]23[C@@H]4C(=O)CC[C@]2([C@H]1CC5=C3C(=C(C=C5)O)O4)O.Cl
Method: HCD
Collision_energy: [28.333334]
Isolation_window: 4.0
Ion_mode: P
Num Peaks: 64
55.0547	2.4
70.0656	4.2
72.0813	2.7
81.0339	5.2
83.0496	3.7
84.0812	2.9
89.0601	2.3
96.0810	2.8
98.0969	2.8
101.0600	11.3
111.0445	3.7
121.0649	1.9
122.0815	6.0
132.0447	4.5
180.1023	4.1
198.1487	2.1
209.1292	2.2
210.0780	3.2
220.1188	4.6
226.1052	3.8
227.1174	3.6
228.1021	27.0
229.1049	4.4
297.1242	3.3
326.1610	14.1
327.1617	21.6
327.1981	1.9
328.1550	100.0
329.1547	26.2
330.1375	3.4
330.1871	3.1
330.3373	4.5
331.1660	12.0
332.1486	8.6
332.1923	2.0
333.1487	5.7
333.1824	12.3
334.1278	2.2
334.1729	7.3
335.1617	7.3
335.1981	6.4
336.1522	5.9
336.1935	4.3
337.1826	4.5
337.2195	2.5
338.1976	2.3
339.1335	2.8
339.1927	3.6
339.2299	5.4
340.1540	5.0
340.2268	2.3
341.1511	12.6
342.1303	5.8
342.1777	4.2
343.1287	3.4
343.1678	9.1
344.1495	8.4
344.1931	2.2
345.1464	6.1
345.1821	15.7
346.1698	7.5
346.3315	4.5
347.1613	7.4
347.2054	3.2

Name: Nampt-IN-1
PrecursorMZ: 420.15818
RT: 5.5855
ExactMass: 419.15149208
Spectrum_type: 2
charge: 1
Formula: C20H25N3O5S
SMILES: CC(C)(CS(=O)(=O)NC1=CC2=C(CN(CC2)C(=O)COC3=CN=CC=C3)C=C1)O
Method: HCD
Collision_energy: [28.333334]
Isolation_window: 4.0
Ion_mode: P
Num Peaks: 24
70.0654	6.0
72.0812	5.7
81.0337	4.9
116.0705	6.1
148.0756	4.6
159.0915	4.4
164.0704	16.1
182.0809	12.3
205.0968	18.9
249.0683	5.5
277.0635	33.5
278.0714	38.9
279.0755	5.7
295.0741	86.6
296.0814	37.6
297.0843	4.5
385.2379	7.3
402.1486	8.3
418.1962	4.4
419.1818	4.4
420.1576	100.0
420.2115	7.0
421.1610	27.3
421.2529	6.3

Name: Nandrolone
PrecursorMZ: 275.20022
RT: 4.7565
ExactMass: 274.193280068
Spectrum_type: 2
charge: 1
Formula: C18H26O2
SMILES: C[C@]12CC[C@H]3[C@H]([C@@H]1CC[C@@H]2O)CCC4=CC(=O)CC[C@H]34
Method: HCD
Collision_energy: [28.333334]
Isolation_window: 4.0
Ion_mode: P
Num Peaks: 106
55.0546	4.0
57.0702	2.1
60.0448	4.7
67.0546	8.6
69.0702	7.2
69.4670	3.4
71.0858	2.3
72.0810	2.2
79.0544	7.0
81.0701	13.3
83.0493	2.2
83.0857	6.1
84.0445	2.2
86.0966	3.3
91.0544	9.9
93.0700	10.8
95.0492	2.0
95.0856	10.3
96.0443	2.4
97.1012	2.6
97.4578	2.5
98.0600	2.0
99.0804	2.1
103.0390	2.6
105.0699	20.7
107.0855	11.6
109.1012	6.6
110.0601	4.2
117.0697	3.4
119.0854	19.1
120.0443	3.0
121.0283	26.5
121.1011	9.9
122.0316	2.3
123.0439	3.9
123.0802	2.4
126.0548	3.5
131.0854	6.5
133.1010	24.4
134.1042	2.2
135.0802	2.0
135.1166	9.9
138.0546	3.1
143.0853	2.1
145.1011	10.6
146.0806	2.2
147.1166	24.1
148.0756	3.6
148.1199	2.2
149.0960	4.2
149.1322	5.0
150.0548	3.9
151.0388	6.4
151.1111	2.9
157.1011	3.2
159.1168	10.3
161.0958	3.5
161.1322	8.1
163.1114	4.5
166.0497	3.6
167.0337	14.4
168.0651	3.1
171.1165	2.7
172.0599	3.4
173.1324	4.9
175.1116	2.0
175.1479	2.3
177.1269	3.5
178.0496	2.6
179.0335	5.3
183.1163	2.2
185.1320	3.8
196.0600	5.9
197.0441	12.2
197.1318	2.5
203.1427	2.4
210.1104	2.0
214.0703	4.3
215.0546	2.4
232.0600	3.0
232.0810	2.8
234.1847	8.5
239.1784	3.5
256.0812	3.8
256.1161	3.9
257.0908	3.2
257.1894	7.0
258.1929	2.1
259.2053	2.6
273.1843	2.7
274.0914	11.5
274.1058	6.5
274.1262	12.4
274.1426	2.4
274.1879	3.9
274.2734	17.7
275.1020	5.2
275.1388	2.4
275.1999	100.0
275.2770	3.9
276.0859	11.7
276.1219	5.4
276.1574	5.3
276.2040	19.1
277.1175	7.6
277.2158	28.3

Name: Nateglinide
PrecursorMZ: 340.18994
RT: 1.0715
ExactMass: 317.19909372
Spectrum_type: 2
charge: 1
Formula: C19H27NO3
SMILES: CC(C)C1CCC(CC1)C(=O)N[C@H](CC2=CC=CC=C2)C(=O)O
Method: HCD
Collision_energy: [28.333334]
Isolation_window: 4.0
Ion_mode: P
Num Peaks: 29
69.0701	10.1
71.0858	3.1
81.0700	3.1
84.0809	10.4
85.0886	3.1
86.0965	20.1
95.0854	2.8
103.0540	2.7
112.0756	69.1
113.0788	3.9
121.0644	3.2
131.0488	38.6
132.0521	3.5
135.0437	15.3
138.0909	8.1
139.9143	2.5
161.0593	25.8
164.1065	5.9
179.1299	33.2
187.0747	2.7
227.1063	4.1
227.1273	2.9
229.1215	6.9
255.1011	2.9
338.3404	5.2
340.1895	100.0
340.2827	4.9
341.1928	22.8
342.2054	26.3

Name: Neohesperidin dihydrochalcone
PrecursorMZ: 613.21004
RT: 5.1294
ExactMass: 612.20542044
Spectrum_type: 2
charge: 1
Formula: C28H36O15
SMILES: C[C@H]1[C@@H]([C@H]([C@H]([C@@H](O1)O[C@@H]2[C@H]([C@@H]([C@H](O[C@H]2OC3=CC(=C(C(=C3)O)C(=O)CCC4=CC(=C(C=C4)OC)O)O)CO)O)O)O)O)O
Method: HCD
Collision_energy: [28.333334]
Isolation_window: 4.0
Ion_mode: P
Num Peaks: 15
68.1350	4.9
301.1546	4.4
343.1649	4.4
344.1725	13.7
345.1761	4.5
468.2487	12.1
469.2530	5.6
593.3326	9.3
594.3365	7.2
611.3438	5.7
612.3464	4.8
613.2101	100.0
613.3389	3.3
614.2136	25.5
615.2093	8.5

Name: Neostigmine Methylsulfate
PrecursorMZ: 223.14379
RT: 8.286233333333334
ExactMass: 334.1198576
Spectrum_type: 2
charge: 1
Formula: C13H22N2O6S
SMILES: CN(C)C(=O)OC1=CC=CC(=C1)[N+](C)(C)C.COS(=O)(=O)[O-]
Method: HCD
Collision_energy: [28.333334]
Isolation_window: 4.0
Ion_mode: P
Num Peaks: 25
55.0546	22.9
58.0655	18.9
59.0495	7.0
83.0493	16.2
91.0543	5.6
101.0597	64.7
119.0490	18.7
122.0963	24.5
123.0915	73.8
163.0387	7.2
165.0543	4.4
178.1222	20.7
221.1279	6.2
222.0976	5.1
222.1120	64.6
222.1319	5.7
222.1483	55.2
223.1068	5.2
223.1164	8.1
223.1434	100.0
223.1521	5.4
224.0916	13.9
224.1277	45.4
224.1470	8.8
225.1220	5.3

Name: Nepsilon-(Carboxymethyl)lysine
PrecursorMZ: 205.11822
RT: 6.1028
ExactMass: 204.111007
Spectrum_type: 2
charge: 1
Formula: C8H16N2O4
SMILES: C(CCNCC(=O)O)C[C@@H](C(=O)O)N
Method: HCD
Collision_energy: [28.333334]
Isolation_window: 4.0
Ion_mode: P
Num Peaks: 12
84.0810	100.0
85.0844	4.4
130.0862	47.0
142.0860	12.5
161.0709	5.1
162.0549	9.3
187.1072	5.5
204.1132	4.5
205.0968	4.6
205.1177	9.4
206.0246	5.1
207.1128	4.3

Name: Nepsilon-Formyl-L-lysine
PrecursorMZ: 175.10744
RT: 8.860166666666666
ExactMass: 174.10044231
Spectrum_type: 2
charge: 1
Formula: C7H14N2O3
SMILES: C(CCNC=O)C[C@@H](C(=O)O)N
Method: HCD
Collision_energy: [28.333334]
Isolation_window: 4.0
Ion_mode: P
Num Peaks: 40
60.0560	4.2
70.0654	9.4
84.0446	9.1
84.0810	10.6
85.0285	4.2
86.0602	5.3
87.0442	25.5
90.0551	6.3
98.0601	28.1
102.0550	4.5
110.0964	8.0
111.0552	4.6
112.0758	4.5
112.1120	5.6
114.0549	3.0
114.0662	4.3
116.0706	37.6
128.1068	10.9
129.0658	5.9
129.1021	48.9
130.0497	100.0
130.0860	24.4
130.1054	3.3
130.1224	13.7
131.0531	4.3
140.0703	12.7
156.1018	5.6
157.0606	10.1
158.0810	62.0
159.0842	4.9
174.0759	2.4
174.0872	3.0
174.1122	20.4
175.0710	11.4
175.1075	28.5
175.1240	3.5
176.0914	36.0
176.1276	3.7
176.1430	2.9
177.1021	2.4

Name: Nerbobscurine
PrecursorMZ: 405.17839
RT: 2.5962
ExactMass: 382.18925731
Spectrum_type: 2
charge: 1
Formula: C22H26N2O4
SMILES: C/C=C\1/CN2CC[C@@]34C5=C(C=CC(=C5)OC)N=C3C2C[C@@H]1C4(CO)C(=O)OC
Method: HCD
Collision_energy: [28.333334]
Isolation_window: 4.0
Ion_mode: P
Num Peaks: 60
69.0703	3.9
81.0339	4.6
81.0703	7.9
83.0859	6.8
85.0652	4.5
93.0701	3.6
95.0858	6.5
99.0807	3.5
105.0701	4.3
107.0858	5.8
109.1015	3.6
119.0855	3.9
121.1014	5.6
124.0757	3.3
126.0914	7.2
131.0855	3.6
133.1014	3.7
135.1170	3.3
145.1013	4.7
148.0757	3.6
157.1013	3.1
159.1171	3.5
162.0914	3.6
164.0473	3.2
180.1019	17.0
206.0812	3.9
208.0966	6.7
220.0966	5.1
222.1125	10.1
232.0970	5.8
238.1072	3.8
248.0684	72.1
249.0719	7.0
250.0654	3.4
250.1075	4.9
264.1230	17.7
278.1025	4.0
280.1178	8.8
282.1336	38.3
301.1549	5.4
373.1524	100.0
374.1558	18.8
375.1501	4.9
375.1910	3.9
385.3104	8.9
386.3142	3.6
387.2521	3.3
403.1847	3.8
403.3204	4.0
404.1678	3.9
405.1673	13.8
405.2025	15.8
405.2253	5.0
405.2619	5.3
406.2024	6.1
406.2620	3.2
407.1580	3.1
407.1835	14.1
407.2173	5.0
407.2409	4.4

Name: Nicotinamide N-oxide
PrecursorMZ: 139.05
RT: 7.2055
ExactMass: 138.042927438
Spectrum_type: 2
charge: 1
Formula: C6H6N2O2
SMILES: C1=CC(=C[N+](=C1)[O-])C(=O)N
Method: HCD
Collision_energy: [28.333334]
Isolation_window: 4.0
Ion_mode: P
Num Peaks: 24
68.0497	1.1
69.5154	0.9
81.0449	4.9
93.0448	11.7
95.0604	18.4
96.0639	1.2
97.0397	1.7
98.9754	3.2
112.0392	2.6
116.9858	3.0
120.0474	1.1
121.0395	84.2
122.0428	5.6
123.0551	17.4
134.9963	2.6
137.0708	1.2
138.0547	1.4
138.0911	2.7
139.0499	100.0
139.0863	3.8
140.0339	3.8
140.0532	7.2
140.0702	1.5
141.0656	3.3

Name: Nicotinate
PrecursorMZ: 124.03935
RT: 6.2134
ExactMass: 122.02420337
Spectrum_type: 2
charge: 1
Formula: C6H4NO2-
SMILES: C1=CC(=CN=C1)C(=O)[O-]
Method: HCD
Collision_energy: [28.333334]
Isolation_window: 4.0
Ion_mode: P
Num Peaks: 73
55.0546	0.2
65.0389	0.3
67.0546	1.0
68.0498	0.2
69.0180	0.3
69.0204	0.2
69.0338	0.3
69.0701	0.1
69.2044	0.2
69.2107	0.2
78.0340	0.3
79.0181	0.2
79.0416	0.1
79.0545	0.6
80.0497	6.2
81.0337	0.2
81.0449	0.2
81.0530	0.3
81.0575	0.1
81.0701	0.8
82.0415	0.3
82.0654	0.1
83.0494	0.2
83.0857	0.1
84.0446	0.3
94.0652	0.4
95.0492	0.8
95.0605	0.3
95.0857	0.2
96.0445	4.6
96.0808	0.7
97.0286	0.3
97.0478	0.3
97.0649	0.8
97.4560	0.2
98.0965	0.2
107.0492	0.1
107.0604	0.6
108.0444	0.2
109.0649	0.1
110.0362	0.1
112.0394	0.1
122.0601	0.5
122.0965	0.2
123.0440	0.4
123.0553	2.1
123.0804	0.4
123.0916	0.6
123.1168	0.1
123.9917	0.2
123.9944	0.3
123.9970	0.2
124.0242	0.2
124.0270	0.2
124.0297	0.6
124.0319	0.4
124.0392	100.0
124.0486	0.9
124.0514	0.3
124.0587	0.1
124.0755	1.3
124.0839	0.4
124.0860	0.2
125.0232	0.3
125.0362	0.3
125.0425	6.7
125.0596	2.8
125.0708	1.8
125.0959	0.1
126.0548	0.6
126.0661	0.4
126.0911	0.6
140.0340	0.5

Name: Nicotinuric Acid
PrecursorMZ: 181.06062
RT: 2.8824
ExactMass: 180.05349212
Spectrum_type: 2
charge: 1
Formula: C8H8N2O3
SMILES: C1=CC(=CN=C1)C(=O)NCC(=O)O
Method: HCD
Collision_energy: [28.333334]
Isolation_window: 4.0
Ion_mode: P
Num Peaks: 21
69.0422	3.3
69.6492	2.7
91.0544	29.7
97.4569	3.1
107.0604	10.7
109.0760	7.6
124.0756	9.2
135.0552	3.1
153.0657	9.6
153.1383	2.6
164.0703	7.0
166.0860	4.5
180.0805	34.3
180.1012	3.3
181.0604	100.0
181.0834	5.7
181.0970	2.8
182.0640	9.0
182.0806	3.7
182.1173	8.2
183.1127	3.4

Name: Nifedipine
PrecursorMZ: 347.12353
RT: 5.9809
ExactMass: 346.1164863
Spectrum_type: 2
charge: 1
Formula: C17H18N2O6
SMILES: CC1=C(C(C(=C(N1)C)C(=O)OC)C2=CC=CC=C2[N+](=O)[O-])C(=O)OC
Method: HCD
Collision_energy: [28.333334]
Isolation_window: 4.0
Ion_mode: P
Num Peaks: 163
55.0183	1.2
58.0655	0.6
60.0448	3.0
67.0546	1.1
70.0655	2.0
72.0811	2.5
81.0339	1.1
84.0447	1.1
84.0811	1.0
86.0967	5.9
92.0497	2.2
95.0493	0.9
96.0446	0.8
97.3990	0.9
98.0602	2.0
100.0217	1.5
101.0599	1.1
110.0603	0.8
114.0915	1.3
116.0707	5.8
120.0445	2.1
120.0808	1.2
122.0601	1.3
126.0549	0.9
126.0914	1.3
130.0499	1.3
132.1019	4.7
133.1053	0.6
138.0550	8.4
140.0707	0.8
144.0655	1.5
146.0270	8.5
148.0393	0.9
148.0758	0.7
150.0913	1.0
154.0497	1.6
156.0655	0.9
158.0814	1.0
162.0219	0.9
164.0707	5.2
164.1068	0.9
166.0499	9.3
166.0862	1.0
167.0532	0.9
167.0579	1.7
167.0814	1.7
168.0657	0.9
172.0792	0.8
175.0864	1.0
176.0707	1.1
178.0862	2.0
182.0446	3.9
182.0812	8.4
185.1648	1.2
186.0220	1.4
186.0760	0.9
187.1439	0.9
188.0375	0.8
192.1017	4.7
194.0810	1.2
198.0913	2.5
201.0869	0.8
208.0605	1.2
211.1076	1.5
211.1444	0.8
212.0915	3.8
212.1069	1.4
213.1022	0.9
213.1056	1.7
213.1594	1.2
214.0710	2.3
214.0864	1.3
216.0324	5.5
219.0760	3.3
222.0759	3.2
225.0907	1.2
226.0862	12.0
227.0800	1.5
227.0906	1.2
228.1019	0.9
239.0794	1.0
240.1018	4.4
241.0969	14.1
242.1010	1.9
244.0969	1.1
246.1117	1.1
255.1128	2.6
256.0965	3.4
257.1278	0.6
257.1494	3.5
258.1123	2.6
258.1523	0.7
259.1072	3.1
259.1105	4.1
260.1148	0.9
264.0862	1.0
265.0968	1.3
266.0810	0.9
267.1126	2.5
268.0967	8.8
269.0912	8.3
270.0955	1.7
273.1233	0.9
282.0969	3.9
283.1078	4.8
284.0915	2.7
284.1110	0.9
285.1112	1.2
285.1843	0.9
286.1070	5.6
287.1023	16.9
288.1060	3.2
293.0919	1.4
301.0854	1.8
301.1182	14.6
302.1017	1.2
302.1215	2.9
303.1340	1.1
303.1547	2.4
303.1953	1.3
305.1161	2.3
310.0919	3.0
311.1027	5.2
312.1058	1.0
313.0700	1.1
319.1287	6.1
320.1317	1.2
323.1008	0.9
328.1024	4.4
329.1138	3.8
330.0969	1.3
330.1162	0.8
330.1695	1.3
331.1291	2.2
331.1903	0.8
345.1279	1.3
345.1454	0.9
345.1806	0.9
346.0904	1.1
346.0931	1.0
346.1123	8.8
346.1291	3.3
346.1482	1.3
346.1656	7.9
346.2579	1.1
347.0651	1.7
347.0913	1.2
347.1235	100.0
347.1595	3.6
347.1959	0.9
347.3053	1.1
348.1073	1.8
348.1223	6.6
348.1267	18.2
348.1451	1.3
348.1618	1.0
348.1839	4.6
348.2523	1.0
349.1030	1.2
349.1074	1.0
349.1216	0.6
349.1292	2.0
349.1396	4.7

Name: Ningetinib
PrecursorMZ: 557.22011
RT: 6.2259
ExactMass: 556.2121982
Spectrum_type: 2
charge: 1
Formula: C31H29FN4O5
SMILES: CC1=C(C(=O)N(N1C)C2=CC=CC=C2)C(=O)NC3=CC(=C(C=C3)OC4=C5C=CC(=CC5=NC=C4)OCC(C)(C)O)F
Method: HCD
Collision_energy: [28.333334]
Isolation_window: 4.0
Ion_mode: P
Num Peaks: 21
61.9137	5.1
62.0252	0.9
70.0653	0.9
73.0286	0.9
84.0810	0.9
87.0442	2.4
89.0598	10.6
111.0440	0.9
133.0857	5.4
176.8750	3.2
177.1120	1.7
178.8733	0.9
206.1171	1.9
262.1279	1.2
555.2035	1.8
556.2074	2.3
557.2195	100.0
557.3104	1.9
558.2230	19.6
559.2214	5.2
559.3247	2.6

Name: Nipecotic acid, S-(+)-
PrecursorMZ: 130.08623
RT: 16.228
ExactMass: 129.078978594
Spectrum_type: 2
charge: 1
Formula: C6H11NO2
SMILES: C1C[C@@H](CNC1)C(=O)O
Method: HCD
Collision_energy: [28.333334]
Isolation_window: 4.0
Ion_mode: P
Num Peaks: 5
70.0655	100.0
86.0967	22.3
114.0914	16.8
129.1023	13.1
130.0863	32.6

Name: Nivalenol
PrecursorMZ: 335.10973
RT: 5.68305
ExactMass: 312.12090297
Spectrum_type: 2
charge: 1
Formula: C15H20O7
SMILES: CC1=C[C@@H]2[C@]([C@@H](C1=O)O)([C@]3([C@@H]([C@H]([C@H]([C@@]34CO4)O2)O)O)C)CO
Method: HCD
Collision_energy: [28.333334]
Isolation_window: 4.0
Ion_mode: P
Num Peaks: 43
70.0654	1.2
81.0337	2.5
82.0654	1.7
84.0810	8.6
85.0843	1.0
86.0966	5.2
97.0284	0.9
111.0441	2.9
113.0597	1.1
130.0860	1.1
175.0864	4.7
176.8751	3.4
203.0813	1.5
210.1119	1.3
220.1188	3.0
221.0916	8.2
222.0957	1.1
258.1331	4.2
287.1383	2.7
288.1418	0.9
316.1380	1.6
318.1550	1.4
333.1429	5.0
333.1800	2.2
334.1278	5.7
334.1471	3.9
334.1645	3.8
334.1825	2.7
334.1872	3.4
334.2142	1.1
334.2740	1.3
335.1095	100.0
335.1579	4.5
335.1940	2.0
336.1128	14.1
336.1436	6.0
336.1605	1.0
336.1647	3.1
336.1944	1.5
337.1065	3.7
337.1388	1.3
337.1718	1.6
337.1755	1.1

Name: Nmda
PrecursorMZ: 148.06038
RT: 7.7529
ExactMass: 147.05315777
Spectrum_type: 2
charge: 1
Formula: C5H9NO4
SMILES: CN[C@H](CC(=O)O)C(=O)O
Method: HCD
Collision_energy: [28.333334]
Isolation_window: 4.0
Ion_mode: P
Num Peaks: 21
56.0499	2.5
70.0290	1.9
70.6497	0.9
74.0602	1.4
84.0446	56.9
84.0810	1.0
85.0286	1.2
85.0479	3.2
88.0395	100.0
89.0428	3.4
101.0347	1.6
102.0550	20.2
103.0584	1.2
121.0283	1.3
123.9643	1.3
130.0497	14.6
146.0599	2.6
147.0550	0.9
148.0602	6.8
149.0231	5.4
149.0595	3.6

Name: Nonadecanoic Acid
PrecursorMZ: 316.32076
RT: 3.4612
ExactMass: 298.287180451
Spectrum_type: 2
charge: 1
Formula: C19H38O2
SMILES: CCCCCCCCCCCCCCCCCCC(=O)O
Method: HCD
Collision_energy: [28.333334]
Isolation_window: 4.0
Ion_mode: P
Num Peaks: 17
60.0449	69.0
81.0702	9.5
83.0858	8.3
95.0858	10.8
112.8959	21.6
139.9144	10.2
144.0807	13.2
159.0917	21.2
256.2632	10.7
268.2996	12.3
280.3000	7.2
298.3102	72.2
299.3138	16.4
301.1544	14.0
316.2843	10.5
316.3209	100.0
317.3238	16.8

Name: Nonaethylene Glycol Monododecyl Ether
PrecursorMZ: 600.46681
RT: 0.8104
ExactMass: 582.43429817
Spectrum_type: 2
charge: 1
Formula: C30H62O10
SMILES: CCCCCCCCCCCCOCCOCCOCCOCCOCCOCCOCCOCCOCCO
Method: HCD
Collision_energy: [28.333334]
Isolation_window: 4.0
Ion_mode: P
Num Peaks: 13
57.0701	27.2
71.0857	25.0
73.0649	8.4
85.1012	18.0
89.0597	100.0
117.0907	6.6
133.0855	41.1
177.1115	13.9
257.2466	5.8
583.4393	30.1
584.4409	6.6
600.4655	26.0
601.4713	9.0

Name: Nonaethylene glycol
PrecursorMZ: 415.25297
RT: 2.7623333333333333
ExactMass: 414.2464974
Spectrum_type: 2
charge: 1
Formula: C18H38O10
SMILES: C(COCCOCCOCCOCCOCCOCCOCCOCCO)O
Method: HCD
Collision_energy: [28.333334]
Isolation_window: 4.0
Ion_mode: P
Num Peaks: 18
73.0651	2.1
86.0966	7.7
87.0443	5.6
89.0598	100.0
90.0632	3.1
120.0807	4.1
133.0857	50.9
134.0891	3.0
176.1070	2.2
177.1118	15.8
199.1798	2.3
221.1381	3.0
232.0962	2.2
283.1741	2.1
292.1175	5.0
371.2265	2.1
415.2527	13.9
416.2559	2.1

Name: Nopol, (+-)-
PrecursorMZ: 149.13244
RT: 4.6273
ExactMass: 166.135765193
Spectrum_type: 2
charge: 1
Formula: C11H18O
SMILES: CC1([C@H]2CC=C([C@@H]1C2)CCO)C
Method: HCD
Collision_energy: [28.333334]
Isolation_window: 4.0
Ion_mode: P
Num Peaks: 11
67.0546	25.2
69.5186	22.0
79.0545	21.9
81.0701	62.9
93.0700	61.7
107.0856	55.0
121.1012	25.9
149.0231	77.3
149.1323	100.0
150.0914	20.3
151.1116	29.0

Name: Nor-3k, 7a-COOH neopentyl-alcohol (CCS=231.24215698242188)
PrecursorMZ: 447.34643
RT: 1.0072
Spectrum_type: 2
charge: 1
SMILES: C[C@H](CC(=O)OCC(C)(C)C)[C@H]1CC[C@H]2[C@@H]3[C@H](O)CC4CC(=O)CC[C@]4(C)[C@H]3CC[C@]12C
Method: HCD
Collision_energy: [28.333334]
Isolation_window: 4.0
Ion_mode: P
Num Peaks: 38
57.0703	52.6
58.0736	2.9
69.0264	1.5
69.0284	1.6
69.0702	1.4
69.1282	2.2
69.2698	1.5
69.4606	1.9
69.6095	1.4
71.0858	96.2
72.0892	4.4
83.0857	1.5
85.1014	100.0
86.1047	6.8
89.0599	8.5
91.0575	1.6
97.4556	1.5
97.4575	1.5
99.1169	11.2
133.0857	4.4
141.1636	10.1
149.0231	66.7
150.0264	5.3
151.0752	3.1
167.0337	3.9
167.0701	1.3
177.1121	1.3
191.1065	1.3
289.1790	2.0
307.1893	2.5
318.1954	2.5
318.6972	2.0
429.3350	5.1
430.3397	1.3
438.8348	1.6
446.2926	1.7
446.3257	3.2
447.2932	1.6

Name: Nordihydroguaretic acid
PrecursorMZ: 325.13936
RT: 0.677
ExactMass: 302.15180918
Spectrum_type: 2
charge: 1
Formula: C18H22O4
SMILES: CC(CC1=CC(=C(C=C1)O)O)C(C)CC2=CC(=C(C=C2)O)O
Method: HCD
Collision_energy: [28.333334]
Isolation_window: 4.0
Ion_mode: P
Num Peaks: 162
58.0656	4.6
59.0609	6.3
70.0657	76.0
72.0814	12.4
81.0340	39.2
83.0497	9.0
83.0861	13.8
84.0813	18.9
85.0289	6.8
86.0608	4.7
86.0969	10.4
87.0445	9.5
88.0398	26.1
89.0602	17.6
95.0494	5.9
96.0448	65.0
96.0813	6.9
98.0605	5.8
98.0969	12.1
98.9844	4.8
99.0446	6.2
100.1126	7.4
101.0602	7.1
107.0495	7.4
108.0448	9.6
110.0606	16.7
110.0719	7.0
111.0445	39.7
112.0764	7.1
114.0918	7.4
116.0710	12.9
118.0866	8.3
119.0492	6.4
120.0812	6.1
121.0652	59.2
122.0606	9.9
122.0690	4.9
124.0764	10.7
126.0554	16.7
126.0917	76.0
127.0956	6.0
128.0710	5.5
130.0866	6.3
132.0448	5.5
133.0864	8.2
134.0602	4.7
136.0397	6.1
136.0761	12.3
137.0602	11.2
138.0553	5.2
138.0918	4.6
140.0346	7.7
141.0667	4.6
147.0447	14.2
148.0759	8.2
150.0554	9.7
150.0916	9.6
151.1238	5.5
152.0710	12.8
154.0864	9.5
156.1025	4.7
160.0765	4.6
162.0917	17.6
164.0709	19.0
165.0551	6.1
166.0496	5.2
166.0864	6.4
166.0982	6.5
172.0977	4.8
176.0704	6.8
178.0856	7.3
179.0821	4.8
181.0973	5.9
182.0811	14.0
184.0962	5.3
188.0706	6.1
190.0863	9.7
193.0971	7.7
194.0808	15.1
195.0768	7.9
195.1123	10.9
198.0891	7.4
198.1116	4.7
200.0717	4.6
200.0925	6.7
202.0863	4.6
204.0664	5.3
206.0810	7.5
208.0964	11.5
210.0761	6.6
211.1081	5.3
213.1238	5.0
214.0883	5.0
216.0660	5.4
218.0812	5.2
220.0979	5.1
225.1239	5.1
227.1041	4.7
232.0970	6.8
236.0919	12.8
240.2329	4.7
250.1087	4.6
276.1337	5.5
285.1254	5.8
288.1223	6.3
289.1209	5.8
301.1191	12.7
303.1352	4.7
306.1361	7.3
307.1332	9.3
308.1159	6.3
308.1541	5.8
309.1481	7.9
310.1368	5.9
311.1039	10.2
316.1185	9.5
317.1216	6.2
318.1371	6.1
319.1310	9.3
321.1466	10.7
322.1364	7.2
323.1283	7.8
323.1632	10.5
324.1479	38.7
325.1426	65.1
325.1770	12.8
326.1279	24.2
326.1672	23.2
327.1589	35.0
327.1946	20.4
328.1451	27.5
328.1884	20.0
329.1125	52.2
329.1767	13.0
330.1249	5.6
330.1619	13.3
330.3372	5.1
331.1290	100.0
332.1186	19.8
332.2225	89.3
333.1071	6.5
333.1450	20.5
333.2260	18.2
334.1285	41.2
335.1288	20.9
335.1638	19.4
336.1146	5.4
336.1487	30.7
337.1416	30.1
337.1811	7.8
338.1241	24.4
338.1641	13.4
339.1609	35.0
340.1477	48.0
340.1848	9.4
341.1342	12.4
341.1806	17.4
342.1587	38.5
342.2044	5.8
343.1603	14.7
344.1180	6.4
344.1750	10.7

Name: Norepinephrine
PrecursorMZ: 152.07051
RT: 7.8399
ExactMass: 169.07389321
Spectrum_type: 2
charge: 1
Formula: C8H11NO3
SMILES: C1=CC(=C(C=C1[C@H](CN)O)O)O
Method: HCD
Collision_energy: [28.333334]
Isolation_window: 4.0
Ion_mode: P
Num Peaks: 12
96.0445	1.7
96.9952	3.8
106.0652	1.0
134.0592	1.8
134.0634	9.9
151.0942	0.9
152.0704	100.0
152.1068	1.0
153.0658	1.4
153.0737	8.7
153.1384	1.0
154.0860	8.8

Name: Norgeamide D
PrecursorMZ: 466.2334
RT: 1.1997
ExactMass: 465.2263711
Spectrum_type: 2
charge: 1
Formula: C26H31N3O5
SMILES: CC1(C=CC2=C(O1)C=CC3=C2N[C@@]4([C@]3(C[C@@H]5N4C(=O)[C@]6(CCCN6C5=O)O)O)C(C)(C)C=C)C
Method: HCD
Collision_energy: [28.333334]
Isolation_window: 4.0
Ion_mode: P
Num Peaks: 59
51.8045	4.8
83.0859	3.0
89.0601	6.9
97.3319	2.8
120.0810	22.0
126.0915	9.9
132.0810	3.0
133.0857	2.8
136.0761	3.0
138.0915	24.4
148.0760	3.9
152.0708	18.8
160.1335	12.4
161.0924	2.5
164.0708	93.1
165.0745	9.4
166.0865	14.8
168.0686	4.1
168.1021	8.4
170.0812	8.0
176.0918	5.4
180.1019	3.9
182.0813	34.6
183.0844	3.5
193.0972	21.9
194.0812	2.8
194.1046	8.7
205.0971	16.3
206.1010	3.9
207.1130	15.6
233.0922	17.2
251.1027	11.8
273.1589	3.4
280.1326	2.8
289.1549	13.8
291.1703	4.5
295.1442	5.4
297.1598	28.8
298.1635	7.7
301.1545	6.2
307.1653	74.4
308.1683	13.2
309.1796	3.6
319.1650	10.7
321.1812	2.6
323.1385	10.0
324.1429	4.3
325.1548	7.6
341.1504	14.8
342.1572	63.6
343.1624	21.7
344.1680	3.8
391.2587	6.1
466.2341	100.0
467.2385	28.1
468.2496	33.3
469.2543	6.8
471.2171	16.0
472.2228	3.9

Name: Norhyodeoxycholic acid
PrecursorMZ: 361.27297
RT: 1.0394
ExactMass: 378.27700969
Spectrum_type: 2
charge: 1
Formula: C23H38O4
SMILES: C[C@H](CC(=O)O)[C@H]1CC[C@@H]2[C@@]1(CC[C@H]3[C@H]2C[C@@H]([C@H]4[C@@]3(CC[C@H](C4)O)C)O)C
Method: HCD
Collision_energy: [28.333334]
Isolation_window: 4.0
Ion_mode: P
Num Peaks: 89
55.0546	7.5
57.0703	8.9
67.0546	37.0
69.0338	7.9
69.0702	20.9
71.0858	9.8
79.0545	14.8
80.0133	5.0
81.0337	56.7
81.0701	40.9
83.0858	15.6
85.0286	15.8
91.0543	14.1
93.0700	23.7
95.0493	64.3
95.0856	48.8
97.1013	8.2
103.0390	7.0
105.0699	17.1
107.0492	14.5
107.0856	18.5
109.1012	23.0
112.0393	41.6
113.0471	5.8
117.0698	9.1
119.0855	23.0
121.0649	10.9
121.1012	35.9
123.0803	6.0
123.1167	11.6
129.0698	8.7
131.0853	23.9
133.1010	29.1
135.0803	8.5
135.1167	25.0
137.1324	7.2
143.0854	10.1
145.1010	25.1
147.1167	18.9
149.0960	8.3
149.1324	8.9
157.1010	11.0
159.1167	21.3
160.1200	5.8
161.1324	14.3
163.1479	5.9
165.1274	10.2
171.1166	20.2
173.1323	11.6
175.1480	8.8
183.1166	5.4
185.1322	20.1
187.1477	8.8
189.1636	5.8
197.1317	6.0
199.1479	12.0
201.1637	6.4
205.1585	10.0
213.1635	6.7
217.1951	6.5
219.2105	23.9
243.2102	24.5
244.2137	14.8
245.2259	45.1
246.2299	9.3
247.2420	5.9
257.2253	7.3
281.2257	15.7
282.2294	15.6
283.2416	70.8
284.2450	14.0
285.2573	10.9
299.2366	6.2
300.2399	8.2
301.2520	48.0
302.2557	12.1
303.2681	12.9
343.2630	5.3
359.2572	16.4
360.2610	23.9
360.3254	14.3
361.2730	27.0
361.3270	5.5
362.2407	100.0
362.2698	6.2
362.3039	14.6
363.1929	5.5
363.2448	13.8
363.2882	7.1

Name: Norleucine, (+-)-
PrecursorMZ: 132.10172
RT: 6.7807
ExactMass: 131.094628657
Spectrum_type: 2
charge: 1
Formula: C6H13NO2
SMILES: CCCCC(C(=O)O)N
Method: HCD
Collision_energy: [28.333334]
Isolation_window: 4.0
Ion_mode: P
Num Peaks: 17
57.0702	17.8
69.0701	9.5
69.8058	3.4
74.0966	16.5
84.0445	6.6
84.0809	20.7
86.0965	100.0
87.0998	7.2
103.0543	5.3
117.0571	4.1
130.0648	9.3
130.0860	4.1
130.1587	48.3
131.1620	8.6
132.0804	17.5
132.1016	4.7
134.0631	3.8

Name: Norvaline betaine
PrecursorMZ: 160.13309
RT: 6.792183333333333
ExactMass: 159.125928785
Spectrum_type: 2
charge: 1
Formula: C8H17NO2
SMILES: CCCC(C(=O)[O-])[N+](C)(C)C
Method: HCD
Collision_energy: [28.333334]
Isolation_window: 4.0
Ion_mode: P
Num Peaks: 15
58.0655	4.9
59.0496	1.1
59.0733	3.5
60.0812	15.2
96.0446	1.0
120.0809	1.1
160.1332	100.0
161.1367	8.6
162.1380	0.9
164.1070	4.2
166.0862	48.0
167.0899	4.3
168.1023	3.6
170.0812	1.0
180.1017	2.3

Name: Noscapine
PrecursorMZ: 414.15446
RT: 7.6301
ExactMass: 413.14745207
Spectrum_type: 2
charge: 1
Formula: C22H23NO7
SMILES: CN1CCC2=CC3=C(C(=C2[C@@H]1[C@@H]4C5=C(C(=C(C=C5)OC)OC)C(=O)O4)OC)OCO3
Method: HCD
Collision_energy: [28.333334]
Isolation_window: 4.0
Ion_mode: P
Num Peaks: 25
70.0655	39.8
72.0812	22.8
84.0447	13.9
86.0968	40.3
97.3996	10.5
107.0493	17.6
116.0708	54.5
136.0757	100.0
145.0649	30.0
165.0546	44.0
173.0598	16.6
178.0862	62.3
179.0702	11.0
182.0812	42.4
187.0753	23.4
202.0861	17.2
213.1230	13.8
215.0703	22.2
231.0972	13.9
279.2319	11.8
368.1491	84.5
369.1522	16.8
414.1543	98.3
415.1545	26.7
415.1858	10.6

Name: Notatic acid
PrecursorMZ: 362.12314
RT: 4.4067
ExactMass: 344.08960285
Spectrum_type: 2
charge: 1
Formula: C18H16O7
SMILES: CC1=CC(=C(C2=C1C(=O)OC3=C(O2)C(=C(C(=C3)O)C(=O)O)C)C)OC
Method: HCD
Collision_energy: [28.333334]
Isolation_window: 4.0
Ion_mode: P
Num Peaks: 12
132.0443	5.6
150.0549	3.5
163.0392	4.4
257.0807	38.3
258.0842	5.6
299.0911	42.0
300.0941	9.3
327.0860	27.6
328.0896	7.3
362.2410	100.0
363.1306	7.1
363.2445	20.8

Name: Npc101515
PrecursorMZ: 607.29061
RT: 1.006
ExactMass: 584.30976637
Spectrum_type: 2
charge: 1
Formula: C32H44N2O8
SMILES: CCN1C[C@@]2(CC[C@@H]([C@@]34[C@@H]2C[C@@H](C31)[C@]5(C[C@@H]([C@H]6C[C@@H]4[C@@]5([C@H]6OC)O)OC)O)OC)OC(=O)C7=CC=CC=C7NC(=O)C
Method: HCD
Collision_energy: [28.333334]
Isolation_window: 4.0
Ion_mode: P
Num Peaks: 54
51.2481	0.5
60.8079	2.8
60.9193	0.9
67.4749	0.7
67.4769	6.5
67.5884	2.4
95.0857	0.5
431.1862	1.2
432.1892	0.5
433.2377	2.0
434.2427	1.2
445.2011	0.5
446.2088	1.0
447.2169	1.8
459.2176	2.2
460.2249	6.1
461.2321	9.1
462.2368	2.4
473.2329	1.8
474.2390	0.8
487.2479	1.5
488.2541	0.6
491.2074	0.5
492.2511	1.0
505.2223	2.1
505.2590	0.6
506.2260	0.6
506.2649	0.7
515.2438	0.7
519.2371	1.3
519.2750	1.3
520.2420	0.5
520.2789	0.5
532.2451	0.5
533.2519	0.5
547.2697	41.9
548.2730	14.9
549.2764	2.0
575.2646	1.3
576.2679	0.6
578.2506	1.1
579.2961	1.3
580.3015	0.5
605.3871	0.5
606.2823	1.1
606.5083	1.4
607.1885	0.7
607.2093	0.5
607.2907	100.0
607.3732	0.6
607.3920	0.8
607.5074	0.6
608.2939	39.8
609.2969	5.8

Name: Npc219357
PrecursorMZ: 335.18522
RT: 1.4645
ExactMass: 334.17802393
Spectrum_type: 2
charge: 1
Formula: C19H26O5
SMILES: C[C@@H]1C[C@@H]2[C@@H]([C@@H](C(=O)O2)C)[C@@H]([C@]3([C@H]1C=CC3=O)C)OC(=O)C(C)C
Method: HCD
Collision_energy: [28.333334]
Isolation_window: 4.0
Ion_mode: P
Num Peaks: 27
71.0495	10.1
108.0809	4.8
113.0599	3.8
159.1170	8.5
161.1325	5.4
178.0865	3.9
179.0702	7.0
182.1176	11.4
186.1491	3.9
187.1116	7.3
205.1223	4.7
210.1124	5.4
223.1328	10.5
229.1223	19.2
247.1329	18.2
249.1121	6.5
253.1585	3.8
281.1538	10.3
287.1642	5.4
299.1638	13.7
317.1744	10.2
319.1538	5.7
335.0890	5.8
335.1263	7.5
335.1846	100.0
336.1452	4.5
336.1880	24.5

Name: Npc328431
PrecursorMZ: 277.10271
RT: 9.20574
ExactMass: 276.09575085
Spectrum_type: 2
charge: 1
Formula: C10H16N2O7
SMILES: C(CC(=O)NC(CCC(=O)O)C(=O)O)C(C(=O)O)N
Method: HCD
Collision_energy: [28.333334]
Isolation_window: 4.0
Ion_mode: P
Num Peaks: 30
57.0703	5.1
84.0446	62.0
85.0650	8.1
102.0550	34.7
130.0497	61.0
134.0962	5.0
148.0602	100.0
149.0232	7.2
149.0637	4.7
168.0655	6.1
168.1016	6.0
214.0705	11.4
214.1068	7.5
230.1384	6.6
232.1176	15.4
234.1848	20.3
235.1884	4.1
242.0656	4.6
258.1330	7.5
260.0763	9.2
275.1385	7.0
276.0863	4.8
276.1220	7.4
276.1443	8.4
276.1949	6.9
277.1027	23.7
278.0802	4.0
278.1231	38.0
278.1384	11.6
279.0932	5.3

Name: Nuclease, ribo-
PrecursorMZ: 227.11394
RT: 5.4474
ExactMass: 226.10659032
Spectrum_type: 2
charge: 1
Formula: C9H14N4O3
SMILES: C1=C(NC=N1)CC(C(=O)O)NC(=O)CCN
Method: HCD
Collision_energy: [28.333334]
Isolation_window: 4.0
Ion_mode: P
Num Peaks: 102
55.0548	1.8
59.0497	2.5
60.0813	14.7
70.0656	10.5
72.0813	2.8
82.0655	2.0
83.0495	8.6
84.0812	23.7
86.0969	2.8
96.0810	2.1
97.3289	1.8
100.0760	10.5
101.0600	36.9
108.0448	1.8
110.0604	2.3
110.0716	11.9
112.0759	3.7
112.0872	2.1
114.0666	3.2
116.0708	5.3
118.0865	5.5
120.0813	2.1
126.0551	48.4
127.0588	2.4
128.0708	1.9
129.1024	2.1
130.0865	33.3
131.0899	1.9
136.0757	2.8
137.1077	3.0
138.0918	2.2
140.1071	1.8
142.0501	3.3
151.1228	2.5
156.0770	9.2
158.0945	1.9
160.0969	2.3
164.0824	2.9
172.1092	2.4
173.0928	1.8
175.1202	3.1
180.0779	2.2
181.1090	1.9
182.0929	6.9
182.1168	2.2
183.0768	5.7
186.0878	2.9
189.1600	46.4
190.1632	4.8
200.1286	5.2
210.0885	5.6
215.1391	3.5
216.0984	8.1
216.1233	4.8
218.1388	7.6
225.0969	2.0
225.1313	15.6
226.1076	100.0
226.1431	4.2
227.1119	16.3
227.1395	17.4
228.0870	2.4
228.1223	1.8
229.1189	1.9
229.1328	2.2
230.1178	18.3
230.1391	12.3
230.1870	3.7
231.1364	4.4
231.1698	5.5
232.1660	75.3
233.1317	3.1
233.1692	7.7
234.1096	6.8
234.1338	9.8
234.1684	1.9
235.1450	2.9
236.1296	2.4
236.1494	74.2
236.1709	2.0
237.1241	9.4
237.1549	8.1
238.1073	16.8
238.1436	7.8
239.1088	2.7
239.1411	8.4
240.1230	16.1
241.1284	3.0
241.1541	22.7
242.1020	5.1
242.1259	8.0
243.1306	3.1
244.0977	6.5
244.1203	2.3
244.1558	2.4
245.1259	3.1
245.1518	2.7
245.1867	1.8
246.1112	3.9
246.1555	8.2
247.1281	6.0
248.1495	1.8

Name: N~2~-(1-Hydroxyhexadecylidene)arginine
PrecursorMZ: 413.34822
RT: 5.1797
ExactMass: 412.34134128
Spectrum_type: 2
charge: 1
Formula: C22H44N4O3
SMILES: CCCCCCCCCCCCCCCC(=O)NC(CCCN=C(N)N)C(=O)O
Method: HCD
Collision_energy: [28.333334]
Isolation_window: 4.0
Ion_mode: P
Num Peaks: 35
57.0702	4.6
60.0560	3.4
69.0702	2.8
69.6658	3.1
70.0655	15.5
71.0858	4.0
72.0811	2.6
81.0701	6.2
83.0857	4.2
84.0810	88.5
85.0843	6.7
85.1014	3.2
95.0857	6.3
97.1012	3.5
109.0285	3.4
109.1013	4.1
112.0757	20.9
112.0869	7.6
115.0866	8.8
116.0706	16.4
129.1021	25.0
130.0861	24.2
147.1125	12.7
158.0923	24.8
175.1187	15.8
354.2998	9.4
396.3211	6.3
411.3583	5.9
412.3202	7.3
412.3596	4.2
413.3477	100.0
413.3734	48.8
414.3329	67.9
414.3777	7.5
415.3394	11.4

Name: N~4~,N~5~-dibenzyl-2,2-dimethyl-1,3-dioxolane-4,5-dicarboxamide
PrecursorMZ: 391.16263
RT: 1.3850666666666667
ExactMass: 368.17360725
Spectrum_type: 2
charge: 1
Formula: C21H24N2O4
SMILES: CC1(OC(C(O1)C(=O)NCC2=CC=CC=C2)C(=O)NCC3=CC=CC=C3)C
Method: HCD
Collision_energy: [28.333334]
Isolation_window: 4.0
Ion_mode: P
Num Peaks: 5
149.0237	6.2
390.2769	5.7
391.1630	100.0
392.1668	15.1
392.2947	7.2

Name: N~5~-carbamoyl-N~2~-((2S)-2-(4-oxo-1,2,3-benzotriazin-3(4H)-yl)propanoyl)-L-ornithine
PrecursorMZ: 377.15648
RT: 5.4694
ExactMass: 376.14951776
Spectrum_type: 2
charge: 1
Formula: C16H20N6O5
SMILES: C[C@@H](C(=O)N[C@@H](CCCNC(=O)N)C(=O)O)N1C(=O)C2=CC=CC=C2N=N1
Method: HCD
Collision_energy: [28.333334]
Isolation_window: 4.0
Ion_mode: P
Num Peaks: 31
69.0702	6.6
70.0655	3.7
84.0810	6.4
86.0603	5.3
86.0967	5.1
88.0395	6.9
130.0498	7.6
130.0861	7.4
136.0616	100.0
137.0589	3.0
137.0649	3.7
148.0616	38.4
178.1588	4.5
204.1241	34.8
216.0875	8.4
232.1177	2.9
265.1039	13.6
277.1035	4.1
286.0929	4.2
291.1559	12.4
333.1664	33.2
334.1696	4.3
359.1441	5.1
376.1033	3.3
376.1820	4.4
377.1556	42.6
377.2793	32.0
378.1585	7.1
378.2150	13.3
378.2825	6.9
379.1336	6.4

Name: O-Acetyl-L-serine
PrecursorMZ: 148.06045
RT: 8.3569
ExactMass: 147.05315777
Spectrum_type: 2
charge: 1
Formula: C5H9NO4
SMILES: CC(=O)OC[C@@H](C(=O)O)N
Method: HCD
Collision_energy: [28.333334]
Isolation_window: 4.0
Ion_mode: P
Num Peaks: 23
70.0292	1.4
70.0656	1.0
84.0447	2.3
84.0812	0.6
86.0968	1.8
88.0339	0.7
88.0396	100.0
88.0760	3.1
89.0430	3.8
91.0545	1.1
100.0759	0.6
102.0552	1.1
102.0915	1.0
123.9645	1.0
130.0497	0.7
130.0863	0.7
148.0605	8.3
148.0756	0.8
148.0968	1.7
149.0233	1.0
149.0641	0.7
150.0914	2.4
150.1278	4.2

Name: O-Coumaric Acid
PrecursorMZ: 165.05465
RT: 6.7028
ExactMass: 164.047344113
Spectrum_type: 2
charge: 1
Formula: C9H8O3
SMILES: C1=CC=C(C(=C1)/C=C/C(=O)O)O
Method: HCD
Collision_energy: [28.333334]
Isolation_window: 4.0
Ion_mode: P
Num Peaks: 38
79.0546	0.8
84.9600	1.0
91.0545	1.2
93.0702	2.1
95.0494	7.6
105.0701	0.9
107.0856	1.2
119.0493	1.2
119.0857	1.3
120.0809	4.8
121.0651	1.9
122.0602	2.4
123.0348	0.8
123.0442	100.0
124.0475	7.7
125.0597	0.8
136.0757	9.7
137.0790	0.9
138.0549	1.9
138.0914	2.4
139.0754	2.7
139.0866	1.8
147.0440	5.5
163.1119	1.8
164.0343	1.4
164.0707	5.6
164.1072	1.4
165.0549	2.8
165.0652	1.3
165.0912	0.9
165.1023	0.8
166.0499	1.5
166.0859	3.8
166.1226	0.8
167.0568	1.2
167.0704	2.4
167.0809	2.0
167.1543	5.6

Name: O-Succinylhomoserine
PrecursorMZ: 220.08136
RT: 7.4017
ExactMass: 219.07428713
Spectrum_type: 2
charge: 1
Formula: C8H13NO6
SMILES: C(COC(=O)CCC(=O)O)[C@@H](C(=O)O)N
Method: HCD
Collision_energy: [28.333334]
Isolation_window: 4.0
Ion_mode: P
Num Peaks: 25
59.0495	6.3
74.0603	6.1
76.0395	7.2
84.0446	31.2
85.0285	5.4
86.0602	12.7
90.0551	16.1
102.0550	17.4
109.0284	7.2
130.0497	100.0
138.0548	16.9
148.0605	8.9
156.0653	14.6
160.0603	6.9
166.0497	10.9
174.0760	10.8
174.1123	8.3
175.0865	12.1
184.0602	24.3
201.0867	6.4
202.0708	8.4
219.0764	5.8
220.0963	6.5
220.1183	16.3
221.0915	6.9

Name: O-Toluidine
PrecursorMZ: 108.08096
RT: 0.3951
ExactMass: 107.073499291
Spectrum_type: 2
charge: 1
Formula: C7H9N
SMILES: CC1=CC=CC=C1N
Method: HCD
Collision_energy: [28.333334]
Isolation_window: 4.0
Ion_mode: P
Num Peaks: 7
80.0499	9.5
93.0576	6.0
106.0654	4.4
108.0810	100.0
109.0763	10.3
109.0843	7.6
110.0603	32.4

Name: O-adipoylcarnitine
PrecursorMZ: 290.15942
RT: 8.2343
ExactMass: 289.15253745
Spectrum_type: 2
charge: 1
Formula: C13H23NO6
SMILES: C[N+](C)(C)CC(CC(=O)[O-])OC(=O)CCCCC(=O)O
Method: HCD
Collision_energy: [28.333334]
Isolation_window: 4.0
Ion_mode: P
Num Peaks: 86
60.0812	19.6
70.0654	6.7
80.0496	2.0
81.0337	2.0
84.0446	4.8
84.0810	63.9
85.0286	81.6
85.0843	2.1
86.0320	2.9
87.0442	7.3
88.0395	2.4
90.0551	4.2
96.0444	3.3
97.0285	1.9
98.0602	2.5
99.0441	3.4
101.0598	14.2
102.0549	2.2
103.0390	5.7
108.0444	13.0
109.0284	1.9
114.0549	2.7
116.0707	2.5
119.0603	2.7
126.0548	12.8
126.0911	2.0
127.0389	4.6
127.0863	4.8
128.0705	2.1
129.0545	28.9
129.1021	7.8
130.0498	6.2
130.0861	18.7
142.0497	4.3
144.0652	2.0
144.1017	6.2
146.0920	4.4
147.0647	1.9
147.1126	10.7
155.0814	2.7
164.0704	6.0
166.0862	4.1
166.1224	7.8
170.0810	2.3
173.0918	6.4
191.1172	2.6
205.0968	17.6
209.1281	8.1
210.1120	7.1
213.0757	5.2
213.0867	1.8
227.1386	2.1
228.1227	8.7
229.1540	7.3
230.0811	1.8
231.0859	28.9
232.0894	2.7
237.0866	12.2
237.1228	3.1
238.0705	2.5
243.1335	2.5
245.1492	2.4
255.0974	3.8
255.1332	5.1
256.0811	2.0
272.0911	4.9
272.1236	6.8
273.1076	21.4
273.1437	10.0
288.1193	2.5
288.1430	5.9
289.1030	4.9
289.1189	4.2
289.1391	9.1
289.1511	6.2
289.1745	5.7
290.1021	17.6
290.1352	38.2
290.1595	100.0
291.1186	7.3
291.1338	75.9
291.1549	48.4
292.1021	2.2
292.1176	6.7
292.1372	7.1
292.1552	8.0

PrecursorMZ: 206.10141
RT: 7.2991
Spectrum_type: 2
charge: 1
SMILES: O=C(O)C(NC(CC(O)C)=O)CCO
Method: HCD
Collision_energy: [28.333334]
Isolation_window: 4.0
Ion_mode: P
Num Peaks: 66
58.0655	8.9
60.0448	9.3
74.0239	16.0
74.0603	17.6
76.0397	7.0
82.0653	13.9
83.0494	6.5
84.0446	19.8
88.0395	44.9
89.0599	15.5
89.0710	12.0
90.0551	14.4
96.0810	5.4
98.0601	5.6
99.0553	5.6
100.0758	20.5
101.0598	37.3
102.0550	9.3
112.1121	15.0
116.0342	45.1
116.0704	5.1
118.0862	14.9
120.0653	4.9
120.0807	7.0
124.0757	9.5
126.0550	5.7
128.0704	30.8
130.0498	4.8
134.0446	18.7
138.0546	6.7
140.0704	9.1
142.0861	31.1
144.0289	9.9
144.0653	16.0
144.0808	6.4
146.0598	44.9
146.0810	82.0
147.0846	5.0
149.0231	5.6
158.0810	10.3
158.1174	63.3
159.0763	4.7
159.0911	5.6
159.1207	10.7
160.0602	7.0
160.0966	39.2
162.0548	56.7
164.0916	24.1
170.0809	25.5
187.0709	10.3
188.0703	71.1
188.0915	15.4
189.0737	7.7
204.0763	4.7
204.0863	7.9
204.1225	6.1
205.0815	100.0
205.0969	5.8
206.0445	13.6
206.0807	10.5
206.1018	55.0
206.1161	5.6
207.0762	6.9
207.1133	8.4
208.0602	9.5
208.0964	6.3

Name: OL (32:0)
PrecursorMZ: 625.55094
RT: 4.758850000000001
Spectrum_type: 2
charge: 1
Method: HCD
Collision_energy: [28.333334]
Isolation_window: 4.0
Ion_mode: P
Num Peaks: 88
57.0703	1.1
60.0448	0.6
67.0546	1.2
69.0702	2.4
69.3231	0.5
69.5039	1.0
69.5061	2.6
69.6176	0.8
70.0654	48.6
71.0494	0.7
71.0688	1.6
71.0858	1.6
81.0701	2.0
83.0857	3.0
84.0810	1.2
85.1014	1.0
87.0918	0.8
93.0700	0.5
95.0856	2.4
97.0761	1.6
97.1012	2.9
97.4547	0.5
97.4574	1.1
98.0601	1.2
107.0855	0.8
109.1011	1.3
111.1168	1.2
113.0709	1.4
114.0550	0.8
115.0801	0.7
115.0832	1.3
115.0866	100.0
116.0705	12.0
116.0839	0.7
116.0898	4.4
117.0737	0.6
121.1011	1.6
123.1168	0.7
129.1019	0.6
133.0969	3.7
135.1166	1.1
141.0656	2.6
149.1323	0.5
157.0972	0.7
158.0811	0.5
159.0763	2.4
176.8750	0.7
233.2262	0.5
250.2525	0.4
251.2364	1.7
265.2523	0.4
294.2787	0.4
301.1544	1.1
319.3101	1.3
323.3048	0.7
329.1494	0.4
333.2896	0.5
343.1640	1.2
344.1721	2.5
345.1760	0.7
347.3048	3.5
348.3078	0.7
351.2996	1.4
352.2837	0.6
357.3107	1.3
361.3206	0.7
365.3154	8.5
366.2993	4.8
366.3196	1.1
367.3022	1.1
369.3097	0.9
379.3307	1.6
380.3152	0.9
383.3257	5.8
384.3303	0.8
397.3416	1.1
401.3362	0.9
468.2481	3.5
469.2509	1.0
593.3321	3.4
594.3356	1.2
606.6163	0.7
607.5395	3.7
608.5441	1.0
625.3604	1.2
625.5501	53.6
626.5534	17.7
627.5570	2.7

Name: Obscurolide A1
PrecursorMZ: 292.11755
RT: 0.8983
ExactMass: 291.11067264
Spectrum_type: 2
charge: 1
Formula: C15H17NO5
SMILES: CC(/C=C/C1C(CC(=O)O1)NC2=CC=C(C=C2)C(=O)O)O
Method: HCD
Collision_energy: [28.333334]
Isolation_window: 4.0
Ion_mode: P
Num Peaks: 283
55.0547	3.6
56.0499	3.3
58.0656	4.0
67.0547	3.1
69.0337	4.4
69.0703	5.7
70.0656	48.8
71.0496	4.4
72.0812	8.5
74.0604	4.1
80.0498	6.6
81.0339	21.1
81.0702	2.9
82.0654	3.6
83.0495	11.8
84.0448	10.4
84.0812	16.6
85.0652	3.9
86.0604	12.5
86.0968	20.5
87.0444	5.5
91.0544	4.1
93.0700	3.1
95.0495	5.2
95.0860	3.5
96.0447	38.1
97.0650	5.9
98.0603	12.7
98.0968	4.7
99.0445	3.9
100.0760	56.3
101.0600	19.9
102.0550	4.9
105.0700	2.8
106.0653	4.7
107.0494	10.8
107.0855	3.2
108.0447	5.2
108.0809	2.9
109.0653	4.8
109.0764	5.3
110.0603	11.6
110.0717	4.8
111.0443	11.3
112.0760	24.3
113.0596	2.7
113.0711	3.3
114.0552	38.1
114.0664	6.1
114.0916	7.2
116.0708	71.1
118.0861	6.1
120.0662	4.8
120.0811	11.0
121.0647	4.6
122.0601	6.7
123.0442	53.8
123.0802	2.8
124.0477	3.5
124.0758	7.6
125.0236	5.1
126.0549	6.7
126.0914	12.7
127.0392	6.1
128.0707	29.6
128.1069	3.2
130.0503	5.6
130.0652	4.2
130.0865	10.3
131.0493	2.8
132.0809	3.4
132.1019	3.0
133.0651	5.2
134.0603	5.0
135.0800	3.1
136.0759	19.0
137.0595	8.0
138.0552	3.5
138.0914	6.8
139.0386	3.7
140.0707	19.6
140.1068	2.9
141.0660	3.6
142.0499	3.7
142.0865	10.6
144.0807	4.9
144.1019	3.4
145.0645	4.2
146.0601	5.2
147.0439	3.5
147.0775	5.7
148.0756	7.3
149.0596	8.4
149.0708	2.8
150.0549	9.8
150.0914	7.6
151.0870	3.3
152.0710	8.0
152.1072	7.0
153.0546	2.7
154.0862	7.4
156.0778	5.8
156.1018	3.8
157.0981	2.7
157.1339	4.0
158.0603	2.7
158.0814	6.7
159.0916	3.1
160.0756	8.0
161.0598	9.2
162.0912	4.3
163.0386	4.1
163.0756	3.8
163.0871	3.5
164.0706	13.9
164.1068	4.6
165.0548	5.8
165.1021	2.9
166.0860	11.5
166.0978	6.4
167.0818	4.5
168.0655	4.1
168.1015	6.8
170.0810	4.9
171.0763	3.2
173.0595	3.0
173.0927	6.0
174.0545	3.4
174.0904	3.4
175.0740	3.7
176.0703	6.3
177.0533	5.9
178.0856	7.6
179.0697	3.0
180.0654	3.5
180.1017	23.5
181.0957	3.5
182.0806	8.6
184.0724	11.0
184.0966	3.0
185.0928	4.3
186.0904	3.0
187.0747	3.8
188.0701	7.7
189.0539	6.3
190.0857	3.5
191.0698	21.3
192.0641	8.2
192.1010	5.6
194.0795	5.8
195.0781	2.9
195.1130	2.9
196.0966	4.3
198.1124	5.8
199.1077	8.2
202.0868	3.3
202.1062	3.0
204.1021	2.9
205.0978	2.8
206.0794	5.3
207.1137	5.0
208.0959	5.2
208.1328	3.6
209.0931	4.3
209.1280	11.1
210.0745	5.1
211.1069	3.4
212.1051	2.9
215.0703	2.9
216.0655	3.2
216.1016	3.0
217.0864	3.0
218.0802	3.7
220.0967	3.8
222.0753	3.2
222.1108	3.7
227.1028	8.6
228.1030	3.2
229.1297	4.5
230.0809	4.0
231.0646	6.0
232.0962	6.5
233.0125	3.4
234.1116	3.4
236.0899	3.1
239.1033	6.8
240.1225	2.9
243.1142	3.2
244.0958	5.7
245.0821	3.5
245.1304	3.8
246.1123	5.1
247.1440	3.4
248.0907	4.8
248.1268	4.1
250.1054	5.8
256.0971	3.3
257.0779	3.6
257.1274	4.6
258.1130	5.1
261.0078	4.7
261.1213	3.3
262.1073	5.3
263.0846	3.9
263.1069	4.0
263.1399	4.4
264.1221	4.7
265.1185	3.8
273.1222	2.8
274.1064	11.6
275.0894	7.0
275.1387	6.0
276.0917	5.5
276.1248	5.5
277.1182	7.3
278.1067	5.3
279.1380	4.0
280.1201	5.0
281.1159	6.2
281.1513	4.2
282.1365	4.4
283.1297	37.4
284.1311	5.6
285.1219	7.5
286.1083	5.5
287.1041	3.1
287.1388	4.6
288.1218	4.4
289.1188	3.4
289.1547	6.9
290.1026	9.9
290.1400	4.2
291.0986	5.0
291.1339	17.2
291.1695	13.4
292.1168	31.1
292.1650	4.6
293.1160	15.3
293.1493	100.0
293.1874	3.0
294.0983	6.5
294.1327	15.3
294.1518	10.0
295.0713	41.9
295.1319	12.2
295.1646	18.1
296.0739	6.3
296.1155	17.5
296.1515	11.0
297.1513	22.4
297.1854	5.2
298.1346	9.2
298.1642	6.1
299.1049	4.8
299.1617	35.0
299.1961	29.7
300.0904	4.5
300.1499	8.2
300.1968	4.8
301.1386	16.9
301.1755	6.4
302.1034	12.0
302.1390	8.3
303.0992	2.8
303.1308	18.0
304.0826	3.3
304.1164	29.7
305.1150	8.9
305.1495	13.0
306.0983	7.9
306.1346	19.5
306.1804	10.5
307.1313	17.6
307.1649	34.4
308.1131	13.7
308.1501	12.6
308.1835	2.9
309.0834	6.6
309.1474	16.1
309.1815	12.4
310.1286	19.7
311.1675	53.6
312.1818	4.1

Name: Ochromycinone
PrecursorMZ: 307.09576
RT: 8.0591
ExactMass: 306.08920892
Spectrum_type: 2
charge: 1
Formula: C19H14O4
SMILES: C[C@H]1CC2=C(C(=O)C1)C3=C(C=C2)C(=O)C4=C(C3=O)C=CC=C4O
Method: HCD
Collision_energy: [28.333334]
Isolation_window: 4.0
Ion_mode: P
Num Peaks: 36
56.0500	27.4
68.0499	18.7
81.0340	7.2
84.0447	6.4
85.0400	14.3
96.0446	5.3
102.0552	7.1
113.0712	18.6
114.0552	9.9
142.0500	8.0
151.0866	5.3
160.0605	6.0
166.0500	6.1
169.0975	5.5
179.0818	9.9
197.0563	5.5
197.0921	70.0
198.0956	5.7
215.0662	35.6
225.0871	35.3
243.0976	88.9
244.1012	8.4
261.0901	11.8
272.1128	5.3
289.0853	5.9
290.1235	23.4
305.2153	5.2
306.0967	6.9
306.1339	4.9
307.0957	100.0
307.1290	5.9
307.1652	6.8
308.0989	10.7
308.1134	7.7
308.1334	7.1
309.1081	7.2

Name: Octaethylene glycol
PrecursorMZ: 393.2091
RT: 2.7092
ExactMass: 370.22028266
Spectrum_type: 2
charge: 1
Formula: C16H34O9
SMILES: C(COCCOCCOCCOCCOCCOCCOCCO)O
Method: HCD
Collision_energy: [28.333334]
Isolation_window: 4.0
Ion_mode: P
Num Peaks: 9
86.0966	5.5
120.0807	1.4
199.1801	1.2
227.1751	1.6
261.1590	0.7
393.2086	100.0
393.2612	0.8
394.2120	16.9
395.2142	1.1

Name: Octenoyl-carnitine; LC-tDDA; CE10
PrecursorMZ: 286.20073
RT: 5.4048
Spectrum_type: 2
charge: 1
SMILES: CCCCC/C=C/C(=O)O[C@@H](CC(=O)[O-])C[N+](C)(C)C
Method: HCD
Collision_energy: [28.333334]
Isolation_window: 4.0
Ion_mode: P
Num Peaks: 35
60.0811	5.6
69.4821	4.8
70.0654	6.0
81.0336	5.3
84.0446	6.7
85.0285	100.0
112.0756	4.3
114.0659	3.5
116.0704	6.3
124.0755	5.5
125.0959	17.2
130.0498	4.0
143.1063	7.2
166.0972	9.3
195.1123	5.1
227.1272	21.5
229.1289	9.3
241.1174	3.6
267.1330	4.2
284.3304	8.7
285.1222	7.6
285.1435	17.7
285.1560	26.1
286.0912	6.1
286.1065	4.7
286.1269	4.2
286.1426	9.3
286.1582	4.0
286.2003	49.3
287.1228	11.9
287.1379	5.8
287.2034	8.0
288.1063	5.3
288.1224	6.0
288.1572	4.1

Name: Octopamine
PrecursorMZ: 136.07564
RT: 5.9031
ExactMass: 153.078978594
Spectrum_type: 2
charge: 1
Formula: C8H11NO2
SMILES: C1=CC(=CC=C1C(CN)O)O
Method: HCD
Collision_energy: [28.333334]
Isolation_window: 4.0
Ion_mode: P
Num Peaks: 52
53.0390	1.9
65.0389	1.7
67.0546	2.6
69.0035	1.1
69.0089	1.0
70.0291	0.6
77.0387	0.6
79.0545	1.6
80.0497	1.1
81.0337	0.8
81.0701	1.9
91.0544	16.0
92.0577	1.3
93.0574	2.1
93.0700	13.0
94.0652	1.2
94.0733	0.9
95.0492	7.0
95.0856	1.4
96.0445	0.7
97.4558	0.8
97.4582	0.5
105.0447	1.1
107.0855	1.0
108.0444	1.3
108.0808	7.8
109.0648	0.6
110.0601	0.8
110.0964	1.1
118.0651	0.7
119.0351	1.1
120.0807	0.5
123.0678	0.6
126.0548	6.3
135.0803	1.2
135.1168	0.8
136.0218	1.2
136.0391	0.5
136.0507	0.6
136.0617	61.0
136.0755	100.0
136.0840	0.5
136.0864	0.6
137.0456	1.7
137.0591	2.1
137.0649	3.7
137.0708	0.7
137.0787	9.4
137.0958	0.8
137.1071	0.9
138.0547	1.4
138.0911	8.7

Name: Octopine
PrecursorMZ: 247.1398
RT: 7.2192
ExactMass: 246.13280507
Spectrum_type: 2
charge: 1
Formula: C9H18N4O4
SMILES: C[C@H](C(=O)O)N[C@@H](CCCN=C(N)N)C(=O)O
Method: HCD
Collision_energy: [28.333334]
Isolation_window: 4.0
Ion_mode: P
Num Peaks: 37
58.0656	10.1
60.0561	12.0
70.0656	52.4
72.0812	17.1
84.0811	100.0
85.0845	7.0
100.0760	8.3
101.0600	6.8
112.0872	11.0
114.1028	12.8
115.0866	7.7
116.0708	25.8
118.0864	9.5
123.0556	8.5
128.0708	7.6
129.1025	12.4
130.0864	45.2
130.0973	11.2
132.0766	9.7
142.0865	15.2
158.0924	7.9
175.1193	12.0
186.0874	7.0
247.1403	72.0
247.1652	45.1
248.1430	9.3
249.1460	16.9
250.1539	9.8
252.1240	6.5
254.1860	20.0
257.1258	15.2
258.0839	8.1
258.1447	23.8
259.1403	18.2
261.1559	9.9
263.0826	14.7
264.1312	14.0

Name: Octylamine
PrecursorMZ: 130.159
RT: 6.6394
ExactMass: 129.15174961
Spectrum_type: 2
charge: 1
Formula: C8H19N
SMILES: CCCCCCCCN
Method: HCD
Collision_energy: [28.333334]
Isolation_window: 4.0
Ion_mode: P
Num Peaks: 11
57.0703	25.3
69.6604	3.1
71.0858	2.9
74.0967	28.0
88.1122	4.9
103.0542	3.0
129.1384	4.5
130.0409	16.2
130.0649	8.6
130.1588	100.0
131.1621	9.9

Name: Olaquindox
PrecursorMZ: 264.08979
RT: 6.0455
ExactMass: 263.0906059
Spectrum_type: 2
charge: 1
Formula: C12H13N3O4
SMILES: CC1=C([N+](=O)C2=CC=CC=C2N1[O-])C(=O)NCCO
Method: HCD
Collision_energy: [28.333334]
Isolation_window: 4.0
Ion_mode: P
Num Peaks: 8
184.0426	11.9
186.0581	100.0
216.0686	11.1
228.0684	29.0
246.0790	30.5
263.0815	21.5
264.0894	71.7
265.1305	35.3

Name: Oleic Acid
PrecursorMZ: 283.26283
RT: 1.4821
ExactMass: 282.255880323
Spectrum_type: 2
charge: 1
Formula: C18H34O2
SMILES: CCCCCCCC/C=C\CCCCCCCC(=O)O
Method: HCD
Collision_energy: [28.333334]
Isolation_window: 4.0
Ion_mode: P
Num Peaks: 69
55.0547	10.2
57.0703	27.7
67.0546	6.7
69.0702	26.9
71.0859	30.9
81.0701	19.9
83.0858	22.5
85.1014	17.5
93.0700	8.2
95.0857	18.8
97.0649	8.4
97.1013	19.1
97.4309	5.0
107.0857	11.5
109.1013	15.3
111.0805	8.1
111.1169	9.3
121.1012	13.3
123.0439	6.1
123.1169	8.7
125.0960	11.0
135.0804	7.3
135.1167	16.4
137.0962	8.0
139.1116	10.0
141.0545	7.1
145.1009	6.8
149.1323	13.8
151.0389	6.0
151.1117	17.1
153.1272	10.4
159.0800	5.2
163.0752	6.8
163.1480	11.2
165.0546	30.2
167.0336	7.0
167.1428	4.7
169.0494	7.4
173.0959	15.5
177.0545	11.7
177.1634	8.9
179.0700	8.3
191.1065	58.4
191.1792	5.6
192.1100	5.8
201.0909	20.5
203.1063	7.2
205.0492	6.9
205.0856	34.7
209.1167	7.1
219.1013	85.3
220.1047	15.4
223.0961	35.5
224.0992	5.0
229.0856	18.9
237.1118	64.9
238.1151	8.8
247.0962	63.0
247.2417	20.7
248.0998	11.7
265.1067	100.0
265.2522	15.2
266.1101	17.1
282.2787	42.6
283.1175	33.8
283.2626	5.1
283.2820	9.7
284.1203	6.9
284.2945	7.8

Name: Olopatadine
PrecursorMZ: 338.17442
RT: 7.4398
ExactMass: 337.1677936
Spectrum_type: 2
charge: 1
Formula: C21H23NO3
SMILES: CN(C)CC/C=C\1/C2=CC=CC=C2COC3=C1C=C(C=C3)CC(=O)O
Method: HCD
Collision_energy: [28.333334]
Isolation_window: 4.0
Ion_mode: P
Num Peaks: 12
84.0812	17.2
89.0602	8.2
100.0758	9.3
132.0445	25.3
214.1312	100.0
215.1353	12.7
240.2323	10.3
277.1217	53.4
278.1270	7.9
297.1231	13.3
338.1738	17.9
346.3320	14.6

Name: Ophthalmate
PrecursorMZ: 290.13406
RT: 8.8509
ExactMass: 288.1195603
Spectrum_type: 2
charge: 1
Formula: C11H18N3O6-
SMILES: CC[C@@H](C(=O)NCC(=O)[O-])NC(=O)CC[C@@H](C(=O)[O-])[NH3+]
Method: HCD
Collision_energy: [28.333334]
Isolation_window: 4.0
Ion_mode: P
Num Peaks: 69
70.0655	2.3
74.0604	2.2
81.0337	0.8
84.0811	3.1
86.0604	2.0
87.0443	4.7
88.0396	12.4
90.0552	1.4
97.3992	0.8
100.0759	3.0
101.0599	1.7
102.0551	0.8
104.0707	3.1
112.0757	1.5
114.0915	0.8
116.0708	2.8
126.0549	1.8
127.0504	1.3
129.1023	0.9
130.0499	1.6
130.0862	2.6
144.0656	1.1
146.0924	5.4
154.0862	1.5
156.0767	1.1
158.0925	2.5
162.0760	3.8
168.0769	0.8
180.0769	1.0
185.0920	0.8
186.0872	1.5
198.0872	2.2
199.0951	0.9
200.1029	0.8
216.0976	3.5
217.1059	2.6
218.1139	1.4
226.1178	1.3
228.1338	2.0
242.1135	0.8
244.1293	1.6
253.1544	0.9
254.1135	0.8
260.1238	5.7
272.1123	1.0
272.1240	12.5
272.1482	0.8
273.1076	1.2
273.1281	1.3
288.1204	1.8
288.1551	2.9
289.1049	1.2
289.1217	0.8
289.1395	2.9
289.1543	1.3
289.1753	5.8
290.1000	1.5
290.1345	100.0
290.1606	2.4
290.1772	0.9
290.1959	0.9
291.1378	12.5
291.1548	1.3
291.1674	2.3
291.2427	1.0
292.1006	0.9
292.1177	1.3
292.1389	4.3
292.1536	2.4

Name: Ophthalmic acid
PrecursorMZ: 290.1341
RT: 5.3469
ExactMass: 289.12738533
Spectrum_type: 2
charge: 1
Formula: C11H19N3O6
SMILES: CC[C@@H](C(=O)NCC(=O)O)NC(=O)CC[C@@H](C(=O)O)N
Method: HCD
Collision_energy: [28.333334]
Isolation_window: 4.0
Ion_mode: P
Num Peaks: 41
70.0656	2.8
86.0604	7.3
87.0444	2.5
90.0553	1.8
98.0603	1.4
101.0601	1.2
104.0708	1.7
112.0873	1.0
126.0554	1.5
130.0866	1.4
130.0977	6.9
144.0655	2.5
146.0924	8.4
161.0921	2.0
186.0870	1.1
187.0712	1.1
200.1045	1.1
244.0971	1.3
245.1004	2.2
250.0923	1.4
254.1142	1.4
270.0761	1.3
271.0793	2.3
272.1241	26.8
273.1274	3.2
288.0863	1.0
288.1165	1.0
288.1462	1.0
289.0925	2.1
289.1507	33.7
290.1341	100.0
291.1364	13.3
292.1495	10.8
292.1771	1.5
293.1511	1.4
301.1399	6.9
302.1206	3.5
303.1635	1.4
304.1487	2.8
308.1747	3.0
309.1676	1.6

Name: Orantinib
PrecursorMZ: 311.13853
RT: 6.6805
ExactMass: 310.13174244
Spectrum_type: 2
charge: 1
Formula: C18H18N2O3
SMILES: CC1=C(NC(=C1CCC(=O)O)C)/C=C\2/C3=CC=CC=C3NC2=O
Method: HCD
Collision_energy: [28.333334]
Isolation_window: 4.0
Ion_mode: P
Num Peaks: 29
69.2451	6.6
97.4322	7.6
107.0492	49.2
111.0441	5.1
123.0440	5.0
130.0650	100.0
131.0684	9.2
146.0598	8.7
166.0722	13.9
180.0877	10.6
183.0651	6.9
188.0703	60.0
189.0737	5.9
200.0704	6.0
205.0968	25.0
234.0910	24.9
235.0943	5.1
248.1064	4.7
267.1013	8.2
274.0930	6.3
294.1118	76.8
295.0960	15.3
295.1150	16.5
310.1138	31.2
311.1223	6.6
311.1384	13.4
312.0963	15.9
312.1431	5.7
313.0674	4.4

Name: Orcinol
PrecursorMZ: 125.05974
RT: 3.2047
ExactMass: 124.052429494
Spectrum_type: 2
charge: 1
Formula: C7H8O2
SMILES: CC1=CC(=CC(=C1)O)O
Method: HCD
Collision_energy: [28.333334]
Isolation_window: 4.0
Ion_mode: P
Num Peaks: 44
53.0389	3.5
55.0546	5.2
65.0389	4.2
67.0546	15.4
69.0338	4.8
69.0702	2.5
71.0131	2.5
79.0544	5.4
80.0497	13.6
81.0337	7.6
81.0450	8.0
81.0701	6.7
82.0415	6.6
82.0527	3.5
83.0494	5.0
83.0858	2.4
95.0492	17.4
96.0444	4.9
96.0808	3.3
97.0649	18.9
98.0601	4.4
107.0603	2.5
109.0284	3.0
109.0648	2.8
109.0760	2.7
112.0269	3.1
123.0552	56.7
123.0804	3.2
123.0916	100.0
124.0392	2.7
124.0585	11.5
124.0756	11.9
124.0876	2.5
124.0948	17.5
125.0596	27.9
125.0708	14.0
125.0960	2.4
125.1071	16.5
126.0548	11.4
126.0912	21.5
127.0390	3.9
127.0500	14.1
127.0752	33.5
127.0862	3.5

Name: Oridonin
PrecursorMZ: 347.18499
RT: 0.5589
ExactMass: 364.18858861
Spectrum_type: 2
charge: 1
Formula: C20H28O6
SMILES: CC1(CC[C@@H]([C@]23[C@@H]1[C@@H]([C@]([C@]45[C@H]2CC[C@H]([C@H]4O)C(=C)C5=O)(OC3)O)O)O)C
Method: HCD
Collision_energy: [28.333334]
Isolation_window: 4.0
Ion_mode: P
Num Peaks: 469
55.0546	7.5
56.0500	10.0
57.0340	5.7
57.0704	64.4
58.0737	3.5
59.0497	5.1
60.0449	5.7
62.0606	4.6
67.0547	35.1
69.0340	11.0
69.0704	71.8
70.0656	7.7
70.0737	3.8
71.0132	3.2
71.0496	22.9
71.0860	17.1
72.0813	15.9
73.0652	2.6
74.0605	45.7
79.0546	17.7
81.0340	14.1
81.0703	62.0
82.0736	4.5
83.0496	100.0
83.0860	27.5
84.0529	5.0
84.0812	5.3
84.0892	2.5
85.0287	3.8
85.0652	56.9
85.1016	7.1
86.0607	4.0
86.0687	2.6
86.0968	52.4
87.0444	2.7
87.1002	3.7
89.0601	4.9
90.0553	2.2
91.0543	10.8
93.0703	35.9
94.0735	2.3
95.0495	29.7
95.0859	64.8
96.0891	5.4
97.0651	22.6
97.1015	16.0
98.0603	3.3
98.0685	2.2
99.0079	2.3
99.0445	6.5
99.0808	11.5
100.0762	2.8
101.0602	5.0
104.0709	5.9
105.0701	20.9
107.0496	11.5
107.0858	37.7
108.0891	2.8
109.0287	2.4
109.0651	28.9
109.1015	45.1
110.1047	3.5
111.0442	4.3
111.0807	11.5
111.1169	6.4
112.0761	12.1
112.1129	3.7
113.0600	15.5
113.0962	3.1
115.0758	2.4
116.0710	7.3
117.0699	5.9
119.0494	7.5
119.0857	24.4
120.0813	7.5
121.0650	21.5
121.1014	37.9
122.1041	3.4
123.0442	7.2
123.0807	15.3
123.1171	22.7
124.0759	2.9
124.1204	2.2
125.0598	12.9
125.0963	10.4
125.1327	2.3
126.0223	6.7
126.0915	11.1
127.0756	17.5
127.1118	4.3
128.0708	2.8
129.0548	2.5
129.0702	3.1
131.0856	15.4
132.1020	13.9
133.0650	8.0
133.1012	26.3
134.1051	2.2
135.0443	10.7
135.0806	17.0
135.1170	32.0
136.0753	4.5
136.1206	2.6
137.0598	14.9
137.0961	13.5
137.1324	9.2
138.0549	3.6
138.0914	2.7
139.0394	2.5
139.0756	5.9
139.1119	6.5
140.0375	5.4
140.0705	5.4
141.0546	5.7
141.0912	3.2
141.1274	2.3
142.0866	2.2
143.0858	7.8
145.0647	5.3
145.1013	20.2
146.1176	14.5
147.0444	2.9
147.0806	12.0
147.1170	22.4
148.1205	2.8
149.0600	10.6
149.0964	14.1
149.1327	19.8
150.1363	2.3
151.0757	9.5
151.1117	9.4
151.1483	3.9
153.0209	3.3
153.0551	7.5
153.0911	8.1
153.1275	4.2
155.0340	3.5
155.0705	6.5
155.0854	2.4
155.1072	2.2
157.0500	2.4
157.0654	2.5
157.1012	10.1
159.0806	7.8
159.1171	15.5
160.1204	2.1
161.0599	8.1
161.0961	8.8
161.1328	15.9
163.0392	2.3
163.0757	13.1
163.1120	10.1
163.1485	10.8
164.0696	5.0
165.0553	4.4
165.0911	11.0
165.1279	7.2
167.0339	3.6
167.0704	3.7
167.1069	3.5
169.0861	3.5
169.1013	4.0
171.0654	4.6
171.0807	3.5
171.1166	11.5
172.1336	13.7
173.0601	4.8
173.0962	7.2
173.1321	13.5
175.0755	12.3
175.1119	15.1
175.1481	8.9
177.0551	5.6
177.0911	7.3
177.1275	11.2
177.1640	5.1
179.0341	36.0
179.0702	12.9
179.1063	4.8
179.1430	8.3
180.0371	4.3
180.1019	5.0
181.0861	9.5
181.1026	3.1
181.1211	4.7
183.1012	2.1
183.1162	5.8
185.0966	7.2
185.1325	6.8
185.1654	6.3
187.0756	6.3
187.1120	11.1
187.1474	10.2
189.0550	6.2
189.0910	8.4
189.1274	11.4
189.1638	4.7
191.0706	13.1
191.1058	6.7
191.1434	9.3
191.1797	2.5
192.1388	2.8
193.0498	2.9
193.0861	11.4
193.1217	7.4
193.1590	2.4
194.1172	5.2
195.0658	5.7
195.1180	2.5
195.1378	2.6
195.1535	3.5
196.0971	8.3
196.1333	9.2
197.0450	6.5
197.0811	2.9
197.0966	5.4
197.1331	4.7
199.0751	2.2
199.1119	11.5
199.1493	4.3
201.0917	7.1
201.1272	7.4
201.1642	5.7
203.0705	15.9
203.1070	16.8
203.1436	3.9
203.1798	3.4
205.0493	2.3
205.0859	11.8
205.1211	8.0
206.1175	11.6
207.0653	11.6
207.0997	5.4
207.1370	6.8
209.0449	2.9
209.0806	8.8
209.1172	2.4
209.1320	2.6
209.1540	2.7
211.0592	3.4
211.1138	4.1
211.1487	3.4
213.0925	5.4
213.1274	6.0
213.1619	5.9
215.0718	4.1
215.1068	15.4
215.1413	5.1
215.1787	4.4
217.0499	2.2
217.0867	8.1
217.1222	23.2
217.1592	2.3
218.1248	2.9
219.0664	3.6
219.1006	6.5
219.1354	6.0
221.0809	8.0
221.1161	10.2
221.1535	3.0
223.0609	4.7
223.0945	4.3
225.0743	6.4
225.1273	2.2
225.1645	2.1
227.1069	10.1
227.1291	4.5
227.1769	3.6
229.0872	5.1
229.1221	11.1
231.0654	3.1
231.1018	7.9
231.1375	8.3
233.0817	4.6
233.1171	20.5
233.1512	4.3
234.1201	3.7
235.0964	6.2
235.1320	14.9
237.0749	4.6
237.1123	2.4
239.0914	5.2
239.1074	3.8
241.0867	3.9
241.1221	10.2
241.1590	2.1
243.1017	10.3
243.1379	7.6
243.1737	2.6
243.2103	5.4
245.1171	42.9
245.1543	2.2
245.2262	5.0
246.1199	4.7
247.0954	5.9
247.1316	12.7
247.1699	2.5
248.1358	2.6
249.1110	5.4
249.1477	6.2
249.1860	2.1
251.1254	4.5
253.1445	2.2
255.1017	12.3
255.1383	3.2
255.1743	2.3
256.1049	2.6
257.1170	23.6
258.1205	4.2
259.0970	7.5
259.1332	30.8
259.2052	2.9
260.1365	3.8
261.1122	20.5
261.1488	11.7
261.2213	11.1
262.1156	3.2
262.1497	2.9
263.1276	31.6
263.2368	4.5
264.1308	3.8
265.1430	5.5
265.2528	2.2
266.2487	3.2
267.1000	2.2
269.1169	4.2
269.1530	2.1
271.1332	11.5
271.1690	2.9
272.1342	2.6
272.1668	2.2
273.1122	21.0
273.1491	4.8
274.1152	4.3
275.1277	37.0
275.2005	3.3
276.1319	7.0
277.1123	2.7
277.1433	51.6
277.2161	2.5
278.1464	6.5
279.1231	6.6
279.1591	2.1
281.1383	12.4
283.1689	5.1
285.1134	4.0
285.1482	4.2
285.1845	2.3
287.1280	11.9
287.1639	5.7
287.2008	2.9
288.1299	3.2
289.1436	13.3
290.1458	3.3
291.0901	5.1
291.1227	7.6
291.1591	2.5
293.1366	9.4
295.1538	4.0
297.1461	3.0
299.0918	11.6
299.1636	7.4
299.1997	2.4
300.0948	2.2
301.1448	3.0
301.1800	10.4
301.2156	2.2
301.2520	2.4
303.1228	3.4
303.1589	6.4
303.1961	3.1
303.2682	2.7
305.1379	4.5
305.1801	2.4
307.1545	2.3
309.1490	2.2
311.1643	15.7
312.1662	3.9
313.1797	9.6
314.1816	2.4
315.1596	6.5
315.1953	4.8
317.1758	18.2
317.2112	3.6
318.1773	2.5
319.1908	3.8
323.1635	3.0
325.1782	4.3
327.1631	7.3
327.1944	6.8
328.1600	3.0
328.1953	2.3
329.1750	40.1
329.2078	2.9
329.2485	2.4
330.1771	7.7
331.1543	2.2
331.1906	27.0
331.2628	2.2
332.1906	6.6
332.2260	2.6
333.1692	15.4
333.2047	4.4
334.1717	3.3
335.1859	6.0
335.2593	2.5
336.2524	2.2
336.2910	2.8
337.2755	2.1
339.2542	2.5
341.1750	9.1
342.1762	3.0
343.1560	3.2
343.1908	18.3
344.1915	5.2
345.1695	19.4
345.2060	20.9
346.1717	7.1
346.2063	11.4
346.2401	2.2
346.2797	2.1
347.1853	81.2
347.2201	4.1
347.2593	5.6
347.3060	2.2
348.1851	12.1
348.2227	2.4
348.2924	5.0
349.2022	15.5
349.2726	5.8
350.2020	5.1
350.3058	52.8
351.1802	14.3
351.2548	5.9
351.3074	14.7
352.1831	2.8
352.3227	8.5
353.1982	3.2
353.2710	5.7
353.3175	2.7
354.3088	2.6
355.1542	20.6
355.2638	4.5
356.1531	4.5
357.1710	5.9
357.2798	27.5
357.3245	3.9
358.2025	2.2
358.2411	3.1
358.2807	8.5
358.3305	2.5
359.1500	2.9
359.1859	36.6
359.2888	2.7
360.1457	2.5
360.1860	10.4
361.2018	46.0
362.1981	12.1
362.2368	2.8
362.3080	2.7
363.1790	14.0
363.2198	15.1
363.3036	3.1
364.1775	2.8
364.2170	5.6
364.3260	4.4
365.1959	64.1
365.3162	6.8
366.1984	5.8

Name: Ornithine-C5:0
PrecursorMZ: 217.15444
RT: 7.7474
Spectrum_type: 2
charge: 1
SMILES: CCCCC(NC(CCCN)C(O)=O)=O
Method: HCD
Collision_energy: [28.333334]
Isolation_window: 4.0
Ion_mode: P
Num Peaks: 88
56.0498	3.2
60.0448	3.9
61.0400	6.8
70.0655	46.4
71.0494	6.6
72.0811	4.8
74.0604	29.8
84.0447	3.6
84.0810	100.0
85.0844	5.5
86.0603	3.3
86.0967	2.6
96.0445	3.8
100.0757	3.9
101.0234	5.4
101.0598	11.3
102.0550	4.1
109.0761	4.0
110.0237	2.3
112.0758	24.1
112.1121	2.6
114.0551	5.3
114.0661	5.7
115.0866	28.0
116.0706	97.6
117.0739	4.9
121.0283	4.6
121.0648	9.8
126.0549	3.3
126.0912	2.4
128.0705	3.9
128.1069	6.0
129.1022	3.5
130.0862	26.7
137.0708	5.2
138.0549	3.4
139.0388	4.2
140.0706	2.4
140.1068	20.0
144.0654	3.7
144.0806	19.9
147.1127	9.2
151.0862	4.4
154.0861	29.2
154.1225	90.4
155.1258	7.4
156.0653	8.1
156.1020	6.1
157.0608	5.7
157.1333	3.6
158.0811	5.0
163.0864	3.4
170.0810	11.4
170.1174	31.7
171.0762	2.9
171.1207	2.9
171.1490	29.8
172.0602	4.2
172.0966	7.2
172.1330	2.4
172.1524	2.3
181.0969	23.7
198.0758	59.1
198.1123	11.7
199.0710	3.7
199.0793	4.6
199.1074	26.8
199.1435	3.9
200.0913	3.7
200.1279	10.7
216.0793	3.3
216.0863	9.7
216.0982	10.1
216.1227	82.8
217.0638	19.0
217.0813	6.6
217.0969	8.8
217.1095	2.4
217.1178	96.9
217.1542	69.5
218.0669	2.3
218.0814	4.2
218.0921	3.9
218.1019	18.9
218.1213	6.5
218.1380	14.3
218.1574	6.5
218.1746	2.6

Name: Oroselol
PrecursorMZ: 245.08057
RT: 4.7909
ExactMass: 244.07355886
Spectrum_type: 2
charge: 1
Formula: C14H12O4
SMILES: CC(C)(C1=CC2=C(O1)C=CC3=C2OC(=O)C=C3)O
Method: HCD
Collision_energy: [28.333334]
Isolation_window: 4.0
Ion_mode: P
Num Peaks: 11
97.0284	6.0
102.0372	8.8
149.0594	6.9
157.0646	15.9
171.0803	8.3
185.0594	24.8
199.0750	10.3
245.0803	100.0
245.1065	4.9
246.0842	15.4
247.1097	3.8

Name: Oxaceprol
PrecursorMZ: 174.07581
RT: 5.1307
ExactMass: 173.06880783
Spectrum_type: 2
charge: 1
Formula: C7H11NO4
SMILES: CC(=O)N1C[C@@H](C[C@H]1C(=O)O)O
Method: HCD
Collision_energy: [28.333334]
Isolation_window: 4.0
Ion_mode: P
Num Peaks: 9
69.9221	26.7
86.0601	90.3
109.1010	27.3
114.0547	100.0
128.0702	99.3
130.0859	27.3
132.0650	60.9
156.0651	71.0
174.0545	35.8

Name: Oxacycloheptadec-8-en-2-one, (8Z)-
PrecursorMZ: 253.21595
RT: 3.0567
ExactMass: 252.208930132
Spectrum_type: 2
charge: 1
Formula: C16H28O2
SMILES: C1CCCCOC(=O)CCCCC/C=C\CCC1
Method: HCD
Collision_energy: [28.333334]
Isolation_window: 4.0
Ion_mode: P
Num Peaks: 10
69.0702	55.2
69.5873	48.8
81.0701	68.0
83.0858	50.2
95.0855	70.6
97.1012	46.6
180.0652	84.5
222.0754	100.0
252.1224	45.4
254.1019	94.6

Name: Oxeladin
PrecursorMZ: 336.25314
RT: 5.8885
ExactMass: 335.24604391
Spectrum_type: 2
charge: 1
Formula: C20H33NO3
SMILES: CCC(CC)(C1=CC=CC=C1)C(=O)OCCOCCN(CC)CC
Method: HCD
Collision_energy: [28.333334]
Isolation_window: 4.0
Ion_mode: P
Num Peaks: 81
58.0656	1.3
70.0656	0.8
72.0812	0.7
81.0339	1.3
84.0812	0.6
91.0545	4.1
92.0579	0.5
95.0607	1.0
100.0760	1.0
101.0599	0.5
111.0444	0.5
114.0916	0.7
120.0810	0.6
128.1071	0.9
130.0653	0.5
136.0758	1.9
146.0601	0.7
148.0758	0.7
149.0713	0.6
150.0915	1.3
151.0866	0.5
152.1072	1.0
156.0767	0.5
161.1075	1.6
166.0864	1.2
175.0867	0.7
178.0862	0.5
188.0707	1.0
194.0813	0.6
194.1176	1.0
235.1441	0.8
237.1386	1.0
242.2114	1.8
263.1389	0.5
274.2165	3.7
275.2198	0.7
291.1701	0.7
292.2270	5.0
293.2307	0.7
317.1488	0.5
318.1335	0.5
319.1646	0.8
320.1116	0.6
334.2378	3.1
334.2739	6.5
335.1057	0.6
335.1370	0.9
335.1583	3.1
335.1607	2.3
335.1731	2.2
335.1765	0.5
335.1952	2.7
335.2353	1.3
335.2403	2.9
335.2773	3.3
336.1225	1.0
336.1428	2.1
336.1605	1.0
336.1950	0.7
336.2204	0.7
336.2312	1.9
336.2366	1.8
336.2532	100.0
336.2952	0.6
337.1196	1.1
337.1392	1.0
337.1544	4.0
337.1761	3.7
337.1908	3.9
337.2121	1.7
337.2568	20.9
338.1028	0.5
338.1224	1.9
338.1393	0.6
338.1521	1.3
338.1583	1.0
338.1782	1.1
338.2096	0.7
338.2429	5.3
338.2610	1.5
338.3415	1.0

Name: Oxepinamide A
PrecursorMZ: 348.15507
RT: 4.0473
ExactMass: 347.14812078
Spectrum_type: 2
charge: 1
Formula: C17H21N3O5
SMILES: CCC(C)[C@]1(C2=NC3=C(C=C(C=CO3)OC)C(=O)N2[C@@H](C(=O)N1)C)O
Method: HCD
Collision_energy: [28.333334]
Isolation_window: 4.0
Ion_mode: P
Num Peaks: 138
55.0546	0.8
60.0561	1.6
70.0656	9.6
72.0813	1.9
80.0499	4.7
81.0338	0.8
83.0495	1.8
84.0812	4.1
86.0602	0.8
87.0445	1.9
96.0449	1.0
96.0812	1.2
98.0606	1.1
98.0967	1.1
99.0442	0.8
100.0760	1.4
101.0601	4.9
110.0605	1.1
111.0444	1.7
112.0758	0.8
112.0873	3.8
114.1032	0.9
115.0870	1.8
116.0712	1.1
118.0866	1.1
120.0807	1.0
122.0600	0.8
123.0442	0.9
124.0758	0.8
126.0915	1.4
128.0706	1.6
130.0654	1.6
130.0865	4.0
134.0600	0.9
139.0871	0.9
140.0704	1.1
141.0656	0.8
142.0864	1.1
148.0760	1.5
153.0659	1.4
154.0862	1.4
155.0816	5.2
157.0762	0.9
158.0610	0.9
166.0979	0.8
167.0817	8.8
168.0898	2.7
169.0969	0.8
175.0874	2.3
177.1023	1.1
178.0857	1.6
180.1018	0.9
189.1030	0.9
191.1182	0.9
194.1177	0.8
195.1130	1.8
196.1087	1.6
205.1337	3.1
207.1128	1.3
209.1043	2.9
210.1110	1.4
211.1070	2.0
219.0768	0.8
220.1196	15.6
221.0919	2.3
221.1230	1.8
223.1068	1.6
225.1228	0.9
233.1274	1.4
235.1075	1.1
237.1232	1.3
238.1201	2.4
242.1143	0.9
244.1295	0.8
251.1392	1.1
253.1183	0.9
254.1286	1.1
255.1117	1.4
255.1351	1.0
264.1234	1.0
269.1135	19.6
270.1176	3.0
272.1395	2.1
281.1403	1.7
282.1227	3.9
283.1282	0.8
299.1503	5.9
300.1342	35.1
301.1372	6.6
302.1388	1.0
306.1390	0.8
324.1462	2.2
330.1361	0.8
335.1621	0.8
337.1499	1.6
339.1581	1.4
342.1566	5.9
343.1653	0.9
346.1313	1.5
346.1667	1.2
346.2054	1.4
346.3311	1.2
347.1273	1.0
347.1620	2.9
348.1501	19.3
349.1416	6.9
350.1637	4.4
351.1566	10.0
352.1570	11.0
353.1718	20.9
354.1553	9.1
355.1502	9.8
355.1901	9.0
356.1302	1.2
356.1802	7.1
356.3535	1.0
357.1697	7.9
357.2063	3.9
358.1244	3.7
358.1633	1.0
358.2009	2.2
358.3667	1.0
359.1336	1.5
359.1832	100.0
359.2185	1.3
360.1464	4.8
360.1848	18.1
361.1436	3.7
361.1850	2.8
362.1261	2.3
362.1631	6.9
363.1587	7.6
364.1387	2.3
364.1823	8.4
365.1771	7.5
366.1650	16.2
367.1497	1.6
367.1937	3.2

Name: Oxindole-3-acetic acid
PrecursorMZ: 192.06531
RT: 2.0036
ExactMass: 191.058243149
Spectrum_type: 2
charge: 1
Formula: C10H9NO3
SMILES: C1=CC=C2C(=C1)C(C(=O)N2)CC(=O)O
Method: HCD
Collision_energy: [28.333334]
Isolation_window: 4.0
Ion_mode: P
Num Peaks: 4
174.0546	100.0
175.0579	10.5
191.1174	5.2
192.0652	7.8

Name: Oxitriptan
PrecursorMZ: 221.09168
RT: 5.4045
ExactMass: 220.08479225
Spectrum_type: 2
charge: 1
Formula: C11H12N2O3
SMILES: C1=CC2=C(C=C1O)C(=CN2)C[C@@H](C(=O)O)N
Method: HCD
Collision_energy: [28.333334]
Isolation_window: 4.0
Ion_mode: P
Num Peaks: 40
60.0448	4.8
69.7784	2.2
74.0603	4.9
86.0966	3.7
90.0551	2.7
108.0444	6.2
132.1016	3.6
134.0710	1.9
146.0597	2.6
148.0752	2.3
161.0705	3.6
161.0957	2.1
173.1279	2.8
175.0862	5.3
176.0702	6.1
177.0653	2.5
177.1019	2.4
178.0495	2.4
192.0649	4.5
202.0969	15.7
203.0810	58.7
203.1002	2.3
204.0651	6.7
204.0846	8.4
204.1012	1.8
205.0965	3.0
206.0443	3.4
219.0755	2.0
220.0600	6.6
220.0962	8.1
220.1075	25.6
220.1318	4.1
221.0914	100.0
221.1106	2.5
221.1273	3.1
222.0758	16.9
222.0956	12.1
222.1115	7.0
223.0702	2.8
223.1070	7.2

Name: Oxoguanine
PrecursorMZ: 167.0563
RT: 5.8902
ExactMass: 165.02867436
Spectrum_type: 2
charge: 1
Formula: C5H3N5O2
SMILES: C1=NC2=C(N1)C(=O)NC(=N2)N=O
Method: HCD
Collision_energy: [28.333334]
Isolation_window: 4.0
Ion_mode: P
Num Peaks: 31
81.0337	0.6
81.0701	0.7
83.0493	0.6
95.0856	0.6
98.0350	1.6
98.0601	0.6
101.0597	0.8
106.0653	0.9
109.0648	0.8
122.0599	0.9
123.0110	1.4
123.0803	0.8
124.0506	1.1
138.0548	0.9
138.0912	2.2
139.0613	7.2
149.0455	1.0
149.0709	0.6
150.0548	1.4
150.0912	4.4
166.0487	0.8
166.0859	2.8
167.0415	0.7
167.0562	100.0
167.0682	0.8
167.0704	0.8
167.0801	1.3
168.0532	1.4
168.0594	4.4
168.0683	8.7
168.1016	1.6

Name: Oxolinic Acid
PrecursorMZ: 262.0709
RT: 5.7728
ExactMass: 261.06372245
Spectrum_type: 2
charge: 1
Formula: C13H11NO5
SMILES: CCN1C=C(C(=O)C2=CC3=C(C=C21)OCO3)C(=O)O
Method: HCD
Collision_energy: [28.333334]
Isolation_window: 4.0
Ion_mode: P
Num Peaks: 16
136.0758	6.1
156.0445	100.0
157.0479	7.8
216.1020	7.8
217.0966	3.5
244.0605	12.7
245.1288	4.0
261.1223	4.5
262.0709	53.4
262.1073	12.5
262.2376	3.2
263.0732	4.5
263.1024	7.7
263.1386	5.8
264.0865	3.3
264.1229	4.1

Name: Oxotomaymycin-DH-PPL
PrecursorMZ: 303.13384
RT: 1.0968
ExactMass: 302.12665706
Spectrum_type: 2
charge: 1
Formula: C16H18N2O4
SMILES: CC/C=C/1\C[C@H]2C(=O)NC3=CC(=C(C=C3C(=O)N2C1)OC)O
Method: HCD
Collision_energy: [28.333334]
Isolation_window: 4.0
Ion_mode: P
Num Peaks: 168
55.0547	0.5
59.0608	0.4
67.0546	0.5
70.0656	0.9
72.0812	0.5
79.0547	0.3
81.0339	1.1
81.0703	0.7
83.0496	0.3
83.0860	5.6
84.0813	0.7
84.0892	0.3
86.0967	0.4
91.0545	0.6
93.0701	0.3
95.0496	0.5
95.0859	0.7
97.0651	1.3
98.0604	0.4
99.0444	0.4
107.0497	0.3
108.0447	0.9
110.0603	0.4
111.0444	0.7
112.0760	0.5
116.0709	0.7
119.0858	0.3
120.0811	0.7
121.0650	0.5
121.1010	0.4
122.0602	2.9
123.0445	0.5
124.0759	4.1
126.0556	0.5
126.0915	23.9
127.0951	1.5
132.0807	0.3
133.1014	0.4
136.0759	8.4
137.0603	0.6
137.0792	0.7
138.0915	39.0
139.0950	3.5
140.0709	0.5
140.1071	1.6
144.0809	0.4
148.0759	3.1
149.0800	0.4
150.0552	5.4
150.0907	0.4
151.0590	0.4
151.0866	0.3
152.0606	0.6
152.0707	18.7
153.0745	1.7
154.0865	0.3
160.0760	0.8
164.0420	0.7
164.0479	0.5
164.0708	100.0
164.0938	0.6
164.0998	0.8
164.1078	0.4
165.0743	9.4
166.0866	8.2
167.0909	0.8
168.0658	0.5
168.1023	0.6
168.1383	0.6
170.0813	7.4
171.0847	0.6
174.0914	0.6
175.0864	0.3
178.0865	0.6
180.0653	0.3
180.1019	0.6
182.0813	30.2
183.0850	2.9
184.0980	1.1
188.0708	0.7
190.0862	0.3
191.0822	0.5
193.0973	1.1
194.0812	2.3
194.1049	3.3
195.1123	1.0
202.1231	0.4
211.0865	0.4
214.1228	0.3
216.1027	0.5
229.1095	1.4
229.1336	1.3
230.1177	15.8
231.1209	2.2
241.0973	0.5
243.1130	1.9
244.1343	1.6
245.1314	0.5
246.1118	0.3
255.1134	0.3
256.0966	0.4
257.1285	7.1
258.1114	5.7
258.1342	0.7
259.1151	1.0
259.1430	0.6
260.1859	0.9
264.1223	0.4
271.1443	0.3
272.1280	3.3
273.1288	0.7
273.1595	1.0
275.0484	3.1
276.0513	0.5
283.1073	0.4
285.1234	8.9
285.1846	0.3
286.1304	1.8
287.1392	0.9
289.1547	14.2
290.1378	2.3
290.1608	1.4
291.1411	0.8
291.1702	10.4
292.1219	0.4
292.1743	1.9
299.1388	0.7
301.1193	0.7
301.1541	1.4
302.1028	0.9
302.1367	0.6
303.1340	6.4
304.1148	3.7
304.2082	0.3
304.2996	1.0
305.1184	0.7
305.1494	0.9
306.1353	1.0
307.1292	1.3
307.1651	19.6
308.1130	0.7
308.1704	3.5
309.1458	0.7
309.1800	4.8
310.0741	4.1
310.1279	1.3
310.1838	0.8
311.0778	0.6
311.1275	0.5
311.1609	0.7
312.0872	0.4
312.1456	1.4
313.1416	0.5
313.1793	0.5
315.1325	0.3
316.1160	0.8
316.1663	1.0
317.1123	0.5
317.1481	0.6
318.1362	0.7
318.1803	3.0
319.1309	1.4
319.1659	0.8
320.1121	0.5
320.1515	0.8
321.1461	0.8
322.1318	0.4
322.1692	0.4

Name: Oxycodone
PrecursorMZ: 316.15399
RT: 1.6456
ExactMass: 315.14705815
Spectrum_type: 2
charge: 1
Formula: C18H21NO4
SMILES: CN1CC[C@]23[C@@H]4C(=O)CC[C@]2([C@H]1CC5=C3C(=C(C=C5)OC)O4)O
Method: HCD
Collision_energy: [28.333334]
Isolation_window: 4.0
Ion_mode: P
Num Peaks: 139
55.0547	5.2
58.0656	8.7
70.0656	22.9
72.0812	19.2
81.0339	23.7
83.0495	10.7
83.0860	5.8
84.0812	17.8
87.0445	6.0
95.0607	5.0
96.0447	7.0
96.0811	9.3
98.0967	8.6
100.0761	5.8
101.0600	26.6
102.0555	6.0
109.0763	4.3
110.0605	10.8
111.0443	17.0
114.0553	6.5
114.0665	6.8
116.0709	8.4
120.0810	7.6
121.0649	4.5
122.0607	5.0
122.0814	19.6
124.0759	5.2
126.0917	13.1
130.0864	21.0
134.0596	5.0
134.0963	6.1
135.0917	4.3
136.0757	8.3
148.0754	5.4
150.0549	5.1
150.0916	6.5
152.0709	7.0
160.0762	6.1
162.0913	5.1
163.0862	5.5
164.0703	5.0
164.1068	4.9
166.0863	5.2
168.1017	6.3
173.1066	5.2
176.0705	4.5
177.1019	7.6
178.0855	5.3
180.1018	32.1
181.0971	62.3
188.0695	5.6
190.0864	4.5
192.1135	4.6
194.1038	5.5
195.1128	34.9
196.0964	4.8
200.0703	7.6
202.0857	4.7
207.1253	4.4
209.1290	12.2
210.0798	10.0
210.1112	27.7
215.1174	4.3
216.1022	12.9
217.0982	6.3
218.0801	7.1
220.0967	4.8
221.1282	5.0
224.1049	7.4
232.0611	5.4
232.0959	13.5
246.0960	6.1
274.1071	7.1
281.1643	8.5
297.1235	7.1
298.1056	6.1
299.1401	5.4
300.1253	4.5
301.1556	5.8
302.1457	6.3
303.1373	4.7
312.1230	4.4
314.1398	13.1
315.0886	6.5
315.1356	42.3
315.1710	6.7
315.2274	9.6
316.1185	38.5
316.1550	67.6
317.1162	11.0
317.1511	69.5
318.1354	53.9
318.1749	20.2
319.1346	30.9
319.1665	40.5
319.2022	8.9
320.1121	28.1
320.1529	60.5
320.1930	45.5
321.1496	32.2
321.1843	23.5
322.1276	12.5
322.1682	20.1
322.2086	12.1
323.1026	5.5
323.1616	35.6
323.1979	20.8
324.1440	49.8
324.1880	31.8
325.1137	12.2
325.1446	5.8
325.1804	35.4
325.2136	4.9
326.1053	8.0
326.1438	16.4
326.2034	8.1
327.1347	27.2
327.1699	100.0
328.1179	21.1
328.1519	26.4
328.1721	13.3
329.1173	7.3
329.1505	42.3
329.2081	6.6
330.1344	54.9
330.1730	17.6
330.3370	10.6
331.1305	41.0
331.1668	33.4
332.0909	23.0
332.1513	45.1
332.1853	5.8
333.0946	7.4
333.1464	32.1
333.1814	52.7
334.1276	22.3
334.1717	39.2
335.1614	46.2
335.1971	16.7

Name: Oxyhydrastinine
PrecursorMZ: 206.08102
RT: 5.9485
ExactMass: 205.07389321
Spectrum_type: 2
charge: 1
Formula: C11H11NO3
SMILES: CN1CCC2=CC3=C(C=C2C1=O)OCO3
Method: HCD
Collision_energy: [28.333334]
Isolation_window: 4.0
Ion_mode: P
Num Peaks: 21
57.0339	1.9
57.0703	3.3
60.0448	11.0
67.0546	2.5
72.0811	5.0
74.0603	2.3
89.0599	14.8
101.0961	1.7
103.0391	5.4
118.0862	9.0
120.0654	2.7
133.0858	2.0
149.0230	2.8
159.1127	5.9
178.0859	9.8
188.0701	1.7
205.1181	2.0
206.0808	100.0
207.0759	2.6
207.0844	11.0
208.0964	9.2

Name: Oxymorphone
PrecursorMZ: 302.1385
RT: 3.0639
ExactMass: 301.13140809
Spectrum_type: 2
charge: 1
Formula: C17H19NO4
SMILES: CN1CC[C@]23[C@@H]4C(=O)CC[C@]2([C@H]1CC5=C3C(=C(C=C5)O)O4)O
Method: HCD
Collision_energy: [28.333334]
Isolation_window: 4.0
Ion_mode: P
Num Peaks: 122
53.0392	0.1
55.0547	7.9
55.0570	0.1
56.0581	0.4
59.0496	1.9
63.4769	0.1
68.0367	0.1
69.0451	0.5
70.0657	0.2
72.0812	0.3
73.0654	0.1
80.0498	0.1
83.0496	5.9
83.0603	0.1
84.0530	0.4
84.0812	0.2
86.0968	0.1
87.0444	0.1
93.0450	1.2
95.0607	0.1
98.0602	0.1
101.0263	0.1
101.0462	0.2
101.0601	37.3
101.0707	0.2
101.0740	0.3
101.0781	0.1
101.0899	0.1
102.0633	2.0
103.0636	0.1
110.0718	0.3
111.0167	0.2
111.0350	0.1
111.0396	0.4
111.0428	0.4
111.0556	62.9
111.0682	0.3
111.0716	0.5
111.0763	0.2
111.0901	0.2
111.0987	0.1
112.0524	0.3
112.0589	3.3
113.0598	0.2
116.0704	0.1
123.0451	0.1
129.1027	0.1
130.0862	0.2
138.0665	0.2
143.1171	0.1
146.0926	0.1
147.1121	0.1
150.0560	0.1
151.0868	1.4
152.0893	0.1
156.0782	0.1
165.1033	0.1
169.0972	0.9
182.0931	0.2
183.1128	0.1
189.1030	0.1
191.1157	0.1
193.0973	2.1
194.0999	0.3
209.1312	0.1
211.0060	0.2
211.0415	0.1
211.0654	0.5
211.0749	0.3
211.1079	80.4
211.1502	0.5
211.1624	0.2
211.1737	0.1
211.1982	0.1
211.2212	0.1
212.1111	9.1
213.1126	0.8
214.1166	0.1
243.1264	0.1
251.1382	0.3
267.1694	0.3
268.1970	0.1
293.1497	0.1
300.1284	0.1
301.1212	0.1
302.1383	0.8
303.1354	0.3
304.1185	0.1
304.1543	0.3
305.1222	0.1
305.1510	0.2
306.1350	0.2
306.1740	0.3
307.1351	0.3
307.1672	0.4
308.1550	0.3
309.1477	0.2
309.1811	0.4
310.1629	0.2
310.1863	0.2
310.9776	0.2
311.0416	0.1
311.0840	0.6
311.1601	100.0
311.2188	0.7
311.2345	0.7
311.2575	0.3
311.2770	0.1
311.2975	0.1
311.3214	0.2
311.3625	0.1
312.1631	17.3
313.1676	2.9
314.1739	0.3
314.2072	0.4
315.1335	0.3
317.1538	0.1
317.2203	0.2
318.1310	0.2
319.1648	0.1
320.1537	0.2
321.1443	0.8

Name: P-Anisidine
PrecursorMZ: 124.0757
RT: 8.2102
ExactMass: 123.068413911
Spectrum_type: 2
charge: 1
Formula: C7H9NO
SMILES: COC1=CC=C(C=C1)N
Method: HCD
Collision_energy: [28.333334]
Isolation_window: 4.0
Ion_mode: P
Num Peaks: 28
56.0500	0.7
58.0656	0.6
79.0546	0.7
80.0498	0.6
81.0451	1.1
81.0576	1.2
84.0447	0.7
95.0493	5.3
95.0607	0.7
96.0446	1.7
96.0527	0.5
96.0809	1.3
100.0245	1.7
104.0708	0.9
118.0350	0.8
122.0812	0.7
122.0965	0.9
123.0441	2.7
123.0553	1.8
124.0393	3.5
124.0663	0.6
124.0757	100.0
124.0854	0.7
125.0714	0.8
125.0790	7.9
125.1072	0.6
126.0550	0.6
126.0913	0.6

Name: P-Coumaric Acid
PrecursorMZ: 147.044
RT: 8.3194
ExactMass: 164.047344113
Spectrum_type: 2
charge: 1
Formula: C9H8O3
SMILES: C1=CC(=CC=C1/C=C/C(=O)O)O
Method: HCD
Collision_energy: [28.333334]
Isolation_window: 4.0
Ion_mode: P
Num Peaks: 8
91.0543	14.7
119.0491	100.0
123.9643	61.7
146.0599	44.4
146.0809	19.8
147.0439	37.9
148.0391	25.4
148.0755	17.9

Name: PABA-C13:1
PrecursorMZ: 332.22145
RT: 2.0838
Spectrum_type: 2
charge: 1
SMILES: O=C(NC1=CC=C(C(O)=O)C=C1)CCCCCCCCCCC=C
Method: HCD
Collision_energy: [28.333334]
Isolation_window: 4.0
Ion_mode: P
Num Peaks: 19
72.0809	0.9
86.0965	2.2
91.0543	1.7
96.0444	9.3
110.0600	1.2
120.0805	0.8
173.1281	2.2
201.1231	0.8
330.2052	2.0
331.1645	1.2
331.2084	1.0
332.1113	1.3
332.1479	1.2
332.2211	100.0
333.1291	1.2
333.2245	22.2
334.1273	0.9
334.1642	0.9
334.2268	1.7

Name: PABA-C20:1
PrecursorMZ: 430.33123
RT: 5.9404
Spectrum_type: 2
charge: 1
SMILES: O=C(NC1=CC=C(C(O)=O)C=C1)CCCCCCCCCC=CCCCCCCCC
Method: HCD
Collision_energy: [28.333334]
Isolation_window: 4.0
Ion_mode: P
Num Peaks: 207
67.0546	0.4
69.0703	0.4
70.0655	1.6
71.0496	0.3
72.0811	0.4
74.0604	0.5
79.0546	0.3
81.0338	1.0
81.0702	0.9
82.0655	0.3
83.0494	0.3
83.0859	0.3
84.0447	0.6
84.0811	0.5
85.0288	0.5
85.0651	0.3
86.0604	0.3
86.0967	0.7
87.0445	0.4
89.0600	0.4
91.0546	0.2
93.0701	0.5
95.0495	0.2
95.0858	0.7
97.0286	0.2
97.0650	0.4
97.3993	0.3
98.0967	0.6
99.0445	0.2
99.0807	0.4
100.0759	3.0
101.0600	0.6
102.0552	0.6
105.0701	0.3
107.0857	0.6
109.0285	0.4
109.0649	0.2
109.1013	0.4
110.0602	0.4
110.0967	0.2
111.0443	0.3
114.0665	0.2
114.0915	0.4
116.0708	8.5
117.0740	0.5
118.0863	0.6
119.0857	0.5
120.0657	2.1
121.0650	0.4
121.1013	0.4
122.0965	0.2
123.0804	0.3
125.0964	0.2
126.0551	0.3
126.0914	1.6
128.0706	21.1
129.0740	1.3
130.0652	0.8
130.0863	0.4
131.0856	0.4
133.1012	0.5
135.0805	0.3
135.1168	0.4
137.0963	0.2
138.0911	0.2
139.0755	0.3
140.1070	1.5
142.0863	0.3
144.1020	5.6
145.0496	0.3
145.1012	0.4
145.1055	0.5
146.0271	0.4
147.1169	0.6
149.0961	0.3
149.1324	0.2
150.0550	0.4
153.0910	0.3
156.0809	0.2
156.1020	1.2
158.0602	0.5
158.1176	0.5
159.1168	0.4
160.9015	0.2
161.0962	0.3
161.1325	2.0
162.1359	0.3
163.1119	0.3
165.0911	0.3
166.0865	0.3
167.1069	0.2
168.0658	0.3
171.1175	0.2
173.1174	0.2
173.1325	0.3
175.0867	0.7
175.1120	0.2
176.8753	0.3
183.1121	0.6
184.1081	0.3
185.1327	0.3
187.1481	0.2
191.0818	0.3
194.1173	0.2
203.0815	0.2
210.0761	0.3
213.1235	0.2
214.0864	0.2
215.1794	0.2
229.1549	0.2
230.1137	0.2
242.1748	0.3
244.1907	1.5
250.1913	0.4
255.0859	0.2
255.1335	0.8
255.2106	1.7
256.2140	0.4
257.1537	0.2
267.1494	0.5
267.1743	0.3
268.2029	0.3
272.1857	0.4
273.2211	2.6
274.2247	0.4
283.1292	0.2
285.1237	0.2
286.1190	0.5
306.1335	0.3
311.2943	0.8
313.1791	0.2
314.1134	0.6
314.1964	0.2
316.2117	1.3
337.2529	0.2
341.2119	0.2
375.2159	0.3
375.2532	0.4
377.2326	0.3
383.2943	0.3
384.1754	0.2
385.2130	0.2
386.1709	0.3
393.2254	0.2
393.2635	0.3
395.2416	0.3
395.2581	0.2
408.0364	0.3
411.2542	0.3
412.2489	0.6
412.2839	0.4
412.3206	0.5
413.2699	0.5
414.2293	0.4
428.3160	1.3
429.1666	0.6
429.1709	0.3
429.2023	1.6
429.2064	0.4
429.2336	0.2
429.2459	0.2
429.2483	0.3
429.2644	0.5
429.2759	0.2
429.3199	1.5
429.3245	0.3
430.1116	0.2
430.1473	0.4
430.1503	0.3
430.1552	0.2
430.1702	0.3
430.1762	0.2
430.1862	0.7
430.1940	0.2
430.1999	1.1
430.2315	0.7
430.2343	0.5
430.2534	0.4
430.2591	0.7
430.2660	1.0
430.2702	0.6
430.2827	0.5
430.3314	100.0
430.3789	0.5
430.3926	0.7
431.1403	0.3
431.1823	0.8
431.1891	0.3
431.2040	0.4
431.2185	0.9
431.2250	0.2
431.2436	0.2
431.2563	0.3
431.2787	0.6
431.2856	0.3
431.3347	28.0
431.3953	0.2
432.1643	0.4
432.1674	0.2
432.1738	0.2
432.2126	0.3
432.2414	1.3
432.2500	0.3
432.2769	0.4
432.2816	0.2
432.3098	0.3
432.3378	2.7

Name: PABA-C20:2
PrecursorMZ: 428.31551
RT: 5.839
Spectrum_type: 2
charge: 1
SMILES: O=C(NC1=CC=C(C(O)=O)C=C1)CCCCCCCCCC=CCC=CCCCCC
Method: HCD
Collision_energy: [28.333334]
Isolation_window: 4.0
Ion_mode: P
Num Peaks: 119
55.0546	0.1
67.0546	0.1
68.0498	0.1
69.0702	0.1
70.0654	0.1
72.0447	0.1
79.0545	0.1
80.0498	0.1
81.0338	1.0
81.0701	0.2
82.0654	0.4
83.0494	0.2
84.0446	0.1
84.0810	0.1
89.0599	0.1
91.0545	0.1
93.0699	0.1
95.0857	0.4
98.0602	0.1
99.0443	0.1
100.0758	3.5
105.0700	0.1
107.0856	0.4
109.0649	0.1
109.1013	0.2
110.0601	0.5
110.0964	0.2
114.0914	0.3
116.0707	0.7
117.0699	0.1
119.0855	0.2
121.0647	0.2
121.1012	0.4
122.0965	0.2
123.0805	0.1
123.1169	0.1
128.0606	0.1
128.0629	0.1
128.0706	23.5
128.0805	0.1
128.1071	0.1
128.1172	0.1
129.0739	0.1
130.0862	0.2
131.0853	0.1
133.1010	0.3
135.0803	0.2
135.1167	0.3
137.0961	0.1
137.1324	0.1
138.0914	0.1
140.1069	2.0
145.1010	0.3
147.1167	0.7
149.0959	0.1
149.1324	0.2
151.1117	0.1
154.1226	0.1
155.0941	0.1
156.1019	1.5
157.1011	0.1
158.1174	0.5
159.1168	0.4
161.0961	0.1
161.1324	2.7
163.1116	0.2
163.1479	0.1
164.1068	0.1
165.0909	0.3
171.1169	0.1
173.1324	0.3
175.1481	0.2
178.1228	0.1
179.1065	0.1
180.1018	0.1
182.1178	0.1
185.1321	0.1
187.1480	0.2
189.1634	0.2
194.1171	0.1
196.1330	0.1
199.1478	0.1
201.1634	0.1
203.1794	0.1
213.1637	0.1
215.1789	0.1
227.1795	0.1
253.1945	0.2
255.2103	2.2
257.2259	0.0
271.2052	0.2
273.2209	2.9
283.2411	0.2
301.2517	0.1
317.2467	0.1
365.2827	0.1
372.2897	0.1
383.2938	0.4
410.3059	0.2
412.3205	0.7
413.3041	0.1
426.4049	0.1
427.3024	0.1
428.3156	6.4
429.3190	1.9
430.0276	0.1
430.0608	0.1
430.2343	0.1
430.2523	0.2
430.2697	0.6
430.2822	0.5
430.3310	100.0
430.3781	0.5
430.3921	0.7
430.4097	0.3
430.4261	0.1
430.4446	0.1
430.4603	0.1
430.6188	0.2

Name: PABA-C22:3
PrecursorMZ: 454.33163
RT: 1.7921
Spectrum_type: 2
charge: 1
SMILES: O=C(NC1=CC=C(C(O)=O)C=C1)CCCCCCCCCCCC=CCC=CCC=CCC
Method: HCD
Collision_energy: [28.333334]
Isolation_window: 4.0
Ion_mode: P
Num Peaks: 7
50.4815	5.3
114.0916	2.4
435.3332	2.5
453.3438	7.3
454.3312	100.0
455.3349	31.6
456.3369	2.8

Name: PC(0:0/18:0)
PrecursorMZ: 524.37107
RT: 4.900085714285714
ExactMass: 523.36379006
Spectrum_type: 2
charge: 1
Formula: C26H54NO7P
SMILES: CCCCCCCCCCCCCCCCCC(=O)O[C@H](CO)COP(=O)([O-])OCC[N+](C)(C)C
Method: HCD
Collision_energy: [28.333334]
Isolation_window: 4.0
Ion_mode: P
Num Peaks: 38
57.0703	0.6
58.0653	0.5
58.1513	0.4
58.2621	0.5
58.2637	1.8
58.3752	0.5
60.0812	4.7
71.0732	0.6
71.0859	0.5
81.0702	0.4
85.1014	0.4
86.0966	16.0
87.1000	1.2
95.0857	0.6
104.0999	0.3
104.1014	0.4
104.1071	65.2
104.1144	0.4
105.1104	4.3
124.9997	5.9
163.0152	0.5
184.0563	0.7
184.0597	0.9
184.0731	100.0
184.0904	0.7
185.0765	8.3
186.0771	0.9
258.1097	0.9
341.3047	1.6
447.2864	0.4
505.3477	0.8
506.3597	4.1
507.3632	1.1
523.3581	7.8
524.2699	0.3
524.3703	36.9
524.4986	0.8
525.3738	9.8

Name: PC(0:0/18:1(9Z))
PrecursorMZ: 522.35508
RT: 4.917171428571429
ExactMass: 521.34814
Spectrum_type: 2
charge: 1
Formula: C26H52NO7P
SMILES: CCCCCCCC/C=C\CCCCCCCC(=O)O[C@H](CO)COP(=O)([O-])OCC[N+](C)(C)C
Method: HCD
Collision_energy: [28.333334]
Isolation_window: 4.0
Ion_mode: P
Num Peaks: 32
58.0397	1.4
60.0812	3.3
69.0701	0.6
70.0654	0.3
71.0732	0.4
83.0857	0.5
86.0966	11.4
87.1000	0.7
89.0599	1.1
95.0857	0.3
97.4321	0.4
104.1070	43.2
105.1104	1.9
124.9997	4.0
133.0857	0.5
176.8750	1.1
184.0563	0.7
184.0731	100.0
184.0902	0.7
185.0764	4.3
258.1093	0.7
339.2887	0.9
340.2922	0.4
445.2706	0.4
504.3435	3.0
505.3471	0.8
521.2383	1.1
521.3392	1.0
521.5118	0.5
522.3546	27.4
523.3578	7.8
524.3696	2.1

Name: PC(15:0/0:0)
PrecursorMZ: 482.32383
RT: 5.4331
ExactMass: 481.31683987
Spectrum_type: 2
charge: 1
Formula: C23H48NO7P
SMILES: CCCCCCCCCCCCCCC(=O)OC[C@H](COP(=O)([O-])OCC[N+](C)(C)C)O
Method: HCD
Collision_energy: [28.333334]
Isolation_window: 4.0
Ion_mode: P
Num Peaks: 12
60.0812	2.8
86.0966	6.0
89.0600	1.4
104.1071	100.0
105.1103	4.8
124.9998	2.0
133.0857	1.2
184.0731	33.6
185.0762	1.7
482.2326	1.8
482.3231	10.5
483.3274	2.1

Name: PC(15:0/15:0)
PrecursorMZ: 706.53746
RT: 3.0561
ExactMass: 705.53085538
Spectrum_type: 2
charge: 1
Formula: C38H76NO8P
SMILES: CCCCCCCCCCCCCCC(=O)OC[C@H](COP(=O)([O-])OCC[N+](C)(C)C)OC(=O)CCCCCCCCCCCCCC
Method: HCD
Collision_energy: [28.333334]
Isolation_window: 4.0
Ion_mode: P
Num Peaks: 81
57.0703	0.2
58.0653	0.3
59.0495	0.2
60.0448	0.3
60.0812	2.8
61.0845	0.1
67.0546	0.2
69.0702	0.2
70.0655	0.1
71.0732	0.5
71.0858	0.2
72.0810	0.2
78.5021	0.2
78.5047	0.5
78.6162	0.2
81.0701	0.3
83.0858	0.3
85.1014	0.1
86.0966	10.9
87.1000	0.6
95.0856	0.4
97.1013	0.2
98.9841	0.3
99.0442	0.1
104.1070	1.2
109.1012	0.2
123.1168	0.1
124.9997	5.0
126.0030	0.1
141.0543	0.1
155.0702	0.3
166.0857	0.1
180.0647	0.1
183.9899	0.1
183.9919	0.3
183.9946	0.2
184.0419	0.1
184.0459	0.2
184.0512	0.3
184.0561	0.8
184.0596	0.8
184.0669	0.6
184.0730	100.0
184.0868	0.4
184.0901	0.7
184.0952	0.2
184.1509	0.1
184.1538	0.1
184.1562	0.2
184.1586	0.1
185.0697	0.2
185.0763	5.0
186.0772	0.5
196.0734	0.1
212.0908	0.2
213.1121	0.1
252.2681	0.3
253.2715	0.1
270.2786	0.3
271.2818	0.1
285.2416	0.1
291.1696	0.1
299.2572	0.2
313.2731	0.5
506.4911	0.1
507.4955	0.1
524.5027	0.6
525.5062	0.5
526.5091	0.1
534.5241	0.3
535.5272	0.1
536.5392	0.1
537.4870	0.2
542.5136	0.5
543.5168	0.6
544.5190	0.1
704.5591	0.6
705.5636	0.9
706.5356	10.8
707.5391	3.9
708.5421	0.7

Name: PC(16:0/18:2)
PrecursorMZ: 758.56836
RT: 3.0344
Spectrum_type: 2
charge: 1
Method: HCD
Collision_energy: [28.333334]
Isolation_window: 4.0
Ion_mode: P
Num Peaks: 25
58.0653	0.3
60.0812	2.5
71.0732	0.4
84.2860	0.4
86.0966	11.3
87.1000	0.6
98.9840	0.3
104.1070	1.1
124.9997	5.5
183.9926	0.3
184.0510	0.3
184.0562	0.8
184.0596	0.8
184.0731	100.0
184.0868	0.3
184.0903	0.6
184.0950	0.2
185.0698	0.2
185.0764	4.8
186.0773	0.5
756.5522	0.9
757.5549	2.0
758.5679	7.6
759.5714	3.3
760.5819	2.1

Name: PC(16:0/20:3(5Z,8Z,11Z))
PrecursorMZ: 784.5839
RT: 2.9663
ExactMass: 783.57780557
Spectrum_type: 2
charge: 1
Formula: C44H82NO8P
SMILES: CCCCCCCCCCCCCCCC(=O)OC[C@H](COP(=O)([O-])OCC[N+](C)(C)C)OC(=O)CCC/C=C\C/C=C\C/C=C\CCCCCCCC
Method: HCD
Collision_energy: [28.333334]
Isolation_window: 4.0
Ion_mode: P
Num Peaks: 42
58.0654	0.3
59.0496	0.3
59.0731	0.1
60.0812	2.9
61.0845	0.1
67.0546	0.1
71.0733	0.7
81.0701	0.1
86.0967	12.5
87.0644	0.1
87.1000	0.7
87.1736	0.1
87.1768	0.3
87.2883	0.1
87.4008	0.1
95.0857	0.1
97.3996	0.1
98.9842	0.3
104.1071	1.2
124.9998	5.9
126.0031	0.1
146.9817	0.3
162.9555	0.1
183.9882	0.2
183.9978	0.1
184.0466	0.2
184.0513	0.4
184.0564	0.8
184.0601	0.9
184.0664	1.6
184.0731	100.0
184.0905	0.5
184.1539	0.3
185.0698	0.2
185.0765	5.6
186.0773	0.6
782.5684	0.8
783.5714	3.2
784.5831	7.5
785.5869	3.1
786.5373	0.1
786.5987	3.8

Name: PC(18:0/18:2)
PrecursorMZ: 786.59944
RT: 2.9673
Spectrum_type: 2
charge: 1
Method: HCD
Collision_energy: [28.333334]
Isolation_window: 4.0
Ion_mode: P
Num Peaks: 34
58.0654	0.4
59.0496	0.5
60.0812	2.9
71.0733	0.6
86.0967	12.9
87.1000	0.8
87.4007	0.3
87.5123	0.1
97.3982	0.2
98.9842	0.4
104.1071	1.1
117.0909	0.1
124.9998	5.9
162.9555	0.3
183.9883	0.2
184.0465	0.2
184.0513	0.2
184.0563	0.8
184.0598	0.8
184.0732	100.0
184.0870	0.3
184.0903	0.6
184.0953	0.2
184.1538	0.2
185.0699	0.1
185.0765	5.6
186.0774	0.7
784.5836	1.1
785.5872	1.8
786.5380	0.2
786.5994	7.0
787.5323	0.2
787.6031	3.1
788.6114	0.8

Name: PC(18:3(9Z,12Z,15Z)/0:0)
PrecursorMZ: 760.58418
RT: 4.4978
ExactMass: 517.31683987
Spectrum_type: 2
charge: 1
Formula: C26H48NO7P
SMILES: CC/C=C\C/C=C\C/C=C\CCCCCCCC(=O)OC[C@H](COP(=O)([O-])OCC[N+](C)(C)C)O
Method: HCD
Collision_energy: [28.333334]
Isolation_window: 4.0
Ion_mode: P
Num Peaks: 23
60.0812	2.4
71.0733	0.5
84.5100	0.4
86.0967	10.1
87.1001	0.7
97.3995	0.7
104.1071	1.0
124.9998	4.9
139.9145	0.4
184.0561	0.7
184.0596	0.6
184.0732	100.0
184.0868	0.5
184.0903	0.7
185.0765	6.0
186.0772	0.5
196.0731	0.5
758.5683	0.9
759.5129	0.4
759.5721	3.1
760.5834	9.5
761.5874	3.9
762.5957	0.7

Name: PE(16:0/0:0); )M+H(+ C21H45N1O7P1
PrecursorMZ: 454.29236
RT: 0.9342
Spectrum_type: 2
charge: 1
SMILES: N/A
Method: HCD
Collision_energy: [28.333334]
Isolation_window: 4.0
Ion_mode: P
Num Peaks: 178
55.0545	1.0
57.0339	3.2
57.0703	10.0
58.0654	0.7
59.0494	0.9
62.0604	25.2
67.0546	5.3
69.0702	7.8
69.1092	1.5
69.1227	1.8
69.1248	0.8
69.3199	1.1
70.0653	0.8
71.0494	1.3
71.0858	10.8
79.0545	1.9
81.0701	10.7
83.0494	1.2
83.0857	8.1
84.0810	2.1
85.0286	2.6
85.0649	1.5
85.1014	7.9
86.0965	1.1
89.0598	1.3
91.0543	1.7
93.0700	4.4
95.0491	0.8
95.0856	14.7
96.0891	1.0
97.0649	1.8
97.1012	5.5
97.4569	1.2
98.9842	11.1
99.0805	1.6
101.0596	0.9
105.0699	2.4
107.0492	1.6
107.0855	4.8
109.0448	1.5
109.0647	1.4
109.1012	11.3
110.1045	0.9
111.0439	0.7
111.0805	1.8
111.1169	2.5
113.0959	0.7
119.0855	4.2
121.0648	1.2
121.1011	5.7
123.0803	1.8
123.1167	4.9
124.0157	1.1
125.0960	1.7
125.1324	0.7
127.1116	0.9
131.0854	1.5
133.1010	4.8
135.0802	1.3
135.1166	4.3
137.0595	1.5
137.0959	3.4
137.1323	1.7
139.0751	1.5
139.1114	0.8
142.0261	1.1
143.0853	0.9
145.1010	3.3
147.1167	3.3
148.1199	0.7
149.0960	3.9
149.1323	3.2
151.0752	2.1
151.1116	1.4
151.1479	1.0
153.1271	1.0
155.0102	28.3
156.0135	1.1
157.1010	1.5
159.1167	3.5
161.0958	1.1
161.1323	2.7
163.0862	1.1
163.1115	1.0
163.1481	1.6
165.0908	6.7
165.1270	0.8
167.0702	1.0
169.1009	0.8
171.1166	1.5
173.0207	4.3
173.0958	0.6
173.1322	2.9
175.1115	1.0
175.1480	2.7
177.0908	1.5
177.1268	0.8
177.1634	0.9
179.0700	0.7
179.1064	0.8
179.1428	0.7
185.1321	1.2
187.1117	0.7
187.1478	2.2
189.0907	0.9
189.1277	1.1
189.1635	1.6
191.1061	0.9
191.1790	0.9
193.1585	0.7
197.1322	0.7
198.0522	1.3
199.1475	1.5
201.1272	0.7
201.1634	1.7
203.1063	2.9
203.1426	0.7
203.1792	1.4
205.1218	1.7
205.1583	0.7
211.1477	0.7
213.1634	1.2
215.1789	1.3
216.0629	2.4
221.1529	0.7
229.0468	5.1
229.1582	0.7
239.2363	1.7
253.1945	0.6
255.2101	0.6
257.2470	1.6
280.2997	0.8
282.2785	9.2
283.2819	1.7
286.1547	1.2
288.1703	0.9
296.1439	0.6
299.2365	0.7
299.2573	4.5
300.2600	1.2
301.1545	0.8
308.1437	2.6
313.2730	100.0
314.2764	20.7
315.2795	1.5
324.1391	3.5
328.1649	3.6
329.1854	2.3
330.1805	4.5
381.2388	1.4
393.2393	4.9
394.2432	0.9
399.3248	1.9
400.3280	0.7
422.2075	1.2
435.2492	0.9
435.3248	0.9
436.1909	0.9
436.2813	13.2
437.2816	3.0
437.3044	2.0
437.3408	2.1
438.3091	0.7
452.3147	0.9
453.2486	2.4
453.2974	2.7
453.3353	4.2
453.3695	0.8
454.2021	3.0
454.2925	12.7
454.3369	0.8
455.2047	0.7
455.2643	3.3
455.2746	2.5
455.3147	7.6
455.3507	4.4
456.3174	1.6
456.3535	1.0

Name: PE(18:1(9Z)/0:0)
PrecursorMZ: 480.30809
RT: 4.961
ExactMass: 479.3011898
Spectrum_type: 2
charge: 1
Formula: C23H46NO7P
SMILES: CCCCCCCC/C=C\CCCCCCCC(=O)OC[C@H](COP(=O)(O)OCCN)O
Method: HCD
Collision_energy: [28.333334]
Isolation_window: 4.0
Ion_mode: P
Num Peaks: 101
55.0545	4.0
57.0339	3.8
57.0703	6.7
60.0812	2.1
62.0603	37.2
67.0545	9.6
69.0338	2.8
69.0701	16.5
69.3958	1.7
71.0857	8.0
73.0287	1.6
79.0544	3.2
81.0700	16.6
81.0722	1.9
83.0494	2.0
83.0856	12.0
85.0649	3.1
85.1012	4.1
86.0965	10.0
87.0443	4.8
89.0598	18.6
91.0540	2.1
93.0698	7.1
95.0855	18.7
95.0880	2.3
97.0648	3.7
97.1011	8.6
97.3987	2.9
98.9840	3.0
99.0441	1.9
99.0804	3.1
101.0595	2.8
104.1068	31.3
104.1101	2.2
105.0698	2.2
107.0855	4.6
109.0646	3.0
109.1010	13.3
111.0439	2.4
111.0806	2.5
111.1167	3.3
119.0855	3.3
121.1011	7.0
123.1167	4.2
124.9998	4.3
129.0543	2.1
131.0853	2.0
133.0858	11.1
133.1011	3.3
135.1166	6.1
137.0596	3.9
139.1116	2.6
142.0258	1.9
145.1010	1.7
147.1168	2.3
149.0960	1.9
149.1324	4.6
155.0101	6.6
159.1169	2.1
161.1323	3.0
163.1478	2.1
171.1166	2.5
177.1121	2.8
184.0732	9.5
185.1325	2.3
193.0972	1.9
198.0525	2.4
216.0628	3.9
221.1533	2.6
265.2524	3.2
308.2943	9.0
309.2976	1.7
310.3095	2.6
337.2731	8.7
338.2767	11.2
339.2889	100.0
340.2923	22.4
341.3048	30.8
419.2550	6.0
421.2703	1.8
443.3147	3.2
461.2867	2.6
461.3250	3.7
462.2975	18.7
463.3008	4.4
463.3411	1.9
464.3133	5.3
478.3286	4.7
479.2394	7.6
479.2972	4.7
479.3349	10.3
480.2129	3.0
480.2423	3.7
480.3078	21.5
480.3434	8.9
481.2547	5.1
481.3111	5.4
481.3508	6.7
482.2697	1.9
482.3237	8.3
482.3603	13.7

Name: PEG polymer
PrecursorMZ: 557.01124
RT: 0.6847
Spectrum_type: 2
charge: 1
Method: HCD
Collision_energy: [28.333334]
Isolation_window: 4.0
Ion_mode: P
Num Peaks: 86
117.0911	2.2
125.0596	1.5
131.0703	6.6
133.0859	100.0
134.0892	6.4
137.0596	3.4
151.0968	2.5
153.0548	2.4
155.0704	4.6
157.0860	1.3
175.0966	4.0
177.1122	29.9
178.1152	2.7
195.1226	6.5
199.0963	2.0
219.1222	1.7
221.1380	6.6
229.6519	1.0
239.1487	8.8
243.1230	2.0
265.1642	1.9
283.1750	8.5
284.1792	1.0
287.1493	1.9
300.2018	1.4
309.1903	1.9
327.2013	6.2
328.2051	1.0
331.1751	1.7
344.2285	1.3
353.2176	1.2
371.2279	5.1
375.2020	1.4
388.2529	1.6
412.3213	2.0
415.2528	4.0
419.2259	1.2
432.2794	1.5
459.2793	4.0
463.2523	1.5
476.3033	1.2
479.2460	1.1
503.3073	2.7
510.2881	2.4
520.3330	1.2
523.2897	1.0
539.9852	7.5
540.3202	5.8
540.6540	3.0
545.3168	10.8
545.6612	6.6
545.8198	5.8
545.9954	6.3
546.3242	4.4
546.6602	1.2
546.8356	1.6
547.3328	37.3
548.3362	9.5
549.3400	2.0
553.8301	6.6
554.3312	3.0
554.6597	5.8
554.8413	1.1
554.9940	4.3
555.3321	3.1
557.4570	1.9
560.3357	7.1
560.6700	6.9
561.0049	2.5
564.3591	43.1
565.3620	12.7
566.0109	1.6
566.3617	3.5
567.2966	3.2
568.2971	1.1
569.3137	2.0
570.3098	7.1
571.3127	1.6
699.4079	1.2
699.9119	1.0
707.9206	1.5
721.9223	1.0
729.9334	1.3
730.4353	1.1
751.9481	1.1
752.4485	1.0

Name: PG(16:0 0:0)2-hydroxy-3-(2-hydroxyacetoxy)propyl palmitate
PrecursorMZ: 485.28704
RT: 2.745
Spectrum_type: 2
charge: 1
Method: HCD
Collision_energy: [28.333334]
Isolation_window: 4.0
Ion_mode: P
Num Peaks: 16
57.0703	10.2
69.0702	4.3
71.0859	11.5
81.0702	5.8
83.0858	4.6
85.1015	6.5
95.0857	6.8
98.9843	6.5
109.1013	6.3
123.1169	3.4
155.0103	11.9
173.0210	4.3
313.2733	100.0
314.2767	18.5
449.2658	12.3
486.3568	6.8

Name: Paclobutrazol
PrecursorMZ: 294.13676
RT: 5.3126
ExactMass: 293.12949
Spectrum_type: 2
charge: 1
Formula: C15H20ClN3O
SMILES: CC(C)(C)[C@@H]([C@H](CC1=CC=C(C=C1)Cl)N2C=NC=N2)O
Method: HCD
Collision_energy: [28.333334]
Isolation_window: 4.0
Ion_mode: P
Num Peaks: 13
70.0655	7.8
76.0217	3.9
86.0603	100.0
86.0966	5.5
96.0446	7.9
114.0550	10.5
116.0706	6.2
136.0426	13.9
150.0912	5.5
293.1491	32.9
294.1317	6.9
295.1282	3.9
295.1646	7.4

Name: Padimate-O
PrecursorMZ: 278.21111
RT: 1.0154
ExactMass: 277.204179104
Spectrum_type: 2
charge: 1
Formula: C17H27NO2
SMILES: CCCCC(CC)COC(=O)C1=CC=C(C=C1)N(C)C
Method: HCD
Collision_energy: [28.333334]
Isolation_window: 4.0
Ion_mode: P
Num Peaks: 6
57.0702	6.0
149.0230	43.5
151.0624	17.3
166.0860	70.7
278.2107	100.0
279.2139	18.9

Name: Palmatine
PrecursorMZ: 352.15971
RT: 10.046
ExactMass: 352.15488318
Spectrum_type: 2
charge: 1
Formula: C21H22NO4+
SMILES: COC1=C(C2=C[N+]3=C(C=C2C=C1)C4=CC(=C(C=C4CC3)OC)OC)OC
Method: HCD
Collision_energy: [28.333334]
Isolation_window: 4.0
Ion_mode: P
Num Peaks: 20
70.0657	4.7
201.1236	4.4
270.1336	11.6
273.1433	4.0
352.1602	96.2
353.1639	16.0
354.1661	4.4
356.3528	5.7
357.1662	12.2
358.1532	8.4
358.3663	4.7
359.1440	4.2
359.1855	6.8
360.1653	100.0
361.1639	39.0
362.1821	15.5
363.1762	41.6
364.1775	6.8
365.1964	3.9
366.1773	3.5

Name: Palmitic Acid
PrecursorMZ: 274.27377
RT: 2.2738
ExactMass: 256.240230259
Spectrum_type: 2
charge: 1
Formula: C16H32O2
SMILES: CCCCCCCCCCCCCCCC(=O)O
Method: HCD
Collision_energy: [28.333334]
Isolation_window: 4.0
Ion_mode: P
Num Peaks: 18
57.0703	1.0
70.0655	1.8
71.0859	0.8
88.0760	5.1
102.0915	1.5
106.0864	4.6
230.2480	0.6
234.1851	0.4
256.2634	4.3
257.2669	0.7
273.1310	0.4
273.1671	1.6
274.2427	0.7
274.2497	0.3
274.2739	100.0
274.3049	0.6
275.2773	16.7
276.2803	1.0

Name: Palmitoleoyl Ethanolamide
PrecursorMZ: 298.2738
RT: 1.6465
ExactMass: 297.266779359
Spectrum_type: 2
charge: 1
Formula: C18H35NO2
SMILES: CCCCCC/C=C\CCCCCCCC(=O)NCCO
Method: HCD
Collision_energy: [28.333334]
Isolation_window: 4.0
Ion_mode: P
Num Peaks: 7
60.0449	100.0
94.9298	5.5
112.8960	3.3
280.2639	3.3
298.2738	16.8
299.2780	3.9
300.2896	18.4

Name: Palmitoyl Carnitine
PrecursorMZ: 400.34175
RT: 4.7269
ExactMass: 399.33485892
Spectrum_type: 2
charge: 1
Formula: C23H45NO4
SMILES: CCCCCCCCCCCCCCCC(=O)O[C@H](CC(=O)[O-])C[N+](C)(C)C
Method: HCD
Collision_energy: [28.333334]
Isolation_window: 4.0
Ion_mode: P
Num Peaks: 22
60.0812	10.6
70.0654	1.6
71.0858	1.6
72.0811	2.0
85.0286	100.0
86.0319	3.6
86.0966	3.1
89.0599	3.3
95.0858	1.7
116.0707	2.0
130.0649	2.1
133.0857	1.8
144.1018	2.9
146.0598	7.2
163.0386	2.4
188.0702	3.1
296.2943	3.5
323.1021	1.6
341.2682	4.2
400.3413	63.9
401.1327	1.6
401.3449	17.2

Name: Palmitoylputrescine
PrecursorMZ: 327.33646
RT: 5.9379
ExactMass: 326.329713967
Spectrum_type: 2
charge: 1
Formula: C20H42N2O
SMILES: CCCCCCCCCCCCCCCC(=O)NCCCCN
Method: HCD
Collision_energy: [28.333334]
Isolation_window: 4.0
Ion_mode: P
Num Peaks: 10
72.0811	45.1
98.9842	7.7
310.3097	58.9
311.3132	13.2
326.2479	11.2
326.3048	7.5
327.3363	100.0
328.1338	14.1
328.2630	16.8
328.3394	21.2

Name: Palythine
PrecursorMZ: 245.11295
RT: 8.985
ExactMass: 244.10592162
Spectrum_type: 2
charge: 1
Formula: C10H16N2O5
SMILES: COC1=C(CC(CC1=NCC(=O)O)(CO)O)N
Method: HCD
Collision_energy: [28.333334]
Isolation_window: 4.0
Ion_mode: P
Num Peaks: 81
58.0655	0.9
59.0732	0.2
60.0812	3.2
70.0654	2.2
72.0811	0.2
84.0810	1.3
90.0552	0.3
100.0395	0.2
100.0758	1.4
108.0445	0.2
110.0600	0.2
112.0393	0.2
112.0757	0.3
114.0550	0.6
114.0662	0.2
116.0707	0.4
124.0754	0.2
126.0549	0.5
130.0863	0.2
132.0766	1.7
137.0709	0.8
140.0705	1.4
140.0816	0.2
146.0922	0.7
150.0786	0.4
151.0865	0.7
155.0813	0.2
158.0811	0.9
163.0863	0.3
168.0892	0.3
170.0810	0.8
181.0966	0.3
181.1332	0.2
184.0718	0.3
184.0840	0.6
185.0924	0.2
186.0759	0.2
186.0876	1.3
186.0996	14.7
187.1031	1.2
194.0682	0.2
197.0918	1.2
199.0710	0.2
199.1075	1.3
199.1439	1.1
200.1276	0.2
203.1499	0.2
209.0917	3.2
210.0951	0.3
212.0786	0.2
215.1387	0.2
227.1022	1.2
228.0974	0.9
228.1228	0.4
228.1587	0.2
230.0894	13.0
231.0930	1.3
244.1174	1.2
244.1290	3.4
244.9870	0.2
245.0712	0.2
245.0792	0.2
245.0867	0.7
245.0919	0.7
245.1038	0.2
245.1128	100.0
245.1222	0.4
245.1288	0.4
245.1337	0.4
245.1389	0.7
245.1491	48.3
245.1586	0.4
245.1756	0.2
245.1840	1.1
246.1068	7.8
246.1164	8.4
246.1202	0.3
246.1333	0.8
246.1528	5.9
247.1121	0.2
247.1275	0.3

Name: Pantothenic acid; AIF; CE10; MS2Dec
PrecursorMZ: 220.1184
RT: 7.3645
Spectrum_type: 2
charge: 1
SMILES: CC(C)(CO)[C@@H](O)C(O)=NCCC(=O)O
Method: HCD
Collision_energy: [28.333334]
Isolation_window: 4.0
Ion_mode: P
Num Peaks: 39
69.0703	14.1
72.0447	7.2
72.0812	17.5
74.0605	50.7
76.0761	6.1
85.0651	9.7
86.0603	16.2
90.0553	100.0
95.0493	6.5
98.0239	9.1
103.0755	5.1
113.0599	75.6
114.0631	5.2
116.0344	25.8
118.0865	10.6
124.0758	16.1
130.0499	6.3
142.0861	4.7
154.0863	13.3
166.0864	13.9
173.1284	12.1
176.0707	5.6
176.1070	10.1
184.0969	62.3
185.1001	6.3
200.0918	9.8
200.1174	5.0
201.1233	4.7
202.1073	32.1
204.1022	8.7
219.1128	12.3
219.1337	7.5
220.0969	26.1
220.1077	5.1
220.1181	56.1
221.0917	19.0
221.1213	5.1
222.0762	14.8
222.1124	17.8

Name: Papaverine
PrecursorMZ: 340.15976
RT: 4.2008
ExactMass: 339.14705815
Spectrum_type: 2
charge: 1
Formula: C20H21NO4
SMILES: COC1=C(C=C(C=C1)CC2=NC=CC3=CC(=C(C=C32)OC)OC)OC
Method: HCD
Collision_energy: [28.333334]
Isolation_window: 4.0
Ion_mode: P
Num Peaks: 65
70.0656	16.8
72.0812	5.4
81.0339	4.5
84.0814	5.3
100.0761	4.6
105.0339	7.0
111.0446	9.0
112.0396	5.5
112.0873	4.4
124.0398	4.4
125.0236	4.5
132.0445	9.9
163.0755	11.0
211.0394	4.8
213.0549	10.2
215.0708	6.2
229.0497	87.7
235.0608	5.4
243.0657	5.2
245.0443	14.1
247.0604	24.7
253.0493	4.9
267.0653	7.9
269.0446	5.0
271.0601	7.9
282.0761	7.6
283.0587	6.2
283.1653	22.9
285.0770	5.8
295.0599	10.0
299.0547	8.2
313.0704	42.2
328.0819	5.1
338.1870	5.4
339.1571	7.5
339.1932	24.5
340.1611	100.0
340.2321	4.1
341.0659	53.0
341.1691	25.7
341.2189	26.0
342.1647	5.5
342.2174	8.7
344.1781	6.0
345.1426	5.0
345.1797	12.3
346.0942	9.7
346.1864	4.3
346.3307	6.1
347.1595	5.3
348.1443	5.4
349.1773	7.8
350.1662	12.1
351.1545	7.7
351.2014	4.8
352.1920	6.5
353.1709	12.8
354.1536	5.8
354.1838	9.3
354.3159	9.8
355.1926	10.7
356.1529	27.6
357.1631	8.7
358.1556	7.8
359.0763	67.2

Name: Paraxanthine
PrecursorMZ: 181.07183
RT: 2.4158
ExactMass: 180.06472551
Spectrum_type: 2
charge: 1
Formula: C7H8N4O2
SMILES: CN1C=NC2=C1C(=O)N(C(=O)N2)C
Method: HCD
Collision_energy: [28.333334]
Isolation_window: 4.0
Ion_mode: P
Num Peaks: 9
91.0543	12.8
124.0504	15.3
142.0609	8.9
164.1067	8.1
180.0804	19.0
181.0716	100.0
181.0842	3.4
182.0751	5.1
182.1171	5.9

Name: Pardoprunox
PrecursorMZ: 234.12344
RT: 7.2348
ExactMass: 233.11642673
Spectrum_type: 2
charge: 1
Formula: C12H15N3O2
SMILES: CN1CCN(CC1)C2=CC=CC3=C2OC(=O)N3
Method: HCD
Collision_energy: [28.333334]
Isolation_window: 4.0
Ion_mode: P
Num Peaks: 35
70.0655	1.8
81.0338	1.6
110.0840	22.3
111.0917	19.7
149.1073	5.7
163.1229	2.5
187.0865	1.4
187.8828	1.7
188.1180	1.8
190.0861	2.6
190.1337	100.0
191.1372	11.6
208.0967	2.0
210.8987	1.8
212.8968	1.5
218.0920	7.3
232.1331	11.5
233.0914	8.6
233.1264	6.1
233.1370	4.4
233.1645	3.0
234.0765	3.3
234.0874	2.1
234.1122	11.6
234.1236	22.4
234.1334	2.5
234.1475	1.9
235.1075	21.2
235.1186	8.9
235.1273	1.8
235.1437	7.1
236.0916	20.4
236.1021	1.9
236.1126	1.9
236.1281	17.5

Name: Pci-34051
PrecursorMZ: 297.12317
RT: 4.6203
ExactMass: 296.11609238
Spectrum_type: 2
charge: 1
Formula: C17H16N2O3
SMILES: COC1=CC=C(C=C1)CN2C=CC3=C2C=C(C=C3)C(=O)NO
Method: HCD
Collision_energy: [28.333334]
Isolation_window: 4.0
Ion_mode: P
Num Peaks: 32
81.0338	23.6
94.9298	14.2
121.0284	96.1
136.0756	5.7
144.0807	5.2
152.1070	8.1
156.1382	8.9
160.0757	100.0
161.0789	11.1
177.1022	18.4
211.0864	6.1
226.0859	9.6
280.0959	6.6
295.1282	5.0
295.1436	4.8
295.1637	8.0
295.2019	5.5
296.1116	11.4
296.1281	12.7
296.1476	11.4
296.1619	6.9
296.1973	8.8
297.0866	12.6
297.1231	41.9
297.1802	6.3
298.1068	28.1
298.1240	23.8
298.1427	5.8
298.1556	16.7
299.1023	19.9
299.1378	12.7
299.1964	7.7

Name: Pendimethalin
PrecursorMZ: 282.14417
RT: 4.302
ExactMass: 281.1375561
Spectrum_type: 2
charge: 1
Formula: C13H19N3O4
SMILES: CCC(CC)NC1=C(C=C(C(=C1[N+](=O)[O-])C)C)[N+](=O)[O-]
Method: HCD
Collision_energy: [28.333334]
Isolation_window: 4.0
Ion_mode: P
Num Peaks: 27
69.0341	5.6
70.0657	9.7
84.0812	100.0
89.0602	10.3
122.0812	21.0
130.0866	23.1
132.0445	14.9
133.0862	5.4
154.0865	6.3
167.0819	8.8
168.0690	15.4
177.1388	7.9
187.1080	17.6
237.1593	13.4
266.1245	5.4
267.1699	12.4
282.1451	33.9
282.2154	10.4
283.1744	6.5
284.1976	9.0
284.3315	6.9
286.1758	16.0
286.3113	7.5
290.1399	8.8
295.1668	7.4
296.1576	14.5
300.1922	20.3

Name: Penicillic Acid
PrecursorMZ: 171.06513
RT: 6.056
ExactMass: 170.0579088
Spectrum_type: 2
charge: 1
Formula: C8H10O4
SMILES: CC(=C)C(=O)/C(=C/C(=O)O)/OC
Method: HCD
Collision_energy: [28.333334]
Isolation_window: 4.0
Ion_mode: P
Num Peaks: 36
67.0545	1.9
69.6918	1.7
70.0653	1.6
98.0601	1.7
109.1011	3.8
111.0441	4.5
112.0756	2.2
113.0346	2.0
124.0504	1.7
124.0755	2.4
125.0596	46.0
125.0706	5.5
126.0549	3.8
126.0628	3.6
127.0500	12.1
129.0546	2.4
135.0550	2.4
142.0497	2.6
142.0859	2.0
151.0864	2.3
152.0704	12.2
153.0544	100.0
153.0653	3.4
154.0577	8.9
154.0861	2.3
155.0450	1.8
170.0447	5.8
170.0810	7.0
170.1172	2.3
171.0649	2.8
171.0754	2.7
171.1123	10.9
171.1489	2.3
171.1853	4.3
172.0965	3.8
173.0552	5.3

Name: Pentadecanoyl-EA
PrecursorMZ: 286.27324
RT: 1.1352
ExactMass: 285.266779359
Spectrum_type: 2
charge: 1
Formula: C17H35NO2
SMILES: CCCCCCCCCCCCCCC(=O)NCCO
Method: HCD
Collision_energy: [28.333334]
Isolation_window: 4.0
Ion_mode: P
Num Peaks: 6
201.0540	24.7
258.2782	74.5
268.2626	33.0
286.1430	31.0
286.2730	100.0
287.2765	23.2

Name: Pentaethylene glycol
PrecursorMZ: 239.14871
RT: 2.8592
ExactMass: 238.14163842
Spectrum_type: 2
charge: 1
Formula: C10H22O6
SMILES: C(COCCOCCOCCOCCO)O
Method: HCD
Collision_energy: [28.333334]
Isolation_window: 4.0
Ion_mode: P
Num Peaks: 11
87.0444	1.4
89.0600	100.0
90.0633	4.1
107.0703	2.3
133.0859	43.8
134.0892	2.3
139.9146	36.2
151.0965	4.4
177.1121	4.2
195.1226	6.3
239.1487	10.3

Name: Pentaethylene glycol monomethyl ether
PrecursorMZ: 253.16423
RT: 2.040575
ExactMass: 252.15728848
Spectrum_type: 2
charge: 1
Formula: C11H24O6
SMILES: COCCOCCOCCOCCOCCO
Method: HCD
Collision_energy: [28.333334]
Isolation_window: 4.0
Ion_mode: P
Num Peaks: 3
59.0495	15.6
89.0598	100.0
133.0856	40.3

Name: Pentanamide
PrecursorMZ: 102.09157
RT: 4.7815
ExactMass: 101.084063974
Spectrum_type: 2
charge: 1
Formula: C5H11NO
SMILES: CCCCC(=O)N
Method: HCD
Collision_energy: [28.333334]
Isolation_window: 4.0
Ion_mode: P
Num Peaks: 48
55.0547	0.5
56.0500	3.5
57.0340	0.8
57.0704	1.3
58.0656	4.4
59.0496	1.2
59.0734	2.5
60.0448	0.8
67.0547	3.4
68.0500	2.1
69.0340	8.3
70.0373	0.5
70.0656	7.3
71.0496	7.2
72.0530	0.4
72.0812	1.9
74.0604	0.7
82.0656	4.5
83.0495	1.9
84.0812	4.1
85.0652	12.8
86.0604	10.1
86.0679	0.7
87.0444	34.2
87.0633	0.6
88.0478	1.9
88.0760	3.0
98.0603	0.5
100.0760	11.1
101.0600	12.3
101.0792	0.4
102.0630	0.6
102.0916	5.4
102.1279	0.6
104.0709	8.4
106.0865	2.7
111.0919	0.5
113.0711	0.6
115.0867	0.5
116.0710	0.7
118.0692	0.7
118.0865	100.0
118.1000	0.5
118.1041	0.8
119.0899	5.1
120.0911	0.5
120.1021	3.4
122.0813	2.1

Name: Pentoxifylline
PrecursorMZ: 279.14525
RT: 7.8225
ExactMass: 278.13789045
Spectrum_type: 2
charge: 1
Formula: C13H18N4O3
SMILES: CC(=O)CCCCN1C(=O)C2=C(N=CN2C)N(C1=O)C
Method: HCD
Collision_energy: [28.333334]
Isolation_window: 4.0
Ion_mode: P
Num Peaks: 18
100.0760	10.0
107.0608	4.6
134.0715	22.9
136.0871	21.5
149.0236	6.3
180.0770	100.0
181.0805	7.3
217.1451	5.1
277.1552	13.2
278.1241	7.5
278.1379	33.8
279.1345	5.2
279.1456	66.3
279.1710	7.0
280.1175	9.0
280.1545	17.6
281.1262	4.3
281.1490	25.9

Name: Pentyl 4-(3-chloro-4-hydroxy-5-methoxyphenyl)-2-methyl-5-oxo-1,4,5,6,7,8-hexahydroquinoline-3-carboxylate
PrecursorMZ: 456.15506
RT: 4.5091
ExactMass: 433.1656007
Spectrum_type: 2
charge: 1
Formula: C23H28ClNO5
SMILES: CCCCCOC(=O)C1=C(NC2=C(C1C3=CC(=C(C(=C3)Cl)O)OC)C(=O)CCC2)C
Method: HCD
Collision_energy: [28.333334]
Isolation_window: 4.0
Ion_mode: P
Num Peaks: 12
50.6841	4.0
263.0813	100.0
264.0847	15.7
281.0918	54.5
282.0954	8.2
285.2428	2.5
309.0867	52.6
310.0903	8.8
410.1499	4.1
454.3466	2.9
456.1550	78.6
457.1584	23.7

Name: Periodate-oxidized adenosine
PrecursorMZ: 266.08809
RT: 7.7085
ExactMass: 265.08110385
Spectrum_type: 2
charge: 1
Formula: C10H11N5O4
SMILES: C1=NC(=C2C(=N1)N(C=N2)C(C=O)OC(CO)C=O)N
Method: HCD
Collision_energy: [28.333334]
Isolation_window: 4.0
Ion_mode: P
Num Peaks: 9
113.0233	3.9
136.0617	65.0
248.0772	3.9
265.0800	4.5
265.1181	4.7
266.0882	100.0
266.1014	8.3
267.0912	9.9
267.1334	7.4

Name: Petroselinic Acid
PrecursorMZ: 283.26302
RT: 1.485
ExactMass: 282.255880323
Spectrum_type: 2
charge: 1
Formula: C18H34O2
SMILES: CCCCCCCCCCC/C=C\CCCCC(=O)O
Method: HCD
Collision_energy: [28.333334]
Isolation_window: 4.0
Ion_mode: P
Num Peaks: 281
55.0547	3.1
57.0340	1.5
57.0704	28.5
58.0737	3.4
59.0496	1.7
67.0547	15.2
68.0580	2.6
69.0339	1.8
69.0703	29.0
70.0655	3.2
70.0737	3.5
71.0496	3.4
71.0859	34.1
72.0812	0.9
72.0893	5.1
73.0652	2.1
79.0546	7.3
80.0580	1.3
81.0702	31.5
82.0736	6.4
83.0495	4.6
83.0859	23.8
84.0447	0.9
84.0892	4.0
85.0651	3.7
85.1015	8.8
86.0604	1.2
86.0968	1.9
86.1049	0.9
87.0443	1.3
89.0600	4.6
91.0545	3.0
93.0701	9.5
95.0493	2.0
95.0858	22.8
96.0892	3.6
97.0650	9.1
97.1014	20.2
98.0603	2.1
98.1047	4.1
99.0443	2.2
99.0807	2.9
100.0759	3.0
101.0600	4.2
105.0701	4.0
107.0494	16.1
107.0857	12.9
108.0891	2.5
109.0650	2.9
109.1014	13.1
110.0604	1.2
110.1047	3.1
111.0442	2.4
111.0806	6.1
111.1170	7.4
112.0759	1.5
112.1204	1.6
113.0599	1.5
113.0964	1.2
115.0755	5.0
116.0707	1.2
117.0702	1.1
119.0492	1.4
119.0857	4.1
120.0892	1.0
121.0650	2.1
121.1013	12.5
122.1046	1.9
123.0442	1.4
123.0806	3.3
123.1169	9.8
124.0759	1.4
124.1202	3.0
125.0598	2.2
125.0962	6.0
125.1325	1.6
126.0552	1.0
126.0914	1.7
127.0392	1.1
127.0755	1.2
127.1119	1.1
128.0707	2.8
129.0547	1.5
129.0910	2.3
131.0855	2.0
133.0650	1.2
133.0859	1.7
133.1013	5.2
134.1045	1.7
135.0805	2.1
135.1169	10.6
136.0757	1.3
136.1203	1.8
137.0598	2.9
137.0710	0.9
137.0962	2.1
137.1325	2.5
138.0550	2.3
138.0914	0.9
138.1360	1.0
139.0755	1.7
139.1118	5.3
140.0706	11.2
141.0549	1.2
141.0911	1.0
141.1275	8.5
142.1308	3.7
143.0856	1.0
143.1067	1.8
145.1010	2.1
147.0553	5.2
147.0803	1.5
147.1169	4.0
148.0632	2.5
149.0596	1.3
149.0962	1.6
149.1325	9.6
150.1361	1.3
151.0391	1.0
151.0755	2.3
151.1116	1.7
151.1481	1.4
152.0707	1.2
153.0546	1.7
153.0912	1.0
153.1275	3.9
154.0864	1.2
155.0701	1.3
156.0656	1.9
157.1013	1.3
157.1224	1.6
159.0806	1.2
159.1169	1.8
161.0597	1.3
161.0961	1.4
161.1326	2.3
163.0754	2.7
163.1118	1.1
163.1482	5.3
164.0706	1.1
164.1516	1.4
165.0183	3.3
165.0547	1.6
165.0913	1.5
165.1638	1.1
166.0865	1.3
166.1228	1.1
167.0706	1.3
167.1431	3.1
168.0656	1.2
168.1019	1.4
169.1015	1.2
170.0812	1.0
171.1170	2.6
171.1381	1.0
173.0960	1.2
173.1325	1.0
175.1119	1.8
175.1482	1.2
176.0707	1.1
177.0541	1.1
177.0912	1.2
177.1638	4.1
178.0864	1.4
179.0339	1.0
179.0706	3.2
179.0815	100.0
179.1071	1.0
180.0653	1.0
180.1017	1.1
181.1587	2.6
182.0812	0.9
183.0289	2.4
185.1537	1.0
187.1118	1.4
189.0908	1.0
189.1274	2.8
190.0864	1.4
191.0704	1.3
191.1066	1.4
191.1794	2.7
193.0860	1.0
193.1223	1.2
194.0813	1.1
194.1176	2.2
195.1743	2.1
196.0968	0.9
198.0760	2.7
199.1121	1.2
199.1693	1.0
201.1273	0.9
203.1430	0.9
204.1017	1.4
205.0860	1.6
205.1222	1.7
205.1951	1.1
206.0812	1.4
206.1175	1.2
207.1017	1.2
207.1385	1.1
208.0966	2.2
209.1902	1.9
210.1122	1.0
215.1066	1.0
217.1223	3.2
219.1017	1.1
222.0758	1.3
222.1123	3.8
223.0755	0.9
223.0964	1.6
224.0916	1.7
224.1279	1.5
232.0964	1.2
233.1175	1.4
235.1329	2.4
236.1281	2.3
237.1127	1.7
238.1074	1.0
238.1430	1.2
240.1233	0.9
246.2300	2.5
247.1325	1.2
247.1689	2.1
247.2420	10.4
248.2453	1.9
249.1121	1.1
249.1481	1.2
250.1071	4.4
251.1277	0.9
252.0864	1.3
252.1226	2.5
253.0975	1.3
254.1390	1.3
254.2555	1.3
264.0686	1.7
264.0860	1.0
264.1222	2.8
264.1594	1.0
264.2403	1.8
265.1066	2.0
265.1189	0.8
265.1431	1.7
265.1796	1.7
265.2525	8.2
266.1010	1.4
266.1376	1.1
266.1733	1.2
266.2559	2.0
267.0860	1.1
267.1225	2.0
267.1591	1.4
282.0766	1.2
282.0965	2.7
282.1121	2.0
282.1329	7.8
282.1687	3.6
282.2508	1.0
282.2786	1.1
283.0953	1.3
283.1156	1.7
283.1291	4.9
283.1521	1.9
283.1658	3.1
283.1888	1.2
283.2052	2.4
283.2633	1.2
284.0914	2.5
284.1126	4.4
284.1283	2.4
284.1492	4.2
284.1853	1.4
284.3310	9.6
285.0762	2.0
285.0961	1.3
285.1231	40.0
285.1465	0.8
285.1597	1.2
285.1672	0.9
285.1841	2.9
285.2209	0.9
285.3347	1.3

Name: Pga1
PrecursorMZ: 319.22664
RT: 2.9788
ExactMass: 336.2300595
Spectrum_type: 2
charge: 1
Formula: C20H32O4
SMILES: CCCCC[C@@H](/C=C/[C@H]1C=CC(=O)[C@@H]1CCCCCCC(=O)O)O
Method: HCD
Collision_energy: [28.333334]
Isolation_window: 4.0
Ion_mode: P
Num Peaks: 14
81.0703	47.3
93.0702	39.8
95.0858	65.2
107.0858	43.9
119.0857	43.1
133.1012	37.6
135.1168	41.2
145.1016	30.1
159.1168	32.4
166.0865	31.8
189.1638	65.0
301.2163	100.0
319.2267	99.3
320.2302	28.0

Name: Pgj2
PrecursorMZ: 335.22141
RT: 2.1778
ExactMass: 334.21440943
Spectrum_type: 2
charge: 1
Formula: C20H30O4
SMILES: CCCCC[C@@H](/C=C/[C@@H]1[C@H](C=CC1=O)C/C=C\CCCC(=O)O)O
Method: HCD
Collision_energy: [28.333334]
Isolation_window: 4.0
Ion_mode: P
Num Peaks: 4
133.1013	33.7
299.2005	69.6
317.2109	100.0
335.2211	40.0

Name: Pha-568487
PrecursorMZ: 289.15425
RT: 5.0723
ExactMass: 288.1473925
Spectrum_type: 2
charge: 1
Formula: C16H20N2O3
SMILES: C1CN2CCC1[C@H](C2)NC(=O)C3=CC4=C(C=C3)OCCO4
Method: HCD
Collision_energy: [28.333334]
Isolation_window: 4.0
Ion_mode: P
Num Peaks: 87
67.0546	2.4
72.0811	1.9
79.0545	0.8
81.0337	0.9
81.0702	0.6
86.0966	0.7
93.0700	1.0
94.0653	2.9
95.0857	9.1
96.0445	1.5
97.0650	27.9
97.1013	1.5
97.3977	0.7
98.0684	1.3
107.0493	0.8
108.0445	22.9
109.0478	1.3
109.0523	1.3
110.0602	0.8
110.0966	2.1
122.0601	51.3
122.0964	0.6
123.0635	3.6
124.0756	6.0
125.0791	0.7
126.0914	1.1
136.0756	8.7
137.0787	0.7
138.0913	65.2
139.0945	5.5
140.1069	26.4
141.1102	2.4
148.0390	0.7
150.0549	75.8
151.0583	6.0
151.0628	0.9
152.0705	13.5
153.0740	0.9
160.0757	9.0
161.0788	0.8
164.0705	32.3
165.0739	3.0
165.1022	1.6
166.0862	2.7
171.1491	0.7
173.0835	1.4
174.0914	2.5
176.1069	1.5
187.0990	2.2
202.0861	5.5
202.1224	8.6
203.1256	1.1
215.0938	3.0
216.1018	6.6
216.1379	4.2
217.1050	0.7
220.0967	0.6
229.1335	0.8
230.1173	22.7
231.1210	2.9
243.0886	0.9
244.0966	6.5
244.1329	18.3
245.0997	0.6
245.1368	2.4
247.1438	2.1
254.1173	0.7
261.1594	3.1
262.1629	0.6
270.1121	0.6
271.1435	1.2
272.0916	0.6
272.1277	39.9
273.1318	5.8
288.0863	0.9
288.1212	1.3
289.1209	2.3
289.1542	100.0
289.1808	0.7
289.1886	0.7
290.1017	1.6
290.1383	10.7
290.1574	15.8
291.1330	0.9
291.1426	0.9
291.1721	2.0
291.1949	0.6

Name: Phe-Arg
PrecursorMZ: 322.18676
RT: 7.8687
ExactMass: 321.18008961
Spectrum_type: 2
charge: 1
Formula: C15H23N5O3
SMILES: C1=CC=C(C=C1)C[C@@H](C(=O)N[C@@H](CCCN=C(N)N)C(=O)O)N
Method: HCD
Collision_energy: [28.333334]
Isolation_window: 4.0
Ion_mode: P
Num Peaks: 52
60.0560	8.2
70.0654	17.2
72.0811	1.5
81.0337	1.4
84.0810	3.2
86.0966	1.1
98.0601	1.3
111.0441	3.8
112.0870	4.7
115.0866	4.0
116.0706	7.8
120.0807	38.8
121.0841	2.8
130.0974	2.1
140.0819	1.1
144.0806	7.9
154.0861	4.6
157.1082	2.0
158.0922	10.5
172.0964	2.5
175.1187	38.0
176.1222	2.1
185.1076	1.8
190.0972	11.6
191.1008	1.2
195.1127	1.2
197.1283	1.3
214.1070	2.0
228.1237	1.4
232.1177	1.7
262.1546	1.3
263.1386	2.3
276.1221	1.3
287.1497	2.9
303.1544	1.2
304.1389	3.2
305.1619	7.1
320.1513	1.6
321.1432	2.5
321.1642	1.9
321.1807	2.8
322.1278	6.0
322.1483	6.4
322.1665	4.3
322.1867	100.0
323.1333	1.2
323.1594	8.4
323.1900	16.8
323.7097	1.1
324.1436	7.9
324.1655	14.4
324.1952	1.2

Name: Phe-Gln
PrecursorMZ: 294.14421
RT: 4.8879
ExactMass: 293.1375561
Spectrum_type: 2
charge: 1
Formula: C14H19N3O4
SMILES: C1=CC=C(C=C1)C[C@@H](C(=O)N[C@@H](CCC(=O)N)C(=O)O)N
Method: HCD
Collision_energy: [28.333334]
Isolation_window: 4.0
Ion_mode: P
Num Peaks: 63
60.0447	1.8
69.0701	2.2
81.0336	5.6
84.0445	6.1
84.0809	3.1
86.0965	64.1
87.0998	2.1
100.1120	4.9
101.0709	3.5
110.0600	2.5
111.0440	2.6
120.0806	100.0
121.0839	7.6
128.0704	1.7
130.0496	38.1
131.0488	2.6
131.0531	1.8
131.1177	1.7
136.0754	25.2
141.1018	3.8
147.0761	71.1
148.0795	4.4
150.0910	5.4
156.0110	17.5
161.1070	2.2
165.0544	2.0
165.1019	4.6
166.0860	1.9
174.0215	2.7
175.0748	1.9
182.0806	4.2
188.0913	4.1
191.1173	2.2
192.1012	6.7
202.0162	16.7
206.1017	3.1
230.1014	2.8
248.1123	4.3
260.0908	3.3
276.1071	4.3
276.1216	1.9
276.1337	2.4
277.1175	10.7
278.1015	3.6
278.1378	1.6
278.1509	2.1
293.1114	3.5
293.1479	9.3
294.0958	8.3
294.1171	2.3
294.1307	5.4
294.1444	25.1
294.1691	2.1
294.1811	2.3
295.1077	3.5
295.1283	7.8
295.1474	2.2
295.1631	11.9
296.0907	2.8
296.1120	8.5
296.1460	4.6
296.1610	3.2
296.1838	2.5

Name: Phe-Leu-Arg
PrecursorMZ: 218.13834
RT: 8.9696
ExactMass: 434.26415359
Spectrum_type: 2
charge: 1
Formula: C21H34N6O4
SMILES: CC(C)C[C@@H](C(=O)N[C@@H](CCCN=C(N)N)C(=O)O)NC(=O)[C@H](CC1=CC=CC=C1)N
Method: HCD
Collision_energy: [28.333334]
Isolation_window: 4.0
Ion_mode: P
Num Peaks: 76
55.0546	2.3
60.0449	1.9
60.0560	3.7
69.2489	1.0
70.0655	12.9
71.0495	1.8
72.0811	1.7
82.0654	1.6
83.0494	1.5
84.0446	0.8
84.0810	1.7
90.0551	0.8
95.0605	1.3
97.3995	0.9
98.0966	1.0
100.0758	12.1
100.1123	1.8
101.0598	9.0
101.0791	0.6
112.0758	3.9
112.0870	5.3
113.0710	7.6
114.0914	4.0
114.1026	1.2
115.0867	12.4
116.0707	10.7
117.1385	1.1
118.0863	10.9
119.0604	5.0
128.0704	1.7
130.0499	0.9
130.0861	1.0
130.0974	1.4
138.0911	1.6
139.0866	1.8
142.0861	2.0
148.0603	3.7
157.0972	14.8
158.0812	40.2
158.0917	8.0
159.0844	3.3
160.0604	1.3
172.0966	6.1
175.1079	1.6
175.1189	11.3
182.0922	1.1
182.1174	1.9
186.0867	1.2
198.1484	1.5
199.1188	1.6
200.1028	16.7
200.1279	10.7
201.1066	1.2
201.1316	1.3
216.1231	2.5
216.1592	9.7
217.1179	2.7
217.1293	86.9
217.1339	1.1
217.1546	1.6
217.1630	2.0
218.0813	3.9
218.1023	9.4
218.1136	1.0
218.1169	9.2
218.1315	2.7
218.1384	100.0
218.1602	0.6
219.1125	11.9
219.1333	2.6
219.1418	10.5
220.0786	0.9
220.0970	1.4
220.1181	9.4
220.1323	1.5
220.1435	0.6

Name: Phe-Pro
PrecursorMZ: 263.13874
RT: 5.0134
ExactMass: 262.13174244
Spectrum_type: 2
charge: 1
Formula: C14H18N2O3
SMILES: C1C[C@H](N(C1)C(=O)[C@H](CC2=CC=CC=C2)N)C(=O)O
Method: HCD
Collision_energy: [28.333334]
Isolation_window: 4.0
Ion_mode: P
Num Peaks: 41
70.0655	9.6
72.0811	2.5
95.0603	0.7
97.4318	0.6
112.8958	1.3
114.0551	0.7
114.8929	0.9
116.0620	0.5
116.0706	100.0
116.0791	0.7
117.0739	4.7
120.0775	0.7
120.0807	80.1
120.0896	0.6
121.0840	6.3
130.0497	0.7
135.0915	18.1
136.0755	2.3
161.1071	0.6
190.1333	0.6
218.0919	1.0
218.1285	0.9
246.1120	0.5
246.1484	1.4
262.1060	0.8
262.1183	1.6
262.1429	0.5
263.0815	0.8
263.1017	1.7
263.1144	0.5
263.1385	24.9
263.1748	3.8
264.0860	0.6
264.0974	0.9
264.1218	0.8
264.1333	17.3
264.1441	1.4
264.1588	2.9
264.1782	0.7
265.1177	3.8
265.1311	0.8

Name: Phe-Thr
PrecursorMZ: 267.13361
RT: 4.6443
ExactMass: 266.12665706
Spectrum_type: 2
charge: 1
Formula: C13H18N2O4
SMILES: C[C@H]([C@@H](C(=O)O)NC(=O)[C@H](CC1=CC=CC=C1)N)O
Method: HCD
Collision_energy: [28.333334]
Isolation_window: 4.0
Ion_mode: P
Num Peaks: 54
69.4371	0.2
72.0811	0.4
74.0603	2.0
83.0606	0.2
84.0446	0.2
93.0700	0.2
102.0550	1.0
103.0543	0.5
120.0362	0.2
120.0658	5.2
120.0738	1.3
120.0769	1.8
120.0807	100.0
120.0897	0.4
120.1229	0.3
121.0691	0.2
121.0782	0.4
121.0840	8.2
122.0874	0.2
130.0497	1.5
162.0912	0.3
166.0860	0.9
167.1176	0.2
176.1067	0.6
206.0808	0.2
208.0965	0.2
221.1278	0.5
222.1123	0.4
224.1275	0.1
241.1905	0.2
249.1228	3.4
250.1070	0.2
250.1264	0.4
265.1540	0.2
266.1015	0.5
266.1043	0.3
266.1073	0.2
266.1375	0.4
266.1494	0.3
267.0967	0.1
267.1104	0.2
267.1332	5.4
267.1693	0.3
267.2062	0.2
268.1173	0.6
268.1285	0.2
268.1379	0.6
268.1535	0.2
268.1652	0.5
268.1897	0.3
268.2626	0.5
269.0764	0.1
269.1491	0.2
269.1847	0.2

Name: Phe-Tyr
PrecursorMZ: 329.14895
RT: 4.712414285714286
ExactMass: 328.14230712
Spectrum_type: 2
charge: 1
Formula: C18H20N2O4
SMILES: C1=CC=C(C=C1)C[C@@H](C(=O)N[C@@H](CC2=CC=C(C=C2)O)C(=O)O)N
Method: HCD
Collision_energy: [28.333334]
Isolation_window: 4.0
Ion_mode: P
Num Peaks: 18
70.0654	10.0
72.0810	5.1
86.0966	4.0
119.0491	2.3
120.0806	100.0
121.0840	8.4
136.0754	53.5
137.0788	4.8
165.0543	2.9
166.0860	3.0
182.0808	8.2
215.1385	7.0
229.1542	5.4
328.1162	3.4
328.2225	4.9
329.1488	15.0
329.1729	7.3
330.1327	3.3

Name: Phe-Val
PrecursorMZ: 265.1544
RT: 3.069
ExactMass: 264.1473925
Spectrum_type: 2
charge: 1
Formula: C14H20N2O3
SMILES: CC(C)[C@@H](C(=O)O)NC(=O)[C@H](CC1=CC=CC=C1)N
Method: HCD
Collision_energy: [28.333334]
Isolation_window: 4.0
Ion_mode: P
Num Peaks: 19
72.0811	3.4
97.4319	0.4
103.0541	0.4
114.8932	0.3
118.0863	2.9
120.0717	0.6
120.0737	0.4
120.0808	100.0
120.0897	0.7
121.0841	7.7
165.0547	0.4
219.1489	2.9
220.1524	0.4
265.0973	0.4
265.1196	0.4
265.1313	1.2
265.1542	8.7
266.1015	0.4
266.1585	1.2

Name: Phe-Val-Lys
PrecursorMZ: 197.12837
RT: 4.0485
ExactMass: 392.24235551
Spectrum_type: 2
charge: 1
Formula: C20H32N4O4
SMILES: CC(C)[C@@H](C(=O)N[C@@H](CCCCN)C(=O)O)NC(=O)[C@H](CC1=CC=CC=C1)N
Method: HCD
Collision_energy: [28.333334]
Isolation_window: 4.0
Ion_mode: P
Num Peaks: 253
55.0548	6.3
56.0500	0.3
56.0581	1.2
57.0338	0.3
58.0656	0.8
59.0497	2.5
60.0449	0.3
60.0813	2.2
67.0548	0.4
68.0501	0.3
69.0340	0.3
70.0656	3.4
71.0496	0.4
72.0450	0.3
72.0812	1.0
73.0288	0.4
74.0240	0.3
74.0603	0.4
79.0548	0.2
80.0499	0.6
81.0340	0.6
81.0704	0.3
82.0656	0.6
83.0496	7.2
84.0450	1.0
84.0528	0.7
84.0812	2.5
85.0288	0.6
86.0605	2.8
86.0969	0.7
87.0445	4.8
88.0397	0.5
91.0543	0.3
92.0493	0.7
93.0701	0.3
94.0655	5.9
95.0498	0.4
95.0617	0.7
95.0688	5.8
96.0448	1.7
96.0810	0.3
97.0289	0.3
97.0651	0.3
98.0603	0.9
98.0967	0.3
99.0442	0.4
100.0219	0.8
100.0397	0.3
100.0761	1.8
101.0465	0.3
101.0600	48.5
101.0706	0.3
102.0556	0.6
102.0633	5.0
102.0918	0.3
103.0642	0.5
104.0712	0.3
104.1073	0.5
105.0702	0.3
107.0495	0.5
107.0607	0.3
107.0730	0.5
108.0447	0.7
108.0811	1.3
109.0765	0.6
110.0230	0.4
110.0445	0.6
110.0485	0.3
110.0603	100.0
110.0726	0.7
110.0761	0.6
111.0444	0.5
111.0563	0.5
111.0636	6.2
112.0398	0.7
112.0508	1.3
112.0760	1.1
112.0871	0.5
113.0713	0.4
113.0832	0.4
114.0553	0.7
114.0665	0.6
114.0917	1.0
116.0710	0.9
118.0864	0.7
119.0165	0.7
119.0858	0.3
120.0811	0.9
121.0657	0.3
121.0764	0.2
121.1017	0.3
122.0603	0.5
122.0966	0.5
123.0557	0.8
123.0917	0.4
124.0759	0.4
125.0608	0.3
125.0712	0.2
126.0552	2.4
126.0916	1.0
127.0391	0.3
128.0710	1.2
128.1073	0.3
129.1023	1.3
130.0503	0.6
130.0864	0.9
134.0602	0.2
134.0960	0.3
135.0809	0.3
135.0917	0.3
136.0760	0.6
137.0598	0.5
137.1075	0.9
138.0552	1.0
138.0916	0.8
138.1025	0.5
140.0708	2.7
140.1071	0.6
141.1020	0.6
142.0503	0.4
142.0863	0.6
144.0656	1.0
144.1022	0.9
146.0816	0.6
147.0806	0.3
147.1146	0.4
148.1123	0.3
149.0963	0.3
150.0550	0.4
150.0912	0.4
151.0754	0.4
151.0868	0.3
152.0706	0.6
152.0821	0.5
153.1017	0.4
154.0865	0.8
154.1229	0.6
155.0702	0.3
155.0820	0.6
156.0658	2.3
156.1022	0.6
158.0818	0.7
158.1172	0.4
163.0867	0.4
164.0708	0.4
166.0861	0.7
167.0817	0.3
167.1184	0.4
168.0658	2.5
168.1011	0.3
170.0811	0.8
171.1130	0.5
172.0971	0.6
173.0938	0.3
178.0863	0.2
179.1182	2.0
180.0656	0.2
180.1018	0.3
181.1089	6.3
182.0805	0.6
182.1176	1.0
183.0765	0.5
183.1490	0.3
184.0065	0.3
184.0603	0.3
184.0968	1.9
184.1332	0.4
185.1021	0.2
186.0745	1.5
186.0883	0.5
186.1126	0.5
187.1081	0.7
188.0917	0.3
191.1061	0.5
195.0768	3.2
195.1223	10.8
196.0610	0.5
196.0796	0.7
196.0967	2.7
196.1193	0.7
196.1351	1.9
197.0568	0.8
197.0993	0.3
197.1286	10.4
197.1655	0.2
198.0750	1.8
198.0900	0.3
198.1132	0.4
198.1310	0.9
198.1494	0.6
199.1080	1.8
199.1440	2.0
200.0725	0.9
200.0913	0.6
200.1274	2.1
200.1630	0.7
201.0864	0.8
201.1020	0.3
201.1227	2.4
201.1617	0.2
202.0877	0.3
202.1063	3.8
202.1439	6.4
203.1039	0.5
203.1205	0.7
203.1390	12.3
204.0864	0.4
204.1019	3.5
204.1229	2.3
204.1418	1.1
204.1596	0.5
205.0985	0.5
205.1338	2.3
206.1020	1.3
206.1179	2.7
206.1382	1.8
207.1132	2.8
207.1495	2.9
208.0968	1.5
208.1333	38.7
208.1760	0.3
209.0930	0.6
209.1294	6.4
210.0788	0.8
210.1125	69.5
210.1490	2.2
211.0749	0.3
211.1154	8.4
211.1443	3.2
212.0587	0.3
212.0917	2.1
212.1213	0.5
212.1448	0.3
212.1750	0.3
213.0900	0.7
213.1358	9.8
213.1585	0.4
214.0710	0.5
214.1074	0.2
214.1411	1.7
215.0957	0.8
215.1171	1.3
215.1390	5.7
216.0857	0.8
216.1010	1.2
216.1230	0.9
216.1399	0.5
216.1600	0.7
217.0820	0.5
217.1178	2.5
217.1546	0.5
218.1171	1.6
218.1385	10.4

Name: Phenethyl sophoroside
PrecursorMZ: 464.21247
RT: 6.3417
ExactMass: 446.17881177
Spectrum_type: 2
charge: 1
Formula: C20H30O11
SMILES: C1=CC=C(C=C1)CCO[C@H]2[C@@H]([C@H]([C@@H]([C@H](O2)CO)O)O)O[C@H]3[C@@H]([C@H]([C@@H]([C@H](O3)CO)O)O)O
Method: HCD
Collision_energy: [28.333334]
Isolation_window: 4.0
Ion_mode: P
Num Peaks: 18
69.0339	7.2
81.0338	4.0
85.0287	100.0
86.0967	4.5
89.0600	4.6
91.0392	6.0
97.0286	22.1
99.0444	4.6
100.1123	8.0
105.0700	7.0
109.0287	7.9
127.0390	37.0
145.0496	65.4
146.0529	3.9
163.0601	27.5
285.1330	22.2
325.1126	11.9
464.2108	8.8

Name: Phenethylamine
PrecursorMZ: 122.09626
RT: 6.8123
ExactMass: 121.089149355
Spectrum_type: 2
charge: 1
Formula: C8H11N
SMILES: C1=CC=C(C=C1)CCN
Method: HCD
Collision_energy: [28.333334]
Isolation_window: 4.0
Ion_mode: P
Num Peaks: 12
56.0499	7.7
104.0706	10.7
105.0698	100.0
106.0732	11.4
119.0187	5.3
121.0759	4.8
122.0710	6.8
122.0810	7.1
122.0962	11.6
123.0804	6.5
123.0914	5.0
124.0391	16.2

Name: Phenethylamine 3-keto-deoxycholic acid (known isomers: 0; isobaric peaks in run: 3)
PrecursorMZ: 496.37817
RT: 1.3132
Spectrum_type: 2
charge: 1
SMILES: C[C@H](CCC(=O)O)[C@H]1CC[C@H]2[C@@H]3[C@H](O)C[C@@H]4CC(NCCc5ccccc5)CC[C@]4(C)[C@H]3CC[C@]12C
Method: HCD
Collision_energy: [28.333334]
Isolation_window: 4.0
Ion_mode: P
Num Peaks: 48
51.1508	6.3
81.0701	5.8
93.0696	2.4
95.0857	5.7
105.0700	33.2
107.0856	7.4
109.1012	6.1
119.0857	3.8
120.0803	2.5
121.1012	6.0
122.0965	68.9
123.0997	6.1
123.1165	2.5
133.1012	6.1
135.1168	7.1
147.1167	5.8
148.0752	2.5
149.1323	4.6
159.1169	3.5
161.1325	5.6
173.1325	2.8
175.1482	4.6
177.1274	3.6
187.1483	3.2
189.1638	2.8
201.1636	5.9
203.1430	3.2
203.1790	2.8
204.1381	22.1
215.1792	11.2
218.1540	4.3
229.1588	3.5
229.1951	4.7
230.1533	2.9
243.2100	2.5
258.1845	2.6
297.2573	2.8
298.2157	4.4
312.2318	2.8
321.2576	6.9
339.2678	10.5
460.3569	100.0
461.3604	34.6
462.3636	2.7
478.3675	33.1
479.3709	10.4
496.3780	20.0
497.3826	7.1

Name: Phenylacetaldehyde
PrecursorMZ: 121.065
RT: 2.917
ExactMass: 120.057514874
Spectrum_type: 2
charge: 1
Formula: C8H8O
SMILES: C1=CC=C(C=C1)CC=O
Method: HCD
Collision_energy: [28.333334]
Isolation_window: 4.0
Ion_mode: P
Num Peaks: 16
53.0391	2.0
81.0452	2.0
91.0546	10.9
93.0702	19.2
94.0734	1.4
95.0495	2.9
103.0545	16.5
104.0578	1.6
104.0708	1.8
121.0650	100.0
122.0683	9.2
122.0808	1.6
123.0554	10.4
128.1436	1.0
138.0552	2.3
141.0661	2.9

Name: Phenylalanine beta-naphthylamide
PrecursorMZ: 313.13092
RT: 1.4428999999999998
ExactMass: 290.141913202
Spectrum_type: 2
charge: 1
Formula: C19H18N2O
SMILES: C1=CC=C(C=C1)C[C@@H](C(=O)NC2=CC3=CC=CC=C3C=C2)N
Method: HCD
Collision_energy: [28.333334]
Isolation_window: 4.0
Ion_mode: P
Num Peaks: 11
57.0703	9.5
71.0859	7.7
85.1014	5.4
112.8958	37.3
139.9145	15.1
312.3624	6.6
313.1308	100.0
313.1983	7.9
313.2732	23.8
314.1341	20.7
314.2764	6.5

Name: Phenylalanylphenylalanine
PrecursorMZ: 313.15455
RT: 4.4678
ExactMass: 312.1473925
Spectrum_type: 2
charge: 1
Formula: C18H20N2O3
SMILES: C1=CC=C(C=C1)CC(C(=O)NC(CC2=CC=CC=C2)C(=O)O)N
Method: HCD
Collision_energy: [28.333334]
Isolation_window: 4.0
Ion_mode: P
Num Peaks: 31
81.0339	0.7
85.0651	0.6
86.0968	0.4
103.0544	0.6
111.0443	0.4
112.1123	0.3
112.8959	0.8
120.0718	0.6
120.0740	0.5
120.0809	100.0
120.0899	0.7
121.0842	8.1
139.9148	0.3
154.1227	4.4
155.1261	0.4
156.1384	0.8
166.0864	7.4
167.0897	0.6
172.1333	2.3
267.1494	0.9
312.3624	0.7
313.1201	0.4
313.1546	9.9
313.1738	0.4
313.2120	3.0
314.1031	0.4
314.1582	1.8
314.2160	0.6
315.1344	0.4
315.1915	0.8
315.2276	0.4

Name: Phenylalanyltryptophan
PrecursorMZ: 352.16531
RT: 4.6019
ExactMass: 351.15829154
Spectrum_type: 2
charge: 1
Formula: C20H21N3O3
SMILES: C1=CC=C(C=C1)C[C@@H](C(=O)N[C@@H](CC2=CNC3=CC=CC=C32)C(=O)O)N
Method: HCD
Collision_energy: [28.333334]
Isolation_window: 4.0
Ion_mode: P
Num Peaks: 34
70.2330	2.2
86.0966	5.5
120.0807	100.0
121.0841	7.6
130.0649	9.4
140.0705	10.5
144.0806	2.7
146.0597	4.2
150.0548	7.1
152.0704	8.3
159.0916	7.5
163.0865	3.0
175.0864	5.2
181.1696	3.6
188.0702	52.3
189.0736	6.2
205.0967	28.4
206.1002	3.5
213.0654	2.6
225.0865	5.7
237.1594	3.1
275.1171	4.0
281.1278	6.3
288.1125	6.4
292.1439	2.9
310.1543	5.0
334.1176	8.3
351.1322	2.5
352.1294	23.8
352.1645	35.9
353.1310	4.8
353.1485	2.3
353.1672	8.0
354.1447	14.4

Name: Phenylbutazone
PrecursorMZ: 309.15969
RT: 6.6631
ExactMass: 308.152477885
Spectrum_type: 2
charge: 1
Formula: C19H20N2O2
SMILES: CCCCC1C(=O)N(N(C1=O)C2=CC=CC=C2)C3=CC=CC=C3
Method: HCD
Collision_energy: [28.333334]
Isolation_window: 4.0
Ion_mode: P
Num Peaks: 40
55.0547	3.6
59.0496	1.8
70.0655	2.5
83.0496	2.0
101.0600	8.3
111.0445	1.9
114.0664	5.0
115.0868	1.9
120.0810	2.3
144.0809	3.6
150.0551	3.5
165.1025	2.1
166.0865	2.4
209.1074	31.2
209.1280	2.2
210.0915	8.8
210.1110	3.7
212.1284	2.4
291.0766	1.8
307.1651	3.6
307.2006	2.2
308.1010	2.2
308.1284	2.6
308.1489	4.2
308.1653	2.5
308.1972	8.6
308.2221	10.4
309.1229	5.5
309.1451	5.6
309.1597	100.0
309.1795	3.2
310.0858	1.9
310.1163	2.1
310.1276	2.1
310.1436	26.2
310.1629	21.4
310.1799	4.9
311.1370	6.2
311.1735	6.1
311.2329	1.6

Name: Phenylephrine
PrecursorMZ: 150.09141
RT: 8.9381
ExactMass: 167.094628657
Spectrum_type: 2
charge: 1
Formula: C9H13NO2
SMILES: CNC[C@@H](C1=CC(=CC=C1)O)O
Method: HCD
Collision_energy: [28.333334]
Isolation_window: 4.0
Ion_mode: P
Num Peaks: 29
57.0339	1.9
61.0110	1.1
65.0060	4.5
80.0498	1.9
84.0447	5.7
85.0286	1.1
85.0481	1.4
88.0760	1.7
91.0545	2.1
102.0551	2.1
105.0700	11.4
121.0319	1.9
121.0648	49.5
122.0681	5.4
130.0498	1.4
133.0647	19.0
134.0630	2.1
134.0680	1.9
149.0268	11.9
149.1071	1.7
150.0913	100.0
150.1119	2.2
150.1276	4.9
151.0870	1.3
151.0946	11.7
151.1229	8.6
152.0566	1.2
152.0704	4.3
152.1070	1.1

Name: Phenylpropionylglycine
PrecursorMZ: 225.12285
RT: 2.0977
ExactMass: 207.08954328
Spectrum_type: 2
charge: 1
Formula: C11H13NO3
SMILES: C1=CC=C(C=C1)CCC(=O)NCC(=O)O
Method: HCD
Collision_energy: [28.333334]
Isolation_window: 4.0
Ion_mode: P
Num Peaks: 17
80.0496	9.2
98.0601	9.4
136.1117	62.1
164.0702	100.0
167.0699	10.0
178.0858	23.0
179.1175	9.5
180.1014	14.0
182.1170	72.6
183.1206	9.7
206.0808	13.7
208.0960	14.6
224.0912	62.4
224.1021	9.4
225.1226	32.5
226.0850	13.2
226.1071	11.0

Name: Phenylserine, 3,4-dibenzyloxy-
PrecursorMZ: 394.16475
RT: 4.4977
ExactMass: 393.15762283
Spectrum_type: 2
charge: 1
Formula: C23H23NO5
SMILES: C1=CC=C(C=C1)COC2=C(C=C(C=C2)C(C(C(=O)O)N)O)OCC3=CC=CC=C3
Method: HCD
Collision_energy: [28.333334]
Isolation_window: 4.0
Ion_mode: P
Num Peaks: 16
73.0288	13.4
89.0600	40.7
91.0545	16.0
103.0392	27.9
133.0859	22.2
288.1381	11.3
292.1330	29.7
304.1332	54.5
305.1373	18.8
316.1332	49.5
330.1484	13.0
334.1438	43.7
375.1799	14.7
393.1899	26.9
394.1654	100.0
395.1680	22.9

Name: Phenyltrimethylammonium
PrecursorMZ: 136.11204
RT: 7.367800000000001
ExactMass: 136.112624451
Spectrum_type: 2
charge: 1
Formula: C9H14N+
SMILES: C[N+](C)(C)C1=CC=CC=C1
Method: HCD
Collision_energy: [28.333334]
Isolation_window: 4.0
Ion_mode: P
Num Peaks: 18
57.0703	6.2
80.0497	36.1
81.0530	2.0
107.0729	5.5
108.0808	2.8
109.0761	2.2
121.0885	4.8
134.0962	23.0
135.0915	8.7
135.0995	7.8
136.0214	31.6
136.0756	3.6
136.1119	100.0
137.0249	2.6
137.0706	3.0
137.1071	25.3
137.1152	10.3
138.0546	4.0

Name: Pheophorbide a
PrecursorMZ: 593.27467
RT: 1.5507
ExactMass: 592.26857026
Spectrum_type: 2
charge: 1
Formula: C35H36N4O5
SMILES: CCC1=C(C2=NC1=CC3=C(C4=C([C@@H](C(=C5[C@H]([C@@H](C(=CC6=NC(=C2)C(=C6C)C=C)N5)C)CCC(=O)O)C4=N3)C(=O)OC)O)C)C
Method: HCD
Collision_energy: [28.333334]
Isolation_window: 4.0
Ion_mode: P
Num Peaks: 20
59.2509	1.2
65.9180	1.9
65.9200	4.6
66.0315	1.6
81.0700	1.4
447.2187	2.1
459.2166	1.4
460.2239	4.3
461.2316	6.1
462.2365	1.8
505.2228	2.9
533.2539	27.8
534.2569	9.3
535.2631	1.8
592.4336	5.2
593.2748	100.0
593.4290	1.8
594.2778	36.1
595.2830	6.8
595.4718	1.6

Name: Pheophytin a
PrecursorMZ: 871.57145
RT: 0.9672125
ExactMass: 870.56592147
Spectrum_type: 2
charge: 1
Formula: C55H74N4O5
SMILES: CCC1=C(C2=NC1=CC3=C(C4=C([C@@H](C(=C5[C@H]([C@@H](C(=CC6=NC(=C2)C(=C6C)C=C)N5)C)CCC(=O)OC/C=C(\C)/CCC[C@H](C)CCC[C@H](C)CCCC(C)C)C4=N3)C(=O)OC)O)C)C
Method: HCD
Collision_energy: [28.333334]
Isolation_window: 4.0
Ion_mode: P
Num Peaks: 173
65.8076	2.2
65.9167	0.2
65.9196	6.4
66.0311	1.9
67.0542	2.9
69.0700	2.0
69.1201	0.2
71.0856	1.5
79.0543	1.7
81.0701	4.0
81.0723	0.2
82.0734	0.3
83.0857	1.6
85.1013	1.1
91.0543	0.7
93.0700	2.1
94.0734	0.3
95.0856	3.9
96.0890	0.4
96.8384	0.7
96.8419	3.8
96.9498	0.3
96.9534	2.0
97.0647	0.5
97.1013	1.0
97.3995	0.4
105.0698	0.7
107.0856	1.5
109.1012	2.0
111.1168	0.4
119.0855	0.7
121.1011	1.9
123.1168	0.9
131.0855	0.4
133.1010	0.8
135.1167	1.3
136.1196	0.2
137.1322	0.4
145.1009	0.4
147.1166	0.5
149.1323	0.7
159.1167	0.4
161.1322	0.4
163.1481	0.3
173.1323	0.3
175.1478	0.3
187.1474	0.2
239.2360	0.2
243.2105	0.2
259.2052	0.3
261.2207	1.0
262.2238	0.3
263.2366	0.4
279.2302	0.2
313.2725	0.2
317.2460	0.2
431.1850	0.5
432.1901	0.3
433.2378	0.9
434.2429	0.4
445.2008	0.2
446.2084	0.5
447.2170	1.1
448.2194	0.3
459.2172	12.1
460.2235	8.9
461.2319	6.6
462.2364	1.7
463.2399	0.2
473.2326	1.2
474.2376	0.7
475.2446	0.2
476.2565	0.9
477.2270	0.3
477.2628	0.7
478.2322	0.2
487.2478	1.3
488.2179	0.3
488.2537	0.6
489.2261	0.2
489.2631	0.5
491.2076	0.3
491.2427	1.7
492.2505	3.2
493.2548	0.9
503.2440	0.2
504.2143	0.3
504.2510	0.2
505.2230	2.8
505.2590	0.6
506.2260	1.0
506.2648	0.4
515.2430	0.5
516.2496	0.3
517.2225	0.7
517.2591	0.4
518.2281	0.6
519.2383	4.1
519.2743	0.2
520.2441	2.1
521.2510	0.5
531.2385	0.2
532.2459	1.8
533.1454	0.2
533.1699	0.7
533.1874	0.5
533.2539	98.3
533.3212	0.5
533.3380	0.7
533.3624	0.2
534.2572	31.2
534.3424	0.2
535.2607	2.9
547.2690	0.7
548.2761	0.4
549.2481	0.5
550.2548	0.4
551.2627	0.2
560.2409	1.2
561.2477	1.5
562.2559	0.4
563.2247	0.3
564.2353	1.4
564.2736	0.3
565.2396	0.4
565.2799	1.9
566.2830	0.6
573.4869	2.1
574.4909	1.6
575.2644	0.8
575.5023	2.3
576.2684	0.3
576.5061	0.7
577.2437	1.6
577.5164	0.3
578.2487	0.9
587.5009	0.3
591.2600	0.3
592.1692	0.2
592.2672	34.4
592.3665	0.2
593.1467	0.2
593.1760	0.7
593.1955	0.6
593.2744	100.0
593.3532	0.5
593.3734	0.7
593.4011	0.2
594.1791	0.2
594.2778	31.0
594.3761	0.2
595.2812	3.3
595.4716	0.4
596.4742	0.7
597.4855	1.4
598.4899	0.6
599.5022	1.1
852.7153	0.3
853.7244	0.4
854.7306	0.2
855.7413	0.2
869.7593	0.5
870.5610	0.3
870.7577	0.5
871.3944	0.4
871.4332	0.3
871.5714	65.6
871.7108	0.5
871.7473	0.6
872.5747	37.9
872.7563	0.4
873.5778	7.2
873.6915	0.6

Name: Phomopsolid B
PrecursorMZ: 297.13293
RT: 2.8949
ExactMass: 296.12598835
Spectrum_type: 2
charge: 1
Formula: C15H20O6
SMILES: C/C=C(\C)/C(=O)O[C@H]1C=CC(=O)O[C@H]1/C=C/[C@H]([C@@H](C)O)O
Method: HCD
Collision_energy: [28.333334]
Isolation_window: 4.0
Ion_mode: P
Num Peaks: 120
55.0546	5.6
57.0339	6.3
57.0703	14.2
67.0546	23.1
69.0338	3.6
69.0702	17.7
70.0654	3.3
71.0494	6.6
71.0858	23.5
79.0545	8.0
81.0338	9.7
81.0450	3.6
81.0701	36.6
83.0494	4.9
83.0858	13.6
84.0809	3.4
85.0650	9.4
85.1014	11.3
86.0966	5.6
91.0543	5.0
93.0700	13.8
95.0491	4.4
95.0857	37.7
96.0892	3.7
97.0649	6.3
97.1013	13.2
97.4554	4.4
99.0806	18.6
105.0700	6.6
107.0856	13.0
109.0649	3.8
109.1012	26.5
111.0442	4.8
111.0805	4.4
111.1169	6.5
113.0961	6.5
116.0706	3.4
119.0855	7.5
121.1012	16.4
122.0712	100.0
123.0745	5.2
123.0801	3.9
123.1168	15.2
124.0756	6.7
125.0961	12.3
126.0913	3.4
131.0854	6.4
133.1011	8.5
135.0803	4.8
135.1167	15.5
137.0593	4.0
137.0959	4.9
137.1324	7.9
139.1116	5.1
145.1010	6.7
147.1167	14.6
149.0959	4.0
149.1325	7.4
151.1116	8.1
151.1481	3.1
152.0706	3.4
153.1273	6.9
159.1169	3.9
161.1324	4.9
163.1116	5.7
163.1480	5.0
165.0543	4.7
165.1273	5.4
173.0960	5.2
173.1325	6.3
179.0700	10.4
191.1063	9.4
193.0855	4.5
194.1173	3.4
200.0701	5.6
201.0907	8.7
205.0856	5.4
219.1013	30.7
220.1048	4.4
229.0856	11.1
233.1170	4.5
237.1119	18.9
243.2106	8.0
247.0960	22.8
248.1000	3.0
261.1115	10.4
261.2208	16.4
262.2245	4.0
264.1220	3.7
269.1060	6.3
277.2157	8.4
278.1378	6.8
279.1219	29.1
279.2314	59.3
280.1253	3.5
280.2350	9.5
280.2631	7.6
295.1640	7.9
295.2260	10.9
296.0915	3.2
296.1120	10.0
296.1481	21.8
296.1834	7.6
296.2307	4.1
296.2574	4.0
297.1008	72.6
297.1443	16.9
297.1802	8.5
297.2194	2.8
297.2419	12.2
298.1056	14.4
298.1278	13.2
298.1433	4.9
298.1638	7.6
298.1793	4.6
299.1026	4.3
299.1387	9.8
299.1592	7.6
299.1969	4.7
299.2575	56.4

Name: Phosphine sulfide, triphenyl-
PrecursorMZ: 295.07116
RT: 4.7768
ExactMass: 294.06320865
Spectrum_type: 2
charge: 1
Formula: C18H15PS
SMILES: C1=CC=C(C=C1)P(=S)(C2=CC=CC=C2)C3=CC=CC=C3
Method: HCD
Collision_energy: [28.333334]
Isolation_window: 4.0
Ion_mode: P
Num Peaks: 89
67.0546	0.9
69.0339	0.4
69.0703	0.5
70.0655	0.6
71.0495	0.4
71.0859	0.5
79.0546	0.4
81.0339	0.4
81.0702	1.2
83.0858	0.6
86.0967	0.6
91.0545	0.6
93.0701	1.0
95.0493	0.5
95.0857	1.9
97.0650	0.4
97.3991	0.4
98.0602	12.3
99.0636	1.0
99.0805	0.3
100.0758	0.4
105.0700	0.4
107.0858	0.7
108.0809	1.1
109.0649	0.4
109.1013	1.1
112.0758	0.5
119.0856	0.9
121.0650	0.5
121.1013	0.7
123.0805	0.4
126.0550	6.7
126.0914	0.6
127.0583	0.9
131.0855	0.4
133.1012	0.6
135.1168	0.6
136.0757	2.7
137.0960	0.6
147.1168	0.4
149.0960	0.4
150.0913	0.7
151.1117	1.7
159.1168	0.4
162.0913	0.4
168.1020	3.1
169.1059	0.3
170.0811	1.1
180.1017	0.4
221.0709	1.0
222.0787	4.4
223.0872	0.8
247.1552	0.6
249.0658	1.1
251.0814	1.3
275.1382	0.5
275.1999	0.9
276.0862	0.6
277.0599	0.3
277.1547	0.6
277.2161	1.2
278.1389	0.4
279.1470	0.4
293.1483	1.7
293.1865	0.5
293.2108	1.6
294.0633	0.3
294.0967	0.6
294.1318	0.8
294.1511	0.5
294.1693	0.4
294.2065	0.4
295.0367	0.7
295.0437	0.7
295.0711	100.0
295.1060	0.7
295.1158	0.3
295.1285	0.4
295.1656	1.4
295.2245	0.7
296.0745	17.1
296.0885	0.4
296.1091	0.5
296.1484	0.4
297.0767	1.6
297.1219	0.4
297.1441	0.4
297.1592	3.0
297.1821	0.3

Name: Phosphoric Acid
PrecursorMZ: 98.98436
RT: 1.043
ExactMass: 97.97689557
Spectrum_type: 2
charge: 1
Formula: H3O4P
SMILES: OP(=O)(O)O
Method: HCD
Collision_energy: [28.333334]
Isolation_window: 4.0
Ion_mode: P
Num Peaks: 4
97.0651	8.0
98.9844	100.0
99.0920	6.3
100.1123	5.0

Name: Phosphorylcholine
PrecursorMZ: 184.07324
RT: 4.7194
ExactMass: 183.06604493
Spectrum_type: 2
charge: 1
Formula: C5H14NO4P
SMILES: C[N+](C)(C)CCOP(=O)(O)[O-]
Method: HCD
Collision_energy: [28.333334]
Isolation_window: 4.0
Ion_mode: P
Num Peaks: 13
60.0812	10.4
86.0966	47.6
91.0544	60.4
92.0577	11.4
124.9997	30.4
126.0911	7.4
136.0755	7.6
164.0703	7.8
182.1172	10.7
182.1648	7.7
183.0915	8.3
184.0731	100.0
184.0958	8.0

Name: Phthalic Acid
PrecursorMZ: 149.02336
RT: 1.0162
ExactMass: 166.02660867
Spectrum_type: 2
charge: 1
Formula: C8H6O4
SMILES: C1=CC=C(C(=C1)C(=O)O)C(=O)O
Method: HCD
Collision_energy: [28.333334]
Isolation_window: 4.0
Ion_mode: P
Num Peaks: 4
121.0286	22.6
123.9645	6.7
149.0234	100.0
150.0267	11.8

Name: Phthalic Anhydride
PrecursorMZ: 149.02331
RT: 1.0178142857142858
ExactMass: 148.016043985
Spectrum_type: 2
charge: 1
Formula: C8H4O3
SMILES: C1=CC=C2C(=C1)C(=O)OC2=O
Method: HCD
Collision_energy: [28.333334]
Isolation_window: 4.0
Ion_mode: P
Num Peaks: 7
69.0796	21.5
69.0816	19.3
97.4581	16.9
121.0283	23.8
149.0232	100.0
167.0550	20.9
169.0345	49.5

Name: Phyllalbine
PrecursorMZ: 292.15393
RT: 8.0377
ExactMass: 291.14705815
Spectrum_type: 2
charge: 1
Formula: C16H21NO4
SMILES: CN1C2CCC1CC(C2)OC(=O)C3=CC(=C(C=C3)O)OC
Method: HCD
Collision_energy: [28.333334]
Isolation_window: 4.0
Ion_mode: P
Num Peaks: 30
70.0655	3.9
80.0498	2.6
84.0811	1.9
96.0809	3.4
101.0599	2.1
114.0550	1.7
114.0916	1.7
116.0707	3.0
168.1019	2.8
172.0966	1.5
179.0702	3.5
191.1176	2.4
274.1431	2.3
277.1309	3.0
290.1374	3.3
291.1322	16.9
291.1699	35.1
291.2430	2.4
292.0997	1.6
292.1167	12.6
292.1299	2.9
292.1538	100.0
292.1681	3.2
292.1898	5.1
293.1486	9.0
293.1578	12.6
293.1850	11.7
294.1147	3.8
294.1328	6.1
294.1686	4.4

Name: Physostigmine
PrecursorMZ: 298.14931
RT: 3.0404
ExactMass: 275.16337692
Spectrum_type: 2
charge: 1
Formula: C15H21N3O2
SMILES: C[C@@]12CCN([C@@H]1N(C3=C2C=C(C=C3)OC(=O)NC)C)C
Method: HCD
Collision_energy: [28.333334]
Isolation_window: 4.0
Ion_mode: P
Num Peaks: 316
58.0656	5.3
60.0448	5.1
62.0606	7.9
67.0547	4.3
69.0340	10.6
70.0656	53.0
71.0496	9.0
72.0447	5.0
72.0812	11.4
74.0605	11.7
80.0498	4.9
81.0340	33.8
81.0701	6.3
82.0656	8.1
83.0496	15.4
84.0448	15.0
84.0812	66.0
85.0288	19.8
85.0652	5.6
85.0845	3.9
86.0605	36.2
86.0967	4.8
87.0444	15.4
88.0398	8.2
90.0555	6.4
94.0653	4.1
95.0495	8.0
95.0607	5.5
96.0447	15.0
97.0287	25.5
98.0603	17.5
98.0968	4.5
99.0444	15.2
100.0397	4.4
100.0761	15.9
101.0600	44.8
102.0552	9.8
103.0391	8.2
105.0701	10.6
107.0494	6.6
108.0447	5.2
109.0287	8.2
109.0764	5.8
110.0603	12.8
110.0716	10.7
111.0443	19.6
111.0555	6.8
112.0395	5.0
112.0512	5.6
112.0759	14.8
113.0602	4.1
114.0552	12.4
114.0665	16.6
115.0394	6.8
116.0709	43.2
117.0551	8.4
118.0865	20.4
121.0286	8.2
121.0651	5.5
122.0603	7.7
123.0444	10.8
123.0556	3.9
124.0395	5.2
124.0761	6.3
125.0235	21.3
125.0598	5.4
125.0711	3.9
126.0552	28.8
126.0916	9.3
127.0391	13.8
128.0709	35.3
129.0548	9.0
129.1027	4.7
130.0501	23.5
130.0864	40.2
132.0653	5.1
134.0604	7.4
134.0713	4.6
136.0396	3.9
136.0759	10.3
137.0461	7.8
137.0598	7.0
137.0709	4.4
138.0554	11.6
138.0915	5.0
139.0393	8.0
140.0343	7.0
140.0709	16.0
141.0549	3.9
141.0664	9.6
142.0499	11.2
142.0863	14.2
143.1179	4.8
144.0654	15.8
144.1021	16.5
145.0496	6.3
146.0271	4.0
146.0812	6.0
147.1131	8.3
148.0754	4.3
149.0599	6.6
150.0553	13.8
151.0391	7.0
151.0866	4.7
152.0570	6.4
152.0707	16.4
153.0545	6.4
153.0661	5.0
154.0499	10.4
154.0865	11.2
155.0457	4.6
156.0656	11.9
156.0771	7.8
156.1020	6.9
158.0813	20.2
158.0928	23.1
159.0758	8.9
161.0596	5.0
162.0548	7.6
162.0764	7.4
164.0707	11.2
165.0547	11.4
166.0504	5.1
166.0613	4.3
166.0855	6.4
167.0341	8.2
167.0817	6.3
168.0655	18.9
169.0612	5.4
169.0988	4.7
170.0812	13.5
171.0780	3.9
172.0603	4.4
172.0972	5.9
173.0922	10.9
174.0767	4.0
176.0706	5.5
177.0547	5.4
178.0497	7.0
178.0862	4.7
179.0822	11.2
180.0635	9.3
180.0791	11.8
180.1002	6.4
181.0495	4.7
181.0964	6.3
182.0439	5.9
182.0804	13.7
183.0765	6.4
184.0605	4.7
184.0958	5.8
185.0926	5.9
186.0764	7.4
186.0901	17.9
187.0734	5.2
187.1098	4.0
188.0920	49.3
189.0546	3.8
189.0919	6.7
192.0653	6.6
193.0983	10.4
194.0799	10.9
195.0626	8.3
195.1138	4.9
196.0597	16.7
196.0973	5.1
197.0435	5.3
197.0921	9.4
197.1282	5.6
198.0750	14.9
198.1128	4.8
199.0731	4.0
199.1096	4.6
200.0900	6.0
202.0706	3.8
202.1073	5.4
206.0815	6.2
206.1024	98.1
207.1043	9.4
208.0605	7.3
208.0943	9.1
209.0929	10.1
209.1283	5.8
210.0752	7.2
211.1074	22.8
213.0877	7.5
213.1252	3.8
214.0709	8.8
215.1040	4.2
218.0819	5.3
221.0938	4.2
222.0743	8.5
223.0732	5.1
223.1079	8.6
224.0551	11.7
224.0922	6.6
225.0875	4.5
226.0716	4.6
226.1086	5.7
227.0688	5.2
227.1021	10.3
234.0765	5.0
234.1128	3.9
236.0908	10.4
237.0894	5.3
238.0692	7.6
238.1213	6.1
239.1029	8.4
240.0871	5.0
241.0840	9.5
241.1172	19.2
242.1011	7.0
243.1363	4.6
245.0816	5.2
248.0553	7.1
248.0931	3.9
249.1488	4.7
250.1082	4.3
251.1038	11.3
252.0907	5.6
252.1250	5.9
253.0836	4.1
253.1191	17.3
254.1058	8.5
255.1057	15.5
255.1356	7.6
256.1295	29.4
257.1122	11.0
259.1295	8.2
260.0902	7.0
261.1479	5.9
262.1077	4.4
264.0892	3.9
265.0832	5.9
266.0665	12.2
266.1029	5.8
267.0889	4.7
268.1212	5.5
269.1124	27.4
270.0965	5.5
271.0891	3.9
271.1313	4.0
272.1131	5.5
273.0771	4.6
274.0928	15.2
277.1443	5.0
278.0996	6.1
279.0996	7.8
280.0848	3.9
280.1195	6.7
281.1139	11.1
282.1027	7.1
283.0926	4.9
283.1301	4.5
284.1210	7.6
285.1089	10.7
286.1308	10.3
287.1241	30.7
287.1614	4.0
288.1079	12.3
288.1439	14.9
289.1426	8.8
290.1240	29.7
291.0892	4.1
291.1279	3.8
292.1062	3.9
294.0996	3.9
295.0949	5.4
295.1302	3.9
296.1148	12.0
297.1104	25.1
297.1457	31.1
297.1803	11.0
298.0952	14.7
298.1310	38.7
299.0926	3.9
299.1277	34.1
299.1653	11.6
300.0837	4.7
300.1150	27.8
300.1503	9.7
301.1047	14.2
301.1456	41.5
302.1351	68.5
303.1212	14.9
303.1721	16.2
304.1494	70.4
305.0790	6.5
305.1338	56.4
305.1726	3.9
306.1203	16.4
306.1550	27.2
307.0944	11.9
307.1291	4.0
307.1587	11.5
308.1370	30.2
309.1098	26.6
309.1405	5.6
309.1807	22.4
310.0966	7.2
310.1266	10.7
311.1252	33.1
311.1600	100.0
312.1096	21.2
312.1425	13.1
312.1634	11.4
313.1065	11.6
313.1421	36.4
313.1757	6.4
314.1237	42.5
315.1272	48.0
315.1619	29.7
316.1088	4.7
316.1466	24.4
317.1432	24.5
317.1779	4.0

Name: Phytomonic acid
PrecursorMZ: 297.2783
RT: 0.98302
ExactMass: 296.271530387
Spectrum_type: 2
charge: 1
Formula: C19H36O2
SMILES: CCCCCCC1CC1CCCCCCCCCC(=O)O
Method: HCD
Collision_energy: [28.333334]
Isolation_window: 4.0
Ion_mode: P
Num Peaks: 37
55.0546	23.6
57.0703	64.3
67.0546	37.8
69.0702	99.3
71.0858	55.2
79.0545	15.4
81.0701	84.5
83.0858	90.3
85.1014	27.3
93.0699	38.5
95.0856	78.1
97.0649	35.1
97.1012	84.1
107.0855	38.9
109.1012	55.8
111.0804	26.1
111.1169	35.6
121.1011	65.3
123.1167	28.4
125.0960	17.5
125.1324	15.5
135.1166	73.6
137.1321	15.3
139.1115	18.9
141.1272	13.0
149.1323	53.6
153.1270	17.9
163.1479	34.9
167.1429	12.0
177.1634	22.1
191.1791	14.7
247.2416	93.1
248.2450	18.3
265.2520	100.0
266.2551	15.4
297.2779	27.9
299.2574	18.6

Name: Picolinic acid
PrecursorMZ: 124.03926
RT: 5.1614
ExactMass: 123.032028402
Spectrum_type: 2
charge: 1
Formula: C6H5NO2
SMILES: C1=CC=NC(=C1)C(=O)O
Method: HCD
Collision_energy: [28.333334]
Isolation_window: 4.0
Ion_mode: P
Num Peaks: 39
56.0499	1.2
67.0546	0.3
69.0934	0.3
69.2470	0.3
79.0545	0.3
80.0497	5.4
81.0530	0.2
81.0701	0.3
82.0416	0.3
95.0493	0.4
96.0445	4.1
96.0809	0.3
97.0649	0.3
97.3989	0.3
98.0713	0.3
107.0604	0.5
108.0445	0.4
122.0964	0.5
123.0552	0.5
123.0916	0.3
123.9961	0.2
124.0270	0.3
124.0298	0.7
124.0393	100.0
124.0467	0.4
124.0487	0.8
124.0543	0.3
124.0755	0.6
124.0835	0.3
125.0363	0.3
125.0425	6.8
125.0596	1.0
125.0708	0.4
125.1073	0.8
126.0435	0.2
126.0549	0.7
126.0661	6.9
126.0912	0.8
140.0341	0.4

Name: Picraquassioside D
PrecursorMZ: 320.13393
RT: 3.2195
ExactMass: 302.10016753
Spectrum_type: 2
charge: 1
Formula: C13H18O8
SMILES: COC1=CC(=CC(=C1)O)OC2C(C(C(C(O2)CO)O)O)O
Method: HCD
Collision_energy: [28.333334]
Isolation_window: 4.0
Ion_mode: P
Num Peaks: 197
69.0340	5.6
70.0656	11.5
71.0495	2.2
72.0813	7.4
73.0288	1.6
81.0340	5.2
82.0657	2.3
83.0495	4.5
84.0448	4.2
84.0812	12.0
85.0289	5.7
86.0606	2.6
86.0968	2.2
87.0445	4.5
90.0554	2.3
95.0497	2.5
95.0857	1.8
96.0446	3.0
97.0287	6.9
98.0604	2.8
99.0444	10.7
100.0760	2.6
101.0600	6.7
102.0553	3.4
103.0392	1.6
107.0492	1.8
109.0289	2.1
110.0603	2.6
111.0444	4.3
112.0761	3.5
114.0553	3.5
114.0665	1.6
115.0392	1.5
116.0709	17.2
117.0549	1.9
118.0867	1.7
121.0649	2.0
122.0603	2.3
123.0444	3.4
124.0395	3.2
125.0236	3.2
125.0598	1.8
126.0552	3.9
126.0915	1.6
127.0393	6.1
128.0709	7.1
129.0547	2.1
130.0500	4.2
130.0865	4.5
131.0858	1.5
132.0656	2.9
132.0768	1.9
135.0803	1.7
136.0760	2.6
137.0596	2.4
138.0552	2.9
139.0391	2.5
140.0711	2.7
141.0544	1.6
142.0500	1.7
142.0863	3.4
143.1181	4.4
144.0659	3.1
145.0498	11.7
145.1012	1.5
148.0605	5.6
148.0754	1.7
149.0603	1.7
150.0548	2.2
151.0390	1.6
152.0709	3.1
154.0865	4.7
156.0655	2.6
158.0812	1.8
158.0926	3.8
160.0756	1.6
161.0940	2.3
162.0772	2.7
163.0392	1.9
164.0710	2.7
165.0546	2.0
166.0859	3.9
168.0656	3.3
170.0809	2.7
171.1133	4.1
172.0972	2.1
173.0927	3.0
175.0871	1.6
176.0918	4.5
177.0535	1.9
177.1021	1.6
178.0864	2.1
180.0651	3.8
180.1009	2.0
181.0494	1.6
182.0805	3.7
183.0918	5.0
183.1148	1.8
184.0965	2.3
185.0928	1.7
186.0761	3.2
188.0709	3.2
188.0919	2.1
189.0540	1.9
189.0894	1.5
192.0648	2.3
194.0803	1.9
195.0780	2.6
195.1130	2.4
196.0957	2.1
197.0931	1.6
198.0761	1.9
199.1086	2.4
201.0878	1.8
201.1239	2.7
205.0998	1.8
208.0972	1.8
210.0757	3.7
212.0908	3.0
214.1073	1.9
215.1047	1.5
217.0833	1.5
217.1207	2.7
220.0971	1.6
223.0722	1.7
227.1034	2.0
229.1193	1.5
230.0821	1.5
235.1087	1.6
236.0919	1.8
244.0636	3.0
246.0781	1.7
253.1196	1.7
254.1016	3.1
257.1520	1.5
260.0915	1.6
264.0967	2.1
271.1301	1.8
281.1497	5.1
283.1308	1.8
284.1150	2.8
285.1482	1.7
286.1396	2.2
288.1097	2.6
291.0845	2.7
292.0865	2.2
295.1112	4.4
301.1416	1.8
302.1244	15.6
303.1267	2.3
304.1398	18.7
305.1420	3.2
306.1185	7.1
307.1305	2.2
309.1044	1.6
310.0958	1.9
311.1246	1.7
313.1408	1.8
314.1284	1.5
315.1006	5.6
318.1265	1.7
318.1602	1.6
319.0925	2.8
319.1582	6.1
320.1370	22.5
321.1047	3.7
321.1415	5.2
322.1519	14.4
323.1233	8.4
323.1597	3.2
324.1285	10.1
325.1399	39.0
325.1742	1.7
326.0805	3.6
326.1369	7.0
327.1202	5.5
327.1567	9.0
328.1048	2.7
328.1460	9.4
329.1380	11.2
329.1732	2.4
330.1245	4.7
330.1643	5.9
331.1585	14.0
332.1115	2.8
332.1442	5.4
333.1089	12.1
333.1395	2.0
333.1676	4.1
334.1224	3.9
335.1209	4.1
335.1628	1.8
336.1092	2.5
337.1388	6.8
338.1275	5.2
339.1006	100.0
339.1581	3.2

Name: Picras-4-en-16-one, 1,2,11,12,14,15-hexahydroxy-, (1beta,2alpha,9xi,11beta,12alpha,15beta)-
PrecursorMZ: 399.20103
RT: 8.0394
ExactMass: 398.19406791
Spectrum_type: 2
charge: 1
Formula: C20H30O8
SMILES: C[C@H]1[C@H]([C@@H](C2[C@@]3([C@]1([C@H](C(=O)O[C@@H]3CC4=C(C[C@@H]([C@H]([C@]24C)O)O)C)O)O)C)O)O
Method: HCD
Collision_energy: [28.333334]
Isolation_window: 4.0
Ion_mode: P
Num Peaks: 32
59.0609	53.9
81.0703	5.6
93.0701	3.9
95.0857	6.5
107.0858	3.9
109.1014	13.2
119.0857	21.5
137.0961	9.8
225.1637	12.4
227.1794	13.3
243.1742	18.6
245.1899	16.3
253.1584	11.1
261.1850	8.1
271.1691	51.4
272.1725	9.8
289.1797	55.1
290.1830	10.7
299.1639	19.2
305.1746	5.5
317.1746	81.1
318.1779	13.8
322.2486	8.0
335.1849	10.9
340.2593	21.9
341.2630	4.8
345.1695	57.1
346.1731	13.9
363.1801	56.5
364.1834	12.5
381.1906	100.0
382.1941	23.1

Name: Picrinine
PrecursorMZ: 339.17029
RT: 1.9394
ExactMass: 338.16304257
Spectrum_type: 2
charge: 1
Formula: C20H22N2O3
SMILES: C/C=C\1/CN2[C@H]3C[C@@H]1[C@H]([C@@]45[C@@]3(NC6=CC=CC=C64)O[C@H]2C5)C(=O)OC
Method: HCD
Collision_energy: [28.333334]
Isolation_window: 4.0
Ion_mode: P
Num Peaks: 90
70.0657	59.1
72.0813	13.5
81.0340	15.6
83.0496	9.5
84.0812	21.5
89.0601	8.8
96.0811	16.6
98.0967	10.8
101.0601	24.3
108.0447	12.3
111.0444	19.4
112.0873	20.7
120.0811	6.9
130.0864	10.7
132.0447	20.8
136.0762	6.0
141.0483	46.8
144.0810	13.7
148.0761	6.1
149.1069	6.8
150.0915	8.1
160.0759	8.1
161.1080	9.7
162.0916	9.0
180.1010	7.7
190.0863	10.1
193.1454	6.0
194.0931	8.2
196.0980	6.7
220.1207	10.9
227.1191	5.9
239.1185	26.1
248.0856	38.8
275.0919	7.6
285.1240	14.4
297.1245	13.0
307.1588	27.1
322.1090	6.8
336.1215	10.5
337.1810	11.4
337.2197	7.9
338.1429	12.4
338.1562	12.0
338.2012	17.8
339.1330	13.7
339.1712	100.0
339.1971	34.4
339.2318	6.1
340.1207	9.1
340.1713	25.5
341.1513	45.0
341.1845	14.0
341.2386	6.4
342.1365	36.0
342.1758	13.3
342.2353	10.2
343.1323	14.4
343.1675	44.2
344.1528	42.5
344.1923	12.6
345.1475	45.8
345.1830	39.7
346.1705	42.9
346.3318	16.4
347.1632	44.6
347.1986	21.6
348.1479	13.8
348.1879	30.1
349.1781	46.9
349.2157	13.0
350.1640	25.2
350.2078	28.6
351.1474	14.2
351.1939	22.6
351.2305	10.2
352.1221	6.3
352.1744	22.0
352.2344	54.0
353.1437	20.1
353.2077	6.6
353.2417	9.6
354.1356	38.0
354.1784	19.5
355.1317	12.0
355.1663	24.9
356.1476	45.7
356.3520	11.7
357.1461	57.7
357.1829	23.2
358.1694	35.2

Name: Picrotin
PrecursorMZ: 311.10558
RT: 7.4392
ExactMass: 310.10525291
Spectrum_type: 2
charge: 1
Formula: C15H18O7
SMILES: C[C@@]12[C@H]3[C@H]4[C@H]([C@@H]([C@@]1(C[C@@H]5[C@]2(O5)C(=O)O3)O)C(=O)O4)C(C)(C)O
Method: HCD
Collision_energy: [28.333334]
Isolation_window: 4.0
Ion_mode: P
Num Peaks: 12
55.0546	3.6
101.0598	8.0
211.0532	22.1
310.1268	11.1
310.1639	4.4
310.1794	3.0
311.1054	100.0
311.1205	2.4
311.1578	8.2
312.1080	15.3
312.1434	6.1
312.1571	3.0

Name: Picrotoxinin
PrecursorMZ: 315.08371
RT: 1.0737
ExactMass: 292.09468823
Spectrum_type: 2
charge: 1
Formula: C15H16O6
SMILES: CC(=C)[C@@H]1[C@@H]2[C@@H]3[C@@]4([C@]([C@H]1C(=O)O2)(C[C@@H]5[C@]4(O5)C(=O)O3)O)C
Method: HCD
Collision_energy: [28.333334]
Isolation_window: 4.0
Ion_mode: P
Num Peaks: 34
67.0547	2.4
69.0703	2.0
81.0702	3.0
83.0858	1.8
87.0443	7.6
95.0858	3.2
108.0446	2.8
109.1013	3.5
111.0441	2.0
112.8959	9.8
113.0598	1.9
114.8931	3.0
133.1013	1.9
139.9146	5.1
152.1071	2.2
225.0431	1.9
256.2634	4.3
271.1515	3.6
313.1623	2.7
313.1982	38.8
313.2142	2.9
313.2346	16.8
313.3298	2.3
314.2015	9.2
314.2376	4.1
314.2843	4.0
315.0837	100.0
315.1348	2.0
315.2139	5.1
316.0871	13.0
316.2632	13.1
316.2839	10.2
317.0814	4.9
317.2662	1.8

Name: Pilocarpine
PrecursorMZ: 209.12844
RT: 2.8658
ExactMass: 208.121177757
Spectrum_type: 2
charge: 1
Formula: C11H16N2O2
SMILES: CC[C@H]1[C@H](COC1=O)CC2=CN=CN2C
Method: HCD
Collision_energy: [28.333334]
Isolation_window: 4.0
Ion_mode: P
Num Peaks: 14
165.0549	0.6
209.0873	0.6
209.0956	0.6
209.1285	100.0
209.1693	0.7
210.0794	1.4
210.1318	12.9
211.1318	1.0
217.0975	0.6
223.1442	0.6
224.1279	5.5
225.1318	0.6
226.1078	0.7
228.1591	0.6

Name: Pimelic Acid
PrecursorMZ: 143.07011
RT: 6.8294
ExactMass: 160.07355886
Spectrum_type: 2
charge: 1
Formula: C7H12O4
SMILES: C(CCC(=O)O)CCC(=O)O
Method: HCD
Collision_energy: [28.333334]
Isolation_window: 4.0
Ion_mode: P
Num Peaks: 10
69.0702	19.4
79.0545	29.0
81.0701	13.7
97.0649	38.1
98.0602	9.6
121.9661	61.0
125.0597	18.3
143.0701	17.3
143.1542	100.0
144.0808	10.8

Name: Pindolol
PrecursorMZ: 249.15944
RT: 8.0574
ExactMass: 248.152477885
Spectrum_type: 2
charge: 1
Formula: C14H20N2O2
SMILES: CC(C)NCC(COC1=CC=CC2=C1C=CN2)O
Method: HCD
Collision_energy: [28.333334]
Isolation_window: 4.0
Ion_mode: P
Num Peaks: 149
55.0545	0.7
56.0499	1.4
58.0655	0.6
59.0495	0.6
69.0338	0.7
70.0655	1.3
72.0810	0.7
74.0604	0.9
81.0337	0.8
82.0654	0.6
83.0494	1.5
84.0446	1.1
84.0810	1.1
85.0286	1.2
85.0649	0.6
86.0603	3.9
86.0965	0.5
87.0443	2.3
87.0636	0.6
88.0395	0.7
90.0550	0.6
95.0605	0.7
95.0856	0.6
96.0444	0.7
97.0285	0.9
98.0602	1.0
99.0441	0.6
99.0806	0.5
100.0758	7.2
101.0598	6.1
101.0791	0.8
102.0551	0.9
104.0708	2.3
105.0740	0.5
110.0601	1.9
111.0441	0.7
112.0394	0.6
112.0757	4.9
114.0551	0.7
116.0706	1.2
118.0862	1.6
120.0655	1.4
121.0885	0.5
126.0549	0.6
128.0705	1.6
130.0498	1.8
130.0861	1.2
132.0651	0.5
132.0765	1.3
133.0798	0.8
133.1009	0.8
138.0549	0.8
138.0911	0.9
140.0704	12.0
141.0737	0.8
142.0496	0.7
142.0861	1.8
144.0654	0.5
144.1018	0.8
147.0915	2.7
148.0602	0.8
148.0753	0.8
148.0947	0.7
148.1119	3.0
149.0708	1.3
149.1071	2.0
150.0548	0.5
150.0912	0.7
150.1275	0.7
151.0865	0.5
151.1228	0.9
152.0703	0.7
154.0861	2.3
156.0654	1.3
158.0810	1.7
160.0755	1.7
166.0861	0.9
168.0654	0.7
170.0809	1.0
172.0605	0.6
172.0966	1.7
176.0915	1.6
176.1067	0.9
183.1209	0.5
184.0603	1.6
184.0967	1.4
185.1281	0.5
186.0760	0.8
186.0863	0.7
187.0904	0.7
188.0914	2.4
188.1276	0.8
190.0860	0.5
194.0812	0.6
201.1313	1.3
202.0859	5.1
202.1068	2.3
202.1435	1.1
203.0896	0.6
204.0657	0.5
204.0864	0.7
204.1015	0.9
204.1227	1.1
205.0965	0.7
206.1016	0.7
212.0914	1.4
220.0965	1.6
230.1019	3.6
230.1173	0.9
230.1383	1.4
231.0671	0.9
231.1234	1.7
231.1337	1.7
231.1487	0.5
232.0812	1.7
232.0965	1.0
232.1171	0.8
233.1283	0.9
247.1079	0.5
247.1118	3.6
247.1285	7.1
247.1345	0.5
247.1436	6.0
247.1635	1.2
248.0562	0.7
248.0765	0.6
248.0919	1.6
248.1124	10.1
248.1274	8.8
248.1384	2.1
248.1485	9.5
248.1637	10.2
248.1850	0.7
249.0868	4.5
249.1232	10.7
249.1335	5.1
249.1592	100.0
249.1863	0.8
250.0716	1.1
250.0916	4.4
250.1068	6.9
250.1277	6.1
250.1430	5.3
250.1626	13.9
250.1793	2.7
251.1018	6.5
251.1120	0.8
251.1383	6.4
251.1749	7.7

Name: Pinolenic acid
PrecursorMZ: 279.23172
RT: 5.7939
ExactMass: 278.224580195
Spectrum_type: 2
charge: 1
Formula: C18H30O2
SMILES: CCCCC/C=C\C/C=C\CC/C=C\CCCC(=O)O
Method: HCD
Collision_energy: [28.333334]
Isolation_window: 4.0
Ion_mode: P
Num Peaks: 51
55.0546	4.9
57.0702	4.4
67.0547	76.3
69.0703	13.2
71.0860	7.0
79.0546	10.2
81.0702	100.0
82.0735	9.4
83.0859	10.2
85.1016	5.7
86.0967	5.5
91.0545	5.0
93.0701	17.6
95.0858	89.1
96.0891	7.8
97.0650	4.5
99.0806	4.5
107.0857	16.4
109.1014	39.2
113.0961	7.1
119.0857	5.3
121.1013	14.0
123.1170	24.8
131.0856	6.9
133.1013	5.1
135.1168	13.3
137.1325	19.3
145.1015	4.5
147.1169	6.3
149.0234	6.2
149.0962	4.4
149.1325	9.7
151.1480	7.8
159.1169	5.6
161.1326	6.8
163.1482	5.8
173.1324	11.5
195.1380	6.1
209.1534	6.3
219.0573	4.5
243.2108	5.3
261.2215	5.7
277.2161	11.4
278.1016	7.0
278.2197	17.5
278.9893	4.9
279.0933	33.4
279.2318	73.0
280.0950	7.0
280.1181	6.7
280.2354	14.3

Name: Pinoline
PrecursorMZ: 203.11771
RT: 8.8782
ExactMass: 202.110613074
Spectrum_type: 2
charge: 1
Formula: C12H14N2O
SMILES: COC1=CC2=C(C=C1)NC3=C2CCNC3
Method: HCD
Collision_energy: [28.333334]
Isolation_window: 4.0
Ion_mode: P
Num Peaks: 6
160.0756	22.9
174.0912	49.2
186.0911	100.0
187.0945	13.8
202.1797	10.4
203.1175	7.7

Name: Piperanine
PrecursorMZ: 305.18558
RT: 4.7171
ExactMass: 287.15214353
Spectrum_type: 2
charge: 1
Formula: C17H21NO3
SMILES: C1CCN(CC1)C(=O)/C=C/CCC2=CC3=C(C=C2)OCO3
Method: HCD
Collision_energy: [28.333334]
Isolation_window: 4.0
Ion_mode: P
Num Peaks: 256
58.0655	0.6
60.0448	1.7
67.0546	2.1
69.0291	1.1
69.0339	0.6
69.0702	1.3
69.1345	0.9
69.1699	0.6
69.1719	0.5
69.1872	0.9
69.2468	0.6
69.3710	0.7
69.5572	0.6
69.6503	0.5
69.6720	0.6
70.0654	0.7
71.0495	0.8
72.0810	0.3
79.0544	0.4
81.0337	1.6
81.0450	4.3
81.0701	1.7
82.0527	1.1
83.0494	0.9
83.0857	0.7
84.0810	0.4
85.0286	0.4
85.0650	0.9
86.0602	0.3
86.0965	0.5
91.0544	1.0
93.0700	1.7
95.0493	1.2
95.0856	8.4
96.0445	1.1
96.0809	0.5
96.0890	0.8
97.0649	1.9
97.1012	0.4
97.4569	0.8
98.0601	1.2
99.0441	1.0
100.0757	0.4
101.0598	0.9
105.0699	0.9
107.0492	1.5
107.0855	1.3
108.0444	0.7
108.0808	8.2
109.0396	1.0
109.0648	0.9
109.0841	0.6
109.1012	1.9
110.0601	0.9
110.0964	1.9
111.0441	1.3
111.0553	0.5
111.0804	0.5
112.1120	0.4
113.0597	0.5
114.0913	0.9
114.1277	0.9
116.0705	0.4
119.0855	0.9
120.0807	2.6
121.0647	0.6
121.0884	1.3
121.1011	1.4
122.0600	2.1
122.0963	1.2
123.0440	0.8
123.0551	0.8
123.0803	0.6
123.1167	1.2
124.0756	8.6
125.0596	0.4
125.0789	0.7
125.0961	0.5
126.1277	0.7
127.0388	0.8
128.0704	0.6
130.0651	0.6
131.0853	0.5
133.1010	1.0
135.0802	0.6
135.1167	0.9
136.0755	1.0
137.0594	0.4
137.0959	0.4
137.1322	0.5
138.0912	19.6
139.0944	1.5
140.0341	0.7
140.1068	1.1
141.0544	0.4
141.0658	1.0
142.0861	0.6
144.1381	10.9
145.1011	0.6
145.1414	1.9
147.1166	1.0
148.0755	1.0
149.0959	2.4
149.1322	0.5
150.0548	3.8
150.0911	0.9
151.0501	1.1
151.0751	0.7
152.0704	1.6
153.0657	0.5
156.1018	1.2
156.1746	0.7
157.1010	0.5
158.1174	2.4
158.1537	0.9
159.0804	0.3
159.1166	0.4
161.1322	0.6
162.0911	2.6
164.0704	2.1
164.1068	1.0
166.0861	34.4
166.1223	0.7
167.0890	2.4
167.0944	1.5
168.1018	7.0
169.0856	0.3
169.1053	0.6
171.0649	0.4
172.1330	1.5
173.1323	0.4
175.1114	0.4
176.0704	0.5
178.0861	0.8
180.0852	0.7
180.0885	0.6
180.1016	100.0
180.1148	0.5
180.1181	0.7
181.1050	10.0
182.1171	1.6
183.0762	0.9
184.0964	0.5
187.0751	0.7
189.0994	0.5
189.1636	0.3
190.0861	0.6
191.0812	2.3
192.1016	0.8
195.0650	0.4
195.0759	0.3
195.1126	0.5
199.0598	1.0
202.0859	0.5
202.1070	2.4
204.1016	0.3
206.1172	0.5
211.0862	2.4
212.0914	1.7
212.2369	0.5
213.0753	0.5
213.1228	0.5
216.1013	0.5
218.1173	0.8
220.0318	0.3
228.1015	0.5
229.0967	8.3
230.1172	0.5
231.0859	1.5
231.1250	0.5
239.0811	0.9
242.0918	0.9
242.1172	0.7
243.0859	1.3
243.1488	0.9
244.0974	0.6
244.1188	0.4
244.1326	0.5
244.1529	0.5
245.1281	0.5
245.1643	20.4
246.1122	0.5
246.1334	1.3
246.1678	3.2
247.1072	7.0
247.1184	0.9
258.1116	0.8
258.1340	0.3
258.1488	0.6
259.1076	0.3
259.1433	0.8
260.1271	1.1
260.1641	0.5
261.0963	0.7
261.1592	0.6
269.1282	0.5
270.1118	1.0
271.1072	1.6
272.0913	0.5
272.1273	0.9
274.1066	0.4
277.1908	0.4
285.2976	1.4
286.1061	1.4
286.1280	1.1
286.1434	0.5
287.1024	0.3
287.1381	1.2
287.1752	1.8
287.1993	0.6
288.1220	2.0
288.1430	0.6
288.1580	0.5
288.1943	1.1
289.0913	3.2
289.1172	2.4
289.1540	9.6
289.1773	0.6
290.1575	1.3
303.1695	1.8
303.1967	0.5
303.2289	3.2
303.2320	0.6
303.3083	0.9
304.1172	4.0
304.1376	2.5
304.1538	2.7
304.1733	2.1
304.1906	1.0
304.2300	1.0
304.2625	0.9
304.2988	1.7
305.0991	2.5
305.1144	0.9
305.1478	5.1
305.1621	0.5
305.1854	34.7
305.2117	0.6
305.2466	1.6
306.0966	0.9
306.1170	3.1
306.1329	6.8
306.1503	0.8
306.1535	4.2
306.1690	1.1
306.1816	0.8
306.1884	6.7
306.2057	3.8
306.2784	3.7
307.1022	1.3
307.1281	14.4
307.1386	0.9
307.1640	2.9
307.1875	0.6
307.2001	0.6
307.2624	0.4

Name: Piperidine
PrecursorMZ: 86.09673
RT: 2.205
ExactMass: 85.089149355
Spectrum_type: 2
charge: 1
Formula: C5H11N
SMILES: C1CCNCC1
Method: HCD
Collision_energy: [28.333334]
Isolation_window: 4.0
Ion_mode: P
Num Peaks: 4
57.0578	18.0
69.0703	100.0
86.0968	91.4
95.0606	16.7

Name: Piperoleine B
PrecursorMZ: 344.22157
RT: 1.04884
ExactMass: 343.21474379
Spectrum_type: 2
charge: 1
Formula: C21H29NO3
SMILES: C1CCN(CC1)C(=O)CCCCCC/C=C/C2=CC3=C(C=C2)OCO3
Method: HCD
Collision_energy: [28.333334]
Isolation_window: 4.0
Ion_mode: P
Num Peaks: 34
69.0702	5.8
84.0810	11.4
86.0967	57.2
87.1000	2.8
95.0857	1.2
97.4320	1.0
98.0966	6.7
109.1013	0.7
112.0757	18.2
113.0790	1.2
131.0492	0.8
133.0647	0.8
135.0439	74.5
136.0472	6.3
145.0648	1.2
149.0597	1.5
154.1225	1.8
161.0594	1.0
163.0749	0.9
168.1381	1.2
175.0752	0.9
177.0908	1.0
222.1849	6.5
223.1888	1.1
229.1214	0.7
230.1250	1.1
241.1221	1.0
343.2083	4.0
343.2242	5.9
343.3109	1.7
344.2214	100.0
344.2656	0.7
345.2246	21.0
346.2274	0.8

Name: Pirimicarb-desamido
PrecursorMZ: 168.1131
RT: 4.995566666666667
ExactMass: 167.105862047
Spectrum_type: 2
charge: 1
Formula: C8H13N3O
SMILES: CC1=C(N=C(NC1=O)N(C)C)C
Method: HCD
Collision_energy: [28.333334]
Isolation_window: 4.0
Ion_mode: P
Num Peaks: 20
81.0700	3.9
98.0601	3.7
108.0808	5.6
109.0648	9.4
109.0760	100.0
110.0793	6.2
123.0109	10.8
123.0802	5.5
126.1024	25.4
138.0911	7.0
139.0944	4.3
150.0548	5.0
150.1023	16.7
152.0454	3.1
167.0814	6.8
168.0688	80.2
168.1025	5.7
168.1129	55.3
169.0969	4.8
169.1161	4.6

Name: Pitavastatin
PrecursorMZ: 422.17627
RT: 7.0072
ExactMass: 421.16893641
Spectrum_type: 2
charge: 1
Formula: C25H24FNO4
SMILES: C1CC1C2=NC3=CC=CC=C3C(=C2/C=C/[C@H](C[C@H](CC(=O)O)O)O)C4=CC=C(C=C4)F
Method: HCD
Collision_energy: [28.333334]
Isolation_window: 4.0
Ion_mode: P
Num Peaks: 13
70.0654	42.1
196.0965	12.7
214.1071	19.4
232.1175	15.1
241.0811	22.5
281.1477	13.1
338.1338	45.4
386.1548	100.0
387.1578	21.2
404.1659	29.7
422.1758	36.8
422.2891	27.2
423.1844	14.3

Name: Platyphylline
PrecursorMZ: 360.18043
RT: 7.5175
ExactMass: 337.18892296
Spectrum_type: 2
charge: 1
Formula: C18H27NO5
SMILES: C/C=C\1/C[C@H]([C@@](C(=O)OC[C@H]2CCN3[C@H]2[C@@H](CC3)OC1=O)(C)O)C
Method: HCD
Collision_energy: [28.333334]
Isolation_window: 4.0
Ion_mode: P
Num Peaks: 50
55.0547	7.7
70.0656	4.4
72.0812	1.8
73.0652	12.8
81.0339	1.7
83.0495	2.9
84.0812	5.6
86.0968	1.8
101.0599	3.2
111.0443	1.3
114.0663	1.7
115.0756	40.4
116.0707	1.5
116.0789	2.7
130.0864	3.2
147.1129	1.2
150.0915	1.7
154.0861	1.5
160.1081	2.3
180.1019	3.1
185.0837	1.7
193.0974	1.2
194.1052	2.2
200.0918	1.3
219.1493	1.9
246.1127	2.4
271.1404	2.5
278.2113	4.0
298.1436	2.4
299.1515	18.8
300.1558	4.2
314.2323	2.1
342.1538	1.7
358.2193	2.0
359.1274	1.8
359.1607	8.9
359.1798	1.8
359.1940	7.1
360.1438	5.2
360.1806	100.0
360.2174	1.2
360.2385	4.0
361.1392	4.7
361.1819	21.1
361.2108	3.8
362.1235	3.6
362.1602	2.8
362.1765	2.7
362.2086	4.0
362.2384	1.6

Name: Pleiocarpamine
PrecursorMZ: 323.16128
RT: 1.9366
ExactMass: 322.168127949
Spectrum_type: 2
charge: 1
Formula: C20H22N2O2
SMILES: C/C=C\1/CN2CCC3=C4[C@@H]2C[C@@H]1[C@H](N4C5=CC=CC=C35)C(=O)OC
Method: HCD
Collision_energy: [28.333334]
Isolation_window: 4.0
Ion_mode: P
Num Peaks: 68
57.0704	6.4
70.0656	23.8
81.0341	20.9
84.0812	19.4
88.0397	18.4
89.0603	7.7
96.0448	13.0
98.0970	9.1
98.9845	11.4
100.0761	7.4
111.0445	13.2
122.0814	23.1
129.1026	6.3
130.0866	6.8
140.1073	6.4
144.0809	6.3
152.1068	8.7
192.1022	40.2
198.1127	14.3
199.1204	8.1
210.0795	20.1
215.1398	6.4
237.1602	7.0
238.1199	9.7
244.1077	6.5
259.1664	16.3
262.1150	42.7
286.1164	7.3
300.1230	7.9
304.1294	11.5
305.1135	7.1
307.1294	7.8
319.1291	30.0
321.1464	6.2
322.1335	32.3
323.1259	29.8
323.1624	41.6
324.1444	37.8
325.1412	51.6
325.1771	10.3
326.1205	11.4
326.1640	8.3
327.1557	29.0
327.1919	58.0
328.1440	14.2
328.1983	8.4
329.1162	10.7
329.1718	9.1
330.1332	100.0
330.3361	19.1
331.1327	33.7
332.1148	7.2
332.1447	6.4
333.1433	10.3
334.1281	28.9
335.1263	10.5
335.1640	7.7
336.1704	35.7
337.1395	52.7
337.1753	7.4
338.1309	11.0
338.1845	32.8
339.1557	25.6
340.1420	18.0
340.1849	6.3
341.1357	9.6
341.1720	15.1
342.1580	11.9

Name: Polanrazine B
PrecursorMZ: 377.31988
RT: 1.1057666666666666
ExactMass: 377.12316933
Spectrum_type: 2
charge: 1
Formula: C18H23N3O2S2
SMILES: CC(C)[C@]1(C(=O)N[C@](C(=O)N1)(CC2=CNC3=CC=CC=C32)SC)SC
Method: HCD
Collision_energy: [28.333334]
Isolation_window: 4.0
Ion_mode: P
Num Peaks: 36
57.0703	3.5
69.0703	15.1
81.0702	3.8
83.0858	4.0
93.0701	4.0
95.0857	5.3
97.1014	2.4
107.0857	4.2
109.1013	3.0
111.1170	1.5
121.1013	2.7
123.1168	2.1
135.1169	3.3
149.1325	6.2
157.1012	43.4
158.1046	3.6
159.1169	32.1
160.1201	2.8
163.1484	1.8
171.1168	7.0
173.1325	1.4
183.1169	1.6
185.1324	1.9
197.1325	3.0
251.1792	1.9
253.1950	2.7
376.2003	1.8
376.3176	1.5
377.2679	8.0
377.3200	100.0
378.2151	34.4
378.2679	1.7
378.3232	29.4
379.2185	5.9
379.2824	2.3
379.3358	7.9

Name: Porphyra-334
PrecursorMZ: 347.14447
RT: 7.978233333333334
ExactMass: 346.13761566
Spectrum_type: 2
charge: 1
Formula: C14H22N2O8
SMILES: C[C@@H]([C@H](C(=O)O)NC1=C(C(=NCC(=O)O)CC(C1)(CO)O)OC)O
Method: HCD
Collision_energy: [28.333334]
Isolation_window: 4.0
Ion_mode: P
Num Peaks: 27
70.0655	1.3
84.0810	1.7
116.0706	1.2
179.0815	1.1
182.0810	1.5
185.0922	1.5
186.0998	4.4
197.0918	1.6
200.1152	4.8
209.0919	2.4
227.1024	4.5
230.0897	1.6
244.1049	1.1
244.1415	3.9
270.1205	1.1
288.0948	1.0
288.1315	2.4
303.1181	22.1
304.1219	2.6
314.1099	1.4
332.1210	1.1
346.0904	2.6
346.1441	1.9
346.1604	1.9
347.0738	1.1
347.1441	100.0
348.1472	14.4

Name: Praeruptorin A
PrecursorMZ: 387.14101
RT: 8.3718
ExactMass: 386.13655304
Spectrum_type: 2
charge: 1
Formula: C21H22O7
SMILES: C/C=C(/C)\C(=O)O[C@H]1[C@H](C2=C(C=CC3=C2OC(=O)C=C3)OC1(C)C)OC(=O)C
Method: HCD
Collision_energy: [28.333334]
Isolation_window: 4.0
Ion_mode: P
Num Peaks: 5
97.3998	7.3
371.2943	9.2
386.1248	7.2
387.1413	100.0
388.1421	20.5

Name: Pralidoxime
PrecursorMZ: 137.0709
RT: 1.6296
ExactMass: 137.071487915
Spectrum_type: 2
charge: 1
Formula: C7H9N2O+
SMILES: C[N+]1=CC=CC=C1/C=N/O
Method: HCD
Collision_energy: [28.333334]
Isolation_window: 4.0
Ion_mode: P
Num Peaks: 35
58.0655	0.2
72.0812	0.4
95.0482	0.2
95.0505	0.2
95.0606	30.9
95.0735	0.2
96.0577	0.2
96.0638	1.8
109.0762	4.1
110.0795	0.2
114.1027	0.2
137.0221	0.3
137.0438	0.1
137.0490	0.9
137.0535	0.6
137.0710	100.0
137.0882	0.3
137.0932	0.7
137.0992	0.2
137.1054	0.2
137.1260	0.2
138.0745	7.8
139.0776	0.4
141.0658	2.2
142.0973	0.8
150.0549	0.1
150.0666	0.2
154.0864	0.2
155.0556	0.3
155.0604	0.3
155.0815	39.0
155.1026	0.1
155.1083	0.3
156.0853	3.0
157.0864	0.2

Name: Pramoxine
PrecursorMZ: 294.20571
RT: 2.8679
ExactMass: 293.19909372
Spectrum_type: 2
charge: 1
Formula: C17H27NO3
SMILES: CCCCOC1=CC=C(C=C1)OCCCN2CCOCC2
Method: HCD
Collision_energy: [28.333334]
Isolation_window: 4.0
Ion_mode: P
Num Peaks: 50
55.0546	0.6
67.0545	1.0
69.0701	0.9
79.0544	0.6
81.0336	0.4
81.0700	1.4
83.0857	2.1
86.0965	2.2
91.0542	0.7
93.0699	1.3
95.0492	0.5
95.0855	1.7
97.1012	0.4
99.0805	0.5
100.1052	0.6
100.1120	100.0
100.1189	0.7
101.1090	0.5
101.1153	6.1
105.0697	0.6
107.0854	1.1
108.0807	0.5
109.0646	0.6
109.1010	1.0
111.0803	0.5
119.0853	1.1
121.1010	1.0
125.0959	0.4
131.0852	0.6
133.1009	0.7
135.1165	0.6
136.0753	1.0
137.0593	3.2
137.0958	0.7
139.1116	0.4
145.1008	0.5
147.1165	0.7
151.1113	1.0
159.1164	0.5
168.1015	1.9
257.1891	0.5
275.1996	3.1
276.2028	0.6
277.2158	0.5
293.1471	0.5
293.2103	3.7
294.2048	3.1
295.1644	0.7
295.2088	0.7
295.2261	0.4

Name: Prazosin
PrecursorMZ: 384.16524
RT: 7.1401
ExactMass: 383.15935417
Spectrum_type: 2
charge: 1
Formula: C19H21N5O4
SMILES: COC1=C(C=C2C(=C1)C(=NC(=N2)N3CCN(CC3)C(=O)C4=CC=CO4)N)OC
Method: HCD
Collision_energy: [28.333334]
Isolation_window: 4.0
Ion_mode: P
Num Peaks: 12
57.0705	7.1
59.0609	12.7
71.0859	10.3
89.0601	6.8
97.0287	19.3
108.0811	38.3
115.0392	21.2
149.0235	49.2
167.0340	7.3
222.1129	19.2
384.1654	100.0
385.1681	23.3

Name: Pregnenolone
PrecursorMZ: 317.2471
RT: 1.138
ExactMass: 316.240230259
Spectrum_type: 2
charge: 1
Formula: C21H32O2
SMILES: CC(=O)[C@H]1CC[C@@H]2[C@@]1(CC[C@H]3[C@H]2CC=C4[C@@]3(CC[C@@H](C4)O)C)C
Method: HCD
Collision_energy: [28.333334]
Isolation_window: 4.0
Ion_mode: P
Num Peaks: 94
55.0546	2.8
57.0339	3.4
57.0703	3.6
67.0546	24.9
69.0339	4.1
69.0702	10.1
71.0495	3.5
71.0859	33.2
72.0892	1.7
79.0545	13.1
81.0338	60.0
81.0701	25.4
82.0371	2.8
82.0736	1.8
83.0494	8.9
83.0858	11.8
84.0447	2.7
85.0287	1.7
85.0650	3.4
85.1015	3.5
87.0443	2.4
91.0544	10.9
93.0700	19.0
94.0735	1.8
95.0493	13.1
95.0857	18.7
97.0650	6.2
97.1014	2.5
99.0806	30.3
100.0840	2.3
105.0700	10.7
107.0492	5.2
107.0857	12.1
109.0649	3.7
109.1013	15.6
110.0601	3.7
111.0806	3.9
113.0598	7.6
113.0961	2.8
117.0699	5.4
119.0856	12.0
121.0648	6.7
121.1012	12.6
123.0804	3.5
123.1168	4.8
127.1117	5.0
129.0699	4.3
131.0855	10.3
133.0646	1.8
133.1011	10.7
135.0804	4.7
135.1167	7.9
137.0960	2.4
137.1325	2.1
138.0912	1.9
139.1118	1.7
143.0854	2.3
145.1011	7.5
147.0804	4.4
147.1167	8.9
149.0960	3.8
149.1324	5.1
151.1115	2.8
152.1067	2.3
153.1273	9.0
157.1011	5.6
159.1167	4.3
161.1324	4.3
163.1481	2.0
165.1273	2.8
167.1432	2.0
171.1168	2.9
173.1322	3.7
175.1117	4.5
175.1480	2.8
177.1274	1.7
185.1322	4.8
187.1481	2.5
193.1221	16.6
194.1258	2.0
199.1481	2.2
203.1427	8.4
271.2416	1.6
299.2366	7.5
300.2402	1.8
301.2516	3.2
315.2314	2.6
316.2349	4.3
316.2629	2.7
317.2470	100.0
317.2617	1.8
318.2505	22.4
318.2782	6.8
319.2634	9.5

Name: Pregnenolone Acetate
PrecursorMZ: 341.24649
RT: 4.89
ExactMass: 358.25079494
Spectrum_type: 2
charge: 1
Formula: C23H34O3
SMILES: CC(=O)[C@H]1CC[C@@H]2[C@@]1(CC[C@H]3[C@H]2CC=C4[C@@]3(CC[C@@H](C4)OC(=O)C)C)C
Method: HCD
Collision_energy: [28.333334]
Isolation_window: 4.0
Ion_mode: P
Num Peaks: 48
69.0701	3.6
70.0653	5.3
81.0700	5.4
83.0856	2.8
86.0965	5.9
89.0597	3.4
93.0699	5.9
95.0854	5.1
98.0600	3.2
105.0698	5.8
107.0854	7.3
109.1011	3.1
116.0704	10.6
119.0853	5.9
121.1010	4.8
133.0856	2.9
133.1010	4.5
135.1164	3.9
140.0701	6.9
145.1008	4.7
147.1165	5.2
157.1011	3.0
159.1165	8.3
161.1320	4.6
171.1164	9.9
173.1321	4.1
179.1063	3.1
185.1321	4.6
187.1480	2.9
199.1476	6.0
213.1268	5.1
213.1630	10.1
231.1372	6.3
233.1524	3.1
240.2314	19.7
245.1528	2.8
259.1687	3.1
279.2095	3.2
281.2253	11.3
305.2255	3.4
323.2359	8.7
339.3444	4.5
341.1511	6.1
341.1848	4.3
341.2463	100.0
342.1316	2.9
342.2495	19.8
343.1639	4.1

Name: Prenyletin
PrecursorMZ: 264.1228
RT: 4.8676
ExactMass: 246.08920892
Spectrum_type: 2
charge: 1
Formula: C14H14O4
SMILES: CC(=CCOC1=C(C=C2C=CC(=O)OC2=C1)O)C
Method: HCD
Collision_energy: [28.333334]
Isolation_window: 4.0
Ion_mode: P
Num Peaks: 71
69.0359	3.1
69.0701	1.9
70.0654	51.5
71.0688	2.4
72.0811	3.4
81.0702	2.1
93.0700	1.9
97.4577	2.5
105.0699	2.7
107.0492	26.9
108.0525	1.9
116.0706	100.0
117.0739	4.7
120.0807	5.9
121.0648	3.1
123.1167	2.7
130.0497	2.0
133.1011	2.1
135.0803	4.7
136.0755	1.9
137.0959	2.1
142.0497	2.5
145.1010	6.9
147.0801	2.9
149.0595	2.4
149.0959	1.9
151.0212	2.0
151.0388	4.5
151.1116	6.0
159.0801	2.2
163.0752	6.5
163.1115	2.1
165.0544	22.8
167.0337	1.9
173.0959	5.6
177.0543	4.3
177.0906	2.6
179.0700	4.4
187.0751	3.0
190.0720	12.3
191.1063	14.8
201.0907	9.2
203.1065	2.8
205.0855	22.5
218.0668	22.6
218.0805	2.6
218.1171	9.7
219.1012	31.8
220.0960	5.0
220.1061	2.1
223.0962	10.3
229.0855	6.7
236.0775	6.9
237.1117	11.8
245.0908	3.4
246.0756	2.6
247.0961	20.1
248.0908	2.0
263.1021	6.5
263.1385	4.5
264.0724	71.1
264.0858	6.5
264.1088	2.7
264.1221	26.9
265.0755	7.1
265.1062	8.1
265.1185	3.5
265.1278	2.1
265.1574	6.1
266.0477	2.0
266.1013	3.3

Name: Prilocaine
PrecursorMZ: 221.16479
RT: 8.47945
ExactMass: 220.157563266
Spectrum_type: 2
charge: 1
Formula: C13H20N2O
SMILES: CCCNC(C)C(=O)NC1=CC=CC=C1C
Method: HCD
Collision_energy: [28.333334]
Isolation_window: 4.0
Ion_mode: P
Num Peaks: 36
55.0547	3.7
69.0703	2.2
83.0495	4.6
86.0968	64.4
87.1001	2.9
91.0545	12.0
101.0600	20.8
103.1232	4.7
107.0731	4.2
115.0756	4.9
120.0809	20.1
122.0966	36.9
123.0918	5.7
134.0965	1.8
136.0758	2.3
148.0758	2.5
149.0837	2.2
204.1383	33.4
205.1416	5.2
220.0970	12.9
220.1186	13.8
220.1334	26.2
220.1541	6.5
221.0918	4.7
221.1289	5.5
221.1386	2.6
221.1649	69.0
222.0764	1.7
222.1125	35.1
222.1336	2.8
222.1488	100.0
222.1681	8.2
223.1066	3.4
223.1175	2.2
223.1440	14.1
223.1527	6.7

Name: Pro-Arg
PrecursorMZ: 272.17107
RT: 11.260233333333334
ExactMass: 271.16443955
Spectrum_type: 2
charge: 1
Formula: C11H21N5O3
SMILES: C1C[C@H](NC1)C(=O)N[C@@H](CCCN=C(N)N)C(=O)O
Method: HCD
Collision_energy: [28.333334]
Isolation_window: 4.0
Ion_mode: P
Num Peaks: 52
58.0655	5.0
60.0559	11.3
69.8258	2.9
70.0654	57.2
71.0686	3.7
84.0809	5.5
98.0599	3.2
112.0868	11.3
115.0864	3.2
116.0704	17.8
130.0970	5.0
140.0814	3.1
154.0860	2.7
157.1081	7.4
158.0921	4.9
175.1185	28.7
183.1236	5.0
195.1123	5.2
201.0865	3.5
213.1227	15.8
214.1263	2.0
215.0934	7.1
238.1179	3.0
244.0960	5.1
254.1603	7.7
255.1444	11.6
270.2167	4.3
271.1270	3.9
271.1415	4.2
271.1644	16.9
272.0908	4.1
272.1120	6.6
272.1266	7.6
272.1307	4.9
272.1398	4.6
272.1483	4.9
272.1603	3.3
272.1710	100.0
272.1953	10.1
273.1073	8.2
273.1221	5.3
273.1430	3.4
273.1560	26.6
273.1582	2.6
273.1743	11.9
273.1784	4.7
274.1064	36.2
274.1388	3.6
274.1407	7.7
274.1581	2.7
274.1642	2.6
274.1757	2.7

Name: Pro-Ile
PrecursorMZ: 229.15448
RT: 5.0591
ExactMass: 228.1473925
Spectrum_type: 2
charge: 1
Formula: C11H20N2O3
SMILES: CC[C@H](C)[C@@H](C(=O)O)NC(=O)[C@@H]1CCCN1
Method: HCD
Collision_energy: [28.333334]
Isolation_window: 4.0
Ion_mode: P
Num Peaks: 145
55.0545	0.5
57.0703	3.1
58.0655	0.9
62.0604	5.5
67.0546	0.4
69.0702	1.9
69.3060	0.7
69.5891	0.6
69.5982	0.7
69.6306	0.7
69.6691	0.6
69.7379	0.4
70.0654	32.2
71.0494	0.7
71.0688	2.1
71.0858	2.8
72.0811	17.6
81.0337	2.2
81.0701	0.8
82.0289	1.4
82.0653	0.7
83.0606	1.0
83.0857	0.7
84.0446	12.3
84.0810	1.3
85.0479	2.4
85.0649	0.5
85.1014	1.2
86.0602	4.4
86.0966	55.2
87.0442	0.8
87.0999	2.3
95.0856	1.0
97.1013	1.2
97.4570	0.6
98.0602	0.4
100.0758	0.5
104.0706	1.7
105.0699	1.1
107.0853	0.5
109.0522	1.2
109.1012	0.9
110.0236	0.7
114.0550	1.3
114.0662	0.4
114.0913	1.0
116.0622	0.5
116.0706	69.8
117.0739	5.6
118.0861	0.6
119.0852	0.5
125.0959	0.8
132.0807	1.3
132.1018	1.4
137.0231	1.3
138.0548	3.6
140.0703	0.6
141.1020	1.2
147.1164	0.5
152.0704	1.0
154.0862	0.6
155.1176	0.7
156.0810	1.3
157.0885	1.5
158.1174	0.8
165.0545	2.2
166.0497	2.2
166.0860	1.5
170.0922	0.9
171.0915	0.7
173.0706	0.6
176.0702	0.6
181.0969	1.9
182.0810	0.9
182.0962	0.9
182.1004	1.0
182.1173	5.9
182.1286	1.3
183.0915	1.7
183.1125	1.3
183.1206	0.6
183.1489	0.9
184.0602	0.9
184.0754	1.6
184.0965	0.8
184.1077	0.8
184.1330	2.3
185.1072	0.5
185.1644	0.6
193.0493	2.5
194.0809	1.6
200.1177	1.0
200.1390	0.6
201.1018	1.5
201.1231	0.5
201.1594	0.8
210.0212	0.5
210.0758	0.6
210.1232	1.3
211.0599	1.4
211.0862	2.8
211.1071	0.6
212.0370	0.8
212.0551	0.9
212.0706	1.3
212.0912	1.3
212.2369	4.8
227.1022	2.3
228.0127	0.6
228.0321	2.2
228.0652	5.5
228.0762	1.1
228.0865	2.7
228.1017	2.3
228.1059	2.0
228.1126	0.7
228.1227	3.4
228.1337	4.2
228.1588	1.5
228.2318	0.7
229.0600	1.2
229.0628	0.8
229.0700	0.8
229.0822	0.5
229.0849	1.3
229.0966	6.5
229.1174	1.0
229.1340	1.6
229.1541	16.4
230.0444	0.9
230.0475	1.4
230.0808	3.3
230.0919	15.5
230.1017	3.5
230.1131	4.5
230.1175	0.9
230.1382	2.7
230.1575	1.8
230.2474	100.0
230.2714	0.5
231.0754	1.0
231.0949	0.7
231.1125	1.4
231.1699	1.6
231.2509	3.4

Name: Pro-Leu
PrecursorMZ: 229.15445
RT: 4.0174
ExactMass: 228.1473925
Spectrum_type: 2
charge: 1
Formula: C11H20N2O3
SMILES: CC(C)C[C@@H](C(=O)O)NC(=O)[C@@H]1CCCN1
Method: HCD
Collision_energy: [28.333334]
Isolation_window: 4.0
Ion_mode: P
Num Peaks: 164
55.0537	1.2
58.0646	1.0
59.0486	0.7
60.0800	2.1
60.0834	0.6
70.0644	3.7
70.0690	0.6
71.0483	0.7
72.0799	2.1
80.0486	0.9
82.0642	0.7
83.0483	2.5
84.0433	0.6
84.0799	2.6
86.0591	1.4
86.0955	1.3
87.0431	1.2
94.0641	0.6
95.0594	0.5
96.0434	0.5
96.0672	0.6
96.0797	0.5
98.0589	0.6
99.0918	0.6
100.0746	2.6
101.0586	11.4
101.0659	0.9
102.0621	1.1
104.1059	6.5
108.0445	1.2
109.0762	1.3
110.0603	0.9
112.0759	2.1
114.0551	0.7
114.0662	0.8
114.0916	1.5
116.0709	2.0
118.0863	0.7
120.0809	5.1
121.0748	0.5
122.0601	0.8
125.0698	1.1
126.0551	1.9
126.0916	1.8
127.0587	0.7
127.0866	0.7
128.0695	0.6
129.1026	0.7
130.0863	3.1
132.0760	0.6
132.1007	0.5
134.0702	0.6
135.0553	1.7
136.0758	1.9
137.0706	1.5
138.0550	0.8
138.0914	1.6
139.0866	14.8
140.0710	1.7
140.0904	0.9
140.1067	0.9
141.0651	0.5
142.0500	2.6
142.0868	0.6
144.0479	2.2
144.1022	0.7
148.0608	0.6
149.0718	0.7
149.1071	1.5
152.0705	1.2
154.0852	0.6
155.0808	0.6
158.0814	3.9
159.0922	2.6
166.0863	1.7
166.1227	0.7
168.1386	1.2
170.0918	0.9
172.0972	2.7
178.0853	0.6
182.0806	0.6
184.1335	1.9
188.0920	0.6
191.1189	0.7
192.0648	0.5
194.0807	0.5
196.0958	0.6
197.1281	0.6
203.5957	1.3
205.1345	0.6
210.1234	0.7
212.0892	0.6
212.1266	0.6
221.1283	0.7
224.0902	1.6
227.1106	2.2
227.1392	2.8
228.0870	0.8
228.1213	0.9
228.1592	3.4
229.1326	2.1
229.1547	18.5
229.1916	0.9
230.1027	1.7
230.1162	1.1
230.1379	9.9
230.1593	1.7
230.1759	1.5
231.1136	13.5
231.1370	1.5
231.1704	7.4
232.1150	2.0
232.1538	0.8
232.1743	0.7
233.1478	1.3
234.1102	1.6
234.1327	0.6
234.1722	0.6
235.1078	8.9
235.1423	1.4
236.0905	0.8
236.1087	0.7
236.1288	8.9
236.1500	1.6
237.1230	15.5
237.1601	0.6
238.1065	4.9
238.1441	8.5
239.1001	1.8
239.1075	1.1
239.1391	100.0
239.1913	0.6
240.0876	1.1
240.1240	3.3
240.1423	11.9
240.1629	0.8
241.1202	4.5
241.1542	3.6
242.1018	9.3
242.1407	1.7
242.1898	0.7
243.1073	1.3
243.1346	6.2
243.1711	1.4
244.0985	6.0
244.1196	0.9
244.1549	1.3
244.2020	1.5
245.1068	0.7
245.1286	1.6
245.1496	45.0
245.1845	3.1
246.1119	14.1
246.1517	5.5
247.1138	2.2
247.1671	1.6
248.1266	2.2
248.1492	3.1
248.6107	1.5
249.1234	16.5
249.1593	0.7
250.1075	0.7
250.1252	0.9
250.1478	1.1

Name: Pro-Phe
PrecursorMZ: 263.13865
RT: 5.109
ExactMass: 262.13174244
Spectrum_type: 2
charge: 1
Formula: C14H18N2O3
SMILES: C1C[C@H](NC1)C(=O)N[C@@H](CC2=CC=CC=C2)C(=O)O
Method: HCD
Collision_energy: [28.333334]
Isolation_window: 4.0
Ion_mode: P
Num Peaks: 99
67.0545	1.8
70.0654	100.0
71.0494	0.9
71.0688	3.5
72.0811	4.4
79.0544	1.1
81.0338	1.5
81.0701	2.1
84.0446	1.1
86.0602	1.4
86.0966	4.6
88.0395	1.0
91.0543	1.5
93.0700	1.3
95.0856	1.6
98.0601	1.3
99.0442	1.2
102.0550	2.4
105.0700	0.9
107.0491	1.2
107.0855	1.1
109.1012	1.5
111.0441	1.0
116.0706	24.0
119.0855	1.8
120.0807	20.5
121.0841	1.6
121.1011	1.4
122.0600	1.4
130.0497	2.0
132.1018	2.0
133.0646	0.9
133.1010	1.1
134.0597	3.4
135.0914	5.4
135.1164	1.0
136.0755	8.5
144.1019	1.4
146.0598	1.0
152.0703	1.0
153.1019	1.4
154.0498	1.1
158.1174	2.3
162.0912	2.0
166.0860	1.8
174.0911	1.0
175.0751	1.0
175.0865	1.9
178.0858	3.2
188.0703	2.8
190.0859	1.0
194.0809	1.2
200.0704	1.9
200.0912	1.7
202.0858	2.1
203.0698	2.7
204.0650	1.4
205.0853	1.0
216.1015	3.4
216.1223	3.7
217.0855	1.6
217.0968	2.7
217.1330	1.1
218.0806	4.2
218.1019	1.5
218.1169	2.0
218.1279	1.1
219.1124	1.8
232.0600	1.4
244.0965	2.9
245.0801	1.4
245.0916	2.1
245.1531	1.2
246.0756	4.7
246.1120	2.6
247.0710	1.0
247.1073	1.4
247.1321	1.7
261.1229	1.1
262.0701	3.9
262.0926	1.3
262.1064	14.2
262.1183	3.0
262.1435	1.5
263.0701	1.6
263.0911	1.7
263.1018	26.1
263.1384	28.2
263.1630	2.0
263.1996	1.8
264.0858	13.3
264.1070	3.8
264.1220	7.2
264.1339	10.0
264.1429	2.3
265.0802	2.0
265.1174	6.5
265.1541	1.2
265.1787	1.0

Name: Pro-Pro-Lys
PrecursorMZ: 171.11271
RT: 9.4995
ExactMass: 340.21105539
Spectrum_type: 2
charge: 1
Formula: C16H28N4O4
SMILES: C1C[C@H](NC1)C(=O)N2CCC[C@H]2C(=O)N[C@@H](CCCCN)C(=O)O
Method: HCD
Collision_energy: [28.333334]
Isolation_window: 4.0
Ion_mode: P
Num Peaks: 32
60.0447	1.9
67.0546	2.9
70.0655	1.8
84.0810	51.5
85.0651	2.9
86.0966	4.7
89.0711	1.6
96.0683	4.0
109.0760	6.0
109.1012	3.1
112.0757	2.5
113.0597	1.6
126.0912	10.7
126.1023	3.4
129.1021	100.0
130.0861	18.5
130.1053	5.7
152.0704	2.8
153.1021	5.4
154.0861	1.6
156.1382	2.7
170.0646	2.1
170.0813	1.9
170.0919	8.0
170.1174	3.2
171.1125	10.6
171.1489	2.3
172.0966	7.2
172.1076	4.0
172.1329	19.7
173.1069	1.9
173.1645	4.5

Name: Pro-val
PrecursorMZ: 215.13895
RT: 7.8317
ExactMass: 214.13174244
Spectrum_type: 2
charge: 1
Formula: C10H18N2O3
SMILES: CC(C)C(C(=O)O)NC(=O)C1CCCN1
Method: HCD
Collision_energy: [28.333334]
Isolation_window: 4.0
Ion_mode: P
Num Peaks: 28
70.0655	100.0
71.0688	4.3
72.0812	12.2
81.0701	2.1
86.0968	5.4
114.0915	4.7
116.0708	19.3
125.0233	5.7
144.1021	3.9
146.0269	2.1
168.0655	2.2
168.1019	2.7
169.1336	3.2
198.0219	2.6
198.0759	2.9
198.1126	2.1
214.1073	5.3
215.0702	2.9
215.1017	2.9
215.1064	2.0
215.1388	28.4
216.0322	2.2
216.0865	2.2
216.1017	2.3
216.1225	2.7
216.1427	3.2
217.0970	2.4
217.1225	3.2

Name: Proadifen
PrecursorMZ: 354.24259
RT: 6.5303
ExactMass: 353.235479232
Spectrum_type: 2
charge: 1
Formula: C23H31NO2
SMILES: CCCC(C1=CC=CC=C1)(C2=CC=CC=C2)C(=O)OCCN(CC)CC
Method: HCD
Collision_energy: [28.333334]
Isolation_window: 4.0
Ion_mode: P
Num Peaks: 104
59.0608	1.3
67.0547	0.8
69.0704	0.8
70.0655	1.2
72.0812	0.9
81.0703	1.2
86.0968	13.9
87.1001	1.1
91.0545	9.5
92.0578	0.9
95.0858	1.0
98.0603	1.4
100.1123	43.5
101.1157	4.1
101.1200	1.5
105.0339	0.9
105.0627	0.7
105.0701	100.0
105.0774	0.8
106.0734	8.1
109.1015	1.2
114.0915	2.2
116.0708	1.0
117.0700	0.6
119.0493	8.2
119.0856	1.1
120.0525	0.8
121.0649	0.9
121.1012	0.7
129.0700	0.5
130.0652	3.7
130.1590	0.6
131.0855	0.7
133.0648	17.7
134.0682	1.3
135.0441	1.6
135.1169	0.7
143.0493	1.1
145.1012	1.3
147.0441	0.6
147.1170	0.7
149.0233	1.1
149.0598	0.7
149.1325	0.8
151.0390	1.2
158.0600	0.8
160.1332	1.3
161.0598	12.2
162.0630	1.3
172.0758	1.0
175.0866	7.7
179.0702	1.0
185.0597	1.7
193.1017	1.1
207.1166	1.2
217.0957	0.8
221.0960	0.9
223.1075	2.8
225.0906	0.6
225.1272	1.7
235.1116	2.4
236.1151	0.6
237.0909	1.1
247.1116	0.8
251.1066	5.2
252.1100	4.9
253.0861	0.9
253.1223	11.8
254.1260	2.1
255.1491	1.5
271.0961	0.8
308.1601	1.2
309.2575	1.6
335.0912	1.0
337.1395	0.8
337.2522	0.9
352.2272	9.4
352.2629	0.7
353.1010	0.9
353.1194	1.5
353.1715	0.9
353.2302	16.0
353.2500	0.9
354.1355	1.0
354.1545	0.8
354.1662	1.5
354.2072	5.2
354.2426	89.9
354.2603	0.8
355.1310	0.6
355.1477	1.2
355.1647	1.0
355.2090	0.9
355.2134	1.0
355.2455	22.2
355.2632	8.4
355.2944	0.8
356.1153	0.9
356.1312	1.4
356.1486	0.7
356.2220	4.6
356.2490	1.7
356.2655	1.4
356.2701	1.5

Name: Procaine
PrecursorMZ: 237.15945
RT: 7.8692
ExactMass: 236.152477885
Spectrum_type: 2
charge: 1
Formula: C13H20N2O2
SMILES: CCN(CC)CCOC(=O)C1=CC=C(C=C1)N
Method: HCD
Collision_energy: [28.333334]
Isolation_window: 4.0
Ion_mode: P
Num Peaks: 37
70.0654	6.2
72.0811	13.7
84.0809	2.5
134.0599	3.3
150.0912	4.1
163.1227	7.1
164.0705	3.4
169.1336	3.3
177.1385	2.4
179.1175	3.1
193.1332	23.3
219.1485	5.5
221.1277	6.8
235.1443	2.9
236.0740	4.0
236.1027	16.5
236.1138	35.9
236.1277	96.7
236.1388	26.4
236.1483	7.5
236.1640	9.5
236.1753	8.9
237.1228	34.0
237.1323	8.5
237.1592	100.0
238.0891	21.1
238.1071	66.7
238.1178	3.4
238.1284	6.1
238.1432	44.2
238.1545	36.8
238.1635	11.5
238.1895	4.5
239.1017	4.7
239.1103	2.4
239.1382	14.5
239.1490	4.8

Name: Procaine Hydrochloride
PrecursorMZ: 237.15957
RT: 8.5386
ExactMass: 272.1291556
Spectrum_type: 2
charge: 1
Formula: C13H21ClN2O2
SMILES: CCN(CC)CCOC(=O)C1=CC=C(C=C1)N.Cl
Method: HCD
Collision_energy: [28.333334]
Isolation_window: 4.0
Ion_mode: P
Num Peaks: 3
137.1071	7.7
237.1593	100.0
238.1631	12.0

Name: Procarbazine
PrecursorMZ: 222.16005
RT: 3.3432
ExactMass: 221.152812238
Spectrum_type: 2
charge: 1
Formula: C12H19N3O
SMILES: CC(C)NC(=O)C1=CC=C(C=C1)CNNC
Method: HCD
Collision_energy: [28.333334]
Isolation_window: 4.0
Ion_mode: P
Num Peaks: 10
95.0606	6.2
97.0763	23.2
135.0917	5.9
149.1075	5.1
221.0917	6.4
222.1123	6.1
222.1600	100.0
223.0865	9.7
223.1633	12.8
224.0915	8.4

Name: Prochlorperazine
PrecursorMZ: 374.14425
RT: 3.399
ExactMass: 373.1379466
Spectrum_type: 2
charge: 1
Formula: C20H24ClN3S
SMILES: CN1CCN(CC1)CCCN2C3=CC=CC=C3SC4=C2C=C(C=C4)Cl
Method: HCD
Collision_energy: [28.333334]
Isolation_window: 4.0
Ion_mode: P
Num Peaks: 101
69.0340	4.5
70.0656	23.5
72.0813	6.8
81.0339	9.8
83.0495	5.9
84.0448	8.9
84.0812	19.3
85.0287	4.9
86.0605	4.1
90.0554	4.9
95.0496	5.2
96.0448	4.2
97.0287	6.2
99.0444	5.9
101.0600	8.0
102.0552	8.3
107.0494	14.2
111.0444	15.3
114.0551	4.6
116.0709	12.8
121.0654	4.3
123.0442	7.2
124.0395	34.6
126.0554	4.2
128.0709	5.6
129.0549	7.5
130.0501	9.1
130.0865	11.2
138.0551	4.1
139.0392	16.7
140.0344	4.0
142.0863	4.6
148.0609	8.2
149.0236	10.4
152.0710	4.5
153.9797	6.3
157.0496	5.6
163.0393	5.3
165.0549	14.6
168.0293	100.0
168.0661	4.0
169.0333	6.7
177.0543	5.0
181.0490	8.0
182.0809	4.6
198.1128	13.1
215.0115	6.5
216.0102	4.5
223.0591	10.0
228.1254	8.5
245.9932	13.6
248.0925	4.1
257.0816	5.6
259.0017	8.7
284.9801	5.4
301.9802	4.1
302.9917	5.5
303.0855	7.2
312.1096	5.3
327.0883	5.4
330.0954	5.3
333.1072	4.8
339.1090	6.2
345.0964	6.6
346.9798	7.7
357.1187	14.3
372.1049	5.7
373.1125	11.1
373.1735	25.5
374.1645	7.5
375.1517	8.7
375.1938	6.5
376.1699	5.9
377.1707	5.3
378.1768	66.7
379.1837	15.3
380.1446	4.4
380.1888	4.2
381.1134	7.3
382.1128	5.3
382.1722	8.3
383.1466	4.2
384.1086	4.8
384.1507	9.2
385.1195	7.3
385.1677	5.2
386.1143	7.7
386.1593	5.0
387.1485	5.0
387.1951	5.8
388.1308	4.6
388.1854	5.3
389.1682	8.2
390.1200	5.0
390.1492	6.1
390.1960	6.3
390.9707	89.1
391.1890	7.5
391.9706	32.3
392.1012	4.4
392.1404	4.3

Name: Procodazole
PrecursorMZ: 173.0709
RT: 1.6911
ExactMass: 190.074227566
Spectrum_type: 2
charge: 1
Formula: C10H10N2O2
SMILES: C1=CC=C2C(=C1)NC(=N2)CCC(=O)O
Method: HCD
Collision_energy: [28.333334]
Isolation_window: 4.0
Ion_mode: P
Num Peaks: 4
145.0759	23.9
156.1018	7.1
173.0707	100.0
174.0740	10.9

Name: Progesterone
PrecursorMZ: 337.21357
RT: 1.7406
ExactMass: 314.224580195
Spectrum_type: 2
charge: 1
Formula: C21H30O2
SMILES: CC(=O)[C@H]1CC[C@@H]2[C@@]1(CC[C@H]3[C@H]2CCC4=CC(=O)CC[C@]34C)C
Method: HCD
Collision_energy: [28.333334]
Isolation_window: 4.0
Ion_mode: P
Num Peaks: 4
179.1179	73.4
337.2132	60.7
338.2073	100.0
338.3425	74.5

Name: Proline + CDCA
PrecursorMZ: 490.35262
RT: 0.9886
ExactMass: 489.3454236
Spectrum_type: 2
charge: 1
Formula: C29H47NO5
SMILES: C[C@H](CCC(=O)N1CCCC1C(=O)O)[C@H]2CC[C@@H]3[C@@]2(CC[C@H]4[C@H]3[C@@H](C[C@H]5[C@@]4(CC[C@H](C5)O)C)O)C
Method: HCD
Collision_energy: [28.333334]
Isolation_window: 4.0
Ion_mode: P
Num Peaks: 41
54.4838	5.9
54.5891	3.4
70.0655	9.2
100.0759	6.7
107.0856	1.9
110.0602	2.1
121.0648	5.4
121.1013	2.2
133.1013	1.9
135.1168	2.7
140.1068	2.9
147.1168	4.1
156.1019	2.9
159.1171	3.4
161.0961	3.9
161.1326	13.9
165.0910	4.7
173.1326	2.5
178.1225	3.9
255.2106	17.5
256.2139	3.4
273.2211	35.7
274.2244	5.9
383.2943	17.4
384.2977	4.9
412.3209	19.9
413.3245	4.6
428.3151	1.8
429.3185	2.2
430.3314	71.2
431.3347	19.0
472.3420	9.3
473.3450	3.1
488.3378	2.3
489.2594	1.7
489.3406	2.1
490.3526	100.0
491.2996	67.2
491.3549	28.2
492.3031	11.8
492.3577	3.7

Name: Proline + DCA
PrecursorMZ: 472.34192
RT: 1.1046
ExactMass: 489.3454236
Spectrum_type: 2
charge: 1
Formula: C29H47NO5
SMILES: C[C@H](CCC(=O)N1CCCC1C(=O)O)[C@H]2CC[C@@H]3[C@@]2([C@H](C[C@H]4[C@H]3CC[C@H]5[C@@]4(CC[C@H](C5)O)C)O)C
Method: HCD
Collision_energy: [28.333334]
Isolation_window: 4.0
Ion_mode: P
Num Peaks: 186
50.4815	0.5
52.4826	3.6
52.5942	1.0
57.0703	1.9
59.0495	0.4
67.0546	1.1
69.0703	1.1
70.0654	6.1
71.0496	0.8
71.0858	3.0
73.0652	1.0
79.0545	0.6
81.0337	7.6
81.0701	2.8
82.0370	0.4
82.0654	1.3
83.0494	1.3
83.0858	1.3
85.0651	0.7
85.1015	1.8
86.0603	0.4
87.0439	1.2
89.0598	7.6
90.0632	0.6
91.0543	0.7
93.0700	1.8
95.0494	1.0
95.0856	3.2
96.0809	0.6
97.0649	0.6
97.1014	0.8
97.3997	0.4
99.0443	1.2
99.0805	0.6
100.0758	9.3
101.0598	0.4
105.0699	3.0
107.0855	2.4
109.0648	1.8
109.1012	2.9
110.0602	2.8
111.0806	0.6
117.0699	0.9
119.0855	2.7
120.0808	0.8
121.0647	5.3
121.1010	2.8
122.0965	1.2
123.0804	0.8
123.1166	1.3
125.0598	0.5
125.0962	1.0
127.1117	1.1
128.0706	1.4
129.0902	0.8
130.0859	0.8
131.0855	1.0
133.0857	3.6
133.1010	2.7
135.0803	1.6
135.1167	3.0
137.0595	0.7
137.0960	1.3
137.1323	0.4
138.0915	0.9
139.1116	0.4
140.1071	1.2
142.0861	0.4
143.0855	1.2
143.1066	0.6
145.0859	1.1
145.1011	3.4
146.1045	0.4
147.0804	1.6
147.1168	2.6
149.0959	1.1
149.1323	1.3
151.0754	0.4
151.1117	0.5
151.1480	0.4
153.1272	0.6
156.1020	1.9
157.1012	0.6
159.1169	3.3
160.1121	0.5
160.1203	0.4
161.0962	3.7
161.1325	3.8
162.0993	0.4
162.1357	0.4
163.1119	1.1
163.1484	0.4
164.1070	1.7
165.0911	5.4
165.1276	0.4
171.1168	1.1
173.1326	2.4
175.1117	0.6
175.1481	0.9
177.1120	1.1
177.1636	0.6
178.1226	3.2
179.1067	3.3
180.1382	0.7
181.1222	0.4
182.1175	1.1
183.1167	0.4
185.1326	0.6
187.1484	0.7
189.1276	0.5
189.1636	0.6
191.1068	0.5
193.1585	0.5
196.1330	1.2
197.1322	0.4
198.1121	0.6
198.1487	0.7
199.1475	0.7
201.1637	1.4
203.1427	0.5
203.1795	0.4
205.1219	0.5
211.1480	0.6
213.1636	0.8
215.1793	2.9
216.1827	0.6
217.1950	1.2
227.1797	1.0
229.1950	0.7
251.1796	0.4
253.1949	6.6
254.1985	1.9
255.2106	37.4
256.2140	7.1
281.2265	0.8
283.2417	1.7
315.1697	1.0
318.1563	0.7
321.2573	0.5
327.2008	0.5
339.2682	0.7
347.1333	0.7
347.2732	1.0
365.2837	21.3
366.2873	5.2
367.3106	1.2
376.2991	1.2
377.2836	0.7
383.2941	2.2
384.2984	0.5
394.3102	16.2
395.3141	4.4
397.2726	0.5
412.2641	0.6
412.3208	100.0
412.3646	0.5
412.3781	0.7
413.3242	26.5
414.3277	2.3
436.3213	0.5
453.3351	0.6
453.3427	2.6
454.3309	9.7
455.3349	2.3
470.3624	1.4
470.3673	0.9
471.2109	1.3
471.2533	0.8
471.2701	2.2
471.2756	0.4
471.3130	0.8
471.3445	1.3
471.3684	0.5
472.2220	1.1
472.2721	0.8
472.3098	1.2
472.3153	1.3
472.3420	65.5
472.3772	2.3
472.4128	0.7
473.2301	0.8
473.2893	0.6
473.3454	19.7
473.3706	0.6
474.3220	0.7
474.3501	2.1

Name: Proline + HDCA
PrecursorMZ: 490.3527
RT: 1.3057
ExactMass: 489.3454236
Spectrum_type: 2
charge: 1
Formula: C29H47NO5
SMILES: C[C@H](CCC(=O)N1CCCC1C(=O)O)[C@H]2CC[C@@H]3[C@@]2(CC[C@H]4[C@H]3C[C@@H]([C@H]5[C@@]4(CC[C@H](C5)O)C)O)C
Method: HCD
Collision_energy: [28.333334]
Isolation_window: 4.0
Ion_mode: P
Num Peaks: 86
54.4839	5.8
54.5890	1.5
54.5953	1.6
67.0544	0.6
70.0656	9.3
81.0338	1.1
81.0702	1.0
82.0655	1.4
83.0495	1.1
93.0701	1.3
95.0494	1.0
95.0858	1.4
96.0810	1.2
100.0759	6.2
105.0700	1.0
107.0857	2.6
109.0650	1.2
109.1013	1.2
110.0602	2.2
119.0857	1.6
120.0809	1.4
121.0649	6.5
121.1013	1.9
122.0680	0.7
122.0965	1.2
123.0805	0.7
123.1168	0.6
128.0707	1.1
131.0855	0.8
133.1013	1.7
135.0805	1.6
135.1169	1.9
137.0962	0.8
138.0914	1.4
140.1070	1.8
145.1013	2.2
147.0804	1.7
147.1169	4.0
149.0959	0.6
149.1325	1.0
151.1116	0.6
156.1020	3.3
158.1175	0.8
159.1169	2.7
160.1120	0.9
161.0962	5.1
161.1326	14.4
162.1358	1.7
163.1118	1.7
164.1071	1.6
165.0911	4.4
173.1326	1.9
178.1227	3.8
179.1067	1.9
180.1023	0.9
182.1176	0.9
187.1482	1.0
196.1332	1.0
198.1124	0.8
199.1480	0.8
215.1794	1.4
253.1945	0.7
255.2107	17.6
256.2140	3.1
273.2212	36.8
274.2246	7.0
383.2943	20.0
384.2978	4.6
394.3105	1.6
401.3047	1.7
412.3209	19.9
413.3248	4.9
430.3315	72.5
431.3348	20.4
432.3379	2.2
472.3421	9.1
473.3460	2.6
489.2843	0.8
490.2798	0.7
490.2942	0.6
490.3528	100.0
490.4275	0.7
491.3001	24.3
491.3558	30.7
492.3032	4.5
492.3582	3.6

Name: Proline + UDCA
PrecursorMZ: 490.35248
RT: 1.3570333333333333
ExactMass: 489.3454236
Spectrum_type: 2
charge: 1
Formula: C29H47NO5
SMILES: C[C@H](CCC(=O)N1CCCC1C(=O)O)[C@H]2CC[C@@H]3[C@@]2(CC[C@H]4[C@H]3[C@H](C[C@H]5[C@@]4(CC[C@H](C5)O)C)O)C
Method: HCD
Collision_energy: [28.333334]
Isolation_window: 4.0
Ion_mode: P
Num Peaks: 145
52.4826	0.6
54.4838	5.9
54.5890	0.6
54.5953	1.7
57.0702	0.5
59.0494	0.5
67.0546	0.6
69.0703	0.7
70.0655	10.9
71.0859	0.6
79.0544	0.5
81.0338	1.4
81.0702	1.2
82.0655	1.5
83.0494	0.9
83.0857	0.4
85.0649	0.4
86.0601	0.4
87.0442	0.6
89.0600	2.5
91.0544	0.7
93.0701	1.3
95.0493	0.9
95.0858	1.8
96.0810	1.6
97.1012	0.4
100.0759	6.4
105.0701	1.2
107.0857	2.5
109.0650	1.5
109.1013	1.5
110.0602	2.3
117.0548	1.3
119.0856	1.6
120.0809	1.3
121.0649	6.3
121.1013	2.5
122.0681	0.5
122.0965	1.2
123.0804	0.6
123.1168	0.6
125.0961	0.6
127.1118	0.6
128.0706	1.2
130.0865	0.5
131.0855	0.7
133.0859	1.0
133.1011	1.9
135.0804	2.1
135.1169	2.4
137.0459	0.7
137.0595	0.4
137.0960	1.1
138.0913	1.4
139.1117	0.4
140.1070	2.0
141.0659	6.6
143.1065	0.4
145.1012	1.8
147.0805	1.6
147.1168	4.0
149.0960	0.7
149.1325	1.1
151.1118	0.8
155.0815	1.4
156.1020	3.2
157.1007	0.5
158.1177	0.6
159.1168	2.6
160.1120	0.9
161.0962	4.8
161.1325	14.2
162.0993	0.6
162.1358	1.6
163.1118	1.7
164.1071	2.1
165.0911	4.9
166.0944	0.5
171.1168	0.4
173.1325	2.0
175.1481	0.7
177.1120	0.4
178.1226	4.5
179.1067	2.1
182.1175	1.0
185.1324	0.5
187.1483	0.6
196.1331	1.0
198.1123	1.1
199.1480	1.0
205.1222	0.4
206.0814	0.6
213.1637	0.6
215.1793	1.3
243.1700	0.9
253.1946	0.4
255.2106	19.2
256.2139	3.7
271.2056	0.7
273.2211	41.2
274.2245	7.7
275.2279	0.5
283.2418	0.4
346.1913	0.5
357.2791	0.7
383.2942	21.1
384.2977	4.9
385.3013	0.5
394.3103	1.6
395.2925	0.6
401.3046	2.1
402.3083	0.5
412.3208	22.9
413.3247	6.1
414.3279	0.5
415.2836	0.7
430.2692	0.5
430.3314	77.9
431.3347	22.4
432.3381	2.1
454.3305	0.8
471.3457	0.4
472.3420	10.5
473.3455	3.3
488.3368	0.6
488.3740	0.5
489.2849	0.4
489.3192	0.7
489.3396	0.5
489.3687	2.6
489.5137	0.4
490.2790	0.6
490.3526	100.0
490.3887	8.7
490.4273	0.7
491.2399	0.7
491.3009	11.1
491.3046	1.0
491.3490	7.4
491.3558	31.5
491.3904	3.3
492.2473	0.7
492.3037	2.0
492.3516	1.4
492.3589	3.6

Name: Proline + alphaMCA
PrecursorMZ: 488.3358
RT: 1.1734
ExactMass: 505.34033822
Spectrum_type: 2
charge: 1
Formula: C29H47NO6
SMILES: C[C@H](CCC(=O)N1CCCC1C(=O)O)[C@H]2CC[C@@H]3[C@@]2(CC[C@H]4[C@H]3[C@@H]([C@H]([C@H]5[C@@]4(CC[C@H](C5)O)C)O)O)C
Method: HCD
Collision_energy: [28.333334]
Isolation_window: 4.0
Ion_mode: P
Num Peaks: 17
69.3074	6.6
70.0654	8.9
95.0855	6.8
97.4573	7.5
109.1010	8.8
121.0645	8.6
161.1319	17.7
165.0906	13.4
271.2046	41.2
272.2087	7.0
381.2771	19.7
410.3036	26.8
428.3144	65.4
429.3173	19.6
470.3256	10.4
488.3355	100.0
489.3388	25.4

Name: Prolylarginine
PrecursorMZ: 272.17158
RT: 4.9372
ExactMass: 271.16443955
Spectrum_type: 2
charge: 1
Formula: C11H21N5O3
SMILES: C1C[C@H](NC1)C(=O)N[C@@H](CCCN=C(N)N)C(=O)O
Method: HCD
Collision_energy: [28.333334]
Isolation_window: 4.0
Ion_mode: P
Num Peaks: 34
60.0562	8.3
70.0656	41.2
71.0691	1.6
84.0812	5.3
89.0601	1.8
98.0604	2.9
112.0873	11.3
115.0869	2.1
116.0710	14.4
122.0816	3.3
130.0866	2.4
140.0823	1.7
149.0236	6.2
154.0864	2.6
157.1086	6.8
158.0929	4.9
168.0688	3.4
175.1192	20.5
176.1221	1.4
190.0976	2.9
195.1130	3.0
213.1235	14.0
214.1265	1.4
238.1190	6.6
254.1615	5.3
255.1449	9.7
272.1718	100.0
273.1751	12.7
274.1395	3.2
274.1771	1.5
281.1504	2.1
282.1561	2.1
283.1656	4.1
284.1977	2.1

Name: Prolylhydroxyproline
PrecursorMZ: 229.11817
RT: 1.4656
ExactMass: 228.111007
Spectrum_type: 2
charge: 1
Formula: C10H16N2O4
SMILES: C1C[C@H](NC1)C(=O)N2C[C@@H](C[C@H]2C(=O)O)O
Method: HCD
Collision_energy: [28.333334]
Isolation_window: 4.0
Ion_mode: P
Num Peaks: 24
70.0655	100.0
70.0695	0.7
71.0689	4.0
72.0811	0.8
86.0967	1.4
96.0810	3.5
113.1075	0.7
114.0914	3.1
116.0707	0.9
132.0655	2.3
209.1648	3.4
227.1753	16.4
228.0870	0.8
228.1020	0.8
228.1789	3.9
229.0495	11.0
229.0975	1.1
229.1182	40.4
229.1410	13.8
230.0532	1.3
230.0812	0.7
230.1218	4.3
230.1443	1.5
231.1213	1.7

Name: Promazine
PrecursorMZ: 284.13519
RT: 8.9164
ExactMass: 284.13471982
Spectrum_type: 2
charge: 1
Formula: C17H20N2S
SMILES: CN(C)CCCN1C2=CC=CC=C2SC3=CC=CC=C31
Method: HCD
Collision_energy: [28.333334]
Isolation_window: 4.0
Ion_mode: P
Num Peaks: 19
59.0609	4.6
114.0915	16.0
146.0925	10.1
152.0820	4.5
163.0614	4.1
164.0820	4.5
210.1113	11.1
231.0877	11.8
239.1136	9.2
249.0983	9.0
255.1090	4.9
266.1247	4.4
267.1087	17.3
284.1135	4.9
284.1353	100.0
284.1481	4.9
285.1191	6.6
285.1387	9.7
286.1285	8.5

Name: Promethazine
PrecursorMZ: 285.14369
RT: 5.886
ExactMass: 284.13471982
Spectrum_type: 2
charge: 1
Formula: C17H20N2S
SMILES: CC(CN1C2=CC=CC=C2SC3=CC=CC=C31)N(C)C
Method: HCD
Collision_energy: [28.333334]
Isolation_window: 4.0
Ion_mode: P
Num Peaks: 44
85.0284	3.5
112.0755	7.3
116.0704	4.3
136.0752	3.9
140.0701	2.2
142.0857	3.2
148.0989	2.3
161.1068	8.3
175.1222	4.3
180.0648	9.4
182.0805	7.1
183.1125	3.2
189.1014	10.0
191.1170	4.6
197.0913	3.3
203.1171	41.3
204.1205	5.8
207.0756	3.2
207.1119	5.5
208.0596	16.8
211.1069	39.7
219.1119	5.4
221.1276	13.9
222.0752	5.1
225.0860	10.0
231.1119	22.5
232.0596	6.3
232.1153	3.9
249.1223	19.9
250.0699	16.8
250.1260	2.8
267.1328	26.8
268.1165	2.4
268.1360	3.2
269.1121	33.8
284.1238	3.4
284.2930	2.4
284.3299	10.6
285.1432	100.0
285.1820	3.0
285.3338	2.8
286.1059	2.6
286.1269	7.4
286.1462	13.0

Name: Promethazine Hydrochloride
PrecursorMZ: 285.14429
RT: 5.4115
ExactMass: 320.1113975
Spectrum_type: 2
charge: 1
Formula: C17H21ClN2S
SMILES: CC(CN1C2=CC=CC=C2SC3=CC=CC=C31)N(C)C.Cl
Method: HCD
Collision_energy: [28.333334]
Isolation_window: 4.0
Ion_mode: P
Num Peaks: 181
55.0547	0.2
60.0449	0.3
60.0562	0.6
68.0498	0.2
69.0339	0.5
70.0656	3.1
71.0496	0.3
72.0449	0.2
72.0813	0.6
74.0715	0.2
80.0500	0.4
81.0339	0.3
82.0654	0.3
83.0497	0.5
83.0607	0.5
84.0448	0.6
84.0812	3.0
85.0287	0.6
85.0845	0.2
86.0604	2.8
87.0444	3.6
90.0553	0.5
96.0447	0.5
96.0812	0.3
97.0288	0.4
98.0351	0.2
98.0604	1.2
98.0712	0.3
99.0443	0.8
100.0759	0.6
101.0600	2.5
102.0552	0.3
104.0709	1.2
108.0811	0.6
110.0715	0.3
111.0556	0.2
112.0758	0.6
112.0873	0.7
113.0713	0.3
114.0552	0.5
114.0664	2.5
114.1028	1.0
115.0871	0.4
116.0709	1.9
117.0549	0.3
118.0867	0.3
122.0602	0.4
124.0395	0.4
125.0712	0.2
126.0551	0.6
126.0662	0.2
126.0915	0.2
127.0389	0.2
128.0708	0.3
128.0819	1.2
129.0659	2.4
129.1026	0.5
130.0500	0.3
130.0865	2.8
130.0971	0.3
132.0768	0.6
136.0758	0.5
137.0711	0.2
138.0550	0.4
138.0661	0.3
138.0913	0.2
140.0707	0.3
140.0817	0.3
141.0656	0.3
143.0814	0.2
144.0657	2.8
146.0827	0.7
146.0925	16.6
147.0968	0.7
147.1126	0.4
152.0706	0.4
153.0655	0.3
154.0864	0.2
155.0810	0.3
156.0769	0.4
158.0925	0.4
159.0765	0.2
161.0926	0.7
162.0764	0.7
164.0707	0.3
166.0618	0.7
166.0863	0.2
166.0978	0.2
168.0782	0.7
170.0934	0.3
171.0765	0.6
172.0720	0.2
174.0876	0.7
175.1193	0.6
180.0769	0.6
182.0793	0.7
182.0962	0.5
184.0718	1.5
185.0923	0.6
186.0875	1.3
187.0713	0.4
188.1045	0.3
194.0940	0.4
195.0767	0.9
195.1131	0.2
197.0924	0.2
198.0877	0.5
199.1071	0.2
199.1212	0.2
200.0903	3.3
201.0937	0.3
204.0983	0.7
208.1101	0.3
209.0921	0.3
210.0871	0.2
212.1034	1.1
213.0871	0.9
224.0999	0.3
225.0860	0.3
226.1195	0.5
227.1025	0.7
228.1003	0.3
230.1012	0.7
236.1036	0.5
237.0867	0.5
239.1139	0.3
242.1136	0.6
243.0973	0.3
244.1301	0.4
254.1142	1.6
255.0958	0.5
256.1299	0.2
257.1266	0.2
269.1239	0.3
272.1242	14.4
273.1047	3.3
273.1294	0.7
274.1048	0.3
274.1342	0.2
278.1510	0.5
283.1382	0.4
284.0917	0.9
285.1126	0.3
285.1446	4.2
285.1830	0.3
286.0943	0.3
286.1290	1.3
286.1519	0.8
287.1339	1.9
287.1669	0.2
288.1082	1.3
289.1506	4.9
289.1857	0.2
290.1346	100.0
290.2023	0.6
290.2933	0.2
291.1126	1.3
291.1406	10.1
292.1141	0.7
292.1497	8.0
293.1541	0.8
294.1512	0.7
295.1354	0.2
295.1648	0.4
296.1654	0.5
297.1469	0.4
297.1812	0.5
298.1749	0.3
299.1257	0.5
299.1633	0.4
300.1132	0.3
300.1437	13.1
301.1469	4.2
302.1016	1.9
302.1307	1.1
303.1046	0.2
303.1277	0.6
303.1634	0.9
304.1125	0.3
304.1535	2.3
305.1349	0.3

Name: Propamocarb
PrecursorMZ: 189.15978
RT: 15.0455
ExactMass: 188.152477885
Spectrum_type: 2
charge: 1
Formula: C9H20N2O2
SMILES: CCCOC(=O)NCCCN(C)C
Method: HCD
Collision_energy: [28.333334]
Isolation_window: 4.0
Ion_mode: P
Num Peaks: 32
58.0657	9.5
60.0814	9.4
62.0606	6.2
69.0340	38.2
84.0813	18.2
87.0445	27.1
88.0764	6.7
89.0602	16.9
95.0860	4.4
96.9956	9.2
98.0605	11.0
102.0917	19.6
106.0866	6.5
114.0921	5.5
116.0710	47.3
118.0322	4.4
123.0113	6.4
130.0865	23.5
135.0111	4.6
135.0442	18.7
136.0421	8.3
149.0237	17.5
165.0217	100.0
166.0225	7.6
182.0481	4.5
189.1599	17.3
190.1079	16.9
194.1179	58.7
195.1216	7.7
202.1805	67.4
203.1838	8.4
206.0256	6.2

Name: Propentofylline
PrecursorMZ: 324.20282
RT: 1.5036
ExactMass: 306.16919058
Spectrum_type: 2
charge: 1
Formula: C15H22N4O3
SMILES: CCCN1C=NC2=C1C(=O)N(C(=O)N2C)CCCCC(=O)C
Method: HCD
Collision_energy: [28.333334]
Isolation_window: 4.0
Ion_mode: P
Num Peaks: 57
70.0656	14.6
81.0340	5.3
84.0811	3.5
85.0289	3.9
89.0603	3.7
96.0446	3.5
98.0969	8.3
98.9844	4.4
100.0760	5.0
111.0443	7.1
116.0708	5.0
122.0818	5.4
122.0967	15.6
130.0655	3.6
132.0448	4.5
166.0727	100.0
167.0767	6.2
192.1141	7.1
220.1198	5.3
240.2321	3.5
265.1565	3.4
297.1230	5.7
313.1180	4.9
319.1295	27.1
320.1323	3.7
323.1265	8.6
323.1617	8.4
324.1466	17.7
324.2034	32.0
325.1438	15.7
325.2088	3.9
326.1195	4.8
326.1640	5.7
327.1313	4.8
327.1609	6.3
327.1933	6.1
328.1394	9.9
329.1770	3.6
330.1631	3.7
330.3365	6.6
331.1275	13.9
331.1913	4.2
332.1161	5.5
332.1676	4.4
333.1453	4.9
334.1303	11.3
335.1259	4.8
335.1627	6.9
336.1695	14.0
337.1387	36.6
338.1661	3.8
339.1570	15.7
340.1418	10.1
341.1374	5.7
341.1759	5.4
342.1582	16.2
343.1553	8.2

Name: Propionyl-L-Carnitine
PrecursorMZ: 218.13852
RT: 4.5628
ExactMass: 217.13140809
Spectrum_type: 2
charge: 1
Formula: C10H19NO4
SMILES: CCC(=O)O[C@H](CC(=O)[O-])C[N+](C)(C)C
Method: HCD
Collision_energy: [28.333334]
Isolation_window: 4.0
Ion_mode: P
Num Peaks: 13
55.0547	4.0
83.0495	3.1
100.0760	7.1
101.0599	30.5
102.0634	2.0
118.0864	9.3
138.0913	6.2
154.1228	4.5
182.1176	15.3
183.1211	1.5
218.1388	100.0
219.1421	10.2
220.1444	1.3

Name: Propyl 2-amino-3-(4-hydroxyphenyl)propanoate
PrecursorMZ: 224.12803
RT: 0.6581
ExactMass: 223.1208434
Spectrum_type: 2
charge: 1
Formula: C12H17NO3
SMILES: CCCOC(=O)C(CC1=CC=C(C=C1)O)N
Method: HCD
Collision_energy: [28.333334]
Isolation_window: 4.0
Ion_mode: P
Num Peaks: 64
55.0547	2.1
58.0656	2.0
59.0496	5.2
73.0652	0.9
83.0495	6.2
83.0858	1.3
86.0605	1.1
86.0970	1.2
87.0444	3.0
89.0600	49.5
90.0634	2.3
93.0701	2.2
95.0856	2.0
101.0600	25.4
101.0966	1.4
102.0631	1.2
103.0756	1.4
107.0704	1.1
109.1013	1.5
121.0648	1.6
123.0917	1.5
124.0758	44.9
125.0793	3.3
125.1074	10.8
126.0551	4.1
133.0860	21.3
134.0888	1.2
136.0759	3.2
138.0914	10.9
139.0954	1.2
145.1224	1.0
146.0715	1.7
151.0967	4.1
165.0547	3.2
175.1478	1.3
177.1126	1.6
180.1021	0.9
195.1230	1.9
207.1607	3.2
214.0977	17.5
215.1013	2.4
223.1440	5.1
224.1281	100.0
225.1313	14.3
225.1595	48.4
226.1074	12.0
226.1327	1.3
226.1626	5.9
227.1102	1.5
231.1130	1.5
232.1083	31.7
233.1101	3.5
233.1290	3.0
234.1100	1.9
235.1061	1.9
235.1444	1.0
236.1281	12.8
236.2011	1.0
237.1293	2.6
238.1437	31.7
239.1482	8.2
242.0841	5.3
244.0964	2.2
244.2635	2.6

Name: Propyl 2-benzamido-3-pyridin-4-ylprop-2-enoate
PrecursorMZ: 311.13873
RT: 3.0087
ExactMass: 310.13174244
Spectrum_type: 2
charge: 1
Formula: C18H18N2O3
SMILES: CCCOC(=O)C(=CC1=CC=NC=C1)NC(=O)C2=CC=CC=C2
Method: HCD
Collision_energy: [28.333334]
Isolation_window: 4.0
Ion_mode: P
Num Peaks: 20
69.4544	1.9
81.0700	1.2
106.0652	1.4
107.0853	1.2
130.0650	1.5
145.1010	2.8
147.0437	1.9
223.0862	1.2
236.0940	2.4
237.1018	4.2
251.1170	3.1
296.1148	43.2
297.1184	7.8
309.2569	5.9
310.2605	2.0
311.1382	100.0
311.1661	1.4
312.1416	19.5
312.2525	1.6
313.1454	1.5

Name: Prostaglandin H1
PrecursorMZ: 337.23686
RT: 4.6198
ExactMass: 354.24062418
Spectrum_type: 2
charge: 1
Formula: C20H34O5
SMILES: CCCCC[C@@H](/C=C/[C@H]1[C@H]2C[C@@H]([C@@H]1CCCCCCC(=O)O)OO2)O
Method: HCD
Collision_energy: [28.333334]
Isolation_window: 4.0
Ion_mode: P
Num Peaks: 56
55.0542	2.4
57.0698	4.5
67.0541	3.1
69.0697	10.0
71.0853	4.4
81.0696	9.2
83.0853	9.4
93.0695	4.8
95.0856	8.3
97.0649	3.8
97.1012	9.5
99.0436	3.2
100.0757	3.2
107.0603	6.0
107.0856	6.7
109.1012	9.4
111.0804	3.0
111.1168	4.1
114.0907	2.8
119.0855	2.4
121.1010	6.6
123.1169	3.1
124.0755	3.3
125.0960	2.4
127.1117	4.0
128.1063	2.2
133.1011	3.1
135.1166	5.7
139.1113	2.7
147.1167	3.5
149.1324	4.3
155.1066	3.1
161.1071	33.3
163.1228	5.5
163.1482	2.5
164.0704	10.9
175.1227	19.2
177.1383	3.3
179.1176	4.2
182.0808	9.8
193.1334	3.5
219.1371	3.7
237.1484	3.1
274.1908	8.7
301.2150	2.6
303.3041	3.0
319.2257	2.5
320.1961	100.0
321.1995	10.0
321.3145	6.0
337.1393	2.4
337.2355	2.5
338.1228	5.8
338.2067	80.0
338.3409	33.1
339.2101	8.0

Name: Prulaurasin
PrecursorMZ: 296.11228
RT: 2.0149
ExactMass: 295.10558726
Spectrum_type: 2
charge: 1
Formula: C14H17NO6
SMILES: C1=CC=C(C=C1)C(C#N)O[C@H]2[C@@H]([C@H]([C@@H]([C@H](O2)CO)O)O)O
Method: HCD
Collision_energy: [28.333334]
Isolation_window: 4.0
Ion_mode: P
Num Peaks: 159
57.0340	55.8
59.0496	4.4
67.0547	5.6
69.0340	2.9
69.0703	5.2
70.0656	23.5
71.0495	3.8
72.0813	3.7
74.0605	3.7
75.0445	100.0
79.0546	2.5
80.0499	2.8
81.0338	14.0
81.0703	5.5
82.0657	2.6
83.0495	17.7
84.0811	19.9
85.0287	4.9
86.0605	2.6
86.0967	6.4
87.0444	18.0
88.0396	2.6
93.0549	15.3
93.0702	3.0
95.0856	3.5
96.0447	31.1
97.0287	3.8
97.0651	3.8
98.0603	5.1
98.0967	3.1
99.0443	3.0
100.0760	2.7
101.0600	13.8
102.0552	4.8
105.0702	4.6
109.1014	2.8
110.0604	9.2
111.0443	65.3
112.0478	3.6
112.0759	4.5
113.0599	9.8
114.0553	6.1
116.0708	13.9
119.0705	16.0
120.0658	5.2
120.0810	6.3
121.1015	3.1
122.0604	4.7
124.0759	8.8
125.0712	2.8
126.0551	3.6
126.0915	4.4
128.0705	3.4
129.0548	13.3
130.0864	6.8
131.0704	60.4
132.0811	3.4
136.0392	2.6
136.0758	5.6
138.0552	2.9
138.0915	3.7
139.0863	2.5
140.0708	5.4
142.0870	2.8
143.0706	2.9
144.1019	5.1
146.0966	4.7
148.0755	2.5
149.0810	52.2
150.0548	2.9
150.0915	3.1
152.0706	5.1
154.0863	3.4
164.0705	6.2
164.1067	3.3
166.0862	3.9
167.0918	31.6
168.0653	3.4
172.0975	2.7
178.0859	3.3
180.1018	33.7
181.1063	2.6
186.0761	18.9
190.0856	2.6
191.1180	17.2
192.1019	4.8
193.0968	3.0
195.1130	2.7
199.1075	4.2
205.1090	7.4
209.1287	2.8
210.1122	2.5
213.1219	3.1
223.1182	14.6
230.1019	3.0
230.1385	6.4
241.1301	5.9
254.1045	8.4
254.1492	4.6
255.1120	2.6
257.1274	3.4
258.1330	5.4
272.1509	7.7
275.2008	6.3
276.1449	11.1
277.1186	3.0
277.1517	4.4
279.1353	3.6
283.1302	4.9
288.1465	3.8
293.2112	15.0
294.1343	6.6
294.1555	3.0
294.2085	4.8
295.1314	9.8
295.1661	20.6
296.1133	11.4
296.1551	7.6
297.1473	23.8
297.1824	4.0
298.1070	2.9
298.1397	13.5
299.1323	7.1
299.1635	6.1
299.2050	2.6
300.1234	6.7
300.1550	12.2
301.1172	7.9
301.1469	14.1
302.1373	8.0
303.1333	10.5
303.1635	8.2
304.1180	15.4
304.1565	6.7
305.1155	6.4
305.1505	14.6
305.1871	4.2
306.1285	15.2
306.1806	2.7
307.1322	9.2
307.1655	21.0
308.1192	7.7
308.1716	79.9
309.1462	8.5
309.1779	22.9
310.1303	6.0
310.1814	4.3
311.1303	2.6
311.1604	45.9
312.1228	2.9
312.1651	7.3
312.1979	4.1
313.1183	22.1
313.1519	7.4
313.1888	3.8
314.1387	10.3
314.1710	3.0
315.1330	28.3
315.1648	74.3

Name: Pseudo-anisatin
PrecursorMZ: 321.13064
RT: 2.7032
ExactMass: 298.14163842
Spectrum_type: 2
charge: 1
Formula: C15H22O6
SMILES: C[C@H]1C[C@H]([C@@]2([C@]13CC(=O)[C@@]([C@@]2(COC(=O)C3)C)(C)O)O)O
Method: HCD
Collision_energy: [28.333334]
Isolation_window: 4.0
Ion_mode: P
Num Peaks: 3
321.1304	100.0
321.2391	6.4
322.1340	12.9

Name: Pseudolaric acid C
PrecursorMZ: 391.17071
RT: 6.9518
ExactMass: 390.16785316
Spectrum_type: 2
charge: 1
Formula: C21H26O7
SMILES: C/C(=C\C=C\[C@@]1([C@@H]2CC[C@@]3([C@@]2(CCC(=CC3)C(=O)OC)O)C(=O)O1)C)/C(=O)O
Method: HCD
Collision_energy: [28.333334]
Isolation_window: 4.0
Ion_mode: P
Num Peaks: 30
59.0609	0.9
87.0444	13.5
88.0478	0.9
149.0234	1.3
149.0708	1.4
163.0872	0.9
173.0711	0.8
191.0816	3.0
209.0918	2.2
211.1083	1.0
214.0948	0.8
215.0814	0.8
215.1029	1.8
227.1027	3.6
233.0929	1.5
251.1034	1.0
269.1131	1.6
272.1370	1.3
287.1238	2.4
300.1313	0.8
301.1393	10.1
302.1414	1.5
305.1345	7.5
306.1374	0.9
391.1712	100.0
392.1743	18.9
393.1764	3.9
394.1770	0.8
399.1584	0.9
405.1876	2.3

Name: Pterosin B
PrecursorMZ: 219.13796
RT: 1.5722
ExactMass: 218.130679813
Spectrum_type: 2
charge: 1
Formula: C14H18O2
SMILES: C[C@@H]1CC2=C(C1=O)C(=C(C(=C2)C)CCO)C
Method: HCD
Collision_energy: [28.333334]
Isolation_window: 4.0
Ion_mode: P
Num Peaks: 40
67.0546	4.6
71.0495	5.0
79.0546	5.0
81.0702	9.3
87.0443	7.0
89.0600	5.0
91.0545	10.5
93.0701	9.2
95.0858	4.1
105.0701	13.0
107.0856	5.3
117.0700	11.0
119.0858	6.6
131.0855	20.3
133.1012	4.4
135.0805	9.9
141.0699	5.2
143.0856	6.5
145.1012	14.0
149.0961	4.0
155.0856	9.3
157.1012	11.3
159.0806	5.8
159.1169	42.5
160.1201	5.5
161.0962	15.8
163.0755	4.3
173.1325	43.0
174.1359	5.0
183.1167	27.8
184.1203	4.4
191.1431	8.0
201.1273	59.9
202.0499	6.1
202.1307	9.1
218.0812	5.1
219.1379	100.0
220.0607	6.0
220.0967	4.8
220.1415	12.2

Name: Puerarin
PrecursorMZ: 439.10097
RT: 5.6469
ExactMass: 416.11073221
Spectrum_type: 2
charge: 1
Formula: C21H20O9
SMILES: C1=CC(=CC=C1C2=COC3=C(C2=O)C=CC(=C3[C@H]4[C@@H]([C@H]([C@@H]([C@H](O4)CO)O)O)O)O)O
Method: HCD
Collision_energy: [28.333334]
Isolation_window: 4.0
Ion_mode: P
Num Peaks: 33
69.0338	1.5
81.0337	8.7
81.0450	3.3
98.9843	3.0
99.0441	6.3
100.0758	1.6
127.0501	14.4
159.0913	1.7
172.0865	2.4
184.0869	1.6
216.0765	1.7
243.0873	12.9
254.1284	1.8
263.0814	1.6
298.1184	2.2
323.1132	5.5
334.0950	3.6
341.1238	18.1
342.1274	2.7
359.1339	7.7
360.1381	1.8
378.0842	1.6
396.0947	17.4
397.0747	1.9
397.1012	2.7
403.0790	2.1
421.0899	13.1
422.2530	2.0
438.1276	1.7
439.1005	100.0
439.2796	8.1
440.1039	22.3
441.1044	2.2

Name: Puerol B
PrecursorMZ: 313.10662
RT: 7.3497
ExactMass: 312.09977361
Spectrum_type: 2
charge: 1
Formula: C18H16O5
SMILES: COC1=CC(=C(C=C1)C2=CC(=O)OC2CC3=CC=C(C=C3)O)O
Method: HCD
Collision_energy: [28.333334]
Isolation_window: 4.0
Ion_mode: P
Num Peaks: 14
121.0283	9.1
147.0438	5.4
211.0748	9.4
249.0906	5.7
253.0855	31.2
254.0891	7.3
267.1011	12.6
271.0958	3.3
277.0853	53.4
278.0888	9.0
295.0958	100.0
296.0992	19.6
313.0699	3.5
313.1050	5.1

Name: Putative (3-hydroxyheptadecanoyl)glycine
PrecursorMZ: 344.27915
RT: 2.1547
ExactMass: 343.27225866
Spectrum_type: 2
charge: 1
Formula: C19H37NO4
SMILES: CCCCCCCCCCCCCCC(CC(=O)NCC(=O)O)O
Method: HCD
Collision_energy: [28.333334]
Isolation_window: 4.0
Ion_mode: P
Num Peaks: 21
57.0703	4.3
67.0547	3.8
69.0703	10.5
69.0809	3.1
76.0396	100.0
81.0702	9.0
83.0858	9.4
93.0701	3.7
95.0857	7.9
97.1013	9.0
97.3981	4.7
109.1013	4.1
111.1171	4.7
121.1012	8.6
135.1168	7.1
233.2261	4.8
251.2369	3.8
326.2686	46.4
327.2726	10.0
344.2791	21.3
345.2833	4.5

Name: Putative Trp-C3:0 / Proprionate conjugated tryptophan
PrecursorMZ: 261.12329
RT: 5.5993
Spectrum_type: 2
charge: 1
Method: HCD
Collision_energy: [28.333334]
Isolation_window: 4.0
Ion_mode: P
Num Peaks: 22
114.0916	14.1
130.0652	37.4
136.0756	15.0
146.0601	15.3
159.0917	64.8
188.0705	100.0
189.0740	12.4
205.0970	29.6
215.1178	51.4
217.0968	21.2
221.0596	21.2
245.0922	9.5
260.0917	28.3
260.1257	10.1
261.1212	13.1
261.1597	9.6
262.0708	9.4
262.1071	21.1
262.2376	14.0
263.0819	11.0
263.1026	28.2
263.1378	11.2

Name: Pyocyanin
PrecursorMZ: 211.08643
RT: 1.143
ExactMass: 210.079312947
Spectrum_type: 2
charge: 1
Formula: C13H10N2O
SMILES: CN1C2=CC=CC=C2N=C3C1=CC=CC3=O
Method: HCD
Collision_energy: [28.333334]
Isolation_window: 4.0
Ion_mode: P
Num Peaks: 3
210.0791	16.2
211.0863	100.0
212.0899	15.1

Name: Pyraclonil
PrecursorMZ: 315.11184
RT: 5.128066666666667
ExactMass: 314.1046722
Spectrum_type: 2
charge: 1
Formula: C15H15ClN6
SMILES: CN(CC#C)C1=C(C=NN1C2=NN3CCCCC3=C2Cl)C#N
Method: HCD
Collision_energy: [28.333334]
Isolation_window: 4.0
Ion_mode: P
Num Peaks: 48
70.0655	1.6
72.0811	1.8
81.0449	2.9
85.0287	2.6
85.0651	1.6
86.0967	1.6
116.0707	2.7
120.0808	2.6
121.0842	2.1
122.0713	93.6
123.0746	5.5
123.0791	2.8
131.0161	22.3
137.0819	2.1
138.0661	5.6
139.0977	40.5
140.0818	5.1
140.1011	2.8
166.0531	2.4
167.0926	22.5
168.0958	2.0
176.8751	5.5
192.0589	2.9
210.0693	34.3
211.0729	2.3
220.0774	12.2
221.0860	2.7
221.1399	2.0
233.0850	3.2
234.0695	1.8
249.1342	2.4
251.0957	94.1
252.0995	10.0
269.1063	39.8
270.1103	4.6
297.1013	5.2
314.0636	4.0
314.1233	1.8
314.1368	2.1
314.1738	1.6
314.2322	1.6
315.1117	100.0
315.1311	3.8
315.1705	1.8
315.1906	2.3
316.1151	14.8
316.1535	1.7
317.1495	1.7

Name: Pyridoxamine
PrecursorMZ: 169.09714
RT: 3.649
ExactMass: 168.08987763
Spectrum_type: 2
charge: 1
Formula: C8H12N2O2
SMILES: CC1=NC=C(C(=C1O)CN)CO
Method: HCD
Collision_energy: [28.333334]
Isolation_window: 4.0
Ion_mode: P
Num Peaks: 13
110.0601	9.7
121.0762	14.0
133.0761	24.7
139.0864	8.9
140.0706	10.0
151.0866	74.6
153.0658	32.6
167.1542	11.5
168.0688	36.4
168.1018	9.3
169.0766	19.0
169.0971	100.0
170.1007	9.8

Name: Pyrogallol
PrecursorMZ: 127.03892
RT: 9.0227
ExactMass: 126.031694049
Spectrum_type: 2
charge: 1
Formula: C6H6O3
SMILES: C1=CC(=C(C(=C1)O)O)O
Method: HCD
Collision_energy: [28.333334]
Isolation_window: 4.0
Ion_mode: P
Num Peaks: 12
53.0390	15.8
69.0339	89.5
81.0338	48.3
82.0655	29.8
98.0602	15.7
99.0443	13.2
109.0285	100.0
126.0914	65.9
127.0390	28.3
127.0724	17.7
127.1229	11.0
128.0706	22.9

Name: Pyroglutamate
PrecursorMZ: 130.04989
RT: 7.7169
Spectrum_type: 2
charge: 1
SMILES: O=C(O)[C@@H]1CCC(O)=N1
Method: HCD
Collision_energy: [28.333334]
Isolation_window: 4.0
Ion_mode: P
Num Peaks: 20
56.0499	1.2
57.0703	15.8
74.0968	22.8
75.1002	1.1
76.0396	1.9
82.0655	1.0
84.0447	70.4
84.0811	2.3
85.0480	3.0
86.0967	6.2
97.3996	1.1
114.0550	0.7
114.0915	1.3
129.1386	4.5
130.0499	14.1
130.0652	1.1
130.0862	0.9
130.1590	100.0
131.0815	2.0
131.1623	10.5

Name: Pyroglutamylisoleucine
PrecursorMZ: 243.13341
RT: 2.1901
ExactMass: 242.12665706
Spectrum_type: 2
charge: 1
Formula: C11H18N2O4
SMILES: CCC(C)C(C(=O)O)NC(=O)C1CCC(=O)N1
Method: HCD
Collision_energy: [28.333334]
Isolation_window: 4.0
Ion_mode: P
Num Peaks: 32
69.8470	6.1
70.0653	6.1
72.0809	5.8
84.0445	73.8
86.0965	100.0
98.0601	10.1
98.0964	6.7
99.0439	9.3
100.0756	27.0
108.0442	9.7
126.0546	7.7
129.0657	16.2
132.1016	60.2
136.0389	14.5
138.0909	8.1
154.0496	34.8
166.0858	42.3
194.0807	9.6
196.0960	6.6
197.1279	61.8
198.0936	6.1
198.1118	5.9
198.1313	6.5
208.0963	6.9
216.1041	8.2
241.2352	74.0
242.0803	6.0
242.1019	7.2
242.1197	22.1
242.2379	9.0
243.1331	13.7
244.1170	7.4

Name: Pyroglutamylphenylalanine
PrecursorMZ: 277.1182
RT: 5.8562
ExactMass: 276.111007
Spectrum_type: 2
charge: 1
Formula: C14H16N2O4
SMILES: C1CC(=O)NC1C(=O)NC(CC2=CC=CC=C2)C(=O)O
Method: HCD
Collision_energy: [28.333334]
Isolation_window: 4.0
Ion_mode: P
Num Peaks: 39
70.0656	2.3
81.0339	2.1
84.0447	39.6
85.0482	1.9
120.0809	100.0
121.0842	6.7
131.0492	1.5
134.0601	2.1
142.0499	1.6
149.0595	1.9
161.1073	2.0
162.0551	2.7
166.0864	68.1
167.0896	6.7
186.0914	6.0
203.1175	1.6
231.1127	36.1
232.0970	2.2
232.1166	4.9
234.1850	4.7
259.1074	3.1
259.1445	2.8
260.0915	1.8
275.1633	2.5
276.0271	2.9
276.0863	4.8
276.1226	3.0
276.1961	1.5
277.0855	2.9
277.1181	18.7
277.1544	9.7
277.2160	1.6
278.1017	5.1
278.1219	3.0
278.1387	1.7
278.1607	1.6
279.0946	1.6
279.0980	2.3
279.1349	2.3

Name: Pyroglutamylproline
PrecursorMZ: 227.10241
RT: 6.1172
ExactMass: 226.09535693
Spectrum_type: 2
charge: 1
Formula: C10H14N2O4
SMILES: C1CC(N(C1)C(=O)C2CCC(=O)N2)C(=O)O
Method: HCD
Collision_energy: [28.333334]
Isolation_window: 4.0
Ion_mode: P
Num Peaks: 36
70.0655	27.3
71.0689	1.0
81.0338	0.8
84.0447	44.0
85.0480	1.4
86.0966	3.7
96.0809	1.3
110.0714	1.3
114.0914	1.2
116.0707	100.0
117.0740	4.0
126.0550	1.1
156.0768	1.1
163.0865	0.9
181.0970	10.8
181.1333	1.0
191.0813	1.0
208.0966	1.2
209.0919	4.3
209.1645	2.3
210.0868	2.4
226.0700	1.9
226.1070	4.6
226.1183	1.5
227.0812	1.1
227.1022	26.6
227.1385	3.0
227.1750	11.1
228.0879	1.2
228.1066	2.9
228.1230	1.9
228.1339	1.2
228.1790	1.3
228.2317	1.7
229.0636	0.9
229.1542	3.3

Name: Pyroglutamyltyrosine
PrecursorMZ: 293.11304
RT: 6.6018
ExactMass: 292.10592162
Spectrum_type: 2
charge: 1
Formula: C14H16N2O5
SMILES: C1CC(=O)NC1C(=O)NC(CC2=CC=C(C=C2)O)C(=O)O
Method: HCD
Collision_energy: [28.333334]
Isolation_window: 4.0
Ion_mode: P
Num Peaks: 89
67.0547	5.3
69.0703	4.7
70.0655	6.7
72.0812	4.5
79.0546	3.7
81.0338	3.6
81.0702	8.5
83.0858	5.0
84.0447	52.3
86.0604	6.1
86.0967	6.8
91.0545	3.7
93.0702	5.6
95.0858	5.6
97.3990	4.2
100.0759	3.3
105.0701	4.3
106.0653	7.0
107.0493	6.3
107.0858	3.9
108.0811	4.1
109.1014	4.8
112.0759	6.1
119.0493	4.1
119.0857	3.9
120.0808	3.3
121.1013	5.4
123.0441	9.1
125.0710	3.1
126.0914	8.3
130.0498	6.3
133.1012	4.3
135.1168	4.6
136.0757	100.0
137.0597	3.2
137.0790	7.8
139.0390	4.8
145.1012	3.7
147.0440	4.0
147.1168	3.5
150.0775	6.8
151.1118	4.9
153.0659	5.0
160.0758	4.1
162.0550	5.7
163.0392	3.4
165.0547	43.8
165.0660	3.3
166.0579	4.3
166.0863	14.9
168.1019	16.6
175.0754	4.3
181.0495	3.8
182.0812	71.5
183.0848	5.3
190.0975	3.4
191.0701	4.2
194.0814	3.5
202.0863	8.7
231.0655	5.0
233.0811	3.8
245.0920	6.4
246.1125	3.8
247.0966	3.5
247.1076	57.8
248.0914	4.3
248.1112	8.6
248.1280	3.4
274.1069	7.1
275.1035	4.4
275.1389	4.8
275.2005	7.9
276.1222	3.6
277.0823	5.4
277.2162	8.1
291.1945	4.1
292.0817	3.7
292.1169	18.2
292.1516	4.6
293.1132	46.6
293.1487	4.7
293.2107	7.7
294.0967	11.0
294.1153	5.5
294.1334	17.7
294.2051	4.0
295.0960	4.6
295.1293	6.1
295.1651	3.7

Name: Pyropheophytin a
PrecursorMZ: 813.56679
RT: 0.9814499999999999
ExactMass: 812.56044217
Spectrum_type: 2
charge: 1
Formula: C53H72N4O3
SMILES: CCC1=C(C2=NC1=CC3=C(C4=C(CC(=C5[C@H]([C@@H](C(=CC6=NC(=C2)C(=C6C)C=C)N5)C)CCC(=O)OC/C=C(\C)/CCCC(C)CCCC(C)CCCC(C)C)C4=N3)O)C)C
Method: HCD
Collision_energy: [28.333334]
Isolation_window: 4.0
Ion_mode: P
Num Peaks: 16
59.4745	5.8
90.3968	3.0
97.3998	4.2
435.2525	4.4
447.2175	6.9
461.2335	8.3
462.2382	3.8
507.2753	9.1
508.2772	3.5
534.2622	28.5
535.2696	100.0
536.2735	34.2
537.2769	3.0
813.5668	53.1
814.5706	25.6
815.5748	3.9

Name: Pyrrolidine
PrecursorMZ: 72.08107
RT: 3.0399
ExactMass: 71.073499291
Spectrum_type: 2
charge: 1
Formula: C4H9N
SMILES: C1CCNC1
Method: HCD
Collision_energy: [28.333334]
Isolation_window: 4.0
Ion_mode: P
Num Peaks: 8
55.0546	76.2
56.0498	5.9
57.0576	26.7
70.0484	5.7
70.0654	100.0
71.0687	9.2
72.0810	74.7
74.0966	8.7

Name: Pyrrolidone carboxylic acid
PrecursorMZ: 130.04989
RT: 4.2919
ExactMass: 129.042593085
Spectrum_type: 2
charge: 1
Formula: C5H7NO3
SMILES: C1CC(=O)NC1C(=O)O
Method: HCD
Collision_energy: [28.333334]
Isolation_window: 4.0
Ion_mode: P
Num Peaks: 36
56.0500	0.2
83.0608	1.6
84.0190	0.4
84.0342	0.7
84.0363	0.5
84.0447	100.0
84.0528	0.6
84.0552	0.7
84.0584	0.3
84.0640	0.2
84.0675	0.3
85.0287	1.8
85.0420	0.4
85.0479	4.5
88.0394	0.4
98.0601	0.3
100.0758	0.6
102.0410	0.2
102.0551	39.4
102.0691	0.2
103.0584	1.7
129.0659	0.6
130.0297	0.2
130.0499	38.4
130.0654	0.2
130.0699	0.2
131.0341	0.7
131.0534	2.3
132.0543	0.3
137.0459	0.2
141.0657	0.3
144.0652	0.2
146.0814	0.3
148.0604	11.2
148.0968	0.2
149.0641	0.5

Name: Pyrrolo(1,2-a)pyrazine-1,4-dione, hexahydro-3-(1-methylethyl)-
PrecursorMZ: 197.1284
RT: 6.8985
ExactMass: 196.121177757
Spectrum_type: 2
charge: 1
Formula: C10H16N2O2
SMILES: CC(C)C1C(=O)N2CCCC2C(=O)N1
Method: HCD
Collision_energy: [28.333334]
Isolation_window: 4.0
Ion_mode: P
Num Peaks: 149
58.0655	1.2
60.0562	0.8
62.0606	0.8
70.0656	100.0
71.0496	1.9
71.0689	4.3
72.0812	8.5
80.0498	1.8
83.0495	1.5
84.0448	0.9
84.0812	4.8
85.0765	0.8
86.0603	1.0
86.0969	0.9
87.0445	5.5
88.0761	0.9
89.0601	1.3
94.0655	0.9
95.0608	1.6
96.0449	2.1
98.0716	2.1
98.0967	0.9
100.0759	1.5
101.0601	3.9
102.0917	2.6
107.0734	0.8
108.0444	1.0
108.0812	1.2
109.0761	0.9
110.0604	2.0
110.0966	2.3
112.0397	3.2
112.0746	0.9
112.0872	72.7
113.0907	4.0
114.0917	1.6
116.0709	2.4
120.0811	1.9
122.0603	1.0
123.0919	3.5
124.0759	1.2
126.0552	9.3
126.0915	2.1
128.0707	0.8
130.0864	2.2
136.0759	1.7
136.1121	1.1
137.1074	6.6
138.0550	0.8
140.0706	0.8
140.1073	1.0
142.0864	1.4
143.1183	1.0
149.0598	0.8
149.1078	1.5
150.0916	1.2
151.0866	2.3
152.0708	6.7
153.1022	3.3
154.0863	0.8
162.0911	1.1
164.0710	1.7
166.0980	0.9
168.0650	0.9
169.1337	1.3
170.1177	0.8
178.0853	1.0
179.1176	0.9
180.0658	1.1
180.1016	1.6
181.1097	2.0
182.0790	1.3
182.1159	1.2
182.1320	0.8
183.1120	1.2
186.0760	0.9
195.1108	4.4
195.1622	2.3
196.0612	1.5
196.0965	8.5
196.1190	1.2
196.1334	28.0
197.0562	0.9
197.0923	1.3
197.1280	26.3
198.0762	23.7
198.1125	10.0
198.1312	2.5
198.1625	2.1
199.0809	2.9
199.1208	7.8
199.1441	1.2
200.0904	3.1
200.1278	12.1
201.1018	1.6
201.1242	4.0
201.1591	1.0
202.1191	13.9
202.1437	78.1
202.1574	1.7
202.1795	6.9
203.1024	1.5
203.1206	1.7
203.1467	8.2
203.1828	0.8
204.1022	2.3
204.1346	49.5
204.1500	1.0
205.0984	1.7
205.1360	6.4
205.1552	1.4
206.0928	3.1
206.1182	2.2
206.1385	9.0
207.1129	2.1
207.1438	0.9
208.0969	3.8
208.1166	1.2
208.1334	3.9
209.1282	23.0
209.1652	0.8
210.0808	20.3
210.1125	64.8
210.1322	5.6
211.0816	1.7
211.1155	8.4
211.1440	2.3
212.0754	0.9
212.0917	18.0
212.1269	5.6
212.1769	1.3
213.0960	1.9
213.1219	15.0
214.0714	4.8
214.1195	14.3
214.1427	0.9
215.0954	1.0
215.1186	2.9
215.1388	18.3
216.1017	2.3
216.1229	3.7
216.1414	2.1
216.1598	2.4
217.0983	0.8
217.1189	1.5
217.1533	1.6
218.1145	1.9
218.1376	10.0
218.1727	3.1

Name: Quaternium-24 cation
PrecursorMZ: 298.34655
RT: 6.6898
ExactMass: 298.347375408
Spectrum_type: 2
charge: 1
Formula: C20H44N+
SMILES: CCCCCCCCCC[N+](C)(C)CCCCCCCC
Method: HCD
Collision_energy: [28.333334]
Isolation_window: 4.0
Ion_mode: P
Num Peaks: 12
158.1902	2.6
171.0762	2.1
186.2214	3.3
297.1180	3.5
297.1428	6.8
298.1277	13.5
298.1634	2.8
298.3462	100.0
299.3496	21.7
300.1063	2.2
300.1221	3.0
300.1423	2.9

Name: Quinate
PrecursorMZ: 193.07071
RT: 7.1828
ExactMass: 192.0633881
Spectrum_type: 2
charge: 1
Formula: C7H12O6
SMILES: C1[C@H](C([C@@H](CC1(C(=O)O)O)O)O)O
Method: HCD
Collision_energy: [28.333334]
Isolation_window: 4.0
Ion_mode: P
Num Peaks: 57
67.0547	11.0
69.0340	44.9
79.0546	4.1
81.0702	3.1
83.0495	35.3
85.0288	8.9
87.0080	5.7
87.0444	4.9
91.0546	4.5
93.0338	10.8
93.0702	4.0
95.0494	81.3
96.0528	4.7
97.0287	3.2
97.0650	3.7
101.0600	5.8
105.0700	2.7
107.0494	9.3
107.0857	3.2
108.0810	5.3
111.0443	97.1
112.0476	5.3
115.0391	3.4
117.0700	3.0
119.0857	5.1
121.0286	9.4
129.0547	100.0
130.0580	5.5
131.0856	11.4
133.1013	4.6
135.1169	3.7
139.0391	42.0
145.1013	8.6
146.0603	2.7
147.0653	37.4
147.0804	3.8
147.1168	6.9
149.0961	5.6
157.0497	20.0
163.1119	18.2
164.0708	4.0
164.1149	3.3
173.0962	7.2
173.1325	4.6
175.1117	5.6
191.1067	18.0
191.1430	6.1
192.0655	5.4
192.1019	4.7
192.1103	4.7
193.0706	3.7
193.0867	3.3
193.0964	3.4
193.1223	6.2
194.0814	9.0
194.1177	10.5
195.1130	4.1

Name: Quinidine
PrecursorMZ: 347.17075
RT: 2.1369
ExactMass: 324.183778013
Spectrum_type: 2
charge: 1
Formula: C20H24N2O2
SMILES: COC1=CC2=C(C=CN=C2C=C1)[C@@H]([C@H]3C[C@@H]4CCN3C[C@@H]4C=C)O
Method: HCD
Collision_energy: [28.333334]
Isolation_window: 4.0
Ion_mode: P
Num Peaks: 172
55.0547	0.6
58.0656	0.6
70.0656	5.0
72.0812	1.1
80.0498	0.6
81.0340	3.9
83.0496	2.1
84.0812	3.0
85.0653	1.2
87.0445	0.6
94.0654	0.7
95.0493	0.6
95.0607	3.2
96.0448	2.1
96.0684	0.5
96.0811	1.4
98.0602	0.5
98.0967	1.0
99.0442	0.5
100.0760	0.8
101.0600	3.0
108.0449	0.6
109.0765	0.8
110.0605	0.7
110.0713	0.5
110.0842	0.8
111.0443	5.4
111.0555	0.6
112.0759	0.8
114.0667	1.3
116.0708	1.1
118.0864	1.3
120.0808	0.5
121.0648	0.5
122.0603	0.8
123.0918	2.6
124.0758	0.6
126.0552	0.7
126.0912	0.6
128.0705	0.5
129.0545	0.6
130.0654	0.7
130.0864	1.7
134.0600	0.5
136.0757	0.9
137.0597	0.6
139.0389	0.5
142.0501	1.4
144.1019	0.5
146.0601	0.5
148.0757	1.5
150.0557	0.8
150.0916	2.3
152.0707	1.0
152.1070	0.5
154.0866	0.9
157.0612	0.8
160.0756	0.9
162.0913	0.5
163.0866	0.7
164.0704	0.9
165.0784	1.0
166.0324	1.5
166.0866	0.9
166.0981	0.9
167.0812	0.6
171.1132	0.5
173.0712	0.6
176.0703	0.5
177.1026	0.6
178.0848	0.7
180.1012	0.7
181.0968	0.6
182.1177	0.5
184.1090	0.7
188.0709	1.4
189.1037	0.6
190.0844	0.6
194.0806	0.6
195.1131	0.6
196.0953	1.0
202.0841	0.6
206.0810	1.5
216.0661	1.4
218.0812	1.0
219.1136	0.5
220.0979	0.6
220.1193	5.7
221.1234	0.5
223.1079	0.5
229.1322	0.6
233.0923	1.7
242.1032	0.7
244.0964	1.0
245.1302	1.2
246.1136	0.5
256.1275	0.7
259.1078	0.5
261.1241	0.6
262.1075	7.9
263.1121	1.1
271.1556	4.3
272.1575	0.8
273.1242	0.6
274.1319	2.9
275.1382	1.2
287.1408	0.5
288.1250	0.5
293.1506	0.5
303.1809	0.5
305.1501	1.1
315.1444	1.3
319.1740	0.5
328.1182	0.8
329.1527	0.5
330.1335	1.5
333.0618	0.7
333.0799	0.5
333.1448	92.3
333.2275	0.6
334.1485	18.1
335.1526	2.5
336.1488	0.6
338.1983	1.2
339.2009	0.5
341.1755	0.7
344.1495	0.5
345.1447	1.8
346.0772	0.6
346.1309	5.8
346.1680	2.1
346.3322	1.4
347.1282	1.6
347.1694	8.5
348.1424	9.0
348.1833	0.9
349.1433	4.5
349.1786	2.1
350.1248	3.8
350.1662	4.5
351.1555	100.0
352.1348	22.5
353.1314	3.0
353.1708	4.4
354.1570	10.8
354.2048	3.2
355.1305	1.3
355.1874	5.2
355.2234	0.9
356.1159	1.4
356.1617	10.8
356.3522	0.7
357.1460	1.6
357.1723	3.7
357.2067	1.1
358.1307	4.3
358.1750	3.3
358.3670	0.8
359.1279	1.0
359.1800	3.3
360.1451	11.1
360.2224	0.8
361.1426	5.0
361.1810	1.1
362.1228	2.1
362.1616	11.4
363.1577	7.4
364.1428	5.2
364.1795	4.3
365.1382	1.0
365.1770	3.6
366.1599	1.8

Name: Quininic acid
PrecursorMZ: 204.06549
RT: 7.2016
ExactMass: 203.058243149
Spectrum_type: 2
charge: 1
Formula: C11H9NO3
SMILES: COC1=CC2=C(C=CN=C2C=C1)C(=O)O
Method: HCD
Collision_energy: [28.333334]
Isolation_window: 4.0
Ion_mode: P
Num Peaks: 81
61.0289	1.1
74.0717	2.3
81.0339	2.3
82.0654	1.7
83.0495	1.6
84.0448	1.4
84.0811	1.0
86.0603	1.1
87.0443	1.0
88.0760	1.5
95.0606	14.4
96.0446	2.6
97.0286	1.9
98.0602	1.5
100.0759	3.0
101.0599	2.1
107.0606	1.5
110.0602	1.2
111.0442	4.3
112.0507	1.8
112.0759	2.1
113.0598	1.0
114.0664	3.0
121.0762	1.5
125.0710	6.6
126.0550	2.6
126.0914	2.6
128.0708	1.2
130.0863	1.0
134.0600	3.9
138.0550	4.5
144.0655	1.7
144.0806	1.0
144.1019	4.8
149.0710	1.2
154.0863	1.0
156.1019	1.2
158.0812	0.9
158.1178	3.1
160.0757	1.5
162.0550	1.3
166.0975	2.2
167.0816	3.0
184.1080	1.9
185.0921	21.3
186.0961	1.7
186.1124	2.7
186.1487	1.9
188.0702	1.1
188.0911	1.0
188.1065	1.2
202.0864	4.7
202.0975	11.9
202.1076	5.8
202.1186	10.8
202.1265	1.4
202.1431	1.3
203.0816	6.6
203.0914	1.8
203.1022	10.1
203.1182	2.0
203.1385	2.1
204.0655	100.0
204.0860	2.5
204.1019	34.2
204.1129	3.3
204.1228	20.6
204.1378	5.8
204.1589	3.5
205.0689	10.7
205.0816	1.9
205.0970	14.6
205.1058	4.1
205.1261	1.1
205.1336	2.4
206.0811	30.5
206.0916	2.5
206.1027	2.5
206.1174	31.7
206.1368	1.0
206.1538	1.3

Name: Quinoline
PrecursorMZ: 130.0651
RT: 9.0519
ExactMass: 129.057849228
Spectrum_type: 2
charge: 1
Formula: C9H7N
SMILES: C1=CC=C2C(=C1)C=CC=N2
Method: HCD
Collision_energy: [28.333334]
Isolation_window: 4.0
Ion_mode: P
Num Peaks: 10
74.0968	2.7
84.0447	3.7
86.0967	12.1
90.0551	2.6
103.0544	2.9
129.1385	5.3
130.0651	100.0
130.1589	14.8
131.0683	9.8
132.0766	2.3

Name: Quinoline 1-oxide
PrecursorMZ: 146.06
RT: 2.0179
ExactMass: 145.052763847
Spectrum_type: 2
charge: 1
Formula: C9H7NO
SMILES: C1=CC=C2C(=C1)C=CC=[N+]2[O-]
Method: HCD
Collision_energy: [28.333334]
Isolation_window: 4.0
Ion_mode: P
Num Peaks: 5
128.0494	5.4
146.0598	100.0
147.0552	5.1
147.0631	10.4
147.0915	7.7

Name: Quinolinic Acid
PrecursorMZ: 168.02912
RT: 3.4048
ExactMass: 167.02185764
Spectrum_type: 2
charge: 1
Formula: C7H5NO4
SMILES: C1=CC(=C(N=C1)C(=O)O)C(=O)O
Method: HCD
Collision_energy: [28.333334]
Isolation_window: 4.0
Ion_mode: P
Num Peaks: 202
56.0500	1.0
57.0341	1.0
58.0656	1.5
60.0449	2.3
60.0813	1.5
67.0548	1.1
68.0499	1.8
69.0339	3.2
69.0703	1.4
70.0655	5.5
71.0496	1.2
72.0448	3.6
72.0812	1.9
73.0289	1.1
74.0241	2.9
74.0605	6.3
80.0499	5.8
81.0340	1.8
82.0654	2.5
83.0496	2.3
84.0448	30.7
84.0811	4.3
85.0288	4.2
85.0481	1.0
86.0603	2.0
86.0968	2.9
87.0444	9.7
88.0397	6.6
90.0553	3.3
94.0655	2.1
95.0494	1.5
95.0606	2.3
96.0447	4.6
96.0810	1.3
96.9954	1.2
97.0287	1.4
97.0652	1.2
98.0603	12.3
99.0444	1.5
100.0760	3.7
101.0599	3.7
102.0552	17.5
103.0394	1.0
109.0762	1.8
110.0603	3.4
111.0443	11.4
112.0396	3.3
112.0759	7.7
112.0872	1.4
113.0236	0.9
114.0552	9.0
114.0666	1.3
116.0708	28.0
117.0547	4.1
117.0742	1.1
118.0502	1.4
120.0810	3.4
121.0650	2.8
122.0602	3.2
123.0443	2.8
123.0917	0.9
124.0394	1.0
124.0760	1.4
125.0597	1.0
125.0711	1.4
126.0552	5.3
126.0663	1.4
126.0915	15.9
127.0391	1.7
127.0495	1.9
128.0708	5.4
129.0547	1.4
130.0500	100.0
130.0864	8.5
131.0346	1.3
131.0535	1.5
132.0655	3.3
134.0455	1.7
134.0605	1.0
134.0812	25.6
135.0833	1.2
136.0758	2.1
136.0867	1.1
137.0709	1.2
137.1073	2.9
138.0219	5.1
138.0552	4.8
138.0919	1.7
139.0391	2.9
139.0502	1.7
140.0343	31.2
140.0708	12.6
140.0819	1.3
141.0381	1.7
141.0555	3.0
141.0659	1.0
141.0749	0.9
142.0500	12.6
142.0863	2.1
142.1226	1.1
143.0814	1.3
143.1181	1.1
144.0656	9.5
144.1022	1.5
148.0606	15.6
148.1120	1.1
152.0456	1.8
152.0706	0.9
152.1074	1.5
154.0501	6.3
154.0862	1.6
156.0657	3.0
156.1021	0.9
156.1384	1.1
158.0813	10.7
160.0969	0.9
162.0762	18.8
163.0786	1.0
163.1235	1.8
165.0215	3.2
166.0499	2.1
166.0858	2.8
166.1228	26.9
167.0808	2.1
167.1168	9.5
168.0292	51.7
168.0668	7.4
168.1011	3.4
168.1388	1.5
169.0325	4.5
169.0727	1.6
169.1336	11.6
170.0448	1.2
170.0811	3.4
170.1167	1.3
170.1378	0.9
170.1541	2.3
171.0764	1.9
171.1489	1.7
172.0603	3.4
172.0747	0.9
172.0968	4.5
172.1329	2.2
173.0558	2.2
173.0905	1.2
173.1064	1.2
173.1288	0.9
173.1649	1.9
174.0760	1.0
174.0901	1.3
174.1126	3.0
176.0921	39.7
176.1079	6.4
176.1278	3.3
177.1027	12.2
178.0730	1.3
178.0864	32.7
178.1068	2.9
178.1225	68.3
179.0892	3.5
179.1173	45.3
180.0656	1.4
180.0866	13.2
180.1032	30.4
180.1210	4.6
180.1381	9.7
181.0604	1.4
181.1054	2.8
181.1334	25.1
182.0448	9.3
182.0790	1.9
182.0958	1.4
182.1169	5.1
182.1356	1.9
183.0486	1.0
183.0909	0.9
183.1113	1.7
183.1498	1.4
184.0061	1.0
184.0604	4.0
184.0965	1.7
184.1098	3.2
184.1311	1.7
185.0560	4.0
185.0906	1.4
185.1052	1.2
185.1270	1.9
186.0735	1.5
186.0906	1.5
186.1126	1.0
186.1490	1.1
187.0719	2.7
187.1070	2.1
187.1436	1.8
187.1805	2.6
188.0916	2.4
188.1057	5.8
188.1281	2.5
188.1634	1.4
189.0870	15.4
189.1229	3.0
189.1594	1.4

Name: Ramelteon
PrecursorMZ: 282.14644
RT: 3.035
ExactMass: 259.157228913
Spectrum_type: 2
charge: 1
Formula: C16H21NO2
SMILES: CCC(=O)NCC[C@@H]1CCC2=C1C3=C(C=C2)OCC3
Method: HCD
Collision_energy: [28.333334]
Isolation_window: 4.0
Ion_mode: P
Num Peaks: 5
97.3988	63.6
281.1744	100.0
282.1331	51.3
282.1464	54.7
282.2792	52.7

Name: Reductodehydrocholic acid
PrecursorMZ: 427.24519
RT: 2.8745
ExactMass: 404.25627424
Spectrum_type: 2
charge: 1
Formula: C24H36O5
SMILES: C[C@H](CCC(=O)O)[C@H]1CC[C@@H]2[C@@]1(C(=O)C[C@H]3[C@H]2C(=O)C[C@H]4[C@@]3(CC[C@H](C4)O)C)C
Method: HCD
Collision_energy: [28.333334]
Isolation_window: 4.0
Ion_mode: P
Num Peaks: 3
139.9145	14.6
427.2451	100.0
428.2478	17.1

Name: Ref C1
PrecursorMZ: 319.14984
RT: 8.0457
Spectrum_type: 2
charge: 1
SMILES: C[C@H]1CCCC2(O)[C@]1(C)[C@@H](O)C([C@@]3(OC)C2)=C(C)C(O3)=O
Method: HCD
Collision_energy: [28.333334]
Isolation_window: 4.0
Ion_mode: P
Num Peaks: 22
70.0656	3.5
154.0865	6.3
187.1077	3.4
193.0971	3.2
211.1077	5.6
213.1234	3.4
229.1183	11.8
273.1448	3.3
301.1181	4.7
301.1391	10.1
302.1597	4.5
303.1561	4.9
318.1328	4.4
318.1543	11.6
318.1713	6.3
319.1299	5.2
319.1497	100.0
320.1323	3.8
320.1512	15.8
320.1705	12.3
321.1451	2.9
321.1653	9.4

Name: Ref(C1
PrecursorMZ: 319.15076
RT: 3.62655
Spectrum_type: 2
charge: 1
SMILES: C[C@H]1CCCC2(O)[C@]1(C)[C@@H](O)C([C@@]3(OC)C2)=C(C)C(O3)=O
Method: HCD
Collision_energy: [28.333334]
Isolation_window: 4.0
Ion_mode: P
Num Peaks: 27
60.0562	1.8
111.0552	2.4
132.0444	2.2
140.0816	1.5
165.1026	1.6
168.0879	1.6
187.0863	1.8
231.0763	9.6
233.1396	7.2
259.1190	20.5
260.1237	2.8
265.1547	34.6
266.1578	5.8
277.1295	100.0
278.1326	15.2
279.1356	1.4
284.1141	5.9
301.1400	1.8
302.1247	49.0
303.1274	8.3
319.1513	98.6
320.1538	19.3
321.1492	2.0
325.1757	37.0
326.1793	7.0
327.1857	1.5
335.1607	1.7

Name: Retinoic Acid
PrecursorMZ: 301.21582
RT: 3.0172
ExactMass: 300.208930132
Spectrum_type: 2
charge: 1
Formula: C20H28O2
SMILES: CC1=C(C(CCC1)(C)C)/C=C/C(=C/C=C/C(=C/C(=O)O)/C)/C
Method: HCD
Collision_energy: [28.333334]
Isolation_window: 4.0
Ion_mode: P
Num Peaks: 38
79.0545	3.6
81.0702	15.0
93.0700	13.5
95.0857	23.4
99.0442	7.5
105.0700	9.9
107.0857	10.7
109.1013	5.9
112.8958	5.4
119.0855	12.5
121.1012	18.0
131.0854	11.3
133.1011	14.8
135.1167	6.3
145.1011	15.1
147.1167	8.7
149.0961	4.7
157.1010	5.0
159.1167	19.2
161.1324	5.3
171.1167	6.2
173.1323	8.1
185.1323	6.0
187.1479	32.0
189.1273	4.0
207.1376	8.1
213.1635	5.1
225.1637	4.5
227.1791	15.4
255.2104	4.3
265.1950	4.4
283.1720	4.0
283.2050	12.2
301.1820	6.2
301.2157	100.0
302.1017	7.5
302.2192	22.7
303.2314	7.7

Name: Retusin 7-Methyl Ether
PrecursorMZ: 321.0749
RT: 8.1919
ExactMass: 298.08412354
Spectrum_type: 2
charge: 1
Formula: C17H14O5
SMILES: COC1=CC=C(C=C1)C2=COC3=C(C2=O)C=CC(=C3O)OC
Method: HCD
Collision_energy: [28.333334]
Isolation_window: 4.0
Ion_mode: P
Num Peaks: 17
61.0111	10.6
84.0447	16.8
114.0915	6.9
145.0606	6.7
181.0610	9.7
183.0768	5.8
209.1647	11.3
211.0713	34.4
229.0819	21.5
239.0662	42.7
257.0768	100.0
258.0802	9.0
277.1182	5.8
303.0642	17.5
321.0750	29.0
321.1074	17.1
322.2489	20.4

Name: Reynosin
PrecursorMZ: 266.17474
RT: 6.9366
ExactMass: 248.1412445
Spectrum_type: 2
charge: 1
Formula: C15H20O3
SMILES: C[C@@]12CC[C@@H]3[C@@H]([C@H]1C(=C)CC[C@H]2O)OC(=O)C3=C
Method: HCD
Collision_energy: [28.333334]
Isolation_window: 4.0
Ion_mode: P
Num Peaks: 199
55.0546	3.8
59.0495	3.1
67.0546	2.0
69.0338	1.8
69.0702	5.6
70.0654	1.9
79.0544	1.4
80.0497	16.6
81.0337	2.8
81.0701	3.8
83.0494	8.0
83.0858	1.3
84.0810	1.4
85.0287	0.7
86.0966	1.4
87.0442	1.5
88.0395	2.9
90.0551	3.4
91.0543	1.4
93.0700	2.4
94.0652	1.0
95.0493	1.0
95.0605	1.4
95.0856	2.4
96.0444	1.0
97.0285	2.2
97.0649	1.2
97.1013	1.3
97.4580	1.6
99.0442	0.7
100.0757	2.0
101.0234	1.3
101.0598	33.3
102.0631	1.8
105.0699	2.2
106.0651	0.8
107.0492	1.0
107.0856	2.1
108.0443	0.9
108.0808	0.8
109.0648	1.1
109.1012	1.5
111.0441	2.1
113.0596	0.8
116.0704	0.9
117.0697	0.8
119.0856	1.4
120.0807	2.5
121.0648	1.3
121.1012	2.1
122.0599	1.2
123.0440	1.9
123.0803	1.0
123.1168	3.3
124.0756	1.5
128.0705	1.2
131.0854	2.1
133.0646	1.6
133.1010	3.0
134.0961	0.7
135.0803	3.9
135.1167	1.2
136.0616	24.1
136.0755	2.0
137.0594	0.9
137.0707	0.9
137.0959	2.0
138.0545	0.8
140.1067	0.7
145.1010	5.8
147.0440	1.3
147.0803	1.8
148.0755	0.9
148.1119	4.7
149.0594	1.4
149.0960	4.5
150.0549	2.7
150.0911	1.7
151.0388	4.3
151.1116	6.7
152.0566	12.1
152.0702	1.4
153.0598	0.7
153.0657	0.7
154.0973	1.0
158.1173	0.9
159.0440	0.8
159.0804	1.7
162.0911	1.1
163.0752	5.3
163.1116	2.3
164.0705	1.1
164.1067	0.9
165.0545	12.2
165.0656	0.7
165.1385	3.2
166.0579	1.3
166.0862	3.7
166.1224	55.8
167.0337	1.9
167.0812	1.0
167.1179	0.9
167.1257	5.5
168.0653	2.1
168.1018	1.0
171.0761	1.0
173.0959	5.1
175.1114	1.1
177.0545	3.2
177.0907	2.5
178.0860	2.0
179.0700	1.2
180.1015	0.9
187.0750	1.4
191.0699	1.0
191.1064	10.2
192.1096	1.3
193.0969	0.7
194.0806	0.7
201.0907	8.4
202.0944	1.0
203.1065	5.0
204.1013	1.0
205.0856	8.8
206.0805	1.4
206.0894	1.2
206.1170	1.1
207.1011	1.2
207.1126	0.8
208.0967	1.3
209.0916	0.9
219.1013	21.9
219.1117	1.6
219.1486	2.8
220.0959	1.4
220.1061	3.8
220.1323	1.3
221.0916	1.9
221.1168	1.3
221.1280	2.1
222.1119	1.5
223.0960	3.2
229.0856	6.2
230.0664	0.8
231.1013	1.7
231.1372	0.7
232.0959	1.0
237.1118	11.4
238.1161	1.3
247.0961	13.1
247.1073	2.2
247.1318	1.3
247.1438	1.5
247.1683	1.4
247.2415	0.7
248.0770	1.8
248.0902	1.9
248.1010	1.7
248.1275	2.1
249.0863	2.7
249.1114	1.2
249.1229	2.6
250.0705	2.1
250.1067	3.0
250.1181	0.9
250.1425	1.4
264.1580	1.4
264.1948	2.0
265.1060	4.8
265.1178	11.1
265.1540	34.1
265.1904	11.8
265.2518	1.9
266.0650	1.0
266.0874	12.0
266.1015	9.8
266.1133	2.9
266.1234	0.9
266.1377	17.7
266.1502	1.8
266.1601	4.2
266.1744	100.0
266.1858	1.8
266.1900	1.2
266.1967	1.5
267.0956	2.5
267.1101	1.1
267.1214	2.6
267.1329	14.9
267.1441	2.1
267.1687	8.4
267.1783	11.0
267.2071	1.3
268.0802	1.1
268.1029	3.4
268.1169	17.4
268.1293	2.3
268.1528	5.0
268.1653	1.3

Name: Ricinoleic Acid
PrecursorMZ: 299.25807
RT: 0.5464
ExactMass: 298.25079494
Spectrum_type: 2
charge: 1
Formula: C18H34O3
SMILES: CCCCCC[C@H](C/C=C\CCCCCCCC(=O)O)O
Method: HCD
Collision_energy: [28.333334]
Isolation_window: 4.0
Ion_mode: P
Num Peaks: 210
55.0548	2.7
57.0704	39.4
58.0737	2.8
59.0497	6.8
67.0547	29.2
69.0340	4.2
69.0704	39.3
70.0737	2.5
71.0497	8.9
71.0860	48.5
73.0654	4.5
79.0547	11.2
81.0703	77.7
82.0739	4.2
83.0495	5.0
83.0860	38.5
85.0652	10.5
85.1017	7.4
86.0968	6.0
87.0445	8.7
89.0601	7.8
91.0545	11.3
93.0703	35.4
95.0495	3.7
95.0859	76.2
96.0891	5.5
97.0651	9.2
97.1015	39.5
97.3296	3.1
98.1049	3.4
98.9846	11.4
99.0444	21.5
99.0808	8.4
101.0602	4.6
105.0702	28.7
107.0495	3.0
107.0858	52.4
108.0892	4.9
109.0650	5.3
109.1015	44.8
110.1049	4.3
111.0807	8.4
111.1172	17.1
112.0761	22.9
113.0600	6.8
113.0963	3.4
115.0757	4.1
116.0709	3.1
117.0701	3.8
119.0858	42.3
120.0886	3.8
121.0649	5.2
121.1014	68.2
122.1047	6.7
123.0807	10.4
123.1171	45.7
124.1203	5.6
125.0598	2.9
125.0962	9.4
125.1325	6.4
127.0753	6.2
127.1117	2.9
131.0857	17.2
133.0863	2.7
133.1013	46.6
134.1048	5.2
135.0810	5.0
135.1171	36.8
136.1202	3.3
137.0600	9.6
137.0963	8.8
137.1327	10.1
139.0756	6.9
139.1121	5.4
141.0700	3.7
141.0914	8.0
141.1276	43.8
142.1308	5.0
143.0856	3.9
145.1014	24.8
146.1050	3.2
147.0808	4.3
147.1171	37.6
148.1208	4.4
149.0965	10.2
149.1327	20.7
151.0970	3.2
151.1119	10.8
151.1480	5.0
153.0913	2.8
153.1278	3.5
155.1070	3.0
157.1015	10.1
159.1171	40.6
160.1206	4.4
161.0602	2.6
161.0968	6.1
161.1327	39.9
162.1365	4.9
163.1122	11.1
163.1486	11.1
164.0708	3.9
164.1070	2.7
165.0911	4.5
165.1276	8.8
165.1639	2.7
167.1069	7.8
167.1432	3.0
169.0652	11.0
169.1009	4.1
169.1225	3.3
169.1587	2.6
171.1168	8.2
173.0969	3.4
173.1325	16.5
174.1367	2.6
175.1117	7.4
175.1483	16.7
177.1270	5.8
177.1641	3.1
179.1069	6.5
179.1428	5.5
179.1797	3.1
181.1226	5.3
181.1591	3.3
183.1172	3.6
185.1327	7.6
187.1125	3.2
187.1483	39.4
188.1524	6.1
189.1276	8.4
189.1640	30.7
190.1674	5.4
191.1068	3.0
191.1437	4.4
193.1225	14.4
193.1588	5.4
195.1384	5.5
197.0604	4.8
197.1335	4.6
199.0754	4.6
199.1484	6.5
201.1276	3.6
201.1640	6.1
203.1434	4.4
203.1800	3.1
205.1226	3.0
205.1585	4.3
207.1379	16.2
207.1742	3.0
209.1331	2.5
209.1538	2.9
211.1101	2.8
211.1484	6.8
213.1640	7.8
215.1432	4.1
215.1795	3.2
221.1538	6.9
223.1485	2.8
223.1693	3.4
225.1646	6.8
227.0704	24.4
227.1438	2.7
227.1795	20.6
228.0746	3.1
228.1837	3.4
229.1613	4.8
229.1952	29.3
230.1992	5.1
233.1538	6.9
235.2423	3.0
239.1649	3.3
243.1753	3.7
245.1535	2.9
245.2265	16.0
247.1693	8.7
253.2528	9.2
255.2107	4.0
257.1294	4.4
257.2269	2.8
262.1441	2.5
263.2368	16.8
264.2410	3.7
265.1960	4.6
267.2107	5.6
275.2012	3.0
277.2167	4.1
279.2318	4.0
281.2483	9.3
283.1765	2.6
283.2057	12.5
285.1246	4.4
285.2216	15.8
286.2241	3.2
299.2002	7.1
299.2584	68.0
300.2613	13.2
301.2164	100.0
302.2205	20.4
302.3058	4.7
303.2321	91.4
304.2350	20.1
304.2955	4.7
305.2440	3.4
307.2295	2.7
312.1594	15.9
313.1615	3.0
314.3415	3.0
317.1468	3.4
317.2106	5.8

Name: Rivastigmine
PrecursorMZ: 251.17536
RT: 7.0212
ExactMass: 250.168127949
Spectrum_type: 2
charge: 1
Formula: C14H22N2O2
SMILES: CCN(C)C(=O)OC1=CC=CC(=C1)[C@H](C)N(C)C
Method: HCD
Collision_energy: [28.333334]
Isolation_window: 4.0
Ion_mode: P
Num Peaks: 41
69.0703	1.6
70.0656	1.2
81.0339	2.1
86.0604	1.2
89.0600	2.0
137.0835	1.2
165.1024	11.6
173.0711	1.1
192.1019	1.1
193.0860	1.2
232.1183	3.8
233.0922	3.5
235.1078	5.3
249.1219	1.2
249.1592	6.0
249.1959	1.1
250.0894	1.1
250.1081	9.4
250.1294	14.9
250.1437	10.1
250.1549	1.8
250.1644	2.6
250.1801	8.2
250.1917	1.9
251.1020	4.1
251.1388	6.5
251.1491	2.3
251.1754	100.0
252.1039	1.2
252.1126	1.1
252.1242	3.9
252.1351	0.9
252.1442	0.8
252.1599	7.2
252.1790	11.7
252.1957	3.0
253.1181	5.9
253.1336	1.7
253.1544	4.5
253.1654	1.6
253.1911	3.6

Name: Ro 64-0802
PrecursorMZ: 285.18049
RT: 6.7049
ExactMass: 284.17360725
Spectrum_type: 2
charge: 1
Formula: C14H24N2O4
SMILES: CCC(CC)O[C@@H]1C=C(C[C@@H]([C@H]1NC(=O)C)N)C(=O)O
Method: HCD
Collision_energy: [28.333334]
Isolation_window: 4.0
Ion_mode: P
Num Peaks: 34
70.0654	3.7
100.0757	6.0
101.0597	4.8
114.0661	2.7
116.0706	6.7
122.0962	5.9
127.0499	2.8
128.0707	4.0
142.0862	3.1
143.0811	3.0
144.1017	4.2
154.0860	3.8
168.0764	4.4
171.0762	3.3
182.1171	3.1
199.1078	3.9
200.1025	6.7
239.1748	12.2
267.1332	2.9
284.1110	4.1
284.1230	10.5
284.1457	6.5
285.1441	8.5
285.1802	100.0
286.0686	5.5
286.1097	35.5
286.1270	7.7
286.1393	16.3
286.1832	10.6
287.0686	14.2
287.1235	5.1
287.1367	4.9
287.1584	5.1
287.2070	7.6

Name: Rolziracetam
PrecursorMZ: 140.07062
RT: 1.0396
ExactMass: 139.06332853
Spectrum_type: 2
charge: 1
Formula: C7H9NO2
SMILES: C1CC(=O)N2C1CCC2=O
Method: HCD
Collision_energy: [28.333334]
Isolation_window: 4.0
Ion_mode: P
Num Peaks: 94
57.0577	0.3
57.0704	0.3
58.0656	16.5
58.0680	0.3
59.0689	0.7
60.0449	0.5
67.0547	0.4
69.0339	0.4
70.0656	1.3
71.0495	0.6
72.0729	0.4
72.0812	63.0
72.0874	0.4
72.0898	0.4
73.0782	0.3
73.0845	2.9
74.0605	0.7
81.0340	0.4
81.0451	0.6
82.0654	0.4
83.0495	0.3
83.0607	0.4
84.0448	0.4
84.0812	0.6
85.0651	0.9
86.0605	1.4
88.0761	1.1
94.0655	0.5
95.0495	0.3
95.0607	0.9
96.0447	2.7
96.0811	0.3
98.0603	6.4
98.0966	1.1
99.0638	0.3
99.0919	1.0
100.0760	3.2
102.0915	1.6
106.0867	0.5
108.0446	0.7
109.0525	0.7
110.0605	0.7
112.0760	1.1
114.1028	24.6
114.1279	4.8
115.0870	0.8
115.1062	1.4
115.1315	0.3
118.0863	0.6
122.0602	2.9
123.0636	0.4
124.0758	1.6
125.0712	0.7
126.0562	0.4
126.0662	0.6
126.0914	0.4
128.0713	0.3
130.0864	2.1
136.0759	0.9
137.0711	0.6
138.0551	0.3
139.0867	1.0
140.0346	0.8
140.0709	17.8
140.0820	1.3
141.0747	1.1
142.0416	0.3
142.0738	0.6
142.0786	0.3
142.0866	13.8
142.0974	100.0
142.1155	0.7
142.1204	0.7
143.0821	2.1
143.1013	7.4
144.1020	1.5
148.0971	0.4
150.0551	2.7
150.0775	1.4
150.0911	0.4
151.0616	5.0
151.0862	0.5
152.0711	1.8
152.1071	5.4
153.1120	0.6
154.0501	0.3
154.0864	10.7
154.0981	1.0
155.0815	0.7
155.0898	0.8
156.1019	0.9
157.0972	3.6
158.0816	0.4
158.1180	0.3

Name: Roscovitine
PrecursorMZ: 355.22385
RT: 2.9854
ExactMass: 354.21680947
Spectrum_type: 2
charge: 1
Formula: C19H26N6O
SMILES: CC[C@H](CO)NC1=NC(=C2C(=N1)N(C=N2)C(C)C)NCC3=CC=CC=C3
Method: HCD
Collision_energy: [28.333334]
Isolation_window: 4.0
Ion_mode: P
Num Peaks: 3
355.2242	86.3
355.2620	43.8
357.2781	100.0

Name: Rosmanol
PrecursorMZ: 369.16952
RT: 1.1008
ExactMass: 346.17802393
Spectrum_type: 2
charge: 1
Formula: C20H26O5
SMILES: CC(C)C1=C(C(=C2C(=C1)[C@@H]([C@@H]3[C@@H]4[C@@]2(CCCC4(C)C)C(=O)O3)O)O)O
Method: HCD
Collision_energy: [28.333334]
Isolation_window: 4.0
Ion_mode: P
Num Peaks: 26
59.0496	6.9
69.0703	12.7
95.0858	9.5
101.0599	34.1
119.0856	6.8
147.0805	30.5
193.0134	6.1
217.0496	47.4
223.0755	9.5
225.0911	7.2
241.0859	20.5
253.0859	6.6
267.1014	26.6
271.0963	28.3
277.0856	6.4
285.1119	8.8
295.0964	100.0
296.0997	18.7
313.1068	9.4
323.1648	8.7
341.1747	16.5
351.1587	33.7
352.1635	7.4
368.4250	15.7
369.1693	58.0
370.1728	14.6

Name: Row142374
PrecursorMZ: 327.04714
RT: 5.3923
Spectrum_type: 2
charge: 1
SMILES: Cc1nnc(-c2cccs2)c2cn(-c3cc(Cl)ccc3)nc12
Method: HCD
Collision_energy: [28.333334]
Isolation_window: 4.0
Ion_mode: P
Num Peaks: 4
176.8751	17.9
326.3770	19.7
327.0471	100.0
328.0504	16.1

Name: S-4-benzyl-3-((S)-3-hydroxy-2,2-dimethyloct-7-ynoyl)-5,5-dimethyloxazolidin-2-one
PrecursorMZ: 354.20619
RT: 5.7265
ExactMass: 371.20965841
Spectrum_type: 2
charge: 1
Formula: C22H29NO4
SMILES: CC1([C@@H](N(C(=O)O1)C(=O)C(C)(C)[C@H](CCCC#C)O)CC2=CC=CC=C2)C
Method: HCD
Collision_energy: [28.333334]
Isolation_window: 4.0
Ion_mode: P
Num Peaks: 61
59.0608	7.3
67.0546	3.5
72.0812	3.1
81.0702	3.3
86.0967	41.3
87.1000	1.9
91.0544	4.8
93.0701	1.8
95.0857	4.3
97.3995	1.8
100.1123	78.0
101.1156	5.4
101.1200	4.4
105.0336	39.4
105.0700	11.9
106.0370	3.2
106.0734	1.8
107.0857	2.0
109.1013	2.5
114.0914	3.6
117.0699	3.7
119.0491	3.3
119.0855	3.4
121.1014	2.9
130.0652	3.2
131.0857	2.7
133.1012	2.0
135.1168	2.2
145.1011	3.6
147.0440	3.4
149.1326	1.9
151.0391	1.7
175.0865	4.9
181.1012	3.3
185.0596	2.6
195.1135	5.4
223.0753	2.1
225.0908	4.9
233.1322	2.6
251.1066	9.3
252.1101	5.0
253.0857	9.0
254.0897	1.9
261.2208	2.8
269.1173	1.8
271.0962	4.0
296.2946	6.9
309.2582	3.9
352.2273	22.0
352.2628	10.7
353.2300	13.0
353.2674	5.8
354.1360	2.5
354.2061	100.0
354.2393	10.8
354.2794	4.3
355.2091	21.7
355.2632	9.2
355.2958	2.1
355.3688	2.3
356.2146	2.4

Name: ST092513
PrecursorMZ: 324.12927
RT: 6.3723
ExactMass: 323.12296866
Spectrum_type: 2
charge: 1
Formula: C13H17N5O5
SMILES: CCOC1OC2C(OC(C2O1)N3C=NC4=C(N=CN=C43)N)CO
Method: HCD
Collision_energy: [28.333334]
Isolation_window: 4.0
Ion_mode: P
Num Peaks: 54
61.0288	1.4
69.0338	21.1
81.0337	4.4
83.0494	10.8
84.0447	2.6
85.0286	2.7
91.0391	4.4
97.0285	2.1
98.0601	2.2
99.0442	56.3
100.0475	2.2
114.0550	4.6
116.0706	1.8
117.0546	8.5
124.0756	1.9
126.0549	1.6
127.0389	12.5
136.0755	5.6
142.0497	14.4
142.0862	2.7
145.0494	92.2
146.0527	5.0
150.0548	4.7
151.0389	2.0
154.0861	10.9
160.9010	1.9
164.0704	10.0
166.0861	2.0
168.0653	5.7
170.0446	3.3
176.8751	1.3
182.0809	4.3
186.0759	3.4
204.0863	2.3
210.0757	3.7
228.0861	1.4
246.0969	1.7
288.1074	2.1
306.1177	7.0
307.1020	1.7
323.1091	1.6
323.1228	3.7
323.1593	6.3
323.1950	2.2
324.0949	3.5
324.1239	1.3
324.1279	10.4
324.1595	1.3
325.0790	100.0
325.1330	1.5
325.1377	1.4
325.1545	1.3
325.1741	2.3
326.0824	6.7

Name: Saccharopine
PrecursorMZ: 259.12873
RT: 5.6628
ExactMass: 276.13213636
Spectrum_type: 2
charge: 1
Formula: C11H20N2O6
SMILES: C(CCN[C@@H](CCC(=O)O)C(=O)O)C[C@@H](C(=O)O)N
Method: HCD
Collision_energy: [28.333334]
Isolation_window: 4.0
Ion_mode: P
Num Peaks: 92
56.0496	0.5
67.0546	0.3
70.0656	1.3
72.0810	0.3
82.0655	0.3
84.0447	0.4
84.0707	0.5
84.0729	0.4
84.0811	100.0
84.0853	1.7
84.0890	0.5
84.0919	0.7
84.0948	0.3
84.1054	0.4
85.0286	0.4
85.0651	0.6
85.0785	0.4
85.0844	5.3
86.0968	0.4
87.0445	0.4
100.0761	0.3
101.0601	0.6
102.0554	0.4
102.0914	0.4
110.0603	0.3
110.0714	0.3
112.0760	0.5
112.0868	0.3
114.0665	0.5
114.1030	0.4
116.0709	0.7
126.0920	0.3
128.0710	0.4
129.1022	0.7
130.0502	0.9
130.0664	0.3
130.0863	64.6
130.1016	0.3
130.1063	0.4
131.0898	4.0
142.0501	0.3
144.1022	0.5
147.1131	0.4
148.0605	1.2
154.0862	0.4
164.0820	0.4
167.1177	0.7
168.1018	0.7
170.0812	1.0
170.1179	0.4
175.1191	0.3
195.1129	5.9
196.0966	0.3
196.1156	0.6
209.1052	0.3
210.0876	1.4
213.0802	0.3
213.0890	0.3
213.1233	46.7
213.1569	0.3
213.1658	0.4
214.1077	1.4
214.1262	4.8
215.1285	0.3
216.1223	0.4
225.1236	0.3
228.1339	0.4
231.1339	4.5
232.1181	0.5
232.1368	0.4
248.1130	0.4
257.1210	0.6
258.1081	0.7
259.1288	27.5
260.1296	3.1
260.1523	0.8
261.1441	0.9
262.1284	0.4
268.1178	0.4
268.1657	0.3
270.1333	4.1
271.1314	1.5
272.1264	0.3
272.1721	0.6
274.1074	0.7
274.1396	1.0
274.2123	0.3
276.1197	2.4
277.1393	33.8
277.1645	0.5
278.1418	4.3
279.1432	0.5

Name: Sachaliside
PrecursorMZ: 335.10979
RT: 5.7428
ExactMass: 312.12090297
Spectrum_type: 2
charge: 1
Formula: C15H20O7
SMILES: C1=CC(=CC=C1/C=C/CO[C@H]2[C@@H]([C@H]([C@@H]([C@H](O2)CO)O)O)O)O
Method: HCD
Collision_energy: [28.333334]
Isolation_window: 4.0
Ion_mode: P
Num Peaks: 12
69.2164	14.9
91.0544	22.7
210.1121	32.7
334.1279	27.5
334.2732	48.2
335.1095	100.0
335.1303	64.7
335.1603	24.5
335.2767	12.2
336.1112	15.8
336.1445	10.9
337.1227	12.7

Name: Salutaridine, (-)-
PrecursorMZ: 328.15423
RT: 2.6255
ExactMass: 327.14705815
Spectrum_type: 2
charge: 1
Formula: C19H21NO4
SMILES: CN1CC[C@@]23C=C(C(=O)C=C2[C@@H]1CC4=C3C(=C(C=C4)OC)O)OC
Method: HCD
Collision_energy: [28.333334]
Isolation_window: 4.0
Ion_mode: P
Num Peaks: 119
55.0547	6.9
58.0656	3.6
59.0496	3.4
70.0656	12.2
72.0812	5.8
81.0340	3.9
83.0496	8.7
84.0812	11.2
85.0652	4.5
87.0444	5.3
89.0601	3.7
96.0446	3.8
96.0811	5.1
98.0968	9.8
100.0760	5.1
101.0600	41.0
104.0707	2.7
107.0735	3.3
108.0449	2.9
110.0603	2.9
110.0715	4.7
111.0443	3.3
112.0759	2.8
114.0667	3.4
116.0707	3.0
118.0864	8.5
120.0807	2.9
122.0814	11.5
125.0712	2.8
126.0915	3.0
130.0867	6.0
132.0445	7.1
136.0756	2.9
146.0925	6.3
148.0762	2.8
171.0916	4.3
172.1328	3.2
173.1072	5.4
178.0850	3.3
180.1019	4.4
182.1178	32.6
184.0968	2.7
191.0815	2.7
191.1173	3.0
194.1185	3.0
199.0868	29.1
205.0968	3.0
209.1290	4.4
210.0791	5.7
210.1118	3.1
212.1071	5.1
215.1173	3.2
219.1126	4.5
221.1288	3.1
228.1019	19.7
229.1031	3.3
233.1281	8.7
235.1075	4.1
239.1397	6.5
241.1181	8.1
244.0969	18.3
245.1003	3.7
257.1280	4.3
275.1035	10.5
276.1343	6.7
297.1234	4.3
301.1553	7.2
317.1559	3.1
318.1325	7.8
326.1373	3.6
326.1730	3.8
326.2125	7.0
327.1352	16.4
327.1920	49.0
328.1185	14.2
328.1545	60.3
328.1916	7.6
329.1179	4.1
329.1527	28.2
329.2050	3.3
330.1342	36.6
330.1703	11.0
330.3371	5.1
331.1340	15.8
331.1665	16.3
332.1531	27.1
333.1455	23.0
333.1812	42.8
334.1287	12.8
334.1748	15.0
335.1611	78.9
335.1974	7.9
336.1455	39.5
336.1881	8.3
337.1483	4.3
337.1783	34.5
337.2127	3.4
338.1548	6.3
338.2021	25.4
339.1314	3.4
339.1945	55.4
340.1192	6.8
340.1933	9.3
341.1469	10.3
341.2117	25.1
342.1310	24.4
342.2108	3.4
343.1309	9.5
343.1663	18.0
344.1494	100.0
344.2154	31.2
345.1476	29.0
345.1832	4.9
345.2201	3.8
346.1294	2.8
346.1667	20.2
346.3308	4.4
347.1605	77.1
347.1952	3.9

Name: Sambucinol
PrecursorMZ: 267.15907
RT: 1.1593
ExactMass: 266.15180918
Spectrum_type: 2
charge: 1
Formula: C15H22O4
SMILES: CC1=C[C@]23[C@](CC1)([C@]4(C[C@@H]([C@H]([C@]4(O2)CO)O3)O)C)C
Method: HCD
Collision_energy: [28.333334]
Isolation_window: 4.0
Ion_mode: P
Num Peaks: 35
59.0496	5.3
69.0703	3.5
73.0652	6.0
81.0702	4.5
87.0443	5.3
89.0601	3.7
95.0857	5.0
97.0650	3.7
98.9844	44.1
107.0857	3.4
109.0649	17.4
109.1014	4.5
111.0442	4.0
111.0806	3.3
113.0598	4.5
119.0856	4.3
121.1013	12.2
123.0805	26.4
125.0961	3.6
135.0805	4.6
143.1066	3.2
155.0469	4.8
163.1117	5.3
169.0859	33.1
185.1322	3.6
209.1176	3.9
265.1310	3.4
265.2636	100.0
266.1345	11.7
266.2671	32.3
267.0994	4.9
267.1202	3.1
267.1309	5.8
267.1588	12.6
269.2085	8.0

Name: Sappanone A dimethyl ether
PrecursorMZ: 313.10688
RT: 4.493
ExactMass: 312.09977361
Spectrum_type: 2
charge: 1
Formula: C18H16O5
SMILES: COC1=CC2=C(C=C1)C(=O)/C(=C/C3=CC(=C(C=C3)OC)O)/CO2
Method: HCD
Collision_energy: [28.333334]
Isolation_window: 4.0
Ion_mode: P
Num Peaks: 18
57.0704	6.1
107.0494	49.0
112.8959	5.6
221.0962	5.0
231.0804	10.6
249.0910	23.3
250.0945	4.5
259.0753	10.2
277.0858	75.0
278.0890	11.3
295.0963	100.0
296.0999	19.5
312.0866	4.9
312.3623	11.2
313.1064	23.7
313.2735	25.7
313.3657	4.0
314.2773	5.4

Name: Sarcosine
PrecursorMZ: 90.05511
RT: 8.6488
ExactMass: 89.047678466
Spectrum_type: 2
charge: 1
Formula: C3H7NO2
SMILES: CNCC(=O)O
Method: HCD
Collision_energy: [28.333334]
Isolation_window: 4.0
Ion_mode: P
Num Peaks: 4
70.0654	32.4
72.0810	40.8
90.0550	85.3
91.0543	100.0

Name: Sarsasapogenin
PrecursorMZ: 417.33575
RT: 1.38895
ExactMass: 416.32904526
Spectrum_type: 2
charge: 1
Formula: C27H44O3
SMILES: C[C@H]1CC[C@@]2([C@H]([C@H]3[C@@H](O2)C[C@@H]4[C@@]3(CC[C@H]5[C@H]4CC[C@H]6[C@@]5(CC[C@@H](C6)O)C)C)C)OC1
Method: HCD
Collision_energy: [28.333334]
Isolation_window: 4.0
Ion_mode: P
Num Peaks: 88
55.0546	1.3
57.0702	1.4
67.0546	5.6
69.0338	2.5
69.0703	6.7
70.0654	4.5
72.0811	1.4
79.0544	1.4
81.0702	13.5
83.0858	2.8
85.0651	6.4
93.0700	3.8
95.0494	1.6
95.0857	7.6
97.1014	2.2
99.0806	4.4
105.0699	4.3
107.0857	9.9
109.0650	1.8
109.1013	28.0
110.1046	2.3
114.0914	2.7
119.0855	4.7
121.1012	6.2
123.1168	14.6
125.0961	22.9
126.0992	2.0
126.1278	2.1
127.1117	21.4
131.0855	1.6
133.1011	6.1
135.1167	5.5
137.0596	3.3
145.1011	3.4
147.1168	6.5
149.1326	2.8
151.0753	4.4
151.1117	12.3
159.1168	5.6
161.1325	10.9
162.1358	1.2
165.0909	1.3
165.1274	1.5
169.1222	9.8
170.1258	1.2
173.1324	3.8
175.0753	1.5
175.1478	1.5
177.0911	2.6
187.1480	1.9
199.1479	1.1
201.1636	2.2
213.1644	1.7
215.1792	56.8
216.1825	9.1
229.1948	1.8
233.1898	11.5
234.1929	1.7
239.1789	1.2
253.1944	2.0
255.2104	13.3
256.2142	2.0
257.1895	1.4
271.2053	2.5
273.2209	18.6
274.2246	2.9
283.2419	1.4
287.2369	1.7
289.2161	2.4
341.2836	1.2
381.3148	6.0
398.3415	7.5
399.3242	10.2
399.3455	1.7
400.3280	3.4
401.2794	1.4
401.3411	4.0
416.3202	2.5
416.3518	90.0
417.3140	1.5
417.3343	100.0
417.3553	14.0
417.4175	7.2
418.3389	30.3
418.3652	6.2
418.4224	2.5
419.3261	1.6
419.3438	1.5

Name: Sauchinone
PrecursorMZ: 379.11071
RT: 10.0638
Spectrum_type: 2
charge: 1
SMILES: O=C1C=C2OCOC32OC4=CC=5OCOC5C=C4C6C(C)C(C)CC1C63
Method: HCD
Collision_energy: [28.333334]
Isolation_window: 4.0
Ion_mode: P
Num Peaks: 27
70.0654	6.5
84.0810	8.4
104.1071	2.1
112.0870	2.4
128.0704	2.7
130.0860	4.4
154.0860	2.9
198.1123	2.5
259.0687	3.7
377.1545	4.3
377.1813	5.3
377.1904	2.7
378.1118	2.8
378.1378	4.1
378.1752	10.1
378.1998	6.7
378.2231	2.4
379.1105	100.0
379.1805	6.7
379.1844	4.1
380.0942	16.3
380.1150	10.2
380.1809	3.6
381.0785	26.7
381.1083	3.8
381.1850	2.8
381.2122	2.0

Name: Sch 642305
PrecursorMZ: 270.16994
RT: 1.3821
ExactMass: 252.13615911
Spectrum_type: 2
charge: 1
Formula: C14H20O4
SMILES: C[C@H]1CCCC[C@@H]2[C@@H](CC(=O)O1)[C@H](C=CC2=O)O
Method: HCD
Collision_energy: [28.333334]
Isolation_window: 4.0
Ion_mode: P
Num Peaks: 122
62.0604	4.3
67.0546	4.3
69.0337	3.2
69.0702	5.7
70.0655	8.9
71.0494	5.4
72.0810	3.7
79.0545	3.2
81.0336	2.2
81.0701	14.3
83.0493	3.6
83.0857	3.5
84.0446	3.0
85.0649	3.5
86.0966	2.9
91.0542	2.8
93.0700	12.8
95.0492	5.1
95.0856	11.9
97.0649	5.1
99.0804	4.6
105.0699	8.5
107.0491	2.3
107.0855	13.8
109.0648	6.9
109.1012	11.1
110.0601	5.9
111.0441	3.5
111.0803	5.1
112.0756	3.3
113.0598	3.8
114.0661	6.8
115.0752	2.7
116.0705	9.3
119.0855	6.4
121.0647	3.5
121.1012	7.2
123.0803	5.2
123.1167	4.0
124.0755	2.2
125.0597	3.6
125.0960	4.2
126.0549	2.3
131.0855	4.5
133.1010	10.6
135.0803	14.2
135.1167	3.0
136.0754	2.8
137.0960	3.4
138.0912	4.5
139.0751	2.5
140.0703	2.3
145.1011	5.3
147.1167	8.1
149.0959	5.9
149.1323	4.4
151.1116	11.5
152.0704	2.9
153.0907	2.4
154.0859	2.5
157.1011	2.7
158.0811	3.7
159.1167	3.2
161.0961	3.3
161.1323	4.2
163.0750	3.6
163.1116	5.6
163.1478	6.6
165.0905	2.2
166.0973	36.0
168.1129	2.3
171.1167	3.0
173.1324	7.4
175.1114	9.6
175.1479	2.7
179.1064	15.0
184.1078	3.2
187.1479	6.6
189.1271	4.8
191.1064	2.3
191.1427	12.3
193.1220	14.3
197.1171	6.7
197.1320	2.5
203.1427	2.8
205.1584	6.3
206.1536	3.0
207.1377	3.4
208.1329	3.4
209.1533	3.0
215.1428	7.7
217.1217	2.3
223.1686	2.4
224.1637	3.1
225.1340	2.2
229.1291	18.0
233.1531	27.9
234.1469	5.7
234.1571	2.7
235.1325	9.5
251.1636	17.6
252.1221	2.2
252.1587	81.1
253.1288	6.1
253.1428	3.9
253.1624	12.9
254.1747	10.1
269.1115	3.8
269.1522	4.0
269.1741	78.5
269.1853	2.5
270.0962	2.4
270.1115	2.5
270.1329	4.2
270.1450	4.5
270.1687	100.0
271.1077	2.3
271.1396	77.4
271.1723	14.7
272.0907	3.8
272.1428	5.7
272.1855	6.6

Name: Schisandrin
PrecursorMZ: 415.21124
RT: 1.2363
ExactMass: 432.21480336
Spectrum_type: 2
charge: 1
Formula: C24H32O7
SMILES: C[C@H]1CC2=CC(=C(C(=C2C3=C(C(=C(C=C3C[C@]1(C)O)OC)OC)OC)OC)OC)OC
Method: HCD
Collision_energy: [28.333334]
Isolation_window: 4.0
Ion_mode: P
Num Peaks: 17
69.0339	0.6
73.0472	0.9
91.0545	1.1
91.0576	2.6
107.0857	0.7
119.0769	0.6
119.0857	100.0
119.0946	0.6
120.0890	8.7
133.0649	1.3
135.0805	2.3
344.9764	1.8
415.0367	1.8
415.2115	3.3
416.0378	0.6
416.2151	0.8
417.1261	1.5

Name: Schisandrone
PrecursorMZ: 379.14957
RT: 7.0993
ExactMass: 356.16237386
Spectrum_type: 2
charge: 1
Formula: C21H24O5
SMILES: C[C@@H]1[C@@H](C(=O)C2=CC(=C(C=C2[C@H]1C3=CC(=C(C=C3)OC)OC)OC)O)C
Method: HCD
Collision_energy: [28.333334]
Isolation_window: 4.0
Ion_mode: P
Num Peaks: 9
86.0966	6.7
301.1176	25.2
302.1017	9.7
319.1281	71.4
320.1312	10.0
361.1387	39.7
362.1415	5.8
379.1492	100.0
380.1538	19.5

Name: Scleroderolide
PrecursorMZ: 329.10194
RT: 4.0629
ExactMass: 328.09468823
Spectrum_type: 2
charge: 1
Formula: C18H16O6
SMILES: C[C@H]1C(C2=C(O1)C3=C4C(=C2O)C(=O)C(=O)OC4=C(C=C3C)O)(C)C
Method: HCD
Collision_energy: [28.333334]
Isolation_window: 4.0
Ion_mode: P
Num Peaks: 10
114.0915	5.7
255.0649	6.0
268.0731	8.5
269.0808	62.1
270.0844	8.7
283.0963	8.4
311.0913	89.2
312.0950	19.1
329.1018	100.0
330.1053	18.8

Name: Scopine
PrecursorMZ: 156.10204
RT: 1.3862
ExactMass: 155.094628657
Spectrum_type: 2
charge: 1
Formula: C8H13NO2
SMILES: CN1[C@@H]2CC(C[C@H]1[C@H]3[C@@H]2O3)O
Method: HCD
Collision_energy: [28.333334]
Isolation_window: 4.0
Ion_mode: P
Num Peaks: 47
55.0546	2.7
58.0655	29.6
67.0546	9.3
69.0702	4.4
70.0655	4.5
72.0447	8.3
72.0811	7.3
81.0701	3.5
83.0495	2.9
83.0858	5.3
84.0810	5.5
85.0650	6.3
86.0603	3.9
86.0966	14.1
95.0493	2.8
95.0858	3.5
96.0809	7.0
97.0649	13.2
98.0601	10.3
98.0965	6.6
99.0442	3.0
102.0915	3.2
109.1012	5.3
110.0965	2.4
111.0805	2.6
112.0757	4.9
124.0756	10.8
126.0549	4.0
126.0913	7.1
128.0706	3.5
128.1069	4.0
137.0960	3.7
138.0911	4.2
154.0862	6.2
154.1224	6.9
155.0807	2.5
155.1066	2.6
155.1179	3.2
155.1256	2.3
156.0656	3.9
156.0807	2.2
156.1018	100.0
156.1381	12.4
157.1057	8.1
158.0809	2.7
158.0965	2.4
158.1173	7.5

Name: Sebacic Acid
PrecursorMZ: 225.10924
RT: 5.9152
ExactMass: 202.12050905
Spectrum_type: 2
charge: 1
Formula: C10H18O4
SMILES: C(CCCCC(=O)O)CCCC(=O)O
Method: HCD
Collision_energy: [28.333334]
Isolation_window: 4.0
Ion_mode: P
Num Peaks: 18
89.0599	7.8
164.0706	7.4
177.0850	10.9
179.1037	75.2
179.1164	13.9
180.1008	14.6
206.0807	6.9
207.1125	12.3
208.0965	28.5
209.0911	5.4
223.0905	24.4
224.0916	62.3
224.1279	11.2
225.0959	5.5
225.1088	88.3
225.1225	44.2
226.1068	100.0
227.1004	5.7

Name: Secnidazole
PrecursorMZ: 186.08733
RT: 7.0631
ExactMass: 185.08004122
Spectrum_type: 2
charge: 1
Formula: C7H11N3O3
SMILES: CC1=NC=C(N1CC(C)O)[N+](=O)[O-]
Method: HCD
Collision_energy: [28.333334]
Isolation_window: 4.0
Ion_mode: P
Num Peaks: 41
70.0655	2.6
84.0447	3.6
88.1124	1.3
96.0446	1.3
98.0602	3.6
100.0759	2.4
101.0599	3.1
111.0442	1.8
114.0556	1.5
114.0663	93.2
115.0696	4.4
116.0707	13.3
126.0550	3.4
128.0706	7.6
138.0549	11.1
139.0753	2.9
140.0704	1.9
140.0822	1.6
140.1070	1.3
142.0862	7.8
142.1226	2.0
144.0655	5.3
167.0701	1.4
167.0814	1.6
168.0662	2.5
168.0767	21.7
169.0799	1.4
170.0599	1.5
184.0965	1.3
184.1164	1.4
185.0919	2.6
186.0768	3.8
186.0872	100.0
186.1117	3.4
186.1234	1.3
187.0914	5.9
187.1074	3.7
188.0709	1.4
188.0917	4.3
188.1278	2.8
188.1644	8.2

Name: Secobarbital
PrecursorMZ: 239.13924
RT: 2.4692
ExactMass: 238.13174244
Spectrum_type: 2
charge: 1
Formula: C12H18N2O3
SMILES: CCCC(C)C1(C(=O)NC(=O)NC1=O)CC=C
Method: HCD
Collision_energy: [28.333334]
Isolation_window: 4.0
Ion_mode: P
Num Peaks: 12
89.0600	100.0
133.0859	39.8
139.9147	16.8
140.0703	7.0
152.0706	73.0
195.1224	9.1
195.1492	16.4
238.1069	5.4
239.1387	69.9
239.1491	6.3
240.1224	5.1
240.1423	8.3

Name: Securinine
PrecursorMZ: 218.11735
RT: 7.7901
ExactMass: 217.110278721
Spectrum_type: 2
charge: 1
Formula: C13H15NO2
SMILES: C1CCN2[C@H](C1)[C@]34C[C@H]2C=CC3=CC(=O)O4
Method: HCD
Collision_energy: [28.333334]
Isolation_window: 4.0
Ion_mode: P
Num Peaks: 85
56.0498	0.5
60.0448	2.0
70.0654	3.3
71.0493	0.6
72.0811	4.8
73.0843	0.4
74.0603	2.9
84.0446	0.7
84.0810	4.3
85.0842	0.6
86.0601	0.5
86.0966	0.7
96.0443	0.4
98.0965	1.0
108.0443	0.6
110.0601	1.0
111.0439	1.6
113.0233	0.9
114.0913	0.8
115.0865	1.3
116.0706	4.9
118.0860	0.4
121.0645	0.4
126.0547	0.5
128.0704	0.6
128.1067	0.7
129.1020	2.5
130.0497	2.5
130.0860	1.5
132.0653	0.7
132.1017	0.5
133.0605	1.1
144.0652	0.4
144.0805	5.1
145.0758	0.5
147.0763	2.8
147.1125	0.9
154.1224	0.7
156.1018	0.7
157.0494	12.8
158.0527	2.3
158.0965	0.8
169.0645	0.5
170.1172	0.6
172.0964	0.6
172.1118	1.8
173.1284	0.8
174.1024	0.4
174.1275	1.5
181.1327	0.4
184.0602	0.4
188.0704	0.6
198.1119	1.4
199.1074	0.7
199.1439	0.5
200.0915	0.7
200.1063	0.7
200.1275	1.7
201.0862	0.7
202.0860	0.7
203.0655	0.7
203.0935	0.4
216.1005	0.6
216.1226	10.4
216.1330	0.4
216.1587	0.9
217.0968	5.5
217.1176	2.8
217.1262	2.4
217.1540	2.4
218.0808	3.8
218.0931	1.1
218.1008	2.8
218.1171	100.0
218.1381	4.4
218.1746	1.0
219.0756	0.7
219.1120	5.6
219.1205	12.1
219.1329	0.8
219.1490	2.4
220.0962	4.7
220.1074	2.3
220.1175	1.2
220.1323	1.4

Name: Senecionine
PrecursorMZ: 336.18019
RT: 2.9884
ExactMass: 335.1732729
Spectrum_type: 2
charge: 1
Formula: C18H25NO5
SMILES: C/C=C\1/C[C@H]([C@@](C(=O)OCC2=CCN3[C@H]2[C@@H](CC3)OC1=O)(C)O)C
Method: HCD
Collision_energy: [28.333334]
Isolation_window: 4.0
Ion_mode: P
Num Peaks: 20
73.0288	10.4
93.0702	3.9
100.0757	3.3
109.0649	3.6
112.8958	5.9
121.0648	100.0
122.0681	7.4
135.0806	3.4
137.0593	3.4
138.0912	25.5
164.0705	5.3
220.1328	11.4
248.1278	4.0
262.1432	4.2
300.1591	4.8
318.1693	5.3
318.2061	10.4
336.1800	57.4
337.1836	7.8
337.2136	7.7

Name: Seneciphylline
PrecursorMZ: 334.16451
RT: 1.09875
ExactMass: 333.15762283
Spectrum_type: 2
charge: 1
Formula: C18H23NO5
SMILES: C/C=C\1/CC(=C)[C@@](C(=O)OCC2=CCN3[C@H]2[C@@H](CC3)OC1=O)(C)O
Method: HCD
Collision_energy: [28.333334]
Isolation_window: 4.0
Ion_mode: P
Num Peaks: 216
67.0548	26.0
69.0340	16.9
69.0704	24.5
70.0656	69.6
71.0496	26.8
72.0813	42.2
79.0548	13.2
80.0499	18.0
81.0340	80.2
81.0703	34.7
82.0654	13.5
83.0496	30.5
83.0860	17.5
84.0448	34.8
84.0812	55.0
85.0653	15.1
86.0605	17.4
86.0969	70.4
87.0445	23.5
89.0602	20.8
91.0544	15.9
93.0704	26.5
95.0495	29.5
95.0860	34.5
96.0447	27.9
97.0650	19.9
98.0604	19.7
99.0444	20.8
100.0761	25.0
101.0601	55.3
105.0704	17.6
107.0495	42.3
107.0860	24.2
108.0447	14.7
109.0650	20.1
109.0764	23.5
109.1014	19.6
110.0604	25.9
110.0717	14.3
111.0445	48.3
112.0762	36.4
114.0552	22.4
114.0666	20.1
116.0709	81.4
117.0703	13.3
119.0858	20.8
120.0812	25.1
121.0650	23.4
121.1017	20.7
122.0603	30.8
123.0443	19.9
123.0806	16.2
124.0759	31.0
125.0600	16.3
126.0552	22.8
126.0917	38.0
127.0395	19.8
128.0711	23.4
128.1072	14.6
130.0502	18.5
130.0863	37.1
131.0853	14.4
133.0652	58.0
133.0860	13.7
133.1011	19.6
134.0601	14.6
135.0810	19.4
135.1168	14.5
136.0760	42.9
137.0598	28.5
138.0553	28.6
138.0915	19.0
140.0710	36.1
141.0665	13.5
142.0867	33.3
143.1183	15.1
144.1024	13.0
145.0651	12.7
145.1014	20.2
147.0807	17.0
147.1174	12.9
148.0756	44.5
149.0970	17.9
150.0553	21.7
150.0915	42.2
151.0757	15.2
152.0709	33.7
154.0866	23.3
156.1018	15.0
160.0757	16.0
161.0600	21.2
161.0964	12.8
162.0922	16.8
163.0757	16.6
163.1124	14.3
164.0708	84.6
164.1070	19.8
166.0505	21.9
166.0863	91.5
168.0658	24.6
168.1018	28.7
171.1155	15.1
173.0928	18.8
175.1118	12.9
176.0701	16.3
178.0856	23.2
180.0658	66.1
180.1015	35.9
181.0990	17.2
182.0809	74.1
185.1310	16.5
187.0746	27.7
188.0694	17.5
191.0834	14.3
192.0644	17.1
192.1014	32.4
194.0810	62.0
196.0964	32.1
197.0931	15.8
197.1310	13.5
198.0757	41.4
200.1265	17.2
201.1274	13.6
204.1027	13.1
205.0838	19.4
206.0795	14.6
207.1137	16.1
208.0967	30.5
210.1124	75.4
211.1127	15.5
213.1249	17.0
216.1226	15.0
221.1302	13.0
223.1094	16.3
225.1253	13.3
236.1139	15.3
237.1243	12.8
239.1051	13.5
250.1812	14.5
263.1093	16.7
267.1349	21.2
281.1182	100.0
282.1203	34.6
286.1068	14.9
287.1385	14.7
288.1242	12.7
289.1235	16.3
291.1700	16.9
293.1528	13.7
295.1345	14.3
297.1453	21.6
301.1183	13.5
303.1448	58.4
304.1179	16.5
309.0872	20.4
311.1638	13.1
312.1921	21.3
316.1154	21.3
317.1178	22.8
317.1483	22.4
319.1280	14.5
319.1642	19.2
321.1439	19.5
322.1294	16.0
323.1269	12.8
324.1480	13.0
327.0983	38.4
331.1388	38.0
332.1462	14.6
333.1473	47.5
333.1880	22.4
334.1290	63.6
334.1701	17.9
335.1258	30.4
335.1609	79.2
335.1982	29.8
336.1471	48.5
336.2167	14.1
337.1417	34.8
337.1759	53.0
337.2140	16.8
338.1253	29.4
338.1671	32.7
339.1576	43.9
339.1918	41.3
339.2286	54.3
340.1405	54.4
340.1910	29.3
341.1445	16.0
341.1787	55.2
342.1616	20.9
343.1248	38.2
343.1620	14.6
343.1920	15.2
344.1169	21.2
344.1755	20.1
344.2189	36.2
345.1064	18.0
345.1451	91.3
345.1788	20.6
346.1318	24.1
346.1727	23.8
347.1247	15.7
347.1569	36.4
347.2019	23.6
348.1497	39.9
348.2160	20.6
349.1420	74.1
349.1799	21.8
350.1217	27.9
350.1696	46.7
350.2333	90.7
351.1578	37.8
351.2295	62.1
352.1403	45.6
353.1753	17.2

Name: Ser-C17:0
PrecursorMZ: 358.29471
RT: 1.4447
Spectrum_type: 2
charge: 1
SMILES: CCCCCCCCCCCCCCCCC(NC(C(O)=O)CO)=O
Method: HCD
Collision_energy: [28.333334]
Isolation_window: 4.0
Ion_mode: P
Num Peaks: 5
69.0702	8.2
83.0857	7.9
90.0551	100.0
340.2838	26.5
358.2945	21.7

Name: Ser-Ile
PrecursorMZ: 219.13373
RT: 5.5278
ExactMass: 218.12665706
Spectrum_type: 2
charge: 1
Formula: C9H18N2O4
SMILES: CC[C@H](C)[C@@H](C(=O)O)NC(=O)[C@H](CO)N
Method: HCD
Collision_energy: [28.333334]
Isolation_window: 4.0
Ion_mode: P
Num Peaks: 216
56.0499	5.3
57.0339	4.1
58.0372	3.4
58.0655	2.8
60.0448	13.8
67.0545	1.1
69.0391	1.4
69.0411	0.9
69.0702	1.1
69.1159	0.8
69.1989	1.1
69.2014	1.3
69.2508	0.7
69.5359	1.2
70.0654	1.0
71.0495	5.4
72.0528	4.3
72.0811	38.8
73.0110	1.2
73.0844	1.8
74.0603	100.0
75.0637	2.6
76.0218	1.3
79.0544	1.6
80.0497	3.1
81.0337	1.5
81.0449	1.1
81.0701	1.4
83.0494	0.9
84.0446	14.5
84.0527	1.3
84.0810	6.0
86.0602	6.5
86.0966	36.6
87.0443	0.6
87.0555	0.9
87.1000	2.1
88.0394	1.1
90.0551	1.6
91.0544	1.8
93.0700	1.6
95.0605	6.6
95.0856	1.1
97.4571	1.5
98.9842	14.4
99.0805	1.2
100.0394	1.7
100.9885	1.5
101.0234	5.5
101.0346	1.4
101.0710	2.4
102.0550	12.3
102.0632	2.8
103.0584	0.7
104.0706	1.3
105.0699	2.0
107.0492	3.6
107.0855	1.3
108.0444	1.7
108.0808	2.6
109.0648	0.9
112.0757	2.2
114.0551	0.8
114.0915	0.9
115.0212	2.4
116.0706	3.8
117.0699	2.2
118.0862	21.0
119.0490	1.4
119.0602	1.1
119.0856	1.8
119.0896	0.9
120.0655	8.2
121.0647	3.8
123.0803	1.4
125.0232	3.6
126.0265	6.1
126.0913	0.9
128.1068	1.4
129.1021	1.0
130.0498	47.3
130.0650	2.3
131.0531	2.4
131.0602	6.9
131.0854	1.9
132.0113	0.8
132.0442	2.1
132.1017	14.0
133.0646	2.2
133.1052	0.8
134.0599	1.2
135.0802	3.8
136.0391	3.6
136.0755	2.0
140.0341	0.8
141.0697	1.0
142.0497	2.0
145.0759	3.6
145.1010	1.4
146.0598	11.8
147.0550	1.2
147.0912	1.0
148.0603	29.2
148.0755	1.5
149.0636	1.3
154.0496	3.4
154.0861	8.2
155.0602	2.3
155.0812	2.5
155.1177	2.2
156.0444	1.0
156.0475	1.1
156.0654	1.0
157.0759	5.1
157.1010	1.5
158.0599	5.9
158.0810	1.8
159.0632	3.3
159.0759	1.5
159.0805	1.0
159.1166	3.4
161.0960	1.0
161.1322	1.4
162.0217	2.3
162.0548	1.2
172.0754	4.2
172.0965	4.9
172.1329	0.9
173.0707	2.7
173.1281	15.8
173.1335	1.1
174.0217	1.4
174.0546	5.9
174.0585	1.0
174.0759	0.8
174.0911	3.0
174.1023	27.6
174.1121	4.6
174.1318	1.4
174.1488	0.8
175.0753	2.8
175.0863	2.1
175.1056	3.1
176.0703	0.8
176.0913	1.5
177.0545	1.4
178.0863	0.8
182.0810	1.8
183.1165	2.5
184.0062	1.9
184.0968	0.9
185.0707	0.6
190.0725	0.9
190.0970	1.2
191.0700	11.3
191.1062	2.6
191.1427	1.8
192.0652	5.7
192.0731	1.4
192.0872	1.0
192.1015	1.0
200.0373	4.8
200.0702	2.5
200.0914	3.1
200.1277	2.3
201.0655	7.4
201.1230	5.6
201.1271	5.2
202.0166	9.4
202.0495	7.1
202.0530	1.1
202.0859	4.2
202.0971	3.5
202.1069	1.2
202.1308	0.9
203.0196	0.9
203.0337	1.3
203.0533	0.8
203.0812	10.6
203.1022	3.8
203.1423	1.0
209.0805	2.8
218.0476	3.8
218.0809	28.8
218.0919	13.8
218.1016	3.2
218.1169	2.9
218.1259	1.1
218.1385	0.6
218.2109	1.6
219.0649	4.1
219.0758	15.1
219.0849	3.0
219.0950	1.4
219.1012	2.1
219.1124	31.3
219.1334	12.9
219.1375	7.9
220.0600	28.3
220.0632	1.5
220.0723	0.7
220.0796	1.7
220.0820	1.2
220.0964	30.8
220.1073	9.1
220.1177	3.4
220.1324	9.7
220.1376	1.1
220.1417	1.6
220.1441	1.0
221.0636	1.8
221.0914	11.4
221.1005	1.9
221.1117	1.4
221.1279	2.1
221.1533	1.7

Name: Ser-Leu
PrecursorMZ: 219.1337
RT: 1.4372
ExactMass: 218.12665706
Spectrum_type: 2
charge: 1
Formula: C9H18N2O4
SMILES: CC(C)C[C@@H](C(=O)O)NC(=O)[C@H](CO)N
Method: HCD
Collision_energy: [28.333334]
Isolation_window: 4.0
Ion_mode: P
Num Peaks: 236
55.0546	0.4
56.0499	0.9
58.0655	1.3
59.0495	0.3
60.0448	4.1
67.0546	0.7
69.0702	0.8
69.4948	0.3
69.7320	0.3
69.7539	0.2
70.0654	0.3
70.7364	0.2
71.0495	1.7
72.0617	0.4
72.0769	0.7
72.0811	100.0
72.0852	0.7
72.1016	0.4
73.0286	0.5
73.0781	0.8
73.0844	12.3
73.0873	0.4
74.0559	0.3
74.0603	44.1
74.0646	0.3
74.0877	0.2
75.0636	1.3
79.0544	0.7
80.0497	1.7
81.0338	0.3
81.0449	0.9
81.0701	1.2
83.0493	0.4
83.0857	0.3
84.0446	4.5
85.0480	0.3
85.0649	0.3
86.0602	1.8
86.0966	8.2
87.0442	0.7
87.0999	0.4
89.0599	0.4
90.0551	0.7
91.0543	0.9
93.0700	1.2
94.0652	0.4
95.0605	14.2
95.0856	1.0
96.0638	0.4
96.0683	4.3
97.0648	0.3
97.0761	0.4
97.4562	0.3
99.0441	0.4
100.0757	0.3
101.0234	0.2
101.0597	0.2
101.0710	1.2
102.0550	4.0
103.0391	0.5
103.0584	0.2
104.0707	0.3
105.0336	0.5
105.0699	1.3
107.0492	0.3
107.0604	0.4
107.0855	1.2
108.0444	2.7
109.0476	0.2
109.0647	0.4
109.1012	0.4
110.0599	0.2
111.0441	0.5
111.0803	0.3
112.0757	0.3
113.0233	0.3
113.0596	0.7
114.0550	0.2
116.0707	0.2
117.0573	1.2
117.0698	0.8
118.0650	0.7
118.0862	13.4
119.0854	1.5
119.0895	1.3
120.0654	2.0
120.0807	0.8
121.0648	0.4
121.1010	0.9
122.0599	0.3
123.0803	0.5
123.1166	0.3
126.0547	0.3
126.0912	1.6
128.1069	0.9
129.0543	0.6
129.0697	0.3
129.1019	0.4
130.0497	14.9
130.0650	0.4
131.0530	0.8
131.0601	0.8
131.0853	1.2
132.1017	3.9
133.1009	1.2
134.0598	0.2
135.0803	0.9
135.1165	0.4
136.0391	6.3
137.0423	0.5
137.0594	0.3
137.0959	0.4
140.0704	0.3
142.0496	0.4
143.0853	0.3
145.0758	0.3
145.1009	1.1
146.0598	0.4
147.0801	0.7
147.0914	0.6
147.1166	0.7
148.0603	8.8
149.0637	0.4
149.0959	0.4
150.0547	0.2
152.0340	1.3
154.0324	0.3
154.0496	5.7
154.0861	0.4
155.0529	0.4
155.0699	0.5
155.0850	0.2
155.1176	1.4
156.0659	0.2
156.0732	0.5
157.0759	0.5
157.1011	0.7
158.0599	0.3
158.0809	0.4
159.0438	0.4
159.0801	0.4
159.1166	3.3
160.0754	0.3
160.1197	0.3
161.0959	0.5
161.1322	1.5
162.0216	0.3
163.1114	0.3
170.0445	0.2
171.1489	1.3
172.0967	0.7
172.1329	0.6
172.1522	0.5
173.0708	0.7
173.1281	8.8
174.0547	6.5
174.0910	0.3
174.1023	13.5
174.1122	0.3
174.1314	0.7
175.0577	0.4
175.0864	0.9
175.1056	1.4
175.1116	0.5
175.1227	0.5
175.1476	0.5
176.0705	0.2
176.1177	0.2
177.0906	0.3
177.1270	0.3
178.0859	0.3
183.1167	0.8
185.1321	0.5
190.0859	0.2
190.0972	0.7
191.0701	0.2
191.0811	0.3
191.1427	0.7
192.0652	12.1
192.1016	0.8
192.1491	0.7
193.0688	0.7
193.1584	0.9
200.0703	0.5
200.0813	0.2
200.0912	0.5
200.1277	0.7
201.0657	0.5
201.1227	3.1
201.1243	0.5
201.1631	0.4
202.0496	0.7
202.0859	0.3
202.0969	0.3
202.1336	2.4
203.0811	1.0
203.1175	2.1
203.1424	0.7
217.1540	2.4
218.0678	0.3
218.0808	2.4
218.0917	6.4
218.1009	0.5
218.1079	0.3
218.1171	1.1
218.1280	1.4
218.1383	0.3
218.1578	1.2
218.2110	3.9
219.0644	0.3
219.0758	1.8
219.0847	0.3
219.0960	0.6
219.1007	0.5
219.1122	2.4
219.1334	8.3
219.1736	1.0
219.2142	0.6
220.0600	13.0
220.0692	0.3
220.0813	0.2
220.0964	11.0
220.1073	0.7
220.1176	0.3
220.1320	1.0
220.1352	0.3
220.1440	18.3
221.0553	0.3
221.0639	0.9
221.0915	2.3
221.1001	0.7
221.1162	0.3
221.1279	0.6
221.1474	1.1
221.1533	1.7
239.0662	0.3

Name: Ser-Phe
PrecursorMZ: 253.11782
RT: 4.8163
ExactMass: 252.111007
Spectrum_type: 2
charge: 1
Formula: C12H16N2O4
SMILES: C1=CC=C(C=C1)C[C@@H](C(=O)O)NC(=O)[C@H](CO)N
Method: HCD
Collision_energy: [28.333334]
Isolation_window: 4.0
Ion_mode: P
Num Peaks: 58
60.0447	61.1
62.0604	3.6
70.0654	5.4
86.0966	1.7
87.0554	3.8
89.0599	2.3
97.0761	3.6
112.0756	3.1
120.0806	63.0
121.0839	4.8
122.0597	3.2
123.0916	1.6
124.0754	7.5
134.0598	42.2
134.0962	1.7
135.0631	3.3
136.0614	6.1
149.0594	2.9
149.0958	6.8
152.1066	6.2
162.0910	4.3
164.0702	2.5
166.0805	1.5
166.0859	94.3
167.0892	7.4
179.1174	5.2
183.1123	5.7
184.1076	2.1
191.1059	2.8
191.1171	1.8
206.0806	2.7
206.1027	2.0
207.1122	23.3
208.1160	3.1
212.0913	1.6
225.1224	3.2
234.1119	2.3
235.1067	6.3
236.0659	2.0
236.0910	2.3
237.1590	1.7
251.1018	3.0
251.1377	2.1
252.0861	7.6
252.1078	2.7
252.1221	9.0
252.1336	8.7
252.1580	2.8
253.1174	100.0
253.1537	4.0
253.1651	3.6
254.1016	20.9
254.1129	5.8
254.1224	10.4
254.1382	2.3
254.1487	4.9
255.1337	3.1
255.1696	4.6

Name: Ser-Val
PrecursorMZ: 205.11806
RT: 6.7554
ExactMass: 204.111007
Spectrum_type: 2
charge: 1
Formula: C8H16N2O4
SMILES: CC(C)[C@@H](C(=O)O)NC(=O)[C@H](CO)N
Method: HCD
Collision_energy: [28.333334]
Isolation_window: 4.0
Ion_mode: P
Num Peaks: 31
60.0448	100.0
61.0481	2.4
72.0811	66.1
73.0844	3.2
83.0494	3.1
86.0966	2.0
87.0555	5.7
90.0914	1.7
96.0445	1.9
111.0440	14.2
114.0913	6.4
118.0862	72.5
119.0895	3.7
126.0547	1.3
132.1018	1.5
158.1538	1.3
159.1126	56.6
160.0521	5.8
160.1158	3.6
187.1074	8.9
188.0913	2.6
204.0419	2.9
204.0651	1.6
204.1016	6.2
204.1222	1.5
205.0968	17.1
205.1178	17.5
206.0808	5.4
206.1010	2.3
206.1164	4.7
207.1123	5.1

Name: Serine betaine
PrecursorMZ: 148.09684
RT: 11.3079
ExactMass: 148.09736831
Spectrum_type: 2
charge: 1
Formula: C6H14NO3+
SMILES: C[N+](C)(C)C(CO)C(=O)O
Method: HCD
Collision_energy: [28.333334]
Isolation_window: 4.0
Ion_mode: P
Num Peaks: 7
86.0603	27.7
86.0967	73.9
88.0760	21.8
123.9645	22.2
130.0862	32.7
148.0968	100.0
149.0234	27.3

Name: Sertraline
PrecursorMZ: 306.0807
RT: 1.98835
ExactMass: 305.0738049
Spectrum_type: 2
charge: 1
Formula: C17H17Cl2N
SMILES: CN[C@H]1CC[C@H](C2=CC=CC=C12)C3=CC(=C(C=C3)Cl)Cl
Method: HCD
Collision_energy: [28.333334]
Isolation_window: 4.0
Ion_mode: P
Num Peaks: 8
91.0545	16.8
129.0698	36.0
158.9762	100.0
159.9799	9.3
160.9733	39.2
275.0386	79.6
276.0421	13.6
277.0353	38.4

Name: Sertraline Hydrochloride
PrecursorMZ: 306.08067
RT: 2.0524
ExactMass: 341.050483
Spectrum_type: 2
charge: 1
Formula: C17H18Cl3N
SMILES: CN[C@H]1CC[C@H](C2=CC=CC=C12)C3=CC(=C(C=C3)Cl)Cl.Cl
Method: HCD
Collision_energy: [28.333334]
Isolation_window: 4.0
Ion_mode: P
Num Peaks: 14
91.0544	10.7
129.0697	29.0
130.0730	1.9
158.9761	100.0
159.9795	7.3
160.9732	21.8
196.9915	1.8
275.0383	94.8
276.0416	15.5
277.0353	21.9
304.2992	1.8
306.0618	1.7
306.0807	2.6
306.2793	2.0

Name: Sevedindione
PrecursorMZ: 428.31544
RT: 5.4302
ExactMass: 427.30864417
Spectrum_type: 2
charge: 1
Formula: C27H41NO3
SMILES: C[C@@H]1CC[C@H]2[C@@H]([C@H]3CC[C@@]4([C@H]([C@@H]3CN2C1)C[C@H]5[C@H]4CC(=O)[C@@H]6[C@@]5(CCC(=O)C6)C)O)C
Method: HCD
Collision_energy: [28.333334]
Isolation_window: 4.0
Ion_mode: P
Num Peaks: 35
69.1043	0.6
81.0338	0.7
84.0811	1.1
89.0600	0.8
95.0857	0.6
100.0759	4.5
114.0915	0.9
116.0707	0.9
128.0706	19.1
129.0740	1.0
129.1020	0.5
130.0861	0.6
140.1069	1.7
156.1019	1.2
158.1175	0.5
161.1325	2.6
165.0910	1.9
253.1948	0.5
271.2054	3.1
272.2091	0.7
273.2215	0.5
296.2945	0.6
410.3050	0.7
426.3016	0.5
426.4044	0.8
427.3038	1.5
427.3548	1.0
428.2552	0.7
428.3155	100.0
428.3631	0.6
428.3764	0.8
429.3190	28.0
429.3451	0.7
429.3677	0.5
430.3311	22.5

Name: Shogaol
PrecursorMZ: 294.20623
RT: 4.5817
ExactMass: 276.17254462
Spectrum_type: 2
charge: 1
Formula: C17H24O3
SMILES: CCCCC/C=C/C(=O)CCC1=CC(=C(C=C1)O)OC
Method: HCD
Collision_energy: [28.333334]
Isolation_window: 4.0
Ion_mode: P
Num Peaks: 94
55.0547	0.5
57.0704	0.8
67.0547	1.0
69.0703	0.7
70.0655	0.5
71.0859	1.3
79.0545	0.7
81.0339	0.6
81.0702	1.7
83.0859	2.0
85.1015	0.7
86.0968	0.7
91.0545	0.5
93.0701	1.2
95.0495	0.4
95.0858	1.5
97.0650	0.6
97.1013	0.8
97.3990	0.5
99.0443	0.4
99.0807	0.9
100.1054	0.6
100.1123	100.0
100.1192	0.6
101.1093	0.4
101.1156	6.3
105.0701	0.6
107.0493	0.4
107.0857	1.1
109.0649	0.4
109.1013	1.2
119.0856	0.8
120.0809	2.3
121.1013	0.8
123.0805	0.4
123.1169	0.4
124.0759	0.5
125.0961	0.7
133.1012	0.6
135.1168	0.9
136.0619	0.6
136.0756	0.4
137.0597	4.6
137.0961	0.5
138.0630	0.5
145.1012	0.6
147.1168	0.6
149.0961	0.5
149.1325	0.5
151.1117	1.1
152.0707	0.4
152.1071	0.7
161.1326	0.5
163.1119	0.5
164.0709	0.5
165.1274	0.4
166.0864	1.2
169.0761	0.5
176.0705	0.7
179.1178	0.4
180.1019	1.4
187.0866	5.4
188.0901	0.6
189.1121	0.4
197.0672	0.4
200.0707	0.4
207.0654	0.7
207.1124	0.7
231.1020	0.4
236.2373	0.4
259.0960	0.6
259.2052	0.4
275.2003	1.5
277.1057	0.4
277.2160	2.6
293.1132	0.5
293.1495	2.6
293.1850	0.6
293.2110	1.7
294.0970	0.4
294.1126	0.5
294.1334	1.2
294.1529	0.4
294.1686	0.5
294.2060	5.1
295.1168	0.7
295.1286	0.6
295.1652	1.0
295.2094	1.0
295.2263	1.9
296.1126	0.4
296.1609	1.7
296.2586	0.7
296.2946	46.5

Name: Simurosertib
PrecursorMZ: 342.13839
RT: 5.8286
ExactMass: 341.13103142
Spectrum_type: 2
charge: 1
Formula: C17H19N5OS
SMILES: CC1=C(C=NN1)C2=CC3=C(S2)C(=O)NC(=N3)[C@@H]4CC5CCN4CC5
Method: HCD
Collision_energy: [28.333334]
Isolation_window: 4.0
Ion_mode: P
Num Peaks: 121
59.0608	2.7
69.0339	3.8
70.0655	11.8
81.0339	3.9
82.0655	3.0
84.0448	9.0
84.0811	34.6
85.0287	10.1
86.0603	2.6
86.0968	5.3
87.0443	3.2
96.0446	5.5
97.0286	6.6
98.0603	4.1
99.0441	2.6
102.0551	11.2
109.0285	2.8
110.0603	4.5
110.0717	3.5
111.0442	3.2
114.0550	5.0
114.0665	3.5
116.0706	9.2
122.0600	3.4
123.0441	11.3
126.0550	4.6
127.0392	7.4
128.0706	6.6
130.0499	7.9
130.0863	20.6
132.0445	6.1
137.0235	6.0
138.0548	4.5
139.0391	4.8
142.0502	2.8
142.0864	2.6
144.0656	7.8
145.0494	5.9
148.0605	7.6
150.0547	3.0
155.0810	3.5
156.0653	3.2
162.0763	10.4
163.0390	23.7
165.0547	12.2
167.0813	3.8
168.0656	2.8
171.0765	2.9
173.0922	6.2
175.0393	3.5
175.1199	5.8
176.1065	2.6
178.0849	2.9
180.0771	11.5
181.0481	3.6
201.0866	5.4
213.0862	2.9
219.1338	2.8
225.0876	5.9
254.0812	3.8
255.0654	4.1
257.0807	9.3
264.1345	3.1
265.1180	5.5
267.0645	5.5
269.0801	4.4
271.0959	4.5
271.1287	3.4
281.0806	10.4
283.0594	7.1
284.0654	2.6
287.0928	2.6
295.0595	3.6
295.0947	4.3
297.0759	10.2
299.0569	3.7
299.0909	68.6
300.0931	11.7
307.1287	3.3
313.1068	3.6
314.0997	2.8
315.0849	6.9
323.0899	3.0
323.1194	2.7
324.1279	5.0
325.1044	2.6
325.1395	4.9
327.0859	8.9
330.1562	7.2
333.1076	3.5
341.0693	4.0
341.1015	100.0
341.1366	5.9
342.1023	20.7
342.1717	5.8
343.0793	3.5
343.1134	20.6
343.1534	8.8
344.1077	3.2
344.1541	4.1
345.0950	5.2
345.1359	7.6
345.1696	3.1
346.1674	4.3
347.1557	23.2
348.1341	3.9
348.1704	5.1
349.1671	3.5
351.1154	6.9
353.0985	3.6
354.1305	2.7
355.1155	13.8
356.1432	2.8
356.1830	7.5
357.1345	7.3
358.1676	4.5
359.1118	21.6
359.1519	4.7
360.1059	11.2
360.1799	4.8
361.1694	11.5

Name: Sinactine
PrecursorMZ: 340.14992
RT: 8.559
ExactMass: 339.14705815
Spectrum_type: 2
charge: 1
Formula: C20H21NO4
SMILES: COC1=C(C=C2C3CC4=C(CN3CCC2=C1)C5=C(C=C4)OCO5)OC
Method: HCD
Collision_energy: [28.333334]
Isolation_window: 4.0
Ion_mode: P
Num Peaks: 39
70.0657	6.2
72.0449	4.8
89.0602	8.7
106.0865	4.7
132.0445	39.0
133.0861	5.3
150.0553	4.8
178.0866	4.8
191.0819	7.8
233.0930	6.7
240.2328	4.8
251.1034	5.9
297.1234	16.6
339.1561	8.9
340.1504	100.0
341.1664	10.7
342.1604	12.2
343.1476	5.4
343.1876	20.1
344.1703	15.8
345.1658	10.6
345.2041	9.4
346.1301	4.4
346.3322	18.2
348.1010	6.3
348.1472	5.8
349.2004	8.3
350.1608	6.3
351.1560	6.1
353.1723	5.3
355.1876	11.5
356.1150	4.3
356.1750	7.3
356.3527	12.3
357.1679	9.2
358.1252	6.9
358.1991	10.3
358.3675	9.1
359.1830	5.7

Name: Sinensetin
PrecursorMZ: 373.12804
RT: 8.0139
ExactMass: 372.12090297
Spectrum_type: 2
charge: 1
Formula: C20H20O7
SMILES: COC1=C(C=C(C=C1)C2=CC(=O)C3=C(C(=C(C=C3O2)OC)OC)OC)OC
Method: HCD
Collision_energy: [28.333334]
Isolation_window: 4.0
Ion_mode: P
Num Peaks: 87
70.0656	0.3
84.0449	0.2
84.0811	0.5
96.0447	0.6
114.0551	0.3
114.0664	1.3
114.0916	0.2
116.0708	0.3
142.0500	0.7
235.0751	0.3
239.0700	0.9
247.0757	0.3
249.0909	0.2
253.0859	4.1
254.0895	0.7
259.0968	0.4
263.0700	0.6
267.1018	0.3
269.0802	0.3
271.0964	14.7
272.0998	2.6
273.1023	0.2
277.0858	1.0
281.0807	18.6
282.0850	3.8
283.0968	3.2
283.1399	0.2
284.0997	0.5
285.1121	3.4
286.1155	0.6
291.0649	0.4
295.0963	2.2
296.1001	0.4
297.0757	0.9
298.0835	4.4
299.0899	1.4
300.0940	0.2
301.1068	1.9
302.1099	0.3
309.1119	1.4
311.0910	0.5
311.1277	0.4
312.0948	0.4
313.0580	0.2
313.0693	0.7
313.0767	0.6
313.1069	93.9
313.1369	0.4
313.1447	0.7
314.1102	17.7
315.0861	0.3
315.1130	1.7
317.1745	0.3
321.1692	0.2
323.0905	0.7
327.0866	0.3
327.1219	0.6
329.1015	0.7
330.1050	0.7
335.1853	0.2
337.1071	0.7
339.0848	0.3
339.1588	0.2
340.0924	0.4
355.0584	0.2
355.0715	0.5
355.0816	0.7
355.1175	100.0
355.1533	0.7
355.1626	0.6
355.1902	0.5
356.1208	21.2
357.1233	2.3
357.1696	0.4
371.1119	0.4
371.1827	0.3
372.1097	0.2
372.1172	0.6
372.1440	0.3
373.1277	23.5
373.1709	1.8
373.1987	0.5
374.0895	0.3
374.1310	5.2
374.1729	0.3
375.1313	1.0
375.1551	0.4

Name: Sinomenine
PrecursorMZ: 352.14994
RT: 0.8747
ExactMass: 329.16270821
Spectrum_type: 2
charge: 1
Formula: C19H23NO4
SMILES: CN1CC[C@@]23CC(=O)C(=C[C@@H]2[C@@H]1CC4=C3C(=C(C=C4)OC)O)OC
Method: HCD
Collision_energy: [28.333334]
Isolation_window: 4.0
Ion_mode: P
Num Peaks: 52
70.0657	20.1
81.0340	47.3
83.0496	16.0
98.0969	8.7
101.0600	9.0
111.0444	40.0
112.0505	8.4
114.0666	11.2
150.0551	8.2
152.0711	11.3
176.0708	8.6
188.0704	10.7
206.0929	100.0
220.1194	29.1
224.1038	37.0
333.1480	9.8
350.1587	13.4
351.1589	44.4
352.1481	77.2
353.1714	25.2
354.1323	20.0
354.1688	27.3
355.1380	10.3
355.1871	16.4
356.1394	10.6
356.1731	21.3
356.3528	40.2
357.1068	23.3
357.1485	16.3
357.1804	10.8
357.3575	12.0
358.1238	16.7
358.1818	8.3
358.3686	41.1
359.1548	13.0
359.3708	8.8
360.1471	31.3
361.1377	24.6
361.1802	14.4
362.1170	17.5
362.1606	24.7
363.1585	34.7
364.1362	26.9
364.1795	13.8
365.1785	19.8
366.1599	22.4
367.1501	38.0
367.1896	10.2
368.1728	13.2
369.1679	28.2
370.1292	12.4
370.1566	11.3

Name: Skatole
PrecursorMZ: 132.08074
RT: 6.6904
ExactMass: 131.073499291
Spectrum_type: 2
charge: 1
Formula: C9H9N
SMILES: CC1=CNC2=CC=CC=C12
Method: HCD
Collision_energy: [28.333334]
Isolation_window: 4.0
Ion_mode: P
Num Peaks: 9
57.0703	17.3
74.0967	16.4
103.0543	50.3
115.0542	7.5
117.0573	21.5
130.0651	11.7
130.1589	52.4
132.0806	100.0
133.0839	10.8

Name: Skimmianine
PrecursorMZ: 284.09024
RT: 1.1029
ExactMass: 259.0844579
Spectrum_type: 2
charge: 1
Formula: C14H13NO4
SMILES: COC1=C(C2=C(C=C1)C(=C3C=COC3=N2)OC)OC
Method: HCD
Collision_energy: [28.333334]
Isolation_window: 4.0
Ion_mode: P
Num Peaks: 8
69.0340	27.8
89.0601	24.1
122.0815	24.8
132.0445	22.0
168.0688	20.2
284.0894	100.0
284.3311	30.8
302.1023	26.0

Name: Solanid-5-en-3-ol
PrecursorMZ: 398.34086
RT: 1.83293
ExactMass: 397.334464995
Spectrum_type: 2
charge: 1
Formula: C27H43NO
SMILES: CC1CCC2C(C3C(N2C1)CC4C3(CCC5C4CC=C6C5(CCC(C6)O)C)C)C
Method: HCD
Collision_energy: [28.333334]
Isolation_window: 4.0
Ion_mode: P
Num Peaks: 6
397.3074	2.5
398.3042	22.6
398.3405	100.0
399.3073	6.0
399.3439	27.8
400.3555	5.7

Name: Solasodine base + 2H, 1O, O-Hex-Hex-Hex
PrecursorMZ: 918.50425
RT: 1.166
ExactMass: 917.49841454
Spectrum_type: 2
charge: 1
Formula: C45H75NO18
SMILES: CC1CC(C2(C(C3C(O2)CC4C3(CCC5C4CCC6C5(CCC(C6)OC7C(C(C(C(O7)CO)OC8C(C(C(C(O8)CO)O)O)OC9C(C(C(C(O9)CO)O)O)O)O)O)C)C)C)NC1)O
Method: HCD
Collision_energy: [28.333334]
Isolation_window: 4.0
Ion_mode: P
Num Peaks: 72
69.0339	3.0
70.0655	2.1
73.0288	0.9
81.0338	1.2
81.0701	1.3
84.0811	1.3
85.0288	16.9
87.0444	1.2
89.0601	0.9
91.0393	2.7
95.0858	2.7
97.0287	6.0
98.0967	3.4
99.0446	1.2
100.0574	0.9
102.0514	1.9
102.0588	5.0
102.1629	0.9
102.1703	2.5
107.0857	1.1
109.0287	1.9
112.1124	3.3
113.0964	1.4
114.0915	1.5
121.1013	1.1
123.0807	1.4
124.1121	1.2
126.1280	2.5
127.0391	7.1
131.0857	0.9
138.1279	2.3
140.1070	24.1
141.1104	1.8
142.1227	1.5
145.0497	7.9
145.1015	1.1
147.1170	1.2
148.1114	1.1
149.0963	1.2
150.1275	0.9
159.1172	0.8
161.1326	1.6
162.1279	42.9
163.0603	1.9
163.1120	2.1
163.1314	5.0
166.1227	3.3
176.1434	1.4
180.1383	1.2
215.1795	1.1
255.2106	2.8
256.2143	0.8
257.2270	0.8
378.3152	1.2
396.3256	2.9
397.3305	0.8
414.3369	4.2
415.3409	1.2
432.3471	4.2
433.3513	1.3
576.3914	1.7
594.4027	0.8
882.4873	3.8
883.4884	2.1
900.4949	18.9
901.4980	9.5
902.5017	3.0
918.5058	100.0
919.3556	1.0
919.5088	50.1
920.5116	15.2
921.5170	4.0

Name: Solstitialin deriv 4704
PrecursorMZ: 340.17572
RT: 0.5822
ExactMass: 322.14163842
Spectrum_type: 2
charge: 1
Formula: C17H22O6
SMILES: CC(=O)OCC1(C2CCC(=C)C3CC(C(=C)C3C2OC1=O)O)O
Method: HCD
Collision_energy: [28.333334]
Isolation_window: 4.0
Ion_mode: P
Num Peaks: 175
55.0547	2.6
57.0339	0.5
57.0704	1.3
59.0497	0.6
67.0547	1.1
69.0339	0.6
69.0703	2.7
70.0656	0.5
71.0496	1.2
72.0812	1.1
79.0546	0.9
81.0339	0.9
81.0702	3.4
83.0495	2.4
83.0859	33.8
83.0897	0.6
84.0892	2.1
85.0651	1.9
86.0968	3.6
91.0540	0.5
93.0701	3.8
95.0494	1.5
95.0858	3.7
97.0650	1.4
97.1012	0.8
99.0443	1.4
99.0806	1.0
101.0600	0.9
105.0700	1.5
107.0857	2.9
109.0649	1.5
109.1014	2.8
111.0440	0.8
111.0806	1.7
112.0761	1.4
113.0599	1.7
114.0553	0.6
116.0707	1.3
119.0857	2.3
120.0808	0.4
121.0649	0.8
121.1013	3.2
123.0806	1.6
123.1169	1.5
124.0757	0.9
125.0599	0.9
125.0961	1.1
126.0722	0.6
126.0914	100.0
126.1068	0.6
126.1109	0.7
127.0755	0.9
127.0948	7.7
128.0708	0.9
129.0548	0.7
129.0904	0.5
131.0856	1.1
132.1022	0.7
133.1013	2.3
135.0804	1.2
135.1168	1.9
137.0597	0.9
137.0960	1.3
137.1325	0.5
138.0548	0.6
139.0754	0.8
139.1115	0.7
141.0911	0.6
143.0858	0.7
145.1011	2.0
146.1176	0.6
147.0805	0.8
147.1169	1.7
149.0961	1.5
149.1325	1.0
151.0755	0.9
151.1117	0.9
153.0911	0.8
155.0705	0.5
157.1009	1.0
159.0804	0.6
159.1168	2.0
161.0961	0.9
161.1325	1.2
163.0754	0.8
163.1120	1.1
164.0701	1.0
165.0908	0.8
166.1226	0.5
167.1065	0.6
169.1014	0.5
171.1166	0.9
173.0960	0.5
173.1322	1.4
175.0747	0.6
175.1118	1.2
175.1481	0.8
177.0909	0.7
177.1268	0.5
179.1071	0.6
180.1015	0.7
181.1217	0.5
182.1175	2.4
183.1179	0.6
185.1329	0.9
187.1113	0.6
187.1476	0.7
189.0913	0.5
189.1278	0.7
189.1639	0.6
191.1063	0.6
191.1432	0.5
192.1378	0.7
193.1212	0.6
194.1174	3.5
195.1210	0.7
196.0968	6.0
196.1332	3.5
197.0993	0.9
197.1331	0.9
199.1484	0.7
201.1273	0.7
201.1633	0.4
203.1062	0.6
203.1427	0.8
205.1217	0.9
207.1368	0.6
209.0441	1.7
210.1128	0.6
211.1481	0.5
212.1281	8.2
213.1347	2.6
213.1628	0.7
215.1432	0.5
217.1221	0.7
219.1018	0.4
219.1365	0.7
224.1282	0.7
228.1230	1.8
229.1244	0.5
233.1539	0.4
245.1172	0.6
249.1858	0.5
259.1685	0.5
261.1483	0.5
271.1334	0.6
271.1687	0.5
285.1852	0.4
287.2001	1.6
289.1465	0.5
289.2163	0.4
315.1952	1.0
317.2104	0.7
319.2260	0.7
327.2311	0.6
329.1735	0.5
331.1904	0.5
333.1726	0.5
333.2042	0.6
335.2212	0.6
340.1753	39.5
341.1780	7.9
342.1797	1.3
343.1883	0.5
345.1699	0.5
345.2053	1.1
345.2421	1.1
346.2048	0.5
347.1853	0.8
349.2053	0.7
351.1790	0.7
351.2217	0.7
352.3123	0.4
354.1912	1.6
355.2273	0.5

Name: Sorbic Acid
PrecursorMZ: 113.05986
RT: 5.9699
ExactMass: 112.052429494
Spectrum_type: 2
charge: 1
Formula: C6H8O2
SMILES: C/C=C/C=C/C(=O)O
Method: HCD
Collision_energy: [28.333334]
Isolation_window: 4.0
Ion_mode: P
Num Peaks: 40
55.0546	1.8
57.0339	2.2
57.0703	5.0
58.0291	6.4
65.0389	2.9
67.0546	38.7
68.0498	1.4
68.0579	1.9
69.0339	2.3
69.0451	4.1
69.0702	7.1
69.5545	1.9
70.0291	3.4
70.0654	1.3
71.0494	1.6
72.0810	1.1
79.0545	4.3
83.0493	4.8
84.0810	1.0
85.0650	3.3
86.0602	18.2
94.0401	1.3
95.0241	10.0
95.0492	10.0
96.0081	2.0
96.0809	3.8
97.0649	1.1
97.4572	1.3
111.0441	3.3
112.0399	1.7
112.0505	71.3
112.0756	3.0
113.0345	8.1
113.0539	3.4
113.0597	7.3
113.0710	1.1
113.1073	1.2
114.0550	9.6
114.0913	100.0
115.0947	1.5

Name: Sorbitol
PrecursorMZ: 183.08655
RT: 6.9295
ExactMass: 182.07903816
Spectrum_type: 2
charge: 1
Formula: C6H14O6
SMILES: C([C@H]([C@H]([C@@H]([C@H](CO)O)O)O)O)O
Method: HCD
Collision_energy: [28.333334]
Isolation_window: 4.0
Ion_mode: P
Num Peaks: 42
57.0339	2.0
61.0287	1.6
69.0338	12.5
69.6229	1.4
83.0494	3.6
85.0286	3.1
87.0442	2.1
91.0543	100.0
92.0577	6.9
94.0652	2.1
99.0441	3.0
100.0757	2.7
111.0441	2.4
112.0505	2.4
121.1010	1.4
123.0802	1.7
124.0393	2.8
129.0546	1.8
136.0756	4.5
137.0706	3.1
138.0549	1.7
138.0660	6.3
138.0909	1.6
140.0453	2.7
155.0926	1.9
164.0705	6.6
165.0656	2.3
166.0494	4.9
166.0861	2.4
167.0703	1.6
167.0813	2.8
182.0445	4.8
182.0808	4.3
182.0924	2.4
182.1173	21.3
182.1900	6.0
183.0759	1.9
183.0916	12.6
183.1205	2.2
184.0961	4.8
185.0916	1.8
185.1067	2.4

Name: Sparfloxacin
PrecursorMZ: 393.17282
RT: 1.4007
ExactMass: 392.1659969
Spectrum_type: 2
charge: 1
Formula: C19H22F2N4O3
SMILES: C[C@@H]1CN(C[C@@H](N1)C)C2=C(C(=C3C(=C2F)N(C=C(C3=O)C(=O)O)C4CC4)N)F
Method: HCD
Collision_energy: [28.333334]
Isolation_window: 4.0
Ion_mode: P
Num Peaks: 79
58.0655	1.0
59.0609	3.3
69.0340	1.1
70.0655	5.6
72.0812	3.7
81.0338	4.8
83.0494	1.8
84.0811	2.8
85.0287	1.0
86.0968	5.2
95.0493	1.2
96.0445	1.1
96.0813	1.1
98.0966	15.6
99.1002	0.9
104.0708	1.0
111.0443	5.0
112.0758	1.0
116.0708	4.0
120.0808	1.3
122.0811	1.6
126.0552	1.1
126.0913	1.4
132.1021	1.5
136.0623	1.1
136.0754	1.2
143.1180	1.4
149.0234	3.1
150.0912	1.2
152.0703	1.0
154.0864	1.5
164.0699	1.1
164.1069	2.9
168.0675	1.2
178.0863	0.9
182.0814	0.9
194.1175	1.0
203.1385	2.5
212.1283	0.9
218.0814	1.0
226.1551	1.1
229.1549	1.0
230.1386	3.5
254.1510	1.4
307.1655	2.1
311.1604	3.7
315.1336	1.1
355.1869	3.0
356.1888	1.1
359.1823	2.2
373.2008	1.2
377.1919	0.9
391.2089	1.5
392.1761	2.4
393.1728	100.0
394.1764	21.9
395.1834	8.6
396.1676	2.4
397.1591	2.8
397.3039	1.1
398.1394	2.2
399.1787	3.0
399.2350	6.6
400.1523	1.6
401.2044	1.1
402.1597	1.3
402.1872	1.2
403.1013	1.0
403.1480	1.0
403.1905	1.0
404.1706	1.5
405.1642	1.2
406.1541	1.1
406.2343	1.0
407.1866	1.7
408.1639	1.7
409.1450	13.5
410.1436	3.1
411.1490	1.3

Name: Spectinomycin
PrecursorMZ: 333.16509
RT: 2.9644
ExactMass: 332.15835111
Spectrum_type: 2
charge: 1
Formula: C14H24N2O7
SMILES: C[C@@H]1CC(=O)[C@]2([C@@H](O1)O[C@@H]3[C@H]([C@@H]([C@@H]([C@@H]([C@H]3O2)NC)O)NC)O)O
Method: HCD
Collision_energy: [28.333334]
Isolation_window: 4.0
Ion_mode: P
Num Peaks: 287
56.0500	5.0
57.0338	2.2
58.0654	2.4
59.0609	5.0
60.0447	2.7
67.0545	2.0
69.0340	6.7
69.0701	2.8
70.0656	47.0
71.0495	2.7
72.0813	30.8
73.0287	2.1
74.0239	2.4
74.0604	3.4
81.0340	17.6
81.0705	3.2
82.0656	7.1
83.0495	4.3
84.0448	13.0
84.0812	37.9
85.0288	20.1
86.0605	9.9
86.0969	18.2
87.0445	6.7
88.0398	6.8
90.0552	4.7
93.0700	2.7
95.0496	7.0
95.0604	2.8
95.0855	2.5
96.0447	6.1
96.0809	2.7
97.0287	11.9
98.0603	5.9
98.0968	5.3
99.0444	7.0
100.0760	4.6
101.0601	3.2
102.0554	6.0
107.0492	2.3
108.0443	3.2
109.0287	3.8
110.0604	7.4
110.0716	4.6
111.0444	10.1
112.0760	3.9
113.0596	2.3
114.0553	5.7
114.0918	6.6
115.0394	3.1
115.0871	3.4
116.0709	49.6
117.0552	3.1
117.0736	2.5
118.0866	13.9
119.0854	2.3
120.0810	7.7
121.0646	3.8
122.0604	7.7
123.0442	2.1
123.0551	8.4
124.0391	2.2
124.0758	5.1
125.0707	4.9
126.0555	4.7
126.0917	7.7
127.0393	20.7
127.0868	6.1
128.0708	10.6
129.0546	2.1
129.0658	2.0
129.1025	3.7
130.0501	7.8
130.0865	15.3
132.0443	2.0
132.0652	2.5
132.1021	5.0
134.0600	4.7
134.0961	2.7
136.0392	2.4
136.0615	18.1
136.0754	5.7
137.0595	3.0
138.0552	6.8
139.0390	2.0
140.0711	4.6
141.0660	17.8
141.1021	3.5
142.0866	10.3
144.0658	4.6
144.0810	9.7
144.1020	11.4
145.0498	16.6
146.0813	3.7
147.0768	6.1
147.1137	2.8
148.0756	3.3
150.0551	4.7
150.0913	3.9
151.0864	2.0
152.0707	11.3
152.1069	3.3
153.0540	2.7
153.1020	3.1
154.0864	20.9
156.0652	3.1
156.0763	3.5
156.1022	7.1
158.0809	2.7
158.1177	4.0
159.0769	4.3
162.0912	2.2
163.0606	10.7
163.0866	2.0
164.0710	12.9
165.1020	2.4
166.0532	11.1
166.0856	6.6
166.0974	18.6
167.0814	7.1
168.0657	33.1
168.1014	2.9
169.0596	9.2
169.0972	7.3
170.0812	7.2
170.1170	2.7
171.1131	6.5
172.0969	5.4
173.0923	11.8
174.0927	2.2
175.1081	3.2
176.0697	2.4
176.1059	2.0
178.0856	2.9
180.0667	3.0
180.1011	3.4
181.0973	3.4
182.0809	6.4
183.0884	10.3
183.1124	5.4
184.0954	2.5
184.1085	2.3
185.0927	5.9
186.0758	2.5
187.1080	40.5
188.0705	3.9
188.0912	6.2
188.1101	3.8
188.1281	2.2
189.1239	2.2
192.0653	6.7
192.1018	2.2
193.0981	4.3
194.0805	6.0
195.0768	9.1
195.1130	2.4
195.1496	4.5
196.0962	2.8
197.0917	2.2
197.1288	3.4
199.1079	4.2
199.1441	2.4
200.1278	2.8
201.1235	10.0
202.0860	2.2
202.1070	5.5
203.1021	7.0
206.0807	2.7
207.1145	4.8
208.0952	3.2
209.0896	2.9
210.0761	2.3
210.1090	3.5
211.0755	6.7
211.1069	7.7
213.0862	3.3
213.1256	3.1
213.1599	12.9
214.0858	2.1
215.1027	15.4
215.1397	5.4
217.1185	5.8
218.0822	2.9
221.0906	2.1
223.1087	2.9
224.0917	2.5
225.1237	8.3
226.1185	3.0
227.1024	2.7
227.1395	2.9
229.1170	18.0
229.1545	3.8
230.1198	2.2
232.1534	2.2
233.0914	2.4
235.1097	2.9
241.1184	4.3
243.1341	20.7
244.1363	2.6
253.1189	5.8
253.1542	2.4
255.1343	5.0
257.1271	2.1
258.0756	7.4
259.0764	4.6
260.1121	3.4
263.1056	5.2
265.1183	7.4
267.1345	9.1
270.1074	2.2
271.0805	2.7
273.0996	23.0
274.1038	5.6
275.1057	2.1
277.1176	2.6
277.1531	2.9
279.1328	2.4
285.1232	2.4
287.1354	2.4
288.1359	3.8
289.0909	4.7
290.1478	2.2
291.1361	3.3
293.1494	2.2
295.1642	3.6
296.0973	2.5
297.2174	17.3
298.1376	2.5
298.2197	2.7
300.0680	6.1
303.1329	2.9
306.1461	3.5
307.1008	2.5
313.1390	7.4
313.1762	3.5
315.1569	6.6
317.0857	3.0
319.1288	73.0
320.1315	11.3
321.1438	5.8
322.1538	2.9
323.1260	3.0
325.1412	2.1
326.1364	3.5
327.1559	2.5
328.1468	2.5
331.1246	3.1
331.1509	15.1
331.1885	3.3
332.1116	87.6
332.1467	4.3
333.1142	20.6
333.1642	100.0
334.1346	16.2
334.1683	8.9
334.1974	6.1
335.1197	7.3
335.1623	4.5
336.1094	2.3
336.1580	11.7
337.1394	90.9
338.1384	17.1
339.1568	18.8
339.1925	3.4
340.1607	41.3
341.1293	6.1
341.1748	20.4
342.1650	11.8
342.2387	92.2
343.1241	4.8
343.1603	11.8
343.2412	16.7
344.1427	15.6
344.1798	12.7
345.1720	18.3
346.1280	5.1
346.1642	5.5
347.1195	7.9
347.1568	5.6
348.1579	10.3
349.0877	6.1
349.1386	8.0
349.1788	6.0
350.1180	8.6
350.1737	4.8
351.1585	16.8
352.1524	20.7

Name: Spiroxamine
PrecursorMZ: 298.27367
RT: 3.0385
ExactMass: 297.266779359
Spectrum_type: 2
charge: 1
Formula: C18H35NO2
SMILES: CCCN(CC)CC1COC2(O1)CCC(CC2)C(C)(C)C
Method: HCD
Collision_energy: [28.333334]
Isolation_window: 4.0
Ion_mode: P
Num Peaks: 67
55.0546	2.3
56.0499	5.8
57.0703	2.5
58.0291	1.5
60.0448	1.5
67.0546	5.7
68.0498	1.1
69.0702	5.8
69.2499	1.2
70.0654	1.6
71.0858	2.3
74.0603	1.4
79.0545	3.1
81.0701	6.9
82.0653	2.5
83.0492	0.9
83.0858	4.3
85.1014	1.4
86.0602	2.0
89.0597	1.0
91.0543	1.6
93.0700	3.1
94.0652	1.2
95.0856	7.2
96.0809	1.2
97.0649	1.1
97.1013	3.5
98.0600	1.0
100.0757	1.3
105.0699	1.4
107.0856	2.3
109.1012	3.5
111.1169	1.1
116.0706	1.6
119.0855	1.9
121.1011	3.2
122.0712	1.5
123.1167	1.6
125.0233	1.1
133.1011	1.6
135.1166	1.6
136.0754	1.0
182.1172	1.6
196.0965	1.4
207.1491	1.4
211.2051	1.7
250.2524	4.6
252.2682	10.9
262.2523	3.0
264.2680	7.6
265.2517	1.0
279.2103	1.4
279.2316	0.9
280.2629	58.2
281.2663	10.8
282.2786	100.0
296.2939	1.3
297.1441	1.6
298.1059	1.1
298.1281	1.1
298.2735	1.7
299.1023	1.0
299.1385	2.5
299.1959	2.0
300.1204	1.1
300.1337	1.9
300.2890	2.3

Name: Stavudine
PrecursorMZ: 225.08641
RT: 4.9057
ExactMass: 224.07970687
Spectrum_type: 2
charge: 1
Formula: C10H12N2O4
SMILES: CC1=CN(C(=O)NC1=O)[C@H]2C=C[C@H](O2)CO
Method: HCD
Collision_energy: [28.333334]
Isolation_window: 4.0
Ion_mode: P
Num Peaks: 36
69.0338	25.4
70.0654	7.7
81.0337	5.6
81.0700	2.2
84.0446	12.9
84.0810	4.7
99.0441	12.1
107.0493	2.4
110.0600	2.8
113.0708	41.0
116.0705	22.1
121.0283	5.4
122.0599	6.2
127.0500	100.0
128.0532	4.9
136.0753	2.7
164.0703	19.3
178.0860	3.5
180.1015	4.0
181.0967	3.3
182.0807	9.5
199.1072	6.7
206.0809	4.5
207.1119	3.8
208.0965	3.1
209.0916	3.3
210.1848	5.2
224.0913	13.7
224.1274	5.7
225.0863	31.7
225.1221	5.8
226.0713	3.0
226.0900	4.2
226.1067	8.6
226.1180	2.6
227.1020	38.2

Name: Stearic acid amide
PrecursorMZ: 284.29457
RT: 1.2725
ExactMass: 283.287514804
Spectrum_type: 2
charge: 1
Formula: C18H37NO
SMILES: CCCCCCCCCCCCCCCCCC(=O)N
Method: HCD
Collision_energy: [28.333334]
Isolation_window: 4.0
Ion_mode: P
Num Peaks: 14
57.0703	3.2
67.0546	3.5
69.0703	4.4
71.0495	3.3
71.0858	2.7
81.0702	5.5
83.0858	4.0
95.0856	7.4
97.1013	3.0
109.1012	4.0
266.2840	4.9
283.2817	4.7
284.2943	100.0
285.2976	16.1

Name: Stearidonic Acid
PrecursorMZ: 277.21548
RT: 4.654225
ExactMass: 276.208930132
Spectrum_type: 2
charge: 1
Formula: C18H28O2
SMILES: CC/C=C\C/C=C\C/C=C\C/C=C\CCCCC(=O)O
Method: HCD
Collision_energy: [28.333334]
Isolation_window: 4.0
Ion_mode: P
Num Peaks: 59
55.0545	0.9
67.0545	4.5
69.0701	2.0
69.3526	1.1
71.0857	2.1
79.0543	2.8
81.0700	6.1
83.0856	1.7
91.0541	1.3
93.0699	5.4
95.0491	0.6
95.0855	5.7
97.0647	0.8
97.1011	0.7
97.4562	0.7
99.0803	2.3
105.0697	2.0
107.0854	4.0
109.0647	0.7
109.1010	2.7
111.0802	0.6
119.0853	1.7
121.1009	3.2
123.1165	1.3
131.0852	0.7
133.1008	2.0
135.1165	3.4
137.1320	0.6
145.1008	1.1
147.1164	2.1
149.1321	2.5
151.1113	1.3
159.1163	0.9
161.1320	1.8
163.1112	1.9
163.1477	1.0
165.1268	0.7
171.1163	0.7
175.1473	0.8
179.1422	0.9
194.0832	0.8
195.0859	2.0
196.0944	0.8
212.0894	0.7
227.0765	1.0
234.1844	1.1
241.1943	0.9
259.2048	1.5
275.1994	2.4
276.0508	100.0
276.0835	0.7
276.2031	1.9
277.0418	28.7
277.1034	0.9
277.2151	15.0
278.0458	4.0
278.1000	0.9
278.2185	3.1
279.2308	2.4

Name: Stearoyl-L-carnitine
PrecursorMZ: 428.37308
RT: 5.8727
ExactMass: 428.37398408
Spectrum_type: 2
charge: 1
Formula: C25H50NO4+
SMILES: CCCCCCCCCCCCCCCCCC(=O)O[C@H](CC(=O)O)C[N+](C)(C)C
Method: HCD
Collision_energy: [28.333334]
Isolation_window: 4.0
Ion_mode: P
Num Peaks: 15
69.0703	5.6
81.0702	3.3
83.0858	4.1
89.0600	2.8
95.0857	5.7
97.1013	2.5
97.3982	2.5
114.0915	6.5
309.2784	100.0
310.2819	20.7
311.2944	27.8
428.3730	59.5
429.3762	15.4
430.3309	4.9
430.3884	13.9

Name: Stearyldiethanolamine
PrecursorMZ: 358.36753
RT: 1.58135
ExactMass: 357.360679742
Spectrum_type: 2
charge: 1
Formula: C22H47NO2
SMILES: CCCCCCCCCCCCCCCCCCN(CCO)CCO
Method: HCD
Collision_energy: [28.333334]
Isolation_window: 4.0
Ion_mode: P
Num Peaks: 16
57.0703	1.4
70.0655	2.2
71.0859	0.9
85.1015	0.6
88.0759	6.1
102.0914	1.5
106.0864	5.6
340.3572	5.3
341.3608	1.0
357.2786	1.8
358.3209	0.7
358.3675	100.0
358.4045	0.6
358.4137	0.7
359.3709	23.0
360.3745	1.5

Name: Sterebin A
PrecursorMZ: 311.22142
RT: 1.4
ExactMass: 310.21440943
Spectrum_type: 2
charge: 1
Formula: C18H30O4
SMILES: CC(=O)/C=C/[C@@H]1[C@]2(CCCC(C2[C@H]([C@@H]([C@@]1(C)O)O)O)(C)C)C
Method: HCD
Collision_energy: [28.333334]
Isolation_window: 4.0
Ion_mode: P
Num Peaks: 197
55.0546	0.9
59.0495	0.9
67.0546	18.8
68.0579	0.7
69.0339	1.2
69.0702	11.2
69.2105	0.9
70.0654	4.2
71.0495	5.2
72.0811	1.2
79.0545	10.0
81.0337	1.6
81.0701	30.3
82.0735	1.7
83.0494	2.6
83.0858	11.9
84.0810	0.7
84.0891	1.9
85.0650	3.7
86.0967	1.4
87.0442	0.7
91.0544	7.7
93.0700	15.3
94.0733	1.2
95.0494	1.0
95.0856	24.6
96.0889	1.4
97.0649	5.1
97.1013	7.8
97.4573	1.2
98.0601	0.9
99.0805	1.9
100.0393	1.7
101.0598	0.8
105.0699	5.6
107.0493	1.7
107.0856	11.8
108.0889	1.0
109.0648	1.5
109.1012	19.2
110.1045	1.5
111.0805	3.9
111.1169	1.6
113.0961	0.7
114.0550	2.4
115.0503	0.7
116.0706	11.1
117.0699	3.1
119.0855	8.5
120.0807	1.7
120.0887	1.2
121.0649	1.2
121.1011	22.7
122.1045	2.6
123.0804	2.7
123.1167	6.3
124.0756	3.9
125.0597	0.7
125.0960	5.1
126.0912	15.3
126.0992	0.9
127.0945	4.0
131.0854	8.0
133.1010	14.2
134.1045	1.5
135.0804	3.9
135.1167	9.8
136.0755	0.8
136.1199	0.8
137.0959	3.6
137.1322	1.9
138.0911	1.7
139.0751	0.9
139.1116	6.6
143.0854	1.4
145.1010	7.8
146.1045	1.0
147.0803	1.3
147.1167	10.9
148.1200	1.2
149.0960	6.9
149.1323	3.8
151.1116	3.3
152.0704	1.3
152.1069	1.0
153.0908	11.3
153.1272	0.7
154.0860	0.9
154.0937	1.0
155.1064	1.1
157.1011	3.0
159.1167	6.4
160.1201	0.9
161.0959	1.8
161.1322	4.1
163.1116	4.5
163.1479	1.1
164.0703	0.9
165.1273	2.3
166.0860	6.6
166.0967	1.1
166.1225	1.8
167.0894	1.8
167.1064	10.1
167.1428	0.7
168.0653	0.8
168.1017	20.9
168.1093	1.1
169.0966	3.7
169.1053	1.5
169.1218	1.3
171.1013	0.7
171.1164	3.3
173.1169	2.6
173.1322	4.8
175.0964	1.3
175.1115	0.9
175.1480	1.5
177.1272	3.9
179.0813	1.0
179.1427	1.0
181.1220	0.9
182.0809	0.8
183.1166	1.5
184.0963	0.9
185.1321	0.9
187.1113	0.8
187.1327	2.6
187.1479	0.9
189.1120	2.1
189.1270	1.1
191.1426	1.3
193.1220	0.8
194.1173	1.2
195.1375	1.4
196.0966	2.4
197.1330	1.4
201.1483	1.0
203.1275	3.3
209.1278	1.5
209.1533	0.8
211.1477	1.0
213.1633	0.7
222.1122	1.9
227.1788	0.7
229.1581	0.8
229.1946	5.0
230.1981	0.8
239.1791	5.1
240.1822	1.0
247.2053	6.9
248.2085	1.1
257.1895	9.6
258.1929	1.9
264.1335	1.1
265.1535	1.2
265.2157	9.3
266.2197	1.6
273.1841	1.8
274.1876	1.6
275.2000	54.0
275.2116	0.9
276.2034	10.4
277.2163	3.6
291.1698	6.1
291.1947	1.8
292.1281	1.1
292.1733	6.2
292.1983	1.4
293.1490	1.5
293.1752	1.3
293.2104	100.0
293.2226	1.7
294.1324	1.4
294.2139	20.5
295.2154	1.0
296.1230	0.7
309.1802	3.4
309.2046	1.3
310.1265	2.8
310.1818	3.2
310.2089	0.8
311.1388	0.7
311.1587	9.1
311.1966	6.7
311.2205	12.4
311.2363	0.8
312.1223	1.6
312.1424	2.3
312.1581	3.0
312.1994	1.3
312.2244	2.1
312.2520	0.8
313.1201	1.5
313.1539	1.0
313.1766	1.3
313.2145	1.9

Name: Sterigmatocystin
PrecursorMZ: 325.07012
RT: 3.6661
ExactMass: 324.0633881
Spectrum_type: 2
charge: 1
Formula: C18H12O6
SMILES: COC1=C2C(=C3[C@@H]4C=CO[C@@H]4OC3=C1)OC5=CC=CC(=C5C2=O)O
Method: HCD
Collision_energy: [28.333334]
Isolation_window: 4.0
Ion_mode: P
Num Peaks: 105
70.0656	12.1
72.0812	2.4
74.0605	1.9
81.0338	3.0
83.0496	2.5
84.0448	2.0
84.0812	6.0
85.0287	1.7
86.0605	2.4
87.0445	1.5
90.0554	2.3
94.0655	1.8
100.0758	1.8
101.0600	3.0
105.0337	1.7
110.0602	2.1
111.0443	9.7
112.0759	2.7
112.0871	3.4
114.0552	3.0
114.1027	1.9
128.0713	1.7
130.0502	1.5
130.0864	2.9
132.0449	1.7
136.0394	2.0
137.0234	6.7
138.0550	1.9
152.0706	1.8
154.0865	2.1
163.0753	3.0
178.0861	1.6
182.0805	1.7
207.0811	2.7
217.0488	3.3
220.1189	2.2
223.0764	2.8
223.1074	4.5
227.1383	1.6
235.0763	3.8
237.0543	6.1
238.0861	1.7
240.0859	1.7
251.0702	3.9
255.0983	2.0
258.0969	5.0
264.0654	10.0
265.0489	23.9
266.0534	3.2
266.0801	1.9
267.0651	5.7
268.1205	2.0
278.0814	1.9
279.0646	6.5
281.0442	3.2
282.0756	14.6
283.0597	100.0
284.0632	15.8
296.0919	2.6
297.0732	2.6
306.0743	1.5
307.0591	10.7
308.0595	1.6
308.1309	2.4
309.0753	4.8
318.1538	2.2
323.0525	1.5
323.1572	3.9
324.0857	9.3
324.1403	2.1
325.0702	75.5
325.1433	2.0
325.1768	8.8
326.0732	14.2
326.1432	12.8
327.1567	17.7
327.1941	2.5
328.0780	2.8
328.1588	3.5
329.1487	11.2
329.1794	5.3
330.1355	3.2
331.1628	5.0
332.1452	7.1
333.1446	6.9
333.1815	4.4
334.1694	5.7
335.1605	9.4
335.1984	1.7
336.1376	2.7
336.1687	6.5
337.1772	7.3
338.1555	4.5
339.1570	2.4
339.1948	4.6
340.1604	7.0
341.0628	1.5
341.1387	2.1
341.1732	4.7
342.0981	2.8
342.1538	11.4
343.1079	3.8
343.1602	4.0
344.1551	2.2
344.2295	4.4

Name: Stigmast-7-ene-6,26-dione, 26,28-epoxy-2,3,14,20,22-pentahydroxy-, (2beta,3beta,5beta,9xi,22R,24S,25S,28R)-
PrecursorMZ: 521.31188
RT: 0.5589
ExactMass: 520.30361836
Spectrum_type: 2
charge: 1
Formula: C29H44O8
SMILES: C[C@H]1[C@@H]([C@H](OC1=O)C)C[C@H]([C@@](C)([C@H]2CC[C@@]3([C@@]2(CCC4C3=CC(=O)[C@H]5[C@@]4(C[C@@H]([C@@H](C5)O)O)C)C)O)O)O
Method: HCD
Collision_energy: [28.333334]
Isolation_window: 4.0
Ion_mode: P
Num Peaks: 352
55.0182	5.5
55.0546	5.8
57.0340	4.1
57.0704	22.4
59.0497	9.1
59.0609	44.7
67.0547	21.0
69.0339	12.4
69.0704	41.3
70.0656	13.7
71.0496	18.1
71.0859	5.8
72.0812	26.4
73.0472	13.2
73.0653	4.7
79.0547	13.1
81.0339	20.4
81.0703	52.4
83.0495	35.4
83.0859	16.3
84.0448	3.3
84.0811	4.6
85.0285	4.4
85.0652	31.1
86.0968	72.0
87.0445	6.0
87.1001	3.9
89.0600	15.3
91.0537	3.1
91.0576	12.6
93.0702	45.0
94.0735	3.8
95.0494	36.0
95.0858	57.4
96.0891	4.6
97.0651	28.8
97.1014	11.7
99.0443	14.7
99.0807	22.8
101.0599	5.9
102.0554	4.2
105.0008	3.9
105.0702	23.5
107.0493	6.0
107.0858	50.6
108.0892	4.9
109.0650	28.3
109.1014	79.3
110.1047	6.2
111.0443	8.7
111.0807	16.1
111.1170	6.3
112.0758	4.8
113.0600	12.9
113.0965	7.5
115.0759	5.0
116.0708	5.3
117.0699	5.1
119.0494	3.8
119.0857	34.0
120.0811	19.0
121.0650	21.5
121.1013	49.1
122.1047	3.7
123.0446	6.8
123.0806	100.0
123.1169	29.8
124.0756	3.3
124.0841	7.2
124.1203	3.3
125.0598	10.9
125.0963	31.0
126.0914	7.1
127.0389	3.4
127.0755	27.8
127.1118	13.9
129.0549	4.0
131.0856	15.6
133.0651	6.2
133.0864	8.5
133.1013	43.2
134.1047	4.0
135.0437	4.1
135.0805	27.5
135.1169	33.9
136.0757	7.0
136.1202	3.3
137.0600	13.7
137.0962	93.4
137.1324	11.2
138.1002	6.6
139.0386	4.5
139.0754	11.8
139.1117	14.4
140.0376	7.1
141.0547	3.8
141.0912	11.3
143.0854	8.7
143.1067	17.7
145.0650	3.4
145.1013	24.7
146.1178	5.2
147.0440	3.4
147.0806	14.3
147.1170	35.2
148.1216	4.6
149.0451	13.6
149.0598	8.6
149.0962	32.2
149.1326	28.3
150.1002	3.3
151.0393	4.7
151.0755	14.9
151.1119	20.3
153.0551	6.7
153.0912	16.0
153.1273	6.9
155.0725	4.5
155.0857	3.5
155.1068	78.7
156.1114	6.6
157.1012	14.9
159.0802	7.3
159.1169	20.5
161.0600	5.8
161.0962	14.9
161.1325	15.0
163.0754	9.5
163.1120	19.3
163.1482	6.6
165.0549	8.1
165.0911	15.4
165.1274	11.8
166.0854	4.3
167.0342	3.4
167.0555	26.2
167.0702	7.4
167.1064	8.2
169.0500	4.9
169.0858	3.3
169.1012	7.2
169.1225	3.2
171.1165	13.5
173.0959	10.4
173.1325	13.8
175.0753	8.6
175.1117	15.5
175.1478	8.6
177.0548	5.0
177.0908	9.9
177.1272	9.0
177.1639	4.7
179.0706	7.6
179.1065	10.7
180.1006	4.5
181.0858	5.2
181.1011	3.4
181.1215	6.2
183.1017	6.4
183.1165	8.6
185.0960	4.0
185.1325	15.8
187.0754	3.8
187.1119	9.7
187.1482	11.4
189.0550	4.3
189.0910	9.8
189.1274	11.0
189.1639	4.9
191.0696	6.5
191.1065	8.3
191.1433	8.3
193.0853	5.0
193.1219	7.4
193.1588	3.2
195.1016	4.5
195.1161	4.1
197.1323	6.5
199.1116	7.3
199.1484	9.1
201.0921	5.5
201.1272	9.2
201.1637	7.2
203.0697	4.0
203.1069	10.7
203.1426	8.1
203.1795	5.0
205.0857	6.2
205.1216	9.3
205.1588	4.2
207.0649	8.5
207.0989	4.1
207.1367	7.3
209.1324	5.4
211.1112	4.7
211.1325	3.5
211.1508	5.9
213.0921	4.3
213.1282	8.5
213.1633	7.4
215.1064	5.8
215.1428	8.1
215.1796	3.6
217.0857	6.3
217.1222	9.5
217.1581	5.7
219.1017	5.9
219.1373	6.1
219.1747	3.2
221.0810	5.4
221.1145	4.5
221.1520	6.0
223.0630	7.0
223.0965	3.2
223.1515	4.5
224.0592	4.7
225.0431	5.2
225.0744	8.3
225.1268	3.8
225.1663	4.9
227.1432	5.5
229.0861	3.4
229.1219	6.3
229.1577	8.2
231.1380	6.9
233.1151	4.4
233.1535	5.2
235.0961	3.1
235.1296	4.2
235.1697	3.3
237.1270	3.1
239.0907	6.7
239.1457	4.5
241.1232	4.3
241.1601	4.8
243.1001	4.2
243.1370	5.7
245.1184	3.5
245.1535	5.4
245.1882	4.6
247.0968	3.3
247.1695	4.0
249.0738	4.4
251.1414	3.1
253.1216	3.2
253.1947	3.9
255.1390	4.6
255.1738	3.3
257.1162	5.9
257.1538	4.9
259.1325	6.4
259.1692	15.1
265.1562	5.4
267.0838	8.9
269.1535	4.1
271.1333	6.0
271.1695	3.1
271.2046	3.1
273.1132	3.7
273.1518	6.2
274.1418	4.7
275.1288	3.7
279.1706	4.0
281.0506	9.9
283.1327	3.1
283.1694	5.7
285.1487	4.0
285.1848	3.8
287.1286	3.8
287.2012	3.3
289.1432	4.7
290.1405	3.3
295.1683	4.1
297.1486	4.5
297.1834	3.8
299.0617	59.6
299.1632	4.5
299.2004	5.5
300.0624	12.1
301.1436	5.3
309.1831	3.3
311.1634	4.2
311.2351	5.2
313.1796	7.8
315.1600	3.4
317.2114	5.9
323.1627	4.5
325.1795	7.5
327.1596	3.4
327.1957	7.9
337.1788	4.8
339.1950	9.3
341.1746	4.3
343.1909	5.9
344.9764	9.6
345.2085	3.0
351.1924	3.0
353.2133	5.1
359.0297	5.3
377.2064	3.8
379.2265	9.1
391.2241	3.4
395.2201	3.2
397.2410	4.1
407.2210	3.7
409.2362	6.6
415.0362	5.8
431.2561	4.3
449.2670	19.0
450.2699	6.6
463.2849	16.4
464.2842	5.8
467.2785	38.2
468.2820	12.3
469.2912	3.3
479.2772	6.0
481.2957	29.2
482.2997	8.4
483.3065	3.1
485.2886	21.7
486.2933	6.6
487.3022	5.7
493.3028	4.0
497.2920	7.2
499.3082	12.6
500.3116	5.0
503.1078	7.4
503.2990	18.1
504.2985	4.5
505.3125	5.5
508.2696	7.0
509.2823	4.1
511.3147	4.3
513.2830	4.2
515.3054	7.7
517.3232	6.3
519.1387	6.4
520.3362	4.1
521.3132	10.1
522.3214	4.3
525.3134	3.3
526.2728	4.6
527.2920	3.8
528.3032	4.7
529.3237	4.0
530.3101	3.4
531.2915	6.0
532.3177	4.6
533.3206	6.7
534.3321	4.1
535.3265	9.6
536.1620	5.0

Name: Strictosidinic Acid
PrecursorMZ: 517.21964
RT: 5.2498
ExactMass: 516.2107806
Spectrum_type: 2
charge: 1
Formula: C26H32N2O9
SMILES: C=C[C@@H]1[C@@H](C(=CO[C@H]1O[C@H]2[C@@H]([C@H]([C@@H]([C@H](O2)CO)O)O)O)C(=O)O)C[C@H]3C4=C(CCN3)C5=CC=CC=C5N4
Method: HCD
Collision_energy: [28.333334]
Isolation_window: 4.0
Ion_mode: P
Num Peaks: 22
57.4691	5.0
57.5806	1.4
86.0967	1.4
104.1072	1.2
126.0914	2.0
154.0862	2.1
180.1016	1.5
182.0811	1.3
184.0732	1.4
194.0812	1.2
209.1044	2.7
210.1123	3.8
246.0758	1.3
345.1443	1.8
391.1496	1.8
391.1852	2.6
516.2063	1.3
516.2694	4.3
517.2193	100.0
517.2649	1.2
518.2222	28.0
519.2218	1.8

Name: Strophanthidin
PrecursorMZ: 427.20912
RT: 5.3815
ExactMass: 404.21988874
Spectrum_type: 2
charge: 1
Formula: C23H32O6
SMILES: C[C@]12CC[C@H]3[C@H]([C@]1(CC[C@@H]2C4=CC(=O)OC4)O)CC[C@]5([C@@]3(CC[C@@H](C5)O)C=O)O
Method: HCD
Collision_energy: [28.333334]
Isolation_window: 4.0
Ion_mode: P
Num Peaks: 7
114.0665	14.5
114.0915	10.6
176.8755	16.1
426.2969	12.6
427.2092	100.0
428.2145	21.1
428.3151	17.2

Name: Suberylglycine
PrecursorMZ: 232.11811
RT: 4.1002
ExactMass: 231.11067264
Spectrum_type: 2
charge: 1
Formula: C10H17NO5
SMILES: C(CCCC(=O)O)CCC(=O)NCC(=O)O
Method: HCD
Collision_energy: [28.333334]
Isolation_window: 4.0
Ion_mode: P
Num Peaks: 4
214.1081	100.0
215.1116	10.5
231.1126	7.9
232.1184	33.6

Name: Sulfamethizole
PrecursorMZ: 271.03164
RT: 2.46
ExactMass: 270.02451792
Spectrum_type: 2
charge: 1
Formula: C9H10N4O2S2
SMILES: CC1=NN=C(S1)NS(=O)(=O)C2=CC=C(C=C2)N
Method: HCD
Collision_energy: [28.333334]
Isolation_window: 4.0
Ion_mode: P
Num Peaks: 6
94.9299	10.8
108.0446	25.1
156.0115	100.0
157.0149	5.8
227.1755	11.2
271.0317	20.9

Name: Sulfanilic acid
PrecursorMZ: 174.02187
RT: 6.075
ExactMass: 173.01466426
Spectrum_type: 2
charge: 1
Formula: C6H7NO3S
SMILES: C1=CC(=CC=C1N)S(=O)(=O)O
Method: HCD
Collision_energy: [28.333334]
Isolation_window: 4.0
Ion_mode: P
Num Peaks: 25
70.0655	4.2
81.0337	0.6
84.0810	2.0
86.0603	0.5
93.0572	0.6
94.0653	0.7
110.0601	1.8
116.0707	3.1
125.0471	2.2
126.0913	4.9
127.0866	1.7
127.0943	0.6
128.0706	0.9
156.1020	0.8
172.0967	3.1
172.1077	0.9
173.0916	0.5
173.1007	0.5
174.0218	100.0
174.0375	0.6
174.0756	0.4
175.0254	5.8
175.0864	0.6
176.0176	2.3
176.0704	0.5

Name: Sulthiame
PrecursorMZ: 291.04733
RT: 8.2226
ExactMass: 290.03949928
Spectrum_type: 2
charge: 1
Formula: C10H14N2O4S2
SMILES: C1CCS(=O)(=O)N(C1)C2=CC=C(C=C2)S(=O)(=O)N
Method: HCD
Collision_energy: [28.333334]
Isolation_window: 4.0
Ion_mode: P
Num Peaks: 7
290.1228	33.1
291.0471	100.0
291.2425	28.8
292.0508	16.8
292.0807	33.7
292.1398	15.0
293.0627	86.2

Name: Sumaresinolic Acid
PrecursorMZ: 455.35162
RT: 4.0516
ExactMass: 472.35526001
Spectrum_type: 2
charge: 1
Formula: C30H48O4
SMILES: C[C@]12CC[C@@H](C([C@@H]1[C@@H](C[C@@]3([C@@H]2CC=C4[C@]3(CC[C@@]5([C@H]4CC(CC5)(C)C)C(=O)O)C)C)O)(C)C)O
Method: HCD
Collision_energy: [28.333334]
Isolation_window: 4.0
Ion_mode: P
Num Peaks: 10
109.1013	21.2
157.1012	21.0
183.1165	40.8
197.1323	28.3
201.1273	44.7
215.1428	31.7
437.3403	30.4
454.3462	38.3
455.3512	100.0
456.3548	24.1

Name: Surufatinib
PrecursorMZ: 481.20206
RT: 13.7141
ExactMass: 480.19435995
Spectrum_type: 2
charge: 1
Formula: C24H28N6O3S
SMILES: CC1=CC2=C(N1)C=CC(=C2)OC3=NC(=NC=C3)NC4=CC=CC(=C4)CS(=O)(=O)NCCN(C)C
Method: HCD
Collision_energy: [28.333334]
Isolation_window: 4.0
Ion_mode: P
Num Peaks: 7
89.0601	13.1
133.0859	8.3
229.1183	25.3
319.1505	11.3
481.2027	100.0
482.2053	25.9
495.2208	6.7

Name: Surugapyrone A
PrecursorMZ: 169.08555
RT: 7.056
ExactMass: 168.078644241
Spectrum_type: 2
charge: 1
Formula: C9H12O3
SMILES: CC1=C(C=C(OC1=O)C(C)C)O
Method: HCD
Collision_energy: [28.333334]
Isolation_window: 4.0
Ion_mode: P
Num Peaks: 50
55.0545	1.2
59.0495	1.6
69.8133	1.0
73.0651	5.9
96.0445	31.0
96.0683	6.6
97.0478	2.2
97.0761	1.7
109.0648	1.7
109.0760	7.7
110.0600	4.7
112.5549	0.9
113.0584	0.9
114.0661	13.9
122.0598	1.2
123.0109	5.0
124.0755	1.2
124.0868	2.9
125.0708	3.6
126.0660	1.0
126.1024	2.4
140.0816	1.8
150.0549	1.5
150.0910	2.2
153.0657	2.0
167.1539	1.1
168.0480	2.9
168.0651	100.0
168.0686	31.7
168.0764	10.2
168.1016	51.8
169.0685	8.4
169.0725	2.0
169.0846	3.5
169.0969	26.2
169.1051	4.5
170.0644	1.7
170.0812	2.3
170.0921	11.7
170.1002	2.6
170.1171	1.6
170.1650	1.3
171.0761	2.2
171.0953	0.9
180.1126	0.9
222.1342	1.4
223.1185	4.5
224.1024	2.1
266.1241	10.2
267.1272	1.1

Name: Swertianolin
PrecursorMZ: 459.08953
RT: 1.0382
ExactMass: 436.10056145
Spectrum_type: 2
charge: 1
Formula: C20H20O11
SMILES: COC1=CC(=C2C(=C1)OC3=C(C=CC(=C3C2=O)O[C@H]4[C@@H]([C@H]([C@@H]([C@H](O4)CO)O)O)O)O)O
Method: HCD
Collision_energy: [28.333334]
Isolation_window: 4.0
Ion_mode: P
Num Peaks: 3
97.4324	8.9
459.0893	100.0
460.0930	19.6

Name: Sylvatesmin
PrecursorMZ: 373.16447
RT: 2.0422
ExactMass: 372.15728848
Spectrum_type: 2
charge: 1
Formula: C21H24O6
SMILES: COC1=C(C=C(C=C1)[C@H]2[C@H]3CO[C@@H]([C@H]3CO2)C4=CC(=C(C=C4)O)OC)OC
Method: HCD
Collision_energy: [28.333334]
Isolation_window: 4.0
Ion_mode: P
Num Peaks: 19
147.0441	31.0
167.0342	2.6
179.0339	100.0
180.0373	10.6
197.0445	20.0
233.0808	10.1
234.0844	6.2
235.0965	25.2
236.1000	4.1
253.1071	25.2
254.1099	3.1
299.0913	14.0
353.1381	3.3
354.1417	5.3
355.1542	12.2
356.1564	2.9
372.1499	2.8
373.1644	91.8
374.1675	19.1

Name: Symmetric Dimethylarginine
PrecursorMZ: 203.15024
RT: 15.8493
ExactMass: 202.14297583
Spectrum_type: 2
charge: 1
Formula: C8H18N4O2
SMILES: CNC(=NC)NCCC[C@@H](C(=O)O)N
Method: HCD
Collision_energy: [28.333334]
Isolation_window: 4.0
Ion_mode: P
Num Peaks: 40
70.0656	34.2
71.0608	17.5
71.0689	1.4
72.0812	3.8
84.0811	8.8
86.0968	2.9
88.0872	23.7
115.0868	19.7
116.0708	67.8
117.0741	4.0
126.1026	4.0
128.9535	2.8
129.1024	2.0
130.0863	5.5
133.0972	27.4
134.1004	1.5
144.1017	1.5
158.1180	3.4
158.1289	17.0
159.1322	1.7
172.1081	43.9
173.1115	3.4
179.9907	2.9
198.0013	1.3
201.1022	12.3
202.0866	1.4
202.1062	10.3
202.1437	2.6
203.1180	1.2
203.1424	1.1
203.1502	100.0
203.1753	2.0
204.0661	0.9
204.0986	3.2
204.1023	4.6
204.1231	2.5
204.1341	3.7
204.1539	7.0
205.0972	1.3
205.1546	3.9

Name: Synephrine
PrecursorMZ: 168.10165
RT: 8.31
ExactMass: 167.094628657
Spectrum_type: 2
charge: 1
Formula: C9H13NO2
SMILES: CNCC(C1=CC=C(C=C1)O)O
Method: HCD
Collision_energy: [28.333334]
Isolation_window: 4.0
Ion_mode: P
Num Peaks: 44
56.0498	5.7
57.0531	2.3
72.0446	2.8
72.0810	1.3
74.0239	32.5
75.0271	6.9
76.0300	1.7
77.0223	3.1
81.0336	1.4
84.0809	3.3
96.0444	6.1
102.0548	4.5
103.0582	2.1
107.0491	100.0
107.0518	1.8
108.0444	2.0
108.0524	6.1
110.0599	1.8
120.0805	5.0
121.0840	2.8
122.0599	1.5
122.0960	1.3
123.0108	8.7
124.0392	2.0
126.0547	2.3
140.0703	1.5
142.0719	1.3
150.0298	2.1
150.0545	1.7
151.0223	2.2
152.0702	1.9
166.0858	6.6
167.0563	2.8
167.0811	13.1
167.0891	5.8
167.1174	1.3
168.0494	1.6
168.0683	59.5
168.0829	1.3
168.1015	9.2
169.0722	2.7
169.0968	4.9
170.0649	1.3
170.0807	20.4

Name: TG(18:1/18:1/18:2)
PrecursorMZ: 900.79883
RT: 0.951
Spectrum_type: 2
charge: 1
Method: HCD
Collision_energy: [28.333334]
Isolation_window: 4.0
Ion_mode: P
Num Peaks: 27
67.0546	41.9
69.0703	25.2
79.0546	10.9
81.0701	57.1
83.0858	28.1
93.0700	17.4
95.0857	51.0
97.1013	15.5
107.0857	14.6
109.1013	29.9
111.1169	11.0
121.1011	20.2
123.1169	13.8
135.1166	18.2
263.2368	11.7
265.2522	8.3
599.5025	16.3
600.5051	13.0
601.5183	100.0
602.5222	49.7
603.5338	60.9
604.5374	17.6
883.7730	9.0
899.7383	42.2
900.7371	26.0
901.6403	13.1
901.7274	13.8

Name: TG(18:1/18:2/18:2)
PrecursorMZ: 898.78351
RT: 0.9512
Spectrum_type: 2
charge: 1
Method: HCD
Collision_energy: [28.333334]
Isolation_window: 4.0
Ion_mode: P
Num Peaks: 64
66.6119	4.3
66.7234	2.5
66.8359	4.5
67.0546	64.2
68.0580	3.6
69.0703	28.2
71.0859	5.2
79.0545	16.9
81.0702	83.6
82.0735	5.0
83.0858	26.2
85.0650	3.2
85.1014	3.5
91.0544	10.0
93.0701	24.2
94.0734	2.4
95.0857	74.5
96.0890	6.0
97.0650	4.1
97.1013	18.4
99.0806	3.5
105.0700	7.4
107.0856	18.1
109.1013	38.6
110.1047	2.4
111.0806	3.5
111.1170	6.7
113.0962	2.7
119.0855	7.7
121.1012	24.2
123.1168	21.6
124.1201	2.7
133.1012	11.4
135.1167	18.4
137.1324	9.7
139.1117	2.4
147.1167	8.1
149.1324	10.5
151.1481	6.4
153.1274	3.1
161.1324	7.8
163.1480	8.5
165.1640	2.4
175.1481	6.5
177.1636	2.8
245.2261	6.0
247.2418	3.0
261.2210	5.1
263.2368	15.6
264.2398	3.9
265.2525	5.7
337.2733	6.4
339.2887	4.1
599.5029	85.7
600.5064	50.8
601.5181	100.0
602.5216	32.9
603.5331	11.2
879.7405	3.2
880.7456	7.2
881.7560	13.5
882.7609	6.1
898.7855	8.5
899.7876	5.3

Name: TG(18:1/18:3/18:3)
PrecursorMZ: 894.75247
RT: 0.9385
Spectrum_type: 2
charge: 1
Method: HCD
Collision_energy: [28.333334]
Isolation_window: 4.0
Ion_mode: P
Num Peaks: 34
67.0546	74.4
69.0702	32.1
79.0545	47.1
81.0701	84.3
83.0858	21.9
91.0544	23.5
93.0700	61.0
95.0856	84.2
97.1012	13.8
105.0700	21.5
107.0856	44.4
109.1012	47.4
119.0854	19.1
121.1011	56.9
123.1167	22.9
131.0854	15.2
133.1011	21.3
135.1166	35.8
147.1166	17.0
149.1324	22.6
159.1167	12.1
161.1323	11.9
173.1327	13.2
261.2210	36.8
595.4714	56.3
596.4747	34.3
597.4857	52.0
598.4891	52.8
599.5013	100.0
600.5051	33.3
877.7227	15.8
893.6937	37.2
894.6829	18.1
895.6737	30.2

Name: TG(18:2/18:2/18:3)
PrecursorMZ: 894.75128
RT: 0.9441
Spectrum_type: 2
charge: 1
Method: HCD
Collision_energy: [28.333334]
Isolation_window: 4.0
Ion_mode: P
Num Peaks: 55
67.0546	80.1
68.0579	4.7
69.0702	28.6
79.0545	41.3
81.0701	100.0
82.0735	7.3
83.0858	21.3
91.0544	22.9
93.0700	61.6
94.0734	5.8
95.0856	89.7
96.0889	6.5
97.0649	6.1
97.1012	12.0
105.0699	18.3
107.0855	38.9
108.0890	5.0
109.1012	43.4
111.0805	4.8
117.0699	6.2
119.0855	24.1
121.1011	53.2
122.1045	7.0
123.1167	21.6
131.0854	12.3
133.1010	20.5
135.1166	31.2
137.1322	7.0
145.1009	10.4
147.1166	16.1
149.1322	19.9
159.1166	9.9
161.1323	15.4
163.1478	9.2
173.1323	10.0
175.1478	7.0
243.2106	6.8
261.2208	24.0
262.2244	7.1
263.2366	8.5
317.2471	4.8
335.2578	4.6
337.2738	6.5
595.4711	23.0
596.4745	26.2
597.4863	89.2
598.4896	53.4
599.5014	67.4
600.5055	20.9
876.7123	11.3
877.7250	18.9
878.7291	9.4
893.6939	91.2
894.6940	54.7
895.6771	57.3

Name: TOP 8 Psoriasis featureUnknown FeatureID=4262
PrecursorMZ: 438.29745
RT: 4.8658
Spectrum_type: 2
charge: 1
Method: HCD
Collision_energy: [28.333334]
Isolation_window: 4.0
Ion_mode: P
Num Peaks: 83
55.0546	0.8
56.0498	1.1
57.0339	0.6
57.0703	1.4
58.0655	2.4
62.0604	1.7
67.0546	1.3
69.0702	3.3
69.7515	0.5
70.0654	1.7
71.0858	1.2
72.0809	0.5
74.0603	0.7
79.0543	0.4
81.0701	2.3
83.0858	3.2
84.0810	11.5
85.0843	0.6
85.1014	0.7
86.0965	0.7
93.0699	0.5
95.0856	2.7
97.1013	2.3
98.0965	1.5
98.9842	2.0
100.0757	0.7
101.0597	0.4
105.0698	0.4
107.0855	0.8
109.1012	1.3
111.1169	0.7
112.1120	0.5
116.0706	0.6
118.0863	0.5
119.0853	0.4
121.1011	0.5
122.0599	1.2
123.1168	0.6
124.0158	0.6
124.9996	0.4
127.0502	0.5
133.1011	0.5
136.0158	0.5
136.0753	0.5
142.0262	2.4
155.0102	7.1
162.0912	0.8
180.1017	1.9
198.0523	1.5
206.0810	0.5
259.1438	0.5
264.2684	0.5
266.2541	0.7
266.2599	0.6
266.2836	100.0
266.3073	0.5
266.3133	0.8
267.2870	18.2
268.2904	1.1
282.2787	0.4
284.2941	37.8
285.2976	6.8
299.2570	1.1
301.1539	0.6
317.1485	0.7
364.2602	5.3
365.2639	1.2
395.2549	2.1
396.2577	0.4
420.2865	16.1
421.2900	3.8
422.2920	0.4
436.2809	0.4
437.2849	0.6
438.2009	1.8
438.2340	0.5
438.2969	76.9
438.3591	0.5
439.2043	0.6
439.3007	17.4
440.2164	0.8
440.2646	0.7
440.3031	2.1

Name: Tabersonine
PrecursorMZ: 337.19096
RT: 6.2572
ExactMass: 336.183778013
Spectrum_type: 2
charge: 1
Formula: C21H24N2O2
SMILES: CC[C@]12CC(=C3[C@@]4([C@H]1N(CC4)CC=C2)C5=CC=CC=C5N3)C(=O)OC
Method: HCD
Collision_energy: [28.333334]
Isolation_window: 4.0
Ion_mode: P
Num Peaks: 33
55.0547	1.8
70.0656	1.3
81.0340	1.6
83.0495	1.8
84.0811	1.2
86.0968	1.2
101.0599	4.5
120.0809	11.1
161.1075	4.2
168.1022	1.2
220.1332	1.4
237.1386	15.6
238.1424	3.0
335.1726	3.0
335.1967	1.5
335.2416	4.1
336.1428	1.9
336.1780	2.6
336.2297	1.4
336.2533	7.5
337.1394	2.6
337.1558	3.2
337.1912	100.0
337.2561	1.2
338.1375	1.7
338.1531	2.3
338.1940	20.2
338.2416	1.6
338.3415	3.2
339.1369	2.9
339.1540	1.2
339.1700	5.7
339.1944	1.9

Name: Tadalafil
PrecursorMZ: 390.14459
RT: 5.0089
ExactMass: 389.1375561
Spectrum_type: 2
charge: 1
Formula: C22H19N3O4
SMILES: CN1CC(=O)N2[C@@H](C1=O)CC3=C([C@H]2C4=CC5=C(C=C4)OCO5)NC6=CC=CC=C36
Method: HCD
Collision_energy: [28.333334]
Isolation_window: 4.0
Ion_mode: P
Num Peaks: 34
70.0655	7.1
72.0810	8.2
86.0966	20.7
116.0705	7.9
120.0807	11.1
130.0651	27.4
133.0647	14.7
144.0806	33.3
146.0600	5.8
149.0232	39.5
158.0600	7.6
166.0861	5.6
169.0759	10.8
170.0598	100.0
171.0632	11.3
171.0918	7.1
185.0708	8.5
214.1224	9.8
219.0761	54.5
220.0794	5.5
245.0917	5.7
250.0707	16.7
251.0743	8.7
264.0857	8.1
300.1487	6.1
328.1438	12.6
344.1375	9.1
345.1436	7.2
372.1335	26.9
373.1394	10.4
389.1704	17.6
390.1436	35.3
391.1476	16.4
392.1459	6.0

Name: Talampanel
PrecursorMZ: 338.14915
RT: 8.0443
ExactMass: 337.14264148
Spectrum_type: 2
charge: 1
Formula: C19H19N3O3
SMILES: C[C@@H]1CC2=CC3=C(C=C2C(=NN1C(=O)C)C4=CC=C(C=C4)N)OCO3
Method: HCD
Collision_energy: [28.333334]
Isolation_window: 4.0
Ion_mode: P
Num Peaks: 18
57.0703	3.5
69.0702	5.2
69.4342	3.9
70.0654	4.1
83.0857	5.5
97.1012	5.2
107.0728	5.6
111.1166	4.3
134.0598	13.0
152.0704	28.8
234.1227	4.7
292.1439	7.4
337.1390	4.2
338.1491	100.0
338.3409	14.0
339.1519	23.8
339.3441	3.8
340.1516	4.1

Name: Talatisamine
PrecursorMZ: 422.28897
RT: 6.5982
ExactMass: 421.28282334
Spectrum_type: 2
charge: 1
Formula: C24H39NO5
SMILES: CCN1C[C@@]2(CC[C@@H]([C@@]34[C@@H]2C[C@@H](C31)[C@]5(C[C@@H]([C@H]6C[C@@H]4[C@@H]5[C@H]6O)OC)O)OC)COC
Method: HCD
Collision_energy: [28.333334]
Isolation_window: 4.0
Ion_mode: P
Num Peaks: 5
360.2516	3.5
421.2763	4.4
422.2886	100.0
423.2921	23.4
424.2940	3.0

Name: Tangeretin
PrecursorMZ: 373.1277
RT: 7.1877
ExactMass: 372.12090297
Spectrum_type: 2
charge: 1
Formula: C20H20O7
SMILES: COC1=CC=C(C=C1)C2=CC(=O)C3=C(O2)C(=C(C(=C3OC)OC)OC)OC
Method: HCD
Collision_energy: [28.333334]
Isolation_window: 4.0
Ion_mode: P
Num Peaks: 52
70.0655	0.6
84.0447	0.4
84.0811	0.5
114.0914	0.4
116.0708	0.7
152.0706	0.4
180.0657	0.4
193.0970	0.4
214.1074	0.4
239.0699	0.8
253.0858	3.5
254.0895	0.4
259.0966	0.5
263.0695	0.4
271.0962	13.9
272.0997	2.0
277.0855	0.9
281.0806	17.3
282.0848	3.4
283.0966	2.8
284.1002	0.4
285.1119	3.4
286.1153	0.5
295.0961	2.1
297.0743	0.5
298.0833	3.5
299.0897	1.6
301.1067	1.7
309.1114	1.0
313.0689	0.5
313.1067	88.0
313.1365	0.4
313.1445	0.5
314.1101	16.4
315.1125	1.3
323.0908	0.5
327.1212	0.5
337.1064	0.6
354.1307	0.4
355.0715	0.6
355.0811	0.6
355.1172	100.0
355.1536	0.6
355.1628	0.7
356.1206	20.8
357.1230	2.3
371.1592	0.8
372.1409	0.7
373.1277	25.5
373.1716	0.9
374.1315	5.1
375.1330	0.8

Name: Tanshinone Iia
PrecursorMZ: 317.11466
RT: 1.0251
ExactMass: 294.125594432
Spectrum_type: 2
charge: 1
Formula: C19H18O3
SMILES: CC1=COC2=C1C(=O)C(=O)C3=C2C=CC4=C3CCCC4(C)C
Method: HCD
Collision_energy: [28.333334]
Isolation_window: 4.0
Ion_mode: P
Num Peaks: 5
113.0599	46.1
114.8931	39.6
139.9148	18.8
316.2635	40.3
317.1150	100.0

Name: Taurochenodeoxycholic Acid
PrecursorMZ: 464.28251
RT: 0.8928
ExactMass: 499.29675933
Spectrum_type: 2
charge: 1
Formula: C26H45NO6S
SMILES: C[C@H](CCC(=O)NCCS(=O)(=O)O)[C@H]1CC[C@@H]2[C@@]1(CC[C@H]3[C@H]2[C@@H](C[C@H]4[C@@]3(CC[C@H](C4)O)C)O)C
Method: HCD
Collision_energy: [28.333334]
Isolation_window: 4.0
Ion_mode: P
Num Peaks: 33
51.8112	5.1
81.0702	9.8
93.0701	3.6
95.0857	8.3
97.3996	4.4
107.0857	6.6
109.1013	8.7
121.1012	7.0
126.0219	68.9
133.1011	4.9
135.1168	12.3
145.1012	3.9
147.1167	5.7
149.1325	12.6
159.1168	5.0
161.1325	6.5
163.1117	3.3
163.1481	6.6
175.1482	6.0
177.1274	5.8
189.1637	5.8
201.1636	12.0
203.1796	3.0
208.0637	11.4
215.1793	7.3
302.1412	3.9
321.2571	2.8
323.2729	12.2
339.2677	6.8
341.2837	17.1
464.2825	40.7
465.2858	9.5
466.2984	100.0

Name: Taurocholic Acid
PrecursorMZ: 498.28848
RT: 4.7188875
ExactMass: 515.29167395
Spectrum_type: 2
charge: 1
Formula: C26H45NO7S
SMILES: C[C@H](CCC(=O)NCCS(=O)(=O)O)[C@H]1CC[C@@H]2[C@@]1([C@H](C[C@H]3[C@H]2[C@@H](C[C@H]4[C@@]3(CC[C@H](C4)O)C)O)O)C
Method: HCD
Collision_energy: [28.333334]
Isolation_window: 4.0
Ion_mode: P
Num Peaks: 19
126.0222	15.9
145.1012	33.6
147.1168	11.8
149.1328	18.2
199.1485	13.5
215.1791	12.6
309.2575	87.2
310.2615	21.8
319.2421	11.3
337.2524	31.6
355.2629	50.8
375.1559	13.4
418.2951	33.9
465.1852	13.7
480.2779	100.0
481.2820	23.5
498.2516	24.8
498.2884	72.6
499.2916	19.7

Name: Taurodeoxycholic Acid
PrecursorMZ: 464.28257
RT: 0.8327
ExactMass: 499.29675933
Spectrum_type: 2
charge: 1
Formula: C26H45NO6S
SMILES: C[C@H](CCC(=O)NCCS(=O)(=O)O)[C@H]1CC[C@@H]2[C@@]1([C@H](C[C@H]3[C@H]2CC[C@H]4[C@@]3(CC[C@H](C4)O)C)O)C
Method: HCD
Collision_energy: [28.333334]
Isolation_window: 4.0
Ion_mode: P
Num Peaks: 26
81.0701	22.6
95.0857	16.6
107.0856	8.3
109.1012	10.8
121.1011	13.2
126.0218	79.2
133.1010	11.9
135.1165	16.3
147.1165	14.3
149.1322	16.0
155.0102	8.9
161.1323	15.7
175.1479	10.1
177.1272	10.0
189.1635	9.7
201.1634	25.1
208.0635	22.5
215.1790	17.4
321.2571	8.8
323.2729	8.0
339.2667	13.1
341.2834	11.2
463.2456	10.8
464.2818	100.0
465.2856	28.2
466.2980	57.3

Name: Taurohyodeoxycholic acid
PrecursorMZ: 464.28248
RT: 1.3737
ExactMass: 499.29675933
Spectrum_type: 2
charge: 1
Formula: C26H45NO6S
SMILES: C[C@H](CCC(=O)NCCS(=O)(=O)O)[C@H]1CC[C@@H]2[C@@]1(CC[C@H]3[C@H]2C[C@@H]([C@H]4[C@@]3(CC[C@H](C4)O)C)O)C
Method: HCD
Collision_energy: [28.333334]
Isolation_window: 4.0
Ion_mode: P
Num Peaks: 30
51.5872	5.2
81.0702	7.1
93.0701	3.9
95.0858	7.8
107.0857	5.8
109.1013	7.4
119.0855	4.8
121.1012	7.5
126.0220	41.6
133.1011	4.9
135.1168	8.2
145.1012	3.9
147.1167	6.9
149.1325	7.2
159.1167	3.7
161.1323	5.4
175.1484	5.6
187.1479	4.9
189.1638	3.7
201.1636	12.7
208.0635	12.1
215.1793	12.4
229.1589	3.3
229.1950	3.6
243.2107	3.7
321.2570	5.2
339.2680	12.5
464.2826	100.0
465.2857	27.4
466.3016	8.5

Name: Taurolithocholic Acid
PrecursorMZ: 466.298
RT: 0.861
ExactMass: 483.30184471
Spectrum_type: 2
charge: 1
Formula: C26H45NO5S
SMILES: C[C@H](CCC(=O)NCCS(=O)(=O)O)[C@H]1CC[C@@H]2[C@@]1(CC[C@H]3[C@H]2CC[C@H]4[C@@]3(CC[C@H](C4)O)C)C
Method: HCD
Collision_energy: [28.333334]
Isolation_window: 4.0
Ion_mode: P
Num Peaks: 31
51.8111	5.2
69.0094	8.0
69.0123	8.7
69.0144	10.4
81.0701	8.6
83.0856	4.7
93.0699	4.5
95.0856	10.9
97.4562	6.3
107.0856	7.8
109.1012	8.6
121.1011	12.4
126.0218	81.9
133.1011	4.3
135.1166	14.5
147.1167	6.1
149.1323	16.3
159.1167	4.3
161.1325	5.5
163.1479	8.4
175.1475	5.4
177.1271	8.7
189.1635	5.9
191.1428	4.1
203.1789	5.2
208.0634	10.2
323.2724	18.6
341.2831	20.8
342.2865	5.5
466.2976	100.0
467.3009	29.4

Name: Tauroursodeoxycholic acid
PrecursorMZ: 464.2825
RT: 0.9521
ExactMass: 499.29675933
Spectrum_type: 2
charge: 1
Formula: C26H45NO6S
SMILES: C[C@H](CCC(=O)NCCS(=O)(=O)O)[C@H]1CC[C@@H]2[C@@]1(CC[C@H]3[C@H]2[C@H](C[C@H]4[C@@]3(CC[C@H](C4)O)C)O)C
Method: HCD
Collision_energy: [28.333334]
Isolation_window: 4.0
Ion_mode: P
Num Peaks: 14
109.1012	9.4
121.1010	9.4
126.0218	55.1
133.1011	8.5
135.1165	9.3
149.1322	9.0
161.1324	9.0
201.1634	12.6
208.0633	15.7
215.1789	15.2
339.2677	13.2
464.2817	100.0
465.2850	28.7
466.2976	27.1

Name: Tazettine
PrecursorMZ: 332.14882
RT: 2.1736
ExactMass: 331.14197277
Spectrum_type: 2
charge: 1
Formula: C18H21NO5
SMILES: CN1C[C@@]2([C@]3([C@@H]1C[C@@H](C=C3)OC)C4=CC5=C(C=C4CO2)OCO5)O
Method: HCD
Collision_energy: [28.333334]
Isolation_window: 4.0
Ion_mode: P
Num Peaks: 156
58.0655	5.3
70.0656	30.7
71.0495	5.4
72.0813	11.9
80.0499	5.7
81.0340	32.7
83.0496	13.6
84.0812	18.0
86.0605	7.7
86.0969	9.1
95.0497	5.8
96.0448	12.8
96.0814	6.8
98.0606	6.0
98.0969	11.7
99.0438	5.2
100.0761	6.2
101.0601	18.7
107.0733	7.1
108.0447	9.5
108.0813	8.3
110.0603	8.7
111.0444	32.2
112.0761	6.3
114.0554	12.1
114.0668	5.6
116.0708	12.8
120.0810	7.9
121.0646	7.7
122.0603	9.3
123.0442	6.8
124.0756	5.2
126.0551	11.6
126.0915	8.4
128.0707	6.2
130.0865	13.5
134.0599	7.0
136.0757	10.4
137.0594	6.5
138.0553	8.8
138.0910	9.0
142.0862	5.4
148.0755	5.1
150.0916	27.7
152.0709	15.7
152.1067	5.6
154.0861	5.1
160.0760	11.8
162.0914	6.8
163.0864	9.2
164.0706	14.2
164.1071	18.9
166.0859	75.1
166.0981	22.5
167.0911	6.1
168.1019	15.2
174.1125	9.6
176.0696	5.7
178.0859	8.4
180.0658	11.4
180.1017	15.9
181.0973	64.7
182.0817	10.6
182.1000	7.3
182.1173	8.2
188.0696	5.8
190.0854	6.4
192.1012	11.5
194.0810	8.1
194.1177	13.0
195.1124	8.6
196.0963	17.3
198.0760	9.0
202.0856	5.5
207.1119	7.3
208.0967	6.4
210.1120	6.9
220.0967	5.5
224.0917	5.1
228.1027	7.3
232.0959	6.6
233.1276	6.6
235.1072	5.1
240.1325	5.8
241.1172	6.0
244.0958	6.0
245.1285	9.2
246.1126	11.6
258.1108	5.4
275.0894	12.6
276.1221	6.9
288.1216	6.5
288.1586	5.0
314.1374	7.6
318.1588	6.7
322.1035	7.1
324.1466	8.1
330.1290	17.8
330.1759	7.6
331.1336	24.9
331.1656	38.1
332.1109	13.5
332.1483	94.2
332.1913	7.6
332.2254	26.0
333.1472	42.3
333.1806	29.6
333.2190	15.8
334.1277	38.1
334.1680	34.6
334.2086	6.2
335.1284	7.4
335.1608	30.3
335.1975	15.9
336.1421	35.3
336.1902	7.5
337.1426	10.3
337.1765	22.4
337.2100	9.6
338.1249	9.4
338.1678	10.3
338.2045	9.4
339.1332	7.9
339.1629	12.4
339.1924	10.9
339.2278	11.5
340.1188	12.9
340.1483	15.7
340.2288	5.5
341.1468	30.7
342.1330	25.1
342.1570	30.4
343.1318	12.5
343.1660	51.6
344.1107	5.4
344.1484	48.9
345.1408	25.3
345.1789	18.2
346.1299	18.4
346.1631	100.0
346.2076	14.3
347.1633	46.1
347.1953	13.9
348.1449	23.5
348.1794	19.0
348.2163	7.0
349.1428	9.9
349.1755	30.0
349.2171	7.6
350.1193	12.8
350.1668	17.0
350.1986	6.1
350.2306	25.0
351.1596	10.6
351.1930	5.5
351.2312	5.3

Name: Tempol
PrecursorMZ: 174.14891
RT: 7.7412
ExactMass: 172.133753817
Spectrum_type: 2
charge: 1
Formula: C9H18NO2
SMILES: CC1(CC(CC(N1[O])(C)C)O)C
Method: HCD
Collision_energy: [28.333334]
Isolation_window: 4.0
Ion_mode: P
Num Peaks: 18
55.0548	9.6
57.0703	5.7
67.0546	4.2
74.0605	9.0
74.0969	13.1
83.0495	6.3
100.0760	23.6
101.0600	53.1
109.1014	9.0
112.0759	7.0
114.0916	10.4
128.1072	9.6
156.1021	31.9
156.1386	4.7
173.0924	5.4
174.1126	36.9
174.1489	100.0
175.1524	9.7

Name: Tempone
PrecursorMZ: 172.13292
RT: 1.1983000000000001
ExactMass: 170.118103753
Spectrum_type: 2
charge: 1
Formula: C9H16NO2
SMILES: CC1(CC(=O)CC(N1[O])(C)C)C
Method: HCD
Collision_energy: [28.333334]
Isolation_window: 4.0
Ion_mode: P
Num Peaks: 29
55.0545	1.5
56.0498	3.4
57.0702	3.1
69.0701	1.8
71.0857	1.8
74.0602	100.0
75.0636	2.9
83.0493	2.7
86.0601	5.7
88.0394	1.6
88.0757	12.5
99.0805	3.0
102.0913	7.1
115.0543	3.1
116.0705	2.6
116.1069	2.8
126.0911	2.1
130.1588	1.6
143.0490	3.1
171.1376	1.5
171.1489	1.7
172.1116	4.5
172.1328	9.4
172.1691	65.4
173.0595	6.1
173.0852	3.7
173.1323	1.6
173.1725	7.0
174.0913	1.7

Name: Terbutaline
PrecursorMZ: 226.14348
RT: 2.612
ExactMass: 225.13649347
Spectrum_type: 2
charge: 1
Formula: C12H19NO3
SMILES: CC(C)(C)NCC(C1=CC(=CC(=C1)O)O)O
Method: HCD
Collision_energy: [28.333334]
Isolation_window: 4.0
Ion_mode: P
Num Peaks: 145
69.0338	1.3
70.0655	6.6
71.0496	3.9
72.0813	2.0
81.0339	2.1
82.0654	1.7
83.0495	2.0
84.0448	5.7
84.0811	3.2
85.0288	1.3
86.0604	6.8
87.0445	1.6
88.0760	4.5
90.0552	3.0
96.0448	1.8
98.0602	4.4
99.0443	2.1
100.0759	11.3
101.0599	3.5
102.0551	3.6
105.0700	2.4
107.0857	3.1
110.0601	1.4
111.0442	2.4
112.0759	1.6
114.0553	2.6
114.0664	1.5
116.0708	4.6
119.0857	3.4
121.1014	3.0
122.0599	1.3
123.0439	1.4
124.0392	2.7
125.0597	1.6
126.0549	3.2
126.0915	1.8
128.0709	2.1
130.0499	8.1
130.0862	1.3
131.0855	4.2
132.0657	1.7
132.0766	13.4
133.1010	1.4
136.0757	2.2
138.0544	2.1
142.0863	1.3
145.1010	2.6
146.0603	1.6
147.0804	1.4
147.1167	4.5
148.0604	2.8
149.0961	40.3
150.1003	4.6
152.0707	1.9
156.0654	1.3
161.0964	2.7
163.1117	12.5
164.0458	1.7
164.0700	1.9
164.1151	1.3
165.0910	1.5
166.0855	2.1
166.1227	33.9
167.1059	1.6
167.1263	3.1
168.0654	2.0
168.1018	2.6
169.0603	2.3
170.0808	1.8
173.0933	2.1
178.0864	4.1
179.1067	1.4
180.0648	1.7
180.1006	2.0
181.0964	1.5
182.0805	3.0
183.1123	2.9
184.0719	1.3
184.0960	1.4
185.0711	1.3
186.0876	2.9
186.1122	3.1
188.0917	1.4
189.0906	1.6
191.1066	6.2
192.0649	2.4
193.0980	1.5
194.0804	2.9
196.0958	1.7
198.1266	1.5
201.1243	1.6
206.0805	1.6
207.1016	1.4
208.0972	2.6
208.1332	3.8
209.0923	4.6
209.1171	11.9
210.0217	5.7
210.0746	1.8
210.1205	2.1
211.1076	1.9
212.1046	5.3
214.1070	8.4
216.0868	2.7
218.0814	1.3
221.0917	1.4
222.0757	2.6
224.0906	4.5
225.0894	2.3
226.0710	4.5
226.1102	11.4
226.1436	100.0
227.1023	7.4
227.1472	12.5
228.0326	8.2
228.0868	3.8
228.1008	1.3
228.1233	3.7
229.1182	21.9
230.1139	58.1
231.0765	1.6
231.0975	1.5
231.1166	6.0
232.1179	4.3
234.0784	1.7
234.0969	1.6
234.1328	2.3
236.0920	2.7
236.1486	1.7
237.0880	2.7
238.0682	1.5
238.1071	3.6
239.0770	2.4
239.1028	9.3
240.0842	3.2
240.1234	3.9
241.1181	12.6
242.1020	3.2
242.1182	2.0
243.1354	3.3
244.0933	1.4
244.1187	3.9
245.1136	6.6
246.1082	13.0
246.1343	2.4

Name: Terrein
PrecursorMZ: 172.09657
RT: 3.6157
ExactMass: 154.062994177
Spectrum_type: 2
charge: 1
Formula: C8H10O3
SMILES: C/C=C/C1=CC(=O)[C@@H]([C@H]1O)O
Method: HCD
Collision_energy: [28.333334]
Isolation_window: 4.0
Ion_mode: P
Num Peaks: 54
60.0448	6.5
67.0546	7.5
69.0209	3.7
69.0230	7.6
69.0338	4.6
69.1566	7.0
69.3724	6.7
70.0653	4.8
70.2412	3.0
71.0493	4.2
72.0447	6.7
72.0810	19.1
75.0555	4.6
83.0493	3.7
84.0445	3.8
84.0809	17.0
86.0601	5.0
95.0492	11.7
96.0443	4.1
97.4564	5.4
98.0600	16.3
99.0441	10.7
100.0757	6.7
110.0600	20.1
111.0551	3.8
112.0756	64.7
113.0597	6.1
113.0789	3.6
113.1072	4.6
114.0549	3.8
114.0913	100.0
115.0865	18.4
126.0912	10.9
128.0453	4.0
128.0704	6.8
130.0860	50.5
131.0812	4.8
131.1176	59.2
136.0754	5.3
152.0702	3.5
153.0404	3.6
153.0656	60.9
154.0860	29.3
155.0560	6.0
156.0639	85.0
157.0673	5.3
170.0796	5.3
171.0763	4.6
171.0873	95.3
171.1489	5.2
172.0965	55.7
173.0917	24.8
173.0997	5.3
173.1274	11.4

Name: Testosterone
PrecursorMZ: 289.21555
RT: 1.1614
ExactMass: 288.208930132
Spectrum_type: 2
charge: 1
Formula: C19H28O2
SMILES: C[C@]12CC[C@H]3[C@H]([C@@H]1CC[C@@H]2O)CCC4=CC(=O)CC[C@]34C
Method: HCD
Collision_energy: [28.333334]
Isolation_window: 4.0
Ion_mode: P
Num Peaks: 20
57.0338	31.8
59.0494	16.8
81.0700	20.0
89.0598	20.1
95.0854	30.1
107.0854	60.9
109.1010	17.2
115.0750	16.6
119.0851	16.7
121.1009	21.6
133.1009	16.9
147.1164	23.9
161.1322	15.2
175.1475	24.2
193.1217	24.0
215.1787	44.6
253.1941	17.6
271.2045	20.8
289.2150	100.0
290.2189	20.1

Name: Tetradecyldiethanolamine
PrecursorMZ: 302.30528
RT: 0.5806
ExactMass: 301.298079487
Spectrum_type: 2
charge: 1
Formula: C18H39NO2
SMILES: CCCCCCCCCCCCCCN(CCO)CCO
Method: HCD
Collision_energy: [28.333334]
Isolation_window: 4.0
Ion_mode: P
Num Peaks: 104
57.0341	1.2
57.0704	9.0
59.0497	13.6
67.0548	2.4
69.0704	2.6
70.0656	2.5
71.0497	1.2
71.0860	4.5
81.0704	3.9
83.0496	1.2
83.0860	2.1
85.0653	1.6
85.1016	2.2
86.0970	0.8
87.0445	1.5
88.0761	7.1
89.0601	2.9
91.0548	1.1
93.0703	1.5
95.0859	3.9
97.0652	2.2
97.1014	1.1
98.0605	1.9
98.9845	5.9
99.0444	1.9
99.0809	1.4
101.0601	3.7
102.0917	3.3
105.0702	0.9
106.0866	5.5
107.0708	1.1
107.0854	1.8
109.0653	1.1
109.1015	2.7
111.0444	1.9
111.0809	1.3
111.1170	0.8
112.0761	0.8
113.0600	2.1
115.0756	1.4
117.0914	3.9
119.0859	1.2
121.1014	2.2
123.0808	1.4
123.1170	2.1
125.0962	1.0
127.0757	0.8
129.0549	1.5
133.0863	0.8
133.1012	1.2
135.1170	1.5
137.0600	1.1
137.0963	1.4
139.0756	0.8
139.1118	0.8
142.1591	0.8
145.1014	0.8
147.1168	0.9
149.0967	1.0
149.1325	0.9
151.0968	1.4
153.0550	1.8
153.0910	0.9
155.0471	1.2
157.0498	1.2
163.1482	1.0
165.0910	0.8
175.1332	0.8
181.0501	0.9
191.1066	1.1
203.0915	1.1
209.0834	0.8
209.1175	20.0
210.1210	2.6
223.1692	0.8
237.1124	17.1
238.1158	2.3
255.1230	5.4
256.1265	0.7
256.2638	11.5
257.2676	2.2
262.1440	1.9
265.1437	1.8
267.1730	0.9
270.2802	0.9
272.2589	1.0
284.2952	4.6
285.2992	0.9
293.1749	2.7
299.0607	0.9
300.2902	1.0
302.3058	100.0
303.3090	19.6
304.3123	2.7
306.2073	0.8
307.1545	1.1
308.1862	1.7
311.1852	4.4
312.1904	0.9
316.2842	0.9
318.3007	37.9
319.3039	8.2
320.3053	0.8
321.1689	1.0

Name: Tetraethylammonium
PrecursorMZ: 130.15902
RT: 6.8926
ExactMass: 130.159574642
Spectrum_type: 2
charge: 1
Formula: C8H20N+
SMILES: CC[N+](CC)(CC)CC
Method: HCD
Collision_energy: [28.333334]
Isolation_window: 4.0
Ion_mode: P
Num Peaks: 13
57.0703	18.2
58.0735	1.1
70.0654	1.7
71.0494	1.8
74.0967	26.2
75.1000	1.4
84.0446	12.3
84.0810	3.3
86.0966	4.8
103.0543	3.4
130.0496	2.7
130.1589	100.0
131.1621	9.6

Name: Tetraethylene Glycol
PrecursorMZ: 195.12263
RT: 2.3269
ExactMass: 194.11542367
Spectrum_type: 2
charge: 1
Formula: C8H18O5
SMILES: C(COCCOCCOCCO)O
Method: HCD
Collision_energy: [28.333334]
Isolation_window: 4.0
Ion_mode: P
Num Peaks: 16
89.0600	100.0
90.0633	4.4
94.9299	2.7
97.3998	1.2
107.0705	6.9
133.0860	24.6
134.0892	1.2
136.0758	1.3
151.0966	4.8
155.0564	2.0
164.0708	2.0
177.1123	1.9
194.1038	1.2
195.1227	6.6
196.0964	1.1
197.1072	1.1

Name: Tetraethylene glycol monododecyl ether
PrecursorMZ: 363.31047
RT: 0.5476
ExactMass: 362.30322444
Spectrum_type: 2
charge: 1
Formula: C20H42O5
SMILES: CCCCCCCCCCCCOCCOCCOCCOCCO
Method: HCD
Collision_energy: [28.333334]
Isolation_window: 4.0
Ion_mode: P
Num Peaks: 127
57.0704	17.4
58.0738	0.9
59.0497	3.2
59.0609	0.6
67.0548	1.2
69.0704	3.4
71.0860	28.9
72.0894	1.5
73.0471	0.7
73.0653	3.0
79.0547	0.5
81.0704	2.5
83.0860	3.4
85.0289	2.3
85.0651	0.7
85.1017	19.4
86.1050	1.3
87.0445	3.3
89.0489	0.8
89.0510	0.5
89.0601	100.0
89.0693	0.5
89.0717	0.7
90.0634	4.1
91.0578	1.1
93.0702	1.3
95.0859	2.4
97.0653	0.7
97.1015	3.8
97.3310	0.5
99.0443	0.6
99.0807	0.8
99.1172	2.3
101.0601	0.8
101.0965	1.6
105.0701	0.7
107.0707	7.1
107.0858	1.5
109.0653	0.6
109.1015	2.2
111.0808	0.5
111.1171	2.1
113.0603	0.5
113.1329	1.3
116.0710	0.6
117.0913	1.8
119.0857	0.8
121.1015	1.3
123.0805	0.8
123.1174	1.0
125.1329	0.5
127.1483	0.7
130.0868	1.0
133.0772	0.6
133.0862	37.1
133.1017	1.1
134.0895	2.1
135.0809	0.5
135.1171	0.9
137.0962	0.6
137.1329	0.5
139.1119	0.5
145.1014	1.7
147.1171	3.9
148.1209	0.5
149.0962	0.5
149.1329	0.7
151.0968	9.4
151.1101	0.5
152.0997	0.7
154.0976	1.1
159.1165	0.7
161.0966	0.5
161.1320	0.7
165.1280	0.9
169.1954	1.0
173.1330	0.5
175.1116	0.7
177.1125	8.3
178.1153	0.8
185.1539	0.7
189.1488	2.6
193.1227	0.5
195.1230	27.8
196.1259	2.4
197.1308	0.5
199.1486	0.6
207.1594	0.6
213.1640	0.6
221.1173	2.1
222.1604	1.3
250.1550	2.5
251.0820	0.6
257.2477	2.8
268.2638	9.9
269.2674	1.9
275.2592	0.5
279.0766	0.7
285.0101	0.6
300.2906	0.7
301.2745	0.5
307.2438	0.7
319.2842	0.7
325.2527	4.4
326.2561	0.8
335.2369	0.5
347.3162	3.8
348.3196	1.1
351.2165	1.8
353.2453	0.7
353.2704	0.5
355.0708	0.9
362.3285	2.1
363.3108	62.0
364.3139	12.2
365.3110	0.7
367.2342	2.4
368.2395	0.5
369.3014	0.5
371.2577	4.3
371.3278	0.5
372.2609	1.2
374.3638	0.5
377.3265	4.1
378.1451	0.8
378.3276	0.9
380.3347	0.5

Name: Tetraglyme
PrecursorMZ: 223.15376
RT: 1.6697777777777778
ExactMass: 222.1467238
Spectrum_type: 2
charge: 1
Formula: C10H22O5
SMILES: COCCOCCOCCOCCOC
Method: HCD
Collision_energy: [28.333334]
Isolation_window: 4.0
Ion_mode: P
Num Peaks: 3
59.0495	100.0
89.0598	84.5
103.0754	34.9

Name: Tetrahydropalmatine, (+)-
PrecursorMZ: 356.18504
RT: 7.8647
ExactMass: 355.17835828
Spectrum_type: 2
charge: 1
Formula: C21H25NO4
SMILES: COC1=C(C2=C(C[C@@H]3C4=CC(=C(C=C4CCN3C2)OC)OC)C=C1)OC
Method: HCD
Collision_energy: [28.333334]
Isolation_window: 4.0
Ion_mode: P
Num Peaks: 7
58.0655	17.6
72.0811	32.0
356.1847	100.0
357.1885	20.4
357.2278	6.5
358.2008	10.1
358.2350	6.7

Name: Tetrahydropiperine
PrecursorMZ: 290.17062
RT: 5.8335
ExactMass: 289.1677936
Spectrum_type: 2
charge: 1
Formula: C17H23NO3
SMILES: C1CCN(CC1)C(=O)CCCCC2=CC3=C(C=C2)OCO3
Method: HCD
Collision_energy: [28.333334]
Isolation_window: 4.0
Ion_mode: P
Num Peaks: 20
69.0337	12.8
74.0603	21.2
86.0966	77.8
113.0710	15.1
120.0654	24.1
131.0814	24.4
132.1017	15.0
143.1176	100.0
159.0761	25.9
166.0859	12.7
171.1124	29.8
200.0484	14.2
272.1599	24.3
289.0963	52.5
289.1180	16.2
290.0807	14.9
290.1006	39.5
290.1354	14.2
291.1323	17.1
291.2409	18.3

Name: Tetrahydrosappanone A trimethyl ether
PrecursorMZ: 331.15387
RT: 0.8929
ExactMass: 330.1467238
Spectrum_type: 2
charge: 1
Formula: C19H22O5
SMILES: COC1=CC2=C(C=C1)[C@@H]([C@@H](CO2)CC3=CC(=C(C=C3)OC)OC)O
Method: HCD
Collision_energy: [28.333334]
Isolation_window: 4.0
Ion_mode: P
Num Peaks: 15
201.0910	15.0
215.1068	11.0
216.1148	8.4
219.1014	16.3
233.1170	11.6
234.1251	46.8
267.1379	11.5
285.1483	32.1
303.1591	17.0
313.1431	9.3
331.1538	100.0
331.1923	9.1
332.1579	24.3
332.3310	10.6
333.1701	8.3

Name: Tetrapentylammonium
PrecursorMZ: 298.34645
RT: 5.214
ExactMass: 298.347375408
Spectrum_type: 2
charge: 1
Formula: C20H44N+
SMILES: CCCCC[N+](CCCCC)(CCCCC)CCCCC
Method: HCD
Collision_energy: [28.333334]
Isolation_window: 4.0
Ion_mode: P
Num Peaks: 107
56.0499	0.6
57.0702	0.7
58.0654	0.7
69.5802	0.4
69.8372	0.4
70.0654	0.7
71.0858	0.6
72.0810	0.6
81.0337	0.9
81.0701	0.4
84.0445	0.5
86.0966	0.9
91.0544	0.6
94.9296	0.5
95.0493	1.0
97.4576	0.4
110.0713	0.5
116.0707	0.7
120.0808	0.7
121.0648	0.8
124.0392	0.9
125.0231	0.4
126.0549	0.6
127.1117	0.4
132.1016	0.5
136.0755	0.9
138.0913	1.4
141.0909	1.0
144.0808	0.5
144.1016	0.5
150.0912	1.6
152.0339	0.5
152.1068	0.8
155.0812	0.6
158.1902	2.7
159.1934	0.4
164.0703	0.4
166.0862	0.4
174.0910	0.5
181.0609	0.5
182.0809	0.5
183.0761	1.2
186.2212	2.3
187.1479	0.5
189.0654	1.7
192.0653	0.4
196.0963	0.7
198.0915	0.5
207.0761	0.8
209.1281	0.4
210.0868	2.3
216.1015	0.8
220.0968	0.6
223.1435	0.4
234.1122	1.1
235.0710	1.1
236.0913	0.5
236.1024	1.0
237.0756	0.9
237.0866	0.4
251.1380	0.9
252.1223	0.5
254.1133	0.4
255.1122	0.8
262.1069	0.7
264.1341	0.4
272.1235	0.9
279.0965	0.6
279.1326	0.4
280.1173	1.8
282.1079	1.7
297.0745	0.5
297.0882	0.6
297.1078	1.2
297.1225	1.4
297.1437	2.9
297.1576	0.6
297.1806	1.2
298.0707	0.5
298.0911	0.5
298.1067	0.7
298.1273	2.2
298.1417	0.6
298.1449	0.4
298.1636	0.6
298.1765	0.7
298.2731	1.0
298.3109	1.1
298.3462	100.0
298.3741	0.4
298.3815	0.7
299.1031	0.8
299.1232	2.3
299.1388	2.4
299.1589	1.1
299.1747	5.7
299.3495	20.4
300.0859	0.8
300.1072	0.7
300.1190	9.4
300.1409	0.6
300.1435	0.7
300.1556	1.2
300.1785	0.7
300.2891	1.0
300.3254	0.8
300.3528	1.0

Name: Teukotschyn
PrecursorMZ: 345.16958
RT: 0.8595
ExactMass: 362.17293854
Spectrum_type: 2
charge: 1
Formula: C20H26O6
SMILES: C[C@@H]1C[C@H]([C@@]23COC([C@@H]2CCC[C@@H]3[C@@]14C[C@H](OC4=O)C5=COC=C5)O)O
Method: HCD
Collision_energy: [28.333334]
Isolation_window: 4.0
Ion_mode: P
Num Peaks: 28
57.0704	18.9
69.0703	27.2
85.0651	8.2
89.0600	15.2
201.0907	7.6
215.1067	11.2
219.1016	7.5
233.1170	20.3
243.1012	7.1
248.1407	34.2
255.1013	11.2
259.1327	7.5
261.1120	20.1
273.1121	29.5
279.1227	25.3
281.1535	9.0
299.1641	30.8
311.1637	6.9
317.1751	10.8
327.1585	8.3
329.1743	16.7
343.1631	16.5
343.1895	15.9
344.1675	8.5
344.1915	7.4
345.1692	100.0
346.1728	18.7
347.1850	92.7

Name: Thalicthuberine
PrecursorMZ: 354.16995
RT: 3.0116
ExactMass: 353.16270821
Spectrum_type: 2
charge: 1
Formula: C21H23NO4
SMILES: CN(C)CCC1=CC(=C(C2=C1C=CC3=CC4=C(C=C32)OCO4)OC)OC
Method: HCD
Collision_energy: [28.333334]
Isolation_window: 4.0
Ion_mode: P
Num Peaks: 22
60.0448	4.5
81.0703	3.0
121.0649	2.8
122.0602	7.3
126.0914	2.3
177.0545	2.3
178.0500	10.4
192.0652	2.2
196.0969	5.5
281.0806	5.8
298.1073	100.0
299.1106	19.8
300.1131	2.1
353.1334	2.5
353.1701	2.2
353.2298	5.1
354.1343	2.7
354.1698	77.4
355.1297	2.7
355.1725	17.0
355.2441	2.9
356.1757	2.3

Name: Theobromine
PrecursorMZ: 181.07187
RT: 2.3858
ExactMass: 180.06472551
Spectrum_type: 2
charge: 1
Formula: C7H8N4O2
SMILES: CN1C=NC2=C1C(=O)NC(=O)N2C
Method: HCD
Collision_energy: [28.333334]
Isolation_window: 4.0
Ion_mode: P
Num Peaks: 6
91.0544	6.3
138.0660	18.6
180.0653	2.5
181.0718	100.0
182.0752	6.5
182.1173	2.9

Name: Theophylline
PrecursorMZ: 181.07179
RT: 2.8046
ExactMass: 180.06472551
Spectrum_type: 2
charge: 1
Formula: C7H8N4O2
SMILES: CN1C2=C(C(=O)N(C1=O)C)NC=N2
Method: HCD
Collision_energy: [28.333334]
Isolation_window: 4.0
Ion_mode: P
Num Peaks: 7
91.0544	23.6
124.0504	17.5
142.0609	8.9
181.0718	100.0
182.0752	6.1
182.1174	8.5
183.0914	29.9

Name: Thiamine
PrecursorMZ: 265.11132
RT: 14.2824
ExactMass: 265.11230735
Spectrum_type: 2
charge: 1
Formula: C12H17N4OS+
SMILES: CC1=C(SC=[N+]1CC2=CN=C(N=C2N)C)CCO
Method: HCD
Collision_energy: [28.333334]
Isolation_window: 4.0
Ion_mode: P
Num Peaks: 8
81.0450	2.6
122.0620	0.8
122.0712	100.0
123.0681	0.8
123.0745	6.2
144.0476	25.2
145.0510	1.4
265.1109	2.3

Name: Thiochrome
PrecursorMZ: 263.09588
RT: 1.0361
ExactMass: 262.08883226
Spectrum_type: 2
charge: 1
Formula: C12H14N4OS
SMILES: CC1=C(SC2=NC3=NC(=NC=C3CN12)C)CCO
Method: HCD
Collision_energy: [28.333334]
Isolation_window: 4.0
Ion_mode: P
Num Peaks: 10
115.0215	1.7
188.0915	0.8
232.0780	2.5
233.0852	1.1
245.0859	1.0
263.0963	100.0
264.0991	14.2
265.0921	4.4
266.0972	1.0
279.0920	1.0

Name: Thr-C17:0
PrecursorMZ: 372.31024
RT: 1.1313
Spectrum_type: 2
charge: 1
SMILES: CCCCCCCCCCCCCCCCC(NC(C(O)=O)C(O)C)=O
Method: HCD
Collision_energy: [28.333334]
Isolation_window: 4.0
Ion_mode: P
Num Peaks: 57
55.0546	2.3
57.0703	3.2
60.0448	51.1
62.0604	2.2
67.0546	15.1
69.0702	7.3
70.0654	5.1
71.0859	4.5
81.0701	22.5
83.0858	11.6
84.0446	1.9
86.0966	20.5
93.0700	3.6
95.0857	24.6
96.0890	2.0
97.1013	8.9
99.0805	1.8
102.0551	5.1
107.0856	3.2
109.1012	14.0
111.1168	2.0
119.0856	2.0
121.1012	3.3
123.1168	5.3
133.1011	3.1
135.1166	2.4
137.1325	2.1
141.1274	2.0
146.1174	5.1
147.1166	2.3
149.0959	15.1
149.1323	2.4
161.1323	2.1
163.1478	2.0
199.1801	5.8
227.1750	7.0
240.2681	2.7
245.2261	4.4
252.2682	37.8
253.2715	6.5
262.2245	1.9
263.2366	7.3
270.2788	18.7
271.2820	3.8
294.2787	15.9
295.2819	2.7
312.2892	100.0
313.2925	19.8
337.2731	2.9
354.2996	33.8
355.2831	5.8
355.3030	7.0
372.2534	3.1
372.2873	1.9
372.3101	5.6
373.1282	2.4
373.3103	1.9

Name: Thr-C19:2
PrecursorMZ: 396.31025
RT: 2.473
Spectrum_type: 2
charge: 1
SMILES: O=C(NC(C(O)=O)C(O)C)CCCCCCCCC=CCC=CCCCCC
Method: HCD
Collision_energy: [28.333334]
Isolation_window: 4.0
Ion_mode: P
Num Peaks: 17
67.0546	10.4
69.0702	3.1
81.0701	12.4
93.0700	4.7
95.0857	10.1
109.1013	4.2
121.1011	6.7
135.1166	6.8
140.1433	2.8
149.1324	3.1
236.2369	58.6
237.2402	8.4
238.2530	4.8
378.3000	2.6
396.3275	40.6
397.3300	10.1
398.3413	100.0

Name: Thr-C23:0
PrecursorMZ: 456.40459
RT: 4.669
Spectrum_type: 2
charge: 1
SMILES: CCCCCCCCCCCCCCCCCCCCCCC(NC(C(O)=O)C(O)C)=O
Method: HCD
Collision_energy: [28.333334]
Isolation_window: 4.0
Ion_mode: P
Num Peaks: 19
50.7105	1.1
50.7118	3.5
57.0703	1.3
60.0812	12.6
70.0654	1.8
71.0858	1.2
85.0287	100.0
85.1015	1.0
86.0320	4.1
86.0966	1.7
95.0857	1.4
97.1013	1.0
116.0706	1.2
144.1018	3.1
397.3304	3.0
455.3919	4.2
456.4041	69.2
457.2114	4.2
457.4075	17.7

Name: Thr-Ile
PrecursorMZ: 233.14931
RT: 5.3164
ExactMass: 232.14230712
Spectrum_type: 2
charge: 1
Formula: C10H20N2O4
SMILES: CC[C@H](C)[C@@H](C(=O)O)NC(=O)[C@H]([C@@H](C)O)N
Method: HCD
Collision_energy: [28.333334]
Isolation_window: 4.0
Ion_mode: P
Num Peaks: 135
56.0499	5.3
58.0655	3.5
60.0447	0.9
62.0604	9.6
69.0702	1.5
69.7272	0.9
70.0654	2.0
71.0494	0.9
72.0811	6.9
74.0560	0.8
74.0603	100.0
74.0646	0.8
75.0636	3.3
81.0337	0.9
83.0857	1.1
84.0446	3.1
84.0810	1.5
85.0650	1.4
86.0602	5.1
86.0966	40.8
87.0555	2.8
87.1000	2.7
90.0551	11.0
97.1012	1.7
98.0602	1.0
99.0442	0.8
100.0758	3.1
101.0709	4.0
102.0550	5.5
103.0754	0.8
104.0706	6.7
107.0856	0.9
109.0760	2.5
110.0601	0.7
110.0713	2.4
112.0393	0.7
112.0757	2.5
113.0710	0.9
114.0550	1.6
114.0913	1.0
116.0705	17.3
117.0546	1.0
117.0738	1.0
118.0861	1.9
120.0443	2.2
120.0654	1.9
122.0600	1.2
124.0756	0.9
124.1119	1.7
125.0960	2.0
126.0548	1.1
126.0913	1.9
127.0864	3.9
128.0704	3.7
130.0497	3.9
130.0860	0.8
132.1017	29.5
133.1051	1.4
140.0341	2.6
142.0497	0.8
142.1224	1.4
143.1176	1.7
144.0653	7.1
148.0967	0.9
152.0704	7.6
156.0653	2.1
159.0763	0.9
160.0605	0.9
162.0759	1.3
162.1024	1.0
168.0653	18.5
168.1014	1.2
169.0688	2.0
169.0971	0.9
169.1334	2.8
170.0809	0.8
171.0763	0.9
172.0603	0.9
172.0966	0.8
173.0917	6.2
174.0758	8.4
185.1278	1.0
186.0907	0.8
186.1121	2.1
186.1238	0.9
187.1437	19.5
188.0702	1.7
188.0916	1.3
188.1278	6.0
188.1474	2.1
189.1019	1.0
189.1117	1.1
191.1026	0.9
196.0965	1.3
196.1328	21.0
197.1361	2.9
198.0757	6.2
198.1120	3.5
214.0496	2.7
214.1069	2.3
214.1433	44.1
215.0813	1.3
215.1020	7.2
215.1269	1.1
215.1383	6.2
215.1469	4.8
216.0651	2.2
216.0861	2.7
216.1224	6.4
217.0968	0.9
231.1332	1.8
231.2508	6.3
232.0610	1.2
232.0823	0.9
232.0965	7.0
232.1077	6.1
232.1176	1.8
232.1305	0.8
232.1364	1.2
232.1535	1.7
232.2540	1.1
233.0914	3.2
233.1126	2.7
233.1282	1.4
233.1490	17.5
234.0757	18.4
234.0866	2.2
234.0973	2.6
234.1121	4.0
234.1330	5.1
234.1505	1.5
234.1604	1.9
235.0808	1.3
235.1073	3.4
235.1185	13.5

Name: Thr-Leu
PrecursorMZ: 233.1493
RT: 5.1263
ExactMass: 232.14230712
Spectrum_type: 2
charge: 1
Formula: C10H20N2O4
SMILES: C[C@H]([C@@H](C(=O)N[C@@H](CC(C)C)C(=O)O)N)O
Method: HCD
Collision_energy: [28.333334]
Isolation_window: 4.0
Ion_mode: P
Num Peaks: 31
56.0499	5.3
58.0655	3.9
69.5144	1.2
74.0603	100.0
75.0637	3.0
84.0446	2.5
86.0966	20.7
101.0710	4.1
121.0648	1.3
132.1018	28.4
133.1051	1.6
142.1225	1.1
143.1178	1.2
164.1069	1.4
169.1334	2.0
173.1322	1.1
187.1437	21.0
188.1471	1.5
204.0651	3.1
215.0479	4.9
215.1385	5.1
216.0650	1.1
232.0602	3.0
232.0959	2.5
232.1172	1.9
233.0912	1.2
233.1489	14.1
234.0758	3.0
234.1116	1.8
234.1228	3.4
234.1529	1.4

Name: Thr-Phe
PrecursorMZ: 267.13359
RT: 4.8568
ExactMass: 266.12665706
Spectrum_type: 2
charge: 1
Formula: C13H18N2O4
SMILES: C[C@H]([C@@H](C(=O)N[C@@H](CC1=CC=CC=C1)C(=O)O)N)O
Method: HCD
Collision_energy: [28.333334]
Isolation_window: 4.0
Ion_mode: P
Num Peaks: 87
56.0499	5.6
58.0655	3.9
69.6655	1.2
70.0654	1.1
72.0811	21.7
73.0844	2.7
74.0603	100.0
75.0637	3.3
81.0337	1.2
81.0700	1.1
84.0446	4.0
97.0763	1.3
97.4576	0.8
100.0757	13.1
101.0598	1.1
101.0710	2.0
107.0492	3.1
114.0372	1.8
118.0862	3.9
120.0655	1.1
120.0807	44.1
121.0647	1.3
121.0841	4.2
122.0711	1.3
124.0756	1.0
131.0488	1.0
134.0963	2.2
136.0755	1.1
140.0706	0.9
149.0594	1.1
150.0547	0.9
152.0703	1.7
154.0864	1.1
155.0449	2.1
164.0703	1.2
166.0861	56.5
167.0816	1.6
167.0893	5.1
176.1067	1.2
177.1023	1.5
178.0351	1.0
202.0859	1.7
202.1069	2.0
203.1175	1.9
204.0142	0.9
204.1012	1.2
205.0966	2.7
206.0811	1.6
208.0963	1.8
220.0963	2.8
220.1077	1.5
220.1329	1.3
221.1279	9.3
222.1122	2.2
222.1229	1.3
222.1312	1.0
223.1068	2.5
248.0912	3.0
248.1274	2.6
248.1396	1.7
249.1227	7.3
250.1067	2.8
250.1434	1.3
251.1027	1.3
251.1169	1.5
265.1540	0.8
266.1014	7.8
266.1132	1.9
266.1231	0.8
266.1377	6.3
266.1491	2.3
267.0964	1.9
267.1120	2.1
267.1331	23.7
267.1445	3.1
267.1487	1.3
267.1688	2.0
268.0804	1.1
268.0966	1.4
268.1173	6.2
268.1348	3.2
268.1533	3.4
268.1648	2.9
269.0908	1.7
269.1128	1.7
269.1277	6.0
269.1489	2.1

Name: Thr-Pro
PrecursorMZ: 217.11807
RT: 8.5915
ExactMass: 216.111007
Spectrum_type: 2
charge: 1
Formula: C9H16N2O4
SMILES: C[C@H]([C@@H](C(=O)N1CCC[C@H]1C(=O)O)N)O
Method: HCD
Collision_energy: [28.333334]
Isolation_window: 4.0
Ion_mode: P
Num Peaks: 98
55.0546	1.9
56.0498	0.7
70.0654	4.0
72.0447	1.6
72.0811	1.1
81.0701	0.7
82.0653	6.2
83.0494	2.7
84.0446	1.0
84.0558	0.7
84.0810	1.9
86.0602	1.7
87.0442	4.3
88.0395	0.7
90.0551	3.2
95.0604	0.8
97.0285	0.8
98.0601	1.1
98.0965	1.5
99.0554	3.2
100.0394	1.9
100.0757	22.2
101.0597	23.6
101.0791	1.0
102.0550	0.8
102.0631	1.3
104.0707	2.2
104.1070	1.9
112.0757	1.3
114.0550	1.2
115.0866	1.3
116.0705	1.2
117.0658	3.6
118.0498	1.4
118.0862	4.3
126.0913	1.4
127.0864	0.8
128.0705	2.0
129.1021	1.2
130.0861	1.3
138.0912	1.8
142.0861	2.3
144.0807	2.4
152.0704	6.1
152.1068	1.1
154.0861	1.3
155.1179	0.8
156.0654	0.9
156.1017	1.8
157.0494	2.7
158.0810	1.5
160.0603	1.3
164.0703	1.0
170.0809	3.5
170.0920	1.4
170.1174	2.8
171.1123	1.0
172.0966	4.6
172.1079	1.0
172.1329	1.3
180.1016	1.4
181.0969	2.2
182.1538	0.7
197.1280	0.8
198.0758	1.7
198.1122	3.3
198.1233	1.2
198.1485	3.1
199.1074	1.9
200.0915	1.6
200.1025	1.1
200.1278	2.5
201.1231	0.9
215.1025	2.4
215.1387	30.3
216.0696	1.1
216.0863	1.9
216.0973	10.8
216.1228	18.2
216.1336	3.1
216.1426	6.5
216.1589	13.2
217.0824	2.0
217.0964	1.3
217.1001	1.6
217.1178	100.0
217.1257	3.2
217.1533	2.6
217.1633	1.1
218.0810	1.8
218.1018	6.1
218.1132	18.1
218.1213	6.5
218.1381	21.2
218.1741	2.0
219.1121	4.0
219.1334	0.9
219.1417	0.8

Name: Thr-Val-Leu
PrecursorMZ: 332.2177
RT: 4.7745
ExactMass: 331.21072103
Spectrum_type: 2
charge: 1
Formula: C15H29N3O5
SMILES: C[C@H]([C@@H](C(=O)N[C@@H](C(C)C)C(=O)N[C@@H](CC(C)C)C(=O)O)N)O
Method: HCD
Collision_energy: [28.333334]
Isolation_window: 4.0
Ion_mode: P
Num Peaks: 39
60.0448	3.9
72.0812	35.2
73.0845	1.6
74.0604	5.5
86.0967	68.4
87.0556	4.4
87.1000	3.6
101.0711	8.1
105.0661	1.2
114.0915	2.6
120.0656	1.7
128.1070	7.5
129.1025	1.9
132.1019	6.8
138.0913	1.2
173.1284	100.0
174.1318	8.0
185.1648	24.3
186.1681	2.5
187.1440	11.5
199.1803	1.7
201.1233	46.6
202.1269	4.7
213.1596	22.8
214.1633	2.6
215.1390	6.8
219.1341	2.1
227.1753	1.3
231.1701	1.6
233.1494	9.1
245.1862	1.6
314.2071	5.3
331.1641	3.3
332.1637	2.0
332.2177	9.8
332.3308	1.5
333.1441	1.4
333.1803	1.2
333.2209	1.7

Name: Threonylleucine
PrecursorMZ: 233.14937
RT: 2.1273
ExactMass: 232.14230712
Spectrum_type: 2
charge: 1
Formula: C10H20N2O4
SMILES: CC(C)CC(C(=O)O)NC(=O)C(C(C)O)N
Method: HCD
Collision_energy: [28.333334]
Isolation_window: 4.0
Ion_mode: P
Num Peaks: 10
72.0812	18.4
74.0604	53.5
86.0967	79.9
132.1020	14.5
150.0915	22.1
151.0993	19.8
187.1440	11.3
232.0612	7.4
233.0786	100.0
233.1493	16.3

Name: Thymine
PrecursorMZ: 127.0502
RT: 2.8686
ExactMass: 126.042927438
Spectrum_type: 2
charge: 1
Formula: C5H6N2O2
SMILES: CC1=CNC(=O)NC1=O
Method: HCD
Collision_energy: [28.333334]
Isolation_window: 4.0
Ion_mode: P
Num Peaks: 18
56.0498	1.5
70.0290	0.9
82.0289	2.1
82.0653	1.7
84.0446	11.6
100.0758	1.2
109.0397	8.3
110.0237	31.5
110.0601	1.6
111.0270	1.8
113.0346	1.1
125.0709	1.1
126.0549	1.3
126.0913	0.9
127.0501	100.0
128.0470	0.9
128.0534	5.7
128.0705	2.2

Name: Thymogen
PrecursorMZ: 316.12889
RT: 4.7466
ExactMass: 333.13247072
Spectrum_type: 2
charge: 1
Formula: C16H19N3O5
SMILES: C1=CC=C2C(=C1)C(=CN2)C[C@@H](C(=O)O)NC(=O)[C@H](CCC(=O)O)N
Method: HCD
Collision_energy: [28.333334]
Isolation_window: 4.0
Ion_mode: P
Num Peaks: 78
60.0448	24.2
70.0655	14.4
72.0811	14.8
84.0446	17.7
86.0966	44.9
102.0551	6.7
107.0492	9.7
114.1277	7.6
116.0706	10.3
118.0862	4.7
120.0807	4.7
124.0757	4.2
125.0233	13.8
125.0709	4.9
128.1432	8.4
130.0650	38.8
132.0807	22.8
132.1017	7.4
136.0755	21.3
139.0501	5.8
144.0806	17.8
146.0598	9.4
151.0499	5.8
153.0654	8.1
154.0497	4.7
157.1334	27.2
158.0811	6.7
159.0915	11.1
165.0545	6.8
169.0757	9.1
173.1281	5.5
182.0809	17.0
185.1282	13.3
186.0758	7.4
187.0864	8.5
188.0703	64.4
189.0738	7.0
200.0916	3.8
201.1231	5.0
205.0968	19.1
225.1017	15.4
229.1332	23.0
235.0861	5.9
243.1122	5.2
253.0966	100.0
254.1008	14.8
255.1126	7.8
257.1278	13.7
269.1284	4.5
270.1234	27.0
271.1073	9.5
271.1268	4.4
271.1436	11.1
280.1082	5.4
280.2634	5.3
287.1385	5.3
289.1540	20.9
296.1851	5.4
298.1063	5.1
298.1192	11.0
299.0767	5.1
299.1021	17.7
299.1384	13.5
314.3414	7.7
315.0857	5.4
315.1336	27.2
315.1545	7.0
316.0809	4.9
316.1155	7.9
316.1299	23.3
316.1655	6.2
316.2837	11.3
317.1130	16.8
317.1316	4.7
317.1486	24.3
318.0949	8.5
318.1456	5.3
318.2996	10.6

Name: Thymoquinone
PrecursorMZ: 329.17452
RT: 2.9406
ExactMass: 164.083729621
Spectrum_type: 2
charge: 1
Formula: C10H12O2
SMILES: CC1=CC(=O)C(=CC1=O)C(C)C
Method: HCD
Collision_energy: [28.333334]
Isolation_window: 4.0
Ion_mode: P
Num Peaks: 45
89.0600	1.7
91.0544	3.1
93.0701	2.6
95.0494	2.6
105.0700	11.8
107.0856	1.9
114.0915	2.0
119.0855	1.9
131.0856	3.2
137.0597	3.3
143.0855	2.5
145.1012	2.9
147.0440	18.3
147.0802	1.7
155.0855	2.4
157.1011	1.9
161.0598	6.0
187.0753	1.8
195.0803	1.8
211.1118	6.0
213.0907	2.3
213.1270	2.1
223.1116	3.4
233.0958	2.8
235.1117	3.3
237.1273	12.7
238.1307	2.2
241.1223	3.5
249.1268	2.1
251.1066	2.4
251.1430	5.1
253.1221	7.8
255.1379	8.5
265.1220	6.4
265.1585	3.0
269.1532	4.7
275.1427	3.4
293.1534	15.8
294.1571	3.9
311.1639	21.1
312.1671	4.1
329.1744	100.0
330.1779	19.8
330.2058	3.3
331.1810	2.6

Name: Tiapride Hydrochloride
PrecursorMZ: 329.15632
RT: 6.8521
ExactMass: 364.1223562
Spectrum_type: 2
charge: 1
Formula: C15H25ClN2O4S
SMILES: CCN(CC)CCNC(=O)C1=C(C=CC(=C1)S(=O)(=O)C)OC.Cl
Method: HCD
Collision_energy: [28.333334]
Isolation_window: 4.0
Ion_mode: P
Num Peaks: 36
70.0656	11.9
84.0809	7.9
89.0600	11.1
102.0917	17.7
122.0812	13.0
132.0445	34.1
133.0858	7.3
153.0659	23.7
182.0812	34.6
195.0757	28.2
210.0800	7.6
270.1083	22.1
297.1236	18.9
312.1274	8.6
328.1508	7.6
329.1563	84.6
330.1570	37.8
330.3358	17.4
331.1538	21.1
332.1130	12.1
332.1759	11.9
333.1722	13.9
334.1288	10.1
334.1980	23.3
336.1631	9.0
338.1818	23.3
340.1412	40.4
341.1375	11.3
342.1545	83.7
343.1571	28.7
344.1363	9.4
344.1712	100.0
345.1716	33.6
346.1546	8.9
346.3312	15.7
348.1660	43.8

Name: Tiformin
PrecursorMZ: 145.10833
RT: 13.59245
ExactMass: 144.10111102
Spectrum_type: 2
charge: 1
Formula: C5H12N4O
SMILES: C(CC(=O)N)CN=C(N)N
Method: HCD
Collision_energy: [28.333334]
Isolation_window: 4.0
Ion_mode: P
Num Peaks: 8
60.0560	17.1
86.0603	100.0
86.0966	19.8
100.0758	18.5
121.9661	37.2
128.0817	25.8
144.1018	74.9
145.1088	21.4

Name: Tilarginine
PrecursorMZ: 189.13436
RT: 13.097
ExactMass: 188.12732577
Spectrum_type: 2
charge: 1
Formula: C7H16N4O2
SMILES: CN=C(N)NCCC[C@@H](C(=O)O)N
Method: HCD
Collision_energy: [28.333334]
Isolation_window: 4.0
Ion_mode: P
Num Peaks: 38
58.0655	3.2
60.0561	59.1
69.0339	6.8
70.0655	10.3
72.0812	11.0
84.0811	72.4
85.0843	3.8
86.0967	23.9
87.0444	3.8
88.0758	5.5
89.0600	14.7
98.0603	3.1
100.0760	3.3
102.0916	4.5
106.0864	20.0
112.0870	6.5
114.1028	9.2
116.0707	12.0
118.0864	4.0
129.1023	9.6
130.0864	100.0
130.0971	9.4
131.0900	6.4
133.0863	2.9
135.0440	5.2
153.1023	6.4
158.0924	6.3
165.0214	18.5
171.1238	3.9
172.1080	4.4
188.1392	2.3
189.1345	52.7
190.1076	4.5
190.1386	3.8
194.1173	14.8
196.0631	2.5
202.1795	11.8
203.1508	5.3

Name: Timosaponin A1
PrecursorMZ: 579.38935
RT: 6.7405
ExactMass: 578.38186868
Spectrum_type: 2
charge: 1
Formula: C33H54O8
SMILES: C[C@H]1CC[C@@]2([C@H]([C@H]3[C@@H](O2)C[C@@H]4[C@@]3(CC[C@H]5[C@H]4CC[C@H]6[C@@]5(CC[C@@H](C6)O[C@H]7[C@@H]([C@H]([C@H]([C@H](O7)CO)O)O)O)C)C)C)OC1
Method: HCD
Collision_energy: [28.333334]
Isolation_window: 4.0
Ion_mode: P
Num Peaks: 47
61.0289	1.7
64.3769	2.1
69.0339	3.4
69.0703	15.0
72.0812	1.6
73.0653	2.4
81.0339	2.2
81.0702	1.7
85.0288	13.6
87.0443	1.4
95.0858	2.0
97.0286	4.6
97.0651	5.2
99.0444	1.7
107.0857	2.8
109.0286	1.7
109.0650	6.7
109.1014	2.5
115.0756	16.6
119.0855	1.7
121.1013	4.0
127.0391	3.9
133.1012	2.5
135.1169	3.6
145.0498	2.7
145.1013	3.2
147.1169	9.3
149.1326	2.0
159.1170	4.6
161.1326	39.6
162.1359	4.6
163.1119	2.6
167.1068	5.9
173.1327	2.5
199.1482	1.5
213.1637	1.4
255.2107	36.5
256.2140	5.9
273.2212	100.0
274.2246	18.3
285.2583	1.6
399.3256	1.4
417.3363	34.6
418.3397	9.4
579.3893	37.0
580.3923	13.2
581.3956	2.4

Name: Tocris-0609
PrecursorMZ: 400.34197
RT: 4.7253
ExactMass: 400.34268395
Spectrum_type: 2
charge: 1
Formula: C23H46NO4+
SMILES: CCCCCCCCCCCCCCCC(=O)O[C@H](CC(=O)O)C[N+](C)(C)C
Method: HCD
Collision_energy: [28.333334]
Isolation_window: 4.0
Ion_mode: P
Num Peaks: 71
57.0340	0.5
57.0703	1.1
60.0813	11.7
61.0847	0.3
67.0547	0.5
69.0703	0.6
71.0859	1.3
81.0703	1.3
83.0859	1.1
85.0034	0.4
85.0219	0.3
85.0234	0.7
85.0246	0.5
85.0287	100.0
85.0330	0.6
85.0340	0.7
85.1015	0.9
86.0321	4.0
87.0443	0.3
89.0600	1.4
93.0702	0.5
95.0858	1.7
97.1014	0.5
101.0599	0.4
105.0700	0.3
107.0857	0.4
109.1014	1.1
119.0857	0.3
121.1013	0.5
123.1170	0.8
129.0911	0.3
133.0860	0.6
133.1013	0.4
135.1169	0.5
137.1326	0.3
144.1019	2.9
145.1010	0.4
147.1169	0.4
159.1171	0.5
171.1168	0.3
173.1325	0.4
185.1325	0.3
199.1480	0.3
213.1638	0.4
215.1790	0.3
227.1792	0.3
239.1793	0.3
239.2369	1.6
251.1790	0.3
253.1951	0.8
255.2107	0.6
257.2477	0.4
281.2263	0.3
296.2946	4.0
297.2983	0.8
341.2683	3.3
342.2722	0.6
365.2841	0.5
381.2788	0.3
383.2944	1.0
384.2349	0.3
399.1547	0.5
399.2890	0.4
400.2869	0.4
400.3419	43.0
400.3852	0.3
400.3962	0.3
401.3058	2.4
401.3452	9.7
402.3084	0.4
402.3492	1.0

Name: Tolbutamide
PrecursorMZ: 293.09517
RT: 6.3436
ExactMass: 270.10381361
Spectrum_type: 2
charge: 1
Formula: C12H18N2O3S
SMILES: CCCCNC(=O)NS(=O)(=O)C1=CC=C(C=C1)C
Method: HCD
Collision_energy: [28.333334]
Isolation_window: 4.0
Ion_mode: P
Num Peaks: 48
70.0655	2.2
81.0338	2.3
84.0811	2.0
95.0604	1.7
98.0966	2.8
100.0759	1.3
101.0599	1.8
110.0714	1.6
112.0758	1.3
120.0808	1.3
128.0706	1.3
134.0812	1.5
138.0549	1.8
139.0867	1.3
167.0816	1.3
176.1069	1.8
189.1025	2.4
221.0744	5.3
234.0872	2.8
249.1057	8.3
260.1388	1.7
273.1229	1.9
274.1305	1.4
275.1400	1.7
291.1325	7.0
291.1687	3.3
291.2431	1.3
292.1179	10.1
292.1398	12.8
292.1538	2.3
292.1665	10.5
293.0953	100.0
293.1117	5.2
293.1214	3.6
293.1485	12.2
293.1674	1.3
293.1858	3.6
294.0979	14.9
294.1331	9.6
294.1456	3.0
294.1694	8.9
294.1817	6.7
294.2043	1.8
295.0915	2.6
295.1258	4.9
295.1414	1.8
295.1634	7.5
295.2002	5.1

Name: Tolimidone
PrecursorMZ: 203.08131
RT: 3.8883
ExactMass: 202.074227566
Spectrum_type: 2
charge: 1
Formula: C11H10N2O2
SMILES: CC1=CC(=CC=C1)OC2=CNC(=O)N=C2
Method: HCD
Collision_energy: [28.333334]
Isolation_window: 4.0
Ion_mode: P
Num Peaks: 15
72.0811	4.2
86.0966	15.9
130.0649	3.7
132.1017	7.6
148.0754	9.0
158.0598	6.3
160.0754	7.0
175.0863	28.8
202.0857	2.5
202.0971	2.4
202.1067	3.2
203.0811	100.0
203.1178	3.2
204.0848	10.0
204.1013	3.7

Name: Tomaymycin-(DH)2-PPL hemiaminal
PrecursorMZ: 303.13355
RT: 4.5511
ExactMass: 302.12665706
Spectrum_type: 2
charge: 1
Formula: C16H18N2O4
SMILES: C/C=C/C1=CN2[C@@H](C1)C(NC3=CC(=C(C=C3C2=O)OC)O)O
Method: HCD
Collision_energy: [28.333334]
Isolation_window: 4.0
Ion_mode: P
Num Peaks: 27
69.7181	6.2
100.0758	5.6
157.0758	11.0
158.0598	19.8
162.0550	6.2
175.0626	8.7
175.0864	22.3
176.0704	100.0
177.0735	9.4
180.1015	5.4
201.0543	6.5
214.0858	10.4
228.1013	13.6
256.0962	67.3
257.0997	11.0
257.1280	15.7
258.1122	17.7
259.1436	12.2
284.0908	8.2
285.1229	24.3
286.1280	5.9
302.1016	52.2
303.1042	7.7
303.1332	45.3
304.1173	22.6
304.1369	9.7
305.1487	18.6

Name: Tomaymycin-DH-PPL hemiaminal
PrecursorMZ: 305.14939
RT: 0.719
ExactMass: 304.14230712
Spectrum_type: 2
charge: 1
Formula: C16H20N2O4
SMILES: CC/C=C/1\C[C@H]2C(NC3=CC(=C(C=C3C(=O)N2C1)OC)O)O
Method: HCD
Collision_energy: [28.333334]
Isolation_window: 4.0
Ion_mode: P
Num Peaks: 417
55.0547	3.6
56.0500	1.7
58.0657	1.9
67.0547	3.9
69.0340	3.7
69.0704	8.2
70.0656	27.6
71.0496	5.2
72.0812	8.8
74.0241	1.5
74.0606	3.1
79.0546	2.6
80.0500	2.8
81.0340	25.7
81.0703	5.5
82.0372	1.6
82.0656	3.1
83.0496	8.0
83.0860	20.4
84.0448	4.1
84.0812	8.3
85.0289	2.2
85.0651	2.8
86.0605	3.3
86.0968	15.1
87.0445	4.2
90.0553	1.4
91.0545	5.9
93.0702	4.1
94.0655	1.8
95.0495	7.3
95.0605	2.1
95.0859	6.4
96.0448	26.6
96.0811	2.3
97.0289	1.7
97.0652	8.8
98.0604	7.4
98.0968	11.7
99.0443	3.4
99.0807	2.1
100.0760	72.7
101.0601	13.9
101.0792	3.9
102.0554	1.7
103.0392	2.3
105.0700	3.7
106.0655	1.4
107.0496	4.5
107.0858	3.8
108.0447	4.1
108.0811	20.5
109.0650	4.2
109.0768	2.0
109.1014	3.2
110.0604	9.7
110.0716	1.8
111.0444	11.6
111.0808	1.7
112.0760	10.1
112.1124	1.7
113.0601	2.2
114.0553	12.3
114.0665	4.6
114.0917	3.8
116.0709	46.0
117.0700	1.6
117.0748	1.8
118.0865	5.0
119.0857	3.3
120.0810	7.3
121.0288	2.1
121.0651	4.6
121.0762	1.5
121.1016	3.2
122.0605	11.6
122.0709	1.8
122.0967	1.9
123.0443	72.1
123.0807	1.9
124.0395	1.4
124.0477	4.8
124.0759	33.1
125.0234	4.8
125.0600	2.9
125.0795	1.8
125.0961	1.4
126.0553	6.5
126.0915	67.2
127.0391	2.9
127.0755	1.6
127.0950	4.3
128.0710	3.7
128.1074	1.9
130.0505	2.5
130.0654	4.2
130.0864	7.3
131.0498	1.7
131.0857	2.3
132.0808	1.8
132.1022	3.4
133.0650	3.3
133.1011	2.5
134.0602	4.5
134.0963	2.6
135.0442	1.4
135.0807	4.3
135.1169	1.5
136.0759	22.1
137.0602	8.3
137.0964	5.8
138.0552	6.6
138.0916	33.3
139.0395	2.6
139.0755	1.8
139.0957	2.1
140.0710	7.1
140.1071	3.6
141.0547	1.9
142.0504	1.7
142.0867	3.1
143.1179	1.9
144.0659	1.5
144.0810	4.0
144.1021	2.4
145.0652	3.3
145.1011	2.2
146.0273	1.7
146.0598	3.3
146.0961	1.5
147.0443	4.2
147.0805	2.7
147.1168	1.4
148.0758	31.5
149.0602	8.6
149.0800	2.3
149.0963	2.1
150.0552	13.1
150.0915	34.6
151.0390	1.4
151.0768	2.2
151.0964	2.7
152.0708	15.8
152.1070	2.7
153.0556	2.3
154.0503	1.6
154.0865	3.4
154.1228	14.5
155.1265	1.6
156.0655	1.7
156.0795	2.6
156.1019	2.2
157.1009	1.4
157.1338	2.6
158.0814	1.5
159.0809	1.4
159.0919	4.8
159.1132	2.8
160.0758	5.9
160.0968	1.6
161.0599	5.1
161.0962	1.5
161.1076	1.9
162.0548	5.7
162.0913	4.0
163.0394	2.0
163.0755	6.0
163.0871	2.4
164.0708	100.0
164.1067	3.9
165.0552	3.5
165.0742	8.4
165.0911	2.7
165.1029	1.4
166.0521	2.6
166.0865	46.9
166.1226	2.9
167.0709	1.5
167.0895	3.8
168.0658	5.0
168.1021	46.5
169.1069	4.1
170.0816	5.9
170.1178	1.8
171.0796	1.8
171.1162	1.6
172.0975	1.4
172.1332	2.1
173.0593	2.5
173.0943	3.0
173.1311	1.9
174.0902	2.1
175.0736	2.4
175.0886	2.0
176.0705	5.7
176.1074	1.9
177.0548	3.0
177.1032	1.5
178.0864	29.8
179.0701	1.5
179.0825	1.9
179.0893	1.4
179.1184	1.8
180.0656	2.2
180.1012	12.2
180.1146	1.9
181.0972	3.6
182.0680	1.4
182.0813	78.3
182.1156	3.8
183.0846	6.4
184.0967	3.9
185.0948	1.7
185.1304	1.9
186.0764	1.4
186.0917	1.5
187.1092	2.1
187.1458	1.9
188.0705	8.1
189.0543	4.4
189.1255	1.4
190.0505	1.6
190.0856	4.5
191.0338	1.4
191.0698	19.7
192.0673	4.8
192.1014	3.9
193.0855	1.6
193.1003	2.2
194.0812	21.7
194.1166	2.4
195.0648	1.5
195.0893	3.0
195.1114	2.4
196.0966	22.2
197.0974	1.7
197.1293	2.0
198.0763	1.8
198.1128	5.1
199.1091	2.9
200.0711	3.2
200.0915	1.6
200.1286	4.3
201.0914	1.6
201.1249	2.0
202.0860	3.0
203.0694	2.5
204.0669	1.9
204.1022	3.4
205.0977	3.4
206.0802	4.5
207.1133	9.0
208.0972	4.0
209.1296	1.8
210.0736	2.0
210.1132	2.1
211.1087	1.5
212.1283	4.1
213.1240	2.0
214.0868	2.4
215.1416	1.7
216.0665	1.5
216.1025	3.6
217.0835	2.1
218.0810	4.7
220.0955	2.0
221.1312	2.3
222.1138	1.7
223.1081	1.6
225.1241	1.6
228.1039	2.1
229.1335	2.5
230.0811	2.5
230.1179	3.2
231.1491	1.4
232.0959	2.4
233.1668	2.9
234.1106	2.1
240.1024	1.7
242.1189	1.9
243.0651	1.7
243.1127	2.0
243.1472	3.1
244.0976	4.4
244.1342	2.3
245.1286	3.2
246.0767	1.5
246.1126	3.1
248.0922	1.4
249.1260	2.2
250.1058	2.1
254.0813	1.5
255.1059	1.5
256.0978	1.9
257.1292	4.7
258.0780	1.6
258.1132	5.6
259.1049	1.9
259.1430	2.7
260.0895	2.4
260.1276	3.4
261.1267	2.4
261.1601	4.8
262.1095	3.6
263.0815	16.3
263.1068	1.4
264.0846	2.9
264.1226	3.4
266.1405	1.4
270.1116	2.0
272.0933	1.5
272.1294	4.2
273.1244	2.7
273.1598	11.5
273.1850	1.4
274.1081	3.6
275.0930	1.7
275.1399	3.0
275.1755	14.5
276.1252	3.5
276.1601	3.5
277.1204	2.3
277.1576	1.5
278.1402	1.7
279.1336	1.4
281.0917	8.7
285.1235	4.3
286.0722	1.6
286.1090	4.5
287.1007	1.7
287.1390	8.7
288.0884	1.4
288.1242	5.3
289.1197	3.2
289.1543	13.9
290.1032	3.7
290.1403	5.2
291.1357	3.2
291.1698	23.3
292.1187	3.1
292.1750	3.9
293.1511	2.1
293.1859	5.5
294.1346	3.1
295.1658	3.1
295.2017	2.2
297.0868	3.1
298.1047	2.3
299.1031	7.0
299.1394	2.2
300.1261	2.3
301.1187	3.7
301.1547	12.8
302.1027	2.7
302.1583	1.5
303.1351	9.7
303.1703	21.3
304.1198	21.4
304.1727	4.4
305.1156	8.1
305.1503	15.2
305.1876	3.0
306.0996	4.1
306.1354	17.3
306.1797	3.8
306.2412	5.0
307.1325	10.6
307.1654	74.4
307.1952	3.6
308.1144	6.3
308.1526	10.7
308.1680	8.2
308.2244	1.4
309.0865	20.6
309.1487	8.9
309.1807	27.1
310.0909	3.6
310.1323	7.8
310.1731	4.8
311.1055	1.7
311.1350	1.8
311.1632	8.5
311.1965	2.8
312.1161	1.9
312.1494	5.6
312.1922	4.9
313.1167	5.8
313.1807	6.6
313.2121	30.1
314.1076	5.0
314.1653	3.3
314.2123	5.8
315.0985	2.9
315.1342	6.6
315.1617	1.7
315.1949	1.9
316.1196	11.0
316.1566	2.5
317.1138	9.6
317.1507	9.2
318.0980	2.0
318.1372	11.9
319.1298	10.3
319.1654	17.8
320.1139	7.9
320.1539	7.2
320.2949	1.6
321.1465	10.0
321.1809	31.9
321.2133	1.7
322.1318	9.7
322.1752	3.9
323.1278	2.7
323.1624	12.2
323.1994	7.1
324.1459	9.5
324.1884	1.4

Name: Trachelanthine
PrecursorMZ: 302.19584
RT: 7.4842
ExactMass: 301.18892296
Spectrum_type: 2
charge: 1
Formula: C15H27NO5
SMILES: CC(C)[C@@](C(C)O)(C(=O)OC[C@H]1CC[N+]2([C@H]1CCC2)[O-])O
Method: HCD
Collision_energy: [28.333334]
Isolation_window: 4.0
Ion_mode: P
Num Peaks: 32
55.0547	4.4
72.0811	4.9
83.0493	4.9
84.0810	5.4
86.0964	4.5
100.0757	12.1
101.0598	14.3
112.0757	39.0
126.0911	3.9
140.0704	28.9
143.1177	5.4
166.1228	4.4
173.0376	6.6
184.1329	9.7
188.0915	5.5
238.1793	5.7
266.1745	21.7
286.1273	5.4
301.0963	14.3
301.1203	9.6
301.1388	12.3
301.1747	10.5
302.1018	11.5
302.1365	11.5
302.1955	100.0
303.1026	6.0
303.1339	14.4
303.1545	17.7
303.1988	15.8
304.1165	9.9
304.1379	11.3
304.1532	4.2

Name: Trametenolic Acid
PrecursorMZ: 457.36678
RT: 0.9432
ExactMass: 456.36034539
Spectrum_type: 2
charge: 1
Formula: C30H48O3
SMILES: CC(=CCC[C@H]([C@H]1CC[C@@]2([C@@]1(CCC3=C2CC[C@@H]4[C@@]3(CC[C@@H](C4(C)C)O)C)C)C)C(=O)O)C
Method: HCD
Collision_energy: [28.333334]
Isolation_window: 4.0
Ion_mode: P
Num Peaks: 19
69.2681	16.4
81.0700	16.3
95.0854	27.6
107.0854	14.2
109.1009	21.5
119.0852	10.1
121.1009	18.2
123.1166	10.1
133.1007	13.0
135.1165	15.1
147.1163	9.9
161.1320	10.3
165.0904	14.3
175.1475	24.5
189.1632	9.9
191.1786	11.8
221.1529	26.7
457.3656	100.0
458.3690	26.3

Name: Tramiprosate
PrecursorMZ: 140.0375
RT: 7.7821
ExactMass: 139.03031432
Spectrum_type: 2
charge: 1
Formula: C3H9NO3S
SMILES: C(CN)CS(=O)(=O)O
Method: HCD
Collision_energy: [28.333334]
Isolation_window: 4.0
Ion_mode: P
Num Peaks: 14
58.0655	23.4
59.0496	4.4
74.0968	3.5
81.0337	5.4
109.0285	7.3
122.0270	11.5
139.0500	3.9
139.0864	3.3
140.0374	100.0
140.0677	7.1
141.0410	4.4
141.0545	4.6
141.0656	3.4
141.1023	2.7

Name: Traumatic Acid
PrecursorMZ: 229.14297
RT: 1.3711
ExactMass: 228.13615911
Spectrum_type: 2
charge: 1
Formula: C12H20O4
SMILES: C(CCCCC(=O)O)CCC/C=C/C(=O)O
Method: HCD
Collision_energy: [28.333334]
Isolation_window: 4.0
Ion_mode: P
Num Peaks: 28
55.0545	1.5
57.0338	9.8
59.0494	4.1
67.0545	55.3
68.0578	2.8
69.0700	1.5
71.0493	3.4
81.0700	6.4
83.0856	6.5
85.0649	2.4
91.0542	3.4
93.0698	3.0
95.0854	7.7
97.1010	1.2
99.0439	0.9
103.0389	3.1
109.1010	100.0
110.1043	8.0
111.0803	4.2
119.0853	6.8
137.0957	5.2
155.1062	11.9
173.1166	25.0
174.1199	2.2
175.1475	2.1
229.1424	38.5
230.1457	5.5
230.1537	3.5

Name: Traversianal
PrecursorMZ: 317.2103
RT: 0.823
ExactMass: 316.20384475
Spectrum_type: 2
charge: 1
Formula: C20H28O3
SMILES: C[C@@H]1CC(=O)[C@]/2([C@@H]1C[C@]3(CC[C@@H]([C@@H]3C/C=C2/C=O)C(=C)C)C)O
Method: HCD
Collision_energy: [28.333334]
Isolation_window: 4.0
Ion_mode: P
Num Peaks: 9
121.1009	18.7
131.0852	40.6
145.1009	45.9
149.0957	17.0
253.1943	55.2
299.1996	80.1
300.2029	18.3
317.2101	100.0
318.2137	21.8

Name: Triandrin
PrecursorMZ: 335.10979
RT: 5.5164
ExactMass: 312.12090297
Spectrum_type: 2
charge: 1
Formula: C15H20O7
SMILES: C1=CC(=CC=C1C=CCO[C@H]2[C@@H]([C@H]([C@@H]([C@H](O2)CO)O)O)O)O
Method: HCD
Collision_energy: [28.333334]
Isolation_window: 4.0
Ion_mode: P
Num Peaks: 11
166.0861	7.6
205.0493	10.4
235.0596	5.7
292.1537	13.8
307.1276	6.6
334.0913	7.7
334.1270	15.0
335.1092	100.0
335.1581	7.4
336.1122	11.9
336.1439	8.1

Name: Tributyl Citrate
PrecursorMZ: 361.2218
RT: 1.015
ExactMass: 360.21480336
Spectrum_type: 2
charge: 1
Formula: C18H32O7
SMILES: CCCCOC(=O)CC(CC(=O)OCCCC)(C(=O)OCCCC)O
Method: HCD
Collision_energy: [28.333334]
Isolation_window: 4.0
Ion_mode: P
Num Peaks: 12
57.0703	3.9
97.4003	4.3
129.0182	100.0
130.0215	5.1
139.0026	4.3
157.0132	8.9
185.0807	58.9
186.0839	5.1
259.1537	17.5
360.2255	3.1
362.2410	80.6
363.2449	10.1

Name: Tributyl Phosphate
PrecursorMZ: 267.17173
RT: 1.03656
ExactMass: 266.16469634
Spectrum_type: 2
charge: 1
Formula: C12H27O4P
SMILES: CCCCOP(=O)(OCCCC)OCCCC
Method: HCD
Collision_energy: [28.333334]
Isolation_window: 4.0
Ion_mode: P
Num Peaks: 32
57.0703	0.8
69.0703	0.2
81.0702	0.2
87.0443	0.4
95.0858	0.2
97.3996	0.2
98.9525	0.3
98.9777	0.7
98.9844	100.0
98.9909	0.7
98.9931	0.2
99.0164	0.4
100.9886	0.4
109.1013	0.4
116.9948	1.5
123.1168	0.2
140.0107	0.4
155.0468	10.7
156.0502	0.5
196.0604	0.3
209.1171	0.2
210.0759	0.5
211.1093	3.9
212.1128	0.3
224.0913	0.2
265.1316	0.1
266.1348	0.5
266.1374	0.5
267.1289	0.2
267.1718	0.7
268.9779	0.3
285.0096	0.4

Name: Trichodesmine
PrecursorMZ: 354.19091
RT: 0.68
ExactMass: 353.18383758
Spectrum_type: 2
charge: 1
Formula: C18H27NO6
SMILES: CC(C)[C@H]1C(=O)O[C@@H]2CCN3[C@@H]2C(=CC3)COC(=O)[C@]([C@]1(C)O)(C)O
Method: HCD
Collision_energy: [28.333334]
Isolation_window: 4.0
Ion_mode: P
Num Peaks: 280
59.0609	2.5
67.0547	4.7
69.0340	2.1
69.0703	10.0
70.0656	16.6
71.0496	3.2
72.0812	24.5
79.0546	4.5
81.0338	11.2
81.0702	13.6
82.0656	2.1
83.0496	3.6
83.0859	3.9
84.0448	5.3
84.0812	15.6
85.0289	2.7
85.0652	3.8
86.0603	2.0
86.0968	100.0
87.0443	5.1
87.1000	6.2
88.0396	3.8
89.0601	4.6
91.0545	5.2
93.0702	7.5
95.0494	4.4
95.0858	10.0
96.0448	2.4
96.0811	3.0
97.0650	4.7
98.0967	8.4
99.0444	3.8
99.0806	2.4
100.0760	2.3
101.0601	2.1
102.0551	4.4
103.0392	4.9
105.0701	6.6
107.0493	4.2
107.0857	7.9
108.0448	2.4
109.0285	2.3
109.0647	3.7
109.1013	5.7
110.0606	2.9
111.0445	3.7
111.0805	2.3
112.0759	2.2
112.1122	2.4
113.0601	2.1
114.0551	5.1
116.0708	20.4
117.0697	6.4
118.0865	8.0
119.0857	7.0
120.0810	11.5
121.0651	3.8
121.1013	6.9
122.0603	2.1
123.0447	2.3
123.0807	4.4
124.0759	8.3
125.0234	3.9
125.0599	2.9
125.0965	2.8
126.0915	6.9
126.1283	1.9
128.0709	3.2
128.1073	4.6
129.0668	2.3
130.0501	3.6
130.0864	6.5
131.0856	7.2
132.0806	2.3
132.1020	23.0
133.0864	2.7
133.1010	7.6
134.0603	2.1
135.0806	7.4
135.1169	4.8
136.0756	4.7
137.0601	3.2
137.0959	3.6
138.0556	2.3
138.0912	4.4
139.0758	2.0
140.0344	2.4
140.0709	2.1
140.1436	3.1
141.0667	1.9
141.0912	2.3
141.1025	2.8
142.0864	3.6
143.0860	3.3
144.1019	8.2
145.0645	2.1
145.1013	5.7
147.0794	3.3
147.1170	5.0
148.0758	3.5
149.0598	2.4
149.0961	4.5
149.1325	2.6
150.0915	3.8
151.0754	3.8
151.1120	2.2
152.0707	5.0
152.1063	2.3
153.0917	2.6
154.0863	5.2
155.1180	2.1
156.1020	7.2
157.1015	4.9
158.1173	5.1
159.0804	4.1
159.0922	2.1
159.1166	5.7
160.0971	2.3
161.0963	5.4
161.1325	3.5
162.0907	2.5
163.0754	8.7
164.0701	6.9
164.1067	3.5
165.0907	2.6
166.0507	2.3
166.0863	9.5
168.1018	3.0
169.1005	2.3
170.1181	3.2
171.1163	4.3
172.0971	11.0
173.0959	2.6
173.1320	3.4
174.1126	5.6
175.1095	2.6
176.0708	2.5
176.1055	2.7
177.0547	2.0
177.0906	5.0
178.0854	5.6
180.0656	3.3
180.1015	4.1
181.0859	4.9
182.0809	4.8
182.1174	9.2
183.1141	3.9
184.0966	2.5
185.1318	2.9
187.0748	3.5
187.1114	3.1
187.1484	2.0
188.0701	4.2
190.0859	3.2
192.0648	3.0
192.1018	4.5
193.1342	2.0
194.0810	10.3
194.1179	5.6
196.0965	5.1
197.1292	7.9
198.1125	12.3
199.1090	3.1
199.1488	2.6
199.1803	5.3
200.0911	3.4
200.1255	4.4
201.1235	28.0
202.1072	2.7
202.1262	3.3
204.1025	3.5
204.1231	5.6
205.0851	18.5
206.0864	2.1
207.1139	2.5
208.0965	6.5
209.1315	2.6
210.1123	5.9
211.1102	2.5
211.1471	4.0
212.0918	4.1
212.1065	3.3
212.1290	3.7
213.0898	2.0
213.1239	4.2
213.1624	2.5
214.1074	3.2
214.1438	2.1
215.1392	4.1
216.1227	10.2
217.1252	2.1
218.0812	2.1
218.1017	19.8
218.1387	2.6
220.0962	5.0
221.1296	2.2
222.0764	4.4
222.1117	9.1
223.1120	2.2
223.1464	1.9
224.0909	3.1
224.1265	2.9
225.1262	2.7
225.1619	2.5
227.1412	2.6
227.1759	5.7
229.1151	10.8
229.1356	4.6
229.1561	2.0
230.1402	2.6
232.0968	3.1
234.1125	2.7
235.1097	2.0
236.0908	3.2
237.0894	2.9
240.0858	6.0
240.1233	2.2
241.1169	2.5
241.1559	2.3
243.1723	1.9
250.1059	2.4
255.1712	3.4
257.1285	4.2
271.1440	8.6
273.1232	4.1
273.1861	3.0
289.1541	5.5
289.1820	2.5
290.1755	11.0
294.0795	3.8
297.1224	2.1
299.1372	2.5
301.1184	20.0
301.1536	4.6
302.1239	3.9
307.1639	3.5
308.1864	13.4
309.1783	5.5
310.1166	2.0
311.1662	3.1
315.1311	2.5
319.1285	3.1
319.1658	2.0
325.1738	2.1
336.1815	7.1
337.1780	2.5
343.1288	14.6
345.1377	2.4
353.1745	8.2
353.2470	9.1
354.1956	3.4
355.1912	8.4
355.2622	12.4
356.1202	2.0
356.2646	2.8
357.2020	6.2
357.2750	2.5
358.2054	3.3
359.1633	4.6
359.2241	4.1
360.1484	3.9
360.2194	3.6
361.1378	19.5
361.1770	2.8
362.1719	2.5
363.1799	5.7
363.2138	4.2
364.1837	6.2
365.1323	2.9
365.1723	6.3
366.1634	2.2
366.2001	2.2
367.1480	2.3
367.1877	8.4
368.1838	5.1
369.2010	5.1
370.2022	3.6
371.1596	2.3
372.1469	2.1
372.2180	7.6

Name: Tridesacetoxykhivorin
PrecursorMZ: 461.25289
RT: 1.6388
ExactMass: 460.24610348
Spectrum_type: 2
charge: 1
Formula: C26H36O7
SMILES: C[C@@]12CCC3[C@]4([C@H](C[C@H](C(C4C[C@H]([C@]3([C@@]15[C@H](O5)C(=O)O[C@H]2C6=COC=C6)C)O)(C)C)O)O)C
Method: HCD
Collision_energy: [28.333334]
Isolation_window: 4.0
Ion_mode: P
Num Peaks: 33
81.0338	58.4
95.0492	17.2
97.3996	16.0
123.0441	18.8
135.0804	16.0
139.9146	14.1
157.1012	21.6
171.1168	30.4
187.1477	17.8
213.1638	17.4
217.0856	16.6
217.1219	15.1
223.1475	17.2
225.1268	20.1
239.1430	15.2
243.1375	19.0
257.1533	34.1
273.1845	36.4
285.1484	22.1
303.1587	51.6
307.1680	13.9
337.2158	19.5
343.1895	17.0
349.1783	17.7
355.2264	100.0
356.2288	21.8
365.2107	23.8
367.1893	24.3
385.2007	20.3
425.2320	60.6
443.2423	20.0
461.2531	72.2
462.2566	17.6

Name: Triethanolamine
PrecursorMZ: 150.11242
RT: 6.521
ExactMass: 149.10519334
Spectrum_type: 2
charge: 1
Formula: C6H15NO3
SMILES: C(CO)N(CCO)CCO
Method: HCD
Collision_energy: [28.333334]
Isolation_window: 4.0
Ion_mode: P
Num Peaks: 15
69.7433	3.3
70.0654	27.6
88.0758	33.3
97.4566	2.7
106.0862	4.4
114.0913	12.7
132.1017	65.1
133.1051	5.1
149.0231	5.0
150.0548	6.2
150.1123	100.0
151.0864	26.7
151.1157	6.9
152.0565	10.2
152.0703	6.0

Name: Triethylene glycol monobutyl ether
PrecursorMZ: 207.15897
RT: 1.2246428571428571
ExactMass: 206.15180918
Spectrum_type: 2
charge: 1
Formula: C10H22O4
SMILES: CCCCOCCOCCOCCO
Method: HCD
Collision_energy: [28.333334]
Isolation_window: 4.0
Ion_mode: P
Num Peaks: 16
55.0547	6.7
57.0704	16.0
59.0495	1.4
73.0652	2.4
83.0859	5.7
89.0600	100.0
90.0633	4.8
101.0963	15.2
102.0997	1.1
107.0705	3.3
133.0860	20.3
134.0895	1.4
145.1223	6.6
151.0966	17.1
207.1591	11.9
208.1629	1.7

Name: Triethylene glycol monomethyl ether
PrecursorMZ: 165.11223
RT: 1.5641
ExactMass: 164.10485899
Spectrum_type: 2
charge: 1
Formula: C7H16O4
SMILES: COCCOCCOCCO
Method: HCD
Collision_energy: [28.333334]
Isolation_window: 4.0
Ion_mode: P
Num Peaks: 8
59.0496	54.1
87.0444	9.9
89.0600	100.0
103.0755	9.6
164.0703	10.2
164.1070	20.4
166.0853	11.5
167.1543	24.7

Name: Triglyme
PrecursorMZ: 179.12778
RT: 1.741
ExactMass: 178.12050905
Spectrum_type: 2
charge: 1
Formula: C8H18O4
SMILES: COCCOCCOCCOC
Method: HCD
Collision_energy: [28.333334]
Isolation_window: 4.0
Ion_mode: P
Num Peaks: 8
59.0496	100.0
103.0755	14.3
137.0709	10.4
150.0551	10.8
178.0860	18.2
178.1226	9.3
180.0656	13.5
180.1023	11.8

Name: Triisobutyl phosphate
PrecursorMZ: 267.17165
RT: 1.0395
ExactMass: 266.16469634
Spectrum_type: 2
charge: 1
Formula: C12H27O4P
SMILES: CC(C)COP(=O)(OCC(C)C)OCC(C)C
Method: HCD
Collision_energy: [28.333334]
Isolation_window: 4.0
Ion_mode: P
Num Peaks: 7
57.0702	2.9
87.0442	21.3
89.0598	7.3
98.9842	100.0
155.0466	11.0
211.1092	4.1
251.1848	5.0

Name: Triisopropanolamine
PrecursorMZ: 192.15942
RT: 3.1766
ExactMass: 191.15214353
Spectrum_type: 2
charge: 1
Formula: C9H21NO3
SMILES: CC(CN(CC(C)O)CC(C)O)O
Method: HCD
Collision_energy: [28.333334]
Isolation_window: 4.0
Ion_mode: P
Num Peaks: 18
59.0496	1.0
98.0967	5.6
116.1072	2.8
145.0397	30.9
146.0430	2.7
147.0553	3.8
156.1385	5.3
163.0503	4.4
174.1490	22.8
175.1524	1.6
191.0451	100.0
191.0701	1.1
192.0485	10.5
192.1019	1.7
192.1595	35.6
193.0971	1.1
193.1630	3.5
194.0811	1.1

Name: Trilinolein
PrecursorMZ: 896.768
RT: 0.9398
ExactMass: 878.73634084
Spectrum_type: 2
charge: 1
Formula: C57H98O6
SMILES: CCCCC/C=C\C/C=C\CCCCCCCC(=O)OCC(OC(=O)CCCCCCC/C=C\C/C=C\CCCCC)COC(=O)CCCCCCC/C=C\C/C=C\CCCCC
Method: HCD
Collision_energy: [28.333334]
Isolation_window: 4.0
Ion_mode: P
Num Peaks: 112
65.0389	1.8
66.6099	1.6
66.6119	4.9
66.7234	1.8
67.0546	59.4
68.0580	3.0
69.0702	19.0
71.0495	1.7
71.0859	3.3
79.0545	18.0
80.0578	1.4
81.0702	76.4
82.0735	4.0
83.0495	1.6
83.0858	17.1
85.0651	2.3
85.1015	1.8
91.0544	9.2
93.0701	24.3
94.0733	2.1
95.0857	69.9
96.0890	4.5
97.0649	3.8
97.1013	9.5
97.3997	2.1
99.0806	3.2
99.5248	1.9
99.6364	1.3
105.0700	9.2
107.0856	17.4
108.0890	1.4
109.1013	34.5
110.1046	2.6
111.0805	3.8
111.1169	3.2
113.0962	2.1
117.0699	1.6
119.0856	8.6
121.1012	19.3
122.1045	2.2
123.1168	19.7
124.1202	1.2
125.0961	2.2
131.0855	2.8
133.1011	12.7
134.1045	1.1
135.1167	13.3
136.1201	1.5
137.1324	8.5
145.1012	2.5
147.1167	8.5
149.1324	8.5
151.1481	3.4
153.1273	2.5
159.1168	2.6
161.1324	7.8
163.1480	7.1
165.1640	1.2
173.1323	1.9
175.1480	6.0
177.1637	2.2
179.1432	1.3
187.1479	1.4
189.1636	2.5
197.0806	3.9
203.1792	1.5
243.2104	2.0
245.2262	5.0
247.2418	1.1
261.2209	7.2
262.2241	2.2
263.2366	13.8
264.2400	1.9
265.2525	2.0
277.2158	1.4
319.2628	1.8
337.2733	5.5
339.2889	1.6
539.2412	3.7
540.2442	8.8
541.2477	7.2
595.4712	3.5
596.4747	4.1
597.4866	11.6
598.4908	7.6
599.5027	100.0
600.5062	36.1
601.5174	22.6
602.5217	4.0
603.5336	2.5
615.4948	2.0
861.7354	1.5
878.7291	3.1
879.7423	15.0
880.7455	8.1
881.7554	4.4
895.5743	6.4
895.6694	5.5
895.6982	4.1
895.7117	52.3
896.5659	1.4
896.6797	3.6
896.6983	2.0
896.7149	32.0
896.7709	7.9
897.6895	5.8
897.7268	38.7
897.7682	2.5
897.7770	4.0
898.6952	1.4
898.7270	12.1
898.7829	3.2

Name: Trilinolenin
PrecursorMZ: 890.72169
RT: 0.9377
ExactMass: 872.68939065
Spectrum_type: 2
charge: 1
Formula: C57H92O6
SMILES: CC/C=C\C/C=C\C/C=C\CCCCCCCC(=O)OCC(OC(=O)CCCCCCC/C=C\C/C=C\C/C=C\CC)COC(=O)CCCCCCC/C=C\C/C=C\C/C=C\CC
Method: HCD
Collision_energy: [28.333334]
Isolation_window: 4.0
Ion_mode: P
Num Peaks: 39
66.1639	4.6
67.0546	33.1
69.0702	10.1
79.0545	32.6
81.0701	35.7
83.0857	5.0
91.0544	13.0
93.0700	38.3
95.0856	36.3
97.4318	11.2
105.0699	14.2
107.0856	29.7
109.1013	16.9
117.0697	5.3
119.0856	13.3
121.1011	29.2
123.1168	4.8
131.0854	10.7
133.1010	13.7
135.1167	18.2
145.1010	10.4
147.1166	8.9
149.1322	9.6
159.1166	9.1
161.1323	8.8
163.1479	4.4
173.1325	6.2
243.2106	4.7
259.2054	5.8
261.2207	19.6
317.2475	4.2
595.4711	100.0
596.4742	31.5
597.4863	4.7
873.6928	9.8
874.6960	4.7
889.6658	36.8
890.6625	21.0
891.6716	23.1

Name: Trimethoprim
PrecursorMZ: 291.14486
RT: 6.3265
ExactMass: 290.13789045
Spectrum_type: 2
charge: 1
Formula: C14H18N4O3
SMILES: COC1=CC(=CC(=C1OC)OC)CC2=CN=C(N=C2N)N
Method: HCD
Collision_energy: [28.333334]
Isolation_window: 4.0
Ion_mode: P
Num Peaks: 67
60.0561	4.6
69.0339	4.9
70.0656	21.2
83.0495	5.9
84.0811	9.4
89.0600	6.7
96.0812	6.1
96.9955	5.0
98.0605	7.1
101.0600	7.3
102.0916	4.5
111.0443	27.4
112.0873	4.4
116.0708	12.7
122.0815	5.5
127.0980	17.4
132.0445	19.6
147.0443	7.7
168.0685	4.9
174.9725	4.4
186.0756	8.6
209.1292	7.2
247.1076	4.9
252.0993	4.5
255.1244	12.8
272.0925	4.9
273.1343	40.0
274.1082	5.0
274.1382	6.9
282.1335	4.3
283.1761	5.2
290.1038	13.5
290.1345	4.2
290.1570	8.5
290.2682	5.8
291.1434	13.0
292.1182	26.5
292.1538	7.7
293.1183	6.9
293.1505	10.2
294.1319	10.1
295.1293	14.1
295.1651	6.2
296.1467	6.4
297.1446	25.7
298.1284	10.2
298.1730	11.8
299.1601	32.2
300.0858	4.4
300.1447	17.4
301.1480	4.6
301.1785	15.2
302.1025	65.1
302.1579	8.4
303.1059	11.0
303.1683	4.9
304.1194	20.5
304.1869	6.4
304.2988	8.4
305.1182	4.5
305.1486	4.7
305.1801	5.6
306.1421	100.0
307.1431	14.3
308.1497	7.2
309.1442	16.4
310.1310	16.9

Name: Trimethylene glycol di-p-aminobenzoate
PrecursorMZ: 315.13345
RT: 1.2155
ExactMass: 314.12665706
Spectrum_type: 2
charge: 1
Formula: C17H18N2O4
SMILES: C1=CC(=CC=C1C(=O)OCCCOC(=O)C2=CC=C(C=C2)N)N
Method: HCD
Collision_energy: [28.333334]
Isolation_window: 4.0
Ion_mode: P
Num Peaks: 71
55.0182	1.1
57.0339	2.0
57.0703	6.3
67.0545	1.9
69.0702	1.8
71.0858	6.6
81.0701	3.0
83.0857	2.3
85.1014	3.8
86.0967	0.6
95.0856	3.7
97.1013	1.5
109.1012	2.4
123.1168	1.0
136.0755	1.3
138.0913	0.6
148.0392	1.1
174.0914	0.6
182.0963	0.6
184.1119	0.8
186.0912	0.6
187.0863	0.8
194.1174	0.7
199.0863	0.7
199.1226	1.1
209.1069	1.1
210.0909	5.8
212.0944	1.9
212.1066	3.1
213.1021	3.3
224.0702	0.9
225.0651	0.8
226.0733	9.2
227.0814	5.4
227.1174	13.2
228.0871	0.6
228.1208	1.8
229.0968	6.7
229.1331	2.2
230.1002	0.8
237.1019	1.5
238.0858	4.6
240.0890	12.4
240.1012	0.9
241.0967	37.2
242.1001	5.7
243.1127	1.6
255.0847	0.8
255.1123	100.0
256.1158	15.9
257.1281	20.4
257.2471	0.7
266.0806	5.9
267.0844	1.0
268.0836	7.6
269.0872	1.4
283.1071	71.0
283.1400	0.6
284.1106	12.6
285.1230	13.0
287.1382	0.6
313.2730	18.4
314.1388	0.7
314.2764	6.7
315.1332	29.9
315.1696	2.1
315.2798	1.1
316.1175	0.8
316.1367	5.0
317.1492	6.7
317.1858	1.1

Name: Trimethyllysine
PrecursorMZ: 189.15968
RT: 15.8134
ExactMass: 189.160302917
Spectrum_type: 2
charge: 1
Formula: C9H21N2O2+
SMILES: C[N+](C)(C)CCCC[C@@H](C(=O)O)N
Method: HCD
Collision_energy: [28.333334]
Isolation_window: 4.0
Ion_mode: P
Num Peaks: 6
60.0812	51.0
69.0338	7.6
84.0810	90.4
130.0862	100.0
165.0213	16.0
189.1595	57.5

Name: Trimethylpyrazine
PrecursorMZ: 123.09178
RT: 1.3945
ExactMass: 122.084398327
Spectrum_type: 2
charge: 1
Formula: C7H10N2
SMILES: CC1=CN=C(C(=N1)C)C
Method: HCD
Collision_energy: [28.333334]
Isolation_window: 4.0
Ion_mode: P
Num Peaks: 12
55.0547	0.5
82.0655	3.5
96.0811	0.5
107.0731	0.6
122.0966	20.5
123.0825	0.7
123.0918	100.0
123.0993	1.7
123.1011	0.7
124.0758	0.4
124.0889	0.6
124.0951	7.9

Name: Triolein
PrecursorMZ: 902.81601
RT: 0.97925
ExactMass: 884.78329103
Spectrum_type: 2
charge: 1
Formula: C57H104O6
SMILES: CCCCCCCC/C=C\CCCCCCCC(=O)OCC(OC(=O)CCCCCCC/C=C\CCCCCCCC)COC(=O)CCCCCCC/C=C\CCCCCCCC
Method: HCD
Collision_energy: [28.333334]
Isolation_window: 4.0
Ion_mode: P
Num Peaks: 26
67.0546	11.8
67.0598	5.2
69.0702	15.4
71.0859	2.8
79.0545	3.5
81.0701	15.6
83.0858	14.4
93.0700	5.8
95.0857	21.2
97.1013	11.3
97.4321	4.1
107.0856	5.1
109.1012	10.5
111.1169	5.1
121.1011	11.8
123.1169	3.8
135.1167	10.4
149.1323	5.7
247.2418	3.7
265.2521	7.9
339.2892	2.9
602.5227	3.4
603.5337	100.0
604.5372	32.4
901.6443	4.2
902.8154	4.2

Name: Triphenylphosphine Oxide
PrecursorMZ: 279.0929
RT: 1.1963
ExactMass: 278.086052095
Spectrum_type: 2
charge: 1
Formula: C18H15OP
SMILES: C1=CC=C(C=C1)P(=O)(C2=CC=CC=C2)C3=CC=CC=C3
Method: HCD
Collision_energy: [28.333334]
Isolation_window: 4.0
Ion_mode: P
Num Peaks: 7
201.0461	1.8
219.0566	14.5
220.0599	1.9
279.0928	100.0
279.1244	0.7
280.0962	19.5
281.0991	0.7

Name: Tripropylene glycol n-butyl ether
PrecursorMZ: 249.20546
RT: 1.0908
ExactMass: 248.19875937
Spectrum_type: 2
charge: 1
Formula: C13H28O4
SMILES: CCCCOC(CC)OC(C)COC(CC)O
Method: HCD
Collision_energy: [28.333334]
Isolation_window: 4.0
Ion_mode: P
Num Peaks: 3
59.0494	67.2
69.9168	15.8
225.0421	100.0

Name: Triptophenolide
PrecursorMZ: 335.16038
RT: 0.609
ExactMass: 312.17254462
Spectrum_type: 2
charge: 1
Formula: C20H24O3
SMILES: CC(C)C1=C(C2=C(C=C1)[C@]3(CCC4=C([C@@H]3CC2)COC4=O)C)O
Method: HCD
Collision_energy: [28.333334]
Isolation_window: 4.0
Ion_mode: P
Num Peaks: 302
55.0548	0.4
57.0340	0.4
57.0704	0.7
59.0497	0.6
62.0606	1.6
67.0547	1.6
69.0339	0.4
69.0704	2.3
70.0656	0.4
71.0497	1.0
71.0860	0.9
79.0547	1.1
81.0340	0.7
81.0703	4.0
83.0495	1.0
83.0860	1.5
84.0811	0.3
85.0289	0.3
85.0652	1.3
86.0604	0.3
86.0969	1.0
87.0445	0.7
89.0601	1.0
91.0546	1.0
93.0703	3.2
95.0494	1.2
95.0859	4.7
96.0893	0.4
97.0651	1.6
97.1015	1.0
99.0444	1.0
99.0807	1.4
100.0762	0.4
101.0600	0.9
105.0702	1.8
107.0496	0.7
107.0858	3.3
108.0893	0.3
109.0651	1.8
109.1015	3.4
110.1048	0.4
111.0443	0.5
111.0808	1.3
111.1169	0.4
112.0760	0.5
113.0601	0.7
113.0963	0.5
115.0756	0.6
116.0708	0.3
117.0700	0.5
119.0858	2.4
120.0811	0.3
121.0648	0.8
121.1014	3.2
122.0601	0.4
123.0442	0.4
123.0807	1.6
123.1171	2.4
124.0759	1.8
125.0600	0.7
125.0963	1.2
126.0914	0.8
127.0755	0.8
127.1120	0.7
129.0704	0.3
131.0857	1.4
132.0443	0.6
133.0650	0.4
133.0862	0.6
133.1013	2.6
134.1052	0.3
135.0443	1.4
135.0807	1.2
135.1170	2.0
136.0757	0.9
136.1206	0.3
137.0233	0.6
137.0599	1.8
137.0963	1.5
137.1327	0.7
138.0913	1.0
139.0755	0.6
139.1119	0.8
141.0911	0.4
143.0857	0.6
145.1014	1.9
147.0805	0.8
147.1171	2.3
148.0760	0.4
149.0237	0.3
149.0601	0.4
149.0966	1.5
149.1327	1.2
150.0551	0.9
150.0919	0.3
151.0392	0.5
151.0756	0.8
151.1119	1.8
152.0707	1.3
153.0916	0.8
153.1277	0.4
154.0865	0.3
155.1073	0.5
156.1749	0.3
157.1016	1.0
159.0807	0.5
159.1171	2.1
161.0963	1.0
161.1326	1.2
163.0754	1.2
163.1120	1.0
163.1481	0.7
164.0708	17.1
164.1068	0.3
165.0743	1.5
165.0913	2.0
165.1273	0.6
167.0707	0.3
167.1069	0.6
169.0863	0.3
169.1013	0.5
169.1225	0.3
171.1168	1.0
173.0958	0.5
173.1322	1.2
175.0760	0.3
175.1116	1.1
175.1484	0.9
176.1059	0.4
177.0907	0.8
177.1267	0.6
177.1640	0.4
178.0865	0.3
178.1226	0.3
179.0704	0.3
179.1058	0.7
179.1434	0.3
180.0655	0.7
180.1017	0.8
181.0860	0.3
181.1213	0.5
182.1177	0.3
183.1018	0.3
183.1171	0.5
185.0596	0.6
185.1327	0.7
187.0753	0.3
187.1125	0.5
187.1484	0.7
189.0913	0.3
189.1270	0.7
189.1640	0.5
190.0866	0.3
191.0707	0.3
191.1038	0.4
191.1429	0.5
192.1015	0.4
192.1390	0.3
193.1209	0.5
194.1179	0.3
195.1170	0.3
195.1381	0.3
196.0970	19.3
196.1329	0.6
197.1005	2.0
197.1335	0.5
199.1112	0.4
199.1486	0.7
201.1273	0.5
201.1641	0.5
203.1066	0.6
203.1436	0.3
203.1798	0.4
205.1219	0.7
205.1592	0.3
207.1132	2.1
207.1383	0.4
208.0973	0.3
208.1195	0.6
209.1329	0.4
211.1496	0.5
212.0916	0.3
213.1277	0.3
213.1642	0.5
215.1425	0.4
215.1797	0.3
216.1025	0.3
217.1211	0.4
219.1362	0.4
221.1541	0.3
223.1486	0.3
225.1635	0.3
228.1019	0.3
229.1583	0.3
233.1541	0.3
235.1699	0.3
240.2313	0.5
241.0978	0.3
241.1598	0.3
243.1143	0.6
243.1754	0.3
245.1541	0.3
247.1707	0.3
255.1139	0.7
256.0370	0.3
257.1289	2.8
257.1535	0.3
257.1902	0.3
258.1112	1.2
258.1343	0.3
259.1697	0.3
259.2058	0.5
261.1856	0.3
269.1287	0.9
271.1696	0.3
272.1288	0.3
272.2021	0.3
273.0389	0.3
273.1853	0.3
275.2001	0.3
277.2162	0.5
283.1081	0.4
285.1236	4.1
285.1863	0.3
286.1325	0.5
289.1547	1.5
290.1572	0.4
291.1968	0.3
295.2274	0.3
297.1227	0.4
299.1653	0.4
299.2012	0.5
300.1987	0.3
301.1815	0.4
301.2165	0.6
302.0425	0.5
303.2311	0.4
307.1687	0.4
315.1336	0.8
315.1963	0.4
317.1484	3.4
317.2122	0.8
317.2478	0.3
318.1362	1.1
318.2072	3.5
319.1916	0.4
319.2251	0.4
320.1967	0.3
320.2591	1.0
321.1813	0.3
323.0912	0.3
329.0295	0.7
329.2480	0.4
330.0372	33.0
331.0406	5.8
332.0425	1.2
333.2071	0.4
333.2448	0.5
334.2031	0.3
334.2399	0.6
334.2952	0.3
335.0984	0.4
335.1603	2.3
335.2226	0.8
335.2600	0.7
336.1592	0.4
336.2185	1.2
336.2553	0.4
337.2050	0.3
337.2462	0.4
338.2708	1.2
339.1332	0.3
339.1934	0.8
339.2694	0.4
343.1654	0.3
343.2276	0.5
343.2649	0.3
344.9481	0.3
344.9737	0.8
344.9907	0.6
345.0606	100.0
345.1305	0.5
345.1488	0.7
345.1751	0.3
345.2035	0.3
345.2440	0.5
346.0641	18.8
347.0665	3.3
347.1573	0.9
347.2593	0.6
348.0695	0.4
348.1581	1.4
349.1681	0.3
349.2423	0.4
350.2345	0.3
351.2200	0.4
351.2568	0.7
352.2161	0.6
352.2519	0.3
352.3091	0.3
353.1026	0.8
353.2386	0.3

Name: Tris(2-butoxyethyl) phosphate
PrecursorMZ: 399.25013
RT: 1.0278
ExactMass: 398.24334058
Spectrum_type: 2
charge: 1
Formula: C18H39O7P
SMILES: CCCCOCCOP(=O)(OCCOCCCC)OCCOCCCC
Method: HCD
Collision_energy: [28.333334]
Isolation_window: 4.0
Ion_mode: P
Num Peaks: 18
55.0546	17.5
57.0703	65.3
59.0496	7.3
69.0910	2.5
83.0858	28.0
97.4570	3.4
98.9842	18.2
101.0961	35.8
124.9998	6.6
143.0102	14.9
199.0726	92.7
200.0760	5.2
225.0889	2.5
243.0988	3.5
299.1611	100.0
300.1646	12.9
399.2498	57.2
400.2536	12.4

Name: Tris(2-chloroisopropyl) phosphate
PrecursorMZ: 327.00788
RT: 1.0577833333333333
ExactMass: 326.000829
Spectrum_type: 2
charge: 1
Formula: C9H18Cl3O4P
SMILES: CC(CCl)OP(=O)(OC(C)CCl)OC(C)CCl
Method: HCD
Collision_energy: [28.333334]
Isolation_window: 4.0
Ion_mode: P
Num Peaks: 9
98.9844	100.0
139.9147	9.3
174.9922	20.5
176.9891	3.1
251.0001	9.3
252.9970	3.1
325.2712	10.8
326.2742	2.5
327.2296	7.1

Name: Tris(hydroxymethyl)aminomethane
PrecursorMZ: 122.08132
RT: 0.7348
ExactMass: 121.07389321
Spectrum_type: 2
charge: 1
Formula: C4H11NO3
SMILES: C(C(CO)(CO)N)O
Method: HCD
Collision_energy: [28.333334]
Isolation_window: 4.0
Ion_mode: P
Num Peaks: 7
56.0500	41.3
57.0340	16.7
104.0709	100.0
120.0478	23.6
122.0814	98.1
128.1433	20.3
139.0501	18.2

Name: Tropanon
PrecursorMZ: 140.10694
RT: 0.6584
ExactMass: 139.099714038
Spectrum_type: 2
charge: 1
Formula: C8H13NO
SMILES: CN1C2CCC1CC(=O)C2
Method: HCD
Collision_energy: [28.333334]
Isolation_window: 4.0
Ion_mode: P
Num Peaks: 88
58.0595	0.6
58.0656	93.7
58.0704	0.7
58.0716	0.7
59.0690	3.2
67.0546	0.5
69.0340	0.9
69.0703	1.4
70.0655	1.6
72.0812	2.9
82.0655	2.0
83.0495	7.6
83.0858	0.4
84.0528	0.4
84.0812	1.3
85.0651	0.5
86.0605	0.4
87.0443	0.6
89.0600	1.4
94.0653	0.7
95.0608	0.4
95.0860	0.6
96.0811	1.3
96.9955	1.7
97.0653	0.5
98.0604	0.9
98.0968	0.7
100.0760	0.6
104.0707	0.5
105.0337	0.8
112.0762	0.5
112.1123	11.6
113.1155	0.9
114.0552	0.7
115.9543	0.5
120.0481	0.5
121.9664	1.1
122.0603	1.3
123.0553	0.4
123.9646	0.7
126.0916	0.5
128.1071	0.5
134.0632	4.5
137.1075	0.5
138.0916	1.3
139.0505	0.7
139.0867	6.6
139.1116	0.5
139.1228	2.8
140.0346	0.5
140.0837	0.5
140.0892	0.9
140.1071	100.0
140.1248	1.0
140.1288	0.5
141.0660	0.6
141.1107	8.3
142.0865	0.5
142.1130	0.5
142.1227	6.9
142.1590	0.7
143.1265	0.6
144.1019	0.5
145.0761	0.8
146.0609	0.4
146.0809	0.5
146.0924	0.5
147.0550	0.5
148.0970	1.3
149.0234	1.4
150.1123	0.5
151.0860	0.7
152.0727	1.7
152.1068	0.8
153.1019	1.4
153.1384	0.9
154.0501	1.0
154.0870	0.4
154.1228	3.5
155.0816	0.5
155.1166	0.8
156.1029	2.0
156.1384	32.9
157.1421	3.0
157.1699	1.3
158.1176	41.2
158.1535	3.4
159.1214	3.5

Name: Tropic acid
PrecursorMZ: 149.05971
RT: 6.7274
ExactMass: 166.062994177
Spectrum_type: 2
charge: 1
Formula: C9H10O3
SMILES: C1=CC=C(C=C1)C(CO)C(=O)O
Method: HCD
Collision_energy: [28.333334]
Isolation_window: 4.0
Ion_mode: P
Num Peaks: 12
79.0545	26.6
91.0544	6.1
93.0700	34.2
103.0543	100.0
104.0576	11.6
107.0491	39.2
108.0524	5.2
121.0647	18.9
131.0489	8.3
149.0230	6.0
149.0595	11.0
150.0548	6.1

Name: Tropicamide
PrecursorMZ: 285.15941
RT: 5.2893
ExactMass: 284.152477885
Spectrum_type: 2
charge: 1
Formula: C17H20N2O2
SMILES: CCN(CC1=CC=NC=C1)C(=O)C(CO)C2=CC=CC=C2
Method: HCD
Collision_energy: [28.333334]
Isolation_window: 4.0
Ion_mode: P
Num Peaks: 83
60.0811	1.1
69.0338	2.0
70.0654	6.2
72.0811	2.1
74.0604	1.9
81.0337	5.6
81.0449	1.6
85.0286	11.5
86.0966	2.5
95.0604	1.6
97.0761	2.2
97.4570	1.3
98.0964	1.4
99.0441	2.4
105.0700	1.2
107.0604	2.0
110.0712	3.5
112.0756	1.1
114.0551	1.3
116.0706	3.3
121.0647	1.8
122.0599	2.0
124.0868	3.6
125.0708	3.1
125.0960	2.1
127.1229	2.7
130.0650	7.8
136.0755	2.2
137.0787	2.1
137.1071	6.5
140.1431	1.6
142.0859	1.3
142.0973	3.7
143.1176	1.1
144.0804	1.1
156.0805	1.1
167.0562	3.5
168.0594	3.5
173.0917	3.2
182.0920	3.2
187.1075	1.7
200.0701	1.2
205.1333	1.6
210.0869	1.6
227.1272	3.2
239.1022	2.6
248.1750	2.0
266.0960	1.2
266.1856	8.5
267.1122	2.3
267.1332	2.2
267.1887	1.1
268.0959	5.1
283.1431	1.7
283.2007	1.3
284.0768	1.2
284.0911	3.9
284.1071	5.3
284.1259	7.6
284.1468	4.0
284.1607	3.7
284.1961	8.9
284.3306	2.4
285.0883	1.9
285.1078	1.0
285.1229	14.0
285.1448	5.2
285.1590	100.0
285.1788	1.2
285.1818	1.1
285.2006	1.1
286.0904	1.7
286.1064	7.2
286.1264	3.0
286.1428	4.9
286.1623	17.8
286.1760	1.7
286.2000	7.3
286.3092	1.4
287.1006	2.0
287.1231	1.8
287.1383	5.2
287.1750	7.0

Name: Tropisetron
PrecursorMZ: 285.15928
RT: 5.2531
ExactMass: 284.152477885
Spectrum_type: 2
charge: 1
Formula: C17H20N2O2
SMILES: CN1[C@@H]2CC[C@H]1CC(C2)OC(=O)C3=CNC4=CC=CC=C43
Method: HCD
Collision_energy: [28.333334]
Isolation_window: 4.0
Ion_mode: P
Num Peaks: 32
60.0811	2.6
72.0810	5.0
81.0337	2.5
84.0445	3.1
85.0285	44.7
86.0966	4.4
124.0867	2.9
125.0707	3.8
125.0959	6.5
137.1070	6.9
142.0971	3.9
143.1063	2.2
146.0597	2.2
147.0630	3.0
183.1123	3.0
188.0701	3.8
189.0736	5.3
211.1072	3.2
227.1272	7.6
266.1854	7.9
283.2003	2.6
284.1116	2.5
284.1269	4.7
284.1958	6.7
285.1248	3.7
285.1588	100.0
286.1067	3.1
286.1425	4.4
286.1621	18.1
286.2004	21.1
287.1377	3.5
287.1750	9.5

Name: Troxipide
PrecursorMZ: 295.16501
RT: 3.856
ExactMass: 294.15795719
Spectrum_type: 2
charge: 1
Formula: C15H22N2O4
SMILES: COC1=CC(=CC(=C1OC)OC)C(=O)NC2CCCNC2
Method: HCD
Collision_energy: [28.333334]
Isolation_window: 4.0
Ion_mode: P
Num Peaks: 14
55.0547	2.4
59.0497	0.8
83.0496	2.3
95.0605	1.3
101.0599	8.0
133.0761	2.1
177.1023	1.4
195.1128	25.1
196.1162	2.9
295.1652	100.0
296.1685	16.3
297.1751	2.8
311.1600	8.7
312.1636	1.4

Name: Trp-Phe
PrecursorMZ: 352.16564
RT: 4.645
ExactMass: 351.15829154
Spectrum_type: 2
charge: 1
Formula: C20H21N3O3
SMILES: C1=CC=C(C=C1)CC(C(=O)O)NC(=O)C(CC2=CNC3=CC=CC=C32)N
Method: HCD
Collision_energy: [28.333334]
Isolation_window: 4.0
Ion_mode: P
Num Peaks: 39
81.0339	1.5
120.0810	100.0
121.0843	7.6
130.0653	4.3
132.0810	2.3
136.0758	1.8
138.0917	2.4
140.0708	5.2
144.0810	3.3
144.1385	5.1
146.0603	3.5
148.0759	6.7
159.0919	7.7
160.0949	1.5
161.1076	2.0
166.0865	12.5
175.0868	4.4
181.1701	19.3
188.0708	47.4
189.0741	5.2
193.1701	10.8
194.0818	1.7
205.0974	30.9
206.1007	2.6
213.0665	1.5
231.1493	2.4
237.1600	17.0
273.1603	3.0
291.1702	5.0
301.1550	2.0
319.1654	4.8
335.1405	3.4
351.1920	2.2
352.1308	10.4
352.1655	34.4
353.1332	2.0
353.1688	8.1
353.2072	2.6
354.2409	2.1

Name: Tryptamine
PrecursorMZ: 161.10727
RT: 7.2473
ExactMass: 160.100048391
Spectrum_type: 2
charge: 1
Formula: C10H12N2
SMILES: C1=CC=C2C(=C1)C(=CN2)CCN
Method: HCD
Collision_energy: [28.333334]
Isolation_window: 4.0
Ion_mode: P
Num Peaks: 24
74.0603	0.9
101.0597	5.4
144.0805	100.0
144.1016	2.2
145.0838	10.2
159.0914	4.8
160.0617	1.7
160.0755	4.1
160.0945	3.6
160.1070	0.9
160.1129	2.6
160.1330	0.9
160.9011	15.5
161.0707	1.1
161.1071	17.2
162.0760	1.0
162.0913	5.1
162.1023	6.7
162.1120	7.5
162.1274	29.7
162.8991	1.6
163.0864	3.6
163.1227	10.2
163.1304	1.2

Name: Tryptophyl-proline
PrecursorMZ: 302.14962
RT: 5.7564
ExactMass: 301.14264148
Spectrum_type: 2
charge: 1
Formula: C16H19N3O3
SMILES: C1CC(N(C1)C(=O)C(CC2=CNC3=CC=CC=C32)N)C(=O)O
Method: HCD
Collision_energy: [28.333334]
Isolation_window: 4.0
Ion_mode: P
Num Peaks: 45
70.0655	21.2
72.0812	4.3
84.0811	4.8
86.0967	20.0
110.0716	5.4
114.0550	22.1
116.0707	27.4
121.1011	3.8
130.0652	9.5
132.0808	18.5
136.0757	5.9
144.0808	16.7
145.0967	5.5
149.0709	16.0
152.0706	3.4
153.0784	19.1
159.0917	100.0
160.0950	9.0
164.0708	3.3
165.0659	9.9
170.0600	24.4
171.0763	6.4
172.0752	5.6
173.0917	5.4
180.1018	4.2
249.1847	11.9
257.1280	9.7
285.1230	80.9
286.1269	14.1
300.2006	5.2
301.1173	6.1
301.1302	7.8
301.1391	4.0
301.1544	11.1
301.2479	11.1
302.1132	32.0
302.1495	24.0
303.0986	3.1
303.1160	5.3
303.1327	11.0
303.1536	6.2
303.1701	4.3
303.1931	3.2
304.1167	6.7
304.1900	8.1

Name: Tyr-Ala
PrecursorMZ: 253.11792
RT: 5.6747
ExactMass: 252.111007
Spectrum_type: 2
charge: 1
Formula: C12H16N2O4
SMILES: C[C@@H](C(=O)O)NC(=O)[C@H](CC1=CC=C(C=C1)O)N
Method: HCD
Collision_energy: [28.333334]
Isolation_window: 4.0
Ion_mode: P
Num Peaks: 49
60.0448	2.0
67.0546	1.9
70.0655	1.3
81.0700	2.4
95.0857	1.8
109.1012	1.3
119.0490	1.9
120.0808	2.5
121.0646	1.9
136.0616	11.8
136.0755	61.9
137.0788	4.6
145.0757	2.4
161.0706	2.6
166.0861	3.1
171.0914	1.3
175.0864	9.4
176.0899	1.5
189.1020	2.2
195.1125	11.2
199.0860	2.1
205.0968	3.1
206.0918	3.0
207.1123	2.3
208.0966	1.4
217.0967	9.6
217.1219	1.4
235.1072	19.9
235.1323	1.3
235.1688	1.9
236.0919	2.7
236.1107	2.2
237.0501	1.7
237.1230	1.6
238.1181	14.5
252.0866	2.5
252.0958	2.6
252.1085	11.4
252.1223	2.9
252.1578	2.1
253.0964	5.2
253.1177	100.0
253.1404	1.7
254.0478	2.3
254.1015	10.6
254.1156	2.5
254.1211	12.0
254.1380	4.4
255.1328	2.4

Name: Tyr-C21:0
PrecursorMZ: 490.38855
RT: 1.6713
Spectrum_type: 2
charge: 1
SMILES: CCCCCCCCCCCCCCCCCCCCC(NC(C(O)=O)CC1=CC=C(O)C=C1)=O
Method: HCD
Collision_energy: [28.333334]
Isolation_window: 4.0
Ion_mode: P
Num Peaks: 9
54.4879	5.0
206.0808	6.2
224.0918	2.1
400.3560	2.3
428.3518	2.5
490.3882	100.0
490.4965	5.7
491.3917	28.6
492.3952	3.1

Name: Tyr-Ile
PrecursorMZ: 295.16505
RT: 5.4418
ExactMass: 294.15795719
Spectrum_type: 2
charge: 1
Formula: C15H22N2O4
SMILES: CC[C@H](C)[C@@H](C(=O)O)NC(=O)[C@H](CC1=CC=C(C=C1)O)N
Method: HCD
Collision_energy: [28.333334]
Isolation_window: 4.0
Ion_mode: P
Num Peaks: 28
86.0967	6.0
91.0546	1.6
97.4317	2.2
101.0598	1.3
119.0492	3.3
120.0807	1.3
121.0648	2.9
132.1019	2.9
134.0599	2.2
136.0756	100.0
137.0788	7.9
236.0916	1.7
249.1594	1.9
250.1069	1.6
250.1435	2.0
260.0917	1.9
278.1017	3.2
278.1378	4.1
294.1085	3.2
294.1308	4.0
294.1463	1.4
295.1258	2.2
295.1424	2.8
295.1649	15.7
296.1116	3.5
296.1255	1.4
296.1468	2.6
296.1625	1.7

Name: Tyr-Val
PrecursorMZ: 281.14906
RT: 2.5321
ExactMass: 280.14230712
Spectrum_type: 2
charge: 1
Formula: C14H20N2O4
SMILES: CC(C)[C@@H](C(=O)O)NC(=O)[C@H](CC1=CC=C(C=C1)O)N
Method: HCD
Collision_energy: [28.333334]
Isolation_window: 4.0
Ion_mode: P
Num Peaks: 41
55.0546	1.4
69.0702	1.1
69.6984	1.0
72.0810	37.8
73.0843	1.4
86.0965	24.6
87.0999	2.9
88.0757	1.0
91.0543	2.1
116.0705	1.7
118.0861	2.2
119.0489	4.4
120.0806	9.2
121.0646	2.7
121.0839	1.8
136.0754	100.0
137.0786	9.0
165.0542	2.1
166.0858	2.3
182.0808	6.0
198.0439	1.9
210.0438	1.8
216.1012	0.9
217.0967	0.9
232.0965	0.9
235.1069	5.7
235.1434	3.0
236.1112	0.9
236.1276	1.1
244.0964	1.2
247.0638	1.8
262.1066	2.7
264.0908	1.5
264.1220	2.3
279.1693	1.2
280.1169	2.3
280.1528	0.9
281.1486	10.3
282.1000	1.7
282.1330	3.2
282.1524	1.6

Name: Tyrosyl-proline
PrecursorMZ: 279.13391
RT: 6.0385
ExactMass: 278.12665706
Spectrum_type: 2
charge: 1
Formula: C14H18N2O4
SMILES: C1C[C@H](N(C1)C(=O)[C@H](CC2=CC=C(C=C2)O)N)C(=O)O
Method: HCD
Collision_energy: [28.333334]
Isolation_window: 4.0
Ion_mode: P
Num Peaks: 42
69.0703	1.1
70.0655	11.0
74.0604	1.7
86.0967	3.4
91.0544	1.5
96.0446	2.8
101.0598	1.2
114.0551	3.6
116.0707	100.0
117.0740	4.5
119.0491	3.1
120.0808	2.3
121.0648	2.0
128.0705	1.5
130.0498	1.1
133.1011	5.4
136.0756	82.5
137.0789	6.4
141.1023	1.3
147.0440	3.8
164.0704	1.3
166.0532	5.8
169.1335	1.1
178.1589	2.2
215.1387	5.5
219.0567	1.3
262.1068	4.2
262.1433	1.9
278.0879	1.2
278.1017	1.4
278.1381	1.3
278.1609	1.1
278.2109	5.6
279.0933	5.1
279.1338	36.2
280.0947	1.4
280.1171	1.6
280.1369	4.5
280.1537	5.8
280.1885	1.7
281.1137	1.9
281.1486	7.2

Name: Tyrphostin AG528
PrecursorMZ: 307.10771
RT: 6.6551
ExactMass: 306.10044231
Spectrum_type: 2
charge: 1
Formula: C18H14N2O3
SMILES: C1CN(C2=CC=CC=C21)C(=O)/C(=C/C3=CC(=C(C=C3)O)O)/C#N
Method: HCD
Collision_energy: [28.333334]
Isolation_window: 4.0
Ion_mode: P
Num Peaks: 28
74.0605	5.8
114.0916	4.3
125.0235	4.3
180.1022	4.0
188.0708	13.4
205.0975	6.0
217.0975	5.8
261.1023	36.5
262.1059	5.3
289.1179	6.4
305.1487	4.7
306.0600	3.2
306.0973	15.5
306.1327	7.4
306.1469	6.6
306.1508	3.7
306.1837	3.3
307.1079	100.0
307.1288	55.6
307.1443	4.0
307.1645	5.7
308.1115	23.0
308.1316	8.1
308.1486	5.6
308.2220	3.1
309.0755	4.1
309.1445	4.9
309.1589	11.5

Name: Ubenimex
PrecursorMZ: 309.1808
RT: 1.6486
ExactMass: 308.17360725
Spectrum_type: 2
charge: 1
Formula: C16H24N2O4
SMILES: CC(C)C[C@@H](C(=O)O)NC(=O)[C@H]([C@@H](CC1=CC=CC=C1)N)O
Method: HCD
Collision_energy: [28.333334]
Isolation_window: 4.0
Ion_mode: P
Num Peaks: 6
86.0966	51.7
136.0755	100.0
146.1173	26.1
196.0965	27.1
308.2946	33.6
309.1808	24.6

Name: Umbelliferone
PrecursorMZ: 163.03894
RT: 1.775625
ExactMass: 162.031694049
Spectrum_type: 2
charge: 1
Formula: C9H6O3
SMILES: C1=CC(=CC2=C1C=CC(=O)O2)O
Method: HCD
Collision_energy: [28.333334]
Isolation_window: 4.0
Ion_mode: P
Num Peaks: 5
133.0283	10.3
135.0439	8.4
163.0388	100.0
164.0422	7.9
164.1433	46.3

Name: Ungerine nitrate
PrecursorMZ: 330.12883
RT: 3.4149
ExactMass: 392.1219656
Spectrum_type: 2
charge: 1
Formula: C18H20N2O8
SMILES: CN1CCC2=C[C@H](C3C([C@H]21)C4=CC5=C(C=C4C(=O)O3)OCO5)OC.[N+](=O)(O)[O-]
Method: HCD
Collision_energy: [28.333334]
Isolation_window: 4.0
Ion_mode: P
Num Peaks: 319
56.0499	11.7
59.0609	19.9
60.0449	9.6
69.0339	16.8
70.0292	5.5
70.0656	96.9
71.0132	13.3
71.0494	7.7
71.0689	5.2
72.0812	33.8
73.0290	4.6
74.0241	6.5
74.0604	15.0
75.0267	4.4
76.0397	7.7
81.0339	24.3
82.0655	7.5
83.0496	17.4
84.0447	42.6
84.0811	44.9
85.0288	40.0
86.0604	19.1
86.0966	9.4
87.0443	16.6
88.0396	14.3
90.0554	14.0
95.0494	10.0
95.0605	7.0
96.0446	15.6
96.0810	7.2
97.0287	19.2
97.0652	5.8
98.0603	17.8
98.0966	11.7
99.0444	22.5
100.0760	12.7
101.0600	7.2
101.0714	5.0
102.0553	36.4
108.0447	16.6
109.0286	7.5
110.0604	16.5
110.0715	36.3
111.0442	24.2
112.0759	11.4
113.0237	5.1
113.0600	5.2
113.0712	10.2
114.0552	22.1
115.0393	5.3
115.0871	4.4
116.0708	100.0
117.0185	9.6
117.0549	11.1
118.0864	12.1
120.0449	5.1
120.0657	16.2
121.0651	5.6
122.0604	11.9
123.0446	8.0
123.0557	14.1
124.0396	9.0
124.0761	8.6
125.0238	12.1
125.0349	8.0
125.0601	6.5
125.0716	5.9
126.0550	20.4
126.0916	8.3
127.0392	15.7
128.0707	41.4
129.0549	11.1
129.0663	8.0
129.1026	4.5
130.0500	35.4
130.0656	4.8
130.0865	33.9
132.0657	15.3
133.0601	7.1
134.0601	7.1
136.0394	42.5
136.0759	9.3
137.0601	5.7
138.0550	13.3
138.0918	4.6
139.0392	9.9
139.0505	5.4
140.0706	15.9
141.0656	20.3
142.0502	16.3
142.0866	14.7
143.0707	6.6
144.0655	15.0
144.1023	6.9
145.0501	7.5
146.0815	5.7
147.0654	6.0
147.0771	14.5
147.1135	4.7
148.0610	11.2
148.0760	7.5
149.0270	5.9
149.0599	4.7
150.0549	10.7
150.0918	6.4
152.0708	18.4
153.0548	6.6
153.0663	6.1
154.0497	11.0
154.0862	10.2
155.0822	6.5
156.0656	19.0
156.0773	41.7
156.1019	9.8
157.0498	30.1
158.0815	14.9
158.0930	5.5
159.0764	16.0
160.0612	6.4
160.0763	4.6
162.0551	10.1
162.0765	5.7
162.0918	6.1
163.0606	6.4
164.0701	11.2
165.0546	5.9
165.0668	5.8
166.0524	21.5
166.0725	4.5
166.0863	9.2
166.0975	10.1
167.0814	7.7
168.0655	21.1
168.1023	4.9
169.0967	7.3
170.0812	20.1
170.1176	4.9
171.0647	36.6
171.0775	8.4
172.0607	4.4
172.0969	16.2
173.0919	21.5
173.1287	8.3
174.0768	10.1
175.0606	16.2
175.1197	18.4
176.0709	4.9
177.0876	14.4
178.0510	5.3
178.0858	7.6
179.0820	4.8
180.0652	12.7
180.0887	10.5
181.0978	8.2
182.0460	4.6
182.0789	7.8
183.0775	6.7
183.1132	5.4
184.0594	17.3
184.0973	6.7
185.0920	14.7
186.0764	12.4
187.0722	9.4
187.1075	8.7
188.0715	10.2
188.0907	8.1
189.0734	10.0
190.0519	4.7
190.0868	5.1
192.0660	11.2
193.0730	12.7
193.0979	6.3
194.0801	11.4
195.0779	7.8
196.0596	9.5
197.0925	5.1
198.0750	12.5
199.0718	8.1
199.1081	8.5
200.0901	11.2
201.0867	14.0
201.1236	9.1
202.0710	5.9
202.1078	9.9
203.1045	5.1
204.0659	4.7
204.0867	4.5
205.0983	7.1
206.0453	5.0
206.0817	8.1
208.0608	7.8
208.1343	5.4
209.0917	10.3
210.0751	15.8
211.0712	36.0
211.1086	7.5
212.0735	4.4
213.0871	16.5
215.1037	4.9
216.0871	5.1
217.0823	11.8
219.0962	12.5
220.0607	4.4
220.0984	4.5
221.0927	4.5
222.0773	4.4
223.0723	4.9
223.1082	5.8
224.0924	5.3
225.0874	12.8
227.0668	5.4
227.1024	9.9
228.0862	4.4
229.0831	4.6
229.1162	7.6
230.0781	4.5
231.0979	6.9
232.1180	29.1
234.0769	5.8
234.1235	27.2
236.0930	4.4
237.0870	43.1
238.0911	4.7
239.1026	10.1
241.0821	4.4
241.1206	5.4
243.0974	4.5
244.0643	5.0
249.0869	5.0
251.1028	9.5
253.1197	5.7
254.1146	21.3
255.0957	13.4
257.1135	4.8
263.1038	4.4
265.0825	4.5
265.1197	4.8
267.0971	14.3
268.0944	6.0
269.1146	6.3
271.0926	4.4
276.0755	5.2
281.1143	6.1
283.0934	4.9
283.1307	7.9
284.1236	14.2
285.1092	12.5
286.1083	4.9
289.0864	4.4
293.1162	8.4
295.0951	5.7
295.1312	5.9
296.0075	4.5
296.1203	4.5
297.1093	5.4
297.1466	6.7
298.1339	5.1
299.1253	11.4
301.1168	4.7
303.1192	11.7
311.1298	7.8
312.1171	11.8
313.1400	6.2
314.1302	6.4
316.1311	5.4
317.1394	10.1
318.1205	10.1
319.1278	28.0
320.1467	15.1
321.1102	5.8
321.1449	22.7
322.1172	5.4
323.1239	8.2
324.1137	5.1
324.1457	6.5
325.1087	5.3
326.1325	7.1
327.1195	21.8
328.1093	6.2
328.1504	13.4
329.1375	62.0
330.1286	50.2
331.1540	40.7
332.1112	9.1
332.1473	20.8
333.1109	8.6
333.1363	5.7
333.1728	8.0
334.1238	14.0
334.1625	6.5
335.1249	25.8
335.1468	19.9
336.1318	64.0
336.1654	6.7
337.1059	5.3
337.1377	81.7
338.1298	23.0
338.1431	21.2
339.1216	20.6
339.1556	95.2
340.1579	22.8
341.1378	39.5
341.1717	15.7
342.1226	14.7
342.1584	58.8
343.1146	8.6
343.1531	46.9
344.1454	41.4
345.1305	27.8
345.1673	19.4
346.1171	10.3
346.1587	17.3
346.2046	8.6
347.1266	11.3
347.1574	10.2
348.1104	9.1
348.1450	6.8
349.1340	8.3
349.1626	11.3

Name: Uracil
PrecursorMZ: 113.03471
RT: 5.892
ExactMass: 112.027277375
Spectrum_type: 2
charge: 1
Formula: C4H4N2O2
SMILES: C1=CNC(=O)NC1=O
Method: HCD
Collision_energy: [28.333334]
Isolation_window: 4.0
Ion_mode: P
Num Peaks: 18
58.0291	5.4
68.0498	1.8
69.0337	1.7
69.0702	3.3
70.0290	32.4
79.0544	4.6
86.0602	16.2
95.0241	2.9
96.0081	18.5
96.0808	4.0
111.0441	1.7
112.0394	3.2
112.0757	1.7
113.0345	83.6
114.0379	3.3
114.0549	8.2
114.0913	100.0
115.0947	2.3

Name: Uric Acid
PrecursorMZ: 169.03558
RT: 5.7985
ExactMass: 168.02834
Spectrum_type: 2
charge: 1
Formula: C5H4N4O3
SMILES: C12=C(NC(=O)N1)NC(=O)NC2=O
Method: HCD
Collision_energy: [28.333334]
Isolation_window: 4.0
Ion_mode: P
Num Peaks: 24
98.0601	2.2
111.0440	2.9
122.0600	2.5
123.0109	7.1
124.0756	2.3
126.0296	17.2
128.0704	3.3
141.0404	15.3
150.0548	4.7
151.0862	2.9
152.0088	6.4
152.0703	4.6
167.0820	2.9
167.1540	4.1
168.0691	61.2
168.1015	2.9
169.0353	100.0
169.0722	3.2
169.0968	3.7
170.0193	11.2
170.0388	5.5
170.0648	2.5
170.0808	14.8
170.1173	2.8

Name: Urobilin
PrecursorMZ: 591.31701
RT: 1.0533
ExactMass: 590.31043507
Spectrum_type: 2
charge: 1
Formula: C33H42N4O6
SMILES: CCC1=C(C(=O)NC1CC2=C(C(=C(N2)/C=C/3\C(=C(C(=N3)CC4C(=C(C(=O)N4)CC)C)C)CCC(=O)O)CCC(=O)O)C)C
Method: HCD
Collision_energy: [28.333334]
Isolation_window: 4.0
Ion_mode: P
Num Peaks: 40
65.6989	0.4
65.7027	2.4
65.8142	0.9
65.9266	1.0
70.0652	0.4
86.0967	0.6
126.0911	0.4
164.0708	2.0
166.0862	0.8
180.1019	1.1
271.1431	0.8
283.1436	0.4
285.1591	0.9
289.1541	0.5
299.1384	0.7
301.1538	0.9
325.1558	0.5
343.0783	0.7
343.0961	0.6
343.1649	100.0
343.2345	0.6
343.2514	0.8
344.1705	42.0
345.1752	8.8
346.1779	1.2
358.1750	0.8
438.2006	0.6
466.2333	5.3
467.2395	3.4
468.2478	3.5
469.2531	1.7
470.2626	1.7
471.2701	0.5
591.3176	40.3
592.3209	15.5
593.3317	19.0
594.3358	6.4
595.3460	2.8
596.3510	0.9
606.3281	1.3

Name: Urolithin A
PrecursorMZ: 229.04955
RT: 2.9044
ExactMass: 228.04225873
Spectrum_type: 2
charge: 1
Formula: C13H8O4
SMILES: C1=CC2=C(C=C1O)C(=O)OC3=C2C=CC(=C3)O
Method: HCD
Collision_energy: [28.333334]
Isolation_window: 4.0
Ion_mode: P
Num Peaks: 16
69.0703	1.0
79.0545	0.8
96.0810	6.8
113.1076	1.2
114.0915	7.1
157.0648	5.3
185.0598	3.1
209.1648	6.3
210.1685	1.0
227.1753	30.9
228.1789	6.8
229.0494	100.0
229.1411	1.6
230.0528	13.3
230.2476	0.8
231.0556	0.9

Name: Ursocholic acid
PrecursorMZ: 373.27347
RT: 1.4914333333333334
ExactMass: 408.28757437
Spectrum_type: 2
charge: 1
Formula: C24H40O5
SMILES: C[C@H](CCC(=O)O)[C@H]1CC[C@@H]2[C@@]1([C@H](C[C@H]3[C@H]2[C@H](C[C@H]4[C@@]3(CC[C@H](C4)O)C)O)O)C
Method: HCD
Collision_energy: [28.333334]
Isolation_window: 4.0
Ion_mode: P
Num Peaks: 216
60.0448	1.3
67.0546	7.3
69.0703	6.0
70.0655	3.0
71.0495	1.4
72.0811	5.6
79.0545	5.0
81.0702	15.4
83.0494	2.8
83.0858	5.7
84.0811	2.1
85.0651	3.6
86.0968	18.2
91.0544	4.0
93.0701	11.6
95.0494	1.8
95.0858	20.5
97.0650	2.5
97.1014	2.1
97.3999	2.1
99.0443	3.2
99.0806	1.5
101.0599	4.9
105.0700	9.9
107.0857	18.7
108.0891	1.7
109.0649	2.3
109.1013	17.5
110.1047	2.2
111.0807	2.7
115.0392	1.5
116.0708	5.7
117.0700	2.7
119.0857	12.4
120.0809	2.0
120.0890	1.3
121.0649	1.8
121.1013	14.7
122.1046	1.4
123.0805	3.2
123.1169	4.4
124.0757	1.5
125.0598	1.7
125.0962	3.0
127.0754	1.5
130.0863	2.8
131.0856	7.9
132.1020	2.3
133.0647	2.2
133.1012	17.0
134.1048	2.0
135.0805	2.4
135.1168	12.7
137.0598	1.5
137.0960	2.1
139.0753	1.7
141.0910	2.2
143.0855	4.2
145.1012	68.8
146.1046	8.4
146.1173	1.9
147.0805	2.1
147.1168	20.1
148.1202	2.3
149.0960	2.4
149.1325	28.2
150.1358	2.8
151.0755	1.4
151.1118	2.0
153.0911	1.9
157.1013	5.4
159.0805	6.3
159.1169	13.2
160.1201	1.6
161.0596	2.1
161.0962	2.0
161.1325	13.2
162.1359	1.5
163.1119	2.4
163.1482	6.0
166.0863	1.9
169.1011	2.4
171.1168	4.6
173.0961	2.1
173.1325	7.1
175.0753	2.9
175.1117	2.9
175.1482	5.1
177.1274	1.9
177.1637	1.7
179.1066	1.5
180.1020	1.6
181.1221	2.1
182.1175	3.1
183.1172	3.2
185.1324	6.6
187.1480	5.4
189.1272	1.3
189.1638	3.0
191.1068	2.0
193.0857	2.5
193.1224	4.7
195.1381	1.7
197.1326	3.2
199.0754	1.6
199.1481	16.7
200.1514	3.0
201.0910	5.9
201.1637	15.3
202.1670	2.4
203.1428	1.5
203.1794	2.4
205.1223	2.0
207.1016	2.0
207.1379	1.4
209.1324	3.9
211.1481	5.7
213.1637	15.5
214.1439	1.6
214.1667	2.1
215.1793	14.2
216.0652	1.9
216.1827	2.4
219.1019	1.9
219.1383	1.7
221.1536	2.0
223.1483	4.0
225.1638	5.5
227.1429	6.5
227.1793	9.1
228.1828	1.8
229.1588	5.2
229.1952	1.6
230.1174	1.6
231.1021	2.0
233.1170	3.1
233.1534	1.5
235.1690	2.0
237.1636	4.2
239.1789	2.0
241.1586	2.1
241.1950	3.3
243.1742	2.1
245.1535	7.4
247.1691	4.6
252.1873	2.6
253.1950	2.2
255.1740	8.3
255.2107	1.4
256.1776	1.5
259.1689	5.3
261.1848	5.2
263.1791	1.5
269.1899	1.5
271.2061	1.6
273.1232	1.4
273.1848	2.7
279.2105	2.6
281.1896	1.9
293.2262	1.9
295.2056	2.6
295.2418	1.6
296.1276	2.6
297.2208	2.2
299.2003	1.9
309.2574	100.0
310.2608	23.6
311.2632	1.7
313.1538	1.4
313.2163	1.4
315.1341	1.8
315.1706	2.7
319.2418	12.3
320.2450	3.1
323.1641	2.3
327.2680	6.2
328.2719	2.1
337.2524	29.3
338.2555	8.0
339.2679	2.5
341.1750	2.2
342.1333	19.4
343.1373	3.0
343.1651	1.5
353.2473	10.3
354.2508	8.9
355.1901	3.1
355.2629	80.0
356.2662	20.9
357.2040	2.3
357.2791	4.1
371.2579	25.7
371.2943	3.9
372.1429	2.8
372.1640	3.1
372.2606	25.0
372.2658	1.5
372.2976	2.1
373.1161	2.8
373.1401	1.5
373.1513	1.4
373.1763	9.4
373.2003	3.7
373.2399	2.8
373.2736	54.5
374.1228	1.6
374.1589	9.7
374.1815	1.8
374.2335	1.6
374.2769	13.6
375.1561	5.4
375.1930	4.1
375.2169	2.8
375.2532	3.0
375.2852	1.8
375.2891	2.2

Name: Urushiol II
PrecursorMZ: 341.24482
RT: 1.028
ExactMass: 318.255880323
Spectrum_type: 2
charge: 1
Formula: C21H34O2
SMILES: CCCCCC/C=C\CCCCCCCC1=C(C(=CC=C1)O)O
Method: HCD
Collision_energy: [28.333334]
Isolation_window: 4.0
Ion_mode: P
Num Peaks: 9
105.0336	12.5
139.9145	77.1
209.1643	8.2
240.8658	11.7
322.2483	9.9
340.2583	16.2
340.3581	21.7
341.2447	100.0
342.2480	17.8

Name: Usnic acid, (R)-
PrecursorMZ: 345.09629
RT: 6.4394
ExactMass: 344.08960285
Spectrum_type: 2
charge: 1
Formula: C18H16O7
SMILES: CC1=C(C(=C2C(=C1O)[C@@]3(C(=CC(=C(C3=O)C(=O)C)O)O2)C)C(=O)C)O
Method: HCD
Collision_energy: [28.333334]
Isolation_window: 4.0
Ion_mode: P
Num Peaks: 71
59.0609	11.7
70.0655	13.2
84.0447	5.1
84.0811	22.1
85.0286	4.6
86.0602	4.4
98.0602	4.9
102.0552	5.4
114.0553	4.5
116.0708	9.5
123.0441	100.0
124.0473	6.3
126.0547	4.2
128.0705	7.0
130.0863	16.5
132.0447	8.6
137.0234	6.8
139.0391	9.3
144.0656	15.7
149.0919	4.3
163.0390	46.3
164.0424	4.6
165.0547	23.6
167.0819	5.3
173.0923	13.4
177.0544	7.4
181.0497	9.5
221.1489	6.1
223.0597	27.0
224.0626	4.2
255.0647	17.1
267.0659	10.3
271.0600	6.2
283.0595	7.7
285.0743	6.1
294.1003	4.1
295.0588	6.1
297.0748	5.0
299.0540	5.8
301.0696	5.4
313.0703	36.1
313.1486	6.1
314.0721	6.2
315.0849	9.7
322.1285	15.8
327.0855	10.2
341.0637	18.2
343.0797	4.1
344.1538	5.7
345.0959	37.6
346.0893	6.9
346.1341	4.5
346.3326	5.0
347.1581	8.5
348.1018	4.8
348.1425	4.9
350.1177	5.1
350.1932	5.9
351.1133	5.3
351.1811	7.1
357.1322	25.7
358.0933	4.4
358.1716	43.5
359.0721	7.6
359.1837	7.0
360.1051	9.2
360.1825	5.0
361.1648	9.3
362.1209	6.6
362.1636	6.7
363.1501	19.4

Name: Val-Ala
PrecursorMZ: 189.12323
RT: 1.7773
ExactMass: 188.11609238
Spectrum_type: 2
charge: 1
Formula: C8H16N2O3
SMILES: C[C@@H](C(=O)O)NC(=O)[C@H](C(C)C)N
Method: HCD
Collision_energy: [28.333334]
Isolation_window: 4.0
Ion_mode: P
Num Peaks: 4
55.0547	2.6
72.0812	100.0
73.0845	3.8
170.0812	2.1

Name: Val-Arg
PrecursorMZ: 274.1872
RT: 3.8117
ExactMass: 273.18008961
Spectrum_type: 2
charge: 1
Formula: C11H23N5O3
SMILES: CC(C)[C@@H](C(=O)N[C@@H](CCCN=C(N)N)C(=O)O)N
Method: HCD
Collision_energy: [28.333334]
Isolation_window: 4.0
Ion_mode: P
Num Peaks: 22
60.0562	6.4
70.0657	9.8
72.0813	20.5
112.0873	2.7
115.0869	3.4
116.0710	5.4
122.0815	2.9
130.0978	1.7
142.0978	9.1
149.0236	2.2
157.1092	2.1
158.0928	8.1
168.0692	1.7
175.1193	45.2
176.1231	2.7
215.1396	2.4
239.1505	2.8
257.1610	9.4
274.1878	100.0
275.1908	13.5
276.1940	1.7
283.1653	3.1

Name: Val-Gly-Val
PrecursorMZ: 274.17582
RT: 7.7095
ExactMass: 273.16885622
Spectrum_type: 2
charge: 1
Formula: C12H23N3O4
SMILES: CC(C)[C@@H](C(=O)NCC(=O)N[C@@H](C(C)C)C(=O)O)N
Method: HCD
Collision_energy: [28.333334]
Isolation_window: 4.0
Ion_mode: P
Num Peaks: 52
60.0562	3.4
69.0339	5.3
70.0656	12.9
72.0812	6.2
84.0811	37.8
86.0966	2.5
87.0443	2.6
100.0760	6.6
101.0600	13.9
112.0758	2.5
112.0871	3.6
114.1029	8.1
116.0710	4.6
118.0864	23.0
126.0915	2.9
128.0706	2.5
129.1027	3.6
130.0865	29.1
130.0975	2.5
145.0973	4.1
146.0923	3.1
147.1128	10.4
149.0235	3.0
154.0860	2.5
175.1191	3.6
216.1228	2.4
229.1545	21.5
256.1293	3.3
258.1092	5.1
270.0770	2.7
273.1145	3.4
274.1078	5.6
274.1431	7.5
274.1759	100.0
275.1389	2.3
275.1789	14.2
276.1198	20.5
277.1454	6.7
278.1376	4.4
279.0936	4.9
280.1383	3.9
281.0484	2.4
284.0900	2.5
285.1811	8.2
286.1780	3.4
288.0863	6.6
288.1180	3.4
289.1503	2.6
290.1346	23.0
291.1186	3.6
291.1660	6.4
292.1150	4.4

Name: Val-Ile
PrecursorMZ: 231.17021
RT: 5.9332
ExactMass: 230.16304257
Spectrum_type: 2
charge: 1
Formula: C11H22N2O3
SMILES: CC[C@H](C)[C@@H](C(=O)O)NC(=O)[C@H](C(C)C)N
Method: HCD
Collision_energy: [28.333334]
Isolation_window: 4.0
Ion_mode: P
Num Peaks: 21
55.0547	2.0
69.0703	1.6
72.0812	100.0
73.0845	4.3
86.0968	54.4
87.1001	3.1
97.4001	0.9
114.0915	0.9
118.0863	1.1
132.1020	6.9
185.1649	2.9
229.1811	1.1
230.0814	2.6
230.1173	0.9
230.1385	1.2
231.0752	1.1
231.1125	1.1
231.1702	8.8
232.0605	0.9
232.0966	1.8
232.1741	1.4

Name: Val-Phe-Lys
PrecursorMZ: 197.12827
RT: 3.9898
ExactMass: 392.24235551
Spectrum_type: 2
charge: 1
Formula: C20H32N4O4
SMILES: CC(C)[C@@H](C(=O)N[C@@H](CC1=CC=CC=C1)C(=O)N[C@@H](CCCCN)C(=O)O)N
Method: HCD
Collision_energy: [28.333334]
Isolation_window: 4.0
Ion_mode: P
Num Peaks: 216
56.0497	0.6
57.0339	3.2
58.0656	1.4
60.0813	0.6
62.0606	0.6
67.0547	0.6
69.0340	1.0
69.0704	0.6
70.0656	12.1
71.0496	0.7
72.0812	9.6
74.0605	2.4
80.0498	0.8
82.0656	1.2
83.0608	2.7
84.0447	1.0
84.0708	0.5
84.0729	0.6
84.0812	72.9
85.0289	1.1
85.0651	1.5
85.0845	4.0
86.0604	1.7
86.0967	0.7
87.0444	6.8
88.0759	0.8
89.0601	1.0
94.0656	0.6
95.0608	1.3
96.0447	2.1
97.0287	1.4
97.0764	1.6
98.0602	1.0
98.0970	0.7
99.0445	0.5
100.0396	0.6
100.0761	1.2
101.0601	0.6
101.1076	4.0
102.0552	2.4
102.0916	2.8
103.0392	0.6
106.0866	0.8
108.0447	0.8
108.0810	0.5
109.0764	0.8
110.0603	3.4
110.0717	1.5
110.0966	0.5
112.0395	0.5
112.0759	3.0
112.0872	2.0
114.0914	1.4
115.0868	0.6
115.9543	0.5
116.0710	2.2
122.0603	0.6
122.0966	0.6
123.0553	1.0
124.0395	0.6
124.0761	0.7
125.0711	3.7
126.0551	6.8
126.0916	0.9
127.0392	0.5
127.0585	0.5
128.0709	1.5
128.1071	1.6
129.0826	0.6
129.1024	100.0
129.1177	0.5
129.1226	0.7
130.0864	40.6
130.0938	0.7
130.1060	6.1
131.0899	2.5
135.0918	0.5
136.0757	1.2
138.0549	1.7
138.0661	0.5
138.0912	0.6
139.0865	0.6
140.0705	0.5
140.1071	13.9
141.1006	0.9
141.1118	1.2
142.0862	0.8
143.0578	0.6
143.0815	1.2
143.1183	0.7
144.0660	1.2
144.1020	2.3
146.0830	0.5
147.1129	30.2
148.0759	0.6
148.1168	1.8
149.0711	1.4
149.1071	0.7
150.0914	3.1
150.1278	0.5
151.0865	0.8
152.0705	1.2
152.0821	0.5
153.1024	1.1
154.0863	1.6
154.1226	0.8
155.0817	0.6
156.1016	0.6
157.1336	3.0
160.0966	0.8
161.1074	0.7
161.1279	0.8
162.0550	1.7
162.0911	0.5
163.0866	5.2
164.0711	0.8
166.0860	0.8
167.0814	0.8
167.1180	11.1
168.1013	1.1
168.1221	0.5
170.0810	0.9
171.1121	0.9
172.0968	0.6
175.1187	2.2
176.6027	2.9
177.0653	0.9
177.1033	0.6
178.0836	0.9
178.0995	0.9
179.1179	5.9
180.1205	0.6
181.0971	2.9
182.0805	0.6
182.1164	1.6
184.0969	0.6
184.1334	1.0
185.1285	9.0
186.1127	10.4
186.1308	0.9
187.1070	0.7
187.1167	0.6
193.1330	1.2
195.0763	2.4
195.1125	13.1
195.1312	1.4
196.0629	1.1
196.0819	0.8
196.0962	27.2
196.1099	1.9
196.1337	2.0
196.1461	0.6
197.0989	2.8
197.1284	15.5
198.0760	10.1
198.1122	3.9
198.1305	1.3
198.1490	1.4
199.0808	0.7
199.1073	7.6
199.1428	2.8
200.1279	18.3
201.0868	0.5
201.1242	2.8
202.0866	0.7
202.1185	7.8
202.1434	5.3
202.1800	5.2
203.1010	1.1
203.1194	3.5
203.1388	47.1
203.1800	0.7
204.0664	1.8
204.1022	0.5
204.1224	6.7
204.1419	4.4
204.1599	1.2
205.0978	1.2
205.1328	1.0
206.0808	0.6
206.1020	0.5
206.1170	16.1
206.1372	2.3
207.0778	0.5
207.1122	14.2
208.0964	10.1
208.1159	1.6
208.1330	9.4
209.0918	8.6
209.1253	10.1
209.1743	1.1
210.0790	8.3
210.1118	11.6
210.1311	1.7
210.1472	0.6
211.1088	2.8
211.1438	4.6
212.0911	22.5
212.1268	4.1
212.1411	2.7
213.0929	2.2
213.1235	4.4
214.0880	0.5
214.1185	4.0
214.1435	2.9
215.1007	2.1
215.1186	0.8
215.1378	4.0
216.1018	1.1
216.1192	4.3
216.1717	0.7
217.1176	7.0
217.1537	5.9
218.1205	0.9
218.1388	9.4
219.1119	0.6

Name: Valerophenone
PrecursorMZ: 163.11171
RT: 6.9053
ExactMass: 162.104465066
Spectrum_type: 2
charge: 1
Formula: C11H14O
SMILES: CCCCC(=O)C1=CC=CC=C1
Method: HCD
Collision_energy: [28.333334]
Isolation_window: 4.0
Ion_mode: P
Num Peaks: 29
67.0546	5.4
74.0604	5.4
79.0545	15.5
81.0701	6.3
91.0544	6.6
93.0700	21.0
102.0550	3.8
107.0856	14.8
116.0707	7.7
117.0700	3.4
119.0855	40.8
120.0656	6.4
120.0887	4.8
121.1012	31.0
122.1045	3.7
135.0802	4.0
135.1167	42.4
136.0755	9.1
136.1201	4.8
145.1010	16.9
162.0761	8.2
162.1277	4.1
163.0863	3.1
163.1116	100.0
163.1228	3.0
164.0705	18.3
164.0811	4.2
164.1069	4.9
164.1150	10.4

Name: Valine + Cholic Acid
PrecursorMZ: 490.35205
RT: 1.3064
ExactMass: 507.35598828
Spectrum_type: 2
charge: 1
Formula: C29H49NO6
SMILES: C[C@H](CCC(=O)N[C@@H](C(C)C)C(=O)O)[C@H]1CC[C@@H]2[C@@]1([C@H](C[C@H]3[C@H]2[C@@H](C[C@H]4[C@@]3(CC[C@H](C4)O)C)O)O)C
Method: HCD
Collision_energy: [28.333334]
Isolation_window: 4.0
Ion_mode: P
Num Peaks: 123
52.4825	0.5
54.4837	5.9
54.5952	1.6
67.0545	0.4
69.0701	0.4
69.1682	0.5
69.9257	0.4
69.9465	0.4
70.0654	8.5
72.0811	0.5
81.0336	1.0
81.0701	0.9
82.0653	1.1
83.0494	0.8
85.0650	0.4
86.0600	0.5
86.0966	0.4
89.0597	0.5
91.0542	0.4
93.0699	1.2
95.0493	0.9
95.0856	1.3
96.0808	1.2
99.0440	0.7
100.0757	4.9
101.0598	0.5
105.0699	1.0
107.0855	1.8
109.0648	1.2
109.1012	1.2
110.0601	1.8
119.0854	1.5
120.0807	1.2
121.0647	5.2
121.1011	1.8
122.0963	0.9
123.0803	0.8
123.1167	0.5
128.0704	0.9
131.0854	0.7
133.1010	1.4
135.0802	1.7
135.1166	1.6
137.0958	1.0
138.0911	1.0
140.1067	1.4
145.1010	1.6
146.0962	0.4
146.1174	0.4
147.0802	1.7
147.1166	3.1
149.0959	0.7
149.1323	0.8
151.0751	0.4
151.1115	0.8
156.1017	2.4
158.1172	0.7
159.1166	2.0
160.1117	0.8
161.0959	4.3
161.1322	11.3
162.0990	0.4
162.1355	1.1
163.1115	1.3
164.1068	1.5
165.0908	3.9
173.1321	1.5
175.1481	0.7
177.0908	0.4
178.1223	3.3
179.1064	1.7
182.1172	0.8
185.1322	0.6
187.1479	0.6
196.1329	0.8
198.1124	0.8
199.1477	0.6
201.1119	0.7
213.1633	0.6
215.1275	0.7
215.1790	1.2
227.1789	0.4
229.1947	0.4
243.1699	4.3
244.1735	0.6
253.1947	0.4
255.2101	13.4
256.2135	2.2
271.2051	0.5
273.2206	34.1
274.2240	5.7
277.1546	0.4
357.2777	0.4
383.2935	18.8
384.2971	4.3
385.3000	0.4
394.3098	1.3
395.2934	0.6
401.3041	1.9
402.3075	0.4
412.3200	20.2
413.3241	4.9
415.2838	0.6
430.2692	0.5
430.3305	68.6
430.3906	0.4
431.3339	19.3
432.3369	1.7
454.3299	0.7
455.3144	1.4
472.3411	9.2
473.3201	0.9
473.3450	3.0
489.3173	0.8
489.3569	1.2
490.2769	0.6
490.3517	100.0
490.4256	0.7
491.2376	0.4
491.3551	28.8
492.2494	0.7
492.2766	1.2
492.3580	3.1

Name: Valine + DCA
PrecursorMZ: 492.36784
RT: 5.1536
ExactMass: 491.36107366
Spectrum_type: 2
charge: 1
Formula: C29H49NO5
SMILES: C[C@H](CCC(=O)N[C@@H](C(C)C)C(=O)O)[C@H]1CC[C@@H]2[C@@]1([C@H](C[C@H]3[C@H]2CC[C@H]4[C@@]3(CC[C@H](C4)O)C)O)C
Method: HCD
Collision_energy: [28.333334]
Isolation_window: 4.0
Ion_mode: P
Num Peaks: 147
52.7066	5.2
52.8181	1.4
54.7078	0.6
57.0703	0.4
58.0655	0.6
67.0546	1.1
69.0337	0.4
69.0702	1.3
69.4976	0.5
70.0654	0.8
71.0495	0.7
71.0858	0.7
72.0811	1.7
79.0545	0.7
81.0337	1.2
81.0701	2.8
83.0494	0.8
83.0858	0.9
84.0811	0.6
85.0650	1.0
86.0966	0.6
87.0443	0.6
91.0543	0.5
93.0700	1.4
95.0493	0.8
95.0857	2.4
97.0649	0.6
97.1013	0.6
99.0441	0.5
99.0805	1.0
100.0758	4.7
101.0598	0.8
105.0699	0.9
107.0856	1.7
109.0284	0.5
109.0648	0.6
109.1012	1.6
110.0601	0.4
111.0440	0.9
111.0805	0.5
113.0598	0.4
113.0962	0.4
114.1026	1.0
116.0706	0.7
117.0699	0.4
119.0855	1.1
120.0807	0.6
121.0648	0.7
121.1011	1.5
123.0805	0.7
123.1168	0.8
124.0757	0.4
125.0960	0.7
126.0913	0.6
127.0754	0.4
128.0705	10.5
129.0545	0.4
129.0740	0.5
131.0855	1.0
133.0648	0.5
133.1010	1.3
135.0803	0.9
135.1166	1.1
137.0597	0.5
137.0959	0.7
138.0912	0.4
140.1068	1.5
141.0544	0.6
142.0860	0.4
142.0973	64.1
142.1090	0.5
143.0811	1.9
143.0944	0.6
143.1005	3.1
144.0764	0.5
145.1010	1.2
147.0802	0.5
147.1166	1.7
149.0959	0.7
149.1324	0.7
151.0753	0.4
151.1117	0.5
156.1018	1.1
157.1010	0.6
158.1175	0.7
159.1167	0.9
161.0960	0.7
161.1323	1.9
163.1118	0.4
163.1481	0.5
165.0908	0.8
166.0862	0.7
171.1166	0.7
173.1324	0.9
175.0752	0.6
175.1481	0.5
177.0909	1.1
177.1273	0.5
178.1225	0.5
180.1017	0.9
183.1169	0.5
184.0727	0.4
185.1323	0.8
187.1480	0.7
189.1274	0.4
199.1478	0.5
201.0329	0.6
201.1637	0.4
203.1428	0.5
210.1121	0.9
213.1226	0.4
221.1533	0.5
255.2103	0.8
281.2258	1.6
291.1694	0.4
295.2266	0.5
299.2363	2.5
300.2397	0.6
303.1698	0.8
317.2468	0.9
396.3257	0.9
414.3358	2.2
427.3209	0.6
455.2796	0.4
456.3460	1.2
457.2955	0.6
473.3591	0.4
474.2874	0.8
474.3005	0.6
474.3570	100.0
474.4121	0.4
474.4281	0.7
475.3045	0.8
475.3603	29.8
476.3634	3.1
491.1887	0.5
491.1950	0.4
491.3750	0.9
492.2107	0.4
492.2426	0.4
492.3028	0.9
492.3345	0.8
492.3673	12.1
493.3155	0.7
493.3705	3.9
494.2274	1.1
494.2877	0.9

Name: Valine + HDCA
PrecursorMZ: 492.36791
RT: 2.1443
ExactMass: 491.36107366
Spectrum_type: 2
charge: 1
Formula: C29H49NO5
SMILES: C[C@H](CCC(=O)N[C@@H](C(C)C)C(=O)O)[C@H]1CC[C@@H]2[C@@]1(CC[C@H]3[C@H]2C[C@@H]([C@H]4[C@@]3(CC[C@H](C4)O)C)O)C
Method: HCD
Collision_energy: [28.333334]
Isolation_window: 4.0
Ion_mode: P
Num Peaks: 59
50.7041	1.3
50.7054	5.5
50.8169	1.5
52.7066	4.6
52.8181	1.3
54.5890	2.9
54.7078	3.7
67.0546	2.4
69.0702	4.0
81.0702	4.0
83.0858	1.8
93.0701	1.8
95.0858	4.7
97.1014	2.0
107.0856	1.6
109.1012	2.5
121.1012	1.4
123.1167	1.5
137.0961	1.5
149.0959	1.4
150.0912	3.4
152.1071	1.6
161.0835	1.4
162.0915	1.9
164.1069	38.4
165.1101	3.8
175.1119	2.3
176.1068	21.3
177.1102	1.9
180.1016	1.8
188.1065	2.0
190.1226	2.8
199.1114	2.8
202.1226	4.0
203.1305	5.3
204.1382	18.3
205.1413	2.4
396.3254	11.9
410.3045	1.3
410.3413	3.8
414.3361	30.6
428.3144	1.6
438.3362	19.3
439.3400	5.1
441.3217	1.4
456.3467	100.0
457.3503	27.3
458.3537	3.4
474.3573	85.2
475.3605	24.9
476.3625	2.5
491.2992	56.3
492.3048	16.1
492.3679	69.6
493.2987	6.1
493.3715	22.7
494.2931	14.1
494.3734	2.1
494.4924	4.9

Name: Valine + alphaMCA
PrecursorMZ: 490.35211
RT: 0.9399
ExactMass: 507.35598828
Spectrum_type: 2
charge: 1
Formula: C29H49NO6
SMILES: C[C@H](CCC(=O)N[C@@H](C(C)C)C(=O)O)[C@H]1CC[C@@H]2[C@@]1(CC[C@H]3[C@H]2[C@@H]([C@H]([C@H]4[C@@]3(CC[C@H](C4)O)C)O)O)C
Method: HCD
Collision_energy: [28.333334]
Isolation_window: 4.0
Ion_mode: P
Num Peaks: 22
54.4838	5.0
70.0654	8.1
97.4563	11.2
100.0758	6.1
121.0647	6.1
147.1164	5.4
161.0959	5.1
161.1322	15.8
255.2101	18.2
273.2206	36.7
274.2242	7.2
383.2935	18.2
384.2970	5.4
394.3096	12.5
412.3201	24.0
430.3306	68.9
431.3340	17.8
472.3413	6.7
473.3445	5.2
490.3516	100.0
491.3550	29.2
492.2771	18.1

Name: Valine betaine
PrecursorMZ: 160.13317
RT: 9.474
ExactMass: 160.133753817
Spectrum_type: 2
charge: 1
Formula: C8H18NO2+
SMILES: CC(C)[C@@H](C(=O)O)[N+](C)(C)C
Method: HCD
Collision_energy: [28.333334]
Isolation_window: 4.0
Ion_mode: P
Num Peaks: 14
55.0546	5.2
58.0655	6.3
60.0812	25.0
100.0757	7.0
101.0597	29.4
102.0913	6.4
103.0391	19.1
114.0913	5.3
158.1175	9.6
158.1536	13.3
160.0966	40.3
160.1330	73.7
161.1364	5.3
162.1123	100.0

Name: Valine conjugated cholic acid
PrecursorMZ: 490.35201
RT: 1.3055
ExactMass: 507.35598828
Spectrum_type: 2
charge: 1
Formula: C29H49NO6
SMILES: C[C@H](CCC(=O)NC(C(C)C)C(=O)O)[C@H]1CC[C@@H]2[C@@]1([C@H](C[C@H]3[C@H]2[C@@H](C[C@H]4[C@@]3(CC[C@H](C4)O)C)O)O)C
Method: HCD
Collision_energy: [28.333334]
Isolation_window: 4.0
Ion_mode: P
Num Peaks: 112
52.4826	0.5
54.4837	5.8
54.5889	1.0
54.5952	1.7
56.0499	1.1
67.0544	0.6
69.8691	0.5
70.0654	9.1
81.0337	1.3
81.0701	1.2
82.0653	1.3
83.0493	0.9
86.0601	0.5
91.0543	0.5
93.0699	1.3
95.0492	0.8
95.0856	1.6
96.0809	1.3
97.3994	0.4
100.0758	6.1
105.0699	1.1
107.0491	0.6
107.0855	2.2
109.0648	1.3
109.1012	1.4
110.0601	2.1
114.0913	0.5
117.0699	0.4
119.0855	1.6
120.0807	1.5
121.0647	6.3
121.1011	2.2
122.0680	0.5
122.0964	1.3
123.0803	0.7
123.1166	0.7
128.0704	1.1
131.0854	0.8
133.1010	1.8
135.0803	1.8
135.1166	2.4
137.0960	0.9
138.0911	1.4
140.1068	1.9
145.1010	1.8
147.0802	1.9
147.1166	4.5
148.1198	0.6
149.0959	0.8
149.1323	1.3
151.1115	1.0
156.1018	2.9
158.1174	0.8
159.1166	2.9
160.1119	0.8
161.0959	4.6
161.1323	13.8
162.1356	1.6
163.1116	1.7
164.1069	2.0
165.0908	4.9
166.0943	0.4
173.1322	2.2
175.1479	0.4
178.1224	4.1
179.1064	2.1
180.1015	0.5
182.1173	0.9
185.1320	0.6
187.1477	0.7
189.1633	0.4
196.1328	1.1
198.1121	0.7
199.1478	0.9
200.1276	0.4
201.1634	0.4
213.1631	0.9
215.1790	1.6
227.1792	0.5
229.1947	0.5
255.2102	20.6
256.2135	4.0
271.2052	0.4
273.2207	36.4
274.2241	7.0
357.2779	0.7
372.2569	1.1
383.2937	18.2
384.2972	4.8
394.3100	1.5
395.2923	0.8
401.3039	1.6
412.3202	21.2
413.3239	5.6
414.3272	0.6
415.2836	0.7
430.2710	0.4
430.3308	69.9
431.3341	19.2
432.3373	1.8
454.3303	0.4
472.3414	9.0
473.2169	1.1
473.3447	2.8
489.2896	0.7
489.3314	1.7
490.2777	0.6
490.3521	100.0
491.2995	16.1
491.3553	29.0
492.3019	2.6
492.3576	3.3

Name: Valproic Acid
PrecursorMZ: 145.1224
RT: 0.5851
ExactMass: 144.115029749
Spectrum_type: 2
charge: 1
Formula: C8H16O2
SMILES: CCCC(CCC)C(=O)O
Method: HCD
Collision_energy: [28.333334]
Isolation_window: 4.0
Ion_mode: P
Num Peaks: 40
57.0339	1.3
57.0704	4.2
58.0657	3.4
59.0496	1.3
67.0548	3.3
69.0339	1.8
69.0705	1.7
81.0703	3.2
86.0604	2.4
89.0601	100.0
90.0634	4.3
93.0702	3.2
95.0859	4.7
97.0651	1.9
105.0338	3.9
105.0700	1.6
107.0706	2.6
107.0858	4.7
109.0653	1.5
109.1015	3.6
111.0808	1.4
114.1280	1.5
119.0854	1.8
121.0289	1.4
121.1014	1.8
121.9664	1.3
133.0858	2.3
147.1166	1.6
149.0235	6.3
149.0967	1.3
149.1328	1.5
151.0969	4.5
153.1276	1.9
157.1702	2.0
158.1542	7.9
159.1168	1.4
163.0758	1.9
166.0892	3.9
167.1546	3.2
168.0688	7.5

Name: Valpromide
PrecursorMZ: 144.13809
RT: 1.15355
ExactMass: 143.131014166
Spectrum_type: 2
charge: 1
Formula: C8H17NO
SMILES: CCCC(CCC)C(=O)N
Method: HCD
Collision_energy: [28.333334]
Isolation_window: 4.0
Ion_mode: P
Num Peaks: 16
57.0702	9.8
60.0811	5.9
62.9294	8.0
69.3222	7.0
69.3597	6.4
69.4818	8.5
71.0494	10.1
74.0966	7.6
86.0966	16.8
87.0443	12.9
88.0758	84.1
121.9659	29.9
144.1379	100.0
145.1412	9.6
146.0633	12.5
146.1174	9.1

Name: Valylleucine
PrecursorMZ: 231.17021
RT: 6.019
ExactMass: 230.16304257
Spectrum_type: 2
charge: 1
Formula: C11H22N2O3
SMILES: CC(C)C[C@@H](C(=O)O)NC(=O)[C@H](C(C)C)N
Method: HCD
Collision_energy: [28.333334]
Isolation_window: 4.0
Ion_mode: P
Num Peaks: 24
55.0547	2.2
72.0812	100.0
73.0846	3.6
86.0968	58.2
87.1001	2.8
97.3996	2.2
114.0915	3.4
118.0864	1.8
132.1019	6.4
176.8751	2.5
185.0709	5.1
185.1645	1.8
212.0742	2.6
229.1816	3.4
230.0813	5.8
230.1384	1.6
230.2478	11.6
231.0761	6.2
231.1128	1.9
231.1702	6.6
231.2512	2.0
232.0972	4.6
233.0920	3.4
233.1285	4.0

Name: Valyltryptophan
PrecursorMZ: 304.16508
RT: 4.7
ExactMass: 303.15829154
Spectrum_type: 2
charge: 1
Formula: C16H21N3O3
SMILES: CC(C)[C@@H](C(=O)N[C@@H](CC1=CNC2=CC=CC=C21)C(=O)O)N
Method: HCD
Collision_energy: [28.333334]
Isolation_window: 4.0
Ion_mode: P
Num Peaks: 66
55.0546	1.6
60.0448	22.0
67.0546	2.7
69.0238	3.5
69.0702	3.6
72.0811	17.3
81.0337	2.2
81.0701	4.0
83.0857	3.9
86.0966	13.3
87.1000	1.9
95.0856	5.0
97.4577	2.3
98.0601	4.6
109.1013	2.3
116.0706	8.1
124.0755	1.7
127.0865	1.9
130.0649	15.8
132.0806	28.0
133.0840	2.4
144.0806	40.7
145.0838	3.8
159.0915	100.0
160.0758	2.7
160.0948	11.2
163.1226	1.9
164.0700	2.2
170.0598	20.6
171.0632	2.4
174.0659	8.1
180.1017	7.8
185.1645	5.0
186.1680	1.6
187.0862	1.6
188.0702	2.8
213.1593	3.1
241.1335	2.7
242.2475	5.2
245.1282	2.1
254.2834	4.4
257.1277	5.8
258.1117	3.1
259.1436	6.7
260.1278	1.6
266.2837	2.0
284.2942	21.4
285.1227	2.4
285.2976	6.9
286.1062	2.3
287.1383	72.7
288.1415	10.8
302.2689	3.0
302.3047	18.5
303.1330	7.9
303.1689	5.7
303.3082	7.0
304.1168	8.4
304.1651	17.9
305.1132	1.7
305.1472	5.4
305.1660	1.5
305.1828	3.6
306.1325	3.6
306.1455	1.6
306.1814	2.9

Name: Vanillic Acid
PrecursorMZ: 169.04962
RT: 6.3554
ExactMass: 168.04225873
Spectrum_type: 2
charge: 1
Formula: C8H8O4
SMILES: COC1=C(C=CC(=C1)C(=O)O)O
Method: HCD
Collision_energy: [28.333334]
Isolation_window: 4.0
Ion_mode: P
Num Peaks: 40
67.0547	1.7
70.0655	1.5
71.0132	1.5
81.0339	4.9
84.0447	4.0
86.0604	1.6
87.0444	2.1
95.0494	2.2
96.0811	6.1
97.0286	2.9
107.0858	2.1
109.0286	48.4
110.0320	3.1
111.0443	4.6
114.0552	4.0
121.0165	2.3
121.0762	3.1
122.0602	1.4
123.0111	1.4
123.0918	1.5
124.0758	100.0
125.0791	3.6
127.0391	15.5
142.0501	2.6
142.0863	1.8
144.0326	4.4
152.0344	2.5
152.0708	3.9
167.0704	2.6
167.0811	1.7
167.1544	26.0
168.0692	12.1
168.1019	1.8
168.1576	3.6
168.1746	1.6
169.0496	18.6
169.0973	1.4
170.0530	1.7
170.0812	8.5
170.1175	1.5

Name: Vanillin
PrecursorMZ: 153.05457
RT: 6.7867
ExactMass: 152.047344113
Spectrum_type: 2
charge: 1
Formula: C8H8O3
SMILES: COC1=C(C=CC(=C1)C=O)O
Method: HCD
Collision_energy: [28.333334]
Isolation_window: 4.0
Ion_mode: P
Num Peaks: 21
79.0545	2.5
95.0493	3.4
97.0649	2.1
110.0601	2.5
111.0441	9.3
113.0458	4.3
125.0596	100.0
126.0628	5.9
129.0545	5.4
134.0636	3.0
138.0409	4.0
152.0566	11.2
152.0703	10.3
152.1068	2.0
153.0410	3.4
153.0544	45.8
153.0657	2.5
154.0497	11.1
154.0582	3.2
154.0862	5.6
155.0677	2.1

Name: Varanic acid
PrecursorMZ: 431.31612
RT: 1.10565
ExactMass: 466.32943918
Spectrum_type: 2
charge: 1
Formula: C27H46O6
SMILES: C[C@H](CCC(C(C)C(=O)O)O)[C@H]1CC[C@@H]2[C@@]1([C@H](C[C@H]3[C@H]2[C@@H](C[C@H]4[C@@]3(CC[C@H](C4)O)C)O)O)C
Method: HCD
Collision_energy: [28.333334]
Isolation_window: 4.0
Ion_mode: P
Num Peaks: 23
67.0546	3.7
69.5589	3.1
85.0651	4.3
95.0493	9.7
95.0857	4.2
107.0857	3.0
109.1014	3.4
113.0598	13.1
121.1012	3.6
147.1168	4.7
149.0961	3.4
161.1325	44.2
162.1359	5.4
179.1068	3.5
253.1948	14.4
269.1900	3.1
271.2055	12.8
272.2089	3.8
289.2159	77.9
290.2192	16.6
430.3035	5.7
431.3152	100.0
432.3185	30.3

Name: Varenicline
PrecursorMZ: 212.11812
RT: 6.0889
ExactMass: 211.110947427
Spectrum_type: 2
charge: 1
Formula: C13H13N3
SMILES: C1[C@@H]2CNC[C@H]1C3=CC4=NC=CN=C4C=C23
Method: HCD
Collision_energy: [28.333334]
Isolation_window: 4.0
Ion_mode: P
Num Peaks: 28
94.0653	25.2
114.0914	2.0
119.0605	28.3
120.0445	1.7
120.0638	2.1
126.0552	1.8
152.0709	2.8
152.1071	3.2
166.0863	1.6
168.0690	4.7
193.1335	3.9
194.0811	3.9
194.1175	3.2
195.0916	10.8
196.0953	1.7
210.1125	4.0
211.1075	4.5
211.1439	11.2
212.0916	6.8
212.1024	3.0
212.1182	100.0
212.1257	3.1
213.0659	3.5
213.1025	2.8
213.1218	13.4
213.1594	1.8
213.2324	2.5
214.1073	2.0

Name: Venlafaxine N-Oxide
PrecursorMZ: 294.20608
RT: 7.5163
ExactMass: 293.19909372
Spectrum_type: 2
charge: 1
Formula: C17H27NO3
SMILES: C[N+](C)(CC(C1=CC=C(C=C1)OC)C2(CCCCC2)O)[O-]
Method: HCD
Collision_energy: [28.333334]
Isolation_window: 4.0
Ion_mode: P
Num Peaks: 29
86.0968	10.8
91.0545	2.9
100.1123	30.9
101.0236	11.1
101.1156	2.7
119.0340	14.4
119.0492	7.4
121.0650	30.4
132.1019	3.8
133.0649	3.7
151.0755	11.6
166.0865	2.9
193.0860	35.2
194.0895	4.3
212.1279	2.6
230.1387	8.9
249.1724	5.7
258.1335	10.2
276.1442	22.9
293.0634	2.6
293.1486	4.0
293.1852	3.9
294.1334	4.0
294.1540	3.9
294.1700	8.6
294.2062	100.0
295.1643	4.4
295.2102	16.6
296.1856	4.4

Name: Veratraldehyde
PrecursorMZ: 167.0703
RT: 7.9121
ExactMass: 166.062994177
Spectrum_type: 2
charge: 1
Formula: C9H10O3
SMILES: COC1=C(C=C(C=C1)C=O)OC
Method: HCD
Collision_energy: [28.333334]
Isolation_window: 4.0
Ion_mode: P
Num Peaks: 82
55.0183	2.2
67.0546	2.4
69.0339	1.3
69.0703	0.9
70.0655	1.7
74.0241	1.2
78.9674	0.7
79.0546	3.5
81.0338	0.7
81.0703	1.5
82.0655	0.7
83.0495	1.6
83.0859	1.0
84.9600	3.6
85.0287	1.0
91.0545	3.0
93.0702	6.7
94.0653	0.8
95.0494	2.0
95.0858	3.0
97.0651	3.2
98.0602	1.0
103.0546	0.8
105.0701	2.2
107.0494	2.9
107.0857	4.1
108.0445	0.7
108.0810	0.8
109.0650	1.1
109.1014	1.0
111.0443	8.7
111.0806	4.3
119.0857	8.8
120.0809	22.2
120.0890	1.6
121.0649	11.2
121.0842	1.9
121.1013	2.3
122.0602	2.8
122.0683	0.8
123.0113	0.8
123.0442	2.2
123.0555	1.2
123.0805	2.2
124.0757	1.0
125.0599	2.2
125.0713	1.2
126.0550	1.5
129.0547	3.5
131.0491	0.6
137.0962	3.6
138.0550	3.6
138.0914	2.0
138.0996	0.7
139.0389	0.6
139.0642	0.7
139.0754	100.0
139.0867	1.1
139.1116	1.2
140.0707	1.7
140.0783	7.4
147.0805	1.2
149.0597	2.8
149.0962	1.7
150.0549	1.7
151.0758	1.0
165.0551	1.3
165.0910	1.7
165.1275	1.2
166.0498	2.0
166.0867	3.9
167.0566	1.6
167.0703	33.9
167.0804	4.1
167.1067	2.3
167.1543	9.7
168.0683	5.8
168.0753	1.5
168.1018	1.7
168.1576	0.8
169.0608	1.6
169.0863	0.8

Name: Vernakalant
PrecursorMZ: 350.23243
RT: 4.1431
ExactMass: 349.22530847
Spectrum_type: 2
charge: 1
Formula: C20H31NO4
SMILES: COC1=C(C=C(C=C1)CCO[C@@H]2CCCC[C@H]2N3CC[C@H](C3)O)OC
Method: HCD
Collision_energy: [28.333334]
Isolation_window: 4.0
Ion_mode: P
Num Peaks: 12
111.0443	6.7
166.0864	10.2
199.1481	7.1
269.1898	10.3
279.1742	4.7
291.1703	5.0
297.1846	22.2
315.1952	5.0
333.2059	100.0
334.2093	21.4
350.2321	37.7
351.2360	9.4

Name: Vernolic acid
PrecursorMZ: 279.23152
RT: 1.583
ExactMass: 296.23514488
Spectrum_type: 2
charge: 1
Formula: C18H32O3
SMILES: CCCCCC1C(O1)C/C=C\CCCCCCCC(=O)O
Method: HCD
Collision_energy: [28.333334]
Isolation_window: 4.0
Ion_mode: P
Num Peaks: 89
55.0546	8.3
57.0703	35.1
67.0546	66.5
69.0702	35.6
69.4371	2.9
71.0494	3.6
71.0858	54.0
73.0650	3.1
79.0545	13.6
81.0701	100.0
82.0734	3.3
83.0493	3.6
83.0857	27.6
85.0650	5.2
85.1013	3.8
91.0543	5.7
93.0700	13.7
95.0856	79.2
96.0891	4.0
97.0648	5.7
97.1012	25.6
99.0805	5.2
105.0699	8.0
107.0855	26.2
109.0648	2.3
109.1012	38.2
111.0805	3.8
111.1168	9.0
119.0854	8.3
120.0807	17.9
121.1011	16.4
123.0802	3.5
123.1167	30.4
124.0755	3.9
125.0959	3.9
125.1323	2.5
131.0853	4.8
133.1009	12.6
134.0810	2.1
135.1166	12.2
137.0596	4.6
137.0958	4.5
137.1322	12.0
138.0630	4.1
141.1271	25.8
145.1010	3.4
147.1166	11.0
149.1323	9.3
151.1116	4.4
151.1479	6.4
153.1272	3.0
159.1166	3.9
161.1322	8.0
163.1479	4.8
165.0546	2.8
165.1269	3.6
173.1323	5.3
175.1479	3.9
179.0700	6.8
179.1428	4.4
189.1635	2.8
191.1061	3.1
195.1374	3.2
201.0907	4.4
205.0858	2.8
209.1535	2.4
219.1011	19.6
220.1047	3.0
229.0853	3.0
237.1118	6.3
243.2103	3.5
245.2259	6.9
247.0958	11.1
249.1115	3.4
253.2520	2.4
261.1116	2.5
261.2207	4.8
263.1270	5.9
263.2363	4.8
277.2157	5.0
278.2192	4.6
279.0927	4.2
279.1218	2.9
279.1696	2.8
279.2312	34.1
280.1171	2.3
280.2348	6.1
280.2628	3.5
281.2477	3.6

Name: Verrucarol
PrecursorMZ: 267.15883
RT: 0.8586
ExactMass: 266.15180918
Spectrum_type: 2
charge: 1
Formula: C15H22O4
SMILES: CC1=C[C@@H]2[C@](CC1)([C@]3([C@@H](C[C@H]([C@@]34CO4)O2)O)C)CO
Method: HCD
Collision_energy: [28.333334]
Isolation_window: 4.0
Ion_mode: P
Num Peaks: 6
119.0853	13.6
157.1010	100.0
158.1043	14.6
175.1114	34.4
185.1322	29.4
231.1377	12.2

Name: Verruculogen
PrecursorMZ: 512.23871
RT: 5.7755
ExactMass: 511.2318504
Spectrum_type: 2
charge: 1
Formula: C27H33N3O7
SMILES: CC(=C[C@@H]1N2C3=C(C=CC(=C3)OC)C4=C2[C@H](CC(OO1)(C)C)N5C(=O)[C@@H]6CCCN6C(=O)[C@@]5([C@H]4O)O)C
Method: HCD
Collision_energy: [28.333334]
Isolation_window: 4.0
Ion_mode: P
Num Peaks: 30
55.0543	4.2
56.9155	4.4
70.0654	5.1
72.0808	2.6
83.0857	10.3
86.0966	5.9
120.0803	2.9
126.0912	13.7
136.0755	3.1
180.1012	4.8
181.1097	3.2
188.0704	3.3
198.0547	3.5
258.0754	10.6
268.1198	5.8
313.1173	7.0
314.1250	7.2
315.1312	2.7
326.1251	4.4
327.1316	3.7
341.1487	9.4
369.1430	3.2
372.1310	4.3
373.1385	3.8
383.1591	2.7
387.1541	100.0
388.1575	17.2
511.2455	2.6
512.2382	73.6
513.2411	21.0

Name: Verticinone
PrecursorMZ: 430.3311
RT: 6.0065
ExactMass: 429.32429423
Spectrum_type: 2
charge: 1
Formula: C27H43NO3
SMILES: C[C@H]1CC[C@H]2[C@@]([C@H]3CC[C@@H]4[C@H]([C@@H]3CN2C1)C[C@H]5[C@H]4CC(=O)[C@@H]6[C@@]5(CC[C@@H](C6)O)C)(C)O
Method: HCD
Collision_energy: [28.333334]
Isolation_window: 4.0
Ion_mode: P
Num Peaks: 34
69.2852	0.4
81.0338	0.9
81.0702	0.4
95.0857	0.5
97.4314	0.4
100.0758	2.7
107.0855	0.4
110.0601	0.5
114.0662	0.7
116.0706	0.7
128.0705	19.2
129.0738	1.0
140.1069	1.5
147.1166	0.7
155.0939	0.4
156.1019	1.1
159.1168	0.5
161.1324	1.8
176.8752	0.9
255.2104	1.9
256.2146	0.4
273.2209	2.9
274.2242	0.5
383.2937	0.4
412.2847	0.4
412.3205	0.5
429.3203	3.1
430.2698	0.6
430.2822	0.5
430.3310	100.0
430.3788	0.4
430.3922	0.6
431.3343	27.0
432.3373	1.1

Name: Vidarabine
PrecursorMZ: 268.10374
RT: 5.807
ExactMass: 267.09675391
Spectrum_type: 2
charge: 1
Formula: C10H13N5O4
SMILES: C1=NC(=C2C(=N1)N(C=N2)[C@H]3[C@H]([C@@H]([C@H](O3)CO)O)O)N
Method: HCD
Collision_energy: [28.333334]
Isolation_window: 4.0
Ion_mode: P
Num Peaks: 99
56.0499	0.9
57.0339	0.6
58.0655	0.5
70.0654	0.8
72.0811	0.8
74.0603	14.5
75.0637	0.5
81.0337	1.4
84.0446	0.5
84.0810	1.6
85.0286	0.6
86.0966	0.7
89.0599	0.5
95.0604	6.1
102.0550	0.5
108.0444	0.5
110.0712	1.1
111.0440	0.6
112.0869	2.7
113.0709	0.4
116.0705	0.5
120.0807	6.9
121.0646	0.4
121.0840	0.5
122.0599	1.0
124.0754	0.6
124.1119	0.5
126.0548	0.7
136.0507	0.7
136.0615	100.0
136.0726	0.6
136.0753	1.3
137.0456	0.5
137.0586	2.0
137.0648	4.6
138.0548	0.4
144.0806	12.5
145.0841	0.7
146.0597	0.5
148.0754	0.6
148.1118	0.6
150.0547	0.4
151.0614	0.9
152.0567	0.9
153.0404	0.7
156.0765	1.1
166.0530	0.8
166.0860	8.0
167.0812	0.8
167.0893	0.8
172.0754	1.4
176.0701	0.5
188.0704	1.0
192.0651	0.6
196.1075	0.6
203.1018	0.7
204.0650	0.4
206.0803	0.6
208.0966	0.8
211.1073	0.9
221.1279	2.1
222.1229	0.4
223.1432	0.5
233.0912	0.5
234.0757	0.6
249.1225	1.6
250.1062	0.9
250.1180	0.4
250.1427	0.5
250.1541	1.1
251.1015	0.7
251.1381	0.8
252.0859	1.7
266.1017	2.5
266.1376	2.1
266.1494	0.8
266.1733	1.5
267.0988	0.7
267.1116	3.1
267.1327	9.3
267.1439	0.5
267.1693	9.7
268.1031	14.6
268.1167	3.8
268.1289	3.5
268.1528	2.5
268.1648	7.1
268.1892	0.5
269.0908	0.7
269.1107	2.2
269.1272	2.2
269.1486	4.5
269.1678	0.7
269.1851	2.8
270.0961	3.6
270.1114	2.7
270.1319	0.8
270.1438	1.9
270.1688	0.7

Name: Vincadifformine
PrecursorMZ: 361.19001
RT: 1.1537
ExactMass: 338.199428076
Spectrum_type: 2
charge: 1
Formula: C21H26N2O2
SMILES: CC[C@@]12CCCN3[C@@H]1[C@@]4(CC3)C5=CC=CC=C5NC4=C(C2)C(=O)OC
Method: HCD
Collision_energy: [28.333334]
Isolation_window: 4.0
Ion_mode: P
Num Peaks: 5
97.4318	16.8
112.8957	32.5
361.1905	100.0
362.1929	20.1
362.2404	39.0

Name: Vincamine
PrecursorMZ: 355.20137
RT: 1.2087
ExactMass: 354.1943427
Spectrum_type: 2
charge: 1
Formula: C21H26N2O3
SMILES: CC[C@@]12CCCN3[C@@H]1C4=C(CC3)C5=CC=CC=C5N4[C@](C2)(C(=O)OC)O
Method: HCD
Collision_energy: [28.333334]
Isolation_window: 4.0
Ion_mode: P
Num Peaks: 92
58.0656	4.7
60.0813	16.0
70.0656	3.5
81.0338	5.2
83.0494	1.4
84.0811	2.1
95.0494	1.6
96.0448	5.3
96.0812	1.6
98.0969	2.3
101.0601	1.3
103.0544	6.2
105.0701	13.2
108.0448	1.6
110.0603	6.4
111.0443	5.4
114.0665	4.5
116.0708	1.7
120.0810	18.5
121.0844	1.3
130.0653	1.5
131.0493	6.3
144.0809	6.4
146.0602	32.7
147.0632	3.5
149.0600	1.4
152.0707	2.6
164.0705	3.1
166.0864	6.7
172.0759	1.6
174.0553	1.5
176.0707	5.4
188.0707	11.0
189.0762	1.5
192.0655	7.7
207.1128	2.7
222.1285	4.1
223.1318	1.4
225.1235	2.1
233.0910	2.1
250.1233	3.9
251.1031	1.3
254.1186	3.2
256.1294	3.9
268.1337	5.7
296.1286	2.2
309.1966	1.8
339.1361	1.6
340.1199	1.6
352.1169	3.0
354.1304	6.6
354.2038	3.7
355.1378	5.9
355.2018	100.0
356.1121	1.3
356.1529	7.1
356.2047	24.9
357.1450	4.6
357.1820	9.3
358.1291	4.6
358.1682	7.7
359.1241	1.4
359.1630	5.3
360.1474	5.4
360.1841	3.3
361.1400	6.2
361.1785	5.5
362.1625	4.7
363.1543	5.0
363.1935	2.7
364.1814	2.0
365.1720	3.8
365.2109	1.5
366.1373	3.2
366.2399	3.6
367.1312	2.6
367.1871	2.2
367.2341	1.5
368.1124	1.9
368.1484	3.7
368.1948	2.5
369.1454	4.6
369.1852	2.3
370.1288	13.1
370.1705	4.1
371.1609	4.8
371.1986	2.6
372.1408	8.1
372.1912	4.0
373.1376	3.8
373.1896	2.0
374.1605	1.8

Name: Vindolinine
PrecursorMZ: 359.17084
RT: 2.916
ExactMass: 336.183778013
Spectrum_type: 2
charge: 1
Formula: C21H24N2O2
SMILES: C[C@@H]1[C@]23C[C@H]([C@@]14[C@@]5([C@H]2N(CC5)CC=C3)C6=CC=CC=C6N4)C(=O)OC
Method: HCD
Collision_energy: [28.333334]
Isolation_window: 4.0
Ion_mode: P
Num Peaks: 15
70.0654	5.9
120.0807	25.3
166.0973	5.0
184.1078	77.5
185.1113	5.8
227.1174	4.4
245.1281	8.4
286.1546	11.8
297.1230	6.9
331.1758	12.0
341.1604	4.6
357.2783	8.2
359.1706	100.0
360.1741	20.1
361.1753	10.0

Name: Viridiflorine
PrecursorMZ: 286.20083
RT: 8.1213
ExactMass: 285.19400834
Spectrum_type: 2
charge: 1
Formula: C15H27NO4
SMILES: C[C@@H]([C@@](C(C)C)(C(=O)OC[C@@H]1CCN2[C@H]1CCC2)O)O
Method: HCD
Collision_energy: [28.333334]
Isolation_window: 4.0
Ion_mode: P
Num Peaks: 24
55.0546	4.3
69.6647	4.1
101.0598	11.6
122.0601	7.1
138.0548	4.7
168.0652	7.6
169.0966	3.7
196.1079	9.3
209.1278	7.0
210.1484	6.6
222.1120	6.9
238.1070	14.8
250.1798	4.1
268.1172	11.9
268.1901	27.3
269.1491	7.8
269.1939	4.3
286.1278	69.7
286.2006	76.2
287.1315	10.6
287.1594	100.0
287.2045	9.9
288.1212	6.5
288.1640	8.9

Name: Visnagin
PrecursorMZ: 231.06903
RT: 12.9874
ExactMass: 230.0579088
Spectrum_type: 2
charge: 1
Formula: C13H10O4
SMILES: CC1=CC(=O)C2=C(O1)C=C3C(=C2OC)C=CO3
Method: HCD
Collision_energy: [28.333334]
Isolation_window: 4.0
Ion_mode: P
Num Peaks: 6
62.9821	100.0
69.5820	9.9
112.0870	6.5
118.0862	29.8
191.0764	42.2
231.0687	26.4

Name: Vitamin D3
PrecursorMZ: 385.34555
RT: 1.3059
ExactMass: 384.339216023
Spectrum_type: 2
charge: 1
Formula: C27H44O
SMILES: C[C@H](CCCC(C)C)[C@H]1CC[C@@H]\2[C@@]1(CCC/C2=C\C=C/3\C[C@H](CCC3=C)O)C
Method: HCD
Collision_energy: [28.333334]
Isolation_window: 4.0
Ion_mode: P
Num Peaks: 23
67.0545	14.2
69.0701	14.6
81.0700	24.7
83.0856	16.5
95.0855	31.7
97.1011	14.3
107.0854	19.0
109.1011	23.7
121.1010	15.8
133.1009	14.4
135.1164	14.7
149.1321	12.3
161.1320	17.9
167.9932	26.7
255.2104	16.8
292.0811	35.0
366.2993	13.4
367.3340	32.6
368.3377	12.2
384.1284	23.2
384.3306	13.6
385.3449	100.0
386.3478	26.5

Name: Voacangarine
PrecursorMZ: 385.21161
RT: 3.1749
ExactMass: 384.20490738
Spectrum_type: 2
charge: 1
Formula: C22H28N2O4
SMILES: C[C@@H]([C@H]1C[C@@H]2C[C@@]3([C@H]1N(C2)CCC4=C3NC5=C4C=C(C=C5)OC)C(=O)OC)O
Method: HCD
Collision_energy: [28.333334]
Isolation_window: 4.0
Ion_mode: P
Num Peaks: 33
70.0653	1.9
72.0811	43.2
73.0844	1.5
81.0337	3.8
89.1076	1.7
107.0491	31.9
108.0525	1.6
111.0441	2.2
121.0647	1.4
149.0595	10.4
178.0860	2.2
219.1488	5.6
220.1242	1.5
220.1328	100.0
221.1362	13.3
237.1593	66.6
238.1629	9.1
331.1898	1.6
384.1051	2.5
384.1420	4.6
384.1673	2.0
385.0917	2.2
385.1425	2.4
385.1770	1.6
385.2114	67.4
385.3087	3.4
386.1030	1.6
386.1209	1.3
386.1251	1.3
386.1593	4.1
386.2150	14.6
387.1562	2.0
387.2180	1.7

Name: Walleminone
PrecursorMZ: 253.17971
RT: 5.4264
ExactMass: 252.17254462
Spectrum_type: 2
charge: 1
Formula: C15H24O3
SMILES: C[C@H]1[C@@H]([C@@H](CC(=C)[C@@H]2CC([C@@H]2CC1=O)(C)C)O)O
Method: HCD
Collision_energy: [28.333334]
Isolation_window: 4.0
Ion_mode: P
Num Peaks: 112
67.0547	12.8
69.0339	6.5
69.0703	28.5
71.0495	9.6
73.0652	8.5
79.0546	16.6
81.0702	81.5
82.0735	6.1
83.0495	9.3
83.0859	11.0
85.0652	9.8
87.0444	13.9
89.0600	19.8
91.0546	8.1
93.0701	25.2
95.0494	8.1
95.0858	59.3
97.0650	17.1
97.1013	7.1
98.0603	12.8
99.0442	6.1
99.0806	8.4
100.0759	16.7
101.0599	7.5
103.0392	21.5
105.0700	15.3
107.0857	44.3
109.0650	24.4
109.1014	34.7
110.0603	7.3
111.0443	10.0
111.0806	9.9
113.0599	7.6
115.0756	18.1
117.0700	7.2
119.0857	41.9
121.0649	9.6
121.1012	21.2
123.0805	12.7
123.1170	8.9
125.0598	24.1
125.0962	14.8
129.0547	10.6
131.0854	6.5
133.0858	9.7
133.1012	30.4
135.0804	25.4
135.1169	23.3
137.0597	8.8
137.0963	8.2
139.0754	8.7
143.0703	22.5
143.0856	6.6
145.1013	8.0
147.0804	6.4
147.1169	17.3
149.0962	7.9
151.0756	7.6
151.1117	6.1
153.0912	9.0
154.0863	7.1
157.1011	11.4
158.1176	6.7
159.1168	9.5
161.0810	7.2
161.0960	12.9
161.1325	6.2
163.0757	7.5
171.1167	8.7
173.1326	18.5
175.1117	20.7
175.1482	34.0
177.1275	11.5
179.1067	27.7
189.1274	13.7
189.1637	14.9
191.1429	7.8
192.1016	6.8
193.0973	8.0
193.1224	8.8
195.1377	6.9
197.1172	25.9
199.1481	13.2
208.0967	7.1
209.0919	5.9
217.1224	15.7
217.1586	26.3
219.1379	9.5
223.1690	11.3
227.1755	13.7
234.1125	8.2
235.1072	10.8
235.1330	29.5
235.1692	100.0
236.0916	8.0
236.1280	15.4
236.1732	13.4
237.1487	9.0
252.0866	7.8
252.1228	28.3
252.1341	5.9
252.1595	6.2
253.1173	23.0
253.1426	21.4
253.1551	11.9
253.1795	22.3
254.1026	17.6
254.1378	30.4
254.1751	6.5
255.1118	7.4
255.1329	15.0
255.1701	20.2

Name: Xanthohumol
PrecursorMZ: 355.14954
RT: 9.4773
ExactMass: 354.1467238
Spectrum_type: 2
charge: 1
Formula: C21H22O5
SMILES: CC(=CCC1=C(C(=C(C=C1O)OC)C(=O)/C=C/C2=CC=C(C=C2)O)O)C
Method: HCD
Collision_energy: [28.333334]
Isolation_window: 4.0
Ion_mode: P
Num Peaks: 6
131.0603	4.4
149.0707	8.0
176.8747	3.6
355.1493	100.0
355.1856	3.3
356.1524	17.5

Name: Z-Gmca
PrecursorMZ: 357.12093
RT: 1.0696
ExactMass: 356.11073221
Spectrum_type: 2
charge: 1
Formula: C16H20O9
SMILES: COC1=CC(=C(C=C1)/C=C/C(=O)O)O[C@H]2[C@@H]([C@H]([C@@H]([C@H](O2)CO)O)O)O
Method: HCD
Collision_energy: [28.333334]
Isolation_window: 4.0
Ion_mode: P
Num Peaks: 49
70.0655	49.4
81.0340	52.1
84.0811	35.2
89.0601	23.1
110.0605	41.0
111.0444	61.5
137.0597	46.8
148.0763	31.7
150.0915	43.5
166.0866	32.6
171.1129	24.9
281.1500	24.0
319.1640	40.1
345.1458	25.6
355.1627	39.3
356.1547	89.8
356.3520	45.5
357.1196	39.3
357.1544	31.9
357.1884	32.9
357.2785	29.6
358.1280	26.3
358.1656	100.0
358.3688	35.1
359.1602	99.8
359.1959	27.2
360.1522	31.0
360.1992	29.1
361.1415	23.3
361.1787	72.2
362.1697	47.8
362.2170	27.4
363.1546	30.2
363.1942	27.3
365.1522	23.9
368.1510	58.1
368.4245	34.5
369.1421	38.3
370.1273	27.4
370.1706	60.7
371.1571	58.6
371.2050	35.9
372.1497	45.3
372.1963	33.8
373.1800	62.6
374.1609	49.1
374.3637	31.9
375.1517	30.4
375.1960	39.6

Name: Zaleplon
PrecursorMZ: 306.13349
RT: 0.6462
ExactMass: 305.12766012
Spectrum_type: 2
charge: 1
Formula: C17H15N5O
SMILES: CCN(C1=CC=CC(=C1)C2=CC=NC3=C(C=NN23)C#N)C(=O)C
Method: HCD
Collision_energy: [28.333334]
Isolation_window: 4.0
Ion_mode: P
Num Peaks: 98
55.0545	0.7
59.0496	1.3
70.0656	0.6
81.0340	1.1
82.0656	0.2
83.0495	3.2
84.0812	3.3
96.0446	0.5
100.0760	0.3
101.0550	0.2
101.0600	13.4
102.0631	0.3
107.0604	0.5
108.0811	0.3
110.0605	0.6
112.0760	7.0
114.0553	0.7
116.0707	0.9
122.0237	0.7
124.0758	0.3
125.0712	10.0
126.0916	0.8
130.0865	12.9
136.0759	0.2
140.0707	5.1
148.0760	0.3
150.0918	0.6
154.1230	0.4
163.1232	0.4
164.0705	0.3
165.1023	0.6
166.0862	0.6
166.1227	0.4
168.1019	0.8
178.0860	0.4
180.1019	1.3
182.1181	0.5
183.1125	0.6
188.0708	6.7
189.0745	0.7
189.1019	0.5
191.1179	0.8
194.0803	0.3
194.1178	1.4
195.1120	0.5
196.0955	0.3
206.0813	5.0
207.0858	0.4
207.1129	11.2
208.1336	0.5
209.1286	1.0
212.1280	0.9
223.1442	0.6
225.1235	29.9
279.1718	0.3
288.1228	0.7
289.1553	0.3
294.1674	0.3
303.1706	0.4
304.1190	0.3
304.1668	0.3
305.1508	1.3
305.1867	0.3
306.1337	23.2
307.1356	4.2
307.1663	4.0
308.1417	0.5
308.1869	0.3
309.1465	0.6
309.1809	6.4
310.1806	0.8
311.1610	1.6
311.1962	0.6
312.1809	10.2
313.1814	2.9
314.1392	0.6
314.1829	0.5
315.1394	0.4
315.1920	0.9
316.1143	0.3
316.2133	1.3
317.1506	0.6
318.1338	0.6
318.2280	1.4
319.1314	0.3
319.1660	0.8
320.1576	0.4
321.1460	1.7
321.1818	1.6
322.1758	0.3
323.1621	0.7
323.1972	3.5
324.1945	0.7
325.0951	0.7
325.1141	0.6
325.1758	100.0
325.2400	0.4
325.2561	0.6

Name: Zeatin
PrecursorMZ: 220.11906
RT: 1.7299
ExactMass: 219.11201006
Spectrum_type: 2
charge: 1
Formula: C10H13N5O
SMILES: C/C(=C\CNC1=NC=NC2=C1NC=N2)/CO
Method: HCD
Collision_energy: [28.333334]
Isolation_window: 4.0
Ion_mode: P
Num Peaks: 9
136.0618	1.3
148.0619	8.0
160.0618	6.9
202.1087	7.1
203.1116	0.8
220.1193	100.0
220.1643	0.6
221.1225	10.9
222.1265	0.6

Name: Zeatin riboside
PrecursorMZ: 352.16106
RT: 9.9069
ExactMass: 351.15426879
Spectrum_type: 2
charge: 1
Formula: C15H21N5O5
SMILES: C/C(=C\CNC1=C2C(=NC=N1)N(C=N2)[C@H]3[C@@H]([C@@H]([C@H](O3)CO)O)O)/CO
Method: HCD
Collision_energy: [28.333334]
Isolation_window: 4.0
Ion_mode: P
Num Peaks: 26
70.0654	8.7
72.0810	3.0
81.0337	3.6
84.0810	10.4
111.0442	3.1
130.0860	4.3
148.0614	3.7
154.0861	25.5
172.0967	4.2
193.0965	3.4
197.1281	8.4
220.1188	100.0
221.1227	7.5
241.1172	3.0
258.1436	3.8
288.1905	3.3
333.1640	4.8
350.1588	4.4
351.1511	3.6
351.1541	7.0
351.1906	10.1
352.1602	52.0
352.2225	7.4
353.1667	12.1
353.2038	7.0
354.1761	5.1

Name: Ziprasidone
PrecursorMZ: 413.12026
RT: 6.9421
ExactMass: 412.1124602
Spectrum_type: 2
charge: 1
Formula: C21H21ClN4OS
SMILES: C1CN(CCN1CCC2=C(C=C3C(=C2)CC(=O)N3)Cl)C4=NSC5=CC=CC=C54
Method: HCD
Collision_energy: [28.333334]
Isolation_window: 4.0
Ion_mode: P
Num Peaks: 7
70.0654	12.6
234.0757	60.7
358.1247	6.1
413.1196	100.0
414.1188	46.9
415.1222	6.9
415.1988	5.6

Name: Zolmitriptan
PrecursorMZ: 288.17067
RT: 7.87285
ExactMass: 287.16337692
Spectrum_type: 2
charge: 1
Formula: C16H21N3O2
SMILES: CN(C)CCC1=CNC2=C1C=C(C=C2)C[C@H]3COC(=O)N3
Method: HCD
Collision_energy: [28.333334]
Isolation_window: 4.0
Ion_mode: P
Num Peaks: 40
60.0813	49.7
70.0656	4.1
108.0446	5.2
114.0915	5.2
127.0504	4.4
155.0815	12.0
156.0633	6.7
156.0809	31.3
158.0925	6.2
168.0809	12.3
183.0917	24.3
184.0954	3.5
200.1026	4.7
225.1233	10.8
229.0971	100.0
230.1007	13.2
261.1263	4.9
269.1494	7.1
270.0969	3.6
270.1338	4.6
287.1026	18.9
287.1235	14.3
287.1386	11.8
287.1598	8.9
287.1753	18.1
288.0866	9.0
288.1069	14.4
288.1223	30.8
288.1436	11.4
288.1703	46.8
289.1162	7.9
289.1198	14.8
289.1395	23.3
289.1545	27.2
289.1737	8.1
289.1909	7.4
290.1016	7.9
290.1222	7.8
290.1374	28.2
290.1585	4.6

PrecursorMZ: 306.10047
RT: 7.5753
Spectrum_type: 2
charge: 1
SMILES: [Cl-].C=1C=CC(=CC1)C=C2C=3C=CC=CC3C=4C=C([NH+]=CC24)C
Method: HCD
Collision_energy: [28.333334]
Isolation_window: 4.0
Ion_mode: P
Num Peaks: 35
55.0547	3.4
60.0449	3.5
70.0656	3.5
72.0448	9.7
83.0494	3.4
101.0599	16.3
110.0601	4.2
112.0758	4.6
113.0058	16.0
114.0551	3.8
134.0600	3.2
152.0707	6.2
153.0548	5.6
170.0812	3.7
172.0968	53.9
173.1003	3.8
188.0376	8.1
197.0922	3.4
215.1025	5.8
257.1130	13.2
270.0792	5.9
275.1236	14.1
288.0898	60.8
289.0931	7.9
289.1394	9.0
304.1170	5.6
305.1476	3.5
306.1004	100.0
306.1320	9.5
307.1041	14.1
307.1264	6.4
307.1421	5.5
307.1648	11.9
308.0964	4.4
308.1496	3.3

Name: alpha,4-Dihydroxybenzeneacetonitrile
PrecursorMZ: 150.05494
RT: 4.0439
ExactMass: 149.047678466
Spectrum_type: 2
charge: 1
Formula: C8H7NO2
SMILES: C1=CC(=CC=C1C(C#N)O)O
Method: HCD
Collision_energy: [28.333334]
Isolation_window: 4.0
Ion_mode: P
Num Peaks: 3
122.0600	13.3
150.0548	100.0
151.0581	7.4

Name: alpha,beta-Dehydrocurvularin
PrecursorMZ: 308.14886
RT: 4.5862
ExactMass: 290.11542367
Spectrum_type: 2
charge: 1
Formula: C16H18O5
SMILES: CC1CCC/C=C/C(=O)C2=C(CC(=O)O1)C=C(C=C2O)O
Method: HCD
Collision_energy: [28.333334]
Isolation_window: 4.0
Ion_mode: P
Num Peaks: 18
81.0701	11.1
95.0492	19.1
123.0440	31.1
140.1068	39.1
151.0389	15.0
165.0546	40.3
203.1062	12.8
217.1222	17.4
245.1169	23.0
263.1275	22.8
290.1380	55.3
307.1293	11.2
307.1646	16.7
308.0660	25.0
308.1486	100.0
308.2214	46.1
309.1494	15.7
309.2239	11.8

Name: alpha-Aspartylphenylalanine
PrecursorMZ: 281.11291
RT: 6.5868
ExactMass: 280.10592162
Spectrum_type: 2
charge: 1
Formula: C13H16N2O5
SMILES: C1=CC=C(C=C1)CC(C(=O)O)NC(=O)C(CC(=O)O)N
Method: HCD
Collision_energy: [28.333334]
Isolation_window: 4.0
Ion_mode: P
Num Peaks: 63
70.0654	8.1
81.0337	3.6
84.0446	2.4
88.0394	3.2
96.0445	2.3
101.0235	3.4
108.0808	2.4
110.0601	2.2
116.0707	3.4
120.0807	100.0
121.0841	8.2
122.0599	2.3
123.0439	3.4
130.0497	5.4
130.0861	3.2
136.0616	4.7
136.0755	5.4
139.0501	6.1
140.0341	2.5
149.0230	3.3
150.0913	2.7
152.0705	7.6
154.0861	3.3
164.0703	2.3
167.0814	3.7
179.0812	2.2
182.0812	3.3
216.1017	2.8
216.1224	2.9
234.1121	7.2
234.1327	3.9
235.1068	3.9
236.0907	2.2
236.1024	2.4
237.0864	2.6
237.1227	3.3
239.1017	3.2
240.0861	3.7
245.1530	2.6
262.0700	3.0
262.1069	7.2
262.1281	3.5
263.1006	3.5
263.1637	3.3
264.0857	2.9
264.1219	4.7
265.0810	2.8
265.1171	3.5
279.0939	2.8
279.1330	13.9
280.0805	10.0
280.1028	3.0
280.1168	25.4
280.1372	5.9
280.1532	4.2
281.1122	73.5
281.1486	28.7
282.0956	8.3
282.1083	5.0
282.1169	6.1
282.1325	15.2
282.1477	2.6
283.1280	31.3

Name: alpha-Codeimethine
PrecursorMZ: 314.17415
RT: 1.0931
ExactMass: 313.1677936
Spectrum_type: 2
charge: 1
Formula: C19H23NO3
SMILES: CN(C)CC[C@@]12[C@H]3C=C[C@@H]([C@@H]1OC4=C(C=CC(=C24)C=C3)OC)O
Method: HCD
Collision_energy: [28.333334]
Isolation_window: 4.0
Ion_mode: P
Num Peaks: 39
69.0701	23.6
70.0734	3.0
84.0809	10.9
86.0965	34.3
87.0998	2.1
103.0541	3.1
112.0755	100.0
113.0788	13.8
131.0488	35.6
132.0522	4.4
135.0437	17.9
138.0910	5.1
141.0695	21.7
142.0727	6.5
159.0434	1.9
161.0593	23.0
162.0625	3.4
164.1065	7.5
169.0643	53.3
170.0677	20.5
187.0748	6.4
194.1533	2.0
197.0591	18.5
198.0625	9.1
199.0747	20.0
200.0781	9.7
201.0904	3.8
213.0901	1.8
227.0695	97.8
228.0728	53.2
229.0751	4.8
229.0857	2.1
231.1011	2.0
312.1582	41.6
313.1617	37.7
313.1975	2.3
314.1745	31.3
315.1772	6.8
316.1896	18.9

Name: alpha-D-lactose
PrecursorMZ: 325.11252
RT: 9.738
ExactMass: 342.11621151
Spectrum_type: 2
charge: 1
Formula: C12H22O11
SMILES: C([C@@H]1[C@@H]([C@@H]([C@H]([C@@H](O1)O[C@@H]2[C@H](O[C@@H]([C@@H]([C@H]2O)O)O)CO)O)O)O)O
Method: HCD
Collision_energy: [28.333334]
Isolation_window: 4.0
Ion_mode: P
Num Peaks: 8
61.0288	30.7
73.0287	18.4
85.0286	100.0
91.0392	62.4
97.0285	30.9
127.0389	45.1
145.0494	47.6
163.0600	38.4

Name: alpha-Kainic acid
PrecursorMZ: 214.10729
RT: 0.9617
ExactMass: 213.10010796
Spectrum_type: 2
charge: 1
Formula: C10H15NO4
SMILES: CC(=C)[C@H]1CN[C@@H]([C@H]1CC(=O)O)C(=O)O
Method: HCD
Collision_energy: [28.333334]
Isolation_window: 4.0
Ion_mode: P
Num Peaks: 262
55.0548	1.7
57.0340	1.5
58.0657	2.2
59.0496	2.0
67.0548	1.9
69.0339	2.9
70.0656	14.3
71.0496	4.4
72.0448	2.4
72.0812	18.3
74.0605	9.1
79.0545	1.5
80.0499	1.7
81.0339	35.1
81.0704	1.8
82.0372	1.9
82.0655	9.3
83.0495	7.1
84.0448	3.6
84.0812	5.0
85.0285	1.4
85.0652	4.0
86.0605	13.6
86.0968	11.9
87.0444	4.2
88.0761	17.7
90.0554	6.1
93.0703	1.6
94.0653	1.8
95.0493	4.0
95.0606	2.4
96.0447	6.3
96.0810	1.6
97.0288	6.1
97.0650	1.5
98.0604	14.1
98.0966	3.0
99.0443	3.6
100.0760	8.2
101.0600	17.9
102.0552	3.9
103.0392	1.6
104.0709	10.2
105.0699	2.9
107.0493	2.5
108.0447	9.2
108.0814	1.8
109.0287	2.4
109.0651	1.5
109.0763	2.4
110.0603	7.3
111.0444	14.8
111.0555	2.1
112.0509	6.5
112.0760	6.0
113.0601	2.5
113.0711	1.5
114.0552	4.0
114.0665	12.4
114.0914	3.3
115.0503	2.2
116.0709	16.1
117.0549	2.0
118.0866	2.3
120.0811	3.0
121.0652	2.9
121.0758	2.2
122.0603	6.1
123.0442	1.7
123.0555	1.5
123.0918	3.6
124.0395	3.6
124.0761	7.2
125.0232	2.1
125.0600	1.8
125.0711	3.4
126.0552	20.3
126.0662	2.1
126.0914	4.3
127.0398	2.3
128.0709	5.4
129.0547	1.8
130.0500	4.4
130.0864	3.6
134.0604	5.1
135.0806	1.5
135.0918	1.7
136.0758	5.9
137.0599	2.4
137.0709	1.6
138.0551	3.3
138.0917	3.6
139.0755	1.8
139.0866	3.0
140.0344	2.3
140.0711	7.1
142.0497	1.5
142.0867	3.9
144.0658	4.9
144.1017	1.8
146.0603	1.6
148.0758	2.8
149.0710	1.4
150.0552	4.1
150.0914	4.5
151.0754	1.5
151.0868	3.0
152.0709	10.8
152.1072	1.6
153.1016	2.0
154.0501	1.5
154.0866	5.2
156.0656	3.0
156.1020	4.9
158.0607	2.6
158.0813	2.9
160.0758	3.8
160.0972	1.7
161.0702	2.0
162.0550	1.4
162.0915	1.9
162.1021	1.6
163.0754	1.8
163.0870	1.5
164.0709	6.0
164.1070	4.3
165.0546	3.4
165.1025	1.7
166.0863	9.8
166.0981	1.7
167.0812	4.0
168.0649	2.7
168.0773	2.2
168.1020	3.6
169.0977	1.9
170.0804	9.4
170.1177	3.4
172.0755	1.6
172.0970	2.3
174.0772	1.6
174.1137	2.8
175.0871	4.4
176.0704	6.4
177.1024	7.8
178.0859	7.9
179.0809	2.3
180.0652	3.3
180.1015	5.9
181.0972	5.5
182.0808	13.1
182.1158	2.3
183.1138	1.5
184.0732	2.9
184.0946	4.5
184.1107	3.2
185.1036	30.8
185.1286	1.5
186.0225	1.5
186.0739	2.4
186.1108	2.3
188.0711	1.5
188.0913	1.5
190.0850	3.2
192.0656	1.5
192.1025	2.1
193.0983	2.5
194.0803	11.7
194.1157	1.8
195.0823	1.5
195.1130	11.5
196.0944	7.2
196.1110	3.3
197.0930	2.3
197.1277	1.9
198.0897	1.4
198.1130	5.2
200.0711	3.5
200.0922	5.0
200.1288	1.7
202.0868	3.2
202.1075	6.2
203.0821	1.6
204.0781	1.6
204.1016	1.9
205.0975	4.4
206.0922	8.5
207.1128	6.9
208.0954	9.2
209.0929	6.0
209.1284	3.4
210.0747	2.8
210.1106	3.6
211.1093	4.3
211.1452	2.2
212.0925	16.3
212.1293	6.3
213.0940	3.3
213.1234	28.1
213.1605	3.1
214.0863	3.7
214.1073	12.2
214.1227	6.8
214.1457	2.4
215.0838	2.1
215.1045	3.9
215.1391	5.6
216.0659	2.9
216.0997	17.5
216.1234	14.7
216.1603	1.8
217.0975	11.6
217.1255	1.4
218.0813	49.3
218.1008	4.8
218.1184	6.2
218.1387	3.6
219.0838	6.7
219.1134	6.4
220.0607	2.3
220.0976	37.5
220.1160	6.6
220.1356	10.4
221.0965	6.2
221.1292	7.7
222.0772	5.7
222.0902	3.9
222.1115	22.4
222.1470	7.7
223.1095	10.0
223.1426	7.1
224.0907	18.5
224.1257	14.2
225.0929	2.5
225.1233	15.3
225.1585	6.9
226.0709	3.6
226.1071	100.0
226.1449	2.5
227.1066	15.0
227.1406	13.8
228.0868	11.4
228.1030	3.3
228.1241	8.8
229.0966	2.1
229.1186	11.5
229.1543	8.5
230.0799	2.1
230.1032	25.6
230.1196	5.5
230.1407	3.7
231.1118	5.6
231.1346	3.9
232.0968	47.8
232.1162	5.1
232.1329	2.5
233.0980	6.5
233.1287	8.0
234.0783	5.2
234.1150	10.8
234.1334	19.9
235.1179	17.4
235.1447	3.6

Name: alpha-L-glutamyl-L-glutamine
PrecursorMZ: 276.11859
RT: 7.5634
ExactMass: 275.11173527
Spectrum_type: 2
charge: 1
Formula: C10H17N3O6
SMILES: C(CC(=O)O)[C@@H](C(=O)N[C@@H](CCC(=O)N)C(=O)O)N
Method: HCD
Collision_energy: [28.333334]
Isolation_window: 4.0
Ion_mode: P
Num Peaks: 33
84.0446	22.0
84.0809	4.0
86.0602	8.6
86.0965	4.5
87.0442	16.6
97.4564	3.3
100.0757	8.2
101.0597	6.1
102.0550	23.5
104.0706	11.5
116.0705	8.5
118.0860	3.8
130.0497	26.1
132.0652	11.4
148.0602	29.0
229.1176	6.8
230.1381	11.0
234.1846	12.9
257.0911	3.8
257.1127	4.3
258.1077	4.3
258.1330	8.4
275.1005	7.0
275.1227	58.1
275.1379	14.0
276.0858	7.3
276.1181	100.0
276.1431	13.0
276.1948	3.3
277.1209	12.0
278.1014	4.3
278.1219	3.4
278.1377	3.6

Name: alpha-Linolenoyl Ethanolamide
PrecursorMZ: 322.27325
RT: 1.2998
ExactMass: 321.266779359
Spectrum_type: 2
charge: 1
Formula: C20H35NO2
SMILES: CC/C=C\C/C=C\C/C=C\CCCCCCCC(=O)NCCO
Method: HCD
Collision_energy: [28.333334]
Isolation_window: 4.0
Ion_mode: P
Num Peaks: 13
62.0603	100.0
67.0545	7.5
81.0700	11.3
93.0699	7.1
95.0854	11.9
107.0854	5.0
109.1010	6.9
121.1009	5.3
135.1165	5.2
321.2233	6.3
322.2728	45.1
323.1382	8.1
323.2762	9.6

Name: alpha-Pinene oxide
PrecursorMZ: 135.11682
RT: 1.116
ExactMass: 152.12011513
Spectrum_type: 2
charge: 1
Formula: C10H16O
SMILES: CC1(C2CC1C3(C(C2)O3)C)C
Method: HCD
Collision_energy: [28.333334]
Isolation_window: 4.0
Ion_mode: P
Num Peaks: 6
91.0544	24.2
93.0701	34.2
107.0857	62.0
119.0856	73.1
135.1168	100.0
136.0214	26.4

Name: aminoadipic-acid-C12:0
PrecursorMZ: 308.22169
RT: 2.9832
Spectrum_type: 2
charge: 1
SMILES: CCCCCCCCCCCC(NC(C(O)=O)CCCC(O)=O)=O
Method: HCD
Collision_energy: [28.333334]
Isolation_window: 4.0
Ion_mode: P
Num Peaks: 12
70.0654	3.4
184.1078	12.8
195.1124	2.7
290.2108	19.4
291.2140	3.8
307.0683	49.1
308.0718	8.6
308.2212	100.0
308.2935	2.4
309.0654	3.9
309.1550	20.5
309.2247	18.7

Name: amyl amine-C13:1
PrecursorMZ: 282.2789
RT: 0.5645
Spectrum_type: 2
charge: 1
SMILES: O=C(NCCCCC)CCCCCCCCCCC=C
Method: HCD
Collision_energy: [28.333334]
Isolation_window: 4.0
Ion_mode: P
Num Peaks: 236
55.0546	2.1
56.0499	6.3
57.0339	2.3
57.0703	9.5
58.0292	1.6
58.0656	0.4
58.0736	0.6
59.0496	2.1
59.0609	0.5
60.0448	18.2
62.0605	0.5
67.0546	12.4
68.0500	0.8
68.0579	0.6
69.0339	0.7
69.0703	13.1
70.0655	1.8
70.0736	0.8
71.0495	1.7
71.0859	10.4
72.0448	1.8
72.0893	0.6
73.0652	0.6
74.0603	0.9
79.0546	5.6
80.0498	0.4
81.0340	0.4
81.0702	16.9
82.0654	3.3
82.0732	1.1
83.0494	2.4
83.0858	11.1
84.0811	2.0
84.0890	0.8
85.0651	2.4
85.1015	5.4
86.0603	2.7
86.0967	2.1
86.1047	0.4
87.0445	0.6
88.0760	2.3
89.0600	8.9
91.0544	2.1
93.0701	6.7
94.0654	0.8
94.0734	0.6
95.0494	1.1
95.0857	17.1
96.0811	1.4
96.0892	1.4
97.0650	2.4
97.1013	8.2
98.0602	1.0
98.1048	0.7
98.9841	0.5
99.0443	0.6
99.0806	1.9
100.0759	1.5
101.0599	7.7
102.0632	0.4
105.0700	2.2
106.0864	3.7
107.0706	1.2
107.0856	6.2
108.0891	0.6
109.0651	0.6
109.1013	11.0
110.0967	0.4
110.1048	1.1
111.0805	1.2
111.1169	2.8
112.0758	4.9
113.0597	1.4
113.0963	0.6
114.0914	0.7
115.0539	0.6
115.0753	0.8
116.0706	0.5
119.0856	3.0
120.0809	0.8
121.0650	0.6
121.1012	6.8
122.1048	0.7
123.0804	1.0
123.1168	4.9
124.1120	0.4
124.1194	0.4
125.0960	1.2
125.1324	0.6
127.1117	0.5
129.0910	0.4
131.0706	0.4
131.0856	0.7
132.0443	0.7
133.0860	2.2
133.1013	3.4
134.1050	0.4
135.0440	6.1
135.0801	0.6
135.1168	5.2
136.0476	0.5
136.1205	0.4
137.0599	0.7
137.0960	1.1
137.1326	1.7
139.1116	0.7
141.0911	0.5
141.1273	2.9
143.0491	1.1
143.0853	0.4
143.1063	0.5
145.1010	1.0
147.0803	0.4
147.1168	2.1
149.0963	0.6
149.1324	2.5
151.0969	4.5
151.1117	1.7
151.1477	0.7
153.1271	0.5
157.0496	1.2
157.1017	0.4
157.1223	0.7
159.0448	0.4
159.1166	1.2
161.1326	1.8
163.1118	0.6
163.1480	1.2
165.1271	0.7
165.1636	0.5
170.1177	0.6
171.0438	1.4
171.0801	0.7
171.1161	0.4
171.1379	1.2
173.0597	1.1
173.1319	0.9
175.1478	1.0
177.1274	0.4
177.1638	0.5
179.1430	0.7
185.1342	0.4
185.1531	0.6
187.1481	0.6
189.1632	0.6
191.1791	0.7
193.1591	0.4
199.0750	1.0
201.0544	30.9
202.0579	3.8
203.0596	0.4
203.0905	0.4
211.2055	1.2
212.2373	0.4
227.2004	0.6
230.2476	1.7
238.2529	0.4
240.2319	1.5
240.2681	1.4
242.2473	0.6
245.1288	1.0
245.2260	1.3
247.2416	0.4
250.2528	2.8
251.0465	0.4
251.2568	0.7
252.2683	12.8
253.2730	2.3
254.2470	0.9
254.2842	1.4
256.1556	0.6
258.2424	5.3
258.2786	0.6
259.2458	1.0
262.2525	2.0
263.2364	1.0
263.2576	0.4
264.2682	8.4
265.2509	0.7
265.2755	1.4
266.2834	1.2
266.9991	0.4
268.2632	1.3
268.2990	0.5
270.2788	6.6
271.2825	1.4
275.1997	0.5
277.2151	2.0
278.2470	0.5
279.2306	0.8
280.2633	35.1
281.0504	0.4
281.2675	9.6
282.2137	0.8
282.2261	0.4
282.2787	100.0
282.3304	0.5
282.3438	0.6
283.0302	0.4
283.2457	0.4
283.2821	19.3
284.1649	1.1
284.2943	9.9
284.3295	0.6
285.2967	0.5
286.1433	29.8
286.2732	0.6
286.3092	0.6
287.1460	6.5
287.2001	0.4
288.1495	0.8
288.2531	1.7
288.2892	4.8
289.2151	0.6
289.2550	0.5
289.2924	1.1
292.2267	1.3
293.2098	1.2
294.2426	0.6
295.2326	0.4
295.2589	0.4
296.2936	1.5
298.1433	0.4
298.1800	0.4
298.2733	1.4
298.3091	0.5
298.3404	0.6
299.0609	2.7
299.2563	2.1
300.0620	0.7
300.2891	3.6
301.0603	0.4
301.1542	0.7
301.2166	1.3
301.2910	0.8
302.3048	6.2

Name: amyl amine-C18:3
PrecursorMZ: 348.32573
RT: 5.6032
Spectrum_type: 2
charge: 1
SMILES: O=C(NCCCCC)CCCCC=CCC=CCC=CCCCCC
Method: HCD
Collision_energy: [28.333334]
Isolation_window: 4.0
Ion_mode: P
Num Peaks: 21
58.0655	19.8
86.0966	4.6
91.0544	40.8
92.0577	4.7
117.0699	10.9
119.0855	18.8
135.0804	6.5
211.2050	4.5
212.2366	5.1
240.2683	4.6
254.2475	5.2
256.2629	7.8
346.3097	24.8
347.1606	3.7
347.3133	22.1
348.1437	8.3
348.3255	100.0
349.1397	4.0
349.3288	23.4
350.1230	3.6
350.2684	3.6

Name: amylamine-C13:1
PrecursorMZ: 282.27875
RT: 3.0348
Spectrum_type: 2
charge: 1
SMILES: O=C(NCCCCC)CCCCCCCCCCC=C
Method: HCD
Collision_energy: [28.333334]
Isolation_window: 4.0
Ion_mode: P
Num Peaks: 48
55.0546	1.6
56.0499	6.0
57.0703	2.4
58.0291	1.2
60.0448	1.5
67.0546	4.8
69.0702	4.8
69.5747	1.0
70.0654	0.9
71.0494	0.7
71.0858	1.8
72.0447	0.8
79.0545	2.7
81.0701	4.7
82.0653	2.2
83.0494	1.3
83.0858	3.9
85.1014	1.4
86.0602	1.5
93.0700	3.1
95.0856	5.0
96.0809	1.1
97.0649	0.8
97.1013	2.8
107.0855	2.6
109.1012	2.5
111.1168	0.7
121.0284	2.3
121.1011	2.2
123.1169	0.7
135.1166	1.3
211.2053	0.9
237.1018	0.9
252.2681	10.4
253.2716	1.9
264.2680	8.3
265.2529	0.8
265.2714	1.6
280.2629	2.5
281.0784	0.8
281.1490	0.9
281.2663	2.4
282.2462	0.9
282.2785	100.0
282.3108	0.7
283.0593	1.9
283.2819	19.7
284.2846	1.0

Name: amylamine-C14:1
PrecursorMZ: 296.29459
RT: 2.4382
Spectrum_type: 2
charge: 1
SMILES: O=C(NCCCCC)CCCCCCCC=CCCCC
Method: HCD
Collision_energy: [28.333334]
Isolation_window: 4.0
Ion_mode: P
Num Peaks: 63
55.0547	7.6
57.0704	27.1
58.0656	100.0
59.0690	3.7
60.0449	15.4
67.0547	11.6
69.0339	3.0
69.0703	15.7
71.0860	25.0
73.0652	4.6
79.0546	3.9
81.0339	10.8
81.0703	16.4
83.0495	8.1
83.0859	18.2
85.1015	15.0
86.0968	3.0
93.0701	5.4
95.0494	2.5
95.0858	23.4
97.0650	5.8
97.1014	12.0
97.3992	2.7
101.0599	4.7
107.0858	3.8
109.1014	12.1
111.1171	4.5
115.0756	15.9
121.1012	4.2
122.0715	3.9
123.1169	5.2
135.1169	3.2
136.0619	2.7
136.0758	12.6
152.1071	2.8
195.1131	3.2
197.1286	3.6
239.2368	7.3
277.2524	6.7
278.1388	2.3
278.2560	4.1
279.2682	93.2
280.2719	16.6
294.2794	9.0
295.1287	4.3
295.1436	4.6
295.1649	22.9
295.2830	5.6
296.1275	3.8
296.1487	6.9
296.1631	4.9
296.2947	56.5
297.1031	2.4
297.1234	6.5
297.1447	7.3
297.1603	4.2
297.1808	61.6
297.2981	10.5
298.1058	3.5
298.1277	3.1
298.1432	6.9
298.1817	5.7
298.2738	3.8

Name: amylamine-C17:1
PrecursorMZ: 338.34145
RT: 9.0149
Spectrum_type: 2
charge: 1
SMILES: O=C(NCCCCC)CCCCCCCCC=CCCCCCC
Method: HCD
Collision_energy: [28.333334]
Isolation_window: 4.0
Ion_mode: P
Num Peaks: 15
57.0704	1.3
69.0703	3.7
96.0810	12.1
97.1014	1.5
113.1075	5.5
114.0914	16.6
209.1647	29.5
226.1914	4.5
227.1752	13.9
228.1593	1.8
321.3153	1.3
322.2485	57.7
338.3412	5.8
339.2757	1.4
340.2591	100.0

Name: benzo(f)quinoline
PrecursorMZ: 180.08041
RT: 1.2219
Spectrum_type: 2
charge: 1
SMILES: C1=CC=C2C(C=CC3=C2C=CC=N3)=C1
Method: HCD
Collision_energy: [28.333334]
Isolation_window: 4.0
Ion_mode: P
Num Peaks: 11
91.0542	3.6
120.0807	2.4
162.1276	0.7
163.1114	1.1
178.1224	0.8
179.0703	1.1
180.0803	100.0
180.1014	1.1
180.1377	0.9
181.0836	14.3
182.1170	0.7

Name: benzyloxycarbonyl-L-arginine
PrecursorMZ: 309.1552
RT: 6.4886
ExactMass: 308.14845513
Spectrum_type: 2
charge: 1
Formula: C14H20N4O4
SMILES: C1=CC=C(C=C1)COC(=O)N[C@@H](CCCN=C(N)N)C(=O)O
Method: HCD
Collision_energy: [28.333334]
Isolation_window: 4.0
Ion_mode: P
Num Peaks: 21
70.0654	10.1
100.0758	5.3
123.0440	4.7
148.0868	19.8
166.0720	3.6
176.0816	14.4
184.1079	4.2
235.1184	8.8
273.1341	23.7
274.1377	4.4
281.0550	3.4
291.1449	18.4
292.1478	3.7
309.1064	5.7
309.1556	100.0
309.1791	5.9
310.0915	3.3
310.1139	4.1
310.1594	16.2
311.1232	3.2
311.1612	3.4

Name: beta-D-Gal-(1->4)-D-Man
PrecursorMZ: 325.11244
RT: 9.2374
ExactMass: 342.11621151
Spectrum_type: 2
charge: 1
Formula: C12H22O11
SMILES: C([C@@H]1[C@@H]([C@@H]([C@H]([C@@H](O1)O[C@@H]2[C@H](OC([C@H]([C@H]2O)O)O)CO)O)O)O)O
Method: HCD
Collision_energy: [28.333334]
Isolation_window: 4.0
Ion_mode: P
Num Peaks: 114
55.0546	1.9
57.0339	4.1
57.0703	2.6
61.0288	6.6
69.0338	7.3
69.0702	3.9
70.0654	7.1
71.0494	2.1
71.0858	1.7
72.0811	2.1
73.0287	3.5
80.0498	2.6
81.0337	4.8
81.0701	4.4
83.0494	3.9
83.0858	5.7
84.0446	2.9
84.0810	4.2
85.0286	72.5
85.1014	1.8
86.0319	3.4
87.0442	2.7
91.0391	5.6
95.0857	6.8
96.0446	2.7
97.0285	15.0
97.1013	4.9
98.0601	1.8
99.0441	4.2
100.0757	2.4
101.0598	13.8
103.0391	6.1
109.0285	6.4
109.1012	2.9
110.0602	2.0
111.0441	1.8
112.0506	2.4
112.0758	2.3
112.0870	1.8
114.1026	2.9
116.0707	1.8
120.0444	10.2
120.0657	2.2
122.0600	5.7
126.0549	8.1
126.0912	4.2
127.0389	24.5
128.0422	2.0
129.0545	2.1
130.0862	4.5
136.0391	2.2
136.0757	1.7
137.1323	1.6
138.0547	4.8
140.0704	3.2
144.0653	2.8
144.1017	1.9
145.0494	31.9
146.0528	2.2
146.0919	2.2
150.0549	5.3
162.0550	1.8
162.0757	2.5
163.0599	11.5
164.0704	2.6
168.0653	87.7
169.0686	7.0
180.0653	1.7
180.1016	1.7
181.0970	2.7
182.0809	2.6
186.0759	6.7
189.0655	1.6
189.1020	2.3
190.1070	6.0
204.0864	2.1
207.1124	20.9
208.0966	2.9
208.1162	2.1
223.1072	3.0
223.1547	3.4
224.0918	1.8
225.1230	8.0
227.1388	3.6
237.1230	1.8
252.0863	2.2
267.1447	1.8
288.1074	6.4
306.1178	19.0
307.1206	2.4
307.1638	3.6
323.1596	16.1
324.1070	2.9
324.1276	26.4
324.1442	10.4
324.1626	8.6
324.1918	2.6
325.1026	1.6
325.1356	10.0
325.1750	96.2
325.2729	17.3
326.0861	2.4
326.1027	2.5
326.1227	3.9
326.1397	3.1
326.1599	6.3
326.1777	15.4
326.2076	3.2
326.2771	2.9
327.1161	5.4
327.1538	8.7
327.1678	4.3
327.1906	100.0
327.2886	9.2

Name: beta-D-Glucopyranoside, 2-hydroxy-4-(2-propen-1-yl)phenyl 6-O-beta-D-glucopyranosyl-
PrecursorMZ: 497.16219
RT: 7.0848
ExactMass: 474.17372639
Spectrum_type: 2
charge: 1
Formula: C21H30O12
SMILES: C=CCC1=CC(=C(C=C1)O[C@H]2[C@@H]([C@H]([C@@H]([C@H](O2)CO[C@H]3[C@@H]([C@H]([C@@H]([C@H](O3)CO)O)O)O)O)O)O)O
Method: HCD
Collision_energy: [28.333334]
Isolation_window: 4.0
Ion_mode: P
Num Peaks: 19
55.2405	5.2
69.6811	1.9
85.0286	2.9
86.0966	5.5
97.0284	2.2
111.0440	1.5
132.1017	4.1
210.1122	2.2
230.1380	4.5
258.1329	6.1
276.1434	15.1
277.1468	1.8
495.2957	2.4
496.2393	3.4
497.1618	100.0
497.2358	5.5
498.1650	18.0
499.1595	5.0
499.1720	6.5

Name: beta-D-glucopyranosyl-(1->6)-D-glucose
PrecursorMZ: 381.07921
RT: 5.59
ExactMass: 342.11621151
Spectrum_type: 2
charge: 1
Formula: C12H22O11
SMILES: C([C@@H]1[C@H]([C@@H]([C@H]([C@@H](O1)OC[C@@H]2[C@H]([C@@H]([C@H](C(O2)O)O)O)O)O)O)O)O
Method: HCD
Collision_energy: [28.333334]
Isolation_window: 4.0
Ion_mode: P
Num Peaks: 25
57.0705	10.1
59.0608	10.9
71.0860	19.3
84.0812	10.7
89.0601	11.8
116.0707	9.0
144.0661	10.0
149.0234	82.1
162.0763	38.1
167.0337	12.9
180.0874	11.2
210.0795	53.3
301.1395	18.9
379.1120	22.6
380.0946	27.0
381.0785	70.8
382.0854	10.6
389.1555	11.4
390.1428	9.8
391.1714	100.0
392.1740	22.6
393.1762	14.0
394.1844	9.8
395.1811	14.1
399.0914	10.6

Name: beta-Lactose
PrecursorMZ: 343.12323
RT: 4.0401
ExactMass: 342.11621151
Spectrum_type: 2
charge: 1
Formula: C12H22O11
SMILES: C([C@@H]1[C@@H]([C@@H]([C@H]([C@@H](O1)O[C@@H]2[C@H](O[C@H]([C@@H]([C@H]2O)O)O)CO)O)O)O)O
Method: HCD
Collision_energy: [28.333334]
Isolation_window: 4.0
Ion_mode: P
Num Peaks: 19
69.0338	19.3
70.0654	7.0
84.0810	24.3
85.0286	100.0
97.0285	40.9
99.0442	6.2
118.0863	5.5
127.0389	83.3
128.0422	5.7
145.0494	68.5
163.0600	12.2
176.1278	14.5
306.1175	7.8
324.1283	7.2
342.1369	8.1
342.2038	6.0
343.1848	15.6
344.1903	6.5
345.1769	19.2

Name: beta-N-ACETYL-D-GALACTOSAMINE
PrecursorMZ: 204.08616
RT: 1.4319
ExactMass: 221.0899372
Spectrum_type: 2
charge: 1
Formula: C8H15NO6
SMILES: CC(=O)N[C@@H]1[C@H]([C@H]([C@H](O[C@H]1O)CO)O)O
Method: HCD
Collision_energy: [28.333334]
Isolation_window: 4.0
Ion_mode: P
Num Peaks: 237
60.0449	22.2
61.0288	2.0
67.0547	2.7
68.0499	3.8
69.0339	4.6
69.0702	2.6
70.0656	12.8
71.0495	4.3
72.0448	11.0
72.0812	18.0
74.0604	14.4
79.0546	2.0
80.0499	2.9
81.0339	13.2
81.0702	3.2
82.0655	21.2
83.0495	6.7
84.0447	45.3
84.0810	3.4
85.0288	4.3
85.0651	4.8
86.0604	12.4
86.0967	13.2
87.0444	6.2
88.0395	2.2
90.0553	14.7
93.0701	2.1
94.0653	2.6
95.0493	4.8
95.0606	3.8
96.0446	19.8
97.0286	14.8
97.0649	2.0
98.0603	22.5
99.0443	6.2
100.0396	3.0
100.0759	11.6
101.0600	7.1
102.0552	4.6
103.0392	3.2
104.0708	4.8
107.0490	2.8
108.0447	7.0
109.0286	6.1
109.0649	3.3
109.0762	1.9
110.0603	6.3
111.0443	4.9
111.0555	2.6
112.0758	7.4
113.0599	6.4
114.0377	3.1
114.0551	13.6
114.0916	5.1
115.0503	3.4
116.0346	2.9
116.0708	10.7
118.0866	2.7
120.0117	2.0
120.0656	2.0
120.0811	3.3
121.0284	2.9
121.0651	2.8
122.0599	5.0
123.0799	3.8
124.0393	4.3
124.0757	6.8
125.0235	7.0
125.0600	2.2
125.0710	5.7
126.0550	100.0
126.0912	4.0
127.0393	7.2
127.0500	2.5
127.0583	6.3
128.0704	8.9
129.0547	2.3
130.0498	11.6
130.0864	4.2
132.0653	3.2
132.1021	2.3
133.0761	2.5
135.0805	2.2
136.0759	5.1
137.0598	3.7
137.0710	5.6
138.0550	52.6
138.0910	5.3
139.0388	2.1
139.0586	3.8
139.0866	2.1
140.0340	2.4
140.0706	8.1
140.1065	2.5
141.0658	2.5
142.0498	10.0
142.0863	6.4
144.0655	74.5
144.1019	2.6
145.0690	4.3
146.0271	12.1
146.0814	4.3
148.0754	4.2
149.0598	2.7
149.0712	5.4
150.0546	4.7
150.0913	5.7
151.0752	4.0
151.0867	4.3
152.0705	7.3
152.1073	1.9
153.0548	1.9
154.0862	5.6
156.0657	6.9
156.1019	10.2
157.0978	1.9
158.0814	5.8
158.1174	4.5
159.0773	2.1
160.0608	2.6
160.0783	5.7
160.0966	3.0
160.1335	3.1
161.0595	2.3
161.0711	8.7
162.0546	3.3
162.0756	2.0
164.0706	19.1
164.1068	7.1
165.1013	2.7
166.0859	12.8
166.0981	2.7
167.0813	11.9
168.0653	15.2
168.1017	11.4
169.0609	11.0
169.0956	2.7
170.0807	7.6
170.1175	3.7
172.0968	5.1
172.1333	2.4
173.0925	1.9
174.1129	3.5
174.1489	2.1
175.0873	2.7
176.0698	5.5
177.0667	5.0
178.0501	2.8
178.0857	5.9
179.0696	2.7
179.0826	7.2
180.0653	4.4
180.1013	3.0
182.0804	8.1
183.0752	2.4
184.0722	7.1
184.0967	12.7
185.0924	1.9
186.0760	15.4
186.0881	8.8
186.1117	4.2
188.0719	2.6
188.0916	3.3
190.1078	1.9
192.0647	4.7
193.0980	4.4
194.0807	10.3
195.0768	3.1
195.1131	3.0
196.0593	2.5
196.0963	9.4
197.0922	22.9
198.0748	4.3
198.1125	13.4
200.0917	12.4
200.1285	2.2
202.1076	14.0
204.0440	4.1
204.0663	5.6
204.0865	7.1
204.1224	4.4
205.0636	3.2
205.0994	3.1
206.0834	20.4
206.1022	3.5
206.1388	2.1
207.0479	3.4
207.0762	6.5
207.1144	3.7
208.0608	12.9
208.0972	5.4
208.1172	1.9
209.0932	5.6
209.1279	2.0
210.0743	11.1
210.1111	9.0
211.1077	10.4
211.1446	3.0
212.0379	5.3
212.0919	14.6
212.1063	5.5
212.1289	4.1
213.0862	5.7
213.0994	7.6
213.1240	8.6
214.0532	6.3
214.0716	2.4
214.1048	16.8
214.1446	2.2
215.0497	2.2
215.1024	25.5
215.1373	8.2
216.0983	21.3
216.1232	15.1
217.0995	2.6
217.1211	3.4
218.0830	2.1
218.1019	26.2
218.1384	3.5
219.1052	2.3
219.1331	3.4
220.0616	2.7
220.0969	2.6
220.1180	12.2
220.1545	2.2
221.0923	4.0
221.1271	2.1
222.0751	24.3
222.1134	2.1
223.0740	5.3
223.1080	6.0
223.1436	4.4
224.0563	4.6
224.0902	13.1
224.1288	2.1
225.0884	2.9
225.1230	5.1

Name: beta-Ureidoisobutyric acid
PrecursorMZ: 129.06586
RT: 6.4373
ExactMass: 146.06914219
Spectrum_type: 2
charge: 1
Formula: C5H10N2O3
SMILES: CC(CNC(=O)N)C(=O)O
Method: HCD
Collision_energy: [28.333334]
Isolation_window: 4.0
Ion_mode: P
Num Peaks: 28
56.0135	10.7
57.0703	8.4
58.0656	20.2
69.0339	34.1
70.0655	14.3
73.0400	9.2
74.0968	9.6
82.0654	9.7
83.0607	2.5
84.0447	100.0
84.0811	4.8
85.0481	3.2
86.0603	52.3
87.0636	2.6
100.0759	3.0
101.0711	3.6
111.0554	8.7
112.0394	6.5
127.0725	3.8
127.0756	3.3
128.0706	8.1
128.0818	4.5
129.0658	19.2
129.1386	2.8
130.0498	21.6
130.0651	37.4
130.0862	5.6
130.1590	45.3

Name: cholic acid-C18:0
PrecursorMZ: 675.55521
RT: 1.4533
Spectrum_type: 2
charge: 1
SMILES: CC12C(CCC2C(CCC(O)=O)C)C3C(O)CC4CC(OC(CCCCCCCCCCCCCCCCC)=O)CCC4(C)C3CC1O
Method: HCD
Collision_energy: [28.333334]
Isolation_window: 4.0
Ion_mode: P
Num Peaks: 25
57.0703	5.4
71.0859	5.3
81.0702	9.5
83.0858	5.8
95.0858	10.9
109.1014	10.9
121.1013	8.6
135.1169	11.4
147.1167	6.7
149.1325	10.1
161.1328	6.0
163.1481	7.7
175.1481	8.2
215.1793	8.1
221.1537	5.4
235.1691	5.2
247.1691	5.5
261.1854	6.6
265.2521	5.9
283.2629	17.5
321.2573	5.3
339.2678	14.9
357.2785	100.0
358.2820	23.4
677.5079	12.6

Name: cis-Urocanic acid
PrecursorMZ: 121.03969
RT: 1.4175
ExactMass: 138.042927438
Spectrum_type: 2
charge: 1
Formula: C6H6N2O2
SMILES: C1=C(NC=N1)/C=C\C(=O)O
Method: HCD
Collision_energy: [28.333334]
Isolation_window: 4.0
Ion_mode: P
Num Peaks: 11
56.0498	2.7
65.0390	4.9
92.0497	3.7
93.0449	43.6
104.0707	4.4
120.0556	65.4
121.0396	100.0
121.0589	4.8
122.0430	6.3
122.0811	3.4
122.0963	6.0

Name: cis-Zeatin riboside
PrecursorMZ: 352.16102
RT: 3.72
ExactMass: 351.15426879
Spectrum_type: 2
charge: 1
Formula: C15H21N5O5
SMILES: C/C(=C/CNC1=C2C(=NC=N1)N(C=N2)[C@H]3[C@@H]([C@@H]([C@H](O3)CO)O)O)/CO
Method: HCD
Collision_energy: [28.333334]
Isolation_window: 4.0
Ion_mode: P
Num Peaks: 9
220.1195	100.0
221.1227	10.8
352.1619	46.5
353.1668	10.7
354.1655	9.4
355.1500	2.9
356.3543	4.0
358.3668	3.3
369.1629	2.9

Name: cyclo(L-Pro-L-Val)
PrecursorMZ: 197.12843
RT: 2.8096
ExactMass: 196.121177757
Spectrum_type: 2
charge: 1
Formula: C10H16N2O2
SMILES: CC(C)[C@H]1C(=O)N2CCC[C@H]2C(=O)N1
Method: HCD
Collision_energy: [28.333334]
Isolation_window: 4.0
Ion_mode: P
Num Peaks: 127
55.0547	3.7
56.0581	0.3
57.0703	0.2
58.0657	0.4
59.0496	2.0
62.0605	0.4
69.0704	0.3
70.0656	0.6
72.0812	0.7
73.0652	0.2
81.0703	0.2
82.0656	0.2
83.0495	5.5
84.0528	0.3
84.0811	0.4
85.0652	0.4
86.0604	1.4
87.0444	9.2
88.0478	0.4
88.0763	0.2
89.0602	0.5
90.0551	0.3
96.0448	1.3
98.0713	0.2
98.0968	0.3
100.0760	3.4
101.0600	33.7
101.0789	0.4
102.0632	1.9
102.0916	0.9
106.0866	0.3
107.0731	0.3
108.0446	0.2
109.0762	0.2
110.0444	0.4
110.0479	0.2
110.0603	57.9
110.0727	0.4
110.0760	0.4
110.0955	0.2
111.0441	0.2
111.0569	0.2
111.0636	3.8
112.0651	0.2
114.0664	0.7
114.0915	0.2
116.0708	0.2
122.0600	0.7
122.0964	0.4
123.0111	0.2
123.0918	7.8
123.1160	0.3
124.0759	0.2
124.0953	0.6
126.0548	0.2
126.0914	0.3
130.0857	0.2
133.9650	0.2
134.0962	0.2
136.0758	0.5
136.0868	0.2
137.0711	0.3
139.1231	0.2
150.0914	0.2
162.0911	0.5
164.1068	0.2
168.0687	0.3
178.0848	0.5
178.1003	0.3
179.1182	0.2
180.1007	0.2
182.0811	0.2
182.1536	0.2
190.0864	0.3
192.1006	0.2
193.0959	0.2
195.1130	2.0
196.0966	1.1
196.1108	0.5
196.1341	0.2
197.1286	0.8
198.1240	0.9
198.1490	0.9
199.1434	0.9
199.1811	0.6
200.0748	0.2
200.1259	0.7
200.1417	0.2
200.1649	0.3
201.1025	0.2
202.1802	2.9
203.0816	1.0
203.1832	0.4
204.1022	2.7
205.0964	1.2
206.0794	0.3
206.1167	0.4
207.1128	1.3
208.0968	2.7
208.1148	0.2
209.1007	0.3
209.1285	6.0
210.0089	0.2
210.0589	0.2
210.0798	5.3
210.1125	100.0
210.1460	0.6
210.1539	0.7
210.1664	0.2
210.2049	0.2
211.0820	0.3
211.1161	12.0
212.0743	0.2
212.1299	2.8
213.0684	0.3
213.1248	0.4
214.0874	0.2
214.1224	3.0
214.1436	0.9
215.0816	0.2
215.1251	0.4
216.1593	5.6
217.0975	0.3
217.1630	0.7
218.0805	0.3
218.1175	2.0
218.1750	1.2

Name: cyclo-(Leu-Leu)
PrecursorMZ: 227.17513
RT: 1.3932
Spectrum_type: 2
charge: 1
Method: HCD
Collision_energy: [28.333334]
Isolation_window: 4.0
Ion_mode: P
Num Peaks: 51
69.0702	3.0
71.0858	1.2
72.0447	1.2
81.0701	0.9
83.0857	0.9
84.0810	1.0
86.0912	0.7
86.0966	100.0
86.1020	0.8
87.0999	4.6
95.0857	0.5
97.0649	0.6
98.0601	0.5
98.0965	2.2
114.0913	12.9
115.0945	0.7
124.0755	1.1
126.0912	10.4
127.0946	0.8
136.0754	0.5
152.0704	2.3
154.1588	30.3
155.1621	2.9
164.0703	0.7
166.0860	1.1
166.1225	0.9
168.1015	1.0
171.1126	0.5
182.1536	18.0
183.1570	1.8
184.0965	0.7
185.1280	2.2
194.0808	3.1
194.1172	2.6
196.0964	1.4
199.1801	21.8
200.1835	2.2
210.1121	3.3
225.1596	0.5
226.0862	0.6
226.1068	1.7
226.1433	0.5
226.1797	0.6
227.0811	0.7
227.1536	1.8
227.1748	49.8
228.0650	1.5
228.1011	0.5
228.1219	0.5
228.1784	6.2
228.2315	0.8

Name: d-Hydroxylupanine
PrecursorMZ: 265.19092
RT: 9.8802
ExactMass: 264.183778013
Spectrum_type: 2
charge: 1
Formula: C15H24N2O2
SMILES: C1CC2C3CC(CN2C(=O)C1)C4CC(CCN4C3)O
Method: HCD
Collision_energy: [28.333334]
Isolation_window: 4.0
Ion_mode: P
Num Peaks: 37
84.0811	5.7
86.0967	13.4
93.0702	5.8
100.1123	47.0
102.1279	4.0
116.0707	14.8
119.0492	15.8
121.0649	21.1
163.0754	20.3
164.0707	28.1
165.0547	16.1
182.0812	27.0
182.1173	3.9
200.1280	10.1
218.1388	4.6
221.1647	6.4
228.1229	10.4
246.1336	15.2
248.1129	5.7
250.1435	3.6
264.1227	11.6
264.1441	4.4
264.1590	3.8
264.1706	3.8
264.1954	19.3
265.1307	6.4
265.1544	7.4
265.1907	100.0
266.1026	10.9
266.1227	4.8
266.1382	7.1
266.1746	40.6
266.1864	15.3
266.1946	14.9
266.2105	4.6
267.1338	4.0
267.1785	3.5

Name: delta-UNDECALACTONE
PrecursorMZ: 185.15343
RT: 5.3281
ExactMass: 184.146329876
Spectrum_type: 2
charge: 1
Formula: C11H20O2
SMILES: CCCCCCC1CCCC(=O)O1
Method: HCD
Collision_energy: [28.333334]
Isolation_window: 4.0
Ion_mode: P
Num Peaks: 21
55.0546	15.6
57.0703	17.4
67.0545	11.2
69.0702	64.7
71.0858	12.5
81.0701	24.2
83.0858	65.4
93.0700	33.8
95.0856	20.2
97.0648	26.3
97.1012	16.1
107.0856	31.3
109.1012	21.6
111.0805	23.3
121.1010	22.9
123.1166	10.7
126.0910	14.4
149.1322	100.0
150.1354	9.5
158.0598	16.6
167.1428	50.6

Name: delta-Valerobetaine
PrecursorMZ: 160.13323
RT: 4.7558
ExactMass: 159.125928785
Spectrum_type: 2
charge: 1
Formula: C8H17NO2
SMILES: C[N+](C)(C)CCCCC(=O)[O-]
Method: HCD
Collision_energy: [28.333334]
Isolation_window: 4.0
Ion_mode: P
Num Peaks: 13
55.0547	1.8
59.0496	0.9
60.0813	23.3
61.0847	0.6
83.0495	3.2
101.0600	34.1
102.0633	1.8
160.1052	0.6
160.1333	100.0
160.1549	0.5
160.1610	0.7
161.1368	9.0
162.1384	0.6

Name: di-N-Octyl Phthalate
PrecursorMZ: 391.2839
RT: 5.0958
ExactMass: 390.27700969
Spectrum_type: 2
charge: 1
Formula: C24H38O4
SMILES: CCCCCCCCOC(=O)C1=CC=CC=C1C(=O)OCCCCCCCC
Method: HCD
Collision_energy: [28.333334]
Isolation_window: 4.0
Ion_mode: P
Num Peaks: 15
57.0703	10.2
71.0859	17.3
97.4318	5.3
114.0914	24.1
149.0233	100.0
150.0267	6.4
167.0338	19.3
176.8750	10.3
178.8735	5.9
355.2629	7.4
373.2738	7.4
390.8006	8.0
391.3029	6.5
391.3678	7.2
392.2916	5.8

Name: dopamine-C19:1
PrecursorMZ: 432.34696
RT: 0.5989
Spectrum_type: 2
charge: 1
SMILES: O=C(NCCC1=CC(O)=C(O)C=C1)CCCCCCCCC=CCCCCCCCC
Method: HCD
Collision_energy: [28.333334]
Isolation_window: 4.0
Ion_mode: P
Num Peaks: 79
70.0655	0.2
81.0339	0.5
81.0702	0.2
82.0654	0.2
83.0859	0.2
84.0812	0.5
86.0967	0.2
89.0600	0.3
95.0857	0.3
100.0760	3.1
101.0791	0.2
105.0701	0.2
107.0858	0.4
109.1012	0.2
110.0602	0.2
112.0759	2.2
114.0915	0.2
119.0857	0.2
121.0647	0.2
121.1014	0.3
124.1126	0.2
126.0914	0.2
128.0707	8.5
129.0744	0.5
133.0859	0.2
133.1012	0.2
135.0806	0.3
135.1169	0.3
140.1070	1.3
141.0659	0.6
145.1013	0.3
147.1170	0.5
156.1021	0.7
158.1175	0.4
159.1171	0.3
161.1326	1.8
162.1362	0.3
163.1121	0.2
165.0911	0.3
173.1327	0.2
178.1229	0.2
253.1956	0.2
255.2106	1.7
256.2145	0.4
271.2055	0.4
273.2213	2.7
274.2246	0.7
283.2421	0.2
301.1552	0.2
365.2836	0.2
383.2940	0.6
384.2988	0.2
412.3211	0.9
413.3265	0.3
414.2700	0.2
414.3369	10.8
415.3401	3.3
416.3438	0.4
428.3159	8.3
429.3191	2.5
430.1757	0.2
430.2096	0.7
430.2350	0.6
430.3316	100.0
430.4298	0.6
430.4552	0.7
430.4891	0.2
431.2142	0.3
431.3345	34.2
431.4312	0.2
431.4566	0.2
432.2765	0.3
432.3390	2.3
433.3498	0.3
435.3225	0.4
446.3266	1.0
447.3287	0.3
448.3417	18.3
449.3451	5.1

Name: eicosanoyl-EA
PrecursorMZ: 356.35207
RT: 1.0868
ExactMass: 355.345029678
Spectrum_type: 2
charge: 1
Formula: C22H45NO2
SMILES: CCCCCCCCCCCCCCCCCCCC(=O)NCCO
Method: HCD
Collision_energy: [28.333334]
Isolation_window: 4.0
Ion_mode: P
Num Peaks: 47
57.0703	6.0
58.0656	11.3
60.0449	29.1
67.0546	7.0
69.0703	8.2
70.0654	6.2
72.0811	5.2
81.0702	9.7
83.0859	7.5
84.0812	7.8
86.0604	5.9
86.0968	8.5
91.0577	8.7
95.0858	11.4
97.1013	4.9
100.0760	6.5
109.1013	9.0
112.1124	5.1
126.1278	7.1
181.1334	5.7
182.1370	5.1
183.1493	16.3
197.1648	5.9
225.1961	5.8
270.2787	7.2
280.2996	12.3
284.2945	8.3
297.2973	6.1
298.3102	81.8
299.3140	12.0
338.3045	4.9
338.3416	61.5
339.3449	11.9
355.0698	6.1
355.1659	8.5
355.1992	18.2
355.2815	40.9
356.2003	8.0
356.2549	12.3
356.2839	6.4
356.3185	10.8
356.3521	100.0
357.1811	8.6
357.2400	19.4
357.3554	25.4
358.2420	5.0
358.3685	5.9

Name: epsilon-Fructoselysine
PrecursorMZ: 309.16496
RT: 6.9219
ExactMass: 308.15835111
Spectrum_type: 2
charge: 1
Formula: C12H24N2O7
SMILES: C(CCNCC(=O)[C@H]([C@@H]([C@@H](CO)O)O)O)C[C@@H](C(=O)O)N
Method: HCD
Collision_energy: [28.333334]
Isolation_window: 4.0
Ion_mode: P
Num Peaks: 33
70.0655	14.6
81.0337	11.1
82.0653	3.2
84.0811	100.0
85.0843	5.7
86.0967	13.2
98.0602	2.9
98.9844	3.7
111.0442	12.3
128.0706	29.5
130.0863	49.4
131.0898	3.0
142.0860	4.0
146.0808	4.2
147.1128	18.3
164.1072	8.6
181.1335	2.7
194.1175	4.3
208.0967	3.6
212.1276	9.8
225.1230	14.9
238.1066	3.5
246.1338	3.1
256.1173	9.9
273.1441	29.3
274.1258	10.4
291.1548	35.1
292.1585	4.0
309.1653	81.8
310.1684	11.1
319.1596	3.9
321.1738	2.9
324.1646	2.8

Name: epsilon-Methyl-L-lysine
PrecursorMZ: 161.12839
RT: 12.8703
ExactMass: 160.121177757
Spectrum_type: 2
charge: 1
Formula: C7H16N2O2
SMILES: CNCCCC[C@@H](C(=O)O)N
Method: HCD
Collision_energy: [28.333334]
Isolation_window: 4.0
Ion_mode: P
Num Peaks: 29
60.0448	5.8
60.0812	2.7
67.0546	5.2
72.0447	1.9
84.0810	84.5
85.0650	27.4
85.0843	4.6
101.0598	2.4
101.1074	4.0
102.0914	82.2
103.0948	4.8
105.0335	4.7
114.0913	4.8
121.0396	4.4
126.0912	100.0
127.0945	7.7
143.1177	93.4
144.1017	68.1
144.1208	6.6
145.1051	3.8
146.0345	3.5
160.0965	2.9
160.1331	7.2
161.0911	2.6
161.1281	6.0
162.0547	3.1
162.1123	4.2
162.1232	5.1
163.0612	32.3

Name: ethyl (2R)-5-oxopyrrolidine-2-carboxylate
PrecursorMZ: 158.08114
RT: 5.0397
ExactMass: 157.07389321
Spectrum_type: 2
charge: 1
Formula: C7H11NO3
SMILES: CCOC(=O)[C@H]1CCC(=O)N1
Method: HCD
Collision_energy: [28.333334]
Isolation_window: 4.0
Ion_mode: P
Num Peaks: 18
84.0446	12.9
85.0480	0.5
86.0966	1.1
112.0675	0.4
112.0757	55.5
113.0790	3.4
130.0497	2.1
130.0861	3.4
157.0453	0.4
157.1699	0.6
158.0673	0.5
158.0810	100.0
158.0915	0.6
158.0948	0.7
158.1172	0.4
158.1537	0.6
159.0843	6.8
160.0616	3.7

Name: ethyl 1-(4,6-diethoxy-2-pyrimidinyl)-5-methyl-1H-pyrazole-4-carboxylate
PrecursorMZ: 321.15514
RT: 7.9086428571428575
ExactMass: 320.14845513
Spectrum_type: 2
charge: 1
Formula: C15H20N4O4
SMILES: CCOC1=CC(=NC(=N1)N2C(=C(C=N2)C(=O)OCC)C)OCC
Method: HCD
Collision_energy: [28.333334]
Isolation_window: 4.0
Ion_mode: P
Num Peaks: 39
55.0546	1.7
69.4065	1.4
83.0493	0.8
97.4564	1.0
101.0597	4.8
126.0911	1.0
135.0662	1.5
177.1018	1.0
195.1124	4.3
203.0923	24.8
204.0956	2.5
204.1379	2.3
205.0969	2.2
216.1591	0.9
221.1028	13.7
222.1061	0.9
222.1483	1.6
223.1436	1.1
286.1279	1.0
303.1447	6.4
304.1380	13.9
305.1411	1.5
319.1487	1.0
319.1648	1.8
319.1858	1.4
320.1121	1.0
320.1321	1.3
320.1498	1.2
320.1687	3.7
320.1976	3.8
321.1551	100.0
321.1780	0.9
321.1965	1.2
322.1579	11.1
322.1776	0.9
322.2003	12.4
323.1220	1.7
323.1594	9.1
323.1942	4.2

Name: ethyl 4-(3,12-dihydroxy-10,13-dimethyl-2,3,4,5,6,7,8,9,11,12,14,15,16,17-tetradecahydro-1H-cyclopenta(a)phenanthren-17-yl)pentanoate
PrecursorMZ: 403.32053
RT: 3.1791
ExactMass: 420.32395988
Spectrum_type: 2
charge: 1
Formula: C26H44O4
SMILES: CCOC(=O)CCC(C)C1CCC2C1(C(CC3C2CCC4C3(CCC(C4)O)C)O)C
Method: HCD
Collision_energy: [28.333334]
Isolation_window: 4.0
Ion_mode: P
Num Peaks: 86
67.0546	5.9
69.0703	5.5
71.0496	3.9
79.0546	3.6
81.0702	16.6
83.0495	2.6
83.0859	10.6
85.0652	6.1
89.0600	2.9
91.0545	3.2
93.0701	10.9
95.0858	23.1
105.0701	9.6
107.0858	14.9
109.1014	15.9
111.0806	9.4
113.0963	12.1
119.0857	11.5
121.1013	12.8
123.1170	7.6
129.0911	22.1
131.0856	7.6
133.1013	11.9
135.1169	15.9
143.0856	5.6
145.1012	26.4
147.1169	14.2
149.1325	11.5
157.1013	7.2
159.1169	18.2
161.1325	12.9
163.1482	5.0
169.1015	3.6
171.1169	8.8
173.1326	12.0
175.1482	7.4
183.1170	4.6
185.1325	8.7
187.1481	8.7
189.1636	5.2
197.1326	5.1
199.1481	11.6
201.1638	11.0
203.1793	3.8
211.1484	2.8
213.1638	17.8
215.1795	13.4
225.1641	2.9
227.1794	13.2
229.1952	5.9
239.1793	9.3
240.1828	2.8
241.1952	11.8
242.1986	3.1
243.2113	2.7
251.1801	2.7
253.1950	21.3
254.1998	3.6
255.2108	9.5
257.1900	5.3
259.2055	2.5
267.2109	3.6
271.2057	2.5
279.2111	2.7
281.2263	7.5
283.2419	5.8
295.2420	3.2
309.2576	14.5
323.2728	5.8
337.2517	5.6
349.2891	14.1
350.2929	5.4
355.2630	11.2
367.2995	21.5
368.3027	6.6
369.2784	3.1
373.2740	10.8
385.3100	100.0
386.3133	25.8
387.3168	4.0
402.1537	2.6
402.3055	3.2
403.3206	69.3
404.3235	21.9
405.2999	9.0
405.3244	2.6

Name: ethyl 5-butyl-7-(methylsulfanyl)-4,5-dihydro-3H-1-thia-3,5,6,8-tetraazaacenaphthylene-2-carboxylate
PrecursorMZ: 353.11047
RT: 8.80785
ExactMass: 352.10276824
Spectrum_type: 2
charge: 1
Formula: C15H20N4O2S2
SMILES: CCCCN1CNC2=C(SC3=NC(=NC1=C23)SC)C(=O)OCC
Method: HCD
Collision_energy: [28.333334]
Isolation_window: 4.0
Ion_mode: P
Num Peaks: 4
352.1610	9.6
353.1105	100.0
354.1124	15.5
354.2015	10.6

Name: ethyl N-(3-amino-2-methylphenyl)carbamate
PrecursorMZ: 195.11276
RT: 5.3126
ExactMass: 194.105527694
Spectrum_type: 2
charge: 1
Formula: C10H14N2O2
SMILES: CCOC(=O)NC1=CC=CC(=C1C)N
Method: HCD
Collision_energy: [28.333334]
Isolation_window: 4.0
Ion_mode: P
Num Peaks: 31
55.0546	1.7
95.0605	6.9
96.0446	2.9
101.0598	3.8
108.0808	2.7
111.0553	7.0
121.0759	1.9
123.0554	2.9
123.0915	2.2
133.0759	11.7
136.0756	2.6
148.0755	3.5
149.0708	1.8
150.0913	5.5
151.0865	7.1
152.0704	3.0
167.0814	3.2
176.0704	3.0
177.1021	6.0
178.0860	11.7
179.0812	3.3
194.0810	13.1
194.1172	4.5
195.0763	8.7
195.1125	100.0
196.0604	1.9
196.0966	18.3
196.1159	10.4
196.1328	1.9
197.0918	17.9
197.1283	4.1

Name: gamma-Glutamylleucine
PrecursorMZ: 261.14423
RT: 6.3951
ExactMass: 260.13722174
Spectrum_type: 2
charge: 1
Formula: C11H20N2O5
SMILES: CC(C)C[C@@H](C(=O)O)NC(=O)CC[C@@H](C(=O)O)N
Method: HCD
Collision_energy: [28.333334]
Isolation_window: 4.0
Ion_mode: P
Num Peaks: 28
70.0655	30.6
84.0446	47.8
86.0966	100.0
102.0551	13.0
116.0707	11.6
129.0658	17.7
130.0497	6.2
132.1018	50.5
148.0602	9.1
197.1282	90.7
198.1121	7.8
198.1315	10.4
216.1227	17.5
225.1229	8.0
228.0977	8.2
243.1336	60.9
244.1179	12.8
244.1366	6.4
260.0910	12.0
260.1125	9.1
260.1271	6.1
261.0866	9.6
261.1445	6.6
262.0704	12.8
262.0928	11.3
262.1070	9.4
262.1289	12.9
263.1022	10.8

Name: gamma-Hexalactone
PrecursorMZ: 115.0755
RT: 5.5344
ExactMass: 114.068079557
Spectrum_type: 2
charge: 1
Formula: C6H10O2
SMILES: CCC1CCC(=O)O1
Method: HCD
Collision_energy: [28.333334]
Isolation_window: 4.0
Ion_mode: P
Num Peaks: 19
55.0547	2.7
58.0656	19.7
67.0546	1.8
69.0703	100.0
70.0655	1.6
70.0736	6.2
72.0812	2.6
73.0651	14.7
74.0604	2.0
74.9312	2.1
86.0603	2.2
97.0649	6.0
98.0603	3.0
114.0914	29.5
114.8931	7.0
115.0754	4.4
115.0947	2.4
116.0706	11.7
116.1070	35.6

Name: gamma-L-Glutamyl-L-phenylalanine
PrecursorMZ: 295.1288
RT: 5.7886
ExactMass: 294.12157168
Spectrum_type: 2
charge: 1
Formula: C14H18N2O5
SMILES: C1=CC=C(C=C1)C[C@@H](C(=O)O)NC(=O)CC[C@@H](C(=O)O)N
Method: HCD
Collision_energy: [28.333334]
Isolation_window: 4.0
Ion_mode: P
Num Peaks: 39
67.0546	2.1
70.0655	3.8
74.0604	4.5
81.0339	1.9
81.0702	2.4
84.0447	2.0
95.0858	1.8
100.0759	1.9
102.0551	14.6
112.0759	3.3
116.0707	2.8
120.0809	100.0
121.0842	6.3
130.0499	9.3
136.0758	2.2
149.0598	2.0
151.0867	3.2
152.0707	4.1
152.1070	1.9
162.0915	3.7
166.0863	68.7
167.0898	5.1
177.1023	2.8
178.0862	1.9
179.0814	3.0
180.0657	5.8
223.1076	3.1
248.1277	4.2
248.1394	3.9
249.1232	3.0
277.1184	2.6
294.0967	3.8
294.1308	4.7
294.1470	2.8
295.1291	8.5
295.1662	4.3
296.0925	3.3
296.1111	4.4
297.1443	2.2

Name: glycyl-L-isoleucine
PrecursorMZ: 189.1231
RT: 5.5135
ExactMass: 188.11609238
Spectrum_type: 2
charge: 1
Formula: C8H16N2O3
SMILES: CC[C@H](C)[C@@H](C(=O)O)NC(=O)CN
Method: HCD
Collision_energy: [28.333334]
Isolation_window: 4.0
Ion_mode: P
Num Peaks: 68
55.0546	1.6
69.0701	3.7
70.0654	1.2
70.6955	0.7
72.0810	88.9
73.0844	3.6
74.0603	0.8
75.0555	2.8
81.0337	0.9
84.0446	1.2
84.0809	0.8
86.0602	4.1
86.0965	100.0
87.0999	5.1
97.4560	0.7
98.0601	1.7
99.0553	2.7
100.0756	1.0
110.0599	0.8
111.0439	0.9
112.0755	0.9
114.0550	1.9
115.0501	13.4
116.0535	3.9
116.0705	1.2
118.0861	56.3
119.0894	3.4
124.0755	0.9
126.0547	1.4
126.0910	1.7
126.1275	3.8
128.0704	3.7
130.0859	1.1
132.1016	13.7
134.0809	1.4
142.0859	2.0
142.1223	0.9
142.1587	16.4
143.1176	22.7
143.1622	1.3
144.0764	3.3
144.1016	4.3
144.1210	1.8
144.1380	18.0
145.0797	1.7
146.0806	0.8
148.0964	1.1
154.0859	1.3
162.0546	5.2
170.0557	1.1
170.0809	2.1
171.1124	1.1
172.0964	8.7
172.1329	1.1
187.1268	1.9
188.0373	3.1
188.0700	1.0
188.0913	5.8
188.1638	1.8
189.0651	1.1
189.0861	0.9
189.1017	1.4
189.1228	6.4
190.0524	1.1
190.0856	2.3
190.1069	4.3
190.1432	6.3
191.0806	0.8

Name: h 267 Isomere de oxymetholone m2
PrecursorMZ: 317.2471
RT: 2.3825
ExactMass: 316.240230259
Spectrum_type: 2
charge: 1
Formula: C21H32O2
SMILES: C[C@@H]1C[C@]2(C(CCC3C2CCC4=C3CC[C@@]4(C)CO)CC1=O)C
Method: HCD
Collision_energy: [28.333334]
Isolation_window: 4.0
Ion_mode: P
Num Peaks: 6
71.0860	24.3
81.0338	22.4
99.0807	23.1
193.1223	28.4
203.1429	38.6
317.2470	100.0

Name: h 68 Calusterone
PrecursorMZ: 339.22915
RT: 1.4839
ExactMass: 316.240230259
Spectrum_type: 2
charge: 1
Formula: C21H32O2
SMILES: C[C@H]1CC2=CC(=O)CC[C@@]2(C3C1C4CC[C@]([C@]4(CC3)C)(C)O)C
Method: HCD
Collision_energy: [28.333334]
Isolation_window: 4.0
Ion_mode: P
Num Peaks: 6
112.8958	76.8
114.8931	56.2
209.1647	47.5
322.2481	51.4
338.3413	80.2
340.2588	100.0

Name: h 69 Calusterone-m
PrecursorMZ: 303.26785
RT: 1.0232
ExactMass: 320.271530387
Spectrum_type: 2
charge: 1
Formula: C21H36O2
SMILES: C[C@H]1CC2CC(CC[C@@]2(C3C1C4CC[C@]([C@]4(CC3)C)(C)O)C)O
Method: HCD
Collision_energy: [28.333334]
Isolation_window: 4.0
Ion_mode: P
Num Peaks: 31
55.0546	17.2
57.0703	12.4
67.0546	44.2
69.0703	46.4
69.0747	16.2
79.0545	27.2
81.0338	89.4
81.0702	49.9
83.0858	24.4
91.0545	16.5
93.0700	23.9
95.0493	55.2
95.0857	46.6
97.0649	13.0
97.1013	19.4
97.4005	12.2
105.0700	15.3
107.0857	19.7
109.1013	16.3
119.0856	20.6
121.0647	16.2
121.1012	34.7
123.0805	15.9
131.0854	17.1
133.1011	17.5
135.1167	22.4
145.1011	15.5
285.2571	17.3
303.2679	100.0
304.2720	18.4
304.2994	11.7

Name: h 92 Oxabolone
PrecursorMZ: 291.19481
RT: 2.4935
ExactMass: 290.18819469
Spectrum_type: 2
charge: 1
Formula: C18H26O3
SMILES: C[C@]12CCC3C(C1CC[C@@H]2O)CCC4=C(C(=O)CCC34)O
Method: HCD
Collision_energy: [28.333334]
Isolation_window: 4.0
Ion_mode: P
Num Peaks: 106
55.0545	2.8
57.0338	2.7
67.0545	8.1
69.0337	2.0
69.0701	5.9
69.5390	2.8
70.0654	3.3
71.0494	2.3
79.0544	5.8
81.0336	9.3
81.0700	14.0
83.0493	1.9
83.0857	5.1
85.0649	2.9
91.0543	5.5
93.0699	9.2
95.0491	5.6
95.0855	10.7
96.0807	2.0
97.0647	3.1
97.1011	4.2
98.0600	5.6
99.0804	1.9
100.1121	3.2
105.0698	7.9
107.0490	3.0
107.0854	10.1
109.0647	12.2
109.1010	5.1
111.0803	2.8
116.0704	2.8
117.0697	4.0
119.0853	10.0
121.0645	4.9
121.1010	7.4
123.0801	5.4
123.1167	2.1
125.0231	3.2
125.0959	3.5
126.0547	3.2
129.0695	1.9
130.0858	1.8
131.0852	8.8
133.1009	6.8
135.0801	11.0
135.1165	4.6
137.0957	4.1
139.1114	1.9
143.0853	3.2
145.1008	6.8
147.0801	5.1
147.1165	6.2
149.0957	10.4
149.1069	7.1
151.1114	5.3
157.1009	3.9
159.0805	1.9
159.1165	4.5
161.0958	4.3
161.1321	2.5
163.1114	4.3
166.0858	100.0
167.0892	9.2
168.1015	7.5
171.1163	2.6
173.1321	2.9
175.1112	2.5
177.1269	2.5
185.1319	2.3
188.0701	2.1
192.1740	2.7
207.1122	4.2
217.1581	4.9
219.1738	2.0
231.1482	3.9
244.0961	3.6
244.1313	2.2
245.1275	3.2
245.1892	2.0
246.1117	3.6
247.1069	1.8
255.1734	2.5
257.1895	2.1
272.0906	3.0
273.1222	2.2
273.1840	14.2
274.1061	4.6
274.1875	2.7
275.1382	1.8
275.1996	17.6
290.1008	10.4
290.1363	3.4
290.1566	2.8
290.2678	1.7
291.0959	3.7
291.1323	9.0
291.1704	6.1
291.1944	47.0
291.2421	2.0
292.1156	10.5
292.1308	3.6
292.1655	6.2
292.1986	9.7
293.1117	3.2
293.1484	9.4
293.2103	21.9

Name: himeic acid B
PrecursorMZ: 344.14914
RT: 2.8667
ExactMass: 321.15762283
Spectrum_type: 2
charge: 1
Formula: C17H23NO5
SMILES: C1=C(OC=C(C1=O)C(=O)N)/C=C/CCCCCCCCC(=O)O
Method: HCD
Collision_energy: [28.333334]
Isolation_window: 4.0
Ion_mode: P
Num Peaks: 106
55.0548	1.2
59.0496	0.6
70.0656	1.3
72.0812	0.5
80.0500	0.4
81.0337	0.3
83.0495	1.5
84.0812	1.0
85.0650	0.3
86.0966	0.2
96.0809	0.2
98.0603	0.4
98.0964	0.2
101.0601	7.0
102.0632	0.4
107.0729	0.3
110.0715	0.2
111.0442	0.3
114.0664	0.3
116.0707	0.5
125.0712	1.4
126.0555	0.4
126.0913	0.4
129.1022	0.3
130.0865	0.7
132.0444	0.5
134.0602	0.6
146.0926	3.1
147.0955	0.2
147.1130	0.3
149.0835	0.7
150.0916	7.6
151.0955	0.7
153.0544	0.2
164.1072	0.4
168.0811	0.9
184.0757	0.3
185.0836	3.2
186.0915	5.5
187.0957	0.6
200.0917	0.8
207.1130	0.3
210.1237	0.2
225.1234	2.7
226.1267	0.3
228.1346	0.5
237.1234	0.5
246.1127	10.9
247.1165	1.6
255.1348	0.3
256.1335	0.2
268.1338	0.3
280.1657	0.5
284.1280	2.4
285.1361	22.5
286.1411	6.5
287.1468	1.3
290.1508	0.4
297.1256	0.3
297.1805	0.4
309.1818	0.9
325.1865	0.3
326.1611	0.4
336.2017	0.3
342.1360	0.2
343.1284	0.7
343.1991	1.9
344.1482	5.6
345.1444	1.5
345.1836	0.4
345.9540	0.2
346.0768	0.6
346.0944	0.4
346.1652	100.0
346.2350	0.7
346.2531	0.6
346.2779	0.2
346.3304	0.3
347.1682	22.9
348.1710	2.7
349.1407	0.6
349.1769	1.3
350.1755	1.4
351.1563	1.2
351.1926	1.0
352.1404	0.4
352.1887	1.0
353.1718	1.3
354.1427	0.6
354.2051	0.6
355.1367	0.2
355.1870	11.0
356.0970	0.4
356.1519	0.6
356.1895	2.1
357.1469	0.7
357.2019	2.3
358.1326	0.4
358.1673	0.4
358.2083	0.5
359.1607	0.8
360.1407	0.8
361.1413	0.4
361.1831	0.7
362.1644	1.4
363.1560	0.6

Name: l-Alanyl-l-leucine
PrecursorMZ: 203.13892
RT: 3.7393
ExactMass: 202.13174244
Spectrum_type: 2
charge: 1
Formula: C9H18N2O3
SMILES: C[C@@H](C(=O)N[C@@H](CC(C)C)C(=O)O)N
Method: HCD
Collision_energy: [28.333334]
Isolation_window: 4.0
Ion_mode: P
Num Peaks: 75
57.0338	4.9
58.0655	8.2
70.0654	5.9
74.0604	3.9
76.0396	3.6
76.0759	3.7
84.0446	12.9
84.0810	79.7
85.0844	4.6
88.0395	6.3
100.0758	21.1
101.0598	4.8
102.0550	4.4
102.0914	8.0
112.0757	4.2
114.0663	5.5
114.0913	3.3
120.0807	12.1
126.0549	10.4
128.0705	13.4
129.1021	100.0
130.0498	17.3
130.0861	43.3
130.1053	5.3
138.0548	7.9
138.0912	6.9
139.0499	5.0
140.0704	3.3
140.1068	12.2
141.1020	7.7
142.0498	5.3
142.0861	4.4
144.0654	6.6
147.1126	27.6
148.0603	12.0
156.1020	5.0
156.9747	4.3
158.0812	3.7
160.0756	7.9
166.0861	12.1
166.1225	4.7
167.1177	9.8
170.0448	7.7
170.0810	3.8
174.0913	3.7
179.9904	17.9
184.0966	29.3
184.1079	10.5
184.1331	6.3
185.1285	5.9
186.0757	4.9
186.0913	7.8
186.1123	12.1
187.1076	8.9
198.0010	6.6
201.0866	8.5
201.1222	3.8
202.0903	3.4
202.1072	69.0
202.1183	23.1
202.1434	23.8
202.1799	13.9
203.0813	4.3
203.1024	12.2
203.1106	3.9
203.1180	6.1
203.1386	42.4
204.0863	6.0
204.0982	6.6
204.1226	19.0
204.1340	11.0
204.1428	4.0
204.1592	5.4
205.0816	3.3
205.0970	3.7

Name: lithocholic acid-C12:1
PrecursorMZ: 557.45602
RT: 1.5909
Spectrum_type: 2
charge: 1
SMILES: O=C(OC1CC(CCC2C3CCC4(C)C2CCC4C(CCC(O)=O)C)C3(C)CC1)CCCCCCCCCC=C
Method: HCD
Collision_energy: [28.333334]
Isolation_window: 4.0
Ion_mode: P
Num Peaks: 31
67.0547	15.9
69.0702	13.5
71.0859	5.5
79.0546	4.7
81.0701	18.0
83.0858	8.8
91.0545	4.6
93.0700	7.5
95.0857	22.7
97.1013	9.0
97.4007	5.4
105.0700	5.9
107.0856	9.9
109.1013	11.0
119.0856	14.3
121.1013	8.6
123.1167	5.3
131.0856	5.5
133.1012	9.2
135.1168	6.1
145.1011	6.1
147.1169	6.8
159.1171	4.9
161.1327	5.6
175.1478	7.2
187.1482	4.7
539.4457	5.1
556.4423	9.7
557.4560	100.0
558.4597	32.2
559.4710	38.6

Name: lithocholic acid-C13:0
PrecursorMZ: 573.48724
RT: 0.9259
Spectrum_type: 2
charge: 1
SMILES: CC12C(CCC2C(CCC(O)=O)C)C3CCC4CC(OC(CCCCCCCCCCCC)=O)CCC4(C)C3CC1
Method: HCD
Collision_energy: [28.333334]
Isolation_window: 4.0
Ion_mode: P
Num Peaks: 37
55.0546	7.5
57.0703	5.2
63.7212	4.6
67.0546	16.2
69.0702	17.6
71.0858	5.3
79.0545	4.4
81.0701	27.9
83.0857	12.5
93.0700	14.2
95.0856	26.6
97.1013	8.3
105.0699	9.0
107.0856	12.3
109.1013	15.8
119.0855	12.6
121.1011	11.8
123.1168	7.5
131.0853	5.7
133.1010	12.1
135.1166	9.7
137.1324	4.8
145.1011	7.5
147.1165	6.2
149.1324	9.2
159.1167	5.7
161.1323	6.7
163.1479	6.1
173.1322	6.7
175.1479	4.9
189.1639	4.5
555.4769	5.3
571.4719	5.9
572.4743	31.4
573.4864	100.0
574.4898	37.1
575.5008	20.3

Name: lithocholic acid-C13:1
PrecursorMZ: 571.4717
RT: 0.9647
Spectrum_type: 2
charge: 1
SMILES: O=C(OC1CC(CCC2C3CCC4(C)C2CCC4C(CCC(O)=O)C)C3(C)CC1)CCCCCCCCCCC=C
Method: HCD
Collision_energy: [28.333334]
Isolation_window: 4.0
Ion_mode: P
Num Peaks: 24
67.0546	14.6
69.0703	15.1
69.5255	9.8
81.0701	25.6
83.0858	12.5
93.0700	10.1
95.0857	29.3
97.1012	8.7
105.0700	7.2
107.0855	11.2
109.1012	13.9
119.0855	12.5
121.1012	12.2
131.0853	7.3
133.1013	8.5
145.1009	8.1
147.1165	8.6
149.1325	7.1
161.1322	8.2
553.4596	7.6
570.4584	14.9
571.4710	100.0
572.4745	36.4
573.4860	43.0

Name: m-Tyramine
PrecursorMZ: 138.09134
RT: 2.5482
ExactMass: 137.084063974
Spectrum_type: 2
charge: 1
Formula: C8H11NO
SMILES: C1=CC(=CC(=C1)O)CCN
Method: HCD
Collision_energy: [28.333334]
Isolation_window: 4.0
Ion_mode: P
Num Peaks: 5
121.0887	7.0
121.1011	7.3
138.0911	100.0
138.1275	21.2
139.0945	6.3

Name: methyl (1S,14S,15R)-15-ethyl-17-methyl-12-oxo-10,17-diazatetracyclo(12.3.1.03,11.04,9)octadeca-3(11),4,6,8-tetraene-18-carboxylate
PrecursorMZ: 377.18492
RT: 1.5688
ExactMass: 354.1943427
Spectrum_type: 2
charge: 1
Formula: C21H26N2O3
SMILES: CC[C@H]1CN([C@H]2CC3=C(C(=O)C[C@@H]1C2C(=O)OC)NC4=CC=CC=C34)C
Method: HCD
Collision_energy: [28.333334]
Isolation_window: 4.0
Ion_mode: P
Num Peaks: 3
377.1853	100.0
378.1887	20.6
378.2152	52.7

Name: methyl (2E)-2-((4aR,8aS)-4a-methyl-8-methylidene-3,4,5,6,7,8a-hexahydro-1H-naphthalen-2-ylidene)-3-hydroxypropanoate
PrecursorMZ: 287.16144
RT: 1.0915
ExactMass: 264.17254462
Spectrum_type: 2
charge: 1
Formula: C16H24O3
SMILES: C[C@]12CCCC(=C)[C@@H]1C/C(=C(\CO)/C(=O)OC)/CC2
Method: HCD
Collision_energy: [28.333334]
Isolation_window: 4.0
Ion_mode: P
Num Peaks: 9
73.0652	4.1
86.0966	5.6
104.0706	8.0
112.1121	6.8
230.1538	4.0
287.1614	100.0
288.1644	14.5
288.1947	18.3
289.1408	9.4

Name: methyl (2E,4E,8E)-7,13-dihydroxy-4,8,12-trimethyltetradeca-2,4,8-trienoate
PrecursorMZ: 311.22089
RT: 5.7627
ExactMass: 310.21440943
Spectrum_type: 2
charge: 1
Formula: C18H30O4
SMILES: CC(CC/C=C(\C)/C(C/C=C(\C)/C=C/C(=O)OC)O)C(C)O
Method: HCD
Collision_energy: [28.333334]
Isolation_window: 4.0
Ion_mode: P
Num Peaks: 193
55.0545	3.5
56.0580	1.1
57.0339	1.9
67.0546	17.0
69.0338	1.4
69.0702	9.1
70.0655	2.7
71.0495	5.4
72.0811	1.4
79.0545	8.3
81.0338	1.4
81.0701	30.6
82.0734	2.2
83.0495	2.7
83.0858	16.0
84.0811	1.7
84.0892	5.0
85.0650	3.7
86.0968	2.0
91.0544	6.7
93.0700	14.1
93.0726	1.2
94.0735	1.3
95.0493	1.7
95.0857	23.9
95.0883	2.0
96.0891	1.8
97.0649	4.8
97.1013	7.1
99.0806	2.5
100.1120	1.2
105.0700	5.8
107.0492	1.6
107.0856	11.6
108.0887	1.1
109.0649	3.9
109.1013	17.0
109.1045	1.4
110.0681	1.2
110.1047	1.6
111.0805	3.6
111.1169	1.5
116.0708	1.7
117.0699	3.3
119.0856	7.7
120.0809	1.3
121.0286	2.3
121.0649	2.0
121.1012	20.1
122.0965	1.0
122.1045	2.2
123.0804	3.0
123.1168	6.7
125.0960	6.0
126.0914	32.4
127.0752	1.2
127.0947	18.0
129.0698	1.2
131.0855	7.7
133.1011	13.2
134.1044	1.4
135.0805	4.4
135.1168	8.4
136.0757	2.3
137.0596	1.8
137.0789	1.3
137.0961	3.8
137.1324	2.5
138.0913	3.5
139.0946	2.9
139.1117	6.6
143.0855	1.6
145.1012	7.9
146.1045	1.2
147.0806	3.2
147.1168	9.2
149.0961	6.6
149.1326	3.4
151.0754	1.9
151.1118	3.4
152.0706	1.6
153.0743	1.4
153.0910	11.6
155.1067	1.5
157.1012	2.8
159.0802	1.2
159.1169	5.5
161.0598	2.6
161.0961	1.6
161.1325	3.8
163.0752	1.1
163.1118	3.0
164.0707	5.6
165.0740	6.8
165.1274	2.0
166.0762	4.2
166.0862	8.6
167.0781	3.1
167.0896	6.5
167.1067	10.1
168.1099	1.3
169.1220	1.2
171.1018	1.0
171.1168	2.7
173.0959	1.6
173.1173	2.8
173.1325	4.2
175.0752	1.4
175.0965	1.8
175.1117	1.5
175.1480	1.2
177.0661	1.3
177.1274	3.6
179.0699	1.3
181.1006	1.2
182.0812	1.4
183.0846	1.1
183.1166	1.2
184.0861	1.4
185.0889	1.3
187.1330	2.3
187.1480	1.1
189.1121	1.8
191.1429	1.1
195.1377	1.4
197.1323	1.5
203.1276	3.0
205.0606	2.1
208.0971	1.7
209.0958	1.1
210.0582	4.1
229.1949	4.1
233.0553	3.2
236.0916	1.0
237.1274	4.6
239.1793	4.5
243.0649	1.7
247.2055	7.3
248.2088	1.5
249.1232	2.7
250.0818	2.8
250.1070	1.2
257.0552	1.3
257.1898	9.4
258.1929	1.8
264.1231	1.3
265.1580	3.7
265.2160	9.5
266.2195	1.8
274.1882	1.4
275.0660	3.1
275.1641	1.2
275.2004	49.2
276.2037	8.8
278.1015	1.8
283.1688	1.5
291.1705	4.1
291.1944	1.4
292.1168	2.0
292.1741	25.3
292.1983	2.4
293.1139	2.3
293.1537	4.6
293.1763	3.9
293.2109	100.0
294.1317	1.4
294.2143	19.3
295.1298	1.6
295.2172	2.0
309.2061	1.2
310.1062	1.3
310.1274	3.2
310.1427	1.3
310.1855	7.8
310.2095	3.1
310.2145	2.0
311.0894	2.0
311.1242	3.3
311.1633	13.8
311.2007	1.3
311.2214	15.9
312.0872	1.5
312.1066	1.5
312.1232	1.4
312.1442	3.4
312.1665	2.4
312.1789	1.6
312.2249	3.2
312.3616	1.5
313.0698	2.8
313.1198	1.6
313.1376	1.3
313.1799	1.7

Name: methyl (2E,8E)-9-(3a-hydroxy-6,7-dimethyl-1-(2-methylpropyl)-3-oxo-2,4,7,7a-tetrahydro-1H-isoindol-4-yl)-4,5-dihydroxy-8-methylnona-2,8-dienoate
PrecursorMZ: 432.27373
RT: 5.2756
ExactMass: 449.27773796
Spectrum_type: 2
charge: 1
Formula: C25H39NO6
SMILES: CC1C2C(NC(=O)C2(C(C=C1C)/C=C(\C)/CCC(C(/C=C/C(=O)OC)O)O)O)CC(C)C
Method: HCD
Collision_energy: [28.333334]
Isolation_window: 4.0
Ion_mode: P
Num Peaks: 44
70.0654	1.7
81.0337	1.6
81.0700	1.3
83.0857	1.4
86.0966	1.6
95.0856	1.4
100.0757	5.5
101.0597	1.5
109.0284	1.5
110.0600	1.2
126.0912	1.5
131.0855	0.9
133.1011	0.9
159.1166	1.0
164.1068	1.3
166.0861	1.1
180.1013	1.7
192.1016	0.9
196.0962	1.1
199.1474	1.0
206.1170	0.9
210.1121	1.2
229.1542	0.8
246.1484	1.2
279.1737	0.9
297.1842	1.0
308.1119	1.0
332.2211	4.2
368.2576	0.9
370.2734	1.0
386.2675	1.5
396.2525	1.8
413.2487	1.0
414.2630	16.6
415.2660	3.9
431.1821	1.3
431.2613	1.3
432.1660	1.0
432.2115	1.3
432.2734	100.0
433.1615	0.8
433.1963	1.5
433.2768	27.4
434.2808	2.7

Name: methyl (4R,E)-4-((3R,5S,7S,9S,10S,13R,14S,17R)-3,7-dihydroxy-10,13-dimethylhexadecahydro-1H-cyclopenta(a)phenanthren-17-yl)pent-2-enoate
PrecursorMZ: 405.29971
RT: 6.0812
ExactMass: 404.29265975
Spectrum_type: 2
charge: 1
Formula: C25H40O4
SMILES: C[C@H](/C=C/C(=O)OC)[C@H]1CC[C@@H]2[C@@]1(CC[C@H]3[C@H]2[C@H](C[C@H]4[C@@]3(CC[C@H](C4)O)C)O)C
Method: HCD
Collision_energy: [28.333334]
Isolation_window: 4.0
Ion_mode: P
Num Peaks: 80
67.0546	7.5
81.0702	19.5
86.0967	15.2
93.0700	10.5
95.0858	20.1
100.1123	56.2
105.0700	14.0
107.0857	23.1
109.1014	19.7
114.0915	13.3
115.0754	14.9
119.0856	14.2
121.1013	16.3
131.0855	11.9
133.1011	14.8
135.1168	19.4
145.1012	63.2
146.1044	7.0
147.1168	21.0
149.1325	31.6
159.1169	17.5
161.1325	18.8
163.1482	10.0
173.1325	5.6
175.1482	9.8
185.1327	7.1
187.1480	8.0
199.1481	17.9
201.1637	18.9
211.1482	7.9
213.1635	18.2
215.1794	27.5
225.1638	8.2
227.1430	9.3
227.1793	14.2
229.1584	6.9
245.1534	7.5
255.1743	7.3
259.1692	7.4
261.1845	14.1
272.1067	26.4
273.1138	10.1
274.0863	11.4
274.1228	7.3
275.2002	9.0
276.1377	8.4
304.1328	12.9
305.1175	7.1
306.1118	17.8
306.1486	14.2
309.2574	100.0
310.2607	26.9
319.2419	13.8
324.1226	7.1
327.2680	8.2
337.2523	33.9
338.2560	8.1
339.2683	9.2
355.2629	86.0
356.2665	19.4
369.2786	26.6
370.2824	7.2
371.2943	61.6
372.2975	10.5
373.2735	80.1
374.2769	21.7
387.2887	10.0
388.3203	23.5
404.2176	11.2
404.2591	9.9
405.2554	33.0
405.2994	68.4
406.2329	7.2
406.2374	9.1
406.2736	13.1
406.3016	20.7
406.3311	64.6
407.2324	58.4
407.2689	28.7
407.3330	16.0

Name: methyl 1-(2,3-dimethoxyphenyl)-2,3,4,9-tetrahydro-1H-pyrido(3,4-b)indole-3-carboxylate
PrecursorMZ: 389.1469
RT: 2.6191
ExactMass: 366.15795719
Spectrum_type: 2
charge: 1
Formula: C21H22N2O4
SMILES: COC1=CC=CC(=C1OC)C2C3=C(CC(N2)C(=O)OC)C4=CC=CC=C4N3
Method: HCD
Collision_energy: [28.333334]
Isolation_window: 4.0
Ion_mode: P
Num Peaks: 5
389.1485	100.0
389.1724	16.7
389.2691	19.5
390.1515	23.9
391.1873	19.7

Name: methyl 1-(2-methoxyphenyl)-2,3,4,9-tetrahydro-1H-pyrido(3,4-b)indole-3-carboxylate
PrecursorMZ: 359.13622
RT: 2.8624
ExactMass: 336.1473925
Spectrum_type: 2
charge: 1
Formula: C20H20N2O3
SMILES: COC1=CC=CC=C1C2C3=C(CC(N2)C(=O)OC)C4=CC=CC=C4N3
Method: HCD
Collision_energy: [28.333334]
Isolation_window: 4.0
Ion_mode: P
Num Peaks: 3
359.1375	100.0
360.2248	30.9
361.1378	28.9

Name: methyl 1-oxo-4-(1H-pyrrol-2-yl)-2H-isoquinoline-3-carboxylate
PrecursorMZ: 291.07387
RT: 6.5076
ExactMass: 268.08479225
Spectrum_type: 2
charge: 1
Formula: C15H12N2O3
SMILES: COC(=O)C1=C(C2=CC=CC=C2C(=O)N1)C3=CC=CN3
Method: HCD
Collision_energy: [28.333334]
Isolation_window: 4.0
Ion_mode: P
Num Peaks: 6
166.0859	20.8
274.2161	17.9
290.1023	29.1
291.0739	100.0
291.2427	53.2
292.0581	19.5

Name: methyl 4,6-O-benzylidene-alpha-D-glucopyranoside
PrecursorMZ: 305.09938
RT: 1.3506
ExactMass: 282.11033829
Spectrum_type: 2
charge: 1
Formula: C14H18O6
SMILES: CO[C@@H]1[C@@H]([C@H]([C@H]2[C@H](O1)COC(O2)C3=CC=CC=C3)O)O
Method: HCD
Collision_energy: [28.333334]
Isolation_window: 4.0
Ion_mode: P
Num Peaks: 5
303.1418	10.3
305.0996	100.0
306.1029	10.2
307.0967	4.6
307.2240	9.0

Name: methyl 4-((2-(5-methoxy-2-methyl-1H-indol-3-yl)ethyl)carbamoyl)benzoate
PrecursorMZ: 389.14701
RT: 4.1233
ExactMass: 366.15795719
Spectrum_type: 2
charge: 1
Formula: C21H22N2O4
SMILES: CC1=C(C2=C(N1)C=CC(=C2)OC)CCNC(=O)C3=CC=C(C=C3)C(=O)OC
Method: HCD
Collision_energy: [28.333334]
Isolation_window: 4.0
Ion_mode: P
Num Peaks: 3
389.1476	100.0
390.1513	24.3
391.1464	11.9

Name: methyl 4-ethyl-6,7-dimethoxy-9H-pyrido(3,4-b)indole-3-carboxylate
PrecursorMZ: 315.13372
RT: 5.0648
ExactMass: 314.12665706
Spectrum_type: 2
charge: 1
Formula: C17H18N2O4
SMILES: CCC1=C2C3=CC(=C(C=C3NC2=CN=C1C(=O)OC)OC)OC
Method: HCD
Collision_energy: [28.333334]
Isolation_window: 4.0
Ion_mode: P
Num Peaks: 14
69.6632	4.0
128.1434	4.4
186.1484	6.1
227.1172	5.1
251.1173	7.8
255.1122	57.0
256.1160	9.4
267.1122	8.1
297.1223	13.7
314.1013	4.2
314.3410	10.0
315.1332	100.0
316.1173	10.1
316.1367	19.6

Name: methyl 8-((5Z)-5-(2-(acetyloxy)-3-hydroxypentylidene)-1-hydroxy-4-oxocyclopent-2-en-1-yl)octanoate
PrecursorMZ: 419.20392
RT: 0.8753
Spectrum_type: 2
charge: 1
SMILES: CCC(C(/C=C(/C(CCCCCCCC(OC)=O)(C=C1)O)\C1=O)OC(C)=O)O
Method: HCD
Collision_energy: [28.333334]
Isolation_window: 4.0
Ion_mode: P
Num Peaks: 13
97.3999	2.7
313.1412	4.0
353.1717	3.5
359.1465	2.8
383.1831	6.9
401.1934	75.0
402.1969	17.8
403.1527	5.0
418.1706	9.2
419.1692	9.1
419.2041	100.0
420.2076	22.2
421.1621	16.3

Name: methyl N-(3-amino-2-methylphenyl)carbamate
PrecursorMZ: 181.09705
RT: 5.4428
ExactMass: 180.08987763
Spectrum_type: 2
charge: 1
Formula: C9H12N2O2
SMILES: CC1=C(C=CC=C1NC(=O)OC)N
Method: HCD
Collision_energy: [28.333334]
Isolation_window: 4.0
Ion_mode: P
Num Peaks: 30
60.0811	1.1
82.0290	1.8
91.0544	13.0
95.0605	7.4
96.9952	1.2
100.0757	1.1
101.0598	2.0
112.0870	4.7
121.0760	12.7
135.0551	1.6
136.0756	16.6
137.0707	3.2
163.0864	1.8
164.0704	31.5
164.1182	2.3
165.0658	5.7
180.0653	2.5
180.1052	16.2
180.1379	1.2
180.8711	1.4
181.0610	1.3
181.0969	100.0
181.1050	1.2
182.0810	11.3
182.0925	1.7
182.1004	9.4
182.1173	3.0
182.1286	6.5
183.0763	2.4
183.1124	1.5

Name: methyl N-(3-aminophenyl)carbamate
PrecursorMZ: 167.08137
RT: 5.3678
ExactMass: 166.074227566
Spectrum_type: 2
charge: 1
Formula: C8H10N2O2
SMILES: COC(=O)NC1=CC=CC(=C1)N
Method: HCD
Collision_energy: [28.333334]
Isolation_window: 4.0
Ion_mode: P
Num Peaks: 41
69.0702	0.6
95.0603	0.6
96.0444	1.6
110.0236	1.1
119.0602	0.4
120.0806	1.4
121.0759	1.5
122.0598	1.2
122.0835	0.5
123.0109	1.2
123.0439	0.9
123.0914	0.5
124.0504	0.6
124.0868	1.2
125.0821	4.3
139.0863	1.0
149.0456	0.4
150.0547	2.5
151.0862	0.5
165.1021	1.5
166.0721	16.7
166.0858	5.9
166.0967	0.8
166.1224	4.6
167.0562	7.4
167.0663	0.7
167.0696	0.6
167.0758	1.2
167.0812	100.0
167.0871	0.7
167.0928	0.5
167.0959	0.6
167.1257	0.5
167.1541	0.8
168.0650	17.3
168.0690	7.4
168.0843	8.4
168.1013	0.6
169.0686	0.9
169.0757	11.2
169.0967	6.6

Name: methyl N-(4-(((4-methoxyphenyl)carbonyl)amino)butanoyl)leucinate
PrecursorMZ: 365.20689
RT: 1.4443
ExactMass: 364.199822
Spectrum_type: 2
charge: 1
Formula: C19H28N2O5
SMILES: CC(C)CC(C(=O)OC)NC(=O)CCCNC(=O)C1=CC=C(C=C1)OC
Method: HCD
Collision_energy: [28.333334]
Isolation_window: 4.0
Ion_mode: P
Num Peaks: 26
69.0703	5.0
97.3984	4.0
112.0759	6.9
112.1122	11.7
119.0731	5.1
135.0804	5.2
146.0964	33.5
172.1333	44.9
206.1175	100.0
207.1213	11.9
259.1323	10.0
276.1592	24.4
277.1440	6.9
277.1624	4.9
299.1640	10.1
305.1856	14.3
316.1904	9.9
328.1907	3.9
329.1750	6.5
346.2009	14.2
347.1856	6.8
363.2448	6.7
364.2111	28.2
365.2078	49.3
366.2118	10.5
367.2121	10.0

Name: methylethyl (2E)-2-cyano-3-(2,3,4-trimethoxyphenyl)prop-2-enoate
PrecursorMZ: 328.11532
RT: 1.1443
ExactMass: 305.12632271
Spectrum_type: 2
charge: 1
Formula: C16H19NO5
SMILES: CC(C)OC(=O)/C(=C/C1=C(C(=C(C=C1)OC)OC)OC)/C#N
Method: HCD
Collision_energy: [28.333334]
Isolation_window: 4.0
Ion_mode: P
Num Peaks: 21
74.0604	9.7
81.0338	2.7
115.0756	5.6
120.0809	19.5
154.1228	2.8
158.1177	3.2
180.1021	8.8
295.1078	4.4
310.3105	5.2
326.2695	4.5
326.3051	16.2
327.1703	3.5
327.1927	2.4
327.2282	4.0
327.3082	5.1
328.1156	100.0
328.3211	3.6
329.1188	14.5
329.1490	3.3
329.2072	3.6
330.1144	4.7

Name: n-Hexanoyl-dl-leucine
PrecursorMZ: 230.1748
RT: 2.148433333333333
ExactMass: 229.1677936
Spectrum_type: 2
charge: 1
Formula: C12H23NO3
SMILES: CCCCCC(=O)NC(CC(C)C)C(=O)O
Method: HCD
Collision_energy: [28.333334]
Isolation_window: 4.0
Ion_mode: P
Num Peaks: 4
71.0858	16.4
86.0967	100.0
132.1018	70.9
229.1409	21.8

Name: n-Palmitoyl lysine
PrecursorMZ: 385.34183
RT: 5.009966666666667
ExactMass: 384.33519327
Spectrum_type: 2
charge: 1
Formula: C22H44N2O3
SMILES: CCCCCCCCCCCCCCCC(=O)NC(CCCCN)C(=O)O
Method: HCD
Collision_energy: [28.333334]
Isolation_window: 4.0
Ion_mode: P
Num Peaks: 35
67.0545	1.0
69.0701	1.2
70.0654	1.4
71.0858	0.8
81.0336	0.9
81.0701	1.3
83.0858	1.0
84.0446	1.1
84.0810	100.0
85.0843	4.5
86.0965	1.3
88.0395	0.9
93.0700	0.8
95.0856	1.8
114.0550	1.0
116.0706	1.0
129.1020	2.7
130.0651	1.0
130.0861	14.2
147.1125	6.7
160.0603	1.5
182.0811	1.0
322.3097	5.3
323.3129	0.9
384.1417	1.1
384.1836	1.4
385.1390	1.5
385.1750	0.9
385.3415	40.7
386.1236	0.9
386.1572	1.2
386.1982	1.6
386.3447	9.1
387.1544	1.4
387.2524	1.0

Name: n6-Ethyladenosine
PrecursorMZ: 296.13492
RT: 3.7492
ExactMass: 295.12805404
Spectrum_type: 2
charge: 1
Formula: C12H17N5O4
SMILES: CCNC1=C2C(=NC=N1)N(C=N2)[C@H]3[C@@H]([C@@H]([C@H](O3)CO)O)O
Method: HCD
Collision_energy: [28.333334]
Isolation_window: 4.0
Ion_mode: P
Num Peaks: 102
57.0339	1.3
67.0546	1.5
69.0337	1.0
69.0702	1.5
70.0654	1.5
71.0494	1.0
72.0811	1.5
73.0286	0.8
81.0337	3.8
81.0701	2.7
83.0493	1.0
83.0857	1.3
84.0810	0.7
85.0286	1.4
85.0650	0.9
87.0441	0.7
93.0700	1.4
95.0492	1.1
95.0856	2.2
99.0441	0.7
100.0757	1.1
101.0596	0.8
107.0855	1.6
109.0646	0.7
109.1012	2.1
110.0602	1.1
111.0440	2.1
115.0389	1.0
121.1010	1.5
122.0598	0.7
122.0712	1.9
123.0798	1.0
123.1167	1.2
124.0756	0.7
125.0961	0.6
126.0912	1.0
133.1011	1.3
136.0616	1.3
136.0755	1.2
137.1322	0.8
138.0909	0.6
145.1010	0.7
147.1167	0.7
150.0772	0.9
152.0704	1.4
152.1068	1.1
153.0658	2.9
154.0860	1.0
162.0911	0.6
164.0705	1.4
164.0929	100.0
164.1070	0.8
165.0900	1.7
165.0962	7.2
166.0860	0.7
170.0809	1.3
173.0960	1.0
178.0860	1.0
180.1016	0.8
185.0921	0.7
192.1016	1.0
194.0810	0.7
204.1018	0.8
205.0970	0.6
206.0806	1.0
208.0966	0.7
220.0964	1.1
232.0967	0.8
234.1121	0.7
236.0916	1.1
236.1276	1.0
250.1068	0.8
252.1338	1.4
260.1277	1.0
277.1178	0.7
277.1535	1.6
277.2153	1.3
278.1018	1.5
278.1376	2.9
279.1331	1.0
279.1698	0.7
280.1171	1.3
280.1537	0.9
294.1321	1.9
294.1684	1.2
295.1272	4.3
295.1637	4.7
295.2015	1.1
295.2258	1.4
296.0922	0.7
296.1123	4.9
296.1345	37.5
296.1489	7.8
296.1848	2.1
297.1381	5.4
297.1416	4.2
297.1797	3.0
297.2413	2.5
298.1071	1.3
298.1279	4.9
298.1425	1.0
298.1636	3.5

Name: o-Phenetidine
PrecursorMZ: 138.09129
RT: 4.3955
ExactMass: 137.084063974
Spectrum_type: 2
charge: 1
Formula: C8H11NO
SMILES: CCOC1=CC=CC=C1N
Method: HCD
Collision_energy: [28.333334]
Isolation_window: 4.0
Ion_mode: P
Num Peaks: 3
93.0700	14.4
110.0965	22.2
138.0912	100.0

Name: o-Tolylbiguanide
PrecursorMZ: 192.12378
RT: 0.534
ExactMass: 191.11709544
Spectrum_type: 2
charge: 1
Formula: C9H13N5
SMILES: CC1=CC=CC=C1N=C(N)N=C(N)N
Method: HCD
Collision_energy: [28.333334]
Isolation_window: 4.0
Ion_mode: P
Num Peaks: 6
110.0710	35.1
149.0816	60.1
150.1019	29.5
151.0973	30.3
190.1079	34.2
192.1236	100.0

Name: p(MeOx1-co-PheOx1)H+
PrecursorMZ: 265.15453
RT: 7.1618
Spectrum_type: 2
charge: 1
SMILES: O=C(N(CC[NH+](C(C)=O)CCO)C)C1=CC=CC=C1
Method: HCD
Collision_energy: [28.333334]
Isolation_window: 4.0
Ion_mode: P
Num Peaks: 83
55.0547	3.7
56.0501	2.1
69.0703	2.4
70.0656	6.5
74.0605	2.8
80.0498	19.7
81.0339	3.7
83.0495	2.7
84.0811	2.8
86.0968	3.5
87.0444	4.6
88.0397	2.1
90.0553	3.1
95.0608	1.5
96.0447	4.0
97.0286	2.8
98.0603	3.6
101.0600	13.1
102.0552	10.9
105.0337	16.7
110.0604	1.9
111.0441	2.3
114.0553	1.8
115.0756	4.9
116.0709	3.3
122.0966	2.0
125.1075	9.4
126.0915	10.3
130.0864	1.7
134.0603	2.5
134.0811	5.7
136.0758	1.6
142.0864	2.8
144.0656	4.5
148.0756	1.7
152.0708	1.6
152.0819	3.6
154.0864	1.9
156.0656	2.0
158.1176	2.3
162.0914	92.8
163.0947	8.0
164.0707	2.9
166.0687	1.7
166.0864	15.5
170.0811	1.7
172.0971	2.6
180.1019	7.2
186.0763	2.9
219.1126	1.9
219.1488	3.7
220.0964	1.8
221.1283	1.6
238.1072	1.8
246.0969	4.9
246.1336	1.7
247.1073	2.3
247.1443	5.3
248.0916	1.8
248.1283	2.7
249.1229	2.0
263.1386	4.0
263.1728	3.1
264.0867	4.2
264.1076	6.4
264.1225	31.9
264.1339	2.7
264.1447	4.8
264.1590	8.4
264.1964	4.1
265.1174	27.6
265.1545	100.0
265.1905	10.2
266.1020	31.3
266.1154	4.8
266.1230	5.9
266.1383	72.1
266.1574	11.2
266.1746	7.8
267.0969	2.2
267.1079	1.9
267.1322	15.4
267.1699	5.6

Name: p(MeOx1-co-PheOx1-CH3) Na+
PrecursorMZ: 273.16692
RT: 1.26615
Spectrum_type: 2
charge: 1
SMILES: OCC[N+](CCNC(C1=CC=CC=C1)=O)([Na])C(C)=O
Method: HCD
Collision_energy: [28.333334]
Isolation_window: 4.0
Ion_mode: P
Num Peaks: 19
94.9299	0.3
120.0810	0.4
148.0757	1.3
227.1757	0.4
254.2113	0.2
271.1432	0.2
271.1515	0.3
272.1468	0.4
272.1552	0.2
273.1270	0.3
273.1312	0.3
273.1359	0.7
273.1430	0.4
273.1671	100.0
273.1916	0.5
273.1978	0.7
273.3170	0.2
274.1704	13.5
275.1725	1.1

Name: p(MeOx2+CH3-co-N-ethylFormamide) H+
PrecursorMZ: 288.19155
RT: 4.7983
Spectrum_type: 2
charge: 1
SMILES: O=C(N(CCN(CC)C(C)=O)CC[NH+](CCO)C=O)C
Method: HCD
Collision_energy: [28.333334]
Isolation_window: 4.0
Ion_mode: P
Num Peaks: 17
55.0547	1.5
72.0812	100.0
73.0846	4.6
86.0968	13.5
97.3980	1.6
112.8960	1.8
150.0551	2.4
171.1493	57.0
172.1526	4.6
185.1649	8.9
189.1234	12.1
199.1441	37.4
200.1479	3.8
213.1599	5.4
287.1372	1.5
288.1916	3.4
289.1544	1.8

Name: p(PheOx1-co-MeOx1) H+
PrecursorMZ: 265.15444
RT: 7.1476
Spectrum_type: 2
charge: 1
SMILES: OCC[NH+](CCN(C(C)=O)C)C(C1=CC=CC=C1)=O
Method: HCD
Collision_energy: [28.333334]
Isolation_window: 4.0
Ion_mode: P
Num Peaks: 66
56.0500	2.5
70.0656	4.6
73.0111	5.9
74.0605	4.3
81.0339	16.5
83.0497	2.6
84.0448	5.5
84.0812	2.5
87.0444	2.3
95.0607	3.5
96.0446	2.8
97.0287	3.3
98.0603	3.0
100.0760	3.0
101.0599	3.8
102.0552	11.5
105.0337	15.6
110.0717	2.9
111.0444	2.7
116.0709	4.2
122.0715	13.3
124.0872	2.6
125.1076	10.0
126.0551	3.1
126.0915	8.9
130.0862	2.7
134.0603	3.0
136.0759	2.2
144.0480	3.2
144.0656	3.3
148.0758	3.0
152.0820	17.4
154.0864	2.0
162.0915	100.0
163.0947	9.9
186.0761	2.6
190.0898	2.7
221.1396	2.0
246.0976	4.7
246.1338	3.5
247.1078	5.9
247.1443	8.3
248.0930	2.7
248.1126	2.5
248.1282	2.4
263.1385	5.7
264.0873	4.1
264.1086	9.7
264.1238	26.1
264.1447	7.5
264.1594	4.3
265.1181	22.4
265.1300	10.4
265.1546	70.4
266.1020	28.5
266.1138	3.8
266.1241	2.6
266.1379	21.0
266.1502	6.7
266.1593	5.5
266.1752	4.2
267.0941	2.3
267.1101	3.9
267.1335	11.8
267.1451	10.9
267.1696	4.8

Name: p-Acetamidobenzoic acid
PrecursorMZ: 180.06528
RT: 4.9039
ExactMass: 179.058243149
Spectrum_type: 2
charge: 1
Formula: C9H9NO3
SMILES: CC(=O)NC1=CC=C(C=C1)C(=O)O
Method: HCD
Collision_energy: [28.333334]
Isolation_window: 4.0
Ion_mode: P
Num Peaks: 33
81.0701	1.0
91.0542	8.5
106.0650	1.8
119.0489	1.1
122.0598	3.6
123.0437	2.1
134.0597	55.6
135.0630	4.4
135.0913	5.6
136.0753	51.8
138.0547	1.1
140.0703	1.1
147.0436	1.4
152.0702	2.0
152.1067	1.1
162.0546	100.0
162.0596	1.8
163.0575	8.6
163.0861	6.7
164.0701	54.4
165.0542	2.5
178.0858	1.0
179.0699	2.9
179.0809	1.3
180.0651	13.6
180.0802	17.1
180.1047	5.5
181.0606	2.7
181.0725	2.5
181.0837	3.2
181.0965	6.5
182.0808	4.0
182.1169	1.7

Name: p-Coumaryl alcohol 4-O-glucoside
PrecursorMZ: 335.10991
RT: 0.7349
ExactMass: 312.12090297
Spectrum_type: 2
charge: 1
Formula: C15H20O7
SMILES: C1=CC(=CC=C1/C=C/CO)O[C@H]2[C@@H]([C@H]([C@@H]([C@H](O2)CO)O)O)O
Method: HCD
Collision_energy: [28.333334]
Isolation_window: 4.0
Ion_mode: P
Num Peaks: 278
57.0340	40.0
59.0610	6.6
67.0547	4.6
69.0339	11.1
69.0703	8.1
70.0656	33.1
71.0496	35.3
72.0813	29.3
74.0605	10.2
81.0339	40.3
81.0704	8.7
83.0496	19.9
84.0448	22.4
84.0812	13.2
85.0288	12.9
86.0605	9.8
86.0969	49.7
87.0445	6.5
88.0396	9.4
90.0554	4.0
91.0548	4.8
93.0702	6.6
95.0495	13.2
95.0859	6.7
96.0448	6.0
97.0287	13.5
97.0652	5.5
98.0603	12.3
98.9845	75.7
99.0444	11.2
100.0761	7.7
101.0600	39.4
102.0552	11.0
105.0702	5.7
107.0494	27.4
107.0859	4.6
108.0448	5.3
109.0288	7.2
109.0653	6.8
109.1015	4.2
110.0603	13.0
111.0443	18.9
111.0807	4.7
112.0761	9.7
113.0600	8.2
114.0552	10.8
115.0391	4.1
116.0709	46.9
117.0550	7.7
118.0866	6.7
119.0706	11.1
119.0857	5.5
120.0657	5.2
120.0811	31.3
121.0650	14.9
122.0603	7.3
123.0444	13.5
123.0807	5.5
124.0396	4.8
124.0759	19.8
125.0236	8.9
125.0601	8.1
125.0712	5.1
126.0552	9.9
126.0915	10.3
127.0393	9.3
128.0708	12.9
129.0549	6.2
130.0502	17.6
130.0651	16.1
130.0862	11.6
132.0655	3.9
132.0812	5.9
132.1020	13.8
133.0654	14.9
133.1018	4.2
134.0603	5.4
135.0445	4.2
135.0805	5.0
136.0396	6.4
136.0759	29.2
137.0601	18.1
137.0964	4.8
138.0551	11.4
138.0915	12.5
139.0396	9.0
139.0754	4.6
140.0707	14.1
142.0501	9.4
142.0865	7.0
144.0653	7.0
144.1019	12.0
145.0500	4.4
146.0601	14.0
146.0817	4.3
147.0451	6.3
147.0784	8.0
148.0761	8.7
149.0601	12.8
150.0548	10.5
150.0916	5.1
151.0391	6.1
151.0759	9.1
152.0707	14.3
153.0547	7.5
153.0662	5.2
154.0502	4.6
154.0865	13.2
156.0663	8.2
158.0814	5.7
158.1179	4.8
159.0791	3.9
159.0918	52.3
160.0761	5.2
161.0602	7.3
162.0549	8.3
162.0917	4.4
163.0395	4.3
163.0603	7.3
163.0754	5.7
164.0708	37.7
164.1071	3.9
165.0548	12.9
165.0913	4.2
166.0507	9.6
166.0864	22.1
167.0704	4.4
167.0807	5.3
168.0659	11.2
168.1017	5.4
169.0986	4.2
170.0602	4.4
170.0813	8.0
172.0604	4.0
172.0965	5.1
173.0600	3.9
173.0942	4.5
175.0751	5.1
175.0882	4.6
176.0705	6.4
177.0536	7.9
177.0912	4.8
178.0861	9.6
179.0705	4.2
180.0654	11.9
180.1015	7.2
181.0982	5.9
182.0813	32.6
183.0821	6.4
183.1137	3.9
184.0606	3.9
184.0964	3.9
185.0937	4.5
186.0763	7.1
186.0914	4.6
187.0872	4.9
187.1100	4.4
188.0707	100.0
189.0742	6.6
190.0851	5.6
192.0655	17.4
192.1023	7.4
193.0983	4.0
194.0814	15.6
195.1135	5.5
196.0607	4.1
196.0972	4.5
197.0932	5.0
198.0759	11.3
198.1117	7.4
202.0870	7.4
203.0701	3.9
204.0660	5.8
204.1025	5.0
205.0978	48.6
206.0817	8.7
206.1013	4.4
208.0613	4.0
208.0964	6.4
209.0930	5.0
210.0766	5.2
210.1133	5.7
211.0733	5.3
211.1115	5.6
212.0909	6.2
213.0901	6.1
213.1247	4.5
217.0474	84.6
217.0842	4.1
218.0505	4.8
218.0823	4.4
220.0611	4.2
220.0974	6.5
221.0928	4.6
222.0771	4.0
223.1097	7.4
224.0927	4.5
225.0898	5.2
232.0974	7.3
232.1164	4.4
234.0760	3.9
234.1128	3.9
235.1080	4.3
236.0921	4.0
239.1030	3.9
241.1196	4.1
244.0969	4.2
247.1081	5.8
253.1191	4.9
256.0972	4.8
258.1116	6.1
258.1362	6.5
259.1065	3.9
260.0937	4.2
262.1097	4.8
263.1024	5.1
267.1349	4.6
271.1017	3.9
272.0926	4.7
274.1058	6.3
275.0992	4.2
284.0948	4.2
285.1149	5.3
286.1076	4.8
287.1012	4.5
289.1186	4.2
290.1039	6.7
291.1342	4.5
292.1166	5.6
293.1505	5.0
301.1138	4.4
303.1329	8.8
304.1204	5.3
305.1497	4.3
307.1441	19.3
317.1098	6.2
319.1268	8.2
320.1110	6.6
321.1444	14.6
323.1616	4.2
324.1501	4.1
327.1216	5.3
333.1455	4.8
334.1299	12.9
334.1895	8.7
335.1173	19.8
335.1579	4.1
336.1087	9.1
336.1510	10.3
337.1390	15.4
338.1248	15.5
338.1640	4.7
339.1229	9.7
339.1606	16.3
340.1432	17.3
341.1395	10.9
341.1786	8.7
342.1168	6.1
342.1642	11.8
343.1202	5.4
343.1567	9.1
344.1386	10.7
345.1322	6.3
345.1672	6.3
346.1307	5.6
346.1610	4.5
347.1196	12.5
347.1590	4.1
348.1518	5.6
349.1359	6.1
350.1286	11.5
350.1739	5.4
351.1175	4.2
351.1580	11.0
352.1407	8.7
352.1831	4.0
353.1438	22.7
354.1591	9.1

Name: p-Coumaryl alcohol 4-glucoside
PrecursorMZ: 335.10931
RT: 6.540666666666667
ExactMass: 312.12090297
Spectrum_type: 2
charge: 1
Formula: C15H20O7
SMILES: C1=CC(=CC=C1/C=C/CO)O[C@H]2[C@@H]([C@H]([C@@H]([C@H](O2)CO)O)O)O
Method: HCD
Collision_energy: [28.333334]
Isolation_window: 4.0
Ion_mode: P
Num Peaks: 150
55.0545	2.4
57.0338	33.5
69.0336	1.3
69.5796	2.0
69.6707	1.8
70.0654	4.6
71.0494	31.9
72.0810	4.5
74.0602	1.9
81.0336	5.4
82.0652	1.6
83.0493	14.3
84.0445	3.1
84.0809	9.0
85.0284	1.4
86.0601	2.2
86.0965	4.3
96.0443	1.5
97.0283	1.4
97.4569	1.4
98.0600	1.7
98.9841	100.0
100.0755	1.3
101.0597	37.2
102.0549	1.7
102.0630	2.6
108.0442	1.2
109.0283	2.0
110.0599	1.9
111.0439	2.0
112.0755	1.7
114.0548	2.2
116.0704	3.2
119.0701	15.2
120.0806	4.0
122.0599	1.2
124.0754	2.0
125.0231	1.8
126.0546	1.6
126.0911	1.6
128.0703	1.9
130.0496	3.4
130.0860	2.8
136.0754	2.6
138.0547	1.7
138.0912	3.4
140.0702	1.3
142.0495	3.1
144.1015	1.5
148.0753	1.4
150.0909	2.0
152.0703	2.0
154.0858	1.7
155.0100	2.2
162.0546	1.6
162.0909	1.1
163.0863	5.2
164.0702	2.3
164.1067	2.7
166.0531	3.0
166.0858	2.7
169.0256	1.7
170.0808	1.3
173.0205	1.9
173.0914	2.0
174.0545	1.5
174.0758	1.2
178.0857	2.0
180.1013	5.3
181.0967	71.2
182.0809	4.3
182.1001	3.5
188.0701	1.4
188.1278	1.4
191.0810	2.3
192.0650	4.5
192.1015	1.8
194.0807	3.3
196.0965	1.4
199.0359	6.5
199.1072	6.1
202.0857	1.3
206.1172	1.7
207.1119	1.8
208.0960	1.3
209.1040	13.3
210.1121	16.4
211.1156	2.4
217.0465	92.0
218.0500	5.1
220.1184	3.3
243.1118	1.6
244.0960	1.1
245.0916	1.2
253.1172	1.8
259.1068	1.2
261.0361	1.5
271.1067	3.8
273.1228	1.6
275.1379	2.7
284.1388	1.6
287.1386	1.9
288.1220	1.3
289.1172	2.5
289.1537	1.3
290.1003	1.9
291.1327	1.4
299.1228	6.2
302.1488	15.2
303.1525	2.1
304.1645	3.0
315.1329	1.2
316.1141	1.8
316.1170	2.6
317.1135	2.7
317.1334	2.4
317.1492	2.7
318.0954	1.8
318.1160	1.7
318.1176	1.7
318.1337	1.4
319.1276	7.2
333.1437	5.9
333.1799	10.2
334.0913	1.6
334.1252	9.8
334.1441	3.2
334.1651	3.2
334.1795	2.3
334.1813	3.4
334.2119	2.3
334.2364	10.6
335.0736	2.0
335.1073	9.1
335.1241	7.3
335.1587	13.5
335.1788	3.2
335.1973	3.5
335.2387	2.0
336.1063	4.2
336.1242	1.8
336.1433	5.5
336.1637	9.8
336.1913	5.0
336.2513	2.2
337.1040	1.4
337.1371	10.1
337.1708	2.4
337.1737	4.1
337.2120	1.2

Name: p-Hydroxybenzoylcholine
PrecursorMZ: 224.12783
RT: 8.178550000000001
ExactMass: 224.12866844
Spectrum_type: 2
charge: 1
Formula: C12H18NO3+
SMILES: C[N+](C)(C)CCOC(=O)C1=CC=C(C=C1)O
Method: HCD
Collision_energy: [28.333334]
Isolation_window: 4.0
Ion_mode: P
Num Peaks: 23
58.0655	1.2
85.0651	1.2
86.0603	0.9
96.0445	2.1
114.0913	1.0
121.0284	5.1
124.0393	1.2
165.0545	100.0
166.0578	9.5
222.1121	1.9
223.1072	1.2
223.1173	1.0
223.1436	0.9
224.0783	1.0
224.0915	14.1
224.1278	15.7
224.1644	1.0
225.0953	2.0
225.1216	1.5
225.1313	1.1
225.1595	1.2
226.1071	7.3
226.1907	1.0

Name: p-Toluidine
PrecursorMZ: 108.0809
RT: 5.9189
ExactMass: 107.073499291
Spectrum_type: 2
charge: 1
Formula: C7H9N
SMILES: CC1=CC=C(C=C1)N
Method: HCD
Collision_energy: [28.333334]
Isolation_window: 4.0
Ion_mode: P
Num Peaks: 24
53.0390	26.6
55.0182	9.2
65.0389	4.1
67.0546	17.3
79.0544	11.4
80.0497	7.1
81.0337	100.0
81.0701	9.4
82.0370	3.5
91.0543	8.6
93.0574	7.3
105.0700	2.0
106.0651	2.0
107.0491	8.4
107.0856	5.1
108.0444	6.7
108.0808	81.9
109.0284	66.5
109.0648	8.4
109.0759	3.5
109.0840	4.7
109.1011	7.2
110.0317	2.2
110.0600	8.9

Name: putrescine-C14:1
PrecursorMZ: 297.28985
RT: 3.069
Spectrum_type: 2
charge: 1
SMILES: O=C(NCCCCN)CCCCCCCC=CCCCC
Method: HCD
Collision_energy: [28.333334]
Isolation_window: 4.0
Ion_mode: P
Num Peaks: 112
55.0545	0.8
56.0499	2.4
57.0703	7.4
60.0449	0.7
67.0547	17.4
68.0580	0.8
69.0703	15.7
70.0291	9.7
70.0655	1.8
70.0736	0.7
71.0495	0.7
71.0859	6.1
72.0448	1.8
79.0546	3.8
80.0498	1.1
81.0702	24.0
82.0654	1.9
82.0736	1.3
83.0859	16.9
84.0447	0.9
84.0811	2.0
84.0892	0.9
85.0651	1.3
85.1015	3.8
86.0604	0.8
86.0966	0.6
91.0545	2.5
93.0701	4.7
94.0653	1.2
95.0858	29.1
96.0810	1.9
96.0891	2.1
97.1014	9.7
98.0603	0.6
98.0966	1.5
99.0806	0.5
100.0759	1.1
102.0551	0.8
105.0701	2.3
107.0857	3.1
108.0809	1.2
109.1013	18.6
110.0967	1.1
110.1047	1.3
111.1170	1.8
112.0759	0.8
112.1123	0.5
119.0856	2.1
120.0809	0.5
121.1013	4.0
122.0714	3.0
122.0965	1.5
123.1169	6.9
124.1121	0.8
124.1201	0.6
125.1325	0.7
126.0914	0.9
128.1434	0.9
133.1012	1.3
134.0964	0.5
135.1168	2.3
136.1121	1.0
137.1325	2.0
138.1277	0.6
140.1069	0.9
142.1591	3.1
147.1168	0.7
148.1121	0.6
149.1325	0.8
150.1278	0.6
151.1482	0.8
154.1227	0.7
156.1748	1.3
164.1435	0.4
165.1638	0.5
168.1383	0.7
182.1540	0.9
196.1696	0.8
210.1853	0.7
221.2265	1.0
224.2002	0.7
236.2372	2.9
237.2407	1.1
238.2185	0.4
238.2278	0.6
238.2326	0.4
238.2528	100.0
238.2728	0.6
238.2779	0.8
239.2562	16.4
240.2685	18.5
250.2527	1.2
252.2685	0.6
262.2527	1.6
280.2633	21.3
281.2667	3.1
282.2790	5.0
295.2740	1.7
296.2772	0.7
296.2945	2.2
297.1011	2.1
297.1230	0.6
297.1824	0.6
297.2207	0.4
297.2545	0.5
297.2897	42.9
298.1053	0.5
298.1410	0.5
298.2745	0.4
298.2931	7.8
299.1382	0.8
299.3058	4.9

Name: putrescine-C19:1
PrecursorMZ: 367.36758
RT: 5.614
Spectrum_type: 2
charge: 1
SMILES: O=C(NCCCCN)CCCCCCCCC=CCCCCCCCC
Method: HCD
Collision_energy: [28.333334]
Isolation_window: 4.0
Ion_mode: P
Num Peaks: 31
67.0545	2.4
69.0701	6.3
81.0701	3.6
83.0493	2.4
83.0857	2.8
85.0286	3.9
86.0966	100.0
87.1000	5.1
95.0857	4.1
99.0441	3.2
100.0758	8.2
103.1230	11.9
109.0284	3.2
109.1011	2.2
141.0544	6.2
148.0756	3.1
155.0701	9.6
166.0861	5.8
291.1699	3.6
310.2738	3.9
350.3410	12.1
351.3447	2.8
352.3571	4.1
366.2286	2.9
366.3550	5.0
367.3675	84.2
368.3710	22.9
368.4241	10.1
369.3480	8.9
369.3833	28.2
369.4282	2.0

Name: putrescine-C20:5
PrecursorMZ: 373.3211
RT: 6.1855
Spectrum_type: 2
charge: 1
SMILES: O=C(NCCCCN)CCCC=CCC=CCC=CCC=CCC=CCC
Method: HCD
Collision_energy: [28.333334]
Isolation_window: 4.0
Ion_mode: P
Num Peaks: 26
71.0604	6.0
86.0965	3.7
97.0763	10.7
100.1123	8.5
105.0696	1.7
114.0915	4.3
227.1753	1.6
228.1594	1.9
271.1215	3.3
272.1067	1.8
274.1224	3.8
297.2576	1.7
338.2842	5.0
355.3106	100.0
356.3140	26.4
357.3268	19.0
372.1454	2.5
372.1649	1.9
372.2486	4.0
373.1780	2.1
373.2474	1.6
373.3212	78.7
374.1628	2.5
374.3247	20.7
375.1545	2.4
375.3371	12.6

Name: rel-(betaR,1S,4R)-beta,4-Dimethyl-1-(2-methyl-1-oxopropyl)-3-oxocyclohexanepropanoic acid
PrecursorMZ: 269.17437
RT: 4.8164
ExactMass: 268.16745924
Spectrum_type: 2
charge: 1
Formula: C15H24O4
SMILES: C[C@@H]1CC[C@](CC1=O)([C@H](C)CC(=O)O)C(=O)C(C)C
Method: HCD
Collision_energy: [28.333334]
Isolation_window: 4.0
Ion_mode: P
Num Peaks: 86
67.0546	4.4
69.0337	3.4
69.0702	6.5
69.5636	3.8
69.6642	3.3
73.0650	4.2
81.0701	21.3
83.0857	4.3
86.0966	14.1
91.0541	3.4
93.0700	17.8
95.0492	3.5
95.0856	18.8
97.0648	6.8
99.0440	3.3
99.0805	4.5
105.0699	11.2
107.0855	19.2
109.0648	6.9
109.1012	15.6
110.0712	14.4
111.0804	5.8
112.1119	3.5
115.0753	4.1
119.0854	7.3
121.0647	4.2
121.1011	8.3
123.0803	6.8
123.1166	6.0
125.0958	3.1
131.0853	5.8
133.1009	13.7
135.0802	24.0
135.1165	3.1
137.0959	3.6
145.1008	7.3
147.1165	9.0
149.0959	9.5
149.1322	8.3
151.1114	20.6
156.0766	11.4
159.0803	4.5
159.1167	5.5
161.1323	6.4
163.1114	4.8
163.1478	9.3
173.1322	18.0
175.1114	15.3
175.1476	3.9
179.1063	24.9
180.1096	3.4
181.0970	4.5
187.1477	13.6
189.1269	7.9
191.1427	24.1
193.1219	21.3
198.0912	3.2
203.1425	3.4
205.1583	13.9
207.1376	4.3
209.1533	3.6
215.1425	17.5
221.1529	4.3
223.1688	3.8
224.1387	3.6
233.1531	44.9
234.1561	6.0
251.1384	4.3
251.1636	25.8
252.1671	3.1
253.1175	6.2
268.1175	10.7
268.1652	6.4
269.1128	4.8
269.1277	6.5
269.1496	7.9
269.1740	100.0
269.1853	4.0
270.0958	3.1
270.1109	6.6
270.1442	10.0
270.1786	14.2
271.0595	4.2
271.1282	10.3
271.1439	4.1
271.1648	5.4

Name: tert-butyl 4-)2-)4-(ethoxycarbonyl)-1H-1,2,3-triazol-1-yl(ethyl-1-piperazinecarboxylate
PrecursorMZ: 354.21342
RT: 1.9864
ExactMass: 353.20630436
Spectrum_type: 2
charge: 1
Formula: C16H27N5O4
SMILES: CCOC(=O)C1=CN(N=N1)CCN2CCN(CC2)C(=O)OC(C)(C)C
Method: HCD
Collision_energy: [28.333334]
Isolation_window: 4.0
Ion_mode: P
Num Peaks: 31
70.0657	17.5
84.0812	5.9
111.0445	7.0
114.1029	12.1
130.0976	6.1
134.0967	5.4
136.1123	6.1
158.0936	5.1
169.1339	5.3
179.1181	13.6
197.1288	9.5
220.1197	11.3
221.1227	7.4
233.1653	10.1
269.1132	5.7
275.1871	9.5
276.1701	15.1
277.1532	15.9
292.2129	5.3
319.1767	5.0
336.2035	100.0
337.2070	19.3
353.1677	8.5
354.1585	5.9
354.2138	26.1
356.3534	8.6
358.1265	6.8
358.3693	8.5
364.1466	7.2
366.1658	5.7
368.1834	5.2

Name: trans-10-cis-12-Octadecadienoic acid
PrecursorMZ: 281.24703
RT: 1.4838
ExactMass: 280.240230259
Spectrum_type: 2
charge: 1
Formula: C18H32O2
SMILES: CCCCC/C=C\C=C\CCCCCCCCC(=O)O
Method: HCD
Collision_energy: [28.333334]
Isolation_window: 4.0
Ion_mode: P
Num Peaks: 128
55.0546	4.1
57.0338	1.7
57.0703	64.2
58.0736	3.8
59.0495	7.9
67.0546	47.4
68.0579	2.1
69.0702	52.7
69.6549	1.1
70.0735	2.7
71.0494	3.5
71.0858	100.0
71.0899	0.8
72.0892	4.2
73.0651	5.5
79.0544	16.6
80.0578	0.8
81.0701	90.1
82.0734	5.8
83.0493	3.0
83.0857	47.9
84.0891	2.9
85.0650	7.2
85.1014	4.6
87.0442	1.0
89.0598	7.6
91.0543	10.0
93.0700	9.5
95.0856	54.0
96.0889	4.2
97.0649	5.4
97.1012	43.3
98.1046	2.7
99.0805	4.5
101.0597	1.4
103.0754	2.7
105.0699	8.4
106.0733	0.8
107.0855	30.3
108.0889	2.2
109.0649	1.3
109.1012	37.0
110.1045	2.7
111.0804	4.3
111.1168	15.2
112.1201	2.0
113.0961	1.4
115.0753	1.4
119.0854	12.5
120.0887	1.2
121.1011	13.5
122.1044	1.4
123.0803	2.6
123.1167	38.5
124.0755	6.3
124.1200	3.4
125.0788	1.9
125.0959	3.6
125.1324	3.2
127.0751	0.9
127.1116	1.9
129.0909	1.5
133.1010	18.7
134.1043	1.9
135.1166	9.0
137.0958	3.9
137.1322	7.0
139.1115	3.4
141.1271	57.3
142.1305	5.2
147.1014	1.9
147.1166	11.2
148.1201	1.3
149.1322	7.2
151.1115	5.4
151.1479	3.7
153.1272	1.9
155.1429	1.3
161.1322	9.2
162.1355	1.2
163.1478	5.9
164.1512	1.0
165.1271	4.5
165.1635	2.7
167.1426	2.0
169.1219	1.3
169.1585	2.9
175.1478	6.1
177.1634	1.6
179.1427	3.2
179.1791	2.8
181.1583	2.3
187.1325	0.9
189.1633	3.5
193.1579	2.0
195.1738	0.9
207.1737	1.1
219.2101	1.0
221.0701	1.0
221.2259	1.8
222.0782	1.6
225.1121	1.7
235.2416	3.5
236.1271	0.8
239.1269	1.7
245.2258	12.4
246.2293	2.4
249.1116	4.9
253.2519	7.1
254.2553	1.5
262.1429	0.9
263.1272	7.8
263.2363	8.8
264.1311	1.2
264.2395	1.6
279.2313	1.6
280.1160	1.0
280.2340	0.9
280.2629	1.0
281.0914	2.1
281.1491	1.4
281.1916	1.0
281.2467	8.4
282.1583	1.2
282.2504	1.7
282.2784	15.1
283.2820	1.4
299.2570	1.1

Name: trans-Cinnamamide
PrecursorMZ: 148.07543
RT: 4.6618
ExactMass: 147.068413911
Spectrum_type: 2
charge: 1
Formula: C9H9NO
SMILES: C1=CC=C(C=C1)/C=C/C(=O)N
Method: HCD
Collision_energy: [28.333334]
Isolation_window: 4.0
Ion_mode: P
Num Peaks: 3
106.0650	57.2
148.0752	100.0
149.0782	9.3

Name: trans-Epoxysuccinyl-L-leucylamido-(4-guanidino)butane
PrecursorMZ: 358.20797
RT: 7.0162
ExactMass: 357.20121898
Spectrum_type: 2
charge: 1
Formula: C15H27N5O5
SMILES: CC(C)C[C@@H](C(=O)NCCCCN=C(N)N)NC(=O)[C@@H]1[C@H](O1)C(=O)O
Method: HCD
Collision_energy: [28.333334]
Isolation_window: 4.0
Ion_mode: P
Num Peaks: 75
60.0561	4.3
70.0656	30.4
72.0812	10.0
82.0657	5.7
83.0495	4.7
84.0812	60.2
85.0844	4.4
87.0444	5.4
98.0968	4.8
100.0761	9.0
101.0600	24.8
111.0444	5.3
112.0759	6.3
112.0872	7.4
114.0663	5.0
114.1028	16.5
116.0708	10.1
128.0707	9.7
129.0550	6.2
129.1026	6.1
130.0864	46.7
131.0899	5.0
132.0769	8.3
142.0865	6.5
146.0924	49.4
147.0654	7.6
154.0863	6.7
175.1189	7.0
186.0882	6.6
197.0925	4.5
206.1174	8.1
207.1141	5.0
210.1124	11.0
211.1083	4.2
212.1032	10.2
225.1235	17.0
229.1313	5.5
235.1074	6.1
239.1022	8.0
253.1193	5.2
275.1216	7.3
285.1445	7.5
299.1233	6.1
313.1506	4.6
313.1865	11.9
323.1711	40.2
324.1737	6.3
327.2016	5.7
341.1820	15.1
348.1653	5.4
356.1883	6.5
357.1734	11.5
358.1706	22.1
358.2092	38.8
359.1913	39.5
360.2099	6.0
361.1588	6.1
361.2104	4.3
362.1649	8.7
364.1967	4.8
365.1780	4.2
366.1710	27.4
367.1993	9.6
368.1848	14.1
368.4244	5.8
369.2085	6.3
370.2016	38.1
371.1934	15.7
372.2232	34.5
373.1716	4.7
373.2137	6.7
374.1972	6.3
375.1756	100.0
376.1745	13.0
376.2070	37.5

Name: tryptophan N-glucoside
PrecursorMZ: 367.14959
RT: 6.5597
ExactMass: 366.14270105
Spectrum_type: 2
charge: 1
Formula: C17H22N2O7
SMILES: C1=CC=C2C(=C1)C(=CN2[C@H]3[C@@H]([C@H]([C@@H]([C@H](O3)CO)O)O)O)C[C@@H](C(=O)O)N
Method: HCD
Collision_energy: [28.333334]
Isolation_window: 4.0
Ion_mode: P
Num Peaks: 98
69.5381	2.8
69.6118	3.2
70.0653	12.8
72.0811	4.8
81.0336	6.4
84.0808	6.1
85.0284	10.8
86.0965	5.5
103.0391	3.7
110.0709	5.1
116.0705	3.7
121.0283	4.8
127.0387	4.0
130.0647	18.7
131.0337	5.6
132.0803	13.2
136.0752	7.8
144.0803	24.6
146.0596	29.0
147.0634	3.6
150.0911	5.0
156.0804	24.3
157.0839	3.4
160.0753	3.6
164.1067	5.4
168.0805	10.5
170.0598	5.2
172.0598	5.6
183.0913	9.0
184.0753	4.9
185.0922	2.9
188.0702	77.1
189.0736	9.5
191.0698	19.4
192.0732	4.2
198.0914	3.7
202.0859	10.7
205.0969	4.6
210.0909	3.8
212.0693	3.0
216.1226	2.8
218.0655	14.6
229.0967	95.2
230.0812	8.1
230.1001	11.6
240.1013	6.3
247.1071	3.7
254.0804	4.0
258.1119	13.3
271.1071	8.7
276.1224	19.0
281.1129	4.1
281.1486	9.5
282.1526	5.0
283.1281	8.9
296.0910	5.6
303.1329	8.0
305.1235	3.6
313.1179	3.4
314.1019	4.9
329.1335	15.7
329.1703	3.0
330.1367	6.0
331.1280	20.7
331.1493	6.2
332.1120	31.2
332.1315	3.7
333.1155	6.2
336.2024	3.8
347.1439	5.1
349.1385	100.0
349.1594	2.9
350.1422	22.0
365.1517	5.9
365.1859	3.9
365.2058	18.7
365.3150	3.3
366.0960	6.8
366.1326	6.5
366.1708	3.3
366.1793	11.2
366.2098	12.8
366.2382	4.1
366.2615	6.7
367.1479	25.1
367.1664	17.1
367.2011	60.8
368.1465	11.7
368.1506	18.3
368.1632	2.9
368.1963	7.0
368.2015	13.9
368.2208	4.8
369.0952	11.1
369.1423	4.1
369.1464	3.0
369.1609	6.6
369.1807	15.6

Name: xi-3-Hydroxy-5-phenylpentanoic acid O-beta-D-Glucopyranoside
PrecursorMZ: 379.13612
RT: 5.246
ExactMass: 356.14711772
Spectrum_type: 2
charge: 1
Formula: C17H24O8
SMILES: C1=CC=C(C=C1)CCC(CC(=O)O)OC2C(C(C(C(O2)CO)O)O)O
Method: HCD
Collision_energy: [28.333334]
Isolation_window: 4.0
Ion_mode: P
Num Peaks: 11
72.0811	2.0
176.8751	2.5
180.1017	2.0
305.0659	1.8
378.2151	24.7
379.1357	100.0
379.2175	4.6
380.1387	14.6
380.2178	3.2
380.2556	2.1
381.1368	1.8

Name: ((1R,2S,3'S,4S,5'S,6S,7S,8R,9S,12S,13S,16S,18S)-16-hydroxy-5'-(hydroxymethyl)-7,9,13-trimethylspiro(5-oxapentacyclo(10.8.0.02,9.04,8.013,18)icosane-6,2'-piperidine)-3'-yl) acetate
PrecursorMZ: 490.35221
RT: 1.3315
ExactMass: 489.3454236
Spectrum_type: 2
charge: 1
Formula: C29H47NO5
SMILES: C[C@H]1[C@H]2[C@H](C[C@@H]3[C@@]2(CC[C@H]4[C@H]3CC[C@@H]5[C@@]4(CC[C@@H](C5)O)C)C)O[C@]16[C@H](C[C@@H](CN6)CO)OC(=O)C
Method: HCD
Collision_energy: [28.333334]
Isolation_window: 4.0
Ion_mode: P
Num Peaks: 32
54.4837	6.2
70.0653	7.3
100.0757	6.2
112.8957	7.9
121.0647	6.6
139.9147	3.7
140.1063	2.7
145.1005	2.6
147.1168	3.2
156.1017	3.2
159.1167	3.1
161.0960	4.0
161.1323	12.1
165.0908	3.7
174.8861	5.0
178.1224	4.6
255.2102	18.9
256.2136	3.0
273.2207	38.1
274.2242	6.2
383.2939	22.4
384.2971	5.2
412.3203	22.8
413.3235	6.2
430.3308	82.3
431.3341	21.1
472.3413	12.0
473.3446	3.4
490.3520	100.0
491.1251	3.1
491.2998	6.3
491.3551	27.6

Name: ((1S)-4-((amino-(prop-2-ynylamino)methylidene)amino)-1-carboxybutyl)azanium
PrecursorMZ: 213.13438
RT: 8.9998
ExactMass: 213.1351508
Spectrum_type: 2
charge: 1
Formula: C9H17N4O2+
SMILES: C#CCNC(=NCCC[C@@H](C(=O)O)[NH3+])N
Method: HCD
Collision_energy: [28.333334]
Isolation_window: 4.0
Ion_mode: P
Num Peaks: 35
55.0546	1.1
69.8107	0.9
70.0654	12.6
71.0495	1.0
96.0444	4.3
101.0597	3.0
112.0393	3.2
113.0821	2.9
114.0662	1.5
116.0706	3.5
123.0675	2.1
124.0755	1.4
168.0688	1.1
168.1018	0.8
182.0918	0.8
195.1236	5.8
196.0964	1.1
197.0916	0.8
212.0736	0.9
212.0914	9.9
212.1027	0.8
212.1281	1.4
213.0865	1.3
213.0954	1.1
213.1237	6.7
213.1340	61.4
214.0711	1.0
214.1069	100.0
214.1157	1.8
214.1181	1.8
214.1368	5.3
215.1018	1.1
215.1104	6.6
215.1131	1.0
215.1383	2.8

Name: ((2R)-2,3-dihydroxypropyl) (E,8R,11S,12S)-8,11,12-trihydroxyoctadec-9-enoate
PrecursorMZ: 387.27274
RT: 1.4692
ExactMass: 404.27740361
Spectrum_type: 2
charge: 1
Formula: C21H40O7
SMILES: CCCCCC[C@@H]([C@H](/C=C/[C@@H](CCCCCCC(=O)OC[C@@H](CO)O)O)O)O
Method: HCD
Collision_energy: [28.333334]
Isolation_window: 4.0
Ion_mode: P
Num Peaks: 61
57.0338	28.4
67.0544	42.5
69.0701	25.4
69.3154	17.2
70.0653	19.9
71.0857	32.1
79.0543	16.7
81.0700	73.1
83.0856	28.7
86.0965	24.4
93.0698	35.0
95.0854	42.6
97.0647	19.3
97.1011	20.5
97.4566	12.6
99.0803	30.4
103.0389	26.9
107.0853	29.3
109.1010	33.5
111.0803	14.3
116.0704	19.2
119.0853	19.2
121.1009	18.3
123.1165	28.9
125.0957	28.2
133.1008	21.6
135.1164	25.7
145.1007	14.6
147.1164	18.8
149.1320	23.8
151.1112	22.1
154.0857	12.7
159.1165	31.6
161.1320	20.4
163.1112	13.0
164.1066	17.3
173.1167	34.3
177.1268	25.6
179.1425	21.8
189.1115	34.6
195.1372	42.5
203.1273	10.9
230.1380	13.8
269.1739	16.0
277.2151	100.0
278.2183	20.9
295.2255	59.0
323.1955	29.5
325.2515	25.9
351.2308	15.0
353.2457	10.3
369.2410	17.0
369.2608	37.6
371.2165	16.3
371.2560	36.2
387.1301	24.9
387.1547	9.5
387.2510	33.7
388.1368	11.0
389.2294	12.0
389.2663	14.6

Name: ((2R)-2,3-dihydroxypropyl)-trimethylazanium
PrecursorMZ: 134.11736
RT: 13.5674
ExactMass: 134.118103753
Spectrum_type: 2
charge: 1
Formula: C6H16NO2+
SMILES: C[N+](C)(C)C[C@H](CO)O
Method: HCD
Collision_energy: [28.333334]
Isolation_window: 4.0
Ion_mode: P
Num Peaks: 12
57.0339	4.4
60.0811	22.3
75.0442	6.3
134.0630	24.0
134.0961	34.0
134.1172	100.0
135.0913	21.5
135.0992	4.2
135.1205	6.4
136.0212	3.9
136.0615	3.0
136.0754	16.8

Name: ((2S)-1,5-dimethoxy-1,5-dioxopentan-2-yl)azanium
PrecursorMZ: 176.09178
RT: 1.3426
ExactMass: 176.09228293
Spectrum_type: 2
charge: 1
Formula: C7H14NO4+
SMILES: COC(=O)CC[C@@H](C(=O)OC)[NH3+]
Method: HCD
Collision_energy: [28.333334]
Isolation_window: 4.0
Ion_mode: P
Num Peaks: 28
56.0500	6.4
84.0447	98.5
85.0481	4.4
87.0444	2.6
88.0397	5.3
94.0654	3.6
98.0603	2.6
100.0759	7.9
102.0551	3.5
116.0708	100.0
116.1072	4.7
117.0739	4.8
144.0656	54.3
145.0692	4.5
146.0844	2.9
158.0814	11.7
159.0652	10.8
175.0867	13.8
175.1229	3.0
176.0707	12.8
176.0917	15.4
176.1071	4.9
176.1281	3.1
176.8754	43.4
177.0659	4.1
177.1022	14.6
178.0863	9.2
178.1229	4.8

Name: ((2S)-1-(((2S)-1-(((2S)-1-amino-4-methyl-1-oxopentan-2-yl)amino)-4-methyl-1-oxopentan-2-yl)amino)-4-methyl-1-oxopentan-2-yl)azanium
PrecursorMZ: 357.28569
RT: 7.7639
ExactMass: 357.28656606
Spectrum_type: 2
charge: 1
Formula: C18H37N4O3+
SMILES: CC(C)C[C@@H](C(=O)N[C@@H](CC(C)C)C(=O)N[C@@H](CC(C)C)C(=O)N)[NH3+]
Method: HCD
Collision_energy: [28.333334]
Isolation_window: 4.0
Ion_mode: P
Num Peaks: 11
96.0810	5.7
114.0915	45.2
116.0708	5.6
131.1180	11.6
209.1647	7.1
227.1753	27.0
244.2018	19.4
339.2751	6.2
340.2593	12.3
357.2857	100.0
358.2892	19.5

Name: ((2S)-1-amino-4-carboxy-1-oxobutan-2-yl)azanium
PrecursorMZ: 129.06583
RT: 9.1763
ExactMass: 147.07696722
Spectrum_type: 2
charge: 1
Formula: C5H11N2O3+
SMILES: C(CC(=O)O)[C@@H](C(=O)N)[NH3+]
Method: HCD
Collision_energy: [28.333334]
Isolation_window: 4.0
Ion_mode: P
Num Peaks: 16
56.0499	1.1
83.0606	16.8
84.0393	0.6
84.0424	1.4
84.0446	100.0
84.0499	0.5
84.0639	0.8
84.0809	0.5
85.0286	5.3
85.0479	1.7
88.1122	0.5
95.0129	0.5
102.0550	2.6
129.0657	5.4
130.0497	22.1
130.1590	1.3

Name: ((2S)-2-amino-1-methoxy-3-methylbutylidene)oxidanium
PrecursorMZ: 132.10193
RT: 1.3889
ExactMass: 132.102453689
Spectrum_type: 2
charge: 1
Formula: C6H14NO2+
SMILES: CC(C)[C@@H](C(=[OH+])OC)N
Method: HCD
Collision_energy: [28.333334]
Isolation_window: 4.0
Ion_mode: P
Num Peaks: 2
55.0546	6.2
72.0811	100.0

Name: ((2S)-2-hydroxy-2-phenylethyl)azanium
PrecursorMZ: 120.08071
RT: 2.3132
ExactMass: 138.091889006
Spectrum_type: 2
charge: 1
Formula: C8H12NO+
SMILES: C1=CC=C(C=C1)[C@@H](C[NH3+])O
Method: HCD
Collision_energy: [28.333334]
Isolation_window: 4.0
Ion_mode: P
Num Peaks: 9
58.0655	8.7
93.0699	9.8
103.0542	30.2
107.0728	15.5
118.0861	39.8
119.0602	15.5
120.0806	100.0
121.0839	10.4
122.0963	21.8

Name: ((2S)-2-hydroxy-3-phenoxypropyl)-propan-2-ylazanium
PrecursorMZ: 192.13825
RT: 6.4313
ExactMass: 210.149403881
Spectrum_type: 2
charge: 1
Formula: C12H20NO2+
SMILES: CC(C)[NH2+]C[C@@H](COC1=CC=CC=C1)O
Method: HCD
Collision_energy: [28.333334]
Isolation_window: 4.0
Ion_mode: P
Num Peaks: 9
58.0656	18.9
105.0700	10.1
133.0648	59.5
191.1178	9.1
192.0655	12.3
192.1382	100.0
193.0992	7.7
193.1417	12.0
194.1174	18.3

Name: ((2S,5R,6R)-2-carboxy-3,3-dimethyl-7-oxo-4-thia-1-azabicyclo(3.2.0)heptan-6-yl)azanium
PrecursorMZ: 217.06412
RT: 6.6107
ExactMass: 217.06468845
Spectrum_type: 2
charge: 1
Formula: C8H13N2O3S+
SMILES: CC1([C@@H](N2[C@H](S1)[C@@H](C2=O)[NH3+])C(=O)O)C
Method: HCD
Collision_energy: [28.333334]
Isolation_window: 4.0
Ion_mode: P
Num Peaks: 15
114.0374	100.0
114.0915	33.3
115.0408	7.4
116.0709	6.1
143.0637	11.9
156.1021	11.9
159.1170	7.6
171.0587	11.0
172.0428	7.1
187.1440	6.4
216.1230	5.9
217.0639	39.9
217.0969	13.8
218.0815	7.3
219.1380	12.3

Name: ((3R)-3-((3S,5S,6R,7R,10S,17R)-6-ethyl-3,7-dihydroxy-10,13-dimethyl-2,3,4,5,6,7,8,9,11,12,14,15,16,17-tetradecahydro-1H-cyclopenta(a)phenanthren-17-yl)butyl) hydrogen sulfate
PrecursorMZ: 495.27633
RT: 0.8961
ExactMass: 472.28586029
Spectrum_type: 2
charge: 1
Formula: C25H44O6S
SMILES: CC[C@@H]1[C@@H]2C[C@H](CC[C@@]2(C3CCC4([C@H](CCC4C3[C@@H]1O)[C@H](C)CCOS(=O)(=O)O)C)C)O
Method: HCD
Collision_energy: [28.333334]
Isolation_window: 4.0
Ion_mode: P
Num Peaks: 65
55.0310	5.5
69.0701	5.1
69.2075	5.3
69.6808	3.2
70.0653	3.2
81.0700	10.6
85.0649	3.7
89.0598	5.3
93.0698	3.6
95.0855	7.8
97.4564	3.2
105.0698	5.5
107.0854	7.8
109.1010	10.6
111.0439	2.9
111.1167	3.8
114.0912	3.2
119.0853	6.1
121.1009	6.7
123.1166	4.7
125.0958	7.9
131.0851	3.3
133.1008	5.5
135.1165	4.3
139.1113	4.9
145.1008	4.6
147.1165	4.3
149.0958	2.6
149.1321	3.1
151.1114	4.1
157.1008	3.0
159.1165	4.9
161.1320	12.6
163.1113	6.3
167.1063	6.0
181.1217	4.3
213.1630	3.7
215.1787	39.1
216.1822	4.5
253.1942	6.0
255.2097	12.4
299.2358	3.1
313.1458	5.2
353.1769	9.5
379.2983	7.3
380.3300	5.6
396.3245	9.2
397.2028	4.0
397.3085	26.2
398.3123	7.3
398.3400	35.7
399.3454	6.6
414.3354	3.7
415.3189	11.5
416.3224	4.0
416.3504	16.7
477.2651	3.5
494.2626	3.8
494.2932	9.9
495.2756	100.0
496.2784	22.4
496.3076	53.8
497.2846	9.9
497.2918	27.6
497.3142	4.0

Name: ((3R,6R)-2-methyl-6-((3R,5R,7R,8R,9S,10S,12S,13R,14S,17R)-3,7,12-trihydroxy-10,13-dimethyl-2,3,4,5,6,7,8,9,11,12,14,15,16,17-tetradecahydro-1H-cyclopenta(a)phenanthren-17-yl)heptan-3-yl) hydrogen sulfate
PrecursorMZ: 481.29695
RT: 1.4185
ExactMass: 516.31207504
Spectrum_type: 2
charge: 1
Formula: C27H48O7S
SMILES: C[C@H](CC[C@H](C(C)C)OS(=O)(=O)O)[C@H]1CC[C@@H]2[C@@]1([C@H](C[C@H]3[C@H]2[C@@H](C[C@@H]4[C@@]3(CC[C@H](C4)O)C)O)O)C
Method: HCD
Collision_energy: [28.333334]
Isolation_window: 4.0
Ion_mode: P
Num Peaks: 48
51.4765	5.5
69.0701	9.3
81.0700	12.8
83.0855	4.6
93.0698	7.8
95.0854	14.2
105.0697	10.4
107.0854	12.0
109.1010	12.8
119.0852	8.3
121.1009	7.9
131.0852	4.5
133.1007	10.0
135.1164	7.2
143.0850	3.8
145.1008	10.1
147.1164	8.8
149.1320	3.8
157.1008	4.5
159.1164	11.0
161.1319	5.9
171.1167	5.0
173.1320	8.4
187.1475	5.3
199.1476	9.2
201.1631	4.7
210.1843	4.2
213.1630	13.6
215.1788	5.9
227.1786	10.8
241.1942	8.4
253.1938	4.0
255.2098	9.1
283.2406	3.9
355.1920	5.1
365.3187	30.1
366.3224	7.6
381.2080	3.7
383.3293	36.2
384.3326	9.8
401.3398	23.9
402.3432	6.2
463.2859	100.0
464.2893	32.4
465.2891	3.6
481.2964	29.4
482.2998	9.5
482.4185	6.4

Name: ((3S)-1-((2S)-2,3-dihydroxypropoxy)-1-oxononan-3-yl) (3S)-3-hydroxynonanoate
PrecursorMZ: 387.27291
RT: 2.2779
ExactMass: 404.27740361
Spectrum_type: 2
charge: 1
Formula: C21H40O7
SMILES: CCCCCC[C@@H](CC(=O)O[C@@H](CCCCCC)CC(=O)OC[C@H](CO)O)O
Method: HCD
Collision_energy: [28.333334]
Isolation_window: 4.0
Ion_mode: P
Num Peaks: 3
81.0700	76.2
277.2154	100.0
323.1952	75.4

Name: ((3S,5S,8R,10S,17R)-7-acetyloxy-10,13-dimethyl-17-(1-methylsulfonyloxypropan-2-yl)-2,3,4,5,6,7,8,9,11,12,14,15,16,17-tetradecahydro-1H-cyclopenta(a)phenanthren-3-yl) acetate
PrecursorMZ: 513.28703
RT: 0.885
ExactMass: 512.28077491
Spectrum_type: 2
charge: 1
Formula: C27H44O7S
SMILES: CC(COS(=O)(=O)C)[C@H]1CCC2C1(CCC3[C@H]2C(C[C@H]4[C@@]3(CC[C@@H](C4)OC(=O)C)C)OC(=O)C)C
Method: HCD
Collision_energy: [28.333334]
Isolation_window: 4.0
Ion_mode: P
Num Peaks: 11
69.3779	10.8
161.1320	46.1
255.2097	100.0
256.2134	18.2
273.2200	13.6
353.1768	70.6
354.1800	15.1
397.3091	21.1
415.3190	14.7
495.2755	38.9
513.2861	30.8

Name: ((4S)-4-benzamido-5-(4-nitroanilino)-5-oxopentyl)-(diaminomethylidene)azanium
PrecursorMZ: 399.17701
RT: 7.0102
ExactMass: 399.17807824
Spectrum_type: 2
charge: 1
Formula: C19H23N6O4+
SMILES: C1=CC=C(C=C1)C(=O)N[C@@H](CCC[NH+]=C(N)N)C(=O)NC2=CC=C(C=C2)[N+](=O)[O-]
Method: HCD
Collision_energy: [28.333334]
Isolation_window: 4.0
Ion_mode: P
Num Peaks: 50
60.0561	2.4
70.0655	23.9
71.0495	2.2
71.0688	0.9
72.0812	3.4
84.0810	1.0
95.0606	13.2
96.0639	0.8
97.0763	1.7
105.0336	48.5
106.0371	3.0
112.0871	10.8
113.0711	9.4
114.0915	0.8
114.1028	4.8
122.0601	34.5
123.0634	2.3
130.0976	1.7
173.1073	3.0
174.0913	4.5
192.1020	1.0
200.1179	1.2
201.1021	6.6
202.1061	1.1
216.1130	11.8
217.1169	1.4
219.1126	4.7
220.1169	0.8
225.0656	1.5
244.1079	10.3
245.1121	1.2
261.1344	4.0
340.1288	4.6
341.1324	1.0
363.3000	1.1
364.1396	1.2
381.1673	1.1
381.3106	1.8
382.1511	0.9
398.1569	1.4
398.1802	0.9
398.2054	1.1
399.1771	100.0
399.3220	0.8
400.1376	1.0
400.1803	23.2
401.1713	1.3
401.1816	1.7
401.2082	1.1
401.3373	2.4

Name: ((5R)-5-(6-aminopurin-9-yl)-2,5-dihydrofuran-2-yl)methanol
PrecursorMZ: 234.09764
RT: 6.9602
ExactMass: 233.09127461
Spectrum_type: 2
charge: 1
Formula: C10H11N5O2
SMILES: C1=CC(O[C@H]1N2C=NC3=C(N=CN=C32)N)CO
Method: HCD
Collision_energy: [28.333334]
Isolation_window: 4.0
Ion_mode: P
Num Peaks: 31
81.0449	8.0
83.0493	3.0
88.0758	3.0
99.0442	8.0
101.0598	5.9
108.0443	11.0
111.0441	7.0
124.0392	9.6
126.0548	8.4
127.0501	19.3
136.0616	17.1
160.0617	9.7
172.1330	2.8
186.1120	4.3
188.0815	18.1
198.1120	8.4
216.1226	23.8
232.1176	5.6
232.1540	4.1
233.0916	15.5
233.1294	4.1
234.0756	13.3
234.0869	29.3
234.0982	100.0
234.1115	7.1
234.1327	10.0
234.1845	4.4
235.1069	9.3
236.0914	16.6
236.1028	4.0
236.1276	3.1

Name: ((8R,9R,10R,13S,14R,17S)-10,13-dimethyl-3-oxo-6,7,8,9,11,12,14,15,16,17-decahydrocyclopenta(a)phenanthren-17-yl) hydrogen sulfate
PrecursorMZ: 367.15632
RT: 0.8888
ExactMass: 366.1500951
Spectrum_type: 2
charge: 1
Formula: C19H26O5S
SMILES: C[C@]12CC[C@@H]3[C@H]([C@H]1CC[C@@H]2OS(=O)(=O)O)CCC4=CC(=O)C=C[C@]34C
Method: HCD
Collision_energy: [28.333334]
Isolation_window: 4.0
Ion_mode: P
Num Peaks: 5
269.1891	80.2
270.1926	12.0
287.1993	33.6
367.1560	100.0
368.1590	27.7

Name: (+)-S-Allylcysteine
PrecursorMZ: 162.05833
RT: 7.12555
ExactMass: 161.05104977
Spectrum_type: 2
charge: 1
Formula: C6H11NO2S
SMILES: C=CCSC[C@@H](C(=O)O)N
Method: HCD
Collision_energy: [28.333334]
Isolation_window: 4.0
Ion_mode: P
Num Peaks: 15
74.0063	3.5
88.0395	3.1
102.0551	3.3
116.0529	100.0
116.0707	6.2
117.0563	4.3
120.0114	30.7
120.0808	6.7
145.0317	5.2
160.9014	7.0
161.0709	4.0
162.0584	53.3
162.0913	3.9
163.0620	3.2
163.0864	3.1

Name: (1,1,2,2-tetradeuterio-2-hydroxyethyl)-tris(trideuteriomethyl)(15N)azanium
PrecursorMZ: 104.10717
RT: 6.7073
ExactMass: 118.186171661
Spectrum_type: 2
charge: 1
Formula: C5H14NO+
SMILES: [2H]C([2H])([2H])[15N+](C([2H])([2H])[2H])(C([2H])([2H])[2H])C([2H])([2H])C([2H])([2H])O
Method: HCD
Collision_energy: [28.333334]
Isolation_window: 4.0
Ion_mode: P
Num Peaks: 8
58.0656	6.0
60.0812	20.4
62.9295	10.7
97.3989	5.0
102.1279	11.9
104.1072	100.0
105.1105	6.7
106.0864	4.5

Name: (1-((1-Methoxy-1-oxo-3-phenylpropan-2-yl)amino)-4-methyl-1-oxopentan-2-yl)azanium
PrecursorMZ: 293.18566
RT: 1.1552
ExactMass: 293.18651766
Spectrum_type: 2
charge: 1
Formula: C16H25N2O3+
SMILES: CC(C)CC(C(=O)NC(CC1=CC=CC=C1)C(=O)OC)[NH3+]
Method: HCD
Collision_energy: [28.333334]
Isolation_window: 4.0
Ion_mode: P
Num Peaks: 20
59.0495	2.6
69.0702	0.7
69.1250	0.9
69.6033	0.9
86.0966	28.5
87.1000	1.3
101.0598	43.6
102.0632	2.0
120.0807	100.0
121.0841	7.7
146.1174	35.8
147.1208	2.6
180.1016	6.6
233.1644	5.0
234.1676	0.8
261.1596	0.8
292.1902	0.7
292.2266	0.8
293.1853	16.5
294.1886	3.3

Name: (1-(Carboxymethylamino)-3-methyl-1-oxobutan-2-yl)azanium
PrecursorMZ: 175.10769
RT: 5.3067
ExactMass: 175.10826734
Spectrum_type: 2
charge: 1
Formula: C7H15N2O3+
SMILES: CC(C)C(C(=O)NCC(=O)O)[NH3+]
Method: HCD
Collision_energy: [28.333334]
Isolation_window: 4.0
Ion_mode: P
Num Peaks: 17
55.0546	3.9
70.0655	4.8
72.0811	100.0
73.0844	4.8
130.0650	5.7
132.0441	3.8
157.0759	3.3
158.0598	5.6
174.1023	9.1
174.1123	3.1
175.0500	4.4
175.0863	8.7
175.1073	2.9
176.0702	16.4
176.8750	7.0
177.0657	10.2
195.0509	3.7

Name: (1-Carboxy-3-oxobutyl)azanium
PrecursorMZ: 132.06552
RT: 8.8874
ExactMass: 132.066068181
Spectrum_type: 2
charge: 1
Formula: C5H10NO3+
SMILES: CC(=O)CC(C(=O)O)[NH3+]
Method: HCD
Collision_energy: [28.333334]
Isolation_window: 4.0
Ion_mode: P
Num Peaks: 14
68.0498	18.2
69.0702	4.2
74.0239	100.0
84.0446	19.8
85.0479	3.6
86.0602	64.7
86.0967	70.7
87.1000	4.5
88.0395	74.1
116.0342	8.3
130.0650	6.4
130.1589	4.4
132.0653	22.5
134.0446	6.9

Name: (115N)pyridin-1-ium-3-carboxamide
PrecursorMZ: 123.05527
RT: 12.8277
ExactMass: 124.052872745
Spectrum_type: 2
charge: 1
Formula: C6H7N2O+
SMILES: C1=CC(=C[15NH+]=C1)C(=O)N
Method: HCD
Collision_energy: [28.333334]
Isolation_window: 4.0
Ion_mode: P
Num Peaks: 19
56.0499	3.5
80.0498	5.1
96.0445	4.5
100.0244	19.5
101.0252	3.0
104.0707	4.6
105.0369	6.6
106.0288	7.5
107.0730	14.5
118.0349	8.6
122.0811	2.8
122.0963	100.0
123.0552	46.8
123.0803	13.7
123.0916	16.7
123.0995	10.1
124.0391	8.1
124.0585	2.9
124.0757	9.0

Name: (15S)-9-amino-4-hydroxy-12-(2-methylpropyl)-10,13-dioxo-2-oxa-11,14-diazatricyclo(15.2.2.13,7)docosa-1(19),3,5,7(22),17,20-hexaene-15-carboxylic acid
PrecursorMZ: 456.21229
RT: 4.7973
ExactMass: 455.20563565
Spectrum_type: 2
charge: 1
Formula: C24H29N3O6
SMILES: CC(C)CC1C(=O)N[C@@H](CC2=CC=C(C=C2)OC3=C(C=CC(=C3)CC(C(=O)N1)N)O)C(=O)O
Method: HCD
Collision_energy: [28.333334]
Isolation_window: 4.0
Ion_mode: P
Num Peaks: 25
72.0811	3.9
86.0966	29.9
119.0728	21.3
136.0754	22.7
176.0701	3.9
249.1592	10.1
252.1012	7.2
254.1170	20.8
256.0961	3.9
269.1277	40.6
270.1316	5.9
277.1540	10.4
298.1064	14.7
315.1330	100.0
316.1363	19.0
382.2118	4.0
383.1952	10.5
393.1802	4.0
411.1907	3.9
428.2168	26.8
429.2199	5.8
439.1837	8.6
456.2120	33.3
456.2741	4.0
457.2157	7.5

Name: (1Z)-2-(1H-indol-3-yl)ethanimine
PrecursorMZ: 159.09156
RT: 8.8423
ExactMass: 158.084398327
Spectrum_type: 2
charge: 1
Formula: C10H10N2
SMILES: C1=CC=C2C(=C1)C(=CN2)CC=N
Method: HCD
Collision_energy: [28.333334]
Isolation_window: 4.0
Ion_mode: P
Num Peaks: 41
58.0655	29.8
59.0733	5.4
69.9869	3.1
70.0654	3.9
71.0494	5.2
71.0607	3.3
75.9355	3.0
79.0544	5.2
81.0336	2.9
98.0600	14.2
99.0440	3.8
100.0756	4.3
101.0597	7.1
114.0547	2.8
116.0706	4.5
116.9618	6.6
117.9595	5.7
124.0757	3.6
125.0595	27.3
130.0649	9.3
132.0805	39.6
133.0839	4.3
134.9721	4.1
140.0702	5.2
142.0648	4.6
142.0860	50.2
142.1224	8.1
157.0966	3.2
157.1697	6.0
158.0808	11.4
158.0968	5.3
158.1173	44.9
158.1284	11.6
158.1536	10.7
159.0913	100.0
159.1204	4.4
160.0753	33.2
160.0961	29.0
160.1329	6.0
160.9010	16.8
161.1071	4.5

Name: (2'S)-2',5',7',8'-tetramethyl-2,2-dioxo-2'-((4R,8S)-4,8,12-trimethyltridecyl)spiro(1,3,2-dioxathietane-4,3'-4H-chromene)-6'-ol
PrecursorMZ: 525.32336
RT: 0.8069
ExactMass: 524.31716042
Spectrum_type: 2
charge: 1
Formula: C29H48O6S
SMILES: CC1=C(C2=C(CC3([C@](O2)(C)CCC[C@H](C)CCC[C@@H](C)CCCC(C)C)OS(=O)(=O)O3)C(=C1O)C)C
Method: HCD
Collision_energy: [28.333334]
Isolation_window: 4.0
Ion_mode: P
Num Peaks: 11
69.0700	16.8
81.0700	23.3
83.0856	12.3
95.0854	21.1
109.1009	14.7
123.1165	10.4
149.0957	10.2
165.0904	100.0
166.0940	17.1
245.0467	50.3
525.3227	14.0

Name: (2,3,4,5-13C4)hexanedioic acid
PrecursorMZ: 111.04422
RT: 6.8957
ExactMass: 150.07132814
Spectrum_type: 2
charge: 1
Formula: C6H10O4
SMILES: [13CH2]([13CH2][13CH2]C(=O)O)[13CH2]C(=O)O
Method: HCD
Collision_energy: [28.333334]
Isolation_window: 4.0
Ion_mode: P
Num Peaks: 8
55.0547	17.3
83.0494	26.5
110.0601	22.1
111.0442	60.0
111.0553	20.1
111.0918	37.3
112.0395	12.7
112.0507	100.0

Name: (2-(((1S)-1-carboxy-2-phenylethyl)amino)-2-oxoethyl)azanium
PrecursorMZ: 223.10755
RT: 5.765866666666667
ExactMass: 223.10826734
Spectrum_type: 2
charge: 1
Formula: C11H15N2O3+
SMILES: C1=CC=C(C=C1)C[C@@H](C(=O)O)NC(=O)C[NH3+]
Method: HCD
Collision_energy: [28.333334]
Isolation_window: 4.0
Ion_mode: P
Num Peaks: 50
81.0337	4.4
95.0493	2.8
95.0605	11.9
100.0758	34.7
101.0598	3.5
101.0791	2.6
108.0443	3.0
109.0761	8.1
110.0601	4.6
120.0807	89.9
121.0841	6.4
123.0553	9.0
124.0392	4.3
136.0616	5.3
149.0596	2.7
152.0704	6.9
158.0811	4.7
162.0910	4.2
166.0861	66.7
167.0894	5.3
176.0704	2.9
177.1019	22.7
178.0861	9.5
178.0974	17.3
178.1224	2.3
179.1178	2.5
180.1017	11.9
180.1128	2.9
205.0968	28.3
206.0811	5.4
206.1004	3.3
207.0761	6.7
207.1125	3.8
222.0761	9.1
222.0871	9.7
222.0982	12.4
222.1122	19.9
222.1233	3.0
222.1482	5.0
223.0707	5.4
223.1073	100.0
223.1176	4.8
223.1434	14.2
224.0916	95.7
224.1027	20.1
224.1111	9.0
224.1278	22.9
225.0861	3.0
225.0959	3.2
225.1228	8.0

Name: (2-(Carboxymethyl)-3-methylbutyl)-trimethylazanium
PrecursorMZ: 188.16424
RT: 10.3254
ExactMass: 188.165053945
Spectrum_type: 2
charge: 1
Formula: C10H22NO2+
SMILES: CC(C)C(CC(=O)O)C[N+](C)(C)C
Method: HCD
Collision_energy: [28.333334]
Isolation_window: 4.0
Ion_mode: P
Num Peaks: 7
60.0812	11.0
111.0805	15.9
129.0909	12.8
165.0214	7.5
188.1643	100.0
189.1676	9.1
190.1073	6.7

Name: (213C)azinane
PrecursorMZ: 127.12306
RT: 0.393
ExactMass: 86.09250419
Spectrum_type: 2
charge: 1
Formula: C5H11N
SMILES: C1CCN[13CH2]C1
Method: HCD
Collision_energy: [28.333334]
Isolation_window: 4.0
Ion_mode: P
Num Peaks: 9
82.0656	16.7
84.0811	100.0
125.0709	13.7
125.1075	21.9
126.0550	15.7
126.0915	18.9
126.1278	14.0
127.1230	19.1
128.1436	12.2

Name: (213C)pyridin-3-ol
PrecursorMZ: 96.04458
RT: 7.3288
ExactMass: 96.040468618
Spectrum_type: 2
charge: 1
Formula: C5H5NO
SMILES: C1=CC(=[13CH]N=C1)O
Method: HCD
Collision_energy: [28.333334]
Isolation_window: 4.0
Ion_mode: P
Num Peaks: 13
68.0498	3.9
69.0338	1.3
69.0450	1.2
69.6600	1.0
94.0652	2.1
95.0492	1.6
95.0605	7.5
96.0444	100.0
97.0284	3.1
97.0396	3.2
97.0478	5.3
97.0760	1.6
113.0345	5.9

Name: (2E,4E,6E)-11-(1,3-benzodioxol-5-yl)-N-(2-methylpropyl)undeca-2,4,6-trienamide
PrecursorMZ: 356.22134
RT: 1.048
ExactMass: 355.21474379
Spectrum_type: 2
charge: 1
Formula: C22H29NO3
SMILES: CC(C)CNC(=O)/C=C/C=C/C=C/CCCCC1=CC2=C(C=C1)OCO2
Method: HCD
Collision_energy: [28.333334]
Isolation_window: 4.0
Ion_mode: P
Num Peaks: 19
57.0702	11.5
69.3561	8.7
73.0470	21.0
74.0966	20.6
91.0573	40.0
131.0487	10.0
133.1009	13.9
135.0437	100.0
135.1164	23.2
161.0593	8.6
215.1058	6.8
234.1842	9.7
255.1371	14.0
285.0087	20.8
355.0689	30.4
356.0695	10.4
356.2208	35.3
357.2244	6.9
358.2364	8.3

Name: (2R)-1-(((2R)-2-carboxy-5-oxopyrrolidin-1-yl)methyl)-5-oxopyrrolidine-2-carboxylic acid
PrecursorMZ: 271.09226
RT: 7.2439
ExactMass: 270.08518617
Spectrum_type: 2
charge: 1
Formula: C11H14N2O6
SMILES: C1CC(=O)N([C@H]1C(=O)O)CN2[C@H](CCC2=O)C(=O)O
Method: HCD
Collision_energy: [28.333334]
Isolation_window: 4.0
Ion_mode: P
Num Peaks: 9
84.0448	25.7
114.0551	19.4
114.0914	9.0
130.0499	100.0
142.0498	21.0
270.0970	14.8
271.0924	12.6
272.0919	8.0
272.1121	14.2

Name: (2R)-1-((2R)-2-azaniumylpropanoyl)pyrrolidine-2-carboxylate
PrecursorMZ: 187.10754
RT: 8.9267
ExactMass: 186.10044231
Spectrum_type: 2
charge: 1
Formula: C8H14N2O3
SMILES: C[C@H](C(=O)N1CCC[C@@H]1C(=O)[O-])[NH3+]
Method: HCD
Collision_energy: [28.333334]
Isolation_window: 4.0
Ion_mode: P
Num Peaks: 20
70.0654	16.2
84.0810	20.5
114.0549	6.2
115.0866	18.0
116.0706	100.0
117.0738	7.2
126.0912	58.9
128.0705	7.7
130.0862	4.1
142.0861	17.6
168.1018	7.4
172.0963	4.8
186.0759	10.4
186.0862	14.5
186.1122	32.3
187.1075	42.1
188.0703	3.8
188.0914	11.6
188.1279	10.0
189.1231	8.0

Name: (2R)-1-(2-amino-3-carboxypropanoyl)pyrrolidine-2-carboxylic acid
PrecursorMZ: 231.09731
RT: 7.6175
ExactMass: 230.09027155
Spectrum_type: 2
charge: 1
Formula: C9H14N2O5
SMILES: C1C[C@@H](N(C1)C(=O)C(CC(=O)O)N)C(=O)O
Method: HCD
Collision_energy: [28.333334]
Isolation_window: 4.0
Ion_mode: P
Num Peaks: 127
60.0811	1.5
69.0338	1.3
70.0290	6.9
70.0654	23.0
71.0495	1.3
71.0687	1.0
72.0811	3.9
74.0239	3.6
84.0446	3.4
84.0810	4.6
85.0286	12.3
85.0650	1.9
86.0239	1.0
86.0602	13.1
86.0966	1.1
87.0442	0.9
88.0395	8.6
90.0551	4.1
92.9482	1.1
98.0601	0.9
100.0758	16.1
101.0597	1.7
102.0550	1.2
104.0708	1.1
110.0601	4.5
112.0757	1.4
113.0710	1.9
114.0549	3.1
115.0866	5.9
115.9641	2.1
116.0706	59.2
117.0738	3.4
117.9594	0.9
117.9797	5.9
118.0861	2.3
119.0189	2.3
119.9751	2.4
120.0655	2.3
124.0755	0.9
125.0707	1.5
128.0704	2.0
129.1020	3.4
130.0861	2.7
133.9744	1.4
133.9882	1.2
138.0547	1.7
139.0864	2.6
140.0704	1.3
140.9955	1.7
141.0657	2.4
142.0496	3.2
142.0860	2.5
143.0187	2.7
145.9744	1.4
147.1124	1.4
149.0709	1.1
150.0912	2.4
151.0752	1.2
152.0703	1.1
154.1223	1.1
159.0762	6.5
160.0603	2.6
161.0294	1.8
163.9850	5.7
165.9804	2.5
166.0860	1.3
167.0811	1.4
168.0652	1.4
168.1017	9.1
168.1380	2.0
169.0969	5.9
170.0809	1.6
171.0649	2.5
171.0761	6.7
172.0965	3.3
172.1329	3.6
177.0241	1.8
177.9642	7.8
178.0858	2.6
179.9596	2.5
183.1126	2.9
184.0967	2.1
184.1078	14.7
184.1158	1.1
185.0917	26.5
185.1099	1.4
185.9830	1.2
186.0758	1.8
186.0955	2.2
186.1122	4.3
186.1484	2.6
187.0011	1.4
187.1073	4.0
188.9961	0.9
192.0346	1.0
195.0760	1.6
196.0601	14.8
196.0964	7.2
197.0634	1.4
212.0913	1.6
212.1025	4.3
212.1277	1.0
213.0865	5.7
214.0708	2.4
214.1069	8.4
229.0813	1.5
229.1175	1.8
229.1291	2.4
230.0809	0.9
230.0843	1.5
230.1019	9.7
230.1131	100.0
230.1157	1.5
230.1383	4.5
231.0969	21.9
231.1139	1.1
231.1166	10.1
231.1332	1.6
231.1700	1.5
232.0601	1.0
232.0816	2.2
232.0964	1.4
232.1003	2.6
232.1175	15.2
232.1538	1.9
233.0547	1.1
233.1115	2.5

Name: (2R)-1-ethoxy-2-((2R)-2-((2S)-2-methoxypropoxy)propoxy)propane
PrecursorMZ: 233.17418
RT: 1.1192
ExactMass: 233.17528427
Spectrum_type: 2
charge: 1
Formula: C12H25O4+
SMILES: C[CH+]OC[C@@H](C)OC[C@@H](C)OC[C@H](C)OC
Method: HCD
Collision_energy: [28.333334]
Isolation_window: 4.0
Ion_mode: P
Num Peaks: 16
57.0338	39.8
59.0495	18.8
69.7011	3.9
81.0701	4.4
100.0394	4.1
101.0598	7.7
115.0752	3.7
118.0498	3.6
132.0653	4.5
174.1274	19.1
191.1171	5.7
232.0965	4.4
232.1689	7.1
233.1278	100.0
234.1315	14.7
234.1845	6.8

Name: (2R)-2,5,7,8-tetramethyl-2-((3E,7E)-4,8,12-trimethyltrideca-3,7,12-trienyl)-3,4-dihydrochromen-6-ol
PrecursorMZ: 423.32536
RT: 1.0121
ExactMass: 423.32630561
Spectrum_type: 2
charge: 1
Formula: C29H43O2+
SMILES: CC1=C(C2=C(CC[C@@](O2)(C)CC/C=C(\C)/CC/C=C(\C)/CC[CH+]C(=C)C)C(=C1O)C)C
Method: HCD
Collision_energy: [28.333334]
Isolation_window: 4.0
Ion_mode: P
Num Peaks: 53
57.0703	2.7
67.0546	3.4
69.0702	15.1
71.0859	2.0
79.0545	1.9
81.0702	46.0
82.0734	2.4
83.0858	3.9
93.0701	6.2
95.0857	22.4
97.1014	2.5
107.0857	6.4
109.1012	17.4
119.0855	4.2
121.1012	10.4
123.1168	9.0
133.1012	3.2
135.1166	7.8
137.0960	2.6
137.1323	8.2
147.1166	3.4
149.0960	3.0
149.1325	8.2
161.1323	2.0
163.1478	4.1
164.0831	4.0
164.1070	5.9
165.0909	100.0
166.0940	8.3
167.0700	3.7
173.1325	2.1
177.0907	3.9
177.1636	2.9
179.1064	3.9
189.0907	2.4
189.1271	2.0
189.1637	2.4
191.1064	4.6
203.1062	5.6
203.1791	5.8
205.1220	19.1
205.1952	1.9
217.1220	2.6
219.1374	1.8
231.1376	4.7
245.1529	1.8
245.2261	2.1
259.2417	1.9
273.1846	2.8
422.3410	8.8
423.3239	25.7
424.3315	17.3
425.3340	2.0

Name: (2R)-2,5-diacetamidopentanoic acid
PrecursorMZ: 217.11812
RT: 9.1741
ExactMass: 216.111007
Spectrum_type: 2
charge: 1
Formula: C9H16N2O4
SMILES: CC(=O)NCCC[C@H](C(=O)O)NC(=O)C
Method: HCD
Collision_energy: [28.333334]
Isolation_window: 4.0
Ion_mode: P
Num Peaks: 24
70.0654	18.9
74.0715	11.1
100.0757	15.6
101.0598	13.4
112.0756	9.4
115.0866	5.5
116.0706	10.2
128.0817	23.0
142.0497	5.1
157.0969	6.6
158.0810	37.6
172.0966	5.5
173.0918	17.2
198.1125	7.2
199.1074	15.6
200.1026	17.8
215.1388	7.3
216.0989	13.3
216.1228	23.6
217.1180	100.0
217.1293	51.3
218.1019	6.3
218.1139	19.4
218.1392	13.3

Name: (2R)-2-(((2R)-1-acetylpyrrolidine-2-carbonyl)amino)-5-(diaminomethylideneamino)pentanoic acid
PrecursorMZ: 314.18133
RT: 9.0155
ExactMass: 313.17500423
Spectrum_type: 2
charge: 1
Formula: C13H23N5O4
SMILES: CC(=O)N1CCC[C@@H]1C(=O)N[C@H](CCCN=C(N)N)C(=O)O
Method: HCD
Collision_energy: [28.333334]
Isolation_window: 4.0
Ion_mode: P
Num Peaks: 36
60.0447	2.8
70.0654	21.0
72.0810	3.7
84.0809	3.0
87.0442	2.6
95.0604	6.5
112.0755	3.9
112.0868	8.6
114.1025	5.1
115.0865	16.6
116.0705	42.4
117.0739	2.7
118.0861	2.2
130.0972	3.2
139.0863	4.6
154.0972	2.2
157.0968	16.8
177.1020	2.5
182.0920	5.2
199.1184	32.1
200.1025	2.3
211.1069	2.3
217.1288	27.0
255.1332	5.5
313.1385	4.4
313.1742	10.8
314.1223	4.2
314.1440	7.1
314.1607	2.7
314.1813	100.0
315.1000	5.7
315.1531	15.6
315.1669	6.1
315.1841	12.1
316.1369	3.9
316.1592	3.1

Name: (2R)-2-(((2R)-2-ammoniopropanoyl)amino)propanoate
PrecursorMZ: 161.09205
RT: 6.9951
ExactMass: 160.08479225
Spectrum_type: 2
charge: 1
Formula: C6H12N2O3
SMILES: C[C@H](C(=O)N[C@H](C)C(=O)[O-])[NH3+]
Method: HCD
Collision_energy: [28.333334]
Isolation_window: 4.0
Ion_mode: P
Num Peaks: 9
90.0551	100.0
115.0866	15.3
116.0706	6.4
160.0754	7.0
161.0707	8.7
161.0915	25.6
162.0543	6.5
162.0907	6.4
163.0499	30.9

Name: (2R)-2-(((2R)-2-hydroxy-3-methylbutanoyl)amino)-3-methylbutanoic acid
PrecursorMZ: 218.13861
RT: 7.2346
ExactMass: 217.13140809
Spectrum_type: 2
charge: 1
Formula: C10H19NO4
SMILES: CC(C)[C@H](C(=O)O)NC(=O)[C@@H](C(C)C)O
Method: HCD
Collision_energy: [28.333334]
Isolation_window: 4.0
Ion_mode: P
Num Peaks: 52
55.0547	3.3
58.0657	1.8
59.0496	2.3
70.0656	3.6
72.0812	10.0
74.0605	3.8
83.0495	3.3
84.0447	1.7
86.0603	1.8
90.0553	8.2
100.0759	7.6
101.0599	30.8
102.0553	2.6
112.0760	1.7
116.0708	5.1
118.0864	27.5
126.0914	2.5
128.0706	1.5
140.1070	4.6
144.1020	13.6
148.0615	2.9
156.1021	2.9
158.0814	2.7
158.1177	42.0
159.1212	3.6
170.0930	1.8
170.1177	2.7
172.0971	1.7
172.1332	13.0
176.0916	1.7
184.0968	1.4
198.1129	1.9
200.0922	1.8
200.1030	1.5
200.1284	2.9
201.0659	1.4
202.1075	2.7
216.0974	5.4
216.1231	2.9
217.0966	3.8
217.1175	3.2
218.0811	12.2
218.1037	3.1
218.1158	2.3
218.1386	100.0
219.0759	5.8
219.1131	3.6
219.1421	10.0
220.0601	2.2
220.0968	8.9
220.1188	13.8
220.1331	3.5

Name: (2R)-2-(((2S)-1-(2-aminoacetyl)pyrrolidine-2-carbonyl)amino)pentanedioic acid
PrecursorMZ: 302.13416
RT: 7.5169
ExactMass: 301.12738533
Spectrum_type: 2
charge: 1
Formula: C12H19N3O6
SMILES: C1C[C@H](N(C1)C(=O)CN)C(=O)N[C@H](CCC(=O)O)C(=O)O
Method: HCD
Collision_energy: [28.333334]
Isolation_window: 4.0
Ion_mode: P
Num Peaks: 131
70.0654	23.9
71.0687	0.9
72.0811	8.3
76.0395	1.1
81.0337	1.4
82.0653	0.9
84.0446	1.8
84.0810	18.7
85.0286	2.2
86.0966	6.7
88.0394	1.2
90.0551	1.0
98.0602	1.5
99.0441	1.2
100.0393	1.3
101.0599	1.1
110.0713	1.6
112.0393	1.0
112.0869	0.9
113.0710	1.3
114.0550	1.3
115.0866	1.6
116.0706	5.9
118.0863	1.9
123.0551	1.1
124.0756	1.9
126.0549	2.1
128.0705	3.9
130.0496	1.7
130.0861	3.9
132.1018	1.8
133.0606	1.6
140.0704	1.1
141.0657	4.2
142.0497	1.4
142.0861	2.7
142.1225	6.1
143.1177	4.5
144.0654	1.0
144.1018	4.3
147.1125	5.7
148.0600	1.2
149.0266	1.6
155.0813	1.1
156.0655	1.6
156.0762	1.0
158.0922	15.4
158.1175	3.6
159.0763	4.5
164.0815	1.1
166.0495	1.2
167.0814	1.1
169.0606	2.4
170.0809	1.3
171.1126	2.0
173.0918	2.6
180.1017	3.9
182.0923	1.7
184.0601	2.1
185.0918	6.3
186.0758	0.9
186.1122	1.2
187.0710	2.2
187.1073	5.8
194.0806	1.0
196.0603	1.1
196.0714	3.9
198.0870	1.4
199.1073	2.2
201.1230	1.7
205.0816	3.1
208.1076	1.0
209.0554	1.3
210.0870	1.0
213.0866	3.8
215.1024	2.3
216.1336	1.3
220.1075	1.4
221.0917	2.0
225.0866	1.3
228.0982	0.9
236.1025	1.0
237.0865	7.7
238.0900	0.9
238.1182	2.5
239.1022	3.2
240.1338	1.8
241.0812	1.1
243.1124	1.6
254.1130	1.1
255.0978	1.0
255.1331	1.2
256.1286	8.7
257.1128	4.9
257.1285	3.4
258.1120	0.8
258.1448	1.0
262.1393	1.3
266.0654	0.9
266.1131	2.0
267.0971	3.7
283.0923	0.9
284.0908	1.6
284.1239	6.8
285.1076	6.3
285.1236	2.8
286.1396	5.3
300.1193	1.7
300.1553	1.6
301.0846	1.7
301.1024	3.5
301.1187	4.0
301.1388	4.6
301.1539	3.8
301.1721	1.2
301.1748	3.3
302.1019	4.6
302.1342	100.0
302.1489	5.6
302.1944	2.0
303.0641	2.1
303.0998	1.6
303.1179	17.8
303.1352	18.4
303.1543	3.8
303.1678	3.7
304.0981	1.4
304.1014	1.5
304.1178	4.7
304.1372	1.4
304.1505	22.5

Name: (2R)-2-(((2S)-2-amino-3-(4-hydroxyphenyl)propanoyl)amino)-4-methylsulfanylbutanoic acid
PrecursorMZ: 313.12174
RT: 5.1298
ExactMass: 312.1143783
Spectrum_type: 2
charge: 1
Formula: C14H20N2O4S
SMILES: CSCC[C@H](C(=O)O)NC(=O)[C@H](CC1=CC=C(C=C1)O)N
Method: HCD
Collision_energy: [28.333334]
Isolation_window: 4.0
Ion_mode: P
Num Peaks: 42
56.0499	5.6
70.0655	5.2
72.0811	4.9
74.0240	16.6
75.0266	11.8
84.0446	3.2
85.0286	5.9
86.0966	2.6
97.4318	3.2
102.0550	3.4
116.0706	9.8
120.0807	81.2
121.0840	5.6
122.0712	16.1
128.1433	2.8
130.0497	25.9
131.0160	4.9
139.0977	8.3
149.0265	6.1
166.0531	100.0
167.0566	4.6
167.0925	4.0
171.1491	3.1
176.8752	8.1
203.1177	2.5
210.0696	4.6
214.0859	10.8
215.1386	2.6
220.0774	2.6
249.1229	39.0
250.1266	4.8
251.0957	16.4
269.1060	7.1
312.1914	7.6
312.3620	4.7
313.1209	86.5
313.1368	3.1
313.1755	2.7
314.0635	4.4
314.1243	11.6
314.1726	2.8
315.1117	16.8

Name: (2R)-2-(((2S)-2-amino-3-methylpentanoyl)amino)-3-methylbutanoic acid
PrecursorMZ: 231.17015
RT: 2.6537
ExactMass: 230.16304257
Spectrum_type: 2
charge: 1
Formula: C11H22N2O3
SMILES: CCC(C)[C@@H](C(=O)N[C@H](C(C)C)C(=O)O)N
Method: HCD
Collision_energy: [28.333334]
Isolation_window: 4.0
Ion_mode: P
Num Peaks: 4
72.0811	80.3
86.0966	100.0
185.1649	7.4
231.1695	6.6

Name: (2R)-2-(((2S,3R)-2-amino-3-hydroxybutanoyl)amino)propanoic acid
PrecursorMZ: 191.10248
RT: 6.4516
ExactMass: 190.09535693
Spectrum_type: 2
charge: 1
Formula: C7H14N2O4
SMILES: C[C@H]([C@@H](C(=O)N[C@H](C)C(=O)O)N)O
Method: HCD
Collision_energy: [28.333334]
Isolation_window: 4.0
Ion_mode: P
Num Peaks: 41
56.0499	6.4
58.0655	3.0
60.0448	2.7
70.0654	4.5
72.0811	2.1
74.0603	100.0
75.0637	3.6
84.0446	6.0
86.0966	1.7
88.0395	4.6
90.0551	6.9
98.0601	1.5
101.0598	3.8
112.0757	3.6
116.0706	4.2
127.0865	1.6
130.0498	5.1
130.1225	4.3
138.0548	1.3
143.0895	2.1
144.1017	3.8
144.1381	4.8
145.0969	3.1
146.0638	1.8
156.1021	1.4
172.0602	3.8
173.0639	1.4
173.0916	5.2
190.0613	1.8
190.0863	3.8
190.1069	2.5
190.1434	1.9
191.0813	6.3
191.1020	5.5
191.1042	2.4
192.0658	2.7
192.0769	1.9
192.0877	3.9
192.1014	8.0
192.1227	8.3
193.0970	4.0

Name: (2R)-2-((2-((2S,5S)-5-benzyl-3,6-dioxopiperazin-2-yl)acetyl)amino)pent-4-enamide
PrecursorMZ: 359.17096
RT: 3.5926
ExactMass: 358.1641052
Spectrum_type: 2
charge: 1
Formula: C18H22N4O4
SMILES: C=CC[C@H](C(=O)N)NC(=O)C[C@H]1C(=O)N[C@H](C(=O)N1)CC2=CC=CC=C2
Method: HCD
Collision_energy: [28.333334]
Isolation_window: 4.0
Ion_mode: P
Num Peaks: 9
120.0808	24.7
184.1079	80.3
245.1280	10.5
286.1543	19.5
331.1763	13.9
359.1039	29.9
359.1708	100.0
360.1490	40.8
360.1739	29.1

Name: (2R)-2-((2-(cyclopropanecarbonylamino)acetyl)amino)pentanedioic acid
PrecursorMZ: 273.1078
RT: 7.2556
ExactMass: 272.10083623
Spectrum_type: 2
charge: 1
Formula: C11H16N2O6
SMILES: C1CC1C(=O)NCC(=O)N[C@H](CCC(=O)O)C(=O)O
Method: HCD
Collision_energy: [28.333334]
Isolation_window: 4.0
Ion_mode: P
Num Peaks: 21
81.0337	56.4
81.0701	27.8
84.0446	28.4
102.0550	100.0
130.0498	40.9
142.0498	14.0
148.0602	61.2
170.0809	18.1
213.0865	44.8
226.1066	14.0
227.1022	14.0
238.0706	15.4
255.0969	77.4
256.0812	17.2
256.1173	21.4
272.1119	28.8
273.1075	28.7
274.1060	65.5
274.1278	29.7
275.0476	19.4
275.1388	23.6

Name: (2R)-2-((2-amino-3-methylbutanoyl)amino)-3-(4-hydroxyphenyl)propanoic acid
PrecursorMZ: 281.14958
RT: 5.9576
ExactMass: 280.14230712
Spectrum_type: 2
charge: 1
Formula: C14H20N2O4
SMILES: CC(C)C(C(=O)N[C@H](CC1=CC=C(C=C1)O)C(=O)O)N
Method: HCD
Collision_energy: [28.333334]
Isolation_window: 4.0
Ion_mode: P
Num Peaks: 74
55.0548	4.2
60.0813	3.9
70.0656	2.8
72.0812	100.0
73.0846	3.6
81.0339	4.8
84.0812	2.5
89.0601	1.2
95.0607	6.4
101.0600	3.7
136.0758	12.4
140.1434	6.6
144.0809	11.2
145.0762	5.8
146.0601	3.3
151.0629	2.8
151.1232	1.5
160.9016	4.6
165.0548	4.7
170.0602	2.1
176.8756	5.0
178.1592	1.8
179.1544	1.9
179.1627	4.1
180.0219	2.6
182.0813	16.2
187.0866	17.6
188.0707	6.7
188.0900	1.4
202.0862	2.4
204.0657	2.9
206.0814	1.3
222.0315	3.3
235.1444	1.6
236.1176	4.8
262.1070	2.8
262.1434	1.4
263.1019	2.2
263.1384	1.5
264.0866	18.5
264.1228	2.7
265.0888	1.7
279.1329	1.8
279.1705	4.1
279.2052	2.8
279.2157	11.4
280.1007	2.0
280.1182	10.5
280.1314	1.9
280.1539	8.8
280.1671	11.5
280.1900	1.5
280.2183	2.0
281.0939	4.0
281.1141	3.2
281.1265	2.9
281.1293	6.4
281.1501	16.4
281.1700	1.9
281.1860	13.5
281.2213	1.8
282.0975	7.9
282.1108	3.4
282.1225	23.8
282.1341	6.0
282.1459	18.0
282.1701	3.4
282.1824	2.4
282.2063	2.6
283.1086	10.0
283.1286	4.6
283.1456	4.7
283.1654	5.8
283.2011	6.0

Name: (2R)-2-((2-amino-3-methylbutanoyl)amino)-3-phenylpropanoic acid
PrecursorMZ: 265.15429
RT: 4.5641
ExactMass: 264.1473925
Spectrum_type: 2
charge: 1
Formula: C14H20N2O3
SMILES: CC(C)C(C(=O)N[C@H](CC1=CC=CC=C1)C(=O)O)N
Method: HCD
Collision_energy: [28.333334]
Isolation_window: 4.0
Ion_mode: P
Num Peaks: 19
69.0866	12.2
69.0886	8.7
69.1067	14.9
72.0811	79.4
97.4562	10.7
98.0601	9.8
120.0807	100.0
121.0840	7.8
162.0911	15.1
166.0860	10.7
206.0810	14.2
219.1126	6.4
264.0859	7.4
264.1219	12.4
265.1170	16.6
265.1539	15.2
266.1017	12.6
266.1382	8.7
267.1338	7.5

Name: (2R)-2-(15N)azanyl-3-methylbutanamide
PrecursorMZ: 117.10232
RT: 4.8013
ExactMass: 117.091997905
Spectrum_type: 2
charge: 1
Formula: C5H12N2O
SMILES: CC(C)[C@H](C(=O)N)[15NH2]
Method: HCD
Collision_energy: [28.333334]
Isolation_window: 4.0
Ion_mode: P
Num Peaks: 11
55.0546	5.1
58.0655	4.2
59.0733	4.3
69.6058	2.5
70.0654	2.7
72.0811	100.0
73.0844	5.1
86.0351	29.8
115.0946	8.1
118.0611	6.8
118.0862	37.2

Name: (2R)-2-(2-aminopropanoylamino)-3-(1H-indol-3-yl)propanoic acid
PrecursorMZ: 276.13403
RT: 5.1656
ExactMass: 275.12699141
Spectrum_type: 2
charge: 1
Formula: C14H17N3O3
SMILES: CC(C(=O)N[C@H](CC1=CNC2=CC=CC=C21)C(=O)O)N
Method: HCD
Collision_energy: [28.333334]
Isolation_window: 4.0
Ion_mode: P
Num Peaks: 54
57.0703	2.9
58.0655	3.1
70.0653	1.5
71.0857	1.4
72.0810	1.4
86.0966	6.2
95.0606	1.4
99.0554	6.1
112.0757	2.0
123.0439	4.7
123.0552	1.5
130.0649	4.8
132.0807	4.2
138.0914	1.5
144.0805	3.1
146.0598	6.8
159.0915	3.3
170.0598	3.4
171.0915	1.7
187.0865	3.7
188.0703	66.5
189.0736	8.2
205.0968	41.2
206.1003	4.9
212.2368	86.7
213.2403	20.4
214.2438	1.4
230.1280	3.2
230.1384	2.6
231.1121	1.4
234.1848	3.9
241.0967	1.6
243.1123	2.8
258.1229	1.5
259.1072	3.0
260.1149	3.0
274.2734	100.0
275.1008	3.5
275.1149	2.7
275.1373	4.4
275.1749	2.8
275.2769	30.4
276.1214	2.2
276.1332	16.6
276.1445	2.4
276.1580	22.0
276.1942	2.1
276.2799	3.3
277.1171	12.2
277.1357	1.4
277.1532	2.0
277.1624	2.3
277.1884	1.6
278.1124	1.9

Name: (2R)-2-(2-aminopropanoylamino)-3-(4-hydroxyphenyl)propanoic acid
PrecursorMZ: 253.11818
RT: 7.6909
ExactMass: 252.111007
Spectrum_type: 2
charge: 1
Formula: C12H16N2O4
SMILES: CC(C(=O)N[C@H](CC1=CC=C(C=C1)O)C(=O)O)N
Method: HCD
Collision_energy: [28.333334]
Isolation_window: 4.0
Ion_mode: P
Num Peaks: 38
95.0607	5.0
101.0599	7.7
109.0763	6.6
136.0757	53.3
137.0710	12.8
137.0790	4.3
164.0454	6.3
165.0548	41.4
181.0721	24.5
182.0813	100.0
183.0848	8.9
207.1130	11.6
208.0536	6.3
217.0968	4.7
227.1748	4.6
234.0690	4.8
235.0825	10.7
235.1439	10.5
236.1025	4.5
237.1233	18.4
251.1382	5.0
251.1749	15.1
252.0797	5.7
252.1224	20.1
252.1342	29.8
252.1585	6.0
252.1790	4.6
253.0934	22.2
253.1180	37.8
253.1543	15.9
254.0595	8.5
254.1033	16.1
254.1143	8.0
254.1383	11.7
254.1498	25.6
255.0971	4.5
255.1338	68.7
255.1690	4.9

Name: (2R)-2-(2-hydroxypropanoylamino)-3-methylbutanoic acid
PrecursorMZ: 190.1073
RT: 5.9195
ExactMass: 189.10010796
Spectrum_type: 2
charge: 1
Formula: C8H15NO4
SMILES: CC(C)[C@H](C(=O)O)NC(=O)C(C)O
Method: HCD
Collision_energy: [28.333334]
Isolation_window: 4.0
Ion_mode: P
Num Peaks: 26
72.0447	10.2
72.0811	17.1
84.0811	13.5
85.0651	7.6
86.0967	49.6
90.0552	89.8
100.0758	8.0
101.0598	17.6
102.0551	9.0
102.0914	10.2
112.0758	9.0
116.0706	12.1
126.0913	30.3
131.0855	7.6
143.1261	7.9
144.1018	52.6
145.1004	6.8
162.0549	100.0
163.0582	7.0
172.0967	52.0
190.0499	10.9
190.0868	8.1
190.1070	34.7
191.0813	15.5
191.1061	15.3
192.0654	6.7

Name: (2R)-2-(butanoylamino)-3-phenylpropanoic acid
PrecursorMZ: 236.12799
RT: 2.7353
ExactMass: 235.1208434
Spectrum_type: 2
charge: 1
Formula: C13H17NO3
SMILES: CCCC(=O)N[C@H](CC1=CC=CC=C1)C(=O)O
Method: HCD
Collision_energy: [28.333334]
Isolation_window: 4.0
Ion_mode: P
Num Peaks: 7
120.0808	100.0
121.0841	10.4
166.0862	64.4
167.0896	9.7
236.0918	15.6
237.0863	12.3
237.1226	13.8

Name: (2R)-2-(dimethylamino)-3-(1H-indol-3-yl)propanoic acid
PrecursorMZ: 233.12808
RT: 6.2244
ExactMass: 232.121177757
Spectrum_type: 2
charge: 1
Formula: C13H16N2O2
SMILES: CN(C)[C@H](CC1=CNC2=CC=CC=C21)C(=O)O
Method: HCD
Collision_energy: [28.333334]
Isolation_window: 4.0
Ion_mode: P
Num Peaks: 29
70.0655	4.1
74.0603	6.2
84.0446	4.0
86.0966	6.9
101.0599	2.2
102.0550	100.0
103.0584	3.5
104.0707	3.7
132.1017	2.7
144.0807	3.9
146.0599	21.5
159.0762	3.0
168.0654	16.9
186.1487	2.4
187.8825	2.1
188.0703	73.6
189.0738	8.3
210.8986	2.6
215.1019	3.0
217.0969	2.0
232.1173	5.0
232.1538	3.7
233.0918	2.9
233.1282	12.1
234.0757	4.3
234.1130	2.2
234.1327	2.9
234.1849	2.7
235.1076	3.9

Name: (2R)-2-(dimethylamino)-4-(methylsulfanyl)butanoic acid
PrecursorMZ: 178.08948
RT: 6.3336
ExactMass: 177.08234989
Spectrum_type: 2
charge: 1
Formula: C7H15NO2S
SMILES: CN(C)[C@H](CCSC)C(=O)O
Method: HCD
Collision_energy: [28.333334]
Isolation_window: 4.0
Ion_mode: P
Num Peaks: 22
58.0655	4.5
61.0110	3.5
69.2685	1.4
73.0843	1.2
84.0810	12.4
87.0265	3.8
97.3992	1.4
102.0550	6.8
130.0862	18.6
131.0896	1.2
132.0841	25.2
133.0317	100.0
133.0874	1.6
134.0351	5.1
135.0274	2.6
176.8751	2.7
177.0657	2.0
178.0896	32.5
179.0813	1.8
179.0933	2.1
180.0654	2.4
180.1051	10.8

Name: (2R)-2-amino-2,3,3-trideuterio-3-(1H-imidazol-5-yl)propanoic acid
PrecursorMZ: 156.0768
RT: 8.0464
ExactMass: 158.088306776
Spectrum_type: 2
charge: 1
Formula: C6H9N3O2
SMILES: [2H][C@](C(=O)O)(C([2H])([2H])C1=CN=CN1)N
Method: HCD
Collision_energy: [28.333334]
Isolation_window: 4.0
Ion_mode: P
Num Peaks: 22
67.0547	3.9
70.0655	2.5
74.0967	1.6
109.1013	1.3
110.0714	100.0
111.0555	1.3
111.0748	5.4
112.0758	4.6
115.9642	1.1
116.0706	1.2
128.0818	3.1
155.0816	1.6
155.1543	1.5
156.0421	9.6
156.0662	1.1
156.0768	52.4
156.1018	2.1
157.0800	3.4
157.0973	1.2
157.1700	2.5
158.0813	2.3
158.0924	1.1

Name: (2R)-2-amino-3-(carboxylatomethylsulfanyl)propanoate
PrecursorMZ: 162.02166
RT: 5.5321
ExactMass: 177.00957888
Spectrum_type: 2
charge: 1
Formula: C5H7NO4S-2
SMILES: C([C@@H](C(=O)[O-])N)SCC(=O)[O-]
Method: HCD
Collision_energy: [28.333334]
Isolation_window: 4.0
Ion_mode: P
Num Peaks: 20
68.0497	2.9
74.0060	10.5
74.0238	6.6
84.0444	5.6
92.0164	7.4
100.0755	3.0
102.0548	7.8
105.0333	4.9
116.0162	28.4
116.0492	2.1
120.0111	14.1
120.9951	15.2
134.0596	8.6
136.0752	14.7
144.0439	4.9
160.1326	4.0
162.0214	25.2
162.0544	100.0
163.0577	7.8
164.0700	4.0

Name: (2R)-2-amino-5-(((1R)-1-carboxyethyl)amino)-5-oxopentanoic acid
PrecursorMZ: 219.09717
RT: 5.4937
ExactMass: 218.09027155
Spectrum_type: 2
charge: 1
Formula: C8H14N2O5
SMILES: C[C@H](C(=O)O)NC(=O)CC[C@H](C(=O)O)N
Method: HCD
Collision_energy: [28.333334]
Isolation_window: 4.0
Ion_mode: P
Num Peaks: 87
56.0498	3.7
57.0702	1.9
60.0448	2.2
62.0603	8.9
67.0546	2.4
69.0701	6.5
69.2340	4.7
69.6900	2.6
71.0494	16.0
72.0447	6.8
72.0810	4.8
74.0603	7.7
83.0858	3.7
84.0445	50.0
84.0808	2.6
85.0479	2.1
85.0650	18.7
86.0601	30.8
86.0966	4.6
87.0441	3.6
90.0551	92.6
95.0493	3.1
98.0237	5.2
100.0394	2.5
100.0757	3.2
103.0754	5.8
104.0705	8.2
108.0443	4.1
110.0598	2.7
110.0964	2.5
111.0803	2.1
114.0549	2.9
116.0341	11.5
116.0704	6.5
118.0862	2.1
124.0756	8.7
126.0546	2.7
128.0703	5.2
129.0654	3.4
130.0496	100.0
131.0530	5.0
136.0389	10.3
136.0757	2.4
137.0596	2.9
137.0819	3.5
142.0495	4.3
142.0860	7.2
147.0761	4.9
154.0495	18.8
154.0860	10.9
156.0651	3.5
156.1017	3.1
160.0967	2.2
161.0960	2.1
166.0862	3.2
170.0810	18.0
172.0966	7.5
173.0916	4.6
174.1120	9.2
178.1082	2.5
179.0924	4.9
182.0809	10.9
182.1171	29.5
183.1205	3.5
184.0600	35.7
184.0964	22.3
185.0633	2.4
200.0914	43.1
200.1276	48.4
201.0866	3.0
201.0947	3.3
201.1113	2.2
201.1310	4.3
202.0705	4.3
202.1069	36.2
203.0816	2.2
218.0810	6.5
218.1015	9.8
218.1170	4.1
218.1377	3.7
219.0760	3.3
219.0966	2.5
219.1123	6.5
220.0964	18.4
220.1176	32.2
220.1327	14.6
221.0913	4.7

Name: (2R)-2-amino-5-((5,5-diethyl-4,6-dioxo-1,3-diazinan-2-ylidene)amino)pentanoic acid
PrecursorMZ: 299.17032
RT: 5.212
ExactMass: 298.1641052
Spectrum_type: 2
charge: 1
Formula: C13H22N4O4
SMILES: CCC1(C(=O)NC(=NCCC[C@H](C(=O)O)N)NC1=O)CC
Method: HCD
Collision_energy: [28.333334]
Isolation_window: 4.0
Ion_mode: P
Num Peaks: 32
70.0654	10.1
71.0493	2.4
72.0810	2.1
85.0286	5.1
86.0965	2.0
97.4547	2.2
97.4582	2.9
100.1121	5.0
114.0661	11.2
116.0705	14.0
151.1227	3.2
166.0972	29.6
167.1005	2.0
168.1128	4.5
184.1074	3.8
186.1120	2.6
211.1184	3.6
212.1024	2.4
229.1290	42.3
230.1328	3.5
281.1601	6.9
298.1060	3.7
298.1271	2.6
298.1419	4.7
299.1229	1.9
299.1380	4.1
299.1721	100.0
300.1212	3.4
300.1580	4.0
300.1756	15.6
300.2158	2.2
301.1538	3.7

Name: (2R)-2-amino-5-iminopentanoic acid
PrecursorMZ: 131.08146
RT: 8.09365
ExactMass: 130.074227566
Spectrum_type: 2
charge: 1
Formula: C5H10N2O2
SMILES: C(C[C@H](C(=O)O)N)C=N
Method: HCD
Collision_energy: [28.333334]
Isolation_window: 4.0
Ion_mode: P
Num Peaks: 15
57.0703	7.5
68.0499	7.0
74.0967	7.5
84.0446	6.5
84.0810	63.3
85.0762	23.7
86.0602	9.5
86.0966	100.0
88.1122	10.4
90.0551	8.6
114.0550	7.2
130.0861	18.7
130.1588	39.4
131.0813	25.8
132.1017	19.0

Name: (2R)-2-amino-6-(((4R)-4-amino-4-carboxybutanoyl)amino)heptanedioic acid
PrecursorMZ: 320.14464
RT: 9.7977
ExactMass: 319.13795002
Spectrum_type: 2
charge: 1
Formula: C12H21N3O7
SMILES: C(C[C@H](C(=O)O)N)CC(C(=O)O)NC(=O)CC[C@H](C(=O)O)N
Method: HCD
Collision_energy: [28.333334]
Isolation_window: 4.0
Ion_mode: P
Num Peaks: 16
70.0655	10.0
84.0446	11.7
84.0810	11.5
128.0705	100.0
130.0498	6.7
173.0917	16.2
174.0759	8.0
191.1023	72.2
192.1059	6.5
302.1345	10.5
304.1382	8.9
319.1629	10.9
320.1447	46.7
320.1605	9.8
321.1458	8.4
322.1491	20.9

Name: (2R)-3-(1H-imidazol-5-yl)-2-pyrrol-1-ylpropanoic acid
PrecursorMZ: 206.09249
RT: 5.8836
ExactMass: 205.085126602
Spectrum_type: 2
charge: 1
Formula: C10H11N3O2
SMILES: C1=CN(C=C1)[C@H](CC2=CN=CN2)C(=O)O
Method: HCD
Collision_energy: [28.333334]
Isolation_window: 4.0
Ion_mode: P
Num Peaks: 43
68.0499	8.4
80.0499	7.0
81.0339	21.3
83.0607	5.4
89.0600	3.1
95.0606	73.8
96.0640	3.9
101.0600	5.8
104.0709	2.9
118.0653	4.8
126.0915	10.6
127.0948	1.1
133.1013	1.3
135.0917	4.2
144.1021	8.9
145.0761	3.9
147.1170	1.1
154.0865	2.1
160.0872	2.6
162.1027	100.0
163.0996	1.1
163.1060	9.2
188.0708	2.0
204.1027	1.6
204.1232	8.2
205.0429	12.8
205.0603	3.1
205.0972	12.3
205.1261	1.1
205.1335	1.2
206.0248	1.2
206.0471	1.6
206.0813	7.3
206.0924	10.9
206.1020	2.3
206.1175	3.7
207.0764	3.4
207.1128	21.9
208.0604	7.8
208.0971	3.6
208.1066	1.1
208.1166	1.8
208.1328	1.5

Name: (2R)-3-(3-((2R)-2,3-dihydroxypropoxy)-2-hydroxypropoxy)propane-1,2-diol
PrecursorMZ: 241.12797
RT: 6.7887
ExactMass: 240.12090297
Spectrum_type: 2
charge: 1
Formula: C9H20O7
SMILES: C([C@H](COCC(COC[C@@H](CO)O)O)O)O
Method: HCD
Collision_energy: [28.333334]
Isolation_window: 4.0
Ion_mode: P
Num Peaks: 32
57.0339	60.3
75.0444	100.0
83.0494	4.4
86.0603	5.6
87.0443	16.8
93.0548	11.8
101.0599	10.7
119.0702	11.8
131.0702	36.8
149.0807	31.7
150.0548	4.8
152.0706	7.2
164.0706	8.6
167.0913	7.9
178.0860	4.9
194.0810	11.5
196.0966	6.3
222.0760	7.9
223.1074	5.1
224.0914	13.2
225.1342	4.5
240.0864	24.4
240.0982	8.8
240.1227	8.0
240.2321	7.0
241.0630	13.0
241.0985	8.4
241.1176	6.7
241.1282	18.5
242.1019	50.2
242.1136	23.5
243.0956	5.3

Name: (2R)-3-methyl-2-(2-methylpropanamido)butanoic acid
PrecursorMZ: 188.12807
RT: 2.8015
ExactMass: 187.1208434
Spectrum_type: 2
charge: 1
Formula: C9H17NO3
SMILES: CC(C)[C@H](C(=O)O)NC(=O)C(C)C
Method: HCD
Collision_energy: [28.333334]
Isolation_window: 4.0
Ion_mode: P
Num Peaks: 17
71.0495	17.1
71.0859	27.9
72.0811	100.0
86.0967	87.2
90.0552	70.1
97.4323	9.1
99.0805	21.2
104.0706	7.9
112.8957	11.9
114.0914	45.6
118.0863	60.7
128.1068	19.8
131.1177	43.6
132.1018	27.8
142.1226	30.7
145.1335	12.0
187.1435	11.1

Name: (2R)-5-amino-2-(3-carboxypropanoylamino)pentanoic acid
PrecursorMZ: 233.11289
RT: 9.151
ExactMass: 232.10592162
Spectrum_type: 2
charge: 1
Formula: C9H16N2O5
SMILES: C(C[C@H](C(=O)O)NC(=O)CCC(=O)O)CN
Method: HCD
Collision_energy: [28.333334]
Isolation_window: 4.0
Ion_mode: P
Num Peaks: 21
70.0654	49.4
71.0495	5.0
101.0234	13.8
101.0597	6.7
115.0866	100.0
116.0706	19.8
152.0704	6.4
169.0970	6.3
197.0917	66.9
198.0757	7.8
198.0953	7.1
215.1023	13.9
216.0864	13.7
232.0934	8.4
232.1179	16.7
232.1291	14.6
232.1540	5.9
233.1128	30.4
234.1101	10.4
234.1334	30.5
234.1848	6.4

Name: (2R)-5-amino-2-benzamido-5-oxopentanoic acid
PrecursorMZ: 251.10262
RT: 6.3151
ExactMass: 250.09535693
Spectrum_type: 2
charge: 1
Formula: C12H14N2O4
SMILES: C1=CC=C(C=C1)C(=O)N[C@H](CCC(=O)N)C(=O)O
Method: HCD
Collision_energy: [28.333334]
Isolation_window: 4.0
Ion_mode: P
Num Peaks: 22
59.0496	2.3
84.0447	4.8
89.0600	5.9
109.0650	1.9
122.0601	45.0
123.0635	3.1
130.0499	18.6
205.0971	4.2
234.0761	10.0
249.1227	2.2
249.1574	19.1
250.1075	8.0
250.1606	5.1
251.1025	100.0
251.1138	9.8
251.1375	2.5
251.1639	2.6
252.0865	17.9
252.1058	10.5
252.1224	5.3
252.1343	2.2
253.1180	3.2

Name: (2R)-6-hydroxy-2,7,8-trimethyl-2-((3E,7E)-4,8,12-trimethyltrideca-3,7,11-trienyl)-3,4-dihydrochromene-5-carbaldehyde
PrecursorMZ: 439.31933
RT: 1.4098
ExactMass: 438.3133952
Spectrum_type: 2
charge: 1
Formula: C29H42O3
SMILES: CC1=C(C2=C(CC[C@@](O2)(C)CC/C=C(\C)/CC/C=C(\C)/CCC=C(C)C)C(=C1O)C=O)C
Method: HCD
Collision_energy: [28.333334]
Isolation_window: 4.0
Ion_mode: P
Num Peaks: 48
67.0544	3.6
69.0701	8.1
69.1211	3.7
69.1231	2.2
81.0699	8.9
83.0855	5.6
93.0697	3.6
95.0854	12.2
97.1011	3.3
97.4578	2.3
105.0696	2.5
107.0854	6.2
109.1010	7.0
119.0852	3.4
121.1008	6.2
123.1164	4.3
133.1008	3.1
135.1164	4.1
137.0956	12.9
147.1163	4.0
149.0956	9.4
149.1320	5.3
151.0749	6.4
163.1112	2.8
163.1478	2.3
165.0905	100.0
166.0938	8.6
175.0747	5.9
175.1110	4.0
177.0905	6.0
189.0904	5.6
191.1059	8.3
203.1058	27.1
204.1090	3.7
205.1214	21.4
206.1249	2.8
215.1057	5.2
217.1214	62.5
218.1246	9.7
231.1371	4.7
287.2356	2.5
411.3238	18.5
412.3272	4.7
421.3080	8.8
422.3093	2.3
439.3187	70.0
440.3219	21.9
441.3268	2.8

Name: (2R,3R)-2-(((2R)-2-azaniumylpropanoyl)amino)-3-methylpentanoate
PrecursorMZ: 203.13888
RT: 4.8075
ExactMass: 202.13174244
Spectrum_type: 2
charge: 1
Formula: C9H18N2O3
SMILES: CC[C@@H](C)[C@H](C(=O)[O-])NC(=O)[C@@H](C)[NH3+]
Method: HCD
Collision_energy: [28.333334]
Isolation_window: 4.0
Ion_mode: P
Num Peaks: 111
56.0498	0.6
60.0448	10.7
67.0545	0.6
69.0702	4.6
69.9835	0.6
70.0290	0.7
70.0654	1.0
72.0447	2.3
72.0811	9.1
73.0287	2.4
74.0603	0.7
81.0336	1.1
81.0701	0.6
83.0494	0.7
84.0446	5.2
84.0810	1.0
85.0650	1.4
86.0602	2.8
86.0966	100.0
87.0442	0.7
87.0805	0.8
87.0999	5.9
88.0394	1.7
88.0759	0.6
90.0551	3.8
95.0492	1.8
97.4571	1.6
98.0237	3.0
98.0601	1.1
98.0965	11.9
99.0440	0.9
99.0998	2.0
100.0393	4.2
100.0757	2.6
100.1121	1.0
101.0597	0.8
102.0550	2.8
104.0705	0.9
108.0443	1.1
109.0478	0.8
111.0440	0.9
112.0756	1.4
113.0597	1.0
114.0549	0.9
114.0913	1.0
116.0341	4.9
118.0862	8.6
124.0756	7.3
125.0708	0.7
126.0548	5.5
126.0912	2.2
127.0580	0.9
128.1068	0.6
130.0496	0.6
130.0861	0.7
132.1017	45.6
133.1050	2.8
138.0911	3.4
142.0860	5.3
144.0653	19.3
144.1016	3.9
146.0268	0.7
156.0111	1.0
156.1017	4.3
157.1333	11.6
158.1173	47.1
158.1364	0.9
159.1125	6.5
159.1206	1.4
160.0755	1.1
160.0966	2.6
162.0759	1.5
165.0908	0.7
166.0861	3.3
168.1017	3.2
173.1282	1.4
174.1122	1.2
183.1012	0.8
184.0965	11.2
184.1327	1.1
185.0707	1.3
185.0999	1.4
186.0546	5.7
186.0581	4.2
186.0756	1.5
186.1121	6.4
187.1072	1.2
201.1230	3.6
202.0528	1.4
202.0718	6.0
202.0864	2.5
202.0971	3.7
202.1068	16.8
202.1224	0.7
202.1264	1.3
203.0698	0.6
203.0811	6.6
203.1101	1.7
203.1177	1.4
203.1385	4.8
203.1793	1.1
204.0652	19.5
204.0761	1.4
204.0871	1.8
204.1015	18.9
204.1120	1.0
204.1219	1.9
205.0605	1.3
205.0686	1.4
205.0966	5.3
205.1176	2.0

Name: (2R,3R)-2-aminoicosane-1,3-diol
PrecursorMZ: 330.33618
RT: 4.6739
ExactMass: 329.329379614
Spectrum_type: 2
charge: 1
Formula: C20H43NO2
SMILES: CCCCCCCCCCCCCCCCC[C@H]([C@@H](CO)N)O
Method: HCD
Collision_energy: [28.333334]
Isolation_window: 4.0
Ion_mode: P
Num Peaks: 16
60.0448	100.0
67.0547	12.4
69.0702	11.6
69.0816	17.7
72.0811	17.0
81.0701	15.8
95.0856	22.3
97.4564	13.9
109.1013	12.0
282.3149	16.0
294.3150	16.0
312.3254	73.5
313.3287	15.3
330.3358	80.2
331.1653	12.6
331.3393	20.4

Name: (2R,3R,4R,5S)-6-(2-ethenoxyethylamino)hexane-1,2,3,4,5-pentol
PrecursorMZ: 252.14436
RT: 3.8522
Spectrum_type: 2
charge: 1
SMILES: C=COCCNCC(C(C(C(CO)O)O)O)O
Method: HCD
Collision_energy: [28.333334]
Isolation_window: 4.0
Ion_mode: P
Num Peaks: 157
58.0657	4.4
60.0561	1.5
70.0656	25.8
71.0134	2.2
72.0813	3.6
74.0717	1.8
80.0499	2.9
81.0340	4.0
84.0812	6.3
86.0604	4.2
87.0445	2.2
88.0761	1.8
89.1078	2.2
94.0654	1.9
96.9955	2.4
97.0288	1.7
97.0766	1.8
98.0604	1.8
100.0760	3.4
101.0601	2.4
110.0717	1.6
111.0445	2.5
112.0761	2.3
112.0873	10.6
114.0665	2.6
114.0913	2.2
120.0807	1.9
122.0604	1.5
124.0395	12.8
124.0761	3.3
128.0709	2.7
130.0867	2.8
134.0963	2.0
136.0761	4.2
138.0551	1.7
138.0916	1.5
140.1072	2.9
141.0659	1.6
142.0865	4.0
144.0656	2.8
146.0925	5.8
147.0442	3.5
154.0656	2.1
154.0864	1.5
160.0971	34.0
161.1004	1.5
162.0554	2.8
162.0764	8.5
162.0915	9.2
163.1233	2.6
165.1388	1.9
166.0977	4.2
169.0968	2.5
170.0481	1.6
170.0818	1.5
172.0970	2.7
175.1231	3.2
176.0927	2.3
177.1021	1.5
180.1021	100.0
181.1065	11.2
187.1228	1.7
189.1363	1.5
190.0500	7.7
193.1336	9.9
195.1131	1.7
198.1125	1.5
200.1042	3.6
204.1125	4.1
205.1339	1.5
206.0980	1.6
207.1120	2.0
208.0606	4.7
208.1193	1.6
209.1274	3.3
210.0786	3.1
211.1435	2.2
215.1393	1.7
216.0862	1.5
217.1342	1.8
218.1286	3.5
222.1718	2.0
232.1178	1.6
232.1809	1.5
233.1639	2.2
234.0945	4.2
234.1240	7.0
235.1425	8.1
236.0553	4.7
236.1482	1.6
237.1584	2.0
242.1137	3.7
242.1382	1.5
244.1180	3.1
246.0923	1.4
246.1329	1.8
247.1431	1.9
248.1134	1.4
250.1075	1.8
250.1263	2.0
250.1457	5.7
250.1929	2.2
251.1105	1.6
251.1393	23.0
251.1758	6.6
252.1230	28.4
252.1613	6.0
252.1813	15.5
253.1269	13.9
253.1572	9.3
253.1786	3.1
254.0650	4.2
254.0999	3.9
254.1388	7.9
254.1876	3.6
255.1114	7.9
255.1370	8.4
255.1702	63.6
256.1186	4.0
256.1540	18.6
256.1743	8.0
257.1237	3.4
257.1563	5.5
258.0810	1.5
258.1082	2.2
258.1386	2.9
258.1745	1.8
259.1410	4.0
260.1239	30.8
260.1405	20.2
261.1229	48.0
262.1070	36.0
262.1434	73.8
262.1663	1.4
263.1116	7.0
263.1425	21.6
264.1008	2.6
264.1323	27.1
264.1619	5.2
265.1554	32.9
266.1016	1.8
266.1390	15.6
267.1365	8.4
267.1704	16.2
268.1193	2.7
268.1535	7.1
268.1751	4.8
268.2013	20.9
269.1503	13.1
269.2028	3.4
270.0967	1.8
270.1734	2.9
270.2171	2.9
271.1396	13.0
271.1704	4.1
272.1175	2.4
272.1474	3.7

Name: (2R,3R,4S,5R,6R)-2-((1R,2S,5R,6R)-2-amino-5,6-dihydroxycyclohex-3-en-1-yl)oxy-6-(hydroxymethyl)oxane-3,4,5-triol
PrecursorMZ: 308.13368
RT: 8.0187
ExactMass: 307.12671663
Spectrum_type: 2
charge: 1
Formula: C12H21NO8
SMILES: C1=C[C@H]([C@H]([C@@H]([C@H]1N)O[C@H]2[C@@H]([C@H]([C@H]([C@H](O2)CO)O)O)O)O)O
Method: HCD
Collision_energy: [28.333334]
Isolation_window: 4.0
Ion_mode: P
Num Peaks: 87
70.0655	2.3
72.0812	1.9
80.0499	1.2
81.0335	23.6
81.0357	5.7
83.0495	4.5
84.0811	1.3
86.0603	1.3
96.0442	3.2
96.0810	1.5
97.0281	2.8
97.3994	1.8
99.0437	2.5
100.0759	2.0
101.0598	1.3
108.0446	1.4
110.0598	2.8
111.0441	17.7
122.0597	3.5
124.0393	1.8
126.0548	1.9
128.0702	2.6
129.0543	5.0
130.0862	1.3
136.0755	2.1
140.0706	1.3
144.0655	5.7
145.0734	1.6
146.0812	7.0
152.0705	3.2
154.0862	6.9
156.0656	2.0
158.0812	10.6
162.0762	2.8
164.0707	2.6
180.0653	1.2
182.0813	2.2
188.0913	1.6
194.0809	1.8
197.1287	1.9
200.0916	8.3
206.0816	2.4
212.0918	1.9
212.1282	2.5
213.1484	1.3
224.0917	6.9
226.1069	1.2
242.1022	18.8
243.1052	2.1
254.1022	6.6
262.1286	2.4
272.1127	23.2
273.1160	2.7
274.1287	1.6
288.1439	2.1
290.1038	1.1
290.1233	100.0
290.1598	4.6
291.1266	13.3
292.1405	3.3
306.1322	3.7
306.1541	4.2
306.1699	1.8
307.1293	6.9
307.1635	7.8
307.1870	2.4
307.1990	3.0
308.1124	23.0
308.1335	37.4
308.1490	18.9
308.1707	17.7
308.1857	1.4
308.1977	1.3
309.1185	2.8
309.1399	5.9
309.1567	3.9
309.1758	2.1
309.1804	8.9
310.1085	1.9
310.1279	29.1
310.1358	2.0
310.1400	3.4
310.1445	4.2
310.1504	2.0
310.1633	10.6
310.1879	1.8
310.1981	3.1

Name: (2R,3S)-3-Hydroxy-2-((S)-5-isobutyryl-1-oxo-2,5-diazaspiro(3.4)octan-2-yl)butanamide
PrecursorMZ: 298.17559
RT: 6.8495
ExactMass: 297.16885622
Spectrum_type: 2
charge: 1
Formula: C14H23N3O4
SMILES: C[C@@H]([C@H](C(=O)N)N1C[C@]2(C1=O)CCCN2C(=O)C(C)C)O
Method: HCD
Collision_energy: [28.333334]
Isolation_window: 4.0
Ion_mode: P
Num Peaks: 86
70.0654	8.2
72.0811	0.8
74.0603	0.8
80.0497	3.3
81.0338	0.8
81.0449	20.0
82.0484	0.8
83.0605	0.8
83.0857	1.8
84.0810	2.8
86.0967	1.1
95.0605	8.9
98.0965	0.8
99.0442	0.9
99.0554	0.7
105.0699	1.5
107.0604	20.7
108.0638	1.0
110.0713	4.6
116.0707	0.7
120.0808	0.8
124.0868	24.5
125.0708	36.5
125.0902	1.3
126.0742	2.3
136.0616	0.6
136.0756	1.4
141.1020	2.5
142.0973	31.2
143.1006	1.9
146.0961	0.9
151.0863	0.8
152.0565	3.7
152.0703	0.7
152.0817	0.8
154.0861	0.7
154.1225	1.1
156.0765	5.8
156.1017	0.9
160.1329	2.4
166.0609	1.1
169.0969	2.8
180.0766	0.7
192.1014	0.9
193.0314	1.3
198.1233	1.0
200.1273	0.8
212.1389	0.6
229.1543	1.1
234.1122	0.9
244.1289	1.2
253.1329	0.7
254.1490	1.0
262.1544	14.7
263.1579	1.9
278.1490	0.7
279.1333	0.6
280.1168	1.1
280.1318	1.0
280.1649	99.2
281.1686	15.0
282.1696	0.8
296.1963	1.4
297.1234	2.0
297.1437	5.0
297.1559	3.3
297.1802	4.2
297.1981	0.7
297.2170	0.8
298.1130	0.6
298.1280	1.3
298.1410	4.6
298.1755	100.0
298.2110	0.8
299.1031	0.9
299.1222	0.9
299.1379	8.5
299.1593	4.8
299.1783	14.1
299.1958	4.8
299.2313	0.8
300.1214	3.1
300.1405	1.0
300.1558	4.7
300.1788	0.8
300.1935	1.8

Name: (2R,3S,4R,5S)-2-(hydroxymethyl)-5-(6-(((E)-4-hydroxy-3-methylbut-2-enyl)amino)purin-9-yl)oxolane-3,4-diol
PrecursorMZ: 352.1604
RT: 9.8715
ExactMass: 351.15426879
Spectrum_type: 2
charge: 1
Formula: C15H21N5O5
SMILES: C/C(=C\CNC1=C2C(=NC=N1)N(C=N2)[C@@H]3[C@@H]([C@@H]([C@H](O3)CO)O)O)/CO
Method: HCD
Collision_energy: [28.333334]
Isolation_window: 4.0
Ion_mode: P
Num Peaks: 12
81.0336	1.6
84.0810	1.9
220.1187	100.0
221.1227	8.7
350.1588	1.7
351.1524	2.6
351.1908	1.7
352.1417	1.6
352.1601	51.4
353.1649	10.6
353.2058	1.6
354.1760	2.5

Name: (2R,3S,4S,5R,6R)-2-(hydroxymethyl)-6-(4-((2S,3S,4R,5R,6S)-3,4,5-trihydroxy-6-(hydroxymethyl)oxan-2-yl)piperazin-1-yl)oxane-3,4,5-triol
PrecursorMZ: 411.1964
RT: 9.3043
ExactMass: 410.19004516
Spectrum_type: 2
charge: 1
Formula: C16H30N2O10
SMILES: C1CN(CCN1[C@H]2[C@@H]([C@H]([C@@H]([C@H](O2)CO)O)O)O)[C@@H]3[C@H]([C@@H]([C@H]([C@@H](O3)CO)O)O)O
Method: HCD
Collision_energy: [28.333334]
Isolation_window: 4.0
Ion_mode: P
Num Peaks: 18
70.0654	2.2
74.0602	8.3
85.0284	2.3
86.0601	12.9
98.0600	5.3
110.0600	4.6
138.0543	2.6
140.0702	3.2
154.0858	2.0
158.0809	10.1
163.0610	9.4
168.0648	2.1
176.0913	100.0
177.0946	6.7
295.1028	2.3
411.1957	26.6
412.1467	5.5
412.1995	3.8

Name: (2R,4R)-1-carbamoyl-4-hydroxypyrrolidine-2-carboxylate
PrecursorMZ: 175.07136
RT: 7.3261
ExactMass: 173.05623177
Spectrum_type: 2
charge: 1
Formula: C6H9N2O4-
SMILES: C1[C@H](CN([C@H]1C(=O)[O-])C(=O)N)O
Method: HCD
Collision_energy: [28.333334]
Isolation_window: 4.0
Ion_mode: P
Num Peaks: 19
68.0499	13.5
70.0656	2.6
71.0496	2.1
86.0604	100.0
87.0637	4.8
114.0551	8.2
116.0708	3.6
128.0707	3.6
129.0659	60.4
130.0499	11.1
130.0691	2.7
130.0864	1.3
132.0656	88.6
133.0689	4.4
157.0608	6.1
158.0450	1.2
174.0761	3.6
175.0713	19.8
175.1118	2.3

Name: (2R,4S)-1-acetyl-4-hydroxypyrrolidine-2-carboxylate
PrecursorMZ: 174.07612
RT: 7.546
ExactMass: 172.0609828
Spectrum_type: 2
charge: 1
Formula: C7H10NO4-
SMILES: CC(=O)N1C[C@H](C[C@@H]1C(=O)[O-])O
Method: HCD
Collision_energy: [28.333334]
Isolation_window: 4.0
Ion_mode: P
Num Peaks: 44
55.0184	1.2
67.0547	1.5
68.0499	4.3
70.0656	1.6
82.0657	1.0
84.0447	1.3
84.0812	1.2
95.0606	4.5
95.0857	1.2
98.0604	0.9
102.0553	1.6
104.0709	1.0
109.0761	1.4
109.1014	1.9
110.0602	1.5
111.0443	1.9
112.0758	1.5
114.0552	100.0
114.0917	1.1
115.0585	5.8
116.0708	4.1
126.0551	1.4
128.0707	43.4
129.0741	2.1
130.0864	2.8
131.0857	2.6
132.0656	2.3
137.0710	4.8
145.1011	1.1
146.0602	1.2
154.0500	1.6
155.0814	5.1
156.0656	1.3
156.1021	1.4
172.0717	1.9
172.0967	1.0
173.0917	12.7
173.0975	1.4
173.1327	4.2
174.0558	1.4
174.0761	52.6
175.0800	3.4
175.1118	2.6
176.0917	1.1

Name: (2R,4S,5R)-5-acetamido-4-hydroxy-2-methoxy-6-((1R,2R)-1,2,3-trihydroxypropyl)oxane-2-carboxylic acid
PrecursorMZ: 324.12835
RT: 5.46
ExactMass: 323.12163125
Spectrum_type: 2
charge: 1
Formula: C12H21NO9
SMILES: CC(=O)N[C@@H]1[C@H](C[C@@](OC1[C@@H]([C@@H](CO)O)O)(C(=O)O)OC)O
Method: HCD
Collision_energy: [28.333334]
Isolation_window: 4.0
Ion_mode: P
Num Peaks: 18
81.0337	31.1
84.0810	34.8
124.0756	34.9
150.0548	92.6
151.0389	36.7
164.0704	65.0
168.0653	88.8
182.0808	67.8
186.0757	39.8
204.0862	26.9
210.0757	45.3
279.0967	28.1
306.1184	100.0
323.1211	30.9
323.1573	62.9
324.1560	26.8
325.1360	38.2
325.1753	32.3

Name: (2S)-1-((2S)-1-carboxypyrrolidine-2-carbonyl)pyrrolidine-2-carboxylic acid
PrecursorMZ: 257.11305
RT: 7.6078
ExactMass: 256.10592162
Spectrum_type: 2
charge: 1
Formula: C11H16N2O5
SMILES: C1C[C@H](N(C1)C(=O)[C@@H]2CCCN2C(=O)O)C(=O)O
Method: HCD
Collision_energy: [28.333334]
Isolation_window: 4.0
Ion_mode: P
Num Peaks: 88
67.0547	2.6
70.0656	16.6
81.0339	11.4
81.0702	2.5
82.0655	4.2
84.0447	6.1
84.0811	15.3
93.0701	2.0
95.0858	3.0
96.0445	2.2
97.0287	9.2
98.0602	3.9
101.0599	4.0
102.0552	4.3
110.0603	29.5
111.0442	3.4
112.0757	2.6
113.0598	2.2
114.0551	4.5
114.0664	2.5
114.0916	3.5
116.0708	7.5
121.0650	3.7
124.0395	2.6
126.0550	2.8
127.0501	2.2
128.0707	100.0
129.0740	5.0
130.0498	3.9
130.0863	7.1
135.0805	3.9
141.1022	20.1
142.0499	19.6
142.0863	2.9
153.1024	3.4
156.0292	3.3
158.0926	2.4
167.1430	2.0
168.0767	2.2
173.1325	4.0
192.0656	5.8
194.0811	4.1
195.1130	4.4
196.0717	21.3
199.1076	8.4
201.1275	3.5
209.1536	2.7
210.0760	6.3
210.0872	7.4
210.1126	4.3
211.1076	3.6
211.1189	12.1
212.1028	4.0
212.1283	4.0
213.1230	3.8
217.1179	3.5
219.1379	5.6
220.0602	2.0
222.0756	2.1
237.0864	2.0
237.1486	3.8
238.0710	8.6
239.1024	16.5
240.0867	40.1
240.0978	5.3
241.0902	4.0
241.1178	3.1
255.0969	11.6
255.1097	2.1
255.1336	10.8
255.1588	5.9
256.0635	4.5
256.0812	27.5
256.0935	6.0
256.1175	7.5
256.1292	55.3
257.0836	3.0
257.1128	36.0
257.1248	29.0
257.1500	4.9
258.0770	3.5
258.0967	6.6
258.1081	81.8
258.1332	10.9
259.0597	2.1
259.1036	2.9
259.1114	6.0
259.1289	10.0

Name: (2S)-1-(2-((2R)-2-carboxypyrrolidin-1-yl)-2-oxoacetyl)piperidine-2-carboxylic acid
PrecursorMZ: 299.12358
RT: 6.6569
ExactMass: 298.1164863
Spectrum_type: 2
charge: 1
Formula: C13H18N2O6
SMILES: C1CCN([C@@H](C1)C(=O)O)C(=O)C(=O)N2CCC[C@@H]2C(=O)O
Method: HCD
Collision_energy: [28.333334]
Isolation_window: 4.0
Ion_mode: P
Num Peaks: 32
70.0655	19.8
84.0447	21.9
84.0811	20.9
85.0651	6.2
87.0442	6.0
110.0601	22.4
112.0759	14.9
114.0550	7.9
116.0707	48.4
126.0219	6.4
126.0914	13.2
130.0498	9.1
140.0705	7.5
142.0497	7.9
142.0862	23.8
156.0656	14.5
168.0291	21.0
213.1232	16.2
252.0858	7.2
253.1180	100.0
254.1222	12.5
255.1336	13.1
280.0813	11.9
281.1130	7.3
298.0911	79.3
298.1267	7.7
299.0882	7.3
299.1229	9.4
299.1383	10.8
300.1212	10.4
301.1024	10.5
301.1384	8.5

Name: (2S)-1-(2-(3-carboxypropanoylamino)acetyl)pyrrolidine-2-carboxylic acid
PrecursorMZ: 273.10802
RT: 8.0681
ExactMass: 272.10083623
Spectrum_type: 2
charge: 1
Formula: C11H16N2O6
SMILES: C1C[C@H](N(C1)C(=O)CNC(=O)CCC(=O)O)C(=O)O
Method: HCD
Collision_energy: [28.333334]
Isolation_window: 4.0
Ion_mode: P
Num Peaks: 29
70.0655	29.6
84.0447	11.4
109.1013	8.9
110.0602	23.6
114.0551	14.0
114.0914	7.4
116.0708	100.0
117.0742	5.4
126.0551	5.4
130.0499	11.8
138.0550	9.9
142.0500	8.7
156.0655	19.4
158.0450	5.7
170.0811	14.6
181.0972	12.8
184.0604	22.3
185.0920	17.8
227.1025	67.1
228.0871	7.0
228.1056	8.9
228.1224	6.3
231.0974	7.2
237.0787	28.9
256.0271	8.0
272.1126	7.3
273.1082	14.2
274.0374	6.0
274.1073	12.4

Name: (2S)-1-(2-amino-4-carboxybutanoyl)pyrrolidine-2-carboxylic acid
PrecursorMZ: 245.11309
RT: 8.4492
ExactMass: 244.10592162
Spectrum_type: 2
charge: 1
Formula: C10H16N2O5
SMILES: C1C[C@H](N(C1)C(=O)C(CCC(=O)O)N)C(=O)O
Method: HCD
Collision_energy: [28.333334]
Isolation_window: 4.0
Ion_mode: P
Num Peaks: 50
70.0655	68.9
81.0340	3.4
84.0447	10.3
84.0811	20.1
101.0601	3.3
102.0552	8.6
112.0757	3.4
112.0871	4.7
114.0915	13.0
116.0707	49.7
117.0741	3.1
128.0707	4.6
130.0499	17.1
130.0864	6.2
142.0500	3.6
142.0863	27.6
147.0764	28.8
181.0972	32.3
183.0876	7.4
183.1129	5.5
199.1077	100.0
200.1111	8.0
201.1233	10.0
202.0823	5.1
227.0848	2.5
227.1023	10.4
227.1755	3.4
228.0867	11.4
243.0970	5.3
243.1084	25.5
243.1335	3.7
244.0967	18.0
244.1081	31.9
244.1173	8.6
244.1287	28.5
244.2020	7.0
245.0804	6.5
245.1130	59.6
245.1277	3.6
245.1311	3.8
245.1489	6.1
246.0759	3.7
246.0966	5.8
246.1077	12.8
246.1152	2.5
246.1335	7.6
246.1452	4.3
247.0923	15.1
247.1073	2.5
247.1287	7.4

Name: (2S)-1-(3-carboxylatopropanoyl)pyrrolidine-2-carboxylate
PrecursorMZ: 216.08641
RT: 7.7425
ExactMass: 213.06372245
Spectrum_type: 2
charge: 1
Formula: C9H11NO5-2
SMILES: C1C[C@H](N(C1)C(=O)CCC(=O)[O-])C(=O)[O-]
Method: HCD
Collision_energy: [28.333334]
Isolation_window: 4.0
Ion_mode: P
Num Peaks: 29
55.0182	0.8
70.0654	26.1
71.0688	1.1
73.0286	1.2
74.0603	0.6
84.0809	0.5
88.0395	1.1
101.0234	10.2
114.0549	1.4
116.0706	13.6
117.0738	0.8
124.0756	3.2
126.0547	0.8
152.0704	2.6
154.0860	0.9
154.1225	1.4
169.0760	0.8
169.0855	0.7
170.0809	13.3
171.0843	1.1
172.1329	2.8
198.0567	0.7
198.0757	100.0
198.0946	0.7
199.0791	9.6
215.0814	0.9
216.0862	7.3
217.0894	0.7
217.1173	1.0

Name: (2S)-1-(4-carboxy-3-methylbutanoyl)pyrrolidine-2-carboxylic acid
PrecursorMZ: 244.11761
RT: 7.8142
ExactMass: 243.11067264
Spectrum_type: 2
charge: 1
Formula: C11H17NO5
SMILES: CC(CC(=O)N1CCC[C@H]1C(=O)O)CC(=O)O
Method: HCD
Collision_energy: [28.333334]
Isolation_window: 4.0
Ion_mode: P
Num Peaks: 28
55.0546	7.9
70.0654	4.1
83.0494	5.2
84.0810	3.7
98.0602	6.0
100.0758	3.7
101.0598	31.6
112.0506	3.9
114.0914	14.5
116.0707	5.0
128.0706	18.2
143.0576	3.7
144.0654	23.0
146.0922	7.9
154.0860	3.2
182.0811	6.2
198.1124	6.9
200.1278	4.6
226.1073	16.7
243.0972	3.2
243.1339	3.5
244.1175	100.0
244.1291	53.6
244.2011	4.4
245.1226	8.7
245.1322	3.8
245.1856	3.1
246.1335	11.1

Name: (2S)-1-carbamoylpyrrolidine-2-carboxylate
PrecursorMZ: 159.0765
RT: 6.2375
ExactMass: 157.06131715
Spectrum_type: 2
charge: 1
Formula: C6H9N2O3-
SMILES: C1C[C@H](N(C1)C(=O)N)C(=O)[O-]
Method: HCD
Collision_energy: [28.333334]
Isolation_window: 4.0
Ion_mode: P
Num Peaks: 20
70.0615	0.7
70.0656	100.0
70.0696	0.7
71.0689	4.0
112.0759	0.7
113.0629	0.6
113.0711	98.8
114.0551	14.6
114.0685	0.7
114.0744	5.6
115.0585	0.7
116.0707	32.7
117.0739	2.0
139.0502	0.7
141.0658	4.1
142.0499	0.6
153.9673	0.7
159.0765	15.1
160.0799	0.9
161.0959	0.6

Name: (2S)-2,6-diacetamidohexanoate
PrecursorMZ: 231.13371
RT: 5.4414
ExactMass: 229.11883203
Spectrum_type: 2
charge: 1
Formula: C10H17N2O4-
SMILES: CC(=O)NCCCC[C@@H](C(=O)[O-])NC(=O)C
Method: HCD
Collision_energy: [28.333334]
Isolation_window: 4.0
Ion_mode: P
Num Peaks: 43
70.0654	6.1
74.0603	1.3
81.0337	1.5
84.0447	1.1
84.0810	27.1
85.0843	1.8
86.0602	1.3
86.0966	2.7
98.0601	1.7
100.0757	6.6
101.0597	1.0
112.0759	1.1
114.0549	1.6
116.0705	5.4
118.0862	1.1
126.0912	100.0
127.0945	7.0
129.1021	2.2
130.0497	2.3
130.0861	1.7
142.0497	1.3
143.1177	2.4
166.1223	1.6
168.1017	1.2
184.0963	1.2
184.1329	1.6
185.1279	1.5
186.0912	1.0
189.1230	8.7
194.1173	3.1
212.0913	3.1
212.1276	5.6
213.1228	3.4
214.1070	1.5
214.1433	1.9
229.1175	1.2
230.0812	1.9
230.1020	3.2
230.1169	2.6
230.1378	1.7
231.1329	3.1
232.0964	7.1
232.1175	1.4

Name: (2S)-2-(((2R)-2,4-diamino-4-oxobutanoyl)amino)-3-methylbutanoic acid
PrecursorMZ: 232.12887
RT: 5.9908
ExactMass: 231.12190603
Spectrum_type: 2
charge: 1
Formula: C9H17N3O4
SMILES: CC(C)[C@@H](C(=O)O)NC(=O)[C@@H](CC(=O)N)N
Method: HCD
Collision_energy: [28.333334]
Isolation_window: 4.0
Ion_mode: P
Num Peaks: 48
70.0291	3.0
70.0654	23.2
70.1153	2.7
71.0688	12.0
72.0811	29.4
74.0603	6.9
84.0446	4.2
86.0966	13.0
87.0555	41.3
87.0999	4.8
88.0759	35.9
98.0237	4.3
99.0918	3.1
100.0758	4.4
101.0597	2.8
110.0237	6.3
114.0548	4.7
116.0705	10.9
117.0738	5.5
118.0862	17.0
127.0502	3.0
127.0865	38.9
130.0497	6.2
132.1016	4.0
141.1022	5.7
148.0603	4.7
152.0704	100.0
153.0738	6.8
155.0813	5.1
169.0968	8.2
173.0918	47.5
174.0760	4.5
186.1123	3.1
186.1233	19.7
187.1220	4.3
198.0757	76.8
199.0792	7.4
214.1071	3.5
215.1022	32.6
230.1579	8.4
231.1332	9.4
232.0966	11.3
232.1175	6.3
232.1296	6.9
233.0916	8.1
233.1281	21.5
234.0759	7.9
234.1121	9.6

Name: (2S)-2-(((2R)-2,4-diamino-4-oxobutanoyl)amino)-4-methylpentanoic acid
PrecursorMZ: 246.14437
RT: 5.2132
ExactMass: 245.1375561
Spectrum_type: 2
charge: 1
Formula: C10H19N3O4
SMILES: CC(C)C[C@@H](C(=O)O)NC(=O)[C@@H](CC(=O)N)N
Method: HCD
Collision_energy: [28.333334]
Isolation_window: 4.0
Ion_mode: P
Num Peaks: 64
69.0702	21.1
70.0290	4.6
70.0654	5.6
81.0336	7.0
83.0606	6.8
85.0398	5.0
86.0966	43.7
87.0554	53.7
96.0809	2.7
98.0236	13.5
98.0963	2.9
110.0236	15.0
113.1073	6.0
114.0913	8.3
115.0752	4.2
124.0391	9.8
128.1067	2.6
132.1017	26.2
141.1019	70.0
142.1052	5.1
144.0805	5.6
155.1176	11.1
156.0804	3.8
158.0962	3.0
166.0859	94.3
167.0893	8.6
169.0966	7.2
181.0968	9.0
183.1123	16.0
187.1073	65.0
188.1107	5.8
200.1388	32.2
201.1019	4.5
201.1420	2.8
211.1070	4.5
212.0912	100.0
213.0946	10.0
219.0761	2.6
227.0810	4.5
227.1174	4.7
228.0760	3.9
228.1013	5.2
228.1338	4.8
228.1585	3.0
229.0838	7.2
229.0967	4.5
229.1176	46.9
230.1210	5.0
231.0758	2.7
245.0905	5.5
245.1279	9.9
245.1478	3.4
246.0759	3.5
246.0864	40.9
246.1120	24.5
246.1328	6.9
246.1444	10.3
247.0900	5.6
247.1062	16.4
247.1164	3.2
247.1438	4.9
248.0910	4.8
248.1025	3.5
248.1274	7.8

Name: (2S)-2-(((2R)-2,5-diaminopentanoyl)amino)propanoic acid
PrecursorMZ: 204.13398
RT: 11.4187
ExactMass: 203.12699141
Spectrum_type: 2
charge: 1
Formula: C8H17N3O3
SMILES: C[C@@H](C(=O)O)NC(=O)[C@@H](CCCN)N
Method: HCD
Collision_energy: [28.333334]
Isolation_window: 4.0
Ion_mode: P
Num Peaks: 16
70.0655	100.0
71.0688	4.0
84.0811	2.0
97.3998	1.8
112.0870	51.5
113.0902	2.6
116.0706	2.0
130.0861	2.4
202.1435	1.8
203.1388	2.2
203.1500	3.4
204.0864	1.8
204.1018	3.8
204.1230	3.5
204.1338	6.6
205.1548	1.8

Name: (2S)-2-(((2R)-pyrrolidine-2-carbonyl)amino)butanedioic acid
PrecursorMZ: 231.09725
RT: 8.923666666666668
ExactMass: 230.09027155
Spectrum_type: 2
charge: 1
Formula: C9H14N2O5
SMILES: C1C[C@@H](NC1)C(=O)N[C@@H](CC(=O)O)C(=O)O
Method: HCD
Collision_energy: [28.333334]
Isolation_window: 4.0
Ion_mode: P
Num Peaks: 31
70.0193	0.4
70.0459	0.4
70.0615	0.7
70.0654	100.0
70.0695	0.7
71.0688	4.2
72.0811	0.5
86.0967	0.4
88.0758	0.8
101.0597	0.4
116.0706	0.8
117.9796	0.3
142.0499	0.3
163.9851	0.4
177.9643	0.4
186.0758	0.4
212.0914	0.3
212.1277	0.4
213.0864	0.5
229.1180	0.4
230.0772	0.3
230.1018	0.8
230.1146	1.0
230.1383	2.0
231.0971	19.8
231.1332	1.2
231.1445	0.4
232.1007	1.7
232.1177	1.0
232.1291	0.4
232.1536	1.5

Name: (2S)-2-(((2S)-1-(2-aminoacetyl)-5-oxopyrrolidine-2-carbonyl)amino)pentanedioic acid
PrecursorMZ: 316.11361
RT: 7.1752
ExactMass: 315.10664989
Spectrum_type: 2
charge: 1
Formula: C12H17N3O7
SMILES: C1CC(=O)N([C@@H]1C(=O)N[C@@H](CCC(=O)O)C(=O)O)C(=O)CN
Method: HCD
Collision_energy: [28.333334]
Isolation_window: 4.0
Ion_mode: P
Num Peaks: 23
70.0655	13.9
84.0447	100.0
84.0811	7.0
114.0551	15.8
116.0707	15.4
130.0498	10.6
140.0705	24.7
141.0659	7.2
142.0499	18.8
159.0761	7.2
186.0759	8.6
197.0922	6.2
211.1075	8.3
225.0868	28.1
253.0818	21.4
269.1127	14.0
270.1082	52.4
281.0589	6.9
298.1040	8.1
299.0695	19.1
315.0861	17.1
315.1182	12.6
316.1152	29.3

Name: (2S)-2-(((2S)-2-(((2R)-2-azaniumyl-3-methylbutanoyl)amino)-3-methylbutanoyl)amino)-3-methylbutanoate
PrecursorMZ: 316.22271
RT: 4.6505
ExactMass: 315.21580641
Spectrum_type: 2
charge: 1
Formula: C15H29N3O4
SMILES: CC(C)[C@H](C(=O)N[C@@H](C(C)C)C(=O)N[C@@H](C(C)C)C(=O)[O-])[NH3+]
Method: HCD
Collision_energy: [28.333334]
Isolation_window: 4.0
Ion_mode: P
Num Peaks: 27
70.0654	4.5
72.0811	100.0
84.0810	21.5
86.0966	27.0
89.0599	7.1
94.9296	6.0
112.8957	15.0
114.8932	4.0
139.9144	5.7
171.1489	60.7
172.1524	6.0
187.1076	4.6
199.1438	52.3
199.1801	11.0
200.1469	6.3
217.1545	8.4
225.1017	5.3
227.1751	9.3
229.1331	17.0
257.1278	7.5
271.1436	8.5
289.1541	15.6
299.1386	11.3
316.1651	8.4
316.2228	9.2
317.1485	15.7
317.1852	5.2

Name: (2S)-2-(((2S)-2-(((2S)-2-amino-4-methylpentanoyl)amino)propanoyl)amino)-4-methylpentanoic acid
PrecursorMZ: 316.22276
RT: 1.7395
ExactMass: 315.21580641
Spectrum_type: 2
charge: 1
Formula: C15H29N3O4
SMILES: C[C@@H](C(=O)N[C@@H](CC(C)C)C(=O)O)NC(=O)[C@H](CC(C)C)N
Method: HCD
Collision_energy: [28.333334]
Isolation_window: 4.0
Ion_mode: P
Num Peaks: 12
72.0812	82.6
86.0967	69.4
112.8958	84.8
114.8930	27.4
132.1020	22.8
139.9147	38.2
143.1179	100.0
146.1175	96.2
157.1336	27.2
158.1174	23.1
171.1127	48.9
243.0879	18.6

Name: (2S)-2-(((2S)-2-(((2S)-2-azaniumyl-4-methylpentanoyl)amino)-3-hydroxypropanoyl)amino)-3-phenylpropanoate
PrecursorMZ: 366.20228
RT: 5.0714
ExactMass: 365.19507097
Spectrum_type: 2
charge: 1
Formula: C18H27N3O5
SMILES: CC(C)C[C@@H](C(=O)N[C@@H](CO)C(=O)N[C@@H](CC1=CC=CC=C1)C(=O)[O-])[NH3+]
Method: HCD
Collision_energy: [28.333334]
Isolation_window: 4.0
Ion_mode: P
Num Peaks: 37
60.0449	9.5
72.0812	28.0
74.0605	8.5
81.0339	15.7
86.0968	48.3
87.0556	10.1
110.0717	7.1
120.0809	33.3
128.1071	17.0
166.0864	35.5
168.1022	7.5
173.1285	100.0
174.1317	8.6
178.0860	7.0
201.1234	68.9
202.1275	7.0
207.1129	24.9
235.1077	13.2
253.1185	6.2
267.1336	9.9
321.1807	15.3
365.1534	12.8
365.1826	7.5
366.1334	9.9
366.1537	13.8
366.1781	9.6
366.1982	9.5
366.2747	6.6
367.1301	8.4
367.1640	13.1
367.1859	6.2
367.2015	7.1
368.1146	7.3
368.1486	8.8
368.1969	7.1
368.2183	9.7
368.4248	24.8

Name: (2S)-2-(((2S)-2-(((2S)-2-azaniumyl-4-methylpentanoyl)amino)-3-phenylpropanoyl)amino)-4-methylpentanoate
PrecursorMZ: 392.25413
RT: 2.6817
ExactMass: 391.24710654
Spectrum_type: 2
charge: 1
Formula: C21H33N3O4
SMILES: CC(C)C[C@@H](C(=O)N[C@@H](CC1=CC=CC=C1)C(=O)N[C@@H](CC(C)C)C(=O)[O-])[NH3+]
Method: HCD
Collision_energy: [28.333334]
Isolation_window: 4.0
Ion_mode: P
Num Peaks: 11
86.0966	100.0
112.8958	12.0
114.8928	12.0
120.0807	52.2
149.0232	10.9
199.1801	23.7
227.1750	26.3
233.1645	30.0
261.1593	29.9
279.1697	7.3
392.2542	14.5

Name: (2S)-2-(((2S)-2-(((2S)-2-azaniumyl-4-methylpentanoyl)amino)-4-methylpentanoyl)amino)-3-phenylpropanoate
PrecursorMZ: 392.25395
RT: 2.6816
ExactMass: 391.24710654
Spectrum_type: 2
charge: 1
Formula: C21H33N3O4
SMILES: CC(C)C[C@@H](C(=O)N[C@@H](CC(C)C)C(=O)N[C@@H](CC1=CC=CC=C1)C(=O)[O-])[NH3+]
Method: HCD
Collision_energy: [28.333334]
Isolation_window: 4.0
Ion_mode: P
Num Peaks: 15
70.0654	16.8
86.0966	100.0
87.0999	5.5
112.8957	8.2
114.8931	4.7
120.0807	29.2
149.0232	4.7
166.0861	5.0
199.1802	30.8
227.1749	26.6
233.1642	11.1
261.1592	13.1
263.1383	18.3
279.1694	6.5
392.2531	4.8

Name: (2S)-2-(((2S)-2-(((2S)-2-azaniumyl-4-methylpentanoyl)amino)-4-methylpentanoyl)amino)propanoate
PrecursorMZ: 316.22257
RT: 3.1449
ExactMass: 315.21580641
Spectrum_type: 2
charge: 1
Formula: C15H29N3O4
SMILES: C[C@@H](C(=O)[O-])NC(=O)[C@H](CC(C)C)NC(=O)[C@H](CC(C)C)[NH3+]
Method: HCD
Collision_energy: [28.333334]
Isolation_window: 4.0
Ion_mode: P
Num Peaks: 10
69.4949	6.2
86.0966	100.0
87.0999	5.0
142.1587	9.1
199.1802	37.3
203.1388	8.5
227.1750	23.7
290.1024	4.9
316.2227	4.7
317.1495	4.6

Name: (2S)-2-(((2S)-2-((2-amino-3-methylbutanoyl)amino)-3-phenylpropanoyl)amino)-3-methylbutanoic acid
PrecursorMZ: 364.22266
RT: 2.9964
ExactMass: 363.21580641
Spectrum_type: 2
charge: 1
Formula: C19H29N3O4
SMILES: CC(C)[C@@H](C(=O)O)NC(=O)[C@H](CC1=CC=CC=C1)NC(=O)C(C(C)C)N
Method: HCD
Collision_energy: [28.333334]
Isolation_window: 4.0
Ion_mode: P
Num Peaks: 9
72.0811	100.0
120.0808	55.8
171.1490	47.3
172.1329	11.3
199.1438	46.7
219.1488	33.4
247.1438	28.1
265.1544	8.6
364.2226	9.5

Name: (2S)-2-(((2S)-2-(acetyl(15N)amino)-3-(113C)methyl(1,2,3,4-13C4)butanoyl)(15N)amino)-4-(113C)methyl(1,2,3,4,5-13C5)pentanoic acid
PrecursorMZ: 273.18067
RT: 2.699
ExactMass: 285.20458023
Spectrum_type: 2
charge: 1
Formula: C13H24N2O4
SMILES: CC(=O)[15NH][13C@@H]([13CH]([13CH3])[13CH3])[13C](=O)[15NH][13C@@H]([13CH2][13CH]([13CH3])[13CH3])[13C](=O)O
Method: HCD
Collision_energy: [28.333334]
Isolation_window: 4.0
Ion_mode: P
Num Peaks: 22
72.0811	11.2
86.0967	24.4
112.1121	13.5
113.1154	10.3
114.0914	100.0
114.1277	7.5
115.0947	5.5
118.0863	7.0
128.1069	58.9
130.1226	6.0
132.1018	15.9
140.1432	14.0
142.0864	5.1
143.1180	5.2
156.1019	10.4
233.0585	6.9
272.2047	13.1
272.2580	7.0
273.1229	9.9
273.1804	84.0
274.1837	15.0
275.1021	4.1

Name: (2S)-2-(((2S)-2-amino-3-hydroxybutanoyl)amino)-3-(1H-indol-3-yl)propanoic acid
PrecursorMZ: 306.14446
RT: 5.127800000000001
ExactMass: 305.1375561
Spectrum_type: 2
charge: 1
Formula: C15H19N3O4
SMILES: CC([C@@H](C(=O)N[C@@H](CC1=CNC2=CC=CC=C21)C(=O)O)N)O
Method: HCD
Collision_energy: [28.333334]
Isolation_window: 4.0
Ion_mode: P
Num Peaks: 90
58.0655	3.8
69.3337	4.6
70.0655	3.6
72.0811	8.4
74.0603	42.4
81.0337	6.0
84.0445	7.6
84.0810	12.4
86.0966	6.2
91.0543	3.9
95.0605	3.1
98.0965	7.2
107.0492	2.8
110.0713	17.0
111.0441	4.2
112.0868	5.9
113.1073	3.4
120.0806	6.2
122.0599	7.9
123.0552	3.3
124.0757	3.4
129.0657	7.0
130.0497	7.2
130.0649	21.9
132.0806	19.2
138.0913	3.3
144.0806	10.6
146.0598	8.0
150.0548	8.2
152.0706	4.9
156.0765	10.1
159.0915	68.7
159.1125	5.8
160.0755	18.9
160.0946	6.5
161.0791	3.1
161.1072	14.3
163.1228	11.0
164.0703	10.0
164.1069	5.8
170.0598	10.1
173.1283	3.1
181.0971	4.2
182.0808	3.3
187.1437	3.5
188.0703	100.0
189.0736	12.3
205.0968	59.1
206.1005	5.7
215.1385	11.2
217.1082	5.9
239.1022	8.8
243.1123	4.0
243.1697	7.6
245.0916	10.9
259.1071	3.5
259.1186	4.5
260.1064	8.0
260.1387	7.6
261.1227	3.0
277.1905	3.2
287.1380	13.4
288.1333	5.0
289.1175	41.0
289.1522	3.6
290.1212	5.2
304.1284	4.3
304.1654	3.9
304.2990	7.1
305.1118	4.2
305.1252	12.9
305.1486	18.1
305.1839	7.2
306.0955	3.1
306.1120	8.2
306.1314	7.3
306.1451	60.3
306.1689	3.1
306.1812	20.8
306.2636	3.3
307.1075	4.1
307.1282	12.2
307.1436	15.7
307.1654	21.5
307.1839	2.9
307.1991	4.4
307.2370	6.6
308.1116	3.9
308.1270	4.1
308.1472	6.5

Name: (2S)-2-(((2S)-2-aminopropanoyl)amino)-3-hydroxybutanoic acid
PrecursorMZ: 191.10252
RT: 6.94745
ExactMass: 190.09535693
Spectrum_type: 2
charge: 1
Formula: C7H14N2O4
SMILES: C[C@@H](C(=O)N[C@@H](C(C)O)C(=O)O)N
Method: HCD
Collision_energy: [28.333334]
Isolation_window: 4.0
Ion_mode: P
Num Peaks: 22
56.0498	3.1
74.0603	25.6
98.0602	5.0
100.0757	4.2
102.0550	12.6
107.0491	3.2
116.0706	14.7
120.0655	100.0
121.0687	4.6
130.0497	15.3
131.0490	3.4
144.1017	5.0
173.0917	10.9
189.1313	3.7
190.0860	4.2
190.1068	5.8
191.0810	6.9
191.1020	3.5
192.0651	10.0
192.0868	3.1
192.1015	38.9
193.0968	22.2

Name: (2S)-2-(((2S)-2-azaniumyl-3-hydroxypropanoyl)amino)-3-phenylpropanoate
PrecursorMZ: 253.11826
RT: 6.317
ExactMass: 252.111007
Spectrum_type: 2
charge: 1
Formula: C12H16N2O4
SMILES: C1=CC=C(C=C1)C[C@@H](C(=O)[O-])NC(=O)[C@H](CO)[NH3+]
Method: HCD
Collision_energy: [28.333334]
Isolation_window: 4.0
Ion_mode: P
Num Peaks: 66
59.0496	0.6
60.0449	5.5
70.0655	1.3
81.0339	0.9
87.0444	0.9
89.0601	2.3
100.0759	0.7
101.0599	0.6
103.0392	1.9
110.0605	0.8
111.0443	0.7
114.0665	3.9
120.0558	1.6
120.0810	5.6
131.0704	0.6
133.0861	0.8
138.0662	0.7
144.0809	2.1
158.1179	0.7
163.0869	0.9
166.0865	9.3
167.0898	0.8
174.0790	1.6
175.0873	1.1
192.0894	15.8
193.0920	1.5
194.0813	0.8
194.0929	0.8
205.0969	1.0
206.1036	2.1
207.1130	2.0
209.2011	0.7
217.0970	1.3
227.1758	2.3
234.1128	0.6
235.1077	5.9
236.0933	1.0
236.1035	1.0
236.1283	1.4
237.1233	2.2
251.1027	1.3
251.1139	0.9
251.1389	1.0
251.1503	1.4
252.0872	1.3
252.0979	0.8
252.1088	1.9
252.1231	13.0
252.1348	1.8
252.1595	9.8
252.1709	0.8
253.0973	0.6
253.1183	100.0
253.1539	6.2
253.1915	0.7
254.1024	8.6
254.1146	1.0
254.1213	10.9
254.1386	9.1
254.1515	2.7
254.1752	1.3
254.2229	1.2
255.1139	1.0
255.1338	10.7
255.1484	1.5
255.1702	3.3

Name: (2S)-2-(((2S)-2-azaniumyl-3-methylbutanoyl)amino)-3-(1H-indol-3-yl)propanoate
PrecursorMZ: 304.1655
RT: 5.3371
ExactMass: 303.15829154
Spectrum_type: 2
charge: 1
Formula: C16H21N3O3
SMILES: CC(C)[C@@H](C(=O)N[C@@H](CC1=CNC2=CC=CC=C21)C(=O)[O-])[NH3+]
Method: HCD
Collision_energy: [28.333334]
Isolation_window: 4.0
Ion_mode: P
Num Peaks: 39
55.0547	4.9
58.0657	5.5
72.0812	100.0
91.0545	17.6
130.1228	6.5
144.0809	4.7
146.0601	5.5
159.0919	4.8
159.1131	6.8
160.0756	5.0
163.1231	9.5
187.1079	4.1
188.0706	82.8
189.0739	10.6
205.0972	70.1
206.1010	8.1
206.1904	7.4
212.2373	10.6
257.1283	6.0
285.1233	29.4
287.1391	7.4
303.1335	66.3
303.1699	19.1
304.1154	13.0
304.1192	27.6
304.1347	7.7
304.1659	49.4
304.2260	6.9
304.2997	38.3
305.1117	10.9
305.1496	26.9
305.1688	8.1
305.1862	6.4
305.3028	9.4
306.0478	17.6
306.0956	4.4
306.1331	13.5
306.1821	10.5
306.2425	33.3

Name: (2S)-2-(((2S)-2-azaniumyl-4-methylpentanoyl)amino)propanoate
PrecursorMZ: 203.13891
RT: 1.6137
ExactMass: 202.13174244
Spectrum_type: 2
charge: 1
Formula: C9H18N2O3
SMILES: C[C@@H](C(=O)[O-])NC(=O)[C@H](CC(C)C)[NH3+]
Method: HCD
Collision_energy: [28.333334]
Isolation_window: 4.0
Ion_mode: P
Num Peaks: 5
72.0811	2.8
86.0966	100.0
87.1000	5.0
138.0910	2.9
170.1175	3.1

Name: (2S)-2-(((2S)-2-azaniumylpropanoyl)amino)-3-phenylpropanoate
PrecursorMZ: 237.12315
RT: 5.6954
ExactMass: 236.11609238
Spectrum_type: 2
charge: 1
Formula: C12H16N2O3
SMILES: C[C@@H](C(=O)N[C@@H](CC1=CC=CC=C1)C(=O)[O-])[NH3+]
Method: HCD
Collision_energy: [28.333334]
Isolation_window: 4.0
Ion_mode: P
Num Peaks: 34
81.0338	8.0
108.0445	5.1
120.0808	56.0
121.0841	5.1
128.0704	2.3
130.0498	5.5
144.0806	7.5
146.0447	2.8
149.0597	2.4
166.0861	100.0
167.0894	8.5
173.0555	2.3
190.0974	3.8
191.0813	7.6
191.1178	6.2
192.0879	8.6
212.8968	2.9
218.0810	2.4
219.0761	18.2
219.1126	2.4
220.0806	2.5
220.0964	5.2
220.1078	3.7
236.0914	16.7
236.1028	7.3
236.1279	9.3
237.0866	44.2
237.1019	13.5
237.1224	15.5
237.1588	2.9
238.0920	11.4
238.1067	18.6
238.1183	5.3
238.1434	15.3

Name: (2S)-2-(((2S)-2-formamido-3-methylbutanoyl)amino)-3-methylbutanoate
PrecursorMZ: 245.14902
RT: 8.634975
ExactMass: 243.13448209
Spectrum_type: 2
charge: 1
Formula: C11H19N2O4-
SMILES: CC(C)[C@@H](C(=O)N[C@@H](C(C)C)C(=O)[O-])NC=O
Method: HCD
Collision_energy: [28.333334]
Isolation_window: 4.0
Ion_mode: P
Num Peaks: 8
72.0809	86.5
86.0964	9.7
118.0859	46.1
143.0810	13.9
199.1433	41.9
244.0962	13.0
245.1484	100.0
246.1527	12.8

Name: (2S)-2-(((2S)-pyrrolidin-1-ium-2-carbonyl)amino)pentanedioate
PrecursorMZ: 245.11289
RT: 8.8573
ExactMass: 243.09809658
Spectrum_type: 2
charge: 1
Formula: C10H15N2O5-
SMILES: C1C[C@H]([NH2+]C1)C(=O)N[C@@H](CCC(=O)[O-])C(=O)[O-]
Method: HCD
Collision_energy: [28.333334]
Isolation_window: 4.0
Ion_mode: P
Num Peaks: 38
58.0655	0.5
60.0811	1.0
69.9248	0.5
70.0614	0.7
70.0654	100.0
71.0688	3.5
90.0551	1.0
100.0756	0.8
101.0597	0.5
114.0550	0.4
114.0662	0.5
116.0705	0.5
126.0550	0.6
126.0912	0.9
132.0765	6.4
140.0703	0.6
140.0816	0.6
148.0602	2.6
183.1125	1.5
184.0713	1.2
186.0870	4.3
199.1075	0.5
226.1184	0.5
227.1020	1.0
228.0972	2.2
244.0964	1.0
244.1172	0.8
244.1287	6.7
245.1032	0.6
245.1127	30.3
245.1489	14.7
245.1856	0.5
246.0981	0.4
246.1076	25.1
246.1335	0.6
246.1540	1.6
247.1111	1.5
247.1397	0.5

Name: (2S)-2-(((2S,3R)-2-azaniumyl-3-hydroxybutanoyl)amino)butanedioate
PrecursorMZ: 235.09223
RT: 8.52255
ExactMass: 233.07736114
Spectrum_type: 2
charge: 1
Formula: C8H13N2O6-
SMILES: C[C@H]([C@@H](C(=O)N[C@@H](CC(=O)[O-])C(=O)[O-])[NH3+])O
Method: HCD
Collision_energy: [28.333334]
Isolation_window: 4.0
Ion_mode: P
Num Peaks: 34
56.0499	6.0
70.0655	4.6
72.0811	5.0
74.0603	92.5
75.0636	3.6
84.0447	7.4
87.0442	3.6
88.0395	4.7
100.0757	4.7
101.0598	5.0
102.0550	3.7
128.0703	10.4
134.0446	12.4
170.0809	7.4
170.1173	7.6
174.0757	3.4
188.0915	21.4
188.1278	31.1
189.1314	4.4
190.1069	7.6
216.0863	6.2
216.1227	3.8
217.0814	5.6
217.1178	5.3
233.1118	4.1
234.0969	16.6
234.1088	13.4
234.1332	100.0
234.1854	3.5
235.0917	9.2
235.1360	10.2
236.0918	4.4
236.1127	12.8
237.0861	4.0

Name: (2S)-2-(((2S,3R)-2-azaniumyl-3-hydroxybutanoyl)amino)pentanedioate
PrecursorMZ: 249.1078
RT: 8.3892
ExactMass: 247.0930112
Spectrum_type: 2
charge: 1
Formula: C9H15N2O6-
SMILES: C[C@H]([C@@H](C(=O)N[C@@H](CCC(=O)[O-])C(=O)[O-])[NH3+])O
Method: HCD
Collision_energy: [28.333334]
Isolation_window: 4.0
Ion_mode: P
Num Peaks: 39
56.0499	7.0
58.0655	5.5
71.0495	6.4
74.0603	100.0
84.0446	15.2
87.0442	5.1
90.0551	5.0
100.0757	4.9
102.0551	10.0
130.0498	19.8
134.0812	8.3
148.0603	79.1
149.0636	4.6
162.1023	7.8
170.0446	10.0
186.1123	9.8
188.0912	6.2
202.1077	5.4
202.1171	4.6
203.1024	4.0
204.1227	9.8
212.0917	4.7
213.0866	4.0
214.1070	5.2
230.1018	7.3
231.0971	17.1
232.1176	12.1
248.1122	27.5
248.1240	43.4
248.1490	6.1
249.0885	5.2
249.1078	38.1
249.1238	7.9
249.1583	4.5
250.0821	4.0
250.0926	6.2
250.1086	4.4
250.1283	30.4
251.1021	5.5

Name: (2S)-2-(((3-methyl-5,6-dihydro-1,4-dioxin-2-yl)carbonyl)amino)pentanedioic acid
PrecursorMZ: 274.09169
RT: 6.2384
ExactMass: 273.08485182
Spectrum_type: 2
charge: 1
Formula: C11H15NO7
SMILES: CC1=C(OCCO1)C(=O)N[C@@H](CCC(=O)O)C(=O)O
Method: HCD
Collision_energy: [28.333334]
Isolation_window: 4.0
Ion_mode: P
Num Peaks: 39
69.0339	6.5
70.0654	2.5
71.0495	5.2
72.0811	3.1
73.0288	3.4
81.0338	19.5
84.0447	14.5
86.0966	4.0
98.0965	7.1
99.0442	29.7
114.0914	4.4
116.0707	2.6
117.0546	42.8
126.0550	3.6
130.0498	100.0
131.0531	4.6
136.0755	3.8
138.0549	10.2
142.0497	3.9
144.0654	4.4
156.0657	2.3
164.0706	4.9
168.0653	3.6
182.0809	3.7
210.0758	13.7
228.0864	17.0
234.1846	3.1
256.0820	2.3
272.1597	4.0
273.1216	2.7
273.1446	9.6
274.0924	31.6
274.1073	6.6
274.1285	2.8
274.1444	2.8
275.1240	3.6
275.1392	3.3
276.1232	4.0
276.1384	9.8

Name: (2S)-2-((2-(((2S)-2-azaniumyl-4-methylpentanoyl)amino)acetyl)amino)-3-phenylpropanoate
PrecursorMZ: 336.19121
RT: 4.5861
ExactMass: 335.18450629
Spectrum_type: 2
charge: 1
Formula: C17H25N3O4
SMILES: CC(C)C[C@@H](C(=O)NCC(=O)N[C@@H](CC1=CC=CC=C1)C(=O)[O-])[NH3+]
Method: HCD
Collision_energy: [28.333334]
Isolation_window: 4.0
Ion_mode: P
Num Peaks: 17
57.0702	6.6
69.0702	7.9
72.0811	23.3
83.0858	7.4
86.0966	58.7
97.1012	7.5
120.0807	100.0
121.0840	6.8
219.1488	17.8
223.1071	9.6
233.1644	26.3
247.1436	12.4
261.1592	16.7
335.1603	6.6
336.1923	7.8
337.1742	12.8
338.3413	21.0

Name: (2S)-2-((2-amino-3-carboxypropanoyl)amino)-3-methylbutanoic acid
PrecursorMZ: 233.11323
RT: 3.0548
ExactMass: 232.10592162
Spectrum_type: 2
charge: 1
Formula: C9H16N2O5
SMILES: CC(C)[C@@H](C(=O)O)NC(=O)C(CC(=O)O)N
Method: HCD
Collision_energy: [28.333334]
Isolation_window: 4.0
Ion_mode: P
Num Peaks: 13
56.0500	7.3
72.0812	6.5
86.0968	18.2
88.0760	27.5
116.0708	100.0
127.0868	5.7
135.0916	6.8
173.0921	35.1
231.1128	5.2
233.0788	6.6
233.1129	7.1
233.1285	7.5
234.0758	11.6

Name: (2S)-2-((3,4,5-trimethoxybenzoyl)amino)pentanedioic acid
PrecursorMZ: 342.11803
RT: 7.5917
ExactMass: 341.11106656
Spectrum_type: 2
charge: 1
Formula: C15H19NO8
SMILES: COC1=CC(=CC(=C1OC)OC)C(=O)N[C@@H](CCC(=O)O)C(=O)O
Method: HCD
Collision_energy: [28.333334]
Isolation_window: 4.0
Ion_mode: P
Num Peaks: 17
70.0654	13.7
84.0446	13.0
84.0810	6.0
102.0550	8.7
116.0706	8.4
130.0498	22.2
148.0603	100.0
165.0545	51.7
166.0580	7.3
195.0649	55.8
340.1167	7.6
341.1326	17.4
342.1176	6.4
342.1316	7.9
343.1119	9.5
343.1490	5.8
344.1452	6.0

Name: (2S)-2-(4-aminobutanoylamino)-5-(diaminomethylideneamino)pentanoic acid
PrecursorMZ: 282.15446
RT: 6.9115
Spectrum_type: 2
charge: 1
SMILES: C(CC(C(=O)O)NC(=O)CCCN)CN=C(N)N
Method: HCD
Collision_energy: [28.333334]
Isolation_window: 4.0
Ion_mode: P
Num Peaks: 80
60.0561	9.4
69.0340	7.3
70.0656	66.7
72.0812	13.1
81.0339	4.9
82.0655	5.4
84.0447	6.3
84.0812	97.1
86.0968	12.1
87.0444	10.2
98.0602	6.4
98.0968	5.7
100.0760	11.0
101.0599	16.2
102.0916	5.3
111.0444	8.6
112.0759	15.4
112.0871	12.6
114.0557	5.0
114.0663	6.9
114.1028	50.2
115.0870	5.1
116.0708	29.3
118.0865	6.2
122.0965	8.5
128.0709	14.5
129.1022	14.1
130.0864	95.2
130.0975	5.2
131.0901	5.6
132.0445	6.8
144.1125	7.4
147.1130	12.3
158.0928	4.8
160.1082	9.9
168.0652	6.9
175.1189	9.8
181.0974	6.6
213.0875	4.9
216.1232	10.7
222.1110	6.3
225.1223	7.2
227.1019	8.9
228.0994	4.8
264.1458	6.5
267.1702	11.8
272.1234	5.9
273.1453	8.0
280.1394	5.1
281.1484	17.9
282.1549	100.0
283.1339	5.9
283.1631	11.7
284.0930	15.7
284.1338	12.3
285.1492	11.6
285.1814	36.7
286.1511	32.3
286.1816	9.2
288.0866	5.5
288.1203	5.7
288.1522	5.5
289.1510	17.1
289.1872	32.9
290.1345	51.0
291.1635	27.1
292.1156	10.5
292.1523	17.3
293.1721	18.8
294.1537	8.0
296.1307	6.4
296.1694	5.5
297.1462	10.6
297.1821	5.1
298.1770	8.6
299.1640	7.8
300.1629	13.3
300.1932	11.1
301.1504	45.1
302.0993	29.3

Name: (2S)-2-(4-carboxybutanoylamino)pentanedioic acid
PrecursorMZ: 244.08142
RT: 6.7009
ExactMass: 261.08485182
Spectrum_type: 2
charge: 1
Formula: C10H15NO7
SMILES: C(CC(=O)N[C@@H](CCC(=O)O)C(=O)O)CC(=O)O
Method: HCD
Collision_energy: [28.333334]
Isolation_window: 4.0
Ion_mode: P
Num Peaks: 22
70.0655	15.9
84.0447	15.6
84.0811	7.8
86.0967	6.4
87.0443	16.1
114.0915	34.9
115.0392	8.0
116.0708	14.5
130.0499	100.0
131.0530	6.6
142.0499	8.9
154.0864	9.6
198.0761	11.6
200.0916	11.1
227.0846	6.6
244.0272	14.8
244.0815	6.8
244.0966	16.3
244.1177	6.1
244.1275	7.2
244.1301	6.8
246.0969	7.7

Name: (2S)-2-(carbamoylamino)-5-(diaminomethylideneazaniumyl)pentanoate
PrecursorMZ: 218.12456
RT: 10.1186
ExactMass: 217.11748936
Spectrum_type: 2
charge: 1
Formula: C7H15N5O3
SMILES: C(C[C@@H](C(=O)[O-])NC(=O)N)C[NH+]=C(N)N
Method: HCD
Collision_energy: [28.333334]
Isolation_window: 4.0
Ion_mode: P
Num Peaks: 13
60.0560	14.5
70.0655	13.4
116.0706	17.2
128.0705	9.2
158.0922	11.4
172.0966	32.6
175.1187	100.0
201.0976	21.4
217.0966	8.9
217.1177	10.9
217.1295	10.0
218.1019	62.4
218.1246	39.5

Name: (2S)-2-(methylamino)-4-((R)-methylsulfinyl)butanoic acid
PrecursorMZ: 180.06881
RT: 8.6833
ExactMass: 179.06161445
Spectrum_type: 2
charge: 1
Formula: C6H13NO3S
SMILES: CN[C@@H](CC[S@](=O)C)C(=O)O
Method: HCD
Collision_energy: [28.333334]
Isolation_window: 4.0
Ion_mode: P
Num Peaks: 45
60.0812	8.4
70.0655	6.9
72.0811	0.4
78.9845	1.0
80.0496	0.6
86.0602	0.9
87.0442	0.6
88.0395	56.8
89.0429	1.7
91.0544	0.8
95.0605	1.0
96.0446	0.7
96.9953	10.6
97.9950	0.5
109.0761	2.9
115.0057	0.8
116.0706	9.3
117.0741	0.5
121.0316	0.5
121.0648	3.2
134.0711	0.9
136.0756	0.6
136.0868	2.3
137.0709	0.8
149.0266	2.4
160.0736	0.6
163.0866	0.4
178.8732	1.6
179.0815	1.1
179.0923	0.4
179.1178	0.5
180.0686	5.3
180.0768	2.9
180.0883	0.6
180.0916	0.4
180.1048	100.0
180.1215	0.6
180.1380	2.3
181.0966	1.2
181.1052	2.0
181.1081	4.5
182.0574	1.0
182.0809	2.6
182.0922	5.0
182.1016	0.4

Name: (2S)-2-(octadecanoylamino)-3-sulfopropanoic acid
PrecursorMZ: 436.27229
RT: 3.0667
ExactMass: 435.2654592
Spectrum_type: 2
charge: 1
Formula: C21H41NO6S
SMILES: CCCCCCCCCCCCCCCCCC(=O)N[C@H](CS(=O)(=O)O)C(=O)O
Method: HCD
Collision_energy: [28.333334]
Isolation_window: 4.0
Ion_mode: P
Num Peaks: 23
57.0703	15.0
67.0546	8.8
69.0702	13.2
71.0858	15.7
81.0701	13.8
83.0858	8.4
85.1014	14.7
86.0966	7.4
88.0395	68.6
93.0699	6.9
95.0856	27.6
97.1014	6.5
109.1012	15.4
123.1170	8.0
130.0649	7.4
135.1168	7.8
194.0479	12.3
212.0581	6.6
225.2210	24.3
266.2468	10.1
312.2526	100.0
313.2559	17.1
435.2118	6.6

Name: (2S)-2-)(2-cyanoacetyl)amino(-5-(diaminomethylideneamino)pentanoic acid
PrecursorMZ: 242.12459
RT: 5.3368
Spectrum_type: 2
charge: 1
SMILES: C(CC(C(=O)O)NC(=O)CC#N)CN=C(N)N
Method: HCD
Collision_energy: [28.333334]
Isolation_window: 4.0
Ion_mode: P
Num Peaks: 196
58.0657	0.4
60.0561	8.8
69.0341	0.5
70.0656	18.1
71.0495	0.4
71.0690	0.8
72.0812	2.2
74.0717	4.1
81.0338	0.5
82.0657	0.8
83.0608	0.4
84.0448	2.0
84.0812	10.3
85.0287	0.8
85.0400	0.5
85.0651	0.4
85.0843	0.6
86.0605	0.6
86.0715	0.6
86.0969	0.6
87.0446	0.5
88.0397	0.6
89.0713	0.4
96.0811	0.5
97.0287	0.4
97.0764	0.6
98.0603	0.6
98.0968	0.6
100.0760	0.9
101.0600	1.0
101.1077	0.5
102.0553	1.4
110.0604	0.5
111.0668	2.4
112.0395	1.0
112.0762	0.8
112.0871	5.7
113.0235	0.5
113.0713	1.8
114.0534	0.4
114.0569	0.4
114.0664	28.3
114.1028	1.9
115.0700	1.2
115.0868	6.1
116.0708	10.1
117.0745	0.5
118.0862	0.5
123.0680	0.6
124.0394	0.4
124.0757	0.4
124.0866	0.5
125.0710	1.6
126.0551	0.4
126.0916	0.6
128.0707	0.9
128.0820	0.4
129.0659	4.2
129.1024	1.2
130.0502	1.9
130.0864	5.3
130.0974	1.7
132.0769	1.0
133.0971	0.8
134.0812	0.5
136.0759	0.5
138.0662	0.5
138.0916	0.3
139.0867	0.6
140.0707	0.3
140.0819	1.1
141.0661	0.6
141.1022	0.7
142.0863	0.5
143.0810	0.4
143.1179	0.3
144.0767	0.3
144.1021	0.4
147.1128	0.6
148.0601	0.6
150.0550	0.9
152.0704	0.4
152.0821	0.4
153.0659	3.6
154.0500	0.4
154.0864	0.3
155.0339	0.6
156.0657	0.3
156.1023	0.4
157.0243	0.6
157.1085	1.8
158.0926	15.8
159.0768	0.5
159.0967	1.0
160.0972	0.9
163.1232	0.3
166.0977	0.9
168.1016	0.4
168.1383	0.6
169.0970	1.0
170.0809	0.7
171.0765	2.3
175.1191	37.0
176.1229	2.3
179.1291	0.4
181.0611	1.8
182.0926	3.2
183.0765	3.3
184.1096	0.8
185.0907	1.5
185.1050	0.4
186.0875	4.6
186.1237	3.4
187.0918	0.4
187.1077	5.4
187.1258	0.3
188.1105	0.4
194.0921	0.4
194.1177	0.4
195.0893	0.6
196.1082	0.4
198.0886	0.6
199.0713	15.0
200.0749	1.4
202.1189	1.9
207.0658	0.4
208.1082	0.9
209.0930	0.5
210.0896	0.5
211.1193	3.8
211.1436	0.5
212.1029	1.3
212.1244	0.5
213.1596	0.7
216.0980	2.7
216.1224	0.5
223.0600	0.4
223.0815	0.4
225.0982	0.8
226.1184	0.5
227.1138	0.4
228.0983	1.3
228.1459	1.5
229.1298	11.9
230.1136	1.3
230.1334	1.2
231.1341	0.4
234.1341	0.7
237.0508	1.7
241.0932	11.5
241.1296	3.3
241.1549	3.5
242.0662	0.6
242.0963	0.8
242.1245	5.0
243.1058	0.6
243.1304	0.4
244.1304	1.4
244.1377	1.4
244.1653	0.8
245.1254	1.4
246.1096	21.1
246.1560	100.0
246.1988	0.5
246.2098	0.6
247.1102	1.7
247.1397	3.1
247.1590	9.5
248.1247	5.8
248.1497	1.8
249.1060	1.6
249.1455	1.7
250.1193	0.5
250.1439	0.9
250.1650	0.5
251.1430	0.3
252.1440	12.3
253.1530	3.4
254.1377	0.8
255.1421	0.6
255.1709	0.5
256.1175	8.2
256.1547	0.4
257.1231	2.8
257.1498	2.7
258.1197	48.0
258.1418	1.2
258.1766	1.5
259.1218	4.8
259.1625	1.6
260.1226	3.6
261.1098	0.8
261.1508	0.8
262.0745	1.6
262.1035	1.6
262.1513	1.5

Name: (2S)-2-acetamido-2,3,3-trideuterio-3-(2,3,4,5,6-pentadeuteriophenyl)propanoic acid
PrecursorMZ: 208.09659
RT: 8.447
ExactMass: 215.139757244
Spectrum_type: 2
charge: 1
Formula: C11H13NO3
SMILES: [2H]C1=C(C(=C(C(=C1[2H])[2H])C([2H])([2H])[C@@]([2H])(C(=O)O)NC(=O)C)[2H])[2H]
Method: HCD
Collision_energy: [28.333334]
Isolation_window: 4.0
Ion_mode: P
Num Peaks: 15
87.0443	5.5
96.0445	2.5
114.0914	5.3
120.0807	13.3
162.0911	5.2
165.0782	7.7
207.1125	18.0
208.0965	100.0
208.1068	3.4
208.1169	3.2
208.1330	5.7
209.0916	14.7
209.1001	11.8
209.1281	56.9
210.1119	7.9

Name: (2S)-2-acetamido-5-((N'-methylcarbamimidoyl)amino)pentanoic acid
PrecursorMZ: 231.14511
RT: 8.6368
ExactMass: 230.13789045
Spectrum_type: 2
charge: 1
Formula: C9H18N4O3
SMILES: CC(=O)N[C@@H](CCCNC(=NC)N)C(=O)O
Method: HCD
Collision_energy: [28.333334]
Isolation_window: 4.0
Ion_mode: P
Num Peaks: 78
60.0561	3.5
70.0656	15.3
72.0812	2.7
74.0605	4.7
74.0717	11.4
84.0812	8.5
86.0604	3.8
87.0444	4.8
88.0760	63.1
89.0793	1.9
98.0602	2.0
100.0759	2.2
101.0600	3.3
102.0552	2.2
112.0871	4.5
113.0712	5.8
114.0664	7.7
114.0916	4.1
114.1028	1.9
115.0868	8.3
116.0708	10.0
126.0915	6.0
126.1027	2.4
127.0503	2.5
127.0867	2.8
128.0705	1.9
128.1071	3.2
129.1023	4.4
130.0864	4.9
130.0974	1.7
132.0768	4.2
132.1017	1.7
139.0389	2.0
146.0924	1.6
153.1023	2.4
158.0925	11.4
166.0865	3.4
167.0816	2.3
170.0925	1.7
171.1129	11.4
172.0969	33.6
172.1080	2.3
173.1002	2.6
175.1190	11.3
182.0814	2.9
184.1084	3.4
186.1023	2.0
189.1345	3.3
194.0810	1.7
200.1030	11.1
212.0916	3.6
212.1027	14.4
212.1281	2.6
213.0866	1.7
213.1231	2.0
213.1343	2.9
214.1073	2.2
214.1185	17.2
214.1440	5.0
215.1026	3.9
229.1543	3.6
230.1023	10.2
230.1133	80.0
230.1382	12.0
230.1498	6.3
230.1750	8.1
231.0977	3.5
231.1174	7.2
231.1338	27.4
231.1450	100.0
232.0935	2.4
232.1175	11.7
232.1295	16.6
232.1487	7.2
232.1551	36.5
233.1126	5.0
233.1282	1.8
233.1580	2.8

Name: (2S)-2-amino-3,3,4,4-tetradeuterio-4-methylsulfinylbutanoic acid
PrecursorMZ: 166.05288
RT: 5.453
ExactMass: 169.07107137
Spectrum_type: 2
charge: 1
Formula: C5H11NO3S
SMILES: [2H]C([2H])([C@@H](C(=O)O)N)C([2H])([2H])S(=O)C
Method: HCD
Collision_energy: [28.333334]
Isolation_window: 4.0
Ion_mode: P
Num Peaks: 24
56.0498	21.3
74.0238	100.0
74.0601	3.9
75.0264	22.9
102.0548	20.1
110.0346	10.8
120.0804	4.4
122.0597	9.7
123.0107	6.2
136.0752	38.4
137.0785	8.4
138.0908	8.7
149.0264	14.2
150.0546	29.7
164.0701	12.1
165.0654	3.6
165.0736	3.6
166.0533	11.8
166.0856	10.5
167.0450	4.4
167.0557	66.2
167.0811	4.7
167.1538	9.3
168.0679	34.1

Name: (2S)-2-amino-3,4-dideuteriopentanedioic acid
PrecursorMZ: 148.06034
RT: 9.095
ExactMass: 149.06571126
Spectrum_type: 2
charge: 1
Formula: C5H9NO4
SMILES: [2H]C([C@@H](C(=O)O)N)C([2H])C(=O)O
Method: HCD
Collision_energy: [28.333334]
Isolation_window: 4.0
Ion_mode: P
Num Peaks: 7
65.0059	10.6
84.0446	100.0
102.0550	18.3
130.0497	46.6
148.0964	22.3
149.0229	16.0
149.0270	12.9

Name: (2S)-2-amino-3-((1,4,5,6-13C4)cyclohexatrienyl)(2,3-13C2)propanoic acid
PrecursorMZ: 166.08633
RT: 3.1418
ExactMass: 171.09910761
Spectrum_type: 2
charge: 1
Formula: C9H11NO2
SMILES: C1=C[13C](=[13CH][13CH]=[13CH]1)[13CH2][13C@@H](C(=O)O)N
Method: HCD
Collision_energy: [28.333334]
Isolation_window: 4.0
Ion_mode: P
Num Peaks: 10
70.0654	5.0
120.0808	100.0
121.0841	7.7
131.0492	3.9
165.1023	3.7
166.0498	3.6
166.0861	8.5
166.0971	6.0
167.1543	4.1
168.0683	5.4

Name: (2S)-2-amino-3-(1-((2R,3S,4S,5S,6R)-3,4,5-trihydroxy-6-(hydroxymethyl)oxan-2-yl)indol-3-yl)propanoic acid
PrecursorMZ: 367.14954
RT: 7.4316
ExactMass: 366.14270105
Spectrum_type: 2
charge: 1
Formula: C17H22N2O7
SMILES: C1=CC=C2C(=C1)C(=CN2[C@H]3[C@H]([C@H]([C@@H]([C@H](O3)CO)O)O)O)C[C@@H](C(=O)O)N
Method: HCD
Collision_energy: [28.333334]
Isolation_window: 4.0
Ion_mode: P
Num Peaks: 29
70.0655	5.9
84.0811	7.2
130.0651	6.4
136.0756	23.9
144.0807	10.3
146.0598	10.4
156.0808	8.0
158.0963	9.1
159.1043	9.1
173.0834	6.0
187.0990	100.0
188.0703	25.7
229.0968	24.8
258.1122	6.5
276.1229	6.2
283.1282	6.3
329.1339	6.4
331.1286	7.3
332.1123	12.6
349.1388	30.0
350.1425	8.6
366.0951	13.1
366.1313	7.4
366.1827	11.6
367.1448	7.2
367.1642	11.5
368.1495	41.6
369.0957	21.1
369.1475	7.1

Name: (2S)-2-amino-3-ethylsulfinylpropanoic acid
PrecursorMZ: 148.04259
RT: 9.1756
ExactMass: 165.04596439
Spectrum_type: 2
charge: 1
Formula: C5H11NO3S
SMILES: CCS(=O)C[C@H](C(=O)O)N
Method: HCD
Collision_energy: [28.333334]
Isolation_window: 4.0
Ion_mode: P
Num Peaks: 12
57.0339	19.5
61.0110	20.5
65.0059	46.7
74.0062	96.7
84.0446	35.3
102.0010	25.2
120.0113	90.7
121.0320	24.1
123.9643	31.8
148.0426	58.2
148.0967	28.8
149.0270	100.0

Name: (2S)-2-amino-5-(1-carboxybut-3-ynylamino)-5-oxopentanoic acid
PrecursorMZ: 243.09746
RT: 7.2206
ExactMass: 242.09027155
Spectrum_type: 2
charge: 1
Formula: C10H14N2O5
SMILES: C#CCC(C(=O)O)NC(=O)CC[C@@H](C(=O)O)N
Method: HCD
Collision_energy: [28.333334]
Isolation_window: 4.0
Ion_mode: P
Num Peaks: 49
80.0498	2.1
82.0655	1.9
84.0447	3.3
84.0811	1.7
86.0603	5.8
98.0602	1.6
114.0374	5.3
114.0552	2.2
114.0915	11.1
129.1024	1.7
130.0499	1.8
131.1180	3.5
138.0913	3.2
142.0322	100.0
152.0707	62.4
153.0739	5.7
156.0768	3.6
170.0271	33.5
171.0764	3.8
180.0655	31.8
181.0689	3.1
196.0969	8.9
197.0922	2.6
198.0761	18.9
198.1123	10.2
199.0536	5.4
210.0875	1.7
212.1025	1.7
213.1232	2.0
219.0200	2.4
224.1026	3.4
225.0869	2.6
226.0710	12.8
226.1071	2.5
227.0484	3.0
227.1753	4.5
242.0813	2.8
242.1022	2.2
242.1132	26.8
242.1499	4.3
243.0973	2.5
243.1159	3.3
244.0604	2.6
244.0716	5.1
244.0815	1.9
244.0968	3.4
244.1176	3.3
244.2018	9.0
245.0591	9.5

Name: (2S)-2-amino-5-(bis(15N)(azanyl)methylideneamino)pentanoic acid
PrecursorMZ: 175.11878
RT: 13.1345
ExactMass: 177.10278038
Spectrum_type: 2
charge: 1
Formula: C6H14N4O2
SMILES: C(C[C@@H](C(=O)O)N)C[15N]=C([15NH2])[15NH2]
Method: HCD
Collision_energy: [28.333334]
Isolation_window: 4.0
Ion_mode: P
Num Peaks: 9
60.0561	23.4
70.0655	20.7
114.0663	100.0
114.0915	10.9
116.0707	14.3
174.1122	16.4
175.1189	32.1
176.1645	17.7
176.8752	95.6

Name: (2S)-2-amino-6-((2-amino-2-oxoethyl)amino)hexanoic acid
PrecursorMZ: 204.13387
RT: 10.685
ExactMass: 203.12699141
Spectrum_type: 2
charge: 1
Formula: C8H17N3O3
SMILES: C(CCNCC(=O)N)C[C@@H](C(=O)O)N
Method: HCD
Collision_energy: [28.333334]
Isolation_window: 4.0
Ion_mode: P
Num Peaks: 34
70.0320	3.1
70.0654	100.0
71.0688	3.0
72.0810	4.2
84.0809	36.6
86.0601	3.3
94.0652	8.0
104.1069	4.0
108.0807	3.5
112.0868	39.2
125.0708	4.9
128.0704	3.2
130.0859	25.1
142.0859	5.6
186.1120	8.6
186.1486	3.5
188.0910	4.9
202.1434	18.4
203.1023	12.7
203.1173	7.1
203.1473	5.1
203.1749	8.1
204.1014	48.7
204.1126	3.8
204.1225	41.0
204.1338	37.2
204.1587	13.7
205.0965	11.2
205.1051	6.6
205.1174	7.3
205.1331	6.7
206.1017	8.3
206.1170	12.1
206.1281	8.4

Name: (2S)-2-amino-6-(aminomethoxycarbonylamino)hexanoic acid
PrecursorMZ: 184.10792
RT: 12.7568
ExactMass: 219.12190603
Spectrum_type: 2
charge: 1
Formula: C8H17N3O4
SMILES: C(CCNC(=O)OCN)C[C@@H](C(=O)O)N
Method: HCD
Collision_energy: [28.333334]
Isolation_window: 4.0
Ion_mode: P
Num Peaks: 21
70.0653	6.5
91.0543	83.0
92.0577	15.4
110.0838	54.1
111.0917	6.6
123.0916	27.9
126.0912	11.6
139.0864	8.0
140.1180	38.0
169.0970	9.1
182.1016	8.4
182.1172	20.8
183.1124	11.6
183.1209	5.4
184.0601	24.1
184.0966	7.8
184.1077	100.0
184.1441	5.3
185.0915	5.2
185.1114	7.6
185.1281	7.2

Name: (2S)-2-amino-6-))2-(aminomethyl)-4-azidobutanoyl(amino(hexanoic acid
PrecursorMZ: 309.16513
RT: 6.7889
Spectrum_type: 2
charge: 1
SMILES: C(CCNC(=O)C(CCN=[N+]=[N-])CN)CC(C(=O)O)N
Method: HCD
Collision_energy: [28.333334]
Isolation_window: 4.0
Ion_mode: P
Num Peaks: 32
60.0561	1.1
70.0655	2.1
84.0811	3.0
85.0288	3.4
86.0604	2.3
87.0444	5.5
97.0286	1.2
104.0709	3.0
114.1030	1.0
116.0707	2.9
127.0390	1.9
128.0819	1.7
130.0865	3.6
144.0655	2.2
145.0498	2.2
146.0924	100.0
147.0965	5.1
162.0762	5.9
163.0608	1.1
180.0870	2.1
188.1030	2.7
218.1137	2.5
276.1229	1.1
290.1342	1.3
301.1502	1.2
308.1451	98.7
309.1467	13.0
310.1506	2.7
319.1609	4.7
320.1127	2.3
320.1583	1.6
328.0825	1.4

Name: (2S)-2-azaniumyl-6-(carboxylatomethylazaniumyl)hexanoate
PrecursorMZ: 205.1179
RT: 10.6367
ExactMass: 204.111007
Spectrum_type: 2
charge: 1
Formula: C8H16N2O4
SMILES: C(CC[NH2+]CC(=O)[O-])C[C@@H](C(=O)[O-])[NH3+]
Method: HCD
Collision_energy: [28.333334]
Isolation_window: 4.0
Ion_mode: P
Num Peaks: 39
70.0653	30.9
84.0809	100.0
85.0842	5.7
94.0651	3.8
101.0595	4.0
110.0600	11.7
112.0867	12.5
116.0706	5.8
126.0547	4.0
128.0704	12.1
130.0859	67.4
131.0895	4.2
142.0859	11.7
158.0810	4.0
158.1287	3.6
160.0965	5.9
170.0808	10.4
186.1117	3.2
188.0912	14.8
203.1020	6.7
203.1177	4.5
204.0857	3.2
204.1013	70.0
204.1118	3.8
204.1224	20.9
204.1339	9.7
204.1586	9.2
205.0967	10.7
205.1050	7.7
205.1175	14.5
205.1327	9.1
206.0441	5.7
206.0808	5.3
206.1016	11.5
206.1171	25.0
206.1280	8.8
206.1375	8.1
207.1122	11.9
207.1487	5.2

Name: (2S)-3-(1H-indol-3-yl)-2-((2-(4-methoxyphenoxy)acetyl)amino)propanoate
PrecursorMZ: 369.14441
RT: 5.2988
ExactMass: 367.12939671
Spectrum_type: 2
charge: 1
Formula: C20H19N2O5-
SMILES: COC1=CC=C(C=C1)OCC(=O)N[C@@H](CC2=CNC3=CC=CC=C32)C(=O)[O-]
Method: HCD
Collision_energy: [28.333334]
Isolation_window: 4.0
Ion_mode: P
Num Peaks: 35
83.0859	4.6
86.0968	6.4
89.0600	3.3
107.0493	28.6
114.0917	3.3
126.0914	23.8
130.0652	12.9
152.0707	16.2
157.0761	30.4
158.0602	12.4
159.0917	20.6
166.0865	3.6
175.0866	51.9
176.0901	5.1
176.8755	4.8
185.0708	5.7
194.0812	100.0
195.0845	11.5
203.0815	63.1
204.0656	3.1
204.0855	5.3
212.0917	97.4
213.0952	7.6
221.0920	30.8
222.0958	2.8
307.1442	5.1
325.1755	6.8
351.1340	8.1
367.3677	3.9
368.4250	25.9
369.1445	27.6
369.2016	3.9
369.4282	7.2
370.1287	2.8
370.1490	5.2

Name: (2S)-3-hydroxy-2-(((3S)-3-hydroxydecanoyl)amino)propanoic acid
PrecursorMZ: 258.16929
RT: 2.4258
ExactMass: 275.1732729
Spectrum_type: 2
charge: 1
Formula: C13H25NO5
SMILES: CCCCCCC[C@@H](CC(=O)N[C@@H](CO)C(=O)O)O
Method: HCD
Collision_energy: [28.333334]
Isolation_window: 4.0
Ion_mode: P
Num Peaks: 63
55.0545	2.2
67.0545	1.5
69.0701	1.1
69.4830	1.5
69.5067	1.5
69.5750	1.5
70.0653	48.2
71.0494	1.3
71.0687	2.5
79.0543	1.6
81.0336	1.1
81.0700	1.5
83.0857	3.3
97.1011	7.8
97.4577	1.0
98.0600	13.3
106.0651	1.3
107.0854	2.5
112.0756	13.3
116.0704	100.0
117.0737	4.9
125.0958	4.4
126.0547	8.6
131.0852	1.3
134.0808	4.8
135.0674	5.2
136.0752	2.2
140.0702	8.2
141.0655	1.3
145.1008	1.5
154.0859	1.9
168.1014	1.1
170.0959	4.3
183.0845	1.3
193.0683	3.1
194.1531	1.2
211.1434	4.3
212.1638	3.6
214.0857	1.5
216.1013	5.6
229.1329	2.9
239.0732	2.0
239.1785	1.1
240.0860	1.3
240.1585	20.9
241.1621	2.9
242.0800	1.4
257.0910	1.9
257.1276	8.5
257.1477	2.2
257.1890	2.5
258.0750	3.0
258.1116	2.8
258.1337	1.5
258.1474	1.4
258.1690	18.1
259.0954	4.0
259.1067	5.7
259.1430	2.7
259.1720	2.6
260.0904	6.1
260.1023	1.5
260.1272	1.6

Name: (2S)-3-hydroxy-2-(4-((1R)-1-hydroxy-4-(4-(hydroxy(diphenyl)methyl)piperidin-1-yl)butyl)phenyl)-2-methylpropanoic acid
PrecursorMZ: 518.28969
RT: 4.9316
ExactMass: 517.28282334
Spectrum_type: 2
charge: 1
Formula: C32H39NO5
SMILES: C[C@@](CO)(C1=CC=C(C=C1)[C@@H](CCCN2CCC(CC2)C(C3=CC=CC=C3)(C4=CC=CC=C4)O)O)C(=O)O
Method: HCD
Collision_energy: [28.333334]
Isolation_window: 4.0
Ion_mode: P
Num Peaks: 90
55.5868	0.7
56.0499	0.9
57.4756	0.4
57.5880	5.7
57.6931	0.7
57.6995	1.7
59.0496	0.6
69.1832	0.4
71.0494	0.5
80.0497	1.1
82.0653	0.8
84.0810	4.4
85.0888	1.6
86.0967	0.6
87.0443	1.6
91.0544	2.2
96.0809	0.9
97.4316	0.4
98.0965	0.6
105.0698	0.5
112.8957	0.9
120.0806	0.5
122.0964	0.8
129.0698	2.6
131.0854	11.8
132.0887	1.0
143.0854	2.2
145.1010	1.0
147.0804	1.1
159.1167	0.5
167.0855	1.0
169.1010	0.4
171.1166	50.0
172.1119	0.5
172.1198	5.9
177.0908	0.9
183.0802	0.9
184.0731	2.2
187.1115	2.8
188.1148	0.8
189.1271	11.0
190.1304	1.1
191.0700	2.2
199.1114	0.5
202.1223	0.5
205.1008	0.6
217.1220	1.5
219.1012	2.5
219.1168	0.5
220.1044	1.8
233.1169	8.0
234.1198	2.0
246.1487	0.5
248.1430	1.0
249.1117	4.2
250.1150	3.3
250.1584	0.9
262.1586	6.6
263.1621	1.1
266.1534	2.0
280.1691	18.0
281.1726	2.9
284.1640	5.0
285.1678	1.0
288.1953	0.4
296.1640	0.5
300.1953	1.9
314.1746	1.0
318.2058	0.7
464.2579	2.3
465.2616	0.8
481.2921	1.9
482.2682	5.1
483.2717	1.6
499.2663	1.6
499.3025	0.8
500.2788	13.8
501.2824	4.5
517.2773	7.2
517.3167	2.6
518.2085	0.7
518.2894	100.0
518.3185	1.7
518.3514	0.6
518.3703	0.7
519.2343	12.4
519.2925	31.6
519.3221	0.6
520.2385	0.9
520.2954	1.2

Name: (2S)-4-amino-2-((2-amino-3-phenylpropanoyl)amino)-4-oxobutanoic acid
PrecursorMZ: 280.12889
RT: 5.390025
ExactMass: 279.12190603
Spectrum_type: 2
charge: 1
Formula: C13H17N3O4
SMILES: C1=CC=C(C=C1)CC(C(=O)N[C@@H](CC(=O)N)C(=O)O)N
Method: HCD
Collision_energy: [28.333334]
Isolation_window: 4.0
Ion_mode: P
Num Peaks: 28
70.0653	2.2
72.0811	1.9
87.0555	3.4
120.0807	100.0
121.0841	7.9
127.0501	2.8
133.0606	32.4
136.0755	4.9
165.0657	1.8
261.1225	2.1
262.1183	1.9
263.1022	12.5
279.0928	22.6
279.1327	10.7
279.1694	5.8
279.2057	4.1
280.0960	6.9
280.1163	3.4
280.1288	16.8
280.1535	3.3
280.1655	3.1
280.1877	3.2
281.0901	3.4
281.1127	4.4
281.1300	3.6
281.1489	8.4
281.1836	2.6
282.1319	2.2

Name: (2S)-5-(carbamoylamino)-2-(((3R,4S,5S,6R)-3,4,5-trihydroxy-6-(hydroxymethyl)oxan-2-yl)amino)pentanoic acid
PrecursorMZ: 338.15527
RT: 10.7716
ExactMass: 337.1485147
Spectrum_type: 2
charge: 1
Formula: C12H23N3O8
SMILES: C(C[C@@H](C(=O)O)NC1[C@@H]([C@H]([C@@H]([C@H](O1)CO)O)O)O)CNC(=O)N
Method: HCD
Collision_energy: [28.333334]
Isolation_window: 4.0
Ion_mode: P
Num Peaks: 9
70.0653	17.7
96.0445	23.9
144.0653	36.8
159.0762	100.0
162.0759	35.2
176.1027	33.9
180.0863	90.8
338.1551	45.6
338.3408	42.7

Name: (2S)-5-(diaminomethylideneamino)-2-((5-oxopyrrolidine-2-carbonyl)amino)pentanoic acid
PrecursorMZ: 286.15079
RT: 9.323466666666667
ExactMass: 285.1437041
Spectrum_type: 2
charge: 1
Formula: C11H19N5O4
SMILES: C1CC(=O)NC1C(=O)N[C@@H](CCCN=C(N)N)C(=O)O
Method: HCD
Collision_energy: [28.333334]
Isolation_window: 4.0
Ion_mode: P
Num Peaks: 53
60.0561	3.6
70.0655	21.5
72.0812	5.2
84.0447	7.3
84.0811	2.7
110.0715	1.6
112.0871	8.9
113.0712	1.8
114.0915	1.5
114.1027	6.0
115.0867	7.0
116.0708	21.3
124.0394	1.5
124.0871	1.6
129.0659	1.6
131.1292	11.5
139.0869	1.6
141.0658	2.6
152.0819	1.7
154.0611	9.5
157.1084	2.0
158.0924	4.2
170.0814	2.0
170.0923	4.3
172.0719	1.6
175.1189	4.3
181.1083	3.8
182.1118	1.6
209.0922	2.1
212.1029	1.7
224.1022	1.8
226.1188	2.7
227.1026	10.9
240.1344	1.9
251.1136	3.2
252.0979	5.4
268.1406	4.9
269.1245	6.8
270.1334	17.6
284.1356	5.3
285.1434	11.8
285.1564	8.2
285.1787	1.8
286.1277	9.5
286.1511	100.0
287.1235	6.0
287.1362	6.7
287.1551	10.8
287.2330	1.6
288.1072	3.5
288.1211	3.8
288.1440	11.3
288.1668	15.1

Name: (2S)-5-amino-2-(((2S)-2-amino-3-hydroxybutanoyl)amino)-5-oxopentanoic acid
PrecursorMZ: 248.12369
RT: 7.175875
ExactMass: 247.11682065
Spectrum_type: 2
charge: 1
Formula: C9H17N3O5
SMILES: CC([C@@H](C(=O)N[C@@H](CCC(=O)N)C(=O)O)N)O
Method: HCD
Collision_energy: [28.333334]
Isolation_window: 4.0
Ion_mode: P
Num Peaks: 28
74.0603	84.2
83.0605	26.2
84.0446	53.2
87.0443	38.5
101.0710	16.9
111.0553	17.1
119.0814	17.0
120.0654	57.6
130.0497	92.8
140.0703	12.3
147.0762	100.0
153.0655	16.4
170.0446	29.4
212.1024	17.0
213.0866	25.1
230.1129	82.7
230.1381	13.3
231.0971	53.2
247.1284	30.6
248.0917	17.4
248.1120	21.6
248.1248	53.8
248.1392	13.9
248.1853	12.0
249.0862	32.0
249.1229	22.9
250.1067	47.5
250.1276	15.7

Name: (2S)-5-amino-2-(((2S)-2-azaniumyl-3-hydroxypropanoyl)amino)-5-oxopentanoate
PrecursorMZ: 234.10783
RT: 7.669
ExactMass: 233.10117059
Spectrum_type: 2
charge: 1
Formula: C8H15N3O5
SMILES: C(CC(=O)N)[C@@H](C(=O)[O-])NC(=O)[C@H](CO)[NH3+]
Method: HCD
Collision_energy: [28.333334]
Isolation_window: 4.0
Ion_mode: P
Num Peaks: 80
60.0448	100.0
70.0290	9.6
70.0654	3.3
72.0811	9.2
74.0603	9.8
81.0337	3.6
84.0446	13.2
84.0810	16.5
85.0844	4.1
86.0966	5.7
96.0444	4.1
98.0602	4.6
101.0710	5.6
102.0549	2.7
105.0659	30.6
106.0498	3.0
120.0807	4.1
121.0886	5.5
124.0392	10.5
126.0548	6.4
128.0704	2.7
129.0657	7.6
129.1019	4.3
130.0497	57.9
130.0860	4.5
130.1052	3.8
138.0911	9.3
140.1068	14.1
144.0650	2.8
147.0762	68.2
148.0794	3.2
151.0990	8.1
152.1022	3.1
164.0337	2.6
170.0445	17.0
170.0806	3.1
171.0760	5.8
181.0604	4.8
186.1119	2.6
188.0914	2.9
188.1432	5.0
189.0863	4.3
189.1017	2.7
199.0709	16.7
200.0545	2.5
214.1071	3.9
215.0809	3.4
216.0858	8.9
216.0973	11.5
216.1225	41.9
217.0814	33.3
217.0967	7.7
217.1259	3.8
232.0635	7.4
232.0968	13.0
232.1168	13.4
232.1321	22.3
232.1534	5.7
232.1730	3.3
232.1902	4.1
233.0671	4.8
233.0910	27.2
233.1001	2.9
233.1278	35.8
233.1648	11.8
234.0585	6.7
234.0761	22.0
234.0965	15.9
234.1105	80.0
234.1228	8.2
234.1321	13.0
234.1477	6.9
235.1068	57.3
235.1164	5.0
235.1436	37.4
236.0906	18.5
236.1020	3.8
236.1114	3.7
236.1270	23.0
236.1482	3.1

Name: (2S,3R)-2-Amino-1,3-docosanediol
PrecursorMZ: 358.3674
RT: 4.1069
ExactMass: 357.360679742
Spectrum_type: 2
charge: 1
Formula: C22H47NO2
SMILES: CCCCCCCCCCCCCCCCCCC[C@H]([C@H](CO)N)O
Method: HCD
Collision_energy: [28.333334]
Isolation_window: 4.0
Ion_mode: P
Num Peaks: 9
60.0448	100.0
83.0857	24.5
95.0857	20.4
126.0912	40.5
310.3456	23.5
340.3566	94.5
341.3598	25.8
358.3672	96.5
359.3701	20.6

Name: (2S,3R,4R,5S,6S)-2-(hydroxymethyl)-6-((1S,2R,4R,6S,7R,8S,9R,12R,13R,16R,18R)-5',7,9,13-tetramethylspiro(5-oxapentacyclo(10.8.0.02,9.04,8.013,18)icosane-6,2'-oxane)-16-yl)oxyoxane-3,4,5-triol
PrecursorMZ: 579.38873
RT: 6.7814
ExactMass: 578.38186868
Spectrum_type: 2
charge: 1
Formula: C33H54O8
SMILES: C[C@@H]1[C@@H]2[C@@H](C[C@H]3[C@]2(CC[C@@H]4[C@@H]3CC[C@H]5[C@]4(CC[C@H](C5)O[C@@H]6[C@H]([C@@H]([C@H]([C@@H](O6)CO)O)O)O)C)C)O[C@@]17CCC(CO7)C
Method: HCD
Collision_energy: [28.333334]
Isolation_window: 4.0
Ion_mode: P
Num Peaks: 23
69.0702	12.8
85.0286	12.2
97.0285	5.1
97.0649	5.9
107.0856	4.5
109.0649	5.7
115.0754	17.4
127.0388	4.3
135.1166	3.8
145.0493	3.8
147.1168	7.6
159.1167	4.5
161.1323	40.3
162.1355	4.5
167.1063	6.6
255.2102	38.0
256.2135	7.5
273.2206	100.0
274.2242	17.2
417.3353	38.5
418.3389	8.7
579.3878	35.5
580.3917	10.0

Name: (2S,3S)-2-(((2S)-2,4-diamino-4-oxobutanoyl)amino)-3-hydroxybutanoic acid
PrecursorMZ: 234.10811
RT: 7.054233333333333
ExactMass: 233.10117059
Spectrum_type: 2
charge: 1
Formula: C8H15N3O5
SMILES: C[C@@H]([C@@H](C(=O)O)NC(=O)[C@H](CC(=O)N)N)O
Method: HCD
Collision_energy: [28.333334]
Isolation_window: 4.0
Ion_mode: P
Num Peaks: 63
70.0290	2.2
72.0810	37.8
73.0844	3.7
74.0603	4.1
81.0449	11.1
87.0442	3.0
87.0554	21.2
96.0445	6.6
102.0549	4.1
108.0443	17.3
111.0440	4.8
120.0654	7.7
124.0391	100.0
125.0425	6.3
126.0547	13.5
126.0912	3.9
127.0500	32.0
130.0496	19.7
133.0605	26.2
136.0389	5.6
136.0615	2.5
140.0341	2.4
144.1018	5.8
148.0502	2.4
150.0660	2.2
154.0496	7.2
157.0605	5.2
160.0622	2.4
171.0760	4.6
174.0781	2.2
175.0710	5.5
182.0443	2.2
185.0704	3.9
186.1121	2.3
188.0702	11.1
188.0813	30.9
189.0847	2.9
190.0971	3.1
190.1069	2.3
199.0709	3.8
200.0547	8.5
202.0733	3.8
203.0806	2.3
215.1021	2.6
216.0651	6.8
216.0761	8.9
216.0968	6.1
217.0812	12.4
218.0919	28.6
232.1176	8.1
233.0914	38.3
234.0755	20.9
234.0867	50.2
234.0979	18.9
234.1115	6.6
234.1334	4.1
234.1848	2.1
235.0701	7.3
235.0904	4.0
235.1070	17.8
236.0912	13.7
236.1023	45.5
236.1266	4.2

Name: (2S,3S)-2-((2-amino-3-carboxypropanoyl)amino)-3-methylpentanoic acid
PrecursorMZ: 247.12861
RT: 7.0895
ExactMass: 246.12157168
Spectrum_type: 2
charge: 1
Formula: C10H18N2O5
SMILES: CC[C@H](C)[C@@H](C(=O)O)NC(=O)C(CC(=O)O)N
Method: HCD
Collision_energy: [28.333334]
Isolation_window: 4.0
Ion_mode: P
Num Peaks: 96
55.0546	0.6
69.0338	0.9
69.0702	3.8
70.0291	0.9
70.0654	4.8
72.0811	24.2
73.0651	1.8
73.0844	1.2
74.0239	0.5
74.0603	0.8
81.0338	1.6
84.0446	7.9
84.0810	7.0
86.0603	24.3
86.0966	100.0
86.1020	0.7
87.1000	5.3
88.0395	3.2
90.0915	2.8
98.0601	3.2
99.0441	3.4
100.0394	0.5
102.0550	5.8
112.0758	1.1
113.0709	1.9
114.0550	1.9
116.0706	2.8
117.0546	4.7
118.0862	11.0
119.0896	0.7
121.0648	0.7
125.0597	1.1
126.0550	0.9
128.0705	2.0
130.0497	2.3
130.0861	20.4
131.0814	2.5
131.0894	1.0
132.1018	5.3
134.0447	1.3
138.0911	0.8
141.1021	2.2
142.0860	1.3
144.0654	1.1
144.1017	2.9
146.0600	1.4
147.0761	0.7
148.0602	5.2
154.0497	0.9
155.0814	0.7
155.1178	0.9
156.1019	0.9
159.0762	0.7
166.0861	5.4
171.0761	0.8
182.0810	0.6
183.1125	13.0
184.0966	3.2
184.1158	1.4
185.0919	0.6
187.1073	1.1
188.0704	3.0
189.0545	1.5
200.0915	0.6
200.1276	1.1
201.1230	9.3
202.0861	0.6
202.1070	4.7
202.1264	0.9
205.1181	0.8
211.1072	1.0
212.0914	2.2
228.0865	0.9
229.0814	1.2
229.1178	9.4
230.1020	16.2
230.1210	1.0
231.1054	0.6
245.1125	0.7
246.0758	2.3
246.0969	2.0
246.1085	1.1
246.1126	0.6
246.1332	1.5
246.1447	0.9
247.0920	9.3
247.1082	0.9
247.1283	10.8
248.0913	10.9
248.1117	2.3
248.1229	9.3
248.1299	0.6
248.1322	0.8
248.1488	0.7
249.0858	3.4
249.1078	0.7

Name: (2S,3S)-2-((2-azaniumylacetyl)amino)-3-methylpentanoate
PrecursorMZ: 189.12336
RT: 6.1161
ExactMass: 188.11609238
Spectrum_type: 2
charge: 1
Formula: C8H16N2O3
SMILES: CC[C@H](C)[C@@H](C(=O)[O-])NC(=O)C[NH3+]
Method: HCD
Collision_energy: [28.333334]
Isolation_window: 4.0
Ion_mode: P
Num Peaks: 93
56.0499	0.7
58.0656	1.8
59.0496	1.7
60.0449	1.2
69.0703	2.1
70.0655	2.9
72.0812	20.5
73.0845	1.0
74.0604	5.3
75.0557	12.8
76.0397	0.8
81.0339	1.3
82.0655	0.8
84.0448	1.3
84.0811	5.0
85.0287	0.9
86.0603	1.4
86.0967	100.0
87.1001	4.9
88.0396	1.9
97.3987	1.0
98.0966	3.3
100.0759	0.6
101.0599	11.1
102.0552	3.1
102.0916	1.1
109.0762	7.5
112.0759	5.5
112.1123	1.0
114.0916	1.8
116.0708	2.0
118.0653	5.1
118.0864	16.9
120.0810	1.1
126.0915	1.9
126.1278	3.9
128.0707	2.0
129.0741	0.7
130.0863	4.8
130.1227	2.5
132.1019	80.8
133.1052	4.5
142.0651	1.8
142.0863	33.7
142.1227	1.7
143.0897	2.8
143.1179	80.0
144.0808	7.8
144.1019	44.7
144.1211	5.8
144.1383	15.5
145.0496	8.6
145.0606	0.9
145.1051	1.7
146.0600	34.4
147.0634	3.2
158.0813	3.8
159.1130	1.1
160.0756	0.8
161.0711	0.7
162.0913	0.7
169.0972	5.3
170.0601	2.8
170.0811	2.4
170.1005	1.0
171.1128	1.8
172.0505	2.5
172.0970	0.7
172.1331	2.6
187.0865	5.6
187.0908	1.8
187.1077	2.6
187.1439	1.7
187.1807	1.1
188.0706	29.6
188.0916	10.9
188.1062	4.1
188.1279	3.7
189.0658	1.6
189.0741	4.0
189.1023	3.8
189.1233	5.8
189.1382	1.9
190.0498	5.0
190.0609	1.0
190.0862	5.3
190.0977	1.5
190.1073	16.3
190.1224	1.6
190.1436	6.7
191.0815	11.0
191.1105	0.7
191.1180	2.2

Name: (2S,3S)-2-aminoheptadecane-1,3-diol
PrecursorMZ: 288.28942
RT: 4.813
ExactMass: 287.282429423
Spectrum_type: 2
charge: 1
Formula: C17H37NO2
SMILES: CCCCCCCCCCCCCC[C@@H]([C@H](CO)N)O
Method: HCD
Collision_energy: [28.333334]
Isolation_window: 4.0
Ion_mode: P
Num Peaks: 70
55.0546	3.2
60.0448	100.0
67.0546	13.1
69.0703	9.3
70.0655	3.2
71.0495	4.4
79.0545	3.1
81.0702	24.8
83.0858	11.4
85.0650	2.8
93.0701	5.8
95.0857	24.3
97.0650	8.7
97.1014	6.9
99.0805	3.1
105.0700	2.8
107.0857	3.7
108.0445	7.4
109.1013	14.9
112.8957	4.0
119.0856	3.7
121.0648	2.7
121.1013	4.4
122.0601	15.1
123.1168	4.3
126.0914	3.1
131.0854	3.5
133.1011	4.2
135.0803	2.7
135.1167	4.4
136.0753	3.4
138.0912	23.9
140.1069	7.9
145.1010	3.4
147.1165	3.1
149.1325	4.5
150.0549	23.5
152.0705	5.0
159.0803	2.8
159.1167	4.3
160.0756	3.4
164.0706	11.2
195.1377	3.6
202.0860	2.7
226.2525	3.1
230.1172	6.9
240.2683	15.7
244.0963	2.8
244.1330	5.9
251.2004	3.2
252.2684	10.0
270.1334	6.1
270.2788	94.3
271.1688	5.6
271.2822	16.9
272.1275	13.6
287.1381	7.0
287.1625	3.1
287.2001	6.5
288.1214	6.9
288.1441	18.5
288.2893	61.1
289.1176	7.9
289.1545	32.1
289.1787	11.4
289.2153	6.5
289.2927	12.7
290.1016	4.4
290.1367	6.0
290.1481	3.0

Name: (2S,3S)-2-azaniumyl-3-hydroxypentanoate
PrecursorMZ: 134.08116
RT: 9.172
ExactMass: 133.07389321
Spectrum_type: 2
charge: 1
Formula: C5H11NO3
SMILES: CC[C@@H]([C@@H](C(=O)[O-])[NH3+])O
Method: HCD
Collision_energy: [28.333334]
Isolation_window: 4.0
Ion_mode: P
Num Peaks: 18
70.0655	16.4
71.0494	12.7
72.0811	13.9
74.0239	20.6
74.0604	11.0
87.1000	7.0
88.0395	13.9
88.0759	100.0
89.0792	5.0
90.0551	17.0
98.0602	11.5
116.0706	39.1
134.0634	10.4
134.0711	6.9
134.0810	40.0
134.0963	27.7
135.0915	10.0
136.0615	6.0

Name: (2S,3S)-3-hydroxy-2-(((2S)-pyrrolidin-2-yl)formamido)butanoic acid
PrecursorMZ: 217.11802
RT: 6.9449
ExactMass: 216.111007
Spectrum_type: 2
charge: 1
Formula: C9H16N2O4
SMILES: C[C@@H]([C@@H](C(=O)O)NC(=O)[C@@H]1CCCN1)O
Method: HCD
Collision_energy: [28.333334]
Isolation_window: 4.0
Ion_mode: P
Num Peaks: 28
70.0654	42.9
72.0810	28.2
74.0603	21.4
84.0446	48.5
102.0549	26.7
109.0759	73.4
116.0705	62.5
130.0496	31.3
144.0805	22.2
151.1057	17.9
154.0971	22.6
170.1171	20.3
170.1537	18.7
186.1122	20.8
197.1110	16.4
198.1125	36.4
199.1073	91.9
215.1020	78.4
216.0651	29.6
216.0861	17.1
216.1069	28.0
216.1225	100.0
216.1588	29.3
217.0965	26.3
217.1179	56.5
218.0806	23.3
218.0919	21.0
218.1004	24.3

Name: (2S,3S,4R)-2-Carboxy-4-(1-methylethenyl)-3-pyrrolidineacetic acid
PrecursorMZ: 214.10728
RT: 7.498
ExactMass: 213.10010796
Spectrum_type: 2
charge: 1
Formula: C10H15NO4
SMILES: CC(=C)[C@@H]1CN[C@@H]([C@H]1CC(=O)O)C(=O)O
Method: HCD
Collision_energy: [28.333334]
Isolation_window: 4.0
Ion_mode: P
Num Peaks: 45
70.0655	38.4
72.0811	33.2
81.0701	6.1
84.0447	26.4
86.0967	6.9
93.0701	6.2
108.0809	7.6
114.0914	12.7
116.0708	89.8
121.0649	91.4
122.0683	10.3
129.9957	27.2
138.0914	8.9
149.0598	6.5
149.0708	12.1
152.0706	8.1
154.0864	46.4
166.0862	9.5
167.0704	29.2
167.0815	22.7
168.0657	13.5
168.1018	16.1
169.0860	6.1
170.0811	6.2
178.0862	7.1
185.0808	11.1
194.0813	16.3
195.0650	7.1
195.0763	15.5
196.0603	6.3
196.0968	47.0
198.1124	26.0
212.0919	16.1
213.0327	50.7
213.0759	7.5
213.0869	27.0
213.1235	18.4
214.1073	100.0
214.1436	13.5
215.0701	6.0
215.0821	6.2
215.1117	8.9
215.1384	12.7
216.0867	6.7
216.1229	11.5

Name: (2S,4R)-4-deuterio-1-((2-methylpropan-2-yl)oxycarbonyl)pyrrolidine-2-carboxylic acid
PrecursorMZ: 216.12286
RT: 7.2082999999999995
ExactMass: 216.12203477
Spectrum_type: 2
charge: 1
Formula: C10H17NO4
SMILES: [H][C@]1(C[C@H](N(C1)C(=O)OC(C)(C)C)C(=O)O)[2H]
Method: HCD
Collision_energy: [28.333334]
Isolation_window: 4.0
Ion_mode: P
Num Peaks: 49
55.0547	3.0
70.0655	34.6
72.0811	20.2
74.0604	10.9
83.0494	2.7
84.0447	1.8
84.0810	2.7
86.0602	1.8
90.0551	2.1
101.0598	22.7
109.0761	6.2
114.0549	1.7
116.0706	100.0
117.0739	4.0
124.0757	1.8
130.0863	1.8
139.0865	1.6
144.0807	2.3
152.0705	2.3
155.0814	2.0
156.1017	3.1
169.0971	4.4
170.0711	1.9
170.0811	4.4
170.1175	5.2
171.0762	1.7
181.0969	2.0
197.0916	2.6
198.0660	1.5
198.0758	10.3
198.1123	5.3
199.1075	12.2
200.1027	2.0
201.0866	1.7
215.0816	2.2
215.0924	27.9
215.1025	19.5
215.1386	11.3
216.0865	1.4
216.0967	4.3
216.1055	1.4
216.1228	54.5
216.1329	3.1
216.1580	2.3
217.0817	1.6
217.0972	5.5
217.1176	25.9
217.1262	3.8
218.1016	1.5

Name: (2S,5S)-5-deuteriopyrrolidine-2-carboxylic acid
PrecursorMZ: 116.0707
RT: 6.5843
ExactMass: 116.069605276
Spectrum_type: 2
charge: 1
Formula: C5H9NO2
SMILES: [H][C@@]1(CC[C@H](N1)C(=O)O)[2H]
Method: HCD
Collision_energy: [28.333334]
Isolation_window: 4.0
Ion_mode: P
Num Peaks: 9
58.0655	12.0
70.0654	100.0
71.0688	4.9
72.0811	7.0
114.0913	12.9
115.0947	2.6
116.0706	21.9
116.1069	14.1
118.0862	15.5

Name: (2Z,4E,7R)-11-((2S,3S)-3-(hydroxymethyl)-4-oxooxetan-2-yl)-3,5,7-trimethylundeca-2,4-dienoic acid
PrecursorMZ: 325.2009
RT: 3.1044
ExactMass: 324.19367399
Spectrum_type: 2
charge: 1
Formula: C18H28O5
SMILES: C[C@H](CCCC[C@H]1[C@@H](C(=O)O1)CO)C/C(=C/C(=C\C(=O)O)/C)/C
Method: HCD
Collision_energy: [28.333334]
Isolation_window: 4.0
Ion_mode: P
Num Peaks: 23
69.0702	46.4
81.0702	55.8
93.0702	40.1
95.0858	55.9
107.0856	41.1
114.0551	46.6
123.0805	36.0
133.1013	35.6
139.9145	41.3
149.0959	42.2
182.1178	86.8
234.0756	47.5
261.1848	46.0
266.1022	78.2
271.1691	41.4
273.1849	44.6
284.1134	41.3
289.1793	72.0
291.1954	100.0
294.1194	61.1
307.1905	90.1
325.1775	57.7
325.2003	47.4

Name: (2r)-2-(((2r)-2-(((2r)-2-Hydroxypropyl)oxy)propyl)oxy)propan-1-Ol
PrecursorMZ: 193.14335
RT: 1.54505
ExactMass: 192.13615911
Spectrum_type: 2
charge: 1
Formula: C9H20O4
SMILES: C[C@H](CO)OC[C@@H](C)OC[C@@H](C)O
Method: HCD
Collision_energy: [28.333334]
Isolation_window: 4.0
Ion_mode: P
Num Peaks: 12
57.0339	4.8
59.0496	100.0
60.0529	3.8
97.4321	3.9
117.0910	4.8
149.0233	3.9
152.0705	10.2
192.0624	6.6
192.0876	4.0
192.1017	5.1
194.0809	6.9
194.1173	7.9

Name: (3,4-Diacetyloxy-6-(2,4-dioxopyrimidin-1-yl)-5-(phenylmethoxycarbonylamino)oxan-2-yl)methyl acetate
PrecursorMZ: 556.15476
RT: 4.9127
ExactMass: 533.16455869
Spectrum_type: 2
charge: 1
Formula: C24H27N3O11
SMILES: CC(=O)OCC1C(C(C(C(O1)N2C=CC(=O)NC2=O)NC(=O)OCC3=CC=CC=C3)OC(=O)C)OC(=O)C
Method: HCD
Collision_energy: [28.333334]
Isolation_window: 4.0
Ion_mode: P
Num Peaks: 31
69.0338	0.9
69.6673	0.3
70.0654	1.0
72.0810	0.4
81.0337	23.8
82.0370	1.1
86.0966	0.4
99.0441	0.7
101.0708	0.3
127.0500	2.2
136.0507	0.8
136.0532	0.6
136.0575	1.0
136.0616	100.0
136.0703	0.5
136.0724	0.6
136.0757	0.3
136.1130	0.3
137.0587	1.6
137.0649	4.2
161.0594	0.4
200.1391	0.8
207.0760	2.2
225.0865	1.8
228.1337	0.5
230.1128	1.7
323.0629	1.8
327.2019	0.3
332.0747	0.6
556.1539	4.0
557.1566	0.9

Name: (3,8)-Decadienoylcarnitine
PrecursorMZ: 312.21664
RT: 5.5466
ExactMass: 311.20965841
Spectrum_type: 2
charge: 1
Formula: C17H29NO4
SMILES: C/C=C/CCC/C=C/CC(=O)OC(CC(=O)[O-])C[N+](C)(C)C
Method: HCD
Collision_energy: [28.333334]
Isolation_window: 4.0
Ion_mode: P
Num Peaks: 52
60.0812	12.2
67.0546	1.9
70.0655	4.4
72.0811	2.0
81.0337	2.9
81.0702	3.3
84.0811	2.5
85.0287	100.0
86.0320	4.6
86.0967	2.8
93.0701	13.8
95.0857	18.9
103.0391	2.2
114.0661	3.4
116.0707	2.8
120.0808	5.6
123.1168	17.6
124.1202	1.8
130.0499	2.3
130.0862	1.8
131.0339	2.2
144.1018	3.3
151.1117	14.6
166.0532	6.5
169.1223	2.0
180.1130	20.2
198.1235	6.4
243.1449	19.0
249.1229	6.2
253.1431	16.6
254.1468	2.4
267.1816	2.4
294.1807	1.9
295.1763	1.9
311.1048	12.2
311.1230	3.9
311.1365	3.1
311.1590	7.2
311.1974	3.7
311.2060	2.6
312.1318	3.0
312.1573	3.2
312.1922	6.4
312.2164	97.4
312.3620	12.2
313.1200	7.4
313.1380	2.5
313.1879	39.2
313.2195	18.0
313.3657	2.3
314.1363	2.6
314.1905	2.9

Name: (3-Hydroxy-1-methoxy-1-oxopropan-2-yl)azanium
PrecursorMZ: 102.05509
RT: 3.1688
ExactMass: 120.066068181
Spectrum_type: 2
charge: 1
Formula: C4H10NO3+
SMILES: COC(=O)C(CO)[NH3+]
Method: HCD
Collision_energy: [28.333334]
Isolation_window: 4.0
Ion_mode: P
Num Peaks: 6
60.0447	31.0
70.0290	35.2
74.0603	35.9
88.0395	68.2
100.0757	19.4
102.0550	100.0

Name: (3-carboxy-2-((5E,7Z,9Z,11E,13E)-hexadeca-5,7,9,11,13-pentaenoyl)oxypropyl)-trimethylazanium
PrecursorMZ: 390.26295
RT: 2.1341
ExactMass: 390.26443363
Spectrum_type: 2
charge: 1
Formula: C23H36NO4+
SMILES: CC/C=C/C=C/C=C\C=C/C=C/CCCC(=O)OC(CC(=O)O)C[N+](C)(C)C
Method: HCD
Collision_energy: [28.333334]
Isolation_window: 4.0
Ion_mode: P
Num Peaks: 11
60.0810	7.1
79.0544	5.6
85.0285	100.0
93.0698	5.1
105.0696	6.0
119.0855	6.7
131.0851	6.6
390.2624	42.9
390.2808	16.4
391.2618	14.0
392.2964	28.0

Name: (3R)-2,3,4,9-tetrahydro-1H-pyrido(3,4-b)indol-2-ium-3-carboxylate
PrecursorMZ: 217.09699
RT: 7.041
ExactMass: 216.08987763
Spectrum_type: 2
charge: 1
Formula: C12H12N2O2
SMILES: C1[C@@H]([NH2+]CC2=C1C3=CC=CC=C3N2)C(=O)[O-]
Method: HCD
Collision_energy: [28.333334]
Isolation_window: 4.0
Ion_mode: P
Num Peaks: 49
69.6443	0.6
70.0654	8.8
72.0811	3.6
74.0239	4.3
74.0604	1.1
84.0809	1.0
90.0552	0.6
109.0762	0.7
116.0706	4.0
121.0647	3.5
130.0650	1.0
132.0806	1.4
133.0759	0.6
137.0707	0.8
144.0686	0.7
144.0806	100.0
144.0925	0.6
145.0755	0.7
145.0839	11.0
156.0806	1.0
161.0709	0.7
171.0914	3.2
173.1071	2.0
179.0811	1.3
188.0702	1.5
197.0916	1.5
198.0956	0.8
199.0714	0.9
199.0862	1.6
199.1073	0.8
200.0703	0.7
200.1028	1.0
201.0212	2.5
201.0865	0.6
215.0811	0.6
215.1021	1.9
216.0652	2.6
216.0855	1.2
216.1014	1.2
216.1225	2.8
217.0967	16.5
217.1174	3.0
218.0814	2.5
218.0918	0.9
218.1011	2.9
218.1167	1.9
218.1382	0.6
219.0753	0.8
219.1124	1.5

Name: (3R)-2-((4R)-3-amino-4,5-dihydroxy-6-(hydroxymethyl)oxan-2-yl)oxy-6,8-dioxabicyclo(3.2.1)octane-3,4-diol
PrecursorMZ: 324.12834
RT: 7.3769
ExactMass: 323.12163125
Spectrum_type: 2
charge: 1
Formula: C12H21NO9
SMILES: C1C2C([C@@H](C(C(O1)O2)O)O)OC3C([C@H](C(C(O3)CO)O)O)N
Method: HCD
Collision_energy: [28.333334]
Isolation_window: 4.0
Ion_mode: P
Num Peaks: 41
61.0288	5.3
69.0338	27.2
73.0287	2.3
81.0337	5.7
83.0494	18.1
85.0286	11.7
91.0391	12.5
97.0285	6.2
99.0442	69.9
100.0475	3.6
101.0598	1.4
103.0390	1.8
117.0546	10.0
126.0914	3.0
127.0389	18.4
127.0498	1.6
128.0423	1.4
141.0545	3.2
145.0494	100.0
146.0527	6.2
163.0599	5.7
163.0865	4.5
165.0543	2.0
181.0496	1.7
181.0969	48.9
182.1003	3.4
187.0598	1.6
211.0598	5.3
229.0705	2.4
241.0703	3.5
243.0859	1.4
253.0703	1.4
271.0806	4.6
289.0911	3.9
307.1277	2.2
323.1216	2.5
324.1078	1.8
324.1281	29.7
324.1909	6.6
325.1012	1.8
325.1362	6.6

Name: (3R)-2-amino-3-hydroxybutanoic acid
PrecursorMZ: 120.06556
RT: 8.9895
ExactMass: 119.058243149
Spectrum_type: 2
charge: 1
Formula: C4H9NO3
SMILES: C[C@H](C(C(=O)O)N)O
Method: HCD
Collision_energy: [28.333334]
Isolation_window: 4.0
Ion_mode: P
Num Peaks: 19
56.0499	48.6
57.0339	2.3
57.0532	1.9
58.0655	17.7
59.0733	15.4
69.5828	2.4
69.8274	1.9
72.0811	10.1
74.0603	100.0
75.0637	3.8
84.0446	3.9
102.0550	26.2
104.0707	4.3
118.0862	89.1
119.0895	12.5
120.0477	2.7
120.0655	4.8
120.0808	3.8
122.0811	2.8

Name: (3R)-3-(1H-imidazol-5-ylmethyl)-2,3,6,7,8,8a-hexahydropyrrolo(1,2-a)pyrazine-1,4-dione
PrecursorMZ: 235.11877
RT: 5.2685
ExactMass: 234.1116757
Spectrum_type: 2
charge: 1
Formula: C11H14N4O2
SMILES: C1CC2C(=O)N[C@@H](C(=O)N2C1)CC3=CN=CN3
Method: HCD
Collision_energy: [28.333334]
Isolation_window: 4.0
Ion_mode: P
Num Peaks: 89
69.6389	0.4
70.0654	6.9
74.0603	2.2
81.0337	2.7
82.0527	1.4
83.0606	0.6
86.0966	2.2
95.0605	1.3
97.4584	0.6
98.0600	0.9
110.0713	16.5
111.0746	0.9
114.0913	0.9
120.0806	0.6
121.0646	0.6
126.0549	0.4
132.1019	0.7
138.0660	1.5
146.0598	2.1
148.0391	2.6
149.0473	0.9
149.0707	0.7
150.0548	1.4
158.0600	0.5
160.0754	0.8
162.0547	0.9
162.0773	1.1
162.1024	4.2
163.0751	0.5
163.1057	0.6
166.0496	0.8
166.0609	4.0
170.0599	0.5
172.0754	13.3
173.0785	0.9
174.0547	4.0
175.1115	0.7
176.0706	0.7
182.0597	1.8
188.0703	1.1
189.0780	0.8
189.1018	0.5
190.0531	0.6
190.0859	5.5
190.0971	1.2
194.0669	1.3
200.0702	12.9
201.0737	0.7
207.1237	3.8
216.0766	0.5
216.1226	2.5
217.0604	0.8
217.0968	1.7
217.1079	1.7
217.1215	0.7
218.0807	19.3
218.0895	0.5
218.0921	0.5
219.0759	1.0
219.0844	1.1
219.1129	0.5
233.1277	0.7
234.0758	0.9
234.0871	1.9
234.0965	0.4
234.1122	1.6
234.1233	0.6
234.1342	7.8
234.1480	1.2
234.1596	0.5
234.2062	0.5
235.0937	0.6
235.1077	6.1
235.1185	100.0
235.1320	1.5
235.1379	1.3
235.1424	0.8
236.0913	37.0
236.1030	1.3
236.1111	0.7
236.1222	9.6
236.1269	0.8
236.1753	0.6
237.0863	2.1
237.0948	2.0
237.1227	2.1
237.1342	2.1
237.1479	0.9
237.1593	0.5

Name: (3R,4R,5R,6R)-6-(hydroxymethyl)-3-(prop-1-ynylamino)oxane-2,4,5-triol
PrecursorMZ: 218.10236
RT: 5.555
ExactMass: 217.09502258
Spectrum_type: 2
charge: 1
Formula: C9H15NO5
SMILES: CC#CN[C@@H]1[C@H]([C@H]([C@H](OC1O)CO)O)O
Method: HCD
Collision_energy: [28.333334]
Isolation_window: 4.0
Ion_mode: P
Num Peaks: 55
62.0606	6.9
69.0339	14.9
74.0605	75.7
81.0339	26.4
84.0448	5.8
85.0288	7.8
86.0604	46.1
86.0968	5.4
95.0606	4.8
97.0287	28.2
98.0603	5.5
99.0444	9.0
110.0602	6.8
111.0553	6.2
112.0760	4.9
114.0664	10.2
126.0551	5.9
126.0917	5.3
127.0392	23.0
128.0707	9.6
140.0708	14.9
147.0555	12.2
150.1028	5.2
152.0708	29.5
156.0770	11.0
158.0814	14.1
160.0971	17.9
160.9015	14.4
169.0973	10.3
170.0813	5.9
172.0969	5.0
176.8756	7.6
182.0813	4.7
189.1136	12.8
198.1126	4.7
198.1321	5.2
200.0919	84.5
200.1279	5.2
201.0946	5.7
201.1037	5.9
216.0990	13.4
216.1230	18.3
217.0968	11.7
217.1183	11.7
218.0841	24.1
218.1031	100.0
218.1176	18.7
218.1290	6.5
218.1381	14.4
219.1129	39.7
219.1240	28.7
220.0968	41.1
220.1080	11.6
220.1188	97.6
220.1331	28.8

Name: (3R,5R)-piperidin-1-ium-3,4,5-triol
PrecursorMZ: 134.08103
RT: 10.0619
ExactMass: 134.08171824
Spectrum_type: 2
charge: 1
Formula: C5H12NO3+
SMILES: C1[C@H](C([C@@H](C[NH2+]1)O)O)O
Method: HCD
Collision_energy: [28.333334]
Isolation_window: 4.0
Ion_mode: P
Num Peaks: 9
68.0498	48.3
69.0338	42.9
80.0497	15.8
98.0600	69.0
116.0705	74.8
134.0630	71.1
134.0809	100.0
134.0961	26.4
135.0914	22.3

Name: (3R,5S,7R,8R,9S,10S,12S,13R,14S,17R)-17-((2R,5S)-5,7-dihydroxyheptan-2-yl)-10,13-dimethyl-2,3,4,5,6,7,8,9,11,12,14,15,16,17-tetradecahydro-1H-cyclopenta(a)phenanthrene-3,7,12-triol
PrecursorMZ: 403.31975
RT: 1.4893
ExactMass: 438.33452456
Spectrum_type: 2
charge: 1
Formula: C26H46O5
SMILES: C[C@H](CC[C@@H](CCO)O)[C@H]1CC[C@@H]2[C@@]1([C@H](C[C@H]3[C@H]2[C@@H](C[C@H]4[C@@]3(CC[C@H](C4)O)C)O)O)C
Method: HCD
Collision_energy: [28.333334]
Isolation_window: 4.0
Ion_mode: P
Num Peaks: 105
67.0546	2.7
69.0703	4.4
69.3860	2.9
69.4952	3.0
69.4982	2.4
70.0656	2.7
71.0495	2.9
73.0287	2.5
81.0340	2.3
81.0448	5.3
81.0700	10.7
83.0857	7.5
85.0649	3.8
86.0965	3.6
87.0443	2.1
89.0598	15.8
93.0699	7.2
95.0855	16.5
97.1011	2.2
105.0698	5.8
107.0854	11.1
109.1011	12.4
111.0803	8.7
113.0960	6.3
114.0914	2.5
116.0704	3.4
119.0854	8.9
120.0804	2.3
121.1010	11.1
123.1166	5.0
127.0499	12.4
129.0907	20.5
131.0851	3.5
133.0857	7.6
133.1009	9.8
135.1165	11.0
137.0594	10.7
143.0853	3.1
145.1009	19.6
146.1048	2.0
147.1165	12.4
149.1321	6.4
157.1009	5.5
159.1165	15.9
160.1198	2.3
161.1321	10.5
163.1478	3.6
169.1007	2.5
171.1164	5.7
173.1320	8.5
175.1477	5.8
177.1117	2.9
183.1164	3.4
185.1321	5.7
187.1476	7.9
189.1633	3.7
197.1320	3.5
199.1476	10.4
201.1632	7.7
203.1790	2.5
211.1477	2.3
213.1631	13.2
215.1789	9.9
221.1383	2.2
225.1630	2.6
227.1788	11.0
228.1820	2.1
229.1944	3.4
231.1739	2.4
239.1788	9.1
240.1822	1.8
241.1944	8.5
244.1173	2.2
253.1943	18.7
254.1983	4.4
255.2099	8.5
257.1892	4.9
259.2053	1.9
267.2101	3.4
271.2046	1.7
279.2104	2.1
281.2255	6.8
283.2412	7.6
295.2413	2.6
297.2571	2.4
307.2407	2.5
309.2568	3.3
323.2723	5.6
349.2878	15.3
350.2913	4.1
367.2984	20.0
368.3015	5.1
385.3088	100.0
386.3122	26.7
387.3145	2.3
402.2016	3.7
402.2633	2.0
403.2067	4.7
403.2228	15.4
403.3193	51.3
404.1845	1.8
404.2160	3.6
404.2247	4.5
404.2560	2.1
404.3227	11.7

Name: (3R,6R)-6-amino-5-oxo-1,4-thiazepane-3-carboxylic acid
PrecursorMZ: 191.04839
RT: 6.4643
ExactMass: 190.04121336
Spectrum_type: 2
charge: 1
Formula: C6H10N2O3S
SMILES: C1[C@@H](C(=O)N[C@@H](CS1)C(=O)O)N
Method: HCD
Collision_energy: [28.333334]
Isolation_window: 4.0
Ion_mode: P
Num Peaks: 42
59.0608	6.7
74.0062	24.2
85.0108	2.3
85.0399	5.3
86.0966	2.3
87.0999	2.3
88.0396	3.6
100.0216	12.0
101.0710	47.8
102.0372	2.7
116.0705	5.2
117.9958	3.6
118.0320	3.9
126.0548	4.3
130.0497	23.2
130.0862	5.0
131.0450	100.0
131.0530	2.4
132.0112	22.6
132.0482	3.3
144.1017	9.5
145.0606	5.5
146.0268	96.3
147.0301	5.0
147.0762	9.2
163.0534	2.6
172.0965	2.7
173.0555	8.1
174.0217	81.6
174.0657	2.8
175.0254	4.2
190.0497	4.5
190.0862	8.8
190.0970	3.2
190.1067	10.6
191.0483	9.8
191.0812	19.9
192.0651	10.5
192.0763	7.8
192.0851	2.4
192.1016	18.2
192.1378	3.8

Name: (3R,6S)-3,6-Diisopropylpiperazin-2,5-dion
PrecursorMZ: 199.144
RT: 1.6403
ExactMass: 198.136827821
Spectrum_type: 2
charge: 1
Formula: C10H18N2O2
SMILES: CC(C)[C@H]1C(=O)N[C@@H](C(=O)N1)C(C)C
Method: HCD
Collision_energy: [28.333334]
Isolation_window: 4.0
Ion_mode: P
Num Peaks: 9
72.0811	100.0
100.0757	10.2
126.0911	14.0
126.1276	61.4
154.1224	16.2
171.1489	43.6
182.0443	9.7
198.1119	12.1
199.1435	53.9

Name: (3R,6S)-3-(((2R,5R)-5-(((2R,5S)-5,6-dihydroxy-3-(hydroxymethyl)-1,4-dioxan-2-yl)oxy)-6-hydroxy-3-(hydroxymethyl)-1,4-dioxan-2-yl)oxy)-5-(hydroxymethyl)-1,4-dioxane-2,6-diol
PrecursorMZ: 463.13045
RT: 1.0155
ExactMass: 462.12208474
Spectrum_type: 2
charge: 1
Formula: C15H26O16
SMILES: C(C1[C@H](OC([C@H](O1)O[C@@H]2C(O[C@@H](C(O2)O)O[C@@H]3C(O[C@@H](C(O3)O)O)CO)CO)O)O)O
Method: HCD
Collision_energy: [28.333334]
Isolation_window: 4.0
Ion_mode: P
Num Peaks: 32
57.0703	7.0
69.0703	4.3
73.0471	21.3
81.0703	6.3
89.0600	3.6
91.0576	32.4
95.0857	5.0
101.0599	3.7
149.0448	10.2
167.0555	30.2
171.1379	23.4
223.0635	88.0
224.0631	10.9
225.0427	67.6
226.0424	8.7
227.0221	7.5
281.0509	9.9
283.0303	6.8
285.0095	13.5
297.0822	32.5
298.0828	7.0
299.0615	100.0
299.0773	4.4
300.0614	20.1
301.0582	7.8
355.0695	14.1
356.0704	4.3
359.0278	10.8
371.1007	9.7
429.0884	7.4
445.1202	5.6
461.3595	5.1

Name: (3R,6S)-3-((2S)-butan-2-yl)-6-propan-2-ylpiperazine-2,5-dione
PrecursorMZ: 213.1595
RT: 1.5058
ExactMass: 212.152477885
Spectrum_type: 2
charge: 1
Formula: C11H20N2O2
SMILES: CC[C@H](C)[C@@H]1C(=O)N[C@H](C(=O)N1)C(C)C
Method: HCD
Collision_energy: [28.333334]
Isolation_window: 4.0
Ion_mode: P
Num Peaks: 45
55.0546	8.6
69.0702	4.4
72.0811	100.0
73.0651	5.4
73.0844	3.9
81.0701	3.7
83.0858	21.5
84.0809	5.4
86.0966	96.8
87.1000	5.2
89.0598	4.6
95.0857	4.0
100.0758	10.2
114.0913	11.7
115.0753	5.9
122.0965	3.4
124.1120	4.0
126.0912	44.4
127.0947	3.8
138.0547	3.3
138.0912	3.3
138.1275	4.0
140.1431	67.1
141.0542	5.1
141.1464	4.9
150.0911	9.4
152.0704	7.5
152.1068	12.6
166.1222	5.2
168.1381	32.6
180.0653	4.2
180.1016	7.7
182.1173	17.4
185.1645	47.6
186.1679	5.3
194.0811	5.8
194.1172	16.4
196.1329	21.5
212.0696	5.2
212.0917	4.9
212.1277	19.8
213.1018	3.4
213.1593	91.8
214.1432	6.9
214.1629	10.4

Name: (3S)-1-butyl-2,3,4,9-tetrahydro-1H-pyrido(3,4-b)indole-3-carboxylic acid
PrecursorMZ: 273.15967
RT: 5.1496
ExactMass: 272.152477885
Spectrum_type: 2
charge: 1
Formula: C16H20N2O2
SMILES: CCCCC1C2=C(C[C@H](N1)C(=O)O)C3=CC=CC=C3N2
Method: HCD
Collision_energy: [28.333334]
Isolation_window: 4.0
Ion_mode: P
Num Peaks: 34
114.0915	37.0
130.0651	8.5
130.0863	9.0
130.1227	11.8
144.0809	7.1
145.0761	17.1
148.0757	7.4
166.0974	9.0
168.0809	21.6
184.1077	6.6
188.0708	7.8
196.1121	22.8
200.0708	4.7
200.1435	15.1
210.1280	9.0
212.2372	65.6
214.0865	9.4
227.1752	12.6
255.1126	12.6
256.1331	82.6
257.1377	12.7
259.0837	6.1
272.0913	9.8
272.1064	14.1
272.1264	11.4
273.1232	100.0
273.1596	22.1
273.1807	18.1
274.1067	41.8
274.1190	34.6
274.1545	11.6
274.2740	75.2
275.1380	17.6
275.2777	6.6

Name: (3S)-1-ethyl-2,3,4,9-tetrahydro-1H-pyrido(3,4-b)indole-3-carboxylic acid
PrecursorMZ: 245.12845
RT: 5.7601
ExactMass: 244.121177757
Spectrum_type: 2
charge: 1
Formula: C14H16N2O2
SMILES: CCC1C2=C(C[C@H](N1)C(=O)O)C3=CC=CC=C3N2
Method: HCD
Collision_energy: [28.333334]
Isolation_window: 4.0
Ion_mode: P
Num Peaks: 61
70.0656	7.6
83.0607	23.0
84.0811	4.4
85.0651	4.4
86.0968	42.9
88.0396	13.2
88.0760	3.8
98.0967	6.2
100.1124	3.8
108.0447	5.1
114.0916	14.3
116.0708	34.3
121.0649	4.6
122.0602	6.6
126.0553	5.2
128.0707	5.2
130.0652	63.4
131.0685	6.4
134.0601	4.0
137.0458	4.5
144.0806	4.5
146.0602	8.6
147.0918	5.5
152.0707	5.8
158.0966	45.6
159.0999	5.2
168.0810	12.0
172.1122	19.9
182.0966	48.9
183.1001	6.4
188.0707	13.6
199.0868	9.2
201.1022	5.3
210.0910	5.2
212.1028	5.4
226.0861	5.8
227.0810	6.3
228.1019	77.8
229.0960	5.7
229.1062	9.0
243.1136	5.8
243.1703	5.2
244.0969	75.6
244.1070	7.6
244.1177	17.2
244.1321	17.5
244.1544	4.5
244.2271	23.6
245.0919	23.2
245.1019	6.8
245.1284	56.5
245.1496	4.0
245.1864	5.1
246.0758	11.5
246.0875	10.8
246.1130	34.7
246.1238	5.9
246.1330	11.4
246.1487	6.0
247.1074	56.1
247.1441	100.0

Name: (3S)-3-methyl-6-propan-2-ylpiperazine-2,5-dione
PrecursorMZ: 171.1129
RT: 2.6512
ExactMass: 170.105527694
Spectrum_type: 2
charge: 1
Formula: C8H14N2O2
SMILES: C[C@H]1C(=O)NC(C(=O)N1)C(C)C
Method: HCD
Collision_energy: [28.333334]
Isolation_window: 4.0
Ion_mode: P
Num Peaks: 11
72.0812	100.0
73.0845	3.1
86.0968	5.7
100.0760	2.9
126.0914	6.3
128.1072	2.8
143.1180	23.8
169.0972	4.7
170.1176	17.2
171.1494	6.2
173.0784	15.0

Name: (3S)-N,1-dicyclohexyl-2,4,5-trioxopyrrolidine-3-carboxamide
PrecursorMZ: 321.17989
RT: 4.9226
ExactMass: 320.17360725
Spectrum_type: 2
charge: 1
Formula: C17H24N2O4
SMILES: C1CCC(CC1)NC(=O)[C@@H]2C(=O)C(=O)N(C2=O)C3CCCCC3
Method: HCD
Collision_energy: [28.333334]
Isolation_window: 4.0
Ion_mode: P
Num Peaks: 42
55.0545	5.8
69.0248	6.6
83.0856	17.6
97.4564	4.4
108.0806	52.3
109.0839	3.9
122.0596	2.6
124.0754	29.4
126.0910	40.6
127.0943	3.4
134.0961	3.7
136.0753	26.8
138.0910	7.8
148.0752	14.0
149.0786	2.7
150.0544	2.8
150.0909	74.8
151.0941	5.8
164.0701	88.5
166.0858	14.3
167.0892	4.0
168.1014	90.0
169.1046	9.0
178.0857	44.8
179.0889	4.5
182.0806	100.0
194.0806	8.5
195.0840	3.1
196.0961	27.2
197.0995	3.7
233.1639	6.3
261.1584	3.1
273.1588	3.9
275.1744	27.7
276.1786	4.6
293.1849	12.3
301.1534	3.5
303.1690	51.1
304.1727	8.9
321.1796	36.5
322.1834	6.2
323.1590	2.5

Name: (3S,10R,13R)-10,13-dimethyl-17-((2R)-pentan-2-yl)-2,3,4,7,8,9,11,12,14,15,16,17-dodecahydro-1H-cyclopenta(a)phenanthren-3-ol
PrecursorMZ: 367.29885
RT: 2.0868
ExactMass: 344.307915895
Spectrum_type: 2
charge: 1
Formula: C24H40O
SMILES: CCC[C@@H](C)C1CCC2[C@@]1(CCC3C2CC=C4[C@@]3(CC[C@@H](C4)O)C)C
Method: HCD
Collision_energy: [28.333334]
Isolation_window: 4.0
Ion_mode: P
Num Peaks: 43
60.0811	6.8
69.0701	4.9
81.0700	9.6
85.0285	55.0
93.0699	6.5
95.0855	12.5
105.0698	7.0
107.0854	9.4
109.1010	9.4
113.0959	5.1
119.0853	7.4
121.1010	6.4
128.1431	14.1
133.1009	7.0
135.1164	6.7
145.1008	10.0
147.1166	7.6
159.1165	9.4
161.1320	8.5
168.1019	5.7
173.1321	5.2
187.1474	6.6
194.0806	26.8
199.1476	6.1
201.1632	7.4
212.0910	28.2
213.1628	6.2
215.1791	6.1
227.1787	7.1
229.1945	5.6
239.1791	5.1
241.1939	6.5
253.1943	7.4
309.2571	7.9
323.2722	14.3
349.2880	43.2
350.2909	14.0
366.2626	13.5
367.2984	100.0
368.2782	36.1
368.3019	26.0
369.1433	12.7
369.2808	8.6

Name: (3S,4S)-1-ethyl-2-(hydroxymethyl)piperidine-3,4,5-triol
PrecursorMZ: 192.12284
RT: 9.0433
ExactMass: 191.11575802
Spectrum_type: 2
charge: 1
Formula: C8H17NO4
SMILES: CCN1CC([C@@H]([C@H](C1CO)O)O)O
Method: HCD
Collision_energy: [28.333334]
Isolation_window: 4.0
Ion_mode: P
Num Peaks: 19
58.0655	17.3
83.0494	15.3
96.0808	13.0
98.0602	10.2
110.0965	19.4
116.0705	10.7
126.0913	19.8
128.0703	10.3
135.0439	11.7
138.0912	47.9
156.1018	61.6
172.0965	9.8
174.1122	32.4
190.1071	15.3
190.1183	19.8
190.1433	14.5
192.0870	14.6
192.1226	100.0
194.1172	34.4

Name: (3S,4S,5S)-2-(hydroxymethyl)-6-)2-(propan-2-ylamino)-3-)(3S,4R,5S)-3,4,5-trihydroxy-6-(hydroxymethyl)oxan-2-yl(oxypropoxy(oxane-3,4,5-triol
PrecursorMZ: 458.22252
RT: 11.6808
Spectrum_type: 2
charge: 1
SMILES: CC(C)NC(COC1C(C(C(C(O1)CO)O)O)O)COC2C(C(C(C(O2)CO)O)O)O
Method: HCD
Collision_energy: [28.333334]
Isolation_window: 4.0
Ion_mode: P
Num Peaks: 28
50.9117	1.6
50.9144	5.4
51.0259	1.1
57.0339	0.7
60.0812	3.5
69.0339	0.8
73.0288	0.8
85.0287	1.2
87.0444	0.9
89.0600	3.1
97.0286	1.7
99.0442	1.1
127.0391	1.5
133.0859	1.8
141.0546	0.8
153.0545	2.3
177.1122	0.7
338.1802	1.6
398.2021	3.7
399.2063	0.7
440.2122	0.7
457.2457	0.7
458.0873	0.7
458.2228	100.0
459.2262	20.0
460.2292	5.1
461.2287	0.9
465.2088	0.8

Name: (3S,8aR)-3-((4-hydroxyphenyl)methyl)-2,3,6,7,8,8a-hexahydropyrrolo(1,2-a)pyrazine-1,4-dione
PrecursorMZ: 261.12305
RT: 3.3489
ExactMass: 260.11609238
Spectrum_type: 2
charge: 1
Formula: C14H16N2O3
SMILES: C1C[C@@H]2C(=O)N[C@H](C(=O)N2C1)CC3=CC=C(C=C3)O
Method: HCD
Collision_energy: [28.333334]
Isolation_window: 4.0
Ion_mode: P
Num Peaks: 7
70.0654	78.2
107.0492	28.1
136.0755	61.7
155.0814	17.3
233.1281	13.1
261.1229	100.0
262.1263	17.7

Name: (4R)-4-((3R,5S,7R,8R,9R,10S,13R,14S,17R)-3,7-dihydroxy-10,13-dimethyl-2,3,4,5,6,7,8,9,11,12,14,15,16,17-tetradecahydro-1H-cyclopenta(a)phenanthren-17-yl)pentanoic acid
PrecursorMZ: 410.32587
RT: 4.5946
ExactMass: 392.29265975
Spectrum_type: 2
charge: 1
Formula: C24H40O4
SMILES: C[C@H](CCC(=O)O)[C@H]1CC[C@@H]2[C@@]1(CC[C@@H]3[C@H]2[C@@H](C[C@H]4[C@@]3(CC[C@H](C4)O)C)O)C
Method: HCD
Collision_energy: [28.333334]
Isolation_window: 4.0
Ion_mode: P
Num Peaks: 26
69.3062	9.4
70.0655	13.9
81.0702	10.0
86.0967	12.7
89.0599	13.9
95.0857	11.2
111.0554	10.2
116.0708	11.7
120.0807	12.5
135.1170	9.6
149.1325	8.9
161.1325	9.9
210.1123	22.0
215.1789	10.4
216.1230	12.9
252.1231	10.4
284.1131	14.2
292.2018	20.0
357.2785	100.0
358.2819	27.1
409.1791	16.6
409.1972	8.9
409.2794	13.0
409.3092	10.4
411.2882	9.3
412.1880	15.0

Name: (4S)-4-((3S,7R,12S,17S)-3,7,12-trihydroxy-10,13-dimethyl-2,3,4,5,6,7,8,9,11,12,14,15,16,17-tetradecahydro-1H-cyclopenta(a)phenanthren-17-yl)pentanoic acid
PrecursorMZ: 391.28325
RT: 5.1631
ExactMass: 408.28757437
Spectrum_type: 2
charge: 1
Formula: C24H40O5
SMILES: C[C@@H](CCC(=O)O)[C@@H]1CCC2C1([C@H](CC3C2[C@@H](CC4C3(CC[C@@H](C4)O)C)O)O)C
Method: HCD
Collision_energy: [28.333334]
Isolation_window: 4.0
Ion_mode: P
Num Peaks: 7
97.4580	22.5
149.0230	21.3
213.1632	18.1
355.2620	100.0
356.2654	25.3
373.2728	26.0
391.1625	13.4

Name: (5-(Hydroxymethyl)furan-2-yl)methylideneoxidanium
PrecursorMZ: 109.02856
RT: 6.8196
ExactMass: 127.039519081
Spectrum_type: 2
charge: 1
Formula: C6H7O3+
SMILES: C1=C(OC(=C1)C=[OH+])CO
Method: HCD
Collision_energy: [28.333334]
Isolation_window: 4.0
Ion_mode: P
Num Peaks: 9
53.0390	21.4
55.0182	11.6
67.0545	12.1
69.7285	13.9
79.0544	11.8
81.0337	100.0
109.0284	74.5
110.0601	46.1
111.0441	22.8

Name: (514C)azolidine
PrecursorMZ: 72.0812
RT: 16.3343
ExactMass: 73.07674128
Spectrum_type: 2
charge: 1
Formula: C4H9N
SMILES: C1C[14CH2]NC1
Method: HCD
Collision_energy: [28.333334]
Isolation_window: 4.0
Ion_mode: P
Num Peaks: 8
55.0547	1.0
70.0656	7.1
71.0689	0.8
72.0770	0.7
72.0812	100.0
72.0854	0.6
73.0845	4.3
74.0968	1.5

Name: (6R)-3-benzyl-6-(1H-imidazol-5-ylmethyl)piperazine-2,5-dione
PrecursorMZ: 285.13426
RT: 5.00295
ExactMass: 284.12732577
Spectrum_type: 2
charge: 1
Formula: C15H16N4O2
SMILES: C1=CC=C(C=C1)CC2C(=O)N[C@@H](C(=O)N2)CC3=CN=CN3
Method: HCD
Collision_energy: [28.333334]
Isolation_window: 4.0
Ion_mode: P
Num Peaks: 43
69.2056	1.6
70.0654	2.7
82.0528	2.7
83.0606	2.1
86.0966	2.2
97.4321	2.1
110.0714	43.0
111.0748	2.2
116.0707	3.4
120.0808	10.5
123.0552	2.0
128.0707	1.3
138.0661	1.6
140.0705	1.8
166.0610	11.9
167.0814	1.4
198.1236	5.5
212.1180	16.7
213.1215	1.5
222.0759	2.9
240.1339	4.5
240.2320	2.7
257.1394	10.9
258.1428	1.6
268.1074	6.7
284.0900	2.1
284.1121	1.9
284.1240	3.0
284.1483	1.7
284.1605	2.9
284.1968	2.0
284.3308	6.8
285.0862	1.8
285.1342	100.0
285.1600	1.4
285.2893	2.1
285.3339	1.7
286.1060	5.1
286.1381	15.2
286.1600	2.7
286.1793	1.5
287.1021	1.5
287.1379	1.8

Name: (6R,7R)-7-Amino-3-(methoxymethyl)-8-oxo-5-thia-1-azabicyclo(4.2.0)oct-2-ene-2-carboxylic acid
PrecursorMZ: 245.05895
RT: 7.1806
ExactMass: 244.05177804
Spectrum_type: 2
charge: 1
Formula: C9H12N2O4S
SMILES: COCC1=C(N2[C@@H]([C@@H](C2=O)N)SC1)C(=O)O
Method: HCD
Collision_energy: [28.333334]
Isolation_window: 4.0
Ion_mode: P
Num Peaks: 35
80.0499	3.0
84.0448	0.6
84.0811	1.4
114.0374	4.7
114.0916	2.1
116.0168	0.8
129.1024	1.3
130.0864	0.8
131.1180	0.6
142.0207	0.6
142.0322	100.0
143.0356	5.5
144.0280	2.1
170.0271	29.8
171.0307	2.3
172.0230	0.8
173.0382	0.7
198.1125	1.2
199.0536	4.8
200.0571	0.7
226.1073	1.4
227.0485	3.7
227.0848	17.8
227.1754	1.1
228.0883	1.8
244.0971	2.6
244.1177	2.4
244.2019	2.1
245.0590	8.0
245.0945	3.3
245.1858	1.4
246.0508	7.3
246.0622	0.9
246.0760	1.1
247.0556	0.7

Name: (6S,10R)-13-((2R)-6-hydroxy-2,5,7,8-tetramethyl-3,4-dihydrochromen-2-yl)-2,6,10-trimethyltridecanoic acid
PrecursorMZ: 443.35167
RT: 1.1489
ExactMass: 460.35526001
Spectrum_type: 2
charge: 1
Formula: C29H48O4
SMILES: CC1=C(C2=C(CC[C@@](O2)(C)CCC[C@H](C)CCC[C@H](C)CCCC(C)C(=O)O)C(=C1O)C)C
Method: HCD
Collision_energy: [28.333334]
Isolation_window: 4.0
Ion_mode: P
Num Peaks: 35
69.0702	11.2
81.0701	13.1
83.0858	5.2
93.0701	4.0
95.0856	14.6
97.1013	3.6
107.0856	4.0
109.1012	12.1
119.0854	3.5
121.1011	5.8
123.1167	6.2
133.1009	2.8
135.1169	3.8
137.1323	3.6
147.1165	2.8
149.0960	5.9
149.1323	3.5
151.0752	5.3
163.1115	3.3
163.1480	7.4
164.0829	2.9
165.0908	100.0
166.0940	10.8
177.0908	5.4
177.1635	3.1
191.1063	5.6
203.1062	3.8
205.1220	9.4
249.1845	4.9
425.3407	13.2
426.3461	7.6
442.3391	3.3
443.2554	11.4
443.3510	66.5
444.3557	24.1

Name: (6S,15R)-1,4,10,13-tetrazatricyclo(13.3.0.06,10)octadecane-2,5,11,14-tetrone
PrecursorMZ: 309.15525
RT: 3.3005
ExactMass: 308.14845513
Spectrum_type: 2
charge: 1
Formula: C14H20N4O4
SMILES: C1C[C@@H]2C(=O)NCC(=O)N3CCC[C@H]3C(=O)NCC(=O)N2C1
Method: HCD
Collision_energy: [28.333334]
Isolation_window: 4.0
Ion_mode: P
Num Peaks: 8
70.0655	19.7
184.1078	46.8
185.1116	4.2
195.1125	5.7
291.1452	5.5
308.2948	9.2
309.1554	100.0
310.1592	14.3

Name: (7R)-4-hydroxy-3,4-dimethyl-7-((3R,5S,7R,8R,9S,10S,12S,13R,14S,17R)-3,7,12-trihydroxy-10,13-dimethyl-2,3,4,5,6,7,8,9,11,12,14,15,16,17-tetradecahydro-1H-cyclopenta(a)phenanthren-17-yl)octanoic acid
PrecursorMZ: 495.36706
RT: 1.3703
ExactMass: 494.36073931
Spectrum_type: 2
charge: 1
Formula: C29H50O6
SMILES: C[C@H](CCC(C)(C(C)CC(=O)O)O)[C@H]1CC[C@@H]2[C@@]1([C@H](C[C@H]3[C@H]2[C@@H](C[C@H]4[C@@]3(CC[C@H](C4)O)C)O)O)C
Method: HCD
Collision_energy: [28.333334]
Isolation_window: 4.0
Ion_mode: P
Num Peaks: 17
81.0700	7.8
89.0597	5.7
95.0855	7.6
109.1010	7.3
165.0906	34.7
396.3256	6.5
398.3397	9.7
414.3349	100.0
415.3383	25.7
416.3506	47.4
417.3541	11.9
441.3347	13.4
442.3388	5.6
494.2923	26.8
495.2937	7.9
496.3077	29.3
497.3096	5.5

Name: (8R,9R,10S,13S,14R)-10,13-dimethyl-1,2,6,7,8,9,11,12,14,15-decahydrocyclopenta(a)phenanthren-3-one
PrecursorMZ: 271.2049
RT: 0.927
ExactMass: 270.198365449
Spectrum_type: 2
charge: 1
Formula: C19H26O
SMILES: C[C@@]12CC[C@@H]3[C@@H]([C@H]1CC=C2)CCC4=CC(=O)CC[C@@]34C
Method: HCD
Collision_energy: [28.333334]
Isolation_window: 4.0
Ion_mode: P
Num Peaks: 3
97.0648	38.6
253.1942	61.1
271.2048	100.0

Name: (8R,9R,10S,13S,14R,17S)-17-((2S,5S)-5-ethyl-6-methylheptan-2-yl)-10,13-dimethyl-1,2,6,7,8,9,11,12,14,15,16,17-dodecahydrocyclopenta(a)phenanthren-3-one
PrecursorMZ: 413.37749
RT: 1.0103
ExactMass: 412.37051615
Spectrum_type: 2
charge: 1
Formula: C29H48O
SMILES: CC[C@@H](CC[C@H](C)[C@@H]1CC[C@H]2[C@]1(CC[C@@H]3[C@@H]2CCC4=CC(=O)CC[C@@]34C)C)C(C)C
Method: HCD
Collision_energy: [28.333334]
Isolation_window: 4.0
Ion_mode: P
Num Peaks: 8
81.0701	10.9
95.0857	11.8
97.0649	87.3
109.0648	98.9
151.0752	21.1
412.3652	10.3
413.3770	100.0
414.3811	27.4

Name: (8S,9S,10R,13S,14S,17S)-17-(2-hydroxypent-3-yn-2-yl)-10,13-dimethyl-2,3,4,7,8,9,11,12,14,15,16,17-dodecahydro-1H-cyclopenta(a)phenanthren-3-ol
PrecursorMZ: 339.26805
RT: 4.267
ExactMass: 356.271530387
Spectrum_type: 2
charge: 1
Formula: C24H36O2
SMILES: CC#CC(C)([C@H]1CC[C@@H]2[C@@]1(CC[C@H]3[C@H]2CC=C4[C@@]3(CCC(C4)O)C)C)O
Method: HCD
Collision_energy: [28.333334]
Isolation_window: 4.0
Ion_mode: P
Num Peaks: 69
67.0546	2.9
69.0703	4.1
81.0702	6.5
83.0859	5.2
85.0650	3.4
86.0967	4.4
93.0701	4.0
95.0857	6.4
96.0810	6.9
97.3978	3.0
105.0700	3.1
107.0857	5.2
109.1014	3.9
114.0915	8.5
119.0856	3.9
121.1012	4.3
124.0758	71.3
125.0791	6.1
125.0837	4.9
126.0914	12.2
128.0706	3.1
131.0856	2.8
133.1012	5.1
135.1169	4.7
145.1013	5.2
147.1167	3.1
149.1325	3.7
151.0754	3.8
159.1169	6.6
161.1323	2.9
164.0707	14.0
165.0740	8.3
166.0863	5.0
173.1324	4.4
175.1482	3.1
182.0812	12.6
183.0847	8.5
196.1330	4.6
197.0807	3.0
209.1647	14.9
211.1485	3.3
213.1637	3.9
215.1796	2.7
225.1637	4.1
227.1762	8.0
229.1950	2.8
241.1949	4.9
265.1950	6.1
279.2100	2.9
281.2262	3.9
295.2416	4.2
320.1493	2.9
321.2574	61.6
322.2470	19.7
322.2622	9.7
338.1587	12.4
338.2558	2.8
339.1343	19.7
339.1564	4.3
339.1906	4.2
339.2680	100.0
340.1385	17.6
340.1753	2.6
340.2590	30.2
340.2740	11.5
340.3933	5.5
341.1123	3.2
341.1486	3.0
341.2604	4.8

Name: (9R)-1,7-diazatricyclo(7.3.0.03,7)dodecane-2,8-dione
PrecursorMZ: 212.13903
RT: 11.4619
ExactMass: 194.105527694
Spectrum_type: 2
charge: 1
Formula: C10H14N2O2
SMILES: C1C[C@@H]2C(=O)N3CCCC3C(=O)N2C1
Method: HCD
Collision_energy: [28.333334]
Isolation_window: 4.0
Ion_mode: P
Num Peaks: 14
70.0654	1.8
98.0601	0.9
106.0863	1.0
125.0709	2.3
167.1177	5.2
195.1125	100.0
196.1160	9.9
210.1333	1.1
211.1440	1.6
212.1389	16.0
212.8513	1.3
213.0654	1.0
213.1231	5.7
213.1424	1.4

Name: (9S,10S)-9,10-dihydroxyoctadecanedioic acid
PrecursorMZ: 329.23188
RT: 5.7528
ExactMass: 346.2355388
Spectrum_type: 2
charge: 1
Formula: C18H34O6
SMILES: C(CCC[C@@H]([C@H](CCCCCCCC(=O)O)O)O)CCCC(=O)O
Method: HCD
Collision_energy: [28.333334]
Isolation_window: 4.0
Ion_mode: P
Num Peaks: 111
55.0544	1.8
67.0547	6.8
69.0703	4.6
70.0655	5.6
71.0495	2.3
72.0812	5.2
79.0546	3.4
81.0702	11.9
83.0496	1.9
83.0858	2.8
85.0651	3.5
86.0967	4.7
91.0544	3.2
93.0701	5.6
95.0857	9.8
97.0650	2.8
97.1014	3.7
99.0807	3.6
105.0700	2.9
107.0857	6.5
109.1013	7.6
111.0807	2.0
114.1280	1.7
116.0707	6.9
117.0700	1.7
119.0856	4.4
121.1013	9.0
122.0714	5.2
123.0805	2.1
123.1169	3.4
125.0961	4.4
131.0855	4.0
132.0419	2.8
133.1012	6.9
135.0804	2.6
135.1168	3.9
137.0961	2.2
139.0754	1.7
139.0981	1.9
139.1117	2.8
145.1012	5.5
147.1168	5.0
149.0598	6.0
149.0961	4.7
149.1325	2.4
150.0914	17.2
151.1117	2.3
153.0911	4.5
155.0813	4.2
155.1063	1.8
157.1013	2.0
159.1168	3.7
161.1325	2.0
162.0915	2.1
163.1118	2.5
167.1066	4.3
168.1021	3.2
168.1384	3.1
171.1168	2.2
173.1171	1.9
173.1324	2.7
177.1272	2.4
179.0702	3.4
179.1261	1.9
186.1488	6.1
189.1121	2.0
191.0551	7.8
203.1275	1.8
204.0632	2.3
214.1075	2.5
223.1158	3.3
225.1023	2.5
225.1316	2.3
229.1950	2.9
239.1793	3.1
247.2055	3.8
250.1070	2.6
251.1108	6.3
257.1899	6.3
265.1275	2.5
265.2160	6.1
267.1339	2.0
268.1373	6.4
271.0599	1.8
275.1109	4.5
275.2004	31.3
276.2039	5.8
293.1214	9.5
293.2108	66.8
294.2144	10.7
310.2092	1.9
311.2214	32.6
312.2249	6.9
327.3813	2.6
328.1183	2.7
328.1381	3.1
328.1551	8.4
328.2479	2.9
329.1146	1.8
329.1469	100.0
329.1732	3.5
329.2100	2.2
330.0966	2.2
330.1332	2.4
330.1504	18.2
330.2636	2.9
331.0805	2.1
331.1070	4.7
331.1316	4.8
331.1655	15.7
331.1893	1.7

Name: (BA core: 3 7a 12a-(OH)3) Bile Acid
PrecursorMZ: 461.36225
RT: 1.1113
Spectrum_type: 2
charge: 1
Method: HCD
Collision_energy: [28.333334]
Isolation_window: 4.0
Ion_mode: P
Num Peaks: 84
55.0547	2.7
57.0703	7.3
67.0546	3.8
69.0703	17.8
71.0859	8.0
81.0702	15.1
83.0858	11.1
85.0651	1.6
85.1015	3.1
93.0701	4.0
95.0857	15.6
97.1014	8.2
105.0700	2.1
107.0857	4.5
109.1013	12.7
110.1045	1.5
111.1170	4.9
119.0857	3.2
121.1012	5.5
123.1168	6.6
133.1012	2.7
135.0805	2.6
135.1168	4.8
137.0597	2.8
137.0962	2.5
137.1325	4.0
139.0753	3.6
147.0804	1.6
147.1168	2.8
149.0961	11.2
149.1325	3.2
150.0994	1.7
151.0753	6.1
159.1169	1.9
163.0753	2.1
163.1117	5.3
164.0833	8.7
164.1070	3.4
165.0910	100.0
166.0942	12.3
167.0703	3.8
171.1167	1.5
173.0961	1.6
175.0754	5.2
175.1118	4.1
175.1481	1.6
177.0909	7.7
179.0703	2.1
179.1066	2.1
187.1117	2.9
189.0909	3.3
189.1273	2.4
191.1065	8.0
192.1102	2.1
193.0859	7.7
201.1274	2.2
203.1066	11.7
203.1428	2.0
204.1098	1.8
205.1222	14.0
206.1254	2.2
217.1222	3.3
219.1378	2.4
229.1225	2.1
231.1377	4.7
414.3438	2.4
425.3409	10.5
426.3474	14.1
426.3731	4.7
427.3556	12.5
428.3603	4.5
441.3356	2.0
442.3404	6.1
443.3514	12.9
444.3584	20.7
444.3845	6.4
445.3632	6.7
460.3499	5.9
460.3794	2.5
461.2868	1.9
461.3616	6.8
462.3682	5.7
462.3965	2.0
463.3752	2.8

Name: (E)-2-methyl-4-(7H-purin-6-ylamino)but-2-en-1-(18O)ol
PrecursorMZ: 220.11903
RT: 6.6889
ExactMass: 221.11625505
Spectrum_type: 2
charge: 1
Formula: C10H13N5O
SMILES: C/C(=C\CNC1=NC=NC2=C1NC=N2)/C[18OH]
Method: HCD
Collision_energy: [28.333334]
Isolation_window: 4.0
Ion_mode: P
Num Peaks: 47
70.0654	0.6
74.0603	1.5
87.0264	0.4
87.0442	0.5
88.0395	0.5
90.0551	0.4
97.0761	0.3
100.0758	1.4
105.0369	0.4
120.0655	0.4
124.0392	2.8
129.0657	1.1
132.0806	1.3
136.0616	2.0
142.0497	0.5
146.0599	0.8
148.0616	12.1
149.0649	0.6
157.0969	6.1
160.0616	7.2
161.0647	0.5
161.0958	0.5
162.0772	0.4
174.0912	0.3
176.0814	0.4
176.0933	0.4
185.0819	0.4
188.0703	1.6
202.1083	9.6
203.0840	0.4
203.1120	0.8
219.0759	0.8
219.1123	1.2
220.0965	2.8
220.1098	0.6
220.1188	100.0
220.1314	0.7
220.1360	0.5
220.1407	0.6
221.0915	0.3
221.0944	1.5
221.1224	9.3
222.0758	0.7
222.0867	0.8
222.0977	1.4
222.1119	4.0
222.1238	0.4

Name: (E)-3-(2-(((2S)-3-carboxy-1-oxo-1-((2-oxoazepan-3-yl)amino)propan-2-yl)amino)-2-oxoethyl)oct-4-enoic acid
PrecursorMZ: 448.20454
RT: 10.3805
ExactMass: 425.21620034
Spectrum_type: 2
charge: 1
Formula: C20H31N3O7
SMILES: CCC/C=C/C(CC(=O)N[C@@H](CC(=O)O)C(=O)NC1CCCCNC1=O)CC(=O)O
Method: HCD
Collision_energy: [28.333334]
Isolation_window: 4.0
Ion_mode: P
Num Peaks: 31
70.0655	5.5
72.0811	9.7
82.0655	2.1
84.0811	4.6
85.0288	3.2
110.0964	2.2
112.1123	2.7
127.0866	7.5
154.0862	2.5
159.0588	2.1
169.0972	12.6
183.1128	8.2
195.1128	4.1
197.1281	2.8
201.0692	6.2
215.0847	4.7
286.1492	2.5
306.1315	2.2
323.1567	4.7
323.1837	7.4
337.1727	3.4
392.1773	3.0
430.1931	4.1
447.2166	3.7
447.2602	12.4
448.2043	100.0
448.2602	2.0
448.2651	2.0
449.2071	22.1
449.2723	2.6
450.2004	5.9

Name: (S)-1-((S)-2,6-Diaminohexanoyl)pyrrolidine-2-carboxylic acid
PrecursorMZ: 244.16536
RT: 6.9424
ExactMass: 243.15829154
Spectrum_type: 2
charge: 1
Formula: C11H21N3O3
SMILES: C1CC(N(C1)C(=O)C(CCCCN)N)C(=O)O
Method: HCD
Collision_energy: [28.333334]
Isolation_window: 4.0
Ion_mode: P
Num Peaks: 63
58.0656	1.5
60.0561	1.9
70.0656	12.7
72.0813	4.0
82.0656	1.0
84.0449	1.0
84.0812	100.0
85.0651	1.2
85.0845	5.1
86.0968	3.1
87.0445	1.4
100.0760	1.0
101.0599	1.5
101.1076	16.1
102.1111	1.2
110.0718	1.0
112.0759	1.3
112.0875	1.4
114.0665	1.4
114.1026	2.8
116.0708	11.3
118.0865	1.2
123.0554	2.6
125.0713	1.3
126.0550	1.3
128.0707	1.2
129.1023	15.3
130.0865	9.0
130.1061	0.9
136.0758	1.1
147.1129	12.4
156.1022	0.9
175.1187	1.2
209.1283	4.5
226.1551	6.7
227.1388	8.1
236.1403	1.7
244.1657	36.8
245.1277	1.2
245.1684	5.2
246.1087	1.3
246.1343	1.1
249.1070	1.7
249.1456	3.6
252.1449	4.2
253.1233	1.0
253.1531	1.1
254.1518	2.2
254.1855	1.6
255.1415	1.5
255.1710	1.1
256.1303	1.6
256.2018	1.0
258.0812	1.1
258.1086	1.4
258.1449	1.7
259.1665	1.3
260.1247	1.6
261.1549	1.4
261.1775	1.4
262.1039	1.4
262.1307	1.3
264.1301	1.2

Name: (S)-1-(1-(tert-Butoxycarbonyl)pyrrolidine-2-carbonyl)piperidine-4-carboxylic acid
PrecursorMZ: 327.19126
RT: 9.2797
ExactMass: 326.18417193
Spectrum_type: 2
charge: 1
Formula: C16H26N2O5
SMILES: CC(C)(C)OC(=O)N1CCCC1C(=O)N2CCC(CC2)C(=O)O
Method: HCD
Collision_energy: [28.333334]
Isolation_window: 4.0
Ion_mode: P
Num Peaks: 26
70.0655	4.7
84.0811	3.4
112.0871	1.3
114.0916	2.3
116.0707	1.3
141.0659	1.8
166.0864	1.3
212.1027	1.6
223.1552	1.2
227.1390	2.7
310.1281	1.3
326.1212	2.9
326.1572	2.2
326.1808	1.9
327.1184	6.5
327.1539	9.3
327.1681	6.8
327.1912	100.0
328.1194	1.3
328.1385	2.6
328.1560	2.8
328.1945	16.8
329.1340	2.3
329.1521	1.8
329.1710	2.0
329.1982	1.9

Name: (S)-2-((S)-1-((S)-2-Amino-3-methylbutanoyl)pyrrolidine-2-carboxamido)-4-methylpentanoic acid
PrecursorMZ: 328.22235
RT: 2.5077
ExactMass: 327.21580641
Spectrum_type: 2
charge: 1
Formula: C16H29N3O4
SMILES: CC(C)CC(C(=O)O)NC(=O)C1CCCN1C(=O)C(C(C)C)N
Method: HCD
Collision_energy: [28.333334]
Isolation_window: 4.0
Ion_mode: P
Num Peaks: 26
70.0654	100.0
72.0810	29.1
86.0965	43.5
89.0598	15.5
116.0705	53.9
120.0806	10.8
123.0438	31.7
136.0755	16.7
137.0230	23.0
169.1331	13.3
183.1487	10.9
185.1644	22.4
197.1279	9.1
211.1435	11.4
213.1591	12.5
215.1385	66.6
229.1541	52.1
327.1315	9.4
328.1172	8.5
328.2221	55.2
329.0993	22.3
329.1479	9.4
329.1726	11.0
329.2070	8.8
329.2256	9.8
330.1307	14.8

Name: (S)-2-amino-6-boronohexanoic acid
PrecursorMZ: 175.11106
RT: 11.9677
ExactMass: 175.1015881
Spectrum_type: 2
charge: 1
Formula: C6H14BNO4
SMILES: B(CCCC[C@@H](C(=O)O)N)(O)O
Method: HCD
Collision_energy: [28.333334]
Isolation_window: 4.0
Ion_mode: P
Num Peaks: 18
60.0561	64.9
60.0811	1.8
70.0656	69.0
71.0688	2.3
72.0812	4.0
96.9954	2.5
112.0872	6.0
116.0708	62.2
117.0743	3.5
130.0976	23.2
157.1085	3.5
158.0926	20.6
165.0212	2.3
175.1190	100.0
176.1228	6.8
180.0814	5.7
180.1050	26.9
181.1061	2.5

Name: (Z)-4-hydroxy-5,6-dimethoxy-3-(((2R,3R,4S,5S,6R)-3,4,5-trihydroxy-6-(hydroxymethyl)oxan-2-yl)oxymethyl)hept-2-enenitrile
PrecursorMZ: 360.16512
RT: 7.3944
ExactMass: 377.16858144
Spectrum_type: 2
charge: 1
Formula: C16H27NO9
SMILES: CC(C(C(/C(=C\C#N)/CO[C@H]1[C@@H]([C@H]([C@@H]([C@H](O1)CO)O)O)O)O)OC)OC
Method: HCD
Collision_energy: [28.333334]
Isolation_window: 4.0
Ion_mode: P
Num Peaks: 26
70.0656	7.7
111.0443	8.3
114.0916	5.0
154.0864	10.3
171.1128	5.0
180.1019	8.6
182.1174	7.1
198.1125	6.8
199.1079	6.3
211.1077	6.4
216.1230	10.9
269.1500	8.4
293.1495	20.4
323.1599	9.0
341.1704	15.5
342.1550	18.6
344.1706	8.3
359.1443	7.5
359.1810	45.3
360.1056	5.4
360.1649	100.0
360.1830	5.9
361.1627	26.6
361.1966	4.8
362.1820	25.3
362.2415	36.2

Name: (r)-Glycerol-1-propionate
PrecursorMZ: 187.03642
RT: 6.0595
ExactMass: 148.07355886
Spectrum_type: 2
charge: 1
Formula: C6H12O4
SMILES: CCC(=O)OC[C@@H](CO)O
Method: HCD
Collision_energy: [28.333334]
Isolation_window: 4.0
Ion_mode: P
Num Peaks: 67
57.0339	0.9
60.0448	0.2
69.8605	0.2
70.0654	0.7
72.0447	0.2
72.0811	0.7
75.0443	1.1
75.0556	0.4
76.0760	0.2
82.0653	0.2
84.0446	0.4
86.0966	3.3
87.0555	0.6
95.0605	0.6
98.0600	0.4
111.0443	0.2
112.9613	0.3
112.9848	0.2
112.9892	0.3
112.9916	0.8
112.9998	100.0
113.0080	0.7
113.0104	0.2
113.0126	0.2
113.0342	0.4
113.0401	0.3
113.0584	0.2
114.0031	1.1
114.0550	0.4
114.0661	2.5
115.0041	0.3
115.0502	0.6
116.0705	0.2
126.0548	0.3
126.0912	0.5
129.0545	0.2
130.0497	0.3
130.0859	0.2
131.0102	0.6
132.1017	2.1
138.0547	0.4
140.0704	0.3
140.0816	0.9
141.1022	0.2
142.0497	0.4
142.0860	0.3
143.1177	2.1
144.0653	0.3
146.0596	0.2
146.0810	0.2
154.0262	0.3
157.0969	0.2
158.0921	0.6
167.0704	0.2
167.0813	0.5
168.0654	0.3
168.0766	0.5
170.0807	0.2
185.0917	1.0
186.0759	0.7
186.0870	8.8
186.0951	0.2
186.1119	0.2
186.1232	0.4
187.0362	0.5
187.0907	0.5
188.0913	0.7

Name: (s)-Pyroglutamyl-(s)-glutamyl-(s)-glutamine
PrecursorMZ: 387.15062
RT: 7.0417
ExactMass: 386.14376367
Spectrum_type: 2
charge: 1
Formula: C15H22N4O8
SMILES: C1CC(=O)N[C@@H]1C(=O)N[C@@H](CCC(=O)O)C(=O)N[C@@H](CCC(=O)N)C(=O)O
Method: HCD
Collision_energy: [28.333334]
Isolation_window: 4.0
Ion_mode: P
Num Peaks: 25
70.0654	13.6
84.0446	100.0
84.0810	11.8
101.0711	14.9
102.0550	20.5
114.0549	10.5
116.0706	12.1
129.0658	46.4
130.0497	42.9
147.0762	69.1
148.0602	57.8
167.0814	8.6
195.0761	18.3
212.1026	13.1
223.0711	10.4
240.0974	43.7
241.0815	25.1
258.1080	9.3
352.1136	13.8
370.1252	12.1
386.0961	7.6
386.1593	11.0
387.1526	23.1
388.1006	18.9
388.1358	10.6

Name: )2-(3,4-dihydroxyphenyl)-5,7-dihydroxy-3,4-dihydro-2H-chromen-3-yl( ethyl carbonate
PrecursorMZ: 363.10691
RT: 6.2712
ExactMass: 362.10016753
Spectrum_type: 2
charge: 1
Formula: C18H18O8
SMILES: CCOC(=O)OC1CC2=C(C=C(C=C2OC1C3=CC(=C(C=C3)O)O)O)O
Method: HCD
Collision_energy: [28.333334]
Isolation_window: 4.0
Ion_mode: P
Num Peaks: 78
59.0609	2.9
65.0392	0.2
70.0656	0.4
84.0812	0.6
87.0443	0.2
91.0540	0.3
111.0443	0.9
116.0708	0.3
119.0492	0.2
123.0444	0.3
126.0551	0.2
128.0710	0.2
130.0866	0.4
135.0447	0.2
136.0515	0.2
137.0234	0.4
137.0602	0.7
138.0549	0.3
139.0166	0.3
139.0212	0.3
139.0390	53.1
139.0565	0.3
139.0613	0.3
140.0423	3.2
149.0595	0.2
163.0390	9.5
164.0426	0.8
165.0547	5.6
166.0581	0.4
175.0390	1.0
181.0159	0.6
181.0496	100.0
181.0755	0.5
181.0829	0.6
181.0926	0.3
181.1278	0.3
182.0529	8.2
182.0801	0.2
191.0702	2.3
192.0750	0.2
193.0499	0.3
197.0922	0.2
217.0493	1.1
235.0600	4.0
236.0642	0.4
243.0650	0.2
253.0705	0.9
255.0641	0.3
283.0599	0.7
284.0645	0.2
287.1227	0.5
297.0751	0.4
299.0901	0.2
301.0709	0.5
302.0694	0.2
303.0857	0.5
313.0716	0.3
315.0842	0.2
325.0702	0.5
326.0735	0.2
327.0854	0.2
343.0806	0.9
344.0836	0.3
345.0964	1.4
346.0960	0.2
361.1614	0.5
362.1647	0.3
363.1070	0.3
363.1454	0.2
365.1667	0.2
374.1222	0.4
375.1814	0.3
376.0961	0.2
377.1558	2.0
378.1552	0.3
379.1642	0.2
380.1321	0.9
381.1358	0.2

Name: 1,14-Tetradecanedioic-D24 acid
PrecursorMZ: 259.19033
RT: 1.3788
ExactMass: 282.33375121
Spectrum_type: 2
charge: 1
Formula: C14H26O4
SMILES: [2H]C([2H])(C(=O)O)C([2H])([2H])C([2H])([2H])C([2H])([2H])C([2H])([2H])C([2H])([2H])C([2H])([2H])C([2H])([2H])C([2H])([2H])C([2H])([2H])C([2H])([2H])C([2H])([2H])C(=O)O
Method: HCD
Collision_energy: [28.333334]
Isolation_window: 4.0
Ion_mode: P
Num Peaks: 10
81.0700	56.8
93.0700	43.3
95.0856	100.0
107.0854	45.8
109.1012	39.3
121.1011	96.8
177.1634	44.4
187.1480	52.8
205.1585	34.9
223.1689	46.4

Name: 1,2-Propanediol, 3,3'-(oxybis((2-hydroxy-3,1-propanediyl)oxy))bis-
PrecursorMZ: 315.16429
RT: 7.0749
ExactMass: 314.1576824
Spectrum_type: 2
charge: 1
Formula: C12H26O9
SMILES: C(C(COCC(COCC(COCC(CO)O)O)O)O)O
Method: HCD
Collision_energy: [28.333334]
Isolation_window: 4.0
Ion_mode: P
Num Peaks: 49
57.0339	57.3
59.0496	5.9
70.0655	9.1
75.0444	100.0
83.0494	5.5
84.0810	6.2
87.0443	15.2
93.0548	11.5
97.0285	7.0
100.0757	5.4
101.0598	21.8
113.0597	5.3
116.0706	6.2
119.0703	7.3
121.0887	4.8
123.0553	9.1
129.0546	14.9
131.0702	85.3
132.0735	5.4
136.0616	6.1
149.0808	32.1
166.0863	9.0
167.0912	21.1
184.0828	15.7
200.1029	5.2
214.0862	4.5
215.1175	5.8
223.1173	25.6
241.1278	10.4
255.0969	7.8
267.1488	7.9
313.1542	54.3
314.0840	11.6
314.1028	7.5
314.1217	13.3
314.1366	13.2
314.1579	31.1
314.1740	12.7
315.0853	6.4
315.1653	56.8
315.1901	5.2
316.1176	8.1
316.1504	17.6
316.1684	7.8
316.2109	4.6
317.0640	6.7
317.1148	10.7
317.1498	7.6
317.1694	6.0

Name: 1,3,5-Triazine-2-carbonitrile, 6-amino-4,5-dihydro-4-oxo-
PrecursorMZ: 138.04097
RT: 8.0716
ExactMass: 137.03375974
Spectrum_type: 2
charge: 1
Formula: C4H3N5O
SMILES: C(#N)C1=NC(=NC(=O)N1)N
Method: HCD
Collision_energy: [28.333334]
Isolation_window: 4.0
Ion_mode: P
Num Peaks: 15
68.0247	9.4
69.0087	4.6
95.0353	2.3
96.0194	12.6
120.0475	4.6
121.1012	6.7
137.0457	15.9
138.0409	100.0
138.0548	7.3
138.1276	27.4
139.0444	5.0
139.0499	3.1
139.0863	1.7
139.1229	4.0
139.1309	3.5

Name: 1,7-Dihydropurin-3-ium-6-one
PrecursorMZ: 137.04569
RT: 2.0971
ExactMass: 137.0463358
Spectrum_type: 2
charge: 1
Formula: C5H5N4O+
SMILES: C1=[NH+]C2=C(C(=O)N1)NC=N2
Method: HCD
Collision_energy: [28.333334]
Isolation_window: 4.0
Ion_mode: P
Num Peaks: 22
67.0545	1.8
82.0654	2.5
91.0543	3.9
94.0401	2.1
95.0492	1.8
95.0604	1.9
110.0348	4.2
110.0600	2.4
110.0712	1.9
119.0350	3.3
120.0441	3.0
136.0615	3.9
136.0754	6.3
137.0455	100.0
137.0594	6.3
137.0706	6.4
137.1070	1.8
138.0488	6.2
138.0547	3.3
138.0661	2.0
138.0910	15.5
139.0862	3.1

Name: 1,7-Dimethyl(2,4,5,6-~13~C 4 ,1,3,9-~15~N 3 )-3,7-dihydro-1H-purine-2,6-dione
PrecursorMZ: 181.07169
RT: 1.5392
ExactMass: 187.06924953
Spectrum_type: 2
charge: 1
Formula: C7H8N4O2
SMILES: CN1C=[15N][13C]2=[13C]1[13C](=O)[15N]([13C](=O)[15NH]2)C
Method: HCD
Collision_energy: [28.333334]
Isolation_window: 4.0
Ion_mode: P
Num Peaks: 47
60.0447	0.3
91.0543	5.3
96.0809	0.7
110.0600	1.6
110.0712	0.3
121.0646	2.9
121.0759	0.5
122.0598	0.6
123.0914	0.5
124.0503	16.7
124.0755	28.9
125.0536	0.8
135.0913	0.7
136.0754	3.4
138.0543	0.9
138.0658	3.8
138.0910	3.7
139.0862	0.3
142.0608	7.2
149.0595	0.3
152.0702	0.6
152.1068	0.5
154.0858	0.4
163.0863	0.9
164.0702	6.6
164.1066	0.3
165.1019	2.0
166.0859	12.0
179.0812	0.4
179.1173	0.4
180.0650	1.3
180.0805	3.4
180.1022	1.4
180.1129	0.3
181.0546	0.5
181.0586	0.9
181.0618	0.4
181.0715	100.0
181.0844	0.7
181.0883	0.5
181.0965	1.7
181.1328	0.5
182.0682	0.9
182.0746	7.0
182.0807	0.9
182.1171	2.1
183.1123	9.8

Name: 1-(
PrecursorMZ: 255.09722
RT: 7.2925
ExactMass: 255.09809658
Spectrum_type: 2
charge: 1
Formula: C11H15N2O5+
SMILES: C1=CC(=C[N+](=C1)C2C(C(C(O2)CO)O)O)C(=O)N
Method: HCD
Collision_energy: [28.333334]
Isolation_window: 4.0
Ion_mode: P
Num Peaks: 11
57.0340	1.6
70.0655	1.3
73.0289	1.6
85.0287	1.7
115.0392	2.3
123.0555	100.0
124.0589	7.4
133.0496	4.3
255.0967	1.2
257.1624	1.2
274.1400	1.8

Name: 1-((1R,5R)-2,6-dioxabicyclo(3.2.0)heptan-3-yl)-5-methylpyrimidine-2,4-dione
PrecursorMZ: 225.08678
RT: 5.1891
ExactMass: 224.07970687
Spectrum_type: 2
charge: 1
Formula: C10H12N2O4
SMILES: CC1=CN(C(=O)NC1=O)C2C[C@@H]3[C@H](O2)CO3
Method: HCD
Collision_energy: [28.333334]
Isolation_window: 4.0
Ion_mode: P
Num Peaks: 24
69.0338	26.5
81.0338	6.8
89.0598	5.9
99.0441	13.3
110.0600	4.5
127.0500	100.0
128.0532	4.8
161.1071	3.7
165.0211	4.3
172.0754	4.3
180.1015	6.5
190.0860	7.2
206.0808	7.0
207.1125	12.5
207.1589	3.3
208.0964	30.2
224.0914	36.0
224.1276	12.3
225.0862	38.2
225.1225	9.7
225.1596	3.5
226.0744	3.9
226.0908	3.7
226.1069	53.4

Name: 1-((2,3,4-Trihydroxy-5-(hydroxymethyl)oxolan-2-yl)methyl)pyrrolidine-2-carboxylic acid
PrecursorMZ: 278.12305
RT: 7.5213
ExactMass: 277.11615195
Spectrum_type: 2
charge: 1
Formula: C11H19NO7
SMILES: C1CC(N(C1)CC2(C(C(C(O2)CO)O)O)O)C(=O)O
Method: HCD
Collision_energy: [28.333334]
Isolation_window: 4.0
Ion_mode: P
Num Peaks: 30
60.0812	31.0
70.0655	20.8
86.0603	19.7
100.0758	8.6
112.0757	8.3
114.0662	8.5
116.0706	29.5
128.0705	21.2
140.1067	8.9
142.0862	14.0
146.0599	19.9
148.0392	24.0
186.0869	23.8
214.1072	17.6
220.0599	19.8
231.0761	9.5
232.1176	58.1
234.1850	22.2
260.1131	15.7
262.1283	12.1
276.1192	23.2
277.1189	22.6
277.1544	25.9
278.1009	12.4
278.1231	100.0
278.1384	30.1
279.0945	25.0
279.1335	82.1
280.1162	10.0
280.1397	9.0

Name: 1-((2R)-2-amino-4-methylpentanoyl)pyrrolidine-2-carboxylic acid
PrecursorMZ: 229.15421
RT: 5.779
ExactMass: 228.1473925
Spectrum_type: 2
charge: 1
Formula: C11H20N2O3
SMILES: CC(C)C[C@H](C(=O)N1CCCC1C(=O)O)N
Method: HCD
Collision_energy: [28.333334]
Isolation_window: 4.0
Ion_mode: P
Num Peaks: 158
61.0286	1.1
67.0545	1.2
69.0337	1.1
69.0701	3.3
69.7596	1.0
69.8206	0.9
70.0653	71.2
71.0493	1.2
71.0686	3.3
72.0445	1.5
72.0809	4.9
74.0602	1.2
80.0495	1.0
81.0336	19.5
81.0699	1.0
82.0652	1.2
83.0493	1.3
83.0604	1.6
84.0444	3.6
84.0808	2.0
86.0601	5.0
86.0964	64.0
87.0998	3.0
95.0490	1.2
95.0602	1.0
95.0855	1.0
96.0443	3.5
96.0806	1.1
97.0283	1.5
97.0761	4.2
98.0235	0.7
98.0599	5.7
99.0440	1.0
100.0756	1.3
102.0547	1.0
105.0697	6.2
108.0442	1.3
109.0759	1.0
109.1012	1.6
110.0235	0.9
110.0598	2.4
111.0439	2.1
112.0755	1.6
113.0708	1.6
114.0547	1.8
114.0912	1.3
116.0704	100.0
117.0736	5.5
120.0554	0.8
121.0645	1.6
121.0757	1.7
122.0598	1.6
123.0915	2.3
124.0389	1.9
124.0754	1.9
126.0545	1.5
126.0910	4.2
128.0702	1.3
129.0543	1.8
130.0647	3.4
132.1012	1.0
133.0756	2.6
134.0597	1.0
136.0752	1.4
137.0703	0.9
137.1070	2.6
138.0545	1.6
139.0497	1.0
139.0862	12.4
140.0702	5.2
140.0895	0.7
141.1018	2.5
144.0803	1.0
146.0596	2.3
147.0912	4.5
149.0705	1.0
151.0861	6.8
151.1227	7.8
152.0702	4.3
152.1255	0.9
154.0645	1.1
154.0857	1.0
155.1174	0.9
158.0959	14.8
163.0860	2.7
164.0701	1.6
165.1017	2.1
165.1383	1.5
166.0857	3.9
167.0810	1.6
167.1175	0.8
168.0801	2.8
169.0966	2.0
170.0807	1.2
172.0389	2.7
175.0859	9.0
176.0892	0.9
180.0761	1.4
181.0965	2.9
181.1331	4.1
182.0805	10.0
182.0997	1.7
182.1169	1.6
183.0910	2.1
183.1120	1.8
183.1486	1.8
184.0961	1.2
184.1076	6.1
184.1325	1.8
185.1280	1.9
188.0698	5.7
188.0916	2.2
192.1014	1.4
193.0964	14.5
193.1330	5.3
194.0805	5.1
194.0998	1.4
198.0866	3.0
200.1386	0.9
202.1068	0.8
209.0911	1.6
210.0753	1.3
210.0952	2.1
210.1116	3.1
211.1069	14.9
211.1435	11.4
212.0910	7.8
212.1107	1.5
212.1272	2.3
212.1470	1.5
213.1226	3.2
214.0854	3.9
227.1014	2.0
227.1384	3.8
227.1493	2.1
228.0650	1.0
228.0683	0.9
228.0857	5.0
228.1015	3.9
228.1223	6.6
228.1335	2.3
228.1422	0.8
228.1585	0.9
228.2316	1.4
229.0963	3.0
229.1175	40.5
229.1323	1.1
229.1539	57.2
230.0805	3.5
230.1014	35.5
230.1132	1.2
230.1172	4.1
230.1213	4.6
230.1384	4.8
230.1577	6.2
231.1033	0.9
231.1118	3.6
231.1331	2.3

Name: 1-((2R)-pyrrolidine-2-carbonyl)pyrrolidine-2-carboxylic acid
PrecursorMZ: 213.1229
RT: 9.836
ExactMass: 212.11609238
Spectrum_type: 2
charge: 1
Formula: C10H16N2O3
SMILES: C1C[C@@H](NC1)C(=O)N2CCCC2C(=O)O
Method: HCD
Collision_energy: [28.333334]
Isolation_window: 4.0
Ion_mode: P
Num Peaks: 13
70.0654	100.0
71.0687	3.5
116.0705	24.6
126.0548	2.2
168.0687	2.0
212.0914	6.6
212.1278	2.2
213.1229	36.3
214.0703	2.2
214.1073	2.2
214.1270	3.3
214.1431	3.6
215.1026	2.2

Name: 1-((2R,3S,5R)-3,4-dihydroxy-5-(hydroxymethyl)oxolan-2-yl)-5-ethylpyrimidine-2,4-dione
PrecursorMZ: 273.10772
RT: 9.0662
ExactMass: 272.10083623
Spectrum_type: 2
charge: 1
Formula: C11H16N2O6
SMILES: CCC1=CN(C(=O)NC1=O)[C@H]2[C@H](C([C@H](O2)CO)O)O
Method: HCD
Collision_energy: [28.333334]
Isolation_window: 4.0
Ion_mode: P
Num Peaks: 28
70.0655	2.2
84.0810	1.1
100.1121	1.6
112.9998	1.4
118.1225	4.9
124.0392	1.4
141.0656	100.0
142.0690	6.1
146.0922	1.9
175.1186	1.2
211.1070	1.1
214.1095	1.1
256.1286	1.2
271.1280	3.5
271.1644	2.8
272.1120	4.8
272.1248	3.6
272.1589	1.3
273.1074	10.3
273.1185	5.1
273.1213	2.8
273.1428	1.3
273.1559	1.7
274.1067	3.7
274.1391	9.2
274.1868	1.2
275.1342	2.8
275.1595	1.4

Name: 1-((2R,3S,5R)-3,4-dihydroxy-5-(hydroxymethyl)oxolan-2-yl)pyridin-1-ium-3-carboxylic acid
PrecursorMZ: 256.08118
RT: 8.63645
ExactMass: 256.08211217
Spectrum_type: 2
charge: 1
Formula: C11H14NO6+
SMILES: C1=CC(=C[N+](=C1)[C@H]2[C@H](C([C@H](O2)CO)O)O)C(=O)O
Method: HCD
Collision_energy: [28.333334]
Isolation_window: 4.0
Ion_mode: P
Num Peaks: 29
55.0182	1.0
57.0339	2.7
61.0288	0.8
69.0338	1.0
73.0287	2.1
84.0810	0.8
85.0286	2.8
87.0443	1.1
97.0285	1.1
115.0390	2.8
124.0299	0.7
124.0392	100.0
124.0486	0.7
125.0426	6.8
133.0494	6.4
141.0657	2.6
192.1016	0.9
219.1124	1.0
237.1233	0.9
239.1136	1.8
255.0970	0.7
255.1062	3.7
255.1334	1.1
256.0811	2.4
256.1172	1.9
256.1296	1.5
257.1125	9.6
257.1251	1.4
258.0963	0.7

Name: 1-((2S)-5-oxopyrrolidine-2-carbonyl)pyrrolidine-2-carboxylic acid
PrecursorMZ: 227.10218
RT: 5.6103
ExactMass: 226.09535693
Spectrum_type: 2
charge: 1
Formula: C10H14N2O4
SMILES: C1CC(N(C1)C(=O)[C@@H]2CCC(=O)N2)C(=O)O
Method: HCD
Collision_energy: [28.333334]
Isolation_window: 4.0
Ion_mode: P
Num Peaks: 101
59.0607	1.3
67.0544	0.9
69.0701	3.5
69.1157	2.0
69.3078	1.9
69.7451	1.5
69.9722	1.3
69.9806	1.2
70.0653	100.0
71.0687	3.6
72.0810	1.3
81.0336	6.2
81.0700	1.3
82.0652	2.1
83.0605	3.8
83.0856	1.4
84.0445	37.7
85.0478	1.6
86.0601	2.2
86.0965	4.9
87.0441	5.9
95.0855	2.6
96.0443	1.5
97.0283	5.5
97.4568	1.8
98.0600	1.8
100.0756	1.1
109.0759	3.3
109.1011	1.6
110.0599	1.6
114.0550	1.2
116.0704	60.0
117.0737	2.8
124.0754	3.6
126.0546	3.4
128.1065	1.5
130.0496	4.5
130.0860	1.3
136.0750	1.7
140.0337	23.5
140.0702	8.0
141.0371	1.5
141.1020	1.4
149.0705	4.1
161.0706	0.9
162.0909	2.1
163.0582	1.1
163.0862	1.3
164.0702	1.6
165.0542	1.3
167.0810	2.1
168.0650	2.9
175.1475	1.3
179.0890	1.2
180.0648	4.5
180.1014	1.3
181.0602	1.2
181.0680	0.9
181.0966	49.4
182.0806	2.1
182.0920	5.7
182.1000	5.0
182.1168	2.2
184.0961	2.2
185.0915	3.8
187.1072	1.2
191.0808	3.1
198.1119	2.2
199.0860	10.7
199.1435	1.4
200.0897	1.2
207.0756	1.0
207.1122	1.2
208.0597	1.8
208.0962	2.4
208.1074	1.2
209.0549	2.6
209.0913	43.7
210.0756	1.4
210.0950	4.9
210.1117	1.2
225.1227	1.8
225.1589	1.7
226.0687	2.1
226.1067	14.6
226.1182	2.7
226.1431	2.2
227.0809	16.6
227.1017	21.6
227.1123	2.2
227.1382	5.8
228.0864	10.6
228.0974	1.2
228.1015	4.7
228.1047	1.7
228.1223	2.5
228.1337	3.6
228.2313	2.2
228.2679	1.9
229.1174	1.3
229.1541	6.0

Name: 1-((2S,3R,4S,5R)-3,4-dihydroxy-5-(hydroxymethyl)oxolan-2-yl)pyridin-1-ium-3-carboxamide
PrecursorMZ: 255.097
RT: 12.8986
ExactMass: 255.09809658
Spectrum_type: 2
charge: 1
Formula: C11H15N2O5+
SMILES: C1=CC(=C[N+](=C1)[C@@H]2[C@@H]([C@@H]([C@H](O2)CO)O)O)C(=O)N
Method: HCD
Collision_energy: [28.333334]
Isolation_window: 4.0
Ion_mode: P
Num Peaks: 7
73.0287	11.3
123.0551	100.0
124.0586	6.3
236.1123	9.6
254.1018	8.2
255.1331	6.3
256.1174	6.2

Name: 1-((2S,4S,5S)-3,4-dihydroxy-5-(hydroxymethyl)oxolan-2-yl)-5-ethenylpyrimidine-2,4-dione
PrecursorMZ: 271.09203
RT: 7.813
ExactMass: 270.08518617
Spectrum_type: 2
charge: 1
Formula: C11H14N2O6
SMILES: C=CC1=CN(C(=O)NC1=O)[C@@H]2C([C@@H]([C@@H](O2)CO)O)O
Method: HCD
Collision_energy: [28.333334]
Isolation_window: 4.0
Ion_mode: P
Num Peaks: 27
70.0655	2.5
84.0446	2.5
97.0285	2.5
110.0713	2.4
115.0389	4.2
121.0395	8.0
124.0391	2.3
139.0500	59.7
140.0532	3.4
168.1018	2.7
181.0492	3.9
204.0161	2.4
208.0964	1.9
225.1229	2.4
227.0313	2.3
252.0861	2.3
252.0977	2.0
253.0810	3.2
270.0962	6.3
270.1086	12.7
271.0918	100.0
271.1059	3.0
271.1271	6.1
272.0943	12.6
272.1119	3.8
272.1270	2.5
273.1214	2.0

Name: 1-((3E,5E)-6-(1,3-benzodioxol-5-yl)hexa-1,3,5-trien-2-yl)piperidine
PrecursorMZ: 284.16403
RT: 1.3063500000000001
ExactMass: 283.157228913
Spectrum_type: 2
charge: 1
Formula: C18H21NO2
SMILES: C=C(/C=C/C=C/C1=CC2=C(C=C1)OCO2)N3CCCCC3
Method: HCD
Collision_energy: [28.333334]
Isolation_window: 4.0
Ion_mode: P
Num Peaks: 29
69.0702	19.4
69.1968	1.6
84.0810	8.1
86.0966	14.6
97.4580	1.9
112.0757	78.6
113.0790	4.3
133.0647	5.5
135.0438	12.0
138.0911	4.7
143.0490	2.2
143.0854	2.6
151.0990	9.3
153.0697	9.5
153.1146	1.4
157.0646	10.6
164.1069	5.1
171.0437	3.3
171.0801	47.4
172.0835	5.2
173.0590	2.1
181.0642	3.2
199.0750	63.6
200.0783	7.2
201.0542	60.1
284.1638	100.0
285.0750	1.7
285.1674	17.4
286.1430	60.1

Name: 1-(1-(2-Amino-3-hydroxypropanoyl)pyrrolidine-2-carbonyl)pyrrolidine-2-carboxylic acid
PrecursorMZ: 300.15517
RT: 7.6689
ExactMass: 299.14812078
Spectrum_type: 2
charge: 1
Formula: C13H21N3O5
SMILES: C1CC(N(C1)C(=O)C2CCCN2C(=O)C(CO)N)C(=O)O
Method: HCD
Collision_energy: [28.333334]
Isolation_window: 4.0
Ion_mode: P
Num Peaks: 97
55.0547	1.5
56.0499	3.4
58.0656	2.3
70.0655	21.9
74.0604	1.8
81.0339	1.6
83.0495	1.5
84.0447	16.4
84.0811	4.0
85.0763	1.1
96.0447	2.7
98.0603	3.0
100.0759	3.5
101.0599	4.1
108.0446	7.7
110.0603	1.8
112.0759	5.7
113.0711	20.9
114.0551	1.6
114.0663	2.4
114.0746	1.2
116.0708	100.0
117.0741	4.6
122.0601	1.2
126.0550	4.0
127.0866	1.8
128.0707	13.3
129.1022	1.3
139.0865	1.5
140.0707	6.8
141.0659	22.4
142.0692	1.6
142.0863	11.1
149.0267	1.4
152.0704	1.3
153.1023	6.0
157.0972	18.6
158.0813	3.1
158.1006	1.2
158.1176	2.1
167.0815	2.1
168.0655	1.4
173.0921	33.5
174.0955	2.7
180.1132	1.3
181.0973	1.4
184.1333	4.2
185.0921	27.2
186.0956	2.7
199.0869	4.8
199.1077	51.6
200.0706	3.6
200.1112	4.8
210.0871	7.5
212.1030	1.8
213.1233	2.6
220.1335	1.3
227.1026	5.5
236.0920	1.2
239.1026	3.6
253.1177	1.7
254.1494	1.8
255.1128	2.8
255.1705	1.4
256.1291	21.3
257.1329	2.3
264.1229	1.2
281.1123	2.1
282.1091	2.5
282.1322	1.6
283.1287	24.5
284.1238	1.6
284.1329	2.9
299.1019	1.6
299.1230	1.9
299.1391	9.6
299.1592	3.3
299.1723	1.2
299.2011	1.3
300.0478	2.6
300.0872	3.3
300.1073	5.2
300.1225	10.8
300.1422	1.6
300.1556	25.5
301.0878	1.3
301.1186	10.7
301.1220	1.6
301.1396	11.8
301.1529	4.1
301.1574	2.7
301.1756	4.8
301.2167	1.2
302.1023	3.0
302.1223	4.4
302.1364	6.9
302.1398	2.6

Name: 1-(1-Formylpyrrolidine-2-carbonyl)pyrrolidine-2-carboxylic acid
PrecursorMZ: 241.11801
RT: 5.7437
ExactMass: 240.111007
Spectrum_type: 2
charge: 1
Formula: C11H16N2O4
SMILES: C1CC(N(C1)C=O)C(=O)N2CCCC2C(=O)O
Method: HCD
Collision_energy: [28.333334]
Isolation_window: 4.0
Ion_mode: P
Num Peaks: 96
58.0655	0.2
60.0562	0.2
70.0655	2.9
72.0812	0.3
74.0604	0.1
81.0338	0.2
84.0812	0.7
89.0600	0.3
97.0762	0.4
98.0602	0.6
100.0760	0.2
101.0602	0.2
112.0871	0.7
115.0867	0.2
116.0708	0.8
125.0709	1.0
126.0551	0.5
129.1023	0.4
130.0864	0.3
133.0860	0.1
147.1131	0.3
155.0817	0.6
164.1190	0.2
165.1017	0.2
166.1340	2.1
167.1180	4.0
168.1215	0.4
177.1018	0.2
183.1134	0.2
185.1036	0.6
192.1142	0.2
193.0996	0.2
194.0924	0.2
194.0997	0.2
194.1290	33.1
194.1586	0.2
194.1658	0.2
195.0759	0.3
195.0833	0.2
195.1130	34.4
195.1313	3.9
195.1504	0.3
196.1164	3.7
196.1338	0.2
197.1184	0.3
202.1080	0.4
209.1402	0.5
210.0794	0.4
212.1395	1.7
213.1416	0.2
220.1081	2.7
221.1112	0.3
225.1026	0.2
225.1345	0.2
228.1344	0.1
237.1349	5.3
238.1383	0.7
239.1046	0.2
239.1382	0.5
240.1244	0.5
241.1181	0.4
241.1537	0.9
242.1397	0.4
242.1606	1.5
243.1351	0.3
243.1666	0.3
244.0972	0.2
244.1546	0.9
246.1521	0.2
248.0349	0.3
248.1597	0.3
249.1263	0.2
250.1177	0.2
251.1396	0.3
252.1241	0.5
252.1450	0.2
253.1214	0.3
253.1547	0.2
254.0265	0.3
254.0892	0.2
254.1059	0.8
254.1171	0.7
254.1611	100.0
254.2058	0.4
254.2167	0.8
254.2325	0.3
254.2807	0.2
255.1344	3.1
255.1639	13.2
256.1358	0.4
256.1656	1.1
257.1519	0.4
258.0815	0.2
258.1450	0.2
259.1654	0.6
260.1470	0.3

Name: 1-(2,5-Diamino-5-oxopentanoyl)pyrrolidine-2-carboxylic acid
PrecursorMZ: 244.12892
RT: 6.8950499999999995
ExactMass: 243.12190603
Spectrum_type: 2
charge: 1
Formula: C10H17N3O4
SMILES: C1CC(N(C1)C(=O)C(CCC(=O)N)N)C(=O)O
Method: HCD
Collision_energy: [28.333334]
Isolation_window: 4.0
Ion_mode: P
Num Peaks: 55
70.0655	5.9
71.0495	4.8
83.0605	1.9
84.0447	8.0
84.0810	3.7
86.0603	3.4
86.0967	11.4
87.0443	3.2
97.0285	9.3
98.0602	2.9
114.0550	2.0
114.0663	2.1
116.0707	3.1
127.0498	2.0
128.0818	9.9
130.0498	17.0
131.0490	3.5
132.0655	4.3
132.1019	2.9
136.0757	2.1
146.0924	5.2
149.0597	5.0
152.0705	5.1
153.1021	3.0
163.0865	3.3
167.0814	3.3
180.0653	5.7
180.1130	3.9
181.0968	2.7
183.0762	3.3
197.0920	2.5
197.1281	4.6
198.0759	7.3
198.1127	3.1
198.1235	30.2
199.1270	3.5
208.1075	2.1
209.0918	3.6
225.0864	3.2
226.0708	13.2
226.1069	2.6
226.1181	15.7
227.1022	7.5
243.0793	5.0
243.0970	15.8
243.1160	2.8
243.1334	14.2
244.0814	3.6
244.0964	17.2
244.1180	6.1
244.1288	100.0
245.0919	2.3
245.1127	25.5
245.1315	9.1
245.1476	2.7

Name: 1-(2-((2-Amino-3-methylbutanoyl)amino)-4-methylpentanoyl)pyrrolidine-2-carboxylic acid
PrecursorMZ: 328.22247
RT: 4.9099
ExactMass: 327.21580641
Spectrum_type: 2
charge: 1
Formula: C16H29N3O4
SMILES: CC(C)CC(C(=O)N1CCCC1C(=O)O)NC(=O)C(C(C)C)N
Method: HCD
Collision_energy: [28.333334]
Isolation_window: 4.0
Ion_mode: P
Num Peaks: 54
70.0654	100.0
72.0811	33.3
81.0338	7.4
86.0966	50.9
97.4561	4.2
98.0600	4.5
103.0390	13.1
116.0706	84.6
117.0737	5.7
120.0807	32.3
136.0754	16.8
149.0594	4.2
149.0708	8.4
154.1225	14.9
164.0708	5.2
166.0969	5.6
169.1333	4.2
171.1489	5.7
182.0808	4.0
183.1489	16.2
185.1645	29.9
186.1679	4.1
197.1281	5.0
211.1437	14.6
213.1593	26.0
215.1386	74.1
216.1419	6.7
218.0810	6.1
222.1122	4.9
223.0967	4.4
229.1295	6.8
229.1542	24.5
250.1068	8.0
267.1329	4.6
292.1168	8.5
311.1705	4.9
312.1797	6.3
326.3784	4.9
327.1331	17.9
327.1544	5.1
327.1695	4.8
327.1911	7.2
327.2040	13.3
328.1168	9.3
328.1369	10.1
328.1538	5.9
328.2223	42.1
329.1128	6.9
329.1486	27.0
329.1703	4.0
329.2258	5.7
330.0974	4.0
330.1327	14.1
330.1517	5.2

Name: 1-(2-(2-(2-(2-(2-(2-(2-(2-Azidoethoxy)ethoxy)ethoxy)ethoxy)ethoxy)ethoxy)ethoxy)ethyl)-2-methylhydrazine
PrecursorMZ: 446.25858
RT: 4.8982
ExactMass: 423.26929854
Spectrum_type: 2
charge: 1
Formula: C17H37N5O7
SMILES: CNNCCOCCOCCOCCOCCOCCOCCOCCN=[N+]=[N-]
Method: HCD
Collision_energy: [28.333334]
Isolation_window: 4.0
Ion_mode: P
Num Peaks: 10
69.9232	9.9
87.0440	30.1
89.0597	86.5
103.0388	100.0
131.0699	10.3
133.0855	60.0
136.0613	12.5
177.1117	14.4
429.2306	48.8
446.2557	14.1

Name: 1-(2-(2-(3-(3-(4-(2-(Cyclopropylmethyl)cyclopropyl)-2-methylbutyl)cyclobutyl)cyclobutyl)cyclopropyl)ethoxy)-4,9-dimethyl-11-(2,7,7-trimethylcyclohepten-1-yl)undeca-3,5,8,10-tetraen-1-ol
PrecursorMZ: 707.57288
RT: 0.9739500000000001
ExactMass: 684.58453166
Spectrum_type: 2
charge: 1
Formula: C48H76O2
SMILES: CC1=C(C(CCCC1)(C)C)C=CC(=CCC=CC(=CCC(O)OCCC2CC2C3CC(C3)C4CC(C4)CC(C)CCC5CC5CC6CC6)C)C
Method: HCD
Collision_energy: [28.333334]
Isolation_window: 4.0
Ion_mode: P
Num Peaks: 13
78.6199	4.7
112.8957	5.1
383.1397	6.2
439.2023	16.8
495.2651	31.1
551.3274	11.0
607.3908	6.2
663.4524	23.0
706.5634	3.9
707.5736	100.0
708.5142	5.8
708.5765	45.3
709.5809	4.6

Name: 1-(2-(Furan-2-yl)-2-oxoethyl)-5-oxopyrrolidine-2-carboxylic acid
PrecursorMZ: 238.0709
RT: 4.652433333333334
ExactMass: 237.06372245
Spectrum_type: 2
charge: 1
Formula: C11H11NO5
SMILES: C1CC(=O)N(C1C(=O)O)CC(=O)C2=CC=CO2
Method: HCD
Collision_energy: [28.333334]
Isolation_window: 4.0
Ion_mode: P
Num Peaks: 32
68.0499	2.9
70.0655	4.3
81.0338	3.0
84.0448	15.0
86.0967	1.9
95.0859	1.9
96.0446	2.4
100.1123	3.1
114.0551	43.5
115.0585	1.7
116.0708	9.3
120.0809	2.4
125.0597	4.1
135.0441	5.9
142.0499	100.0
143.0533	5.9
161.0710	7.1
164.0707	16.8
170.0448	6.1
191.0815	1.9
192.0656	8.6
192.1017	2.1
219.1381	1.5
236.1645	9.8
237.0876	3.4
237.1493	2.1
237.1684	3.0
238.0709	10.2
238.1073	4.4
240.0868	2.0
240.1234	1.7
240.1592	5.7

Name: 1-(2-Amino-4-methylpentanoyl)pyrrolidine-2-carboxylic acid
PrecursorMZ: 229.15466
RT: 1.0787
ExactMass: 228.1473925
Spectrum_type: 2
charge: 1
Formula: C11H20N2O3
SMILES: CC(C)CC(C(=O)N1CCCC1C(=O)O)N
Method: HCD
Collision_energy: [28.333334]
Isolation_window: 4.0
Ion_mode: P
Num Peaks: 119
70.0656	8.8
71.0689	0.3
81.0341	0.2
81.0448	0.2
81.0704	0.1
82.0529	1.2
83.0607	0.4
84.0812	0.2
86.0968	0.6
89.0601	0.5
95.0606	0.3
95.0858	0.1
98.0602	0.2
109.1017	0.1
110.0557	0.1
110.0595	0.1
110.0716	18.7
110.0836	0.1
110.0880	0.1
111.0443	0.3
111.0686	0.1
111.0748	0.9
112.0872	0.1
113.0714	0.1
114.0918	0.1
115.0873	0.1
116.0709	0.9
117.0742	0.1
121.0399	0.4
121.0652	0.1
122.0716	0.2
123.0556	0.3
125.0232	0.1
125.0714	0.1
126.0551	0.1
127.0507	0.1
130.0866	0.1
133.0859	0.2
136.0764	0.1
137.0709	0.2
138.0664	1.7
139.0707	0.1
149.0713	0.2
153.0664	0.1
154.0734	0.1
156.1020	0.2
162.0553	0.1
162.0922	0.5
162.1029	4.2
163.1068	0.4
166.0614	4.6
167.0651	0.3
168.1136	0.1
174.1026	0.1
179.1181	0.1
185.1399	0.1
188.0716	0.1
189.1138	0.1
190.0978	0.6
191.1306	0.1
192.1020	0.1
194.1179	0.1
200.0693	0.1
207.1243	4.5
208.1270	0.4
209.1295	0.1
217.1089	1.6
218.0924	0.3
218.1129	0.2
219.1136	0.1
220.1094	0.1
221.1289	0.4
222.1121	0.2
226.1808	0.1
227.1102	0.1
227.1485	0.3
228.0902	0.1
228.1235	0.6
229.1565	0.1
230.2477	0.3
232.0972	0.8
233.0951	0.1
233.1296	0.1
234.0764	0.4
234.1124	0.1
235.0116	0.2
235.0420	0.1
235.0557	0.2
235.0700	0.8
235.0796	0.5
235.1191	100.0
235.1582	0.7
235.1685	0.7
235.1831	0.3
235.1968	0.1
235.2130	0.1
235.2410	0.2
236.1221	13.4
237.1242	1.4
238.1089	0.4
238.1430	0.3
239.1043	0.2
239.1384	0.4
240.1225	1.4
241.1231	0.3
241.1547	0.1
243.1333	0.1
243.1716	0.1
244.0964	0.1
245.0916	0.1
245.1484	0.1
246.0789	0.1
246.1337	2.8
247.1085	0.1
247.1372	0.4
248.0927	0.1
248.1765	0.1
249.1246	0.1
250.1080	0.1

Name: 1-(2-Hydroxyethyl)-3,5-dimethylpyrazol-4-ol
PrecursorMZ: 157.09728
RT: 5.9442
ExactMass: 156.08987763
Spectrum_type: 2
charge: 1
Formula: C7H12N2O2
SMILES: CC1=C(C(=NN1CCO)C)O
Method: HCD
Collision_energy: [28.333334]
Isolation_window: 4.0
Ion_mode: P
Num Peaks: 36
67.0546	0.5
71.0495	0.4
83.0607	0.6
95.0494	4.8
95.0606	4.8
96.0528	1.1
96.0684	1.5
97.0650	0.7
97.0764	0.7
109.0763	1.8
113.0711	1.1
121.0762	1.6
127.0754	1.2
130.0652	3.8
139.0866	11.0
140.0900	0.6
155.0709	1.0
155.0815	3.9
155.1180	0.9
156.0422	1.0
156.0779	0.7
156.0852	0.7
156.1020	0.8
157.0763	3.3
157.0838	0.6
157.0866	0.6
157.0972	100.0
157.1106	0.7
157.1700	9.4
158.0602	0.7
158.0810	0.8
158.0942	0.8
158.1006	7.4
158.1176	2.4
158.1539	1.3
158.1731	0.8

Name: 1-(3-((2S)-5-(4-hydroxybenzyl)-3,6-dioxopiperazin-2-yl)propyl)guanidine
PrecursorMZ: 320.17127
RT: 6.5331
ExactMass: 319.16443955
Spectrum_type: 2
charge: 1
Formula: C15H21N5O3
SMILES: C1=CC(=CC=C1CC2C(=O)N[C@H](C(=O)N2)CCCN=C(N)N)O
Method: HCD
Collision_energy: [28.333334]
Isolation_window: 4.0
Ion_mode: P
Num Peaks: 49
60.0556	3.7
70.0656	8.0
75.0268	2.4
84.0806	1.8
89.0600	2.2
96.9948	1.9
98.0603	5.1
98.9845	2.1
100.0756	2.1
112.0871	3.0
122.0813	7.1
136.0760	2.7
155.0813	1.9
210.0794	3.3
233.1284	14.6
234.1330	2.2
260.1393	3.6
261.1234	66.8
262.1269	9.7
278.1385	3.2
303.1446	8.2
318.1895	3.2
319.1615	3.9
320.1720	100.0
321.1756	18.4
322.1301	3.0
322.1711	2.0
323.1294	2.0
323.1601	2.7
324.1420	6.1
325.1424	3.5
326.1232	2.0
326.1622	3.5
327.1545	14.1
328.1421	5.4
328.1777	4.1
329.1719	10.7
330.1585	6.7
330.1909	2.2
330.3367	6.5
331.1903	2.5
332.1117	2.5
332.1777	2.9
333.1468	2.0
334.1237	4.1
336.1450	3.5
337.1420	1.8
338.1604	2.9
339.1583	1.9

Name: 1-(Allyl)pyrrolidin-2-one
PrecursorMZ: 126.09138
RT: 0.7206
ExactMass: 125.084063974
Spectrum_type: 2
charge: 1
Formula: C7H11NO
SMILES: C=CCN1CCCC1=O
Method: HCD
Collision_energy: [28.333334]
Isolation_window: 4.0
Ion_mode: P
Num Peaks: 9
69.0338	59.3
84.0809	18.8
98.0601	24.2
125.1072	59.5
126.0549	26.6
126.0912	100.0
127.0725	18.9
127.1228	27.4
128.1432	24.8

Name: 1-(Benzenesulfonyl)cyclopentane-1-carboxylic acid
PrecursorMZ: 255.06789
RT: 5.5057
ExactMass: 254.0612801
Spectrum_type: 2
charge: 1
Formula: C12H14O4S
SMILES: C1CCC(C1)(C(=O)O)S(=O)(=O)C2=CC=CC=C2
Method: HCD
Collision_energy: [28.333334]
Isolation_window: 4.0
Ion_mode: P
Num Peaks: 23
84.0444	9.7
85.0285	14.6
87.0264	10.4
97.0106	12.0
97.0283	11.3
101.0054	17.6
125.0053	28.1
143.0157	17.8
193.0966	9.7
236.0909	14.8
237.0576	10.1
239.1019	13.2
253.1533	13.0
254.1015	34.1
255.0676	100.0
255.0949	16.5
255.1128	11.2
255.1321	10.6
256.0707	13.0
256.1168	17.1
256.1285	28.3
256.2989	30.5
257.1123	21.8

Name: 1-)(2R,3R,4S,5R)-3,4-dihydroxy-5-(hydroxymethyl)oxolan-2-yl(-5-ethyl-1,2,3,4-tetrahydropyrimidine-2,4-dione
PrecursorMZ: 273.10788
RT: 3.9793
ExactMass: 272.10083623
Spectrum_type: 2
charge: 1
Formula: C11H16N2O6
SMILES: CCC1=CN(C(=O)NC1=O)C2C(C(C(O2)CO)O)O
Method: HCD
Collision_energy: [28.333334]
Isolation_window: 4.0
Ion_mode: P
Num Peaks: 63
60.0560	0.6
70.0654	2.8
71.0131	2.3
84.0810	0.7
85.0286	0.5
95.0605	0.5
100.0758	1.4
108.0444	0.7
112.0505	0.4
112.0870	0.5
114.0914	0.7
116.0706	0.5
118.0863	0.5
124.0392	7.8
125.0427	0.6
126.0548	0.6
128.0818	0.4
128.1068	0.5
129.0658	1.9
133.0495	0.4
140.0818	0.5
141.0543	0.8
141.0567	0.7
141.0657	100.0
141.0771	0.7
142.0628	0.6
142.0690	6.4
142.1225	0.9
146.0922	1.3
156.0420	10.8
157.0451	0.6
164.0817	0.7
175.1188	1.5
178.0973	0.5
181.0968	0.8
195.0760	1.2
196.1078	0.5
213.0865	1.4
214.1068	0.4
227.8885	0.4
256.1288	0.9
257.1125	0.5
257.1605	0.8
271.1282	1.1
271.1405	0.5
271.1649	0.7
272.0876	0.6
272.1120	3.3
272.1242	2.7
272.2327	2.5
273.1073	18.6
273.1200	0.8
273.1436	0.5
273.1558	1.7
273.1802	0.4
273.2362	0.4
274.1100	2.1
274.1270	0.7
274.1393	11.3
274.1871	4.3
275.1232	0.6
275.1367	0.7
275.1410	1.1

Name: 1-)3,4-Dihydroxy-5-(hydroxymethyl)oxolan-2-yl(pyridin-1-ium-3-carboxylic acid
PrecursorMZ: 256.08127
RT: 3.4316
ExactMass: 256.08211217
Spectrum_type: 2
charge: 1
Formula: C11H14NO6+
SMILES: C1=CC(=C[N+](=C1)C2C(C(C(O2)CO)O)O)C(=O)O
Method: HCD
Collision_energy: [28.333334]
Isolation_window: 4.0
Ion_mode: P
Num Peaks: 35
70.0654	4.5
71.0131	4.3
73.0287	4.3
84.0810	4.3
85.0286	3.4
96.0444	3.4
97.0286	2.6
110.0712	2.5
112.0757	3.4
114.0663	3.2
115.0390	3.2
124.0392	100.0
125.0425	7.5
133.0493	3.1
155.0815	2.7
192.1018	2.7
237.1232	3.2
239.1137	3.1
254.1019	10.4
254.1384	6.4
254.1598	2.2
255.0649	7.9
255.0971	2.7
255.1334	7.0
255.1450	7.6
255.1699	2.3
256.0812	2.3
256.1177	10.4
256.1297	3.7
257.1125	4.3
257.1259	5.9
257.1489	3.6
257.1612	2.5
258.1092	3.7
258.1452	4.4

Name: 1-Acetyl-3-(carboxymethyl)-4-prop-1-en-2-ylpyrrolidine-2-carboxylic acid
PrecursorMZ: 256.11785
RT: 6.6522
ExactMass: 255.11067264
Spectrum_type: 2
charge: 1
Formula: C12H17NO5
SMILES: CC(=C)C1CN(C(C1CC(=O)O)C(=O)O)C(=O)C
Method: HCD
Collision_energy: [28.333334]
Isolation_window: 4.0
Ion_mode: P
Num Peaks: 32
70.0654	22.2
81.0337	24.3
100.0758	26.2
101.0598	20.0
112.0757	14.5
125.0709	13.5
127.0502	9.6
128.0704	17.9
149.0709	13.5
156.0655	23.9
174.0761	9.6
192.1017	12.9
195.0761	13.7
210.1123	12.4
211.1073	9.7
237.0862	21.2
237.1228	12.4
238.1071	26.7
238.1185	16.0
239.1014	18.2
240.0864	9.6
255.0966	59.2
255.1333	50.4
256.1174	100.0
256.1291	83.4
256.2631	19.0
257.1119	62.0
257.1493	14.7
258.1099	9.5
258.1331	18.6
258.1447	10.7
258.1805	12.2

Name: 1-Acetylpiperidine-2-carboxylic acid
PrecursorMZ: 172.09687
RT: 6.6124
ExactMass: 171.08954328
Spectrum_type: 2
charge: 1
Formula: C8H13NO3
SMILES: CC(=O)N1CCCCC1C(=O)O
Method: HCD
Collision_energy: [28.333334]
Isolation_window: 4.0
Ion_mode: P
Num Peaks: 14
67.0546	13.8
84.0811	58.0
100.0759	9.0
100.1123	10.2
109.1014	26.1
114.0551	10.8
114.0915	9.0
126.0914	82.0
130.0863	100.0
154.0863	14.6
170.1179	9.1
171.1493	18.3
172.0968	12.0
173.1173	12.2

Name: 1-Acetylpyrrolidine-2-carboxylate
PrecursorMZ: 158.08113
RT: 1.7909
ExactMass: 156.066068181
Spectrum_type: 2
charge: 1
Formula: C7H10NO3-
SMILES: CC(=O)N1CCCC1C(=O)[O-]
Method: HCD
Collision_energy: [28.333334]
Isolation_window: 4.0
Ion_mode: P
Num Peaks: 5
70.0654	16.9
98.0602	90.7
112.0759	19.6
116.0706	100.0
158.0811	34.6

Name: 1-Carboxyethyl(methyl)azanium
PrecursorMZ: 104.07078
RT: 9.0403
ExactMass: 104.071153562
Spectrum_type: 2
charge: 1
Formula: C4H10NO2+
SMILES: CC(C(=O)O)[NH2+]C
Method: HCD
Collision_energy: [28.333334]
Isolation_window: 4.0
Ion_mode: P
Num Peaks: 9
56.0500	6.1
58.0656	53.2
60.0813	21.0
74.0968	2.8
102.1280	23.9
104.0708	58.7
104.1072	100.0
105.0742	3.2
105.1106	5.6

Name: 1-Cyclohexyl-3-(4-ethoxyphenyl)urea
PrecursorMZ: 263.17506
RT: 2.0842
ExactMass: 262.168127949
Spectrum_type: 2
charge: 1
Formula: C15H22N2O2
SMILES: CCOC1=CC=C(C=C1)NC(=O)NC2CCCCC2
Method: HCD
Collision_energy: [28.333334]
Isolation_window: 4.0
Ion_mode: P
Num Peaks: 6
124.0756	5.7
126.0912	53.3
138.0911	100.0
139.0944	7.9
140.1068	2.7
262.1067	2.6

Name: 1-Deuteriopiperidin-4-ol
PrecursorMZ: 84.08111
RT: 13.7915
ExactMass: 102.09034072
Spectrum_type: 2
charge: 1
Formula: C5H11NO
SMILES: [2H]N1CCC(CC1)O
Method: HCD
Collision_energy: [28.333334]
Isolation_window: 4.0
Ion_mode: P
Num Peaks: 11
55.0547	1.8
56.0500	10.6
67.0546	2.0
82.0655	2.6
83.0607	3.5
84.0448	3.0
84.0811	100.0
85.0764	25.6
85.0845	5.0
86.0604	1.9
86.0967	4.9

Name: 1-Methylzeatin
PrecursorMZ: 234.13402
RT: 8.9046
ExactMass: 233.12766012
Spectrum_type: 2
charge: 1
Formula: C11H15N5O
SMILES: CC(/C=C(/C)\CO)NC1=NC=NC2=C1NC=N2
Method: HCD
Collision_energy: [28.333334]
Isolation_window: 4.0
Ion_mode: P
Num Peaks: 23
81.0337	2.3
84.0809	1.1
150.0771	1.4
162.0771	23.5
163.0802	1.7
176.8749	3.4
216.1234	3.3
232.1331	2.3
233.1273	8.7
233.1372	1.7
233.1644	4.3
234.1122	22.1
234.1240	1.9
234.1343	100.0
234.1481	16.1
234.1595	3.5
235.1071	1.8
235.1165	2.9
235.1430	7.5
235.1791	1.5
236.1279	2.2
236.1490	1.4
236.1641	2.0

Name: 1-O-((2S)-2-ethylhexyl) 10-O-((2R)-2-ethylhexyl) decanedioate
PrecursorMZ: 427.37757
RT: 0.9738
ExactMass: 426.37091007
Spectrum_type: 2
charge: 1
Formula: C26H50O4
SMILES: CCCC[C@@H](CC)COC(=O)CCCCCCCCC(=O)OC[C@@H](CC)CCCC
Method: HCD
Collision_energy: [28.333334]
Isolation_window: 4.0
Ion_mode: P
Num Peaks: 7
57.0703	14.9
71.0859	22.3
121.1011	17.7
139.1116	31.2
185.1168	9.6
203.1275	100.0
204.1312	10.7

Name: 1-O-(3-hydroxy-2,3,3a,5,6,6a-hexahydrofuro(3,2-b)furan-6-yl) 3-O-(6-(3-((3-hydroxy-2,3,3a,5,6,6a-hexahydrofuro(3,2-b)furan-6-yl)oxy)-3-oxopropanoyl)oxy-2,3,3a,5,6,6a-hexahydrofuro(3,2-b)furan-3-yl) propanedioate
PrecursorMZ: 575.16321
RT: 8.0069
ExactMass: 574.15338487
Spectrum_type: 2
charge: 1
Formula: C24H30O16
SMILES: C1C(C2C(O1)C(CO2)OC(=O)CC(=O)OC3COC4C3OCC4OC(=O)CC(=O)OC5COC6C5OCC6O)O
Method: HCD
Collision_energy: [28.333334]
Isolation_window: 4.0
Ion_mode: P
Num Peaks: 10
70.0654	1.8
84.0810	1.5
86.0966	1.3
129.1021	1.4
136.0614	1.5
176.0927	4.0
206.1031	1.1
270.0745	4.1
288.0849	100.0
289.0886	8.0

Name: 1-aminocyclopentane-1-carboxylate
PrecursorMZ: 130.08625
RT: 4.0089
ExactMass: 128.071153562
Spectrum_type: 2
charge: 1
Formula: C6H10NO2-
SMILES: C1CCC(C1)(C(=O)[O-])N
Method: HCD
Collision_energy: [28.333334]
Isolation_window: 4.0
Ion_mode: P
Num Peaks: 9
67.0546	6.9
69.0702	8.4
84.0810	9.4
112.0757	12.0
116.9719	9.2
130.0410	100.0
130.0650	15.1
130.0861	44.4
130.1587	7.3

Name: 1-deuterio-N,N-diethylethanamine
PrecursorMZ: 102.12792
RT: 12.9629
ExactMass: 102.126726229
Spectrum_type: 2
charge: 1
Formula: C6H15N
SMILES: [2H]C(C)N(CC)CC
Method: HCD
Collision_energy: [28.333334]
Isolation_window: 4.0
Ion_mode: P
Num Peaks: 10
58.0656	5.3
72.0812	2.2
74.0968	16.1
75.1001	0.7
97.3992	0.5
102.1209	0.6
102.1279	100.0
102.1350	0.7
103.1312	6.6
104.1072	1.7

Name: 1-formyl-L-proline
PrecursorMZ: 144.06553
RT: 5.1774
ExactMass: 143.058243149
Spectrum_type: 2
charge: 1
Formula: C6H9NO3
SMILES: C1CC(N(C1)C=O)C(=O)O
Method: HCD
Collision_energy: [28.333334]
Isolation_window: 4.0
Ion_mode: P
Num Peaks: 8
70.0654	36.5
98.0601	100.0
99.0635	7.5
121.9660	12.7
144.0654	11.0
144.0806	14.8
145.0757	7.0
146.0599	9.6

Name: 1-methyl-2,3,4,9-tetrahydro-1H-pyrido(3,4-b)indol-2-ium-3-carboxylate
PrecursorMZ: 231.11257
RT: 6.922766666666667
ExactMass: 230.105527694
Spectrum_type: 2
charge: 1
Formula: C13H14N2O2
SMILES: CC1C2=C(CC([NH2+]1)C(=O)[O-])C3=CC=CC=C3N2
Method: HCD
Collision_energy: [28.333334]
Isolation_window: 4.0
Ion_mode: P
Num Peaks: 75
69.4343	1.0
69.4822	0.9
70.0654	3.3
72.0811	3.7
81.0337	1.0
84.0810	2.1
85.0286	3.0
86.0966	5.2
95.0603	0.9
97.4575	0.8
98.0965	2.1
102.0550	6.9
113.1073	2.9
116.0706	2.7
130.0650	2.5
130.0860	1.1
136.0754	0.8
144.0806	100.0
145.0839	8.9
146.0598	3.3
146.0962	23.9
147.0995	2.2
152.0701	0.9
154.0648	0.8
156.0803	1.4
158.0963	15.0
159.0917	1.5
159.0993	1.8
160.0757	1.0
164.0704	1.4
168.0805	2.3
170.0962	4.2
172.0754	1.0
183.0764	1.1
183.0914	1.2
184.1077	1.5
185.0707	1.0
185.1070	15.1
186.0910	2.4
186.1112	2.3
187.1226	5.7
188.0702	9.2
194.0809	0.9
195.0761	1.1
196.0599	1.1
200.1024	1.3
201.1229	2.5
202.0859	9.6
203.0891	1.0
212.0913	1.1
212.1277	1.1
213.0864	4.3
214.0858	5.5
214.1070	1.1
229.0968	1.8
229.1175	2.4
229.1535	1.5
230.0811	6.0
230.1017	4.1
230.1140	5.7
230.1166	2.6
230.1382	14.3
231.0757	2.5
231.0866	2.6
231.0977	2.4
231.1123	47.8
231.1416	1.4
231.1696	0.9
232.0615	0.9
232.0966	11.3
232.1074	7.8
232.1167	9.1
232.1326	13.4
233.0912	2.8
233.1279	7.6

Name: 1-methyl-9H-(2,3-13C2)pyridino(3,4-b)indole
PrecursorMZ: 183.0916
RT: 4.0268
ExactMass: 185.088142892
Spectrum_type: 2
charge: 1
Formula: C12H10N2
SMILES: C[13C]1=NC=CC2=[13C]1[15NH]C3=CC=CC=C23
Method: HCD
Collision_energy: [28.333334]
Isolation_window: 4.0
Ion_mode: P
Num Peaks: 24
69.1272	0.4
91.0544	1.4
97.4307	0.3
126.0662	0.5
137.0835	0.5
138.0911	0.7
148.0391	0.4
155.1178	0.4
162.0548	0.4
164.0702	0.4
166.0497	2.8
182.0813	0.4
182.0838	0.8
182.1174	0.5
183.0746	0.8
183.0779	0.6
183.0915	100.0
183.1049	0.5
183.1084	0.7
183.1129	0.6
184.0427	0.4
184.0603	0.7
184.0885	0.6
184.0948	12.4

Name: 1-methylpiperidine-3-carboxylate
PrecursorMZ: 144.10194
RT: 7.129
ExactMass: 142.086803626
Spectrum_type: 2
charge: 1
Formula: C7H12NO2-
SMILES: CN1CCCC(C1)C(=O)[O-]
Method: HCD
Collision_energy: [28.333334]
Isolation_window: 4.0
Ion_mode: P
Num Peaks: 46
60.0813	0.8
69.0703	0.6
70.0655	1.1
72.0448	6.1
81.0451	0.9
82.0484	0.7
84.0811	5.3
86.0968	0.9
87.0444	1.2
95.0606	0.7
96.0640	0.6
97.3987	0.4
98.0603	1.7
98.0900	0.6
98.0967	100.0
98.1028	0.7
99.1000	7.0
100.0759	0.7
100.1123	27.3
101.0599	0.8
113.0711	5.6
114.0664	19.2
115.0697	1.0
118.0654	0.8
121.9663	3.2
124.0587	2.1
125.0711	0.7
126.0915	0.8
128.0707	0.9
142.0693	3.3
142.0863	0.8
143.0731	1.0
143.0815	0.9
143.1543	1.3
144.0657	0.9
144.0766	3.9
144.0809	15.9
144.0900	0.4
144.1020	59.1
145.0759	1.7
145.0842	1.6
145.0974	1.6
145.1053	5.1
146.0601	1.6
146.0812	10.3
146.1176	10.0

Name: 10-(2-hydroxyethyl)-7,8-dimethyl-1H-benzo(g)pteridin-10-ium-2,4-dione
PrecursorMZ: 287.11336
RT: 3.5071
ExactMass: 287.11441535
Spectrum_type: 2
charge: 1
Formula: C14H15N4O3+
SMILES: CC1=CC2=C(C=C1C)[N+](=C3C(=N2)C(=O)NC(=O)N3)CCO
Method: HCD
Collision_energy: [28.333334]
Isolation_window: 4.0
Ion_mode: P
Num Peaks: 15
172.0868	4.2
173.1072	5.6
198.1020	1.3
200.0814	1.5
216.0764	3.1
216.1128	2.7
243.0873	21.1
244.0913	2.5
244.1077	9.2
245.1114	1.2
269.1028	2.4
286.1580	1.3
287.1134	100.0
288.1171	15.1
289.1403	1.2

Name: 10-Aminodecanoate
PrecursorMZ: 188.16445
RT: 1.791
ExactMass: 186.149403881
Spectrum_type: 2
charge: 1
Formula: C10H20NO2-
SMILES: C(CCCCC(=O)[O-])CCCCN
Method: HCD
Collision_energy: [28.333334]
Isolation_window: 4.0
Ion_mode: P
Num Peaks: 10
69.0703	84.4
81.0703	23.4
93.0701	23.9
95.0858	23.4
97.0651	28.8
107.0856	27.6
111.1170	23.2
135.1168	90.1
153.1273	100.0
170.1539	32.7

Name: 11,22,33-Trihydroxy-12,15,23,26,34-pentaoxo-11,16,22,27,33-pentaaza-2,5,8-trioxapentatriacontane
PrecursorMZ: 622.36462
RT: 5.2134
ExactMass: 621.35850746
Spectrum_type: 2
charge: 1
Formula: C27H51N5O11
SMILES: CC(=O)N(CCCCCNC(=O)CCC(=O)N(CCCCCNC(=O)CCC(=O)N(CCOCCOCCOC)O)O)O
Method: HCD
Collision_energy: [28.333334]
Isolation_window: 4.0
Ion_mode: P
Num Peaks: 13
87.0444	27.6
89.0600	78.7
103.0392	100.0
131.0703	7.6
133.0860	45.4
147.0652	8.4
177.1123	11.5
191.0916	4.3
235.1174	4.0
605.3378	27.2
606.3408	7.2
622.3645	27.7
623.3685	7.9

Name: 11-Carboxyundecylazanium
PrecursorMZ: 216.19559
RT: 1.514
ExactMass: 216.196354072
Spectrum_type: 2
charge: 1
Formula: C12H26NO2+
SMILES: C(CCCCCC(=O)O)CCCCC[NH3+]
Method: HCD
Collision_energy: [28.333334]
Isolation_window: 4.0
Ion_mode: P
Num Peaks: 16
69.0702	12.7
81.0701	18.4
83.0858	27.8
95.0855	12.2
97.1013	24.8
107.0855	19.5
111.0804	14.5
112.8957	14.0
114.8930	84.3
121.1011	16.1
125.0959	12.7
163.1480	62.1
181.1584	30.2
198.1850	16.9
215.1251	100.0
216.1284	11.2

Name: 12-Amino-7-oxododecanoic acid
PrecursorMZ: 212.16437
RT: 2.5837
ExactMass: 229.1677936
Spectrum_type: 2
charge: 1
Formula: C12H23NO3
SMILES: C(CCC(=O)CCCCCN)CCC(=O)O
Method: HCD
Collision_energy: [28.333334]
Isolation_window: 4.0
Ion_mode: P
Num Peaks: 6
69.0703	14.7
112.8958	100.0
149.1324	24.5
166.1588	27.8
168.0687	16.5
212.1643	49.9

Name: 13-(6-Hydroxy-2,5,7,8-tetramethyl-3,4-dihydrochromen-2-yl)-2,6,10-trimethyltridecane-2,6-diol
PrecursorMZ: 445.36724
RT: 1.0313
ExactMass: 462.37091007
Spectrum_type: 2
charge: 1
Formula: C29H50O4
SMILES: CC1=C(C2=C(CCC(O2)(C)CCCC(C)CCCC(C)(CCCC(C)(C)O)O)C(=C1O)C)C
Method: HCD
Collision_energy: [28.333334]
Isolation_window: 4.0
Ion_mode: P
Num Peaks: 66
55.0546	2.2
57.0703	6.5
67.0546	1.9
69.0702	19.6
71.0859	4.6
81.0702	7.0
83.0858	13.2
85.1015	2.9
93.0700	2.2
95.0857	7.5
97.1013	8.0
107.0857	2.3
109.1012	5.6
111.1169	3.9
121.1011	1.9
123.1167	3.5
125.1324	1.5
133.1011	1.7
135.0802	1.5
135.1168	1.6
137.0960	2.0
137.1323	1.6
139.0753	3.6
149.0960	6.8
149.1324	1.7
151.0754	2.3
159.1164	1.4
160.9730	1.3
163.1117	5.8
163.1481	1.3
164.0716	1.5
164.0831	8.4
164.1069	7.0
165.0909	100.0
166.0942	8.0
175.1114	3.8
176.1067	1.5
177.0907	6.8
179.1062	1.7
187.1113	2.3
189.0906	2.1
189.1271	1.9
191.1063	6.8
199.1114	1.4
201.1272	1.9
203.1064	5.2
203.1306	2.2
203.1418	1.6
205.1220	12.3
217.1219	2.3
219.1377	2.7
231.1374	2.9
245.1528	1.4
345.2781	1.4
426.3734	1.9
427.3560	22.1
428.3621	17.2
428.3879	31.6
429.3355	1.2
429.3671	1.2
429.3914	1.6
444.3537	2.5
444.3833	3.0
445.3662	12.3
446.3719	9.2
446.3987	4.2

Name: 14-Amino-3,6,9,12-tetraoxatetradecan-1-ol
PrecursorMZ: 238.16474
RT: 0.7186666666666667
ExactMass: 237.15762283
Spectrum_type: 2
charge: 1
Formula: C10H23NO5
SMILES: C(COCCOCCOCCOCCO)N
Method: HCD
Collision_energy: [28.333334]
Isolation_window: 4.0
Ion_mode: P
Num Peaks: 13
59.0496	3.0
87.0444	3.3
89.0600	100.0
90.0634	4.4
107.0705	2.1
133.0860	53.7
134.0893	3.4
151.0966	3.7
177.1121	4.9
195.1227	4.8
221.1389	2.9
239.1489	20.2
240.1522	2.2

Name: 17-ethynyl-10,13-dimethyl-2,3,4,7,8,9,11,12,14,15-decahydro-1H-cyclopenta(a)phenanthren-3-ol
PrecursorMZ: 297.22066
RT: 1.0265
ExactMass: 296.214015512
Spectrum_type: 2
charge: 1
Formula: C21H28O
SMILES: CC12CCC(CC1=CCC3C2CCC4(C3CC=C4C#C)C)O
Method: HCD
Collision_energy: [28.333334]
Isolation_window: 4.0
Ion_mode: P
Num Peaks: 15
81.0700	41.6
85.0649	16.2
94.9295	26.0
95.0855	20.2
107.0853	17.2
131.0851	21.8
145.1008	38.4
147.1166	20.8
157.1009	31.6
159.1165	31.2
253.1943	21.9
279.2095	39.4
297.2202	100.0
298.2235	22.2
299.0608	62.0

Name: 1H-pyrazol-2-ium-4-ylazanium
PrecursorMZ: 84.05581
RT: 5.5894
ExactMass: 85.063997236
Spectrum_type: 2
charge: 1
Formula: C3H7N3+2
SMILES: C1=C(C=[NH+]N1)[NH3+]
Method: HCD
Collision_energy: [28.333334]
Isolation_window: 4.0
Ion_mode: P
Num Peaks: 11
56.0498	7.7
67.0295	2.6
68.0497	13.8
83.0605	100.0
84.0445	4.0
84.0557	51.3
84.0638	4.1
84.0809	3.2
85.0398	5.8
85.0761	26.9
86.0601	2.6

Name: 1H-pyrimidine-2,4-di(17O2)one
PrecursorMZ: 113.0347
RT: 6.0744
ExactMass: 114.03571165
Spectrum_type: 2
charge: 1
Formula: C4H4N2O2
SMILES: C1=CNC(=[17O])NC1=[17O]
Method: HCD
Collision_energy: [28.333334]
Isolation_window: 4.0
Ion_mode: P
Num Peaks: 13
69.0702	4.6
70.0291	10.6
72.0810	4.2
79.0545	5.7
86.0602	4.4
96.0082	7.4
96.0809	4.7
112.0394	4.3
112.0505	3.8
112.8958	10.7
113.0346	34.9
113.1074	6.2
114.0914	100.0

Name: 2,2,2-Tris(3,5-ditert-butylphenyl)acetaldehyde
PrecursorMZ: 647.45834
RT: 0.9611
ExactMass: 608.495716661
Spectrum_type: 2
charge: 1
Formula: C44H64O
SMILES: CC(C)(C)C1=CC(=CC(=C1)C(C=O)(C2=CC(=CC(=C2)C(C)(C)C)C(C)(C)C)C3=CC(=CC(=C3)C(C)(C)C)C(C)(C)C)C(C)(C)C
Method: HCD
Collision_energy: [28.333334]
Isolation_window: 4.0
Ion_mode: P
Num Peaks: 8
57.0703	15.8
147.1167	20.1
235.0510	7.3
291.1139	15.7
347.1762	18.6
441.2909	21.2
647.4575	100.0
648.4614	40.5

Name: 2,2,3,4,4-Pentadeuterio-4-(deuteriomethyl-methyl-(trideuteriomethyl)azaniumyl)-3-hydroxybutanoate
PrecursorMZ: 162.11231
RT: 9.1088
ExactMass: 170.16168405
Spectrum_type: 2
charge: 1
Formula: C7H15NO3
SMILES: [2H]C[N+](C)(C([2H])([2H])[2H])C([2H])([2H])C([2H])(C([2H])([2H])C(=O)[O-])O
Method: HCD
Collision_energy: [28.333334]
Isolation_window: 4.0
Ion_mode: P
Num Peaks: 69
56.0499	1.5
58.0655	3.3
59.0689	0.8
60.0812	16.3
69.0338	1.8
70.0655	0.9
76.0760	14.1
84.0446	12.8
85.0286	3.6
86.0603	3.1
87.0443	26.5
88.0395	0.6
88.0476	1.4
90.0551	4.6
97.3995	0.7
98.0601	14.3
99.0635	0.8
100.0245	0.9
100.0758	1.2
101.0598	3.0
101.0710	7.6
102.0551	2.5
102.0914	5.4
103.0391	19.6
104.0424	1.2
104.0707	1.2
114.0914	6.9
115.0866	0.8
115.0947	1.3
116.0706	14.1
116.1070	0.9
121.0886	4.3
124.0757	3.8
125.0597	1.8
126.0913	19.0
127.0389	1.1
127.0945	1.3
130.0497	6.3
134.0271	0.8
142.0861	6.1
143.0814	1.6
143.0893	1.2
144.0654	22.2
144.1018	2.6
145.0494	1.7
145.0688	1.3
160.0967	14.5
160.1078	2.8
160.1158	1.8
160.1331	7.4
160.1443	1.1
160.9013	1.5
161.0707	0.6
161.0922	1.2
161.1000	3.1
161.1071	1.0
161.1366	1.4
162.0546	0.8
162.0580	1.0
162.0760	3.3
162.0912	0.8
162.1123	100.0
162.1268	1.2
163.0501	1.4
163.1157	7.0
163.1228	1.2
164.0705	0.7
164.0921	1.1
164.1069	18.8

Name: 2,2-Dideuterio-6-(diaminomethylideneamino)hexanoic acid
PrecursorMZ: 174.12368
RT: 10.6605
ExactMass: 175.128980222
Spectrum_type: 2
charge: 1
Formula: C7H15N3O2
SMILES: [2H]C([2H])(CCCCN=C(N)N)C(=O)O
Method: HCD
Collision_energy: [28.333334]
Isolation_window: 4.0
Ion_mode: P
Num Peaks: 12
60.0561	18.5
69.0703	8.4
86.0967	24.5
114.0914	41.4
115.0754	30.4
128.0706	10.0
155.0812	8.1
156.1381	10.3
173.0918	11.1
173.1647	13.9
174.1235	100.0
175.0866	9.5

Name: 2,3-dihydroxypropyl (Z)-10-methyloctadec-9-enoate
PrecursorMZ: 409.27063
RT: 1.2022
ExactMass: 370.30830982
Spectrum_type: 2
charge: 1
Formula: C22H42O4
SMILES: CCCCCCCC/C(=C\CCCCCCCC(=O)OCC(CO)O)/C
Method: HCD
Collision_energy: [28.333334]
Isolation_window: 4.0
Ion_mode: P
Num Peaks: 28
55.0546	2.0
57.0339	5.3
57.0703	4.7
67.0545	1.5
69.0702	8.6
71.0495	1.0
71.0858	5.5
75.0443	0.9
81.0701	4.2
83.0857	9.6
85.1013	3.3
87.0442	1.5
95.0856	4.6
97.1012	10.2
107.0855	1.0
109.1012	3.7
111.1168	4.1
112.9998	65.2
123.1167	1.6
125.1323	1.9
137.1322	1.0
149.0959	4.3
169.0257	100.0
170.0291	4.0
221.2261	1.2
297.2783	2.1
409.2703	3.4
409.3450	1.0

Name: 2,3-dihydroxypropyl 2-(((4R)-4-((3R,7R,10S,12S,13R,17R)-3,7,12-trihydroxy-10,13-dimethyl-2,3,4,5,6,7,8,9,11,12,14,15,16,17-tetradecahydro-1H-cyclopenta(a)phenanthren-17-yl)pentanoyl)amino)ethanesulfonate
PrecursorMZ: 572.3253
RT: 5.5006
ExactMass: 589.32845338
Spectrum_type: 2
charge: 1
Formula: C29H51NO9S
SMILES: C[C@H](CCC(=O)NCCS(=O)(=O)OCC(CO)O)[C@H]1CCC2[C@@]1([C@H](CC3C2[C@@H](CC4[C@@]3(CC[C@H](C4)O)C)O)O)C
Method: HCD
Collision_energy: [28.333334]
Isolation_window: 4.0
Ion_mode: P
Num Peaks: 24
52.7067	5.2
61.5909	1.9
81.0339	1.4
97.3988	1.7
100.0759	2.3
114.0916	1.5
128.0707	21.7
129.0740	1.4
140.1070	1.7
156.1022	1.6
176.8752	2.1
281.2263	2.8
299.2371	3.2
456.3471	11.7
457.3503	3.0
474.3577	100.0
475.3611	26.5
476.3647	3.5
492.3693	1.7
554.3146	39.4
555.3180	12.5
556.3173	2.4
572.3242	4.5
573.3285	1.8

Name: 2,5,7,8-Tetramethyl-2-(4,8,12-trimethyltridec-7,11-dienyl)chroman-6-ol
PrecursorMZ: 427.3567
RT: 0.892
ExactMass: 426.349780706
Spectrum_type: 2
charge: 1
Formula: C29H46O2
SMILES: CC1=C(C2=C(CCC(O2)(C)CCCC(C)CCC=C(C)CCC=C(C)C)C(=C1O)C)C
Method: HCD
Collision_energy: [28.333334]
Isolation_window: 4.0
Ion_mode: P
Num Peaks: 208
55.0545	0.9
57.0703	5.7
67.0546	3.1
69.0702	22.0
69.1324	0.6
69.7835	0.6
70.0735	1.1
71.0495	0.6
71.0858	5.4
73.0470	0.8
79.0544	1.2
81.0701	11.5
82.0735	1.0
83.0494	0.6
83.0858	11.5
84.0891	0.8
85.0287	0.6
85.0650	0.8
85.1014	2.7
86.0967	0.6
91.0544	0.8
91.0576	2.1
93.0700	3.1
95.0494	0.4
95.0856	11.4
96.0890	0.9
97.0649	0.8
97.1013	6.8
97.4564	0.6
98.1046	0.4
99.0806	0.8
104.0529	0.5
105.0700	1.7
107.0856	3.7
108.0889	0.4
109.0648	0.5
109.1012	9.9
110.1046	0.9
111.0441	0.5
111.0805	0.6
111.1169	3.9
112.1204	0.4
117.0699	0.4
119.0855	2.4
120.0807	7.4
121.0647	0.5
121.0840	0.4
121.1011	4.5
122.1045	0.5
123.0804	0.7
123.1168	5.6
124.1201	0.6
125.0598	0.4
125.0959	0.5
125.1324	1.5
127.1116	0.6
131.0854	1.2
133.1010	2.9
135.0804	1.9
135.1167	3.9
136.1201	0.5
137.0595	1.7
137.0959	2.3
137.1323	2.9
139.0752	1.7
139.1116	0.4
143.0855	0.5
145.1010	1.8
147.1167	2.3
149.0447	0.4
149.0594	0.4
149.0960	24.4
149.1323	3.0
150.0993	1.7
150.1357	0.5
151.0752	8.8
151.1118	0.6
151.1480	1.2
152.0784	1.0
157.1012	1.0
159.0805	0.5
159.1167	2.2
161.0960	1.2
161.1323	1.7
163.0752	1.2
163.1116	7.0
163.1479	1.7
164.0834	0.9
164.1150	0.5
165.0548	0.4
165.0765	0.8
165.0795	0.8
165.0853	1.8
165.0908	100.0
165.1025	0.4
165.1054	0.6
165.1639	0.6
166.0531	0.4
166.0862	6.6
166.0942	9.3
167.0553	0.8
167.0700	2.9
167.0894	0.5
167.0967	0.5
171.1165	0.9
173.0959	1.2
173.1323	2.1
175.0751	1.2
175.1115	3.2
175.1478	1.3
176.1150	0.4
177.0907	7.5
177.1270	1.4
177.1635	1.1
178.0940	0.6
179.1064	2.2
179.1791	0.4
183.1167	0.4
185.1321	0.9
187.1114	1.8
187.1480	1.1
189.0907	2.7
189.1272	2.6
189.1633	1.0
190.1669	0.4
191.1064	9.1
191.1426	0.6
191.1790	0.7
192.1096	1.0
193.1219	0.6
197.1322	0.4
199.1114	0.7
199.1477	0.7
201.1272	2.2
201.1633	0.8
203.1063	5.8
203.1427	1.9
203.1791	0.9
204.1091	0.9
205.1220	12.9
205.1586	0.5
205.1949	0.4
206.1252	1.5
207.1013	0.5
211.1476	0.6
213.1271	0.6
213.1634	0.5
215.1427	1.1
215.1790	0.7
217.1220	1.9
217.1586	0.4
217.1949	0.7
219.1375	3.7
221.1167	0.4
227.1428	0.4
229.1222	0.4
229.1582	0.6
229.1948	0.4
231.1375	2.1
232.1413	0.4
233.1531	1.8
243.1742	0.5
245.1532	1.1
247.1687	0.8
253.1947	0.4
261.1845	0.7
266.0972	0.5
275.1996	0.9
275.2727	0.5
287.2004	0.6
289.2156	1.0
301.2157	0.6
303.2312	0.7
308.1438	0.4
315.2309	0.5
317.2473	0.7
324.3256	0.9
331.2624	0.6
345.2779	1.4
346.2814	0.4
359.0275	1.7
371.2934	1.0
399.3254	0.6
401.3405	0.6
409.3109	0.7
409.3456	2.1
410.3481	0.7
411.3270	0.7
411.3613	1.3
412.3325	0.5
425.3052	0.4
425.3403	2.0
425.3763	1.8
426.2718	0.6
426.3069	1.2
426.3441	2.6
426.3799	1.4
427.2850	0.5
427.3212	2.0
427.3562	22.9
427.3859	0.7
428.1647	0.8
428.3194	1.0
428.3598	7.9
429.0876	1.4
429.2998	0.4
429.3358	3.4
429.3714	16.7

Name: 2,5,7,8-tetramethyl-2-((3Z,7Z)-4,8,12-trimethyltrideca-3,7,11-trienyl)-3,4-dihydrochromen-6-ol
PrecursorMZ: 425.3407
RT: 1.1254
ExactMass: 424.334130642
Spectrum_type: 2
charge: 1
Formula: C29H44O2
SMILES: CC1=C(C2=C(CCC(O2)(C)CC/C=C(/C)\CC/C=C(/C)\CCC=C(C)C)C(=C1O)C)C
Method: HCD
Collision_energy: [28.333334]
Isolation_window: 4.0
Ion_mode: P
Num Peaks: 119
55.0546	0.8
57.0703	1.5
67.0546	2.7
69.0702	10.3
71.0858	1.4
79.0545	0.7
81.0701	13.1
82.0735	1.1
83.0858	5.4
84.0810	1.3
85.1014	0.7
86.0966	4.4
89.0599	0.9
93.0700	2.2
95.0857	12.7
96.0891	1.0
97.1013	3.2
97.3987	0.7
105.0699	1.0
107.0856	2.5
109.1012	10.0
110.1046	0.9
111.1169	2.4
119.0855	1.8
121.1011	2.5
123.1168	6.5
124.1201	0.7
125.1325	0.6
128.1069	3.1
133.0857	0.6
133.1011	1.7
135.0803	0.7
135.1167	3.4
136.1120	1.3
137.0959	1.6
137.1323	7.1
138.1358	0.6
139.0754	0.7
145.1011	0.8
145.1333	7.5
146.1367	0.6
147.1167	1.7
149.0960	12.2
149.1323	2.6
150.0994	0.9
151.0752	4.6
151.1481	0.9
159.1167	1.1
161.0960	0.6
161.1324	1.0
163.0753	0.7
163.1117	1.5
163.1480	1.1
164.0831	0.8
165.0763	0.7
165.0909	100.0
165.1054	0.6
166.0942	9.4
167.0701	1.5
173.0960	0.9
173.1323	0.7
175.0752	3.5
175.1117	1.6
175.1479	0.8
177.0908	3.9
177.1273	0.6
177.1636	0.9
179.1064	1.9
185.1324	0.6
187.1115	0.7
187.1481	0.7
189.0908	3.3
189.1271	2.9
189.1635	1.2
191.1064	5.4
191.1792	0.8
201.1272	0.7
203.1064	5.7
203.1428	1.3
205.1220	9.5
205.1950	0.6
206.1253	1.1
217.1220	7.6
218.1254	1.0
219.1376	2.1
229.1219	0.7
231.1376	3.2
233.1532	0.6
245.1532	2.8
255.2104	0.6
261.2569	0.7
287.2001	0.8
301.2159	0.9
315.2309	0.7
318.1954	0.7
329.2470	0.6
343.2630	0.6
369.2783	0.6
395.3303	1.0
397.3094	0.6
407.3303	0.7
408.3252	1.4
409.3461	1.0
424.2824	2.2
424.2991	0.6
424.3262	1.1
424.3606	1.5
424.3642	0.7
425.1271	0.6
425.2688	1.1
425.3062	1.5
425.3407	32.0
425.3643	0.7
425.3722	4.6
426.3437	11.1
426.3763	1.4
427.2817	0.6
427.3206	0.8
427.3564	4.5

Name: 2,5,8,11,14,17,20-Heptaoxadocos-21-ene
PrecursorMZ: 340.2325
RT: 3.0075
ExactMass: 322.19915329
Spectrum_type: 2
charge: 1
Formula: C15H30O7
SMILES: COCCOCCOCCOCCOCCOCCOC=C
Method: HCD
Collision_energy: [28.333334]
Isolation_window: 4.0
Ion_mode: P
Num Peaks: 12
59.0495	87.8
86.0966	19.0
103.0754	17.2
126.0913	18.2
131.0701	100.0
139.9145	15.8
209.1646	10.7
323.2058	39.0
339.1083	12.8
339.1541	10.5
340.2586	21.1
342.1408	13.0

Name: 2,5-Dimethylpyrimidin-1-ium-4-amine
PrecursorMZ: 124.08678
RT: 5.1752
ExactMass: 124.087472332
Spectrum_type: 2
charge: 1
Formula: C6H10N3+
SMILES: CC1=C[NH+]=C(N=C1N)C
Method: HCD
Collision_energy: [28.333334]
Isolation_window: 4.0
Ion_mode: P
Num Peaks: 13
69.1058	2.5
81.0449	1.8
82.0527	3.8
83.0605	5.9
97.4568	1.9
107.0603	1.5
122.0710	5.7
123.0662	1.6
123.0743	1.4
124.0867	100.0
125.0820	3.0
125.0900	8.0
126.1021	1.3

Name: 2,6-Dideuterio-1-methylpiperidine
PrecursorMZ: 100.11228
RT: 7.0427
ExactMass: 101.117352911
Spectrum_type: 2
charge: 1
Formula: C6H13N
SMILES: [2H]C1CCCC(N1C)[2H]
Method: HCD
Collision_energy: [28.333334]
Isolation_window: 4.0
Ion_mode: P
Num Peaks: 15
55.0548	6.1
56.0500	1.7
58.0656	1.7
70.0656	10.5
83.0859	1.5
84.0812	1.5
85.0890	25.8
98.0967	32.0
99.0557	1.5
99.0919	1.9
99.1000	4.7
100.0760	6.0
100.1123	100.0
101.1157	6.1
102.1280	1.3

Name: 2-(((2R)-2-amino-3-(4-hydroxyphenyl)propanoyl)amino)-3-hydroxypropanoic acid
PrecursorMZ: 307.06883
RT: 2.0835
ExactMass: 268.10592162
Spectrum_type: 2
charge: 1
Formula: C12H16N2O5
SMILES: C1=CC(=CC=C1C[C@H](C(=O)NC(CO)C(=O)O)N)O
Method: HCD
Collision_energy: [28.333334]
Isolation_window: 4.0
Ion_mode: P
Num Peaks: 3
136.0758	100.0
180.1020	71.7
307.0684	70.2

Name: 2-(((2R)-2-amino-3-(4-hydroxyphenyl)propanoyl)amino)-4-methylpentanoic acid
PrecursorMZ: 295.16504
RT: 5.416
ExactMass: 294.15795719
Spectrum_type: 2
charge: 1
Formula: C15H22N2O4
SMILES: CC(C)CC(C(=O)O)NC(=O)[C@@H](CC1=CC=C(C=C1)O)N
Method: HCD
Collision_energy: [28.333334]
Isolation_window: 4.0
Ion_mode: P
Num Peaks: 23
86.0966	19.3
120.0808	21.1
121.0650	7.0
130.0499	7.6
136.0755	100.0
137.0788	8.0
147.0761	16.7
277.1176	6.3
278.1370	7.4
294.0976	6.3
294.1303	11.1
294.1456	11.1
294.1695	7.7
295.1058	11.2
295.1259	16.2
295.1434	8.8
295.1642	33.1
296.1110	10.7
296.1262	7.1
296.1483	9.8
296.1616	6.9
297.1229	8.4
297.1437	7.4

Name: 2-(((2R)-2-amino-4-methylpentanoyl)amino)-2-methylpropanoic acid
PrecursorMZ: 217.1545
RT: 1.558
ExactMass: 216.1473925
Spectrum_type: 2
charge: 1
Formula: C10H20N2O3
SMILES: CC(C)C[C@H](C(=O)NC(C)(C)C(=O)O)N
Method: HCD
Collision_energy: [28.333334]
Isolation_window: 4.0
Ion_mode: P
Num Peaks: 5
86.0966	100.0
87.0999	5.9
104.0707	6.9
114.8930	9.6
217.1540	5.2

Name: 2-(((2R)-2-amino-4-methylpentanoyl)amino)-3-(1H-imidazol-5-yl)propanoic acid
PrecursorMZ: 269.16051
RT: 6.1203
ExactMass: 268.15354051
Spectrum_type: 2
charge: 1
Formula: C12H20N4O3
SMILES: CC(C)C[C@H](C(=O)NC(CC1=CN=CN1)C(=O)O)N
Method: HCD
Collision_energy: [28.333334]
Isolation_window: 4.0
Ion_mode: P
Num Peaks: 6
86.0966	9.0
110.0713	30.0
136.0616	6.7
156.0765	100.0
251.1496	10.4
269.1604	22.6

Name: 2-(((2R)-2-amino-4-methylpentanoyl)amino)-3-methylbutanoic acid
PrecursorMZ: 231.17021
RT: 5.4952
ExactMass: 230.16304257
Spectrum_type: 2
charge: 1
Formula: C11H22N2O3
SMILES: CC(C)C[C@H](C(=O)NC(C(C)C)C(=O)O)N
Method: HCD
Collision_energy: [28.333334]
Isolation_window: 4.0
Ion_mode: P
Num Peaks: 64
55.0547	3.0
62.0605	8.1
67.0547	1.7
69.0703	5.5
70.0656	4.4
72.0812	100.0
73.0845	4.4
79.0547	1.8
81.0702	3.7
83.0858	2.0
84.0447	1.7
86.0604	3.3
86.0968	80.1
87.1001	4.1
93.0702	2.2
95.0858	2.0
97.1014	2.0
98.0602	1.6
100.0759	3.8
104.0707	1.7
107.0857	2.2
112.0759	2.6
116.0708	8.6
118.0863	1.7
119.0856	1.6
121.1013	2.8
125.0962	1.9
126.0915	3.9
131.0855	2.2
132.1019	6.0
133.1012	2.6
135.1167	1.8
150.0913	2.9
152.0706	2.2
154.0864	6.3
162.0550	1.6
166.1228	3.2
168.1017	1.7
174.0550	7.3
176.0706	1.6
184.1332	5.3
185.1647	3.6
191.0814	1.7
194.0812	4.0
194.1176	12.3
196.1332	18.4
212.0917	3.7
212.1281	11.7
214.1437	40.1
215.1274	1.5
215.1474	2.5
230.1023	3.8
230.1386	10.2
231.0647	1.8
231.1011	1.6
231.1384	3.3
231.1702	11.5
232.0967	3.8
232.1540	1.9
233.0803	1.7
233.0920	1.7
233.1174	2.2
233.1536	3.2
233.2265	2.2

Name: 2-(((2R)-2-amino-4-methylpentanoyl)amino)-3-phenylpropanoic acid
PrecursorMZ: 279.17025
RT: 5.4179
ExactMass: 278.16304257
Spectrum_type: 2
charge: 1
Formula: C15H22N2O3
SMILES: CC(C)C[C@H](C(=O)NC(CC1=CC=CC=C1)C(=O)O)N
Method: HCD
Collision_energy: [28.333334]
Isolation_window: 4.0
Ion_mode: P
Num Peaks: 12
86.0968	100.0
87.1003	4.7
95.0858	4.5
97.3986	3.8
120.0810	16.3
149.0233	5.6
166.0865	10.4
278.1023	6.6
279.0936	20.2
279.1703	9.8
280.0949	4.6
280.1179	7.3

Name: 2-(((2R)-2-amino-4-methylpentanoyl)amino)-4-methylpentanoic acid
PrecursorMZ: 245.18586
RT: 5.6495
ExactMass: 244.17869263
Spectrum_type: 2
charge: 1
Formula: C12H24N2O3
SMILES: CC(C)C[C@H](C(=O)NC(CC(C)C)C(=O)O)N
Method: HCD
Collision_energy: [28.333334]
Isolation_window: 4.0
Ion_mode: P
Num Peaks: 6
86.0967	100.0
114.0915	14.3
225.1596	4.6
226.1800	5.4
244.0973	4.9
245.1863	6.5

Name: 2-(((2R)-2-aminopropanoyl)amino)-4-methylsulfonylbutanoic acid
PrecursorMZ: 253.08492
RT: 7.2503
ExactMass: 252.07799279
Spectrum_type: 2
charge: 1
Formula: C8H16N2O5S
SMILES: C[C@H](C(=O)NC(CCS(=O)(=O)C)C(=O)O)N
Method: HCD
Collision_energy: [28.333334]
Isolation_window: 4.0
Ion_mode: P
Num Peaks: 26
56.0499	9.8
60.0448	12.9
87.0442	26.0
88.0395	13.5
89.0599	16.7
110.0601	8.4
122.0599	6.2
130.0497	17.7
131.0701	7.3
144.0653	6.4
154.0498	9.3
166.0531	42.2
171.0761	10.9
189.0867	58.3
208.0966	9.2
234.0755	11.3
235.0738	7.2
236.0913	10.4
252.0861	58.0
252.1225	62.4
252.1437	11.5
253.0844	34.8
253.1168	34.8
253.1541	7.8
254.1018	100.0
254.1381	20.4

Name: 2-(((2R)-5-oxopyrrolidine-2-carbonyl)amino)propanoic acid
PrecursorMZ: 201.08661
RT: 5.67445
ExactMass: 200.07970687
Spectrum_type: 2
charge: 1
Formula: C8H12N2O4
SMILES: CC(C(=O)O)NC(=O)[C@H]1CCC(=O)N1
Method: HCD
Collision_energy: [28.333334]
Isolation_window: 4.0
Ion_mode: P
Num Peaks: 30
70.0653	17.3
72.0446	18.6
84.0445	100.0
86.0965	9.9
90.0550	85.4
100.0756	8.2
102.0912	6.2
112.0756	20.6
114.0548	24.3
130.0496	16.9
138.0908	8.2
142.0495	26.8
154.0858	14.0
155.0810	22.5
159.0759	24.4
162.0545	16.7
165.0905	12.4
171.1123	6.6
172.0964	6.8
182.0809	9.5
183.0759	9.0
183.1010	10.3
184.0060	6.8
184.0598	40.6
199.1071	6.4
200.0913	13.2
200.1025	12.6
201.0862	17.4
202.1067	7.6
202.1792	13.0

Name: 2-(((2S)-2-amino-3-methylbutanoyl)amino)-3-(1H-imidazol-5-yl)propanoic acid
PrecursorMZ: 255.1449
RT: 6.6514
ExactMass: 254.13789045
Spectrum_type: 2
charge: 1
Formula: C11H18N4O3
SMILES: CC(C)[C@@H](C(=O)NC(CC1=CN=CN1)C(=O)O)N
Method: HCD
Collision_energy: [28.333334]
Isolation_window: 4.0
Ion_mode: P
Num Peaks: 7
72.0811	14.0
110.0712	24.6
156.0766	100.0
157.0802	6.6
237.1340	11.8
255.1447	24.2
255.1695	12.8

Name: 2-(((2S)-5-oxopyrrolidine-2-carbonyl)amino)pentanedioic acid
PrecursorMZ: 259.09207
RT: 7.7905
ExactMass: 258.08518617
Spectrum_type: 2
charge: 1
Formula: C10H14N2O6
SMILES: C1CC(=O)N[C@@H]1C(=O)NC(CCC(=O)O)C(=O)O
Method: HCD
Collision_energy: [28.333334]
Isolation_window: 4.0
Ion_mode: P
Num Peaks: 14
70.0655	6.4
84.0446	100.0
84.0810	5.0
102.0551	9.4
130.0497	45.0
148.0602	24.7
195.0759	7.2
213.0862	6.0
241.0814	26.6
258.0968	10.4
258.1116	5.7
259.0919	14.2
259.1437	7.2
260.0908	7.1

Name: 2-(((4R)-4-((10S,13R,17R)-10,13-dimethyl-3,7-dioxo-2,4,5,6,8,9,11,12,14,15,16,17-dodecahydro-1H-cyclopenta(a)phenanthren-17-yl)-2-methylpentanoyl)amino)ethanesulfonic acid
PrecursorMZ: 510.28802
RT: 0.9616
ExactMass: 509.28110926
Spectrum_type: 2
charge: 1
Formula: C27H43NO6S
SMILES: C[C@H](CC(C)C(=O)NCCS(=O)(=O)O)[C@H]1CCC2[C@@]1(CCC3C2C(=O)CC4[C@@]3(CCC(=O)C4)C)C
Method: HCD
Collision_energy: [28.333334]
Isolation_window: 4.0
Ion_mode: P
Num Peaks: 15
56.6986	3.6
255.2101	8.1
353.1772	4.0
394.3097	6.8
396.3263	3.6
412.3200	35.6
413.3235	10.8
414.3355	22.4
430.2976	3.0
430.3305	100.0
431.3339	23.9
432.3462	13.5
510.2874	59.0
511.2911	15.7
512.3032	20.2

Name: 2-(((4R)-4-((8R,9S,10S,13R,14S,17R)-3,7,12-trihydroxy-10,13-dimethyl-2,3,4,5,6,7,8,9,11,12,14,15,16,17-tetradecahydro-1H-cyclopenta(a)phenanthren-17-yl)pentanoyl)amino)acetate
PrecursorMZ: 430.29369
RT: 4.8194
ExactMass: 464.30121306
Spectrum_type: 2
charge: 1
Formula: C26H42NO6-
SMILES: C[C@H](CCC(=O)NCC(=O)[O-])[C@H]1CC[C@@H]2[C@@]1(C(C[C@H]3[C@H]2C(CC4[C@@]3(CCC(C4)O)C)O)O)C
Method: HCD
Collision_energy: [28.333334]
Isolation_window: 4.0
Ion_mode: P
Num Peaks: 25
69.6204	10.9
70.0653	45.4
76.0394	35.1
107.0853	8.7
116.0703	17.2
119.0852	8.4
133.1006	7.9
158.0806	21.3
159.1162	14.0
185.1317	10.5
199.1474	15.3
209.1316	24.9
211.1471	9.3
213.1224	58.5
213.1626	18.2
225.1628	7.6
227.1421	18.7
227.1783	10.0
319.2404	28.3
337.2512	51.1
338.2551	13.5
412.2828	100.0
413.2862	27.7
430.2931	44.4
431.2959	15.2

Name: 2-(((5R)-5-((3R,5R,8R,9S,10S,12S,13R,14S,17R)-3,12-dihydroxy-10,13-dimethyl-2,3,4,5,6,7,8,9,11,12,14,15,16,17-tetradecahydro-1H-cyclopenta(a)phenanthren-17-yl)-2-oxohexanoyl)amino)ethanesulfonic acid
PrecursorMZ: 510.28842
RT: 1.2946
ExactMass: 527.29167395
Spectrum_type: 2
charge: 1
Formula: C27H45NO7S
SMILES: C[C@H](CCC(=O)C(=O)NCCS(=O)(=O)O)[C@H]1CC[C@@H]2[C@@]1([C@H](C[C@H]3[C@H]2CC[C@H]4[C@@]3(CC[C@H](C4)O)C)O)C
Method: HCD
Collision_energy: [28.333334]
Isolation_window: 4.0
Ion_mode: P
Num Peaks: 18
147.0802	17.2
161.1323	47.5
165.0908	12.6
255.2102	25.5
353.1772	76.2
396.3248	12.2
412.3198	26.8
414.3354	23.3
428.3154	17.4
429.3186	14.3
430.3307	98.4
431.3337	19.9
432.3439	10.3
481.2605	28.8
492.2776	25.0
510.2877	100.0
511.2895	29.0
512.3032	49.8

Name: 2-(((5S)-5-amino-5-carboxypentyl)amino)pentanedioic acid
PrecursorMZ: 277.13929
RT: 9.186133333333332
ExactMass: 276.13213636
Spectrum_type: 2
charge: 1
Formula: C11H20N2O6
SMILES: C(CCNC(CCC(=O)O)C(=O)O)C[C@@H](C(=O)O)N
Method: HCD
Collision_energy: [28.333334]
Isolation_window: 4.0
Ion_mode: P
Num Peaks: 87
60.0560	0.8
60.0812	1.0
70.0655	1.6
72.0812	2.8
73.0845	1.0
84.0447	0.8
84.0811	100.0
85.0845	4.9
90.0553	1.0
97.3991	0.8
101.0599	1.3
110.0840	1.3
114.0664	1.4
116.0708	1.2
130.0499	1.0
130.0863	55.1
131.0896	3.2
132.0767	2.0
142.0500	0.8
148.0606	1.2
148.0757	1.4
150.0915	1.8
154.0863	2.3
161.0917	2.0
167.1181	0.8
170.0563	0.9
172.0606	2.9
172.0969	1.2
175.1189	2.8
176.1224	3.0
177.1025	1.1
185.1285	1.2
186.0872	1.6
195.1128	5.0
198.0873	0.9
199.1074	1.3
200.0554	2.5
201.0910	0.9
213.1233	35.5
214.1075	1.7
214.1268	3.4
216.0655	1.5
218.0659	13.8
219.0690	1.3
230.0808	0.9
231.1340	3.6
232.1185	0.9
234.1236	1.9
234.1851	3.0
241.1180	0.9
242.1022	1.6
258.0760	3.3
258.1082	5.6
258.1331	1.6
259.1287	20.9
260.1131	1.8
260.1285	1.3
260.1320	2.5
275.1239	0.8
275.1355	4.9
275.1395	0.8
275.1596	2.6
275.1909	8.0
276.0865	6.1
276.1201	36.8
276.1433	6.2
276.1575	1.6
276.1657	1.0
276.1800	1.3
276.1941	3.5
277.0896	1.0
277.1188	1.9
277.1230	4.1
277.1393	28.0
277.1543	5.9
277.1902	0.8
278.1018	1.6
278.1130	1.2
278.1231	4.7
278.1386	11.1
278.1421	3.8
278.1594	3.7
278.2112	1.3
279.0968	1.2
279.1319	2.4
279.1429	0.9
279.1700	1.9

Name: 2-(((9-(3,4-Dihydroxy-5-(hydroxymethyl)oxolan-2-yl)purin-6-yl)-methylcarbamoyl)amino)-3-hydroxybutanoic acid
PrecursorMZ: 427.15755
RT: 7.3087
ExactMass: 426.14991168
Spectrum_type: 2
charge: 1
Formula: C16H22N6O8
SMILES: CC(C(C(=O)O)NC(=O)N(C)C1=NC=NC2=C1N=CN2C3C(C(C(O3)CO)O)O)O
Method: HCD
Collision_energy: [28.333334]
Isolation_window: 4.0
Ion_mode: P
Num Peaks: 13
70.0655	2.3
72.0811	1.4
81.0339	1.9
84.0812	2.6
85.0287	1.5
86.0968	2.5
97.0287	1.2
132.1019	2.0
426.3001	1.5
427.1576	100.0
428.1605	16.1
428.3155	1.6
429.1577	6.0

Name: 2-((1-(2-Phenylacetyl)pyrrolidine-2-carbonyl)amino)acetic acid
PrecursorMZ: 291.13339
RT: 4.9111
ExactMass: 290.12665706
Spectrum_type: 2
charge: 1
Formula: C15H18N2O4
SMILES: C1CC(N(C1)C(=O)CC2=CC=CC=C2)C(=O)NCC(=O)O
Method: HCD
Collision_energy: [28.333334]
Isolation_window: 4.0
Ion_mode: P
Num Peaks: 13
70.0654	100.0
109.0648	11.4
126.0912	5.0
164.0706	7.4
194.0806	4.9
254.1744	5.7
273.1841	5.8
291.1330	29.2
291.1946	27.8
291.2421	12.2
292.1168	5.1
292.1988	4.9
293.1121	5.7

Name: 2-((1-(Pyrrolidine-2-carbonyl)pyrrolidine-2-carbonyl)amino)propanoic acid
PrecursorMZ: 284.16005
RT: 4.8145
ExactMass: 283.15320616
Spectrum_type: 2
charge: 1
Formula: C13H21N3O4
SMILES: CC(C(=O)O)NC(=O)C1CCCN1C(=O)C2CCCN2
Method: HCD
Collision_energy: [28.333334]
Isolation_window: 4.0
Ion_mode: P
Num Peaks: 34
69.8495	3.3
70.0653	60.7
83.0493	3.9
96.0807	85.3
97.0840	4.8
107.0492	4.9
113.0596	5.1
116.0704	9.7
124.0754	4.8
139.1226	12.3
140.0702	6.4
141.1018	3.4
153.0404	4.4
154.0860	4.1
167.1175	51.3
168.1207	4.8
187.1071	61.3
188.1106	5.0
195.1121	12.1
213.1225	3.1
239.1383	6.9
243.1123	4.3
257.1277	4.1
283.1046	5.0
283.1277	4.4
283.1653	3.1
284.1097	4.1
284.1263	4.1
284.1595	100.0
284.2939	4.0
284.3302	7.9
285.1223	13.2
285.1439	3.4
285.1627	16.0

Name: 2-((1S,2S)-3-oxo-2-((E)-pent-2-enyl)cyclopentyl)acetate
PrecursorMZ: 211.13273
RT: 4.7542
ExactMass: 209.1177694
Spectrum_type: 2
charge: 1
Formula: C12H17O3-
SMILES: CC/C=C/C[C@H]1[C@@H](CCC1=O)CC(=O)[O-]
Method: HCD
Collision_energy: [28.333334]
Isolation_window: 4.0
Ion_mode: P
Num Peaks: 40
67.0546	4.5
69.0702	19.1
81.0337	10.2
81.0701	8.6
83.0494	3.7
83.0857	5.1
85.0650	5.4
91.0544	9.7
93.0700	9.7
95.0492	5.4
95.0857	5.2
105.0700	10.0
107.0856	8.4
109.0649	10.9
109.1013	3.3
119.0855	6.7
131.0854	7.9
133.1010	100.0
134.1044	11.4
137.0596	9.7
147.1166	29.3
149.0961	4.2
150.0912	7.2
151.0752	4.4
151.1116	78.7
152.0705	4.5
152.1149	8.4
155.0702	27.3
157.1011	3.2
165.1272	6.7
175.1116	15.0
193.1221	40.5
194.0808	8.3
194.1254	3.2
210.0758	5.4
210.1122	12.0
211.1062	4.1
211.1325	33.3
212.0913	4.2
212.1275	3.7

Name: 2-((2,4-Dihydroxy-3,3-dimethylbutanoyl)amino)pentanedioic acid
PrecursorMZ: 278.12318
RT: 8.3139
ExactMass: 277.11615195
Spectrum_type: 2
charge: 1
Formula: C11H19NO7
SMILES: CC(C)(CO)C(C(=O)NC(CCC(=O)O)C(=O)O)O
Method: HCD
Collision_energy: [28.333334]
Isolation_window: 4.0
Ion_mode: P
Num Peaks: 21
70.0655	5.7
84.0447	6.0
85.0652	11.3
101.0599	16.6
116.0708	9.9
118.0500	16.0
130.0499	10.3
168.1020	7.6
178.0708	6.7
200.0919	5.6
214.1075	10.9
218.1022	42.8
232.1179	39.5
234.1846	10.7
260.1128	5.7
277.1173	7.5
278.1005	6.9
278.1234	100.0
278.1387	26.9
279.1277	9.1
280.1164	9.3

Name: 2-((2,5-Diamino-5-oxopentanoyl)amino)-4-methylpentanoic acid
PrecursorMZ: 260.16017
RT: 5.2008
ExactMass: 259.15320616
Spectrum_type: 2
charge: 1
Formula: C11H21N3O4
SMILES: CC(C)CC(C(=O)O)NC(=O)C(CCC(=O)N)N
Method: HCD
Collision_energy: [28.333334]
Isolation_window: 4.0
Ion_mode: P
Num Peaks: 23
83.0605	29.6
84.0445	34.5
86.0966	86.8
121.0884	21.9
132.1017	47.8
147.0762	26.2
197.1281	63.8
241.1178	24.3
242.1492	100.0
243.1335	42.7
258.2786	28.5
259.0802	26.4
259.1069	62.3
259.1437	45.7
260.0910	45.6
260.1122	23.2
260.1271	31.8
261.0866	23.7
261.0987	40.0
261.1215	47.4
261.1591	60.4
262.1067	29.6
262.1172	31.3

Name: 2-((2-((2-(2-Aminopropanoylamino)acetyl)amino)-3-phenylpropanoyl)amino)-4-methylpentanamide
PrecursorMZ: 444.20151
RT: 0.8998
ExactMass: 405.23760449
Spectrum_type: 2
charge: 1
Formula: C20H31N5O4
SMILES: CC(C)CC(C(=O)N)NC(=O)C(CC1=CC=CC=C1)NC(=O)CNC(=O)C(C)N
Method: HCD
Collision_energy: [28.333334]
Isolation_window: 4.0
Ion_mode: P
Num Peaks: 7
139.9147	34.0
150.0550	100.0
151.0631	12.0
240.8663	12.3
426.1905	17.1
444.2017	44.8
445.2056	11.5

Name: 2-((2-((2-Amino-3-methylbutanoyl)amino)-3-methylbutanoyl)amino)-4-methylpentanoic acid
PrecursorMZ: 330.23794
RT: 1.3283
ExactMass: 329.23145648
Spectrum_type: 2
charge: 1
Formula: C16H31N3O4
SMILES: CC(C)CC(C(=O)O)NC(=O)C(C(C)C)NC(=O)C(C(C)C)N
Method: HCD
Collision_energy: [28.333334]
Isolation_window: 4.0
Ion_mode: P
Num Peaks: 8
72.0810	100.0
86.0965	49.6
132.1016	30.7
171.1489	54.0
199.1436	43.3
199.1799	18.2
227.1748	14.3
331.2081	39.7

Name: 2-((2-((2-Amino-3-methylpentanoyl)amino)acetyl)amino)-3-methylbutanoic acid
PrecursorMZ: 288.19139
RT: 5.3431
ExactMass: 287.18450629
Spectrum_type: 2
charge: 1
Formula: C13H25N3O4
SMILES: CCC(C)C(C(=O)NCC(=O)NC(C(C)C)C(=O)O)N
Method: HCD
Collision_energy: [28.333334]
Isolation_window: 4.0
Ion_mode: P
Num Peaks: 24
72.0811	58.8
86.0966	13.0
112.0759	5.3
118.0863	10.1
129.1021	13.5
143.1177	100.0
144.1212	7.1
164.0704	6.2
171.1125	49.4
175.1072	10.5
184.1693	45.3
185.1725	5.9
225.0867	5.6
228.1953	5.3
287.1372	9.0
287.1602	7.8
287.1747	19.3
288.1213	24.4
288.1591	5.8
288.1909	7.9
289.0932	6.8
289.1163	10.5
289.1540	18.4
290.1368	7.1

Name: 2-((2-((2-Aminoacetyl)amino)-3-methylbutanoyl)amino)-3-methylbutanoic acid
PrecursorMZ: 274.17587
RT: 5.79
ExactMass: 273.16885622
Spectrum_type: 2
charge: 1
Formula: C12H23N3O4
SMILES: CC(C)C(C(=O)NC(C(C)C)C(=O)O)NC(=O)CN
Method: HCD
Collision_energy: [28.333334]
Isolation_window: 4.0
Ion_mode: P
Num Peaks: 31
70.0655	9.0
72.0811	35.1
84.0447	8.2
86.0966	37.9
115.0867	45.2
118.0862	11.3
126.0549	25.3
129.1022	76.5
132.1018	29.1
138.0548	100.0
143.0814	44.0
144.0654	26.0
157.0969	32.2
168.0654	27.5
171.0763	8.7
173.1284	8.1
185.1284	9.0
186.0757	20.4
203.1385	11.3
234.1849	10.9
246.1119	16.5
273.0902	30.9
273.1233	13.1
273.1442	11.6
273.1593	21.0
274.1062	43.0
274.1429	8.6
275.1126	10.0
275.1376	22.0
275.1757	7.9
276.1205	16.5

Name: 2-((2-((2-Azaniumyl-4-methylpentanoyl)amino)-3-methylbutanoyl)amino)-4-methylpentanoate
PrecursorMZ: 344.25418
RT: 3.1714
ExactMass: 343.24710654
Spectrum_type: 2
charge: 1
Formula: C17H33N3O4
SMILES: CC(C)CC(C(=O)NC(C(C)C)C(=O)NC(CC(C)C)C(=O)[O-])[NH3+]
Method: HCD
Collision_energy: [28.333334]
Isolation_window: 4.0
Ion_mode: P
Num Peaks: 28
70.0656	1.8
72.0812	31.1
86.0967	100.0
87.1000	4.6
97.3993	2.1
132.1019	2.8
184.1331	2.1
185.1648	35.3
186.1682	4.2
199.1805	17.1
200.1840	2.4
213.1597	40.7
214.1632	4.9
215.1391	1.9
227.1753	21.0
228.1787	2.5
231.1702	5.0
240.2321	5.0
241.2353	1.3
245.1858	3.7
285.1956	2.5
343.1637	1.9
343.2221	2.6
344.2189	1.8
344.2543	7.7
345.1438	1.6
345.2176	5.6
345.2557	1.6

Name: 2-((2-(1H-indol-2-yl)acetyl)amino)pentanediamide
PrecursorMZ: 303.14468
RT: 6.9648
ExactMass: 302.13789045
Spectrum_type: 2
charge: 1
Formula: C15H18N4O3
SMILES: C1=CC=C2C(=C1)C=C(N2)CC(=O)NC(CCC(=O)N)C(=O)N
Method: HCD
Collision_energy: [28.333334]
Isolation_window: 4.0
Ion_mode: P
Num Peaks: 28
84.0446	28.4
100.0757	5.8
101.0598	5.9
101.0709	6.2
109.0521	4.8
118.0861	4.1
130.0497	57.5
130.0649	49.5
131.0683	4.8
147.0761	5.9
157.0757	9.8
158.0598	5.0
160.0755	14.5
174.1024	6.4
175.0863	34.4
213.1020	9.1
241.0966	15.0
286.1179	29.9
289.1413	4.2
302.1013	4.6
302.1198	5.6
302.1366	5.0
303.0673	5.1
303.1443	100.0
304.1177	8.8
304.1476	16.0
304.1642	78.3
305.1683	11.5

Name: 2-((2-(2-(4-Carboxybut-2-enyl)-3-oxocyclopentyl)acetyl)amino)-3-methylpentanoic acid
PrecursorMZ: 354.19086
RT: 5.2249
ExactMass: 353.18383758
Spectrum_type: 2
charge: 1
Formula: C18H27NO6
SMILES: CCC(C)C(C(=O)O)NC(=O)CC1CCC(=O)C1CC=CCC(=O)O
Method: HCD
Collision_energy: [28.333334]
Isolation_window: 4.0
Ion_mode: P
Num Peaks: 36
86.0966	75.3
107.0492	21.4
117.0699	9.6
119.0856	13.4
128.1068	9.3
130.0651	9.7
132.1017	20.5
135.0804	10.9
146.0597	19.2
147.0803	8.9
159.0804	9.0
159.0915	42.2
161.0959	22.3
163.0753	14.1
164.0706	17.3
181.0855	12.5
188.0703	100.0
189.0737	9.3
189.0907	18.5
194.0812	10.1
205.0857	53.8
205.0969	37.9
290.1743	31.5
292.1900	10.2
307.1439	10.2
308.1847	37.9
336.1796	25.4
338.1956	31.3
353.1334	10.6
353.1488	16.1
353.1709	11.6
354.1330	8.8
354.1898	8.6
355.1283	11.5
355.1499	9.1
355.1835	11.2

Name: 2-((2-(4-Ethoxyphenoxy)acetyl)amino)pentanedioic acid
PrecursorMZ: 326.12316
RT: 6.8895
ExactMass: 325.11615195
Spectrum_type: 2
charge: 1
Formula: C15H19NO7
SMILES: CCOC1=CC=C(C=C1)OCC(=O)NC(CCC(=O)O)C(=O)O
Method: HCD
Collision_energy: [28.333334]
Isolation_window: 4.0
Ion_mode: P
Num Peaks: 14
70.0655	17.0
84.0446	13.1
98.9843	20.6
102.0550	15.2
116.0705	9.8
130.0497	26.1
148.0603	100.0
149.0591	28.2
179.0700	31.6
325.1385	51.8
326.1224	32.1
327.0950	17.7
327.1180	10.9
327.1549	9.8

Name: 2-((2-Acetamido-4-carboxybutanoyl)amino)pentanedioic acid
PrecursorMZ: 319.1132
RT: 8.7836
ExactMass: 318.10631554
Spectrum_type: 2
charge: 1
Formula: C12H18N2O8
SMILES: CC(=O)NC(CCC(=O)O)C(=O)NC(CCC(=O)O)C(=O)O
Method: HCD
Collision_energy: [28.333334]
Isolation_window: 4.0
Ion_mode: P
Num Peaks: 28
84.0447	24.4
85.0481	1.2
102.0551	32.2
103.0584	1.2
130.0499	100.0
131.0532	5.3
144.0654	1.8
148.0604	33.3
149.0637	2.1
168.0655	13.2
169.0689	1.4
172.0604	14.9
173.0641	1.3
196.0603	5.4
213.0868	1.3
214.0709	23.0
215.0745	2.2
255.0974	1.3
259.0927	5.1
273.1080	6.8
277.1025	3.1
283.0921	1.7
301.1028	12.2
302.1062	1.4
318.0968	1.6
318.1174	1.0
319.1133	20.9
320.1157	3.1

Name: 2-((2-Amino-3-hydroxybutanoyl)amino)-3-(4-hydroxyphenyl)propanoic acid
PrecursorMZ: 283.12824
RT: 5.4956
ExactMass: 282.12157168
Spectrum_type: 2
charge: 1
Formula: C13H18N2O5
SMILES: CC(C(C(=O)NC(CC1=CC=C(C=C1)O)C(=O)O)N)O
Method: HCD
Collision_energy: [28.333334]
Isolation_window: 4.0
Ion_mode: P
Num Peaks: 42
56.0498	3.3
69.0701	3.6
70.0654	4.2
72.0810	3.7
74.0603	34.3
81.0337	33.5
84.0810	8.1
110.0712	6.6
120.0806	3.5
130.0649	39.4
136.0754	56.2
137.0787	4.3
156.0762	4.6
156.1133	3.4
165.0542	8.6
167.0558	3.3
176.1427	4.0
182.0808	20.7
200.0702	3.8
208.0753	5.6
237.1227	4.2
264.1220	8.2
265.1170	3.9
268.0960	19.1
281.1484	7.9
282.1325	10.2
282.1444	100.0
282.1693	4.1
283.1067	5.5
283.1280	15.6
283.1439	3.4
283.1470	10.4
283.1647	15.4
284.0899	4.1
284.1114	5.6
284.1252	16.9
284.1474	4.2
284.1609	5.2
284.3301	12.8
285.1220	6.1
285.1434	6.8
285.1798	8.2

Name: 2-((2-Amino-3-hydroxypropanoyl)amino)-3-methylpentanoic acid
PrecursorMZ: 219.13378
RT: 7.1806
ExactMass: 218.12665706
Spectrum_type: 2
charge: 1
Formula: C9H18N2O4
SMILES: CCC(C)C(C(=O)O)NC(=O)C(CO)N
Method: HCD
Collision_energy: [28.333334]
Isolation_window: 4.0
Ion_mode: P
Num Peaks: 39
60.0448	2.7
69.0702	4.6
72.0448	3.6
72.0812	25.5
74.0604	14.6
85.0651	4.1
86.0967	100.0
87.1000	4.3
90.0552	20.9
100.1122	11.0
116.0344	3.2
118.0865	4.4
119.0492	7.3
120.0657	3.7
128.0706	2.3
132.1020	3.3
135.0804	2.4
156.1019	6.5
159.1168	2.7
172.0967	6.3
173.1276	5.5
174.1122	5.9
175.0753	2.4
184.0966	3.3
192.0652	3.6
201.1265	3.4
202.1073	12.0
218.0812	6.0
218.1018	7.3
219.0652	3.3
219.0762	3.3
219.1361	9.2
220.0602	2.6
220.0969	4.2
220.1185	24.6
220.1694	42.8
221.0918	3.3
221.1537	3.4
221.1730	3.1

Name: 2-((2-Amino-3-phenyl-propanoyl)amino)-3-hydroxy-propanoic acid
PrecursorMZ: 253.11797
RT: 4.966
ExactMass: 252.111007
Spectrum_type: 2
charge: 1
Formula: C12H16N2O4
SMILES: C1=CC=C(C=C1)CC(C(=O)NC(CO)C(=O)O)N
Method: HCD
Collision_energy: [28.333334]
Isolation_window: 4.0
Ion_mode: P
Num Peaks: 32
95.0605	8.1
106.0499	1.6
110.0713	9.8
112.0869	7.4
120.0717	0.8
120.0807	100.0
120.0896	0.8
121.0840	7.9
156.0765	10.1
165.0656	1.6
193.0966	0.7
206.1171	0.7
207.1122	1.1
208.1438	2.1
218.1645	0.8
234.1123	0.8
235.1065	1.2
236.0909	0.7
236.1386	0.9
236.1752	5.4
252.0857	0.7
252.1223	2.5
252.1339	1.8
252.1587	1.0
253.0964	6.9
253.1175	9.4
253.1535	3.2
254.1005	1.9
254.1131	1.3
254.1381	0.8
254.1491	5.7
254.1856	11.1

Name: 2-((2-Amino-5-(diaminomethylideneamino)pentanoyl)amino)-3-hydroxybutanoic acid
PrecursorMZ: 314.12298
RT: 7.1904
ExactMass: 275.15935417
Spectrum_type: 2
charge: 1
Formula: C10H21N5O4
SMILES: CC(C(C(=O)O)NC(=O)C(CCCN=C(N)N)N)O
Method: HCD
Collision_energy: [28.333334]
Isolation_window: 4.0
Ion_mode: P
Num Peaks: 41
69.5743	5.3
70.0654	20.0
74.0602	4.7
75.0554	5.7
84.0810	9.2
87.0443	6.3
97.4564	4.4
116.0705	6.8
157.0606	7.2
168.0653	5.6
182.0808	58.6
185.0918	5.5
199.1072	6.6
202.0859	12.4
224.0914	16.2
226.1069	6.5
237.1592	4.5
249.0894	5.4
261.1592	7.2
279.1697	9.8
296.1116	7.6
297.1800	8.1
312.1066	4.6
312.1432	23.7
313.0883	12.6
313.1158	4.4
313.1184	8.5
313.1390	18.7
313.1495	7.1
314.1223	100.0
314.1372	5.5
314.1594	5.4
314.3408	6.2
315.1199	5.7
315.1264	13.7
315.1536	6.5
315.1673	5.5
315.1905	99.5
316.1169	4.6
316.1525	7.4
316.1949	5.7

Name: 2-((2-Ammoniopropanoyl)amino)-3-hydroxypropanoate
PrecursorMZ: 177.08687
RT: 7.6227
ExactMass: 176.07970687
Spectrum_type: 2
charge: 1
Formula: C6H12N2O4
SMILES: CC(C(=O)NC(CO)C(=O)[O-])[NH3+]
Method: HCD
Collision_energy: [28.333334]
Isolation_window: 4.0
Ion_mode: P
Num Peaks: 37
60.0448	23.0
70.0654	2.3
74.0604	2.4
81.0337	2.4
88.0395	3.5
90.0551	6.7
102.0550	1.5
106.0499	100.0
107.0532	3.1
112.1121	1.4
113.0709	1.5
114.0550	1.3
114.0914	3.6
116.0342	6.5
120.0654	2.1
129.1103	2.6
130.0861	1.6
130.1225	9.0
131.0602	1.4
131.0813	2.1
132.0805	2.2
133.0759	3.5
158.0810	2.1
159.0762	9.7
175.1158	3.9
176.0915	17.2
176.1068	3.7
176.1277	3.7
177.0656	33.1
177.0868	8.7
177.1018	2.5
177.1384	1.3
178.0692	4.4
178.0860	71.4
178.1221	2.4
179.0814	19.1
179.0892	3.6

Name: 2-((2-Azaniumyl-3-hydroxybutanoyl)amino)-3-methylbutanoate
PrecursorMZ: 219.1337
RT: 4.8205
ExactMass: 218.12665706
Spectrum_type: 2
charge: 1
Formula: C9H18N2O4
SMILES: CC(C)C(C(=O)[O-])NC(=O)C(C(C)O)[NH3+]
Method: HCD
Collision_energy: [28.333334]
Isolation_window: 4.0
Ion_mode: P
Num Peaks: 184
55.0546	1.4
56.0499	4.0
57.0339	1.7
57.0703	1.7
58.0655	2.1
59.0495	2.5
60.0448	19.5
67.0546	1.5
69.0702	3.6
69.2994	1.2
69.3183	1.0
69.3868	1.1
69.6345	0.9
69.7319	1.0
70.0290	1.2
70.0654	1.0
71.0494	1.6
72.0447	7.6
72.0528	1.2
72.0811	89.1
73.0287	2.4
73.0844	7.5
74.0603	82.4
75.0637	2.3
80.0497	5.5
81.0449	2.3
83.0493	1.2
84.0446	3.1
85.0650	6.7
86.0602	4.7
86.0966	31.6
87.0553	1.4
87.0806	1.8
87.0999	1.4
90.0551	100.0
91.0585	2.2
93.0700	1.4
94.0652	1.4
95.0492	3.3
95.0605	32.3
96.0683	9.8
97.0761	1.4
97.4571	1.1
98.0237	7.6
98.9843	3.1
100.0393	1.9
100.0757	1.1
101.0710	2.4
102.0550	1.0
103.0754	7.7
107.0604	1.4
107.0856	0.9
108.0444	3.9
108.0556	7.2
113.0345	1.5
113.0597	2.3
115.0212	1.3
116.0342	16.1
118.0862	17.0
119.0603	2.2
119.0855	1.1
119.0893	1.1
120.0444	1.4
120.0655	6.4
120.0773	1.0
120.0807	68.3
121.0840	6.2
121.1012	0.9
124.0755	10.9
126.0548	2.6
126.0912	4.1
128.1068	1.6
130.0497	1.4
130.0649	1.5
131.0602	20.8
131.0700	0.9
131.0853	1.1
132.0635	1.6
132.1017	18.2
133.0759	1.2
133.1050	1.4
135.0803	0.9
136.0391	9.0
137.0423	1.0
142.0497	0.9
142.0861	5.6
145.0759	4.1
146.0598	36.0
147.0552	1.4
147.0631	3.3
147.0914	3.3
152.0703	1.3
154.0497	18.2
154.0860	2.5
155.0530	1.4
155.0813	1.5
155.1177	2.5
156.1018	1.9
157.0759	2.5
158.0599	1.8
159.1167	3.3
160.0754	1.3
160.0966	2.6
161.0467	1.2
161.0960	2.6
161.1322	1.2
162.0217	2.9
166.0860	2.1
172.0754	2.4
172.0867	1.4
172.1329	1.0
173.0707	3.4
173.1281	21.3
174.0547	3.5
174.0584	2.4
174.0911	4.7
174.1023	48.2
174.1122	2.7
174.1317	1.2
175.0863	6.4
175.1056	5.1
175.1227	14.1
176.0704	1.4
176.1177	1.1
182.0809	1.1
183.1169	1.0
184.0752	1.2
184.0965	23.0
185.0706	0.9
185.0998	1.2
190.0972	2.3
192.0651	1.9
192.1493	1.6
200.0704	2.1
200.0916	2.9
200.1276	1.3
201.0655	4.5
201.1229	4.6
201.1255	1.8
202.0496	2.1
202.0606	1.1
202.0859	4.6
202.1070	34.5
202.1336	5.2
203.0811	3.4
203.1021	1.4
203.1098	1.8
203.1176	6.0
217.1544	1.4
218.0666	0.9
218.0809	7.7
218.0920	22.7
218.1022	4.7
218.1172	2.2
218.1282	4.7
218.2110	11.0
219.0649	0.9
219.0759	39.6
219.0951	2.6
219.1124	9.2
219.1335	11.8
219.1486	2.3
219.1735	1.1
219.2146	1.1
220.0601	8.3
220.0629	1.1
220.0712	3.5
220.0801	4.0
220.0822	1.6
220.0964	20.2
220.1076	2.2
220.1175	42.8
220.1334	2.6
220.1356	1.0
220.1440	47.3
220.1902	0.9
221.0915	7.8
221.1002	1.2
221.1125	0.9
221.1169	2.9
221.1206	1.9
221.1278	14.2
221.1473	2.9
221.1532	1.6

Name: 2-((2-Azaniumyl-3-hydroxybutanoyl)amino)-3-phenylpropanoate
PrecursorMZ: 267.13341
RT: 4.941599999999999
ExactMass: 266.12665706
Spectrum_type: 2
charge: 1
Formula: C13H18N2O4
SMILES: CC(C(C(=O)NC(CC1=CC=CC=C1)C(=O)[O-])[NH3+])O
Method: HCD
Collision_energy: [28.333334]
Isolation_window: 4.0
Ion_mode: P
Num Peaks: 45
56.0498	6.8
58.0655	5.1
74.0602	100.0
81.0337	8.0
81.0449	8.8
83.0493	6.7
95.0602	6.4
107.0602	8.1
107.0856	6.8
111.0440	32.3
112.0869	14.0
120.0806	35.8
122.0710	8.1
124.0868	13.7
125.0707	12.2
128.0703	7.5
155.0811	6.6
157.0969	34.6
166.0859	51.5
166.0972	5.9
176.0703	6.2
177.1021	5.6
180.1128	8.2
221.1276	13.2
222.1223	5.7
248.0909	8.5
248.1749	9.9
249.1225	9.5
249.1469	5.3
250.1065	7.3
250.1182	6.3
266.1013	20.6
266.1376	20.8
266.1497	9.0
266.1856	39.4
267.0974	6.1
267.1329	47.1
267.1449	15.9
267.1578	11.6
267.1692	11.3
268.1169	20.5
268.1535	7.7
268.1636	6.4
269.1126	6.3
269.1486	19.3

Name: 2-((2-Azaniumyl-3-methylbutanoyl)amino)-3-methylbutanoate
PrecursorMZ: 217.15448
RT: 2.7155
ExactMass: 216.1473925
Spectrum_type: 2
charge: 1
Formula: C10H20N2O3
SMILES: CC(C)C(C(=O)NC(C(C)C)C(=O)[O-])[NH3+]
Method: HCD
Collision_energy: [28.333334]
Isolation_window: 4.0
Ion_mode: P
Num Peaks: 6
72.0811	100.0
73.0845	3.8
118.0863	4.2
172.1331	3.1
217.1047	3.3
217.1544	3.1

Name: 2-((2-Azaniumyl-5-(diaminomethylideneazaniumyl)pentanoyl)amino)-3-methylbutanoate
PrecursorMZ: 274.18686
RT: 9.3814
ExactMass: 274.18791464
Spectrum_type: 2
charge: 1
Formula: C11H24N5O3+
SMILES: CC(C)C(C(=O)[O-])NC(=O)C(CCC[NH+]=C(N)N)[NH3+]
Method: HCD
Collision_energy: [28.333334]
Isolation_window: 4.0
Ion_mode: P
Num Peaks: 17
60.0560	15.0
70.0654	51.1
112.0868	10.3
132.0765	11.0
175.1186	32.7
215.1386	7.4
234.1848	18.8
257.1599	14.3
258.1079	10.5
273.1073	10.8
274.1069	24.7
274.1399	10.1
274.1867	100.0
275.1903	13.4
276.1185	98.6
276.1413	9.1
276.1946	8.8

Name: 2-((2-Hydroxy-2-tritioethyl)amino)-1-tritioethanol
PrecursorMZ: 88.07583
RT: 1.5633
ExactMass: 109.095427092
Spectrum_type: 2
charge: 1
Formula: C4H11NO2
SMILES: [3H]C(CNCC([3H])O)O
Method: HCD
Collision_energy: [28.333334]
Isolation_window: 4.0
Ion_mode: P
Num Peaks: 8
56.0498	73.1
70.0653	100.0
86.0601	29.4
86.9086	60.0
87.0917	53.7
88.0757	73.0
88.1122	13.5
89.0598	18.5

Name: 2-((2-Methylpropan-2-yl)oxycarbonylamino)-3-(2,3,4,5,6-pentadeuteriophenyl)propanoic acid
PrecursorMZ: 266.13827
RT: 8.8517
ExactMass: 270.16279182
Spectrum_type: 2
charge: 1
Formula: C14H19NO4
SMILES: [2H]C1=C(C(=C(C(=C1[2H])[2H])CC(C(=O)O)NC(=O)OC(C)(C)C)[2H])[2H]
Method: HCD
Collision_energy: [28.333334]
Isolation_window: 4.0
Ion_mode: P
Num Peaks: 17
55.0546	8.1
83.0493	5.8
101.0597	21.4
120.0806	11.1
166.0860	35.3
264.1587	9.4
265.1162	8.6
265.1535	18.1
266.1017	8.8
266.1379	100.0
267.0959	5.6
267.1330	16.6
267.1446	18.3
267.1696	7.2
268.1168	14.0
268.1290	3.5
268.1531	5.2

Name: 2-((2-acetamido-4-methylpentanoyl)amino)-3-(1H-imidazol-5-yl)propanoic acid
PrecursorMZ: 311.17086
RT: 4.9226
ExactMass: 310.1641052
Spectrum_type: 2
charge: 1
Formula: C14H22N4O4
SMILES: CC(C)CC(C(=O)NC(CC1=CN=CN1)C(=O)O)NC(=O)C
Method: HCD
Collision_energy: [28.333334]
Isolation_window: 4.0
Ion_mode: P
Num Peaks: 56
55.0546	1.3
70.0654	1.4
72.0811	1.7
81.0337	4.6
83.0857	2.0
86.0966	4.4
95.0604	1.3
96.0446	1.2
97.4584	1.3
98.0965	1.4
100.1121	100.0
101.1154	6.4
110.0712	17.6
120.0806	1.7
126.0911	1.7
128.1068	6.4
137.0595	1.4
152.0815	9.6
154.0861	1.4
156.0765	29.8
157.0800	1.8
161.1071	1.4
166.0530	2.0
166.0859	1.5
166.0970	1.7
175.0749	3.3
177.1131	1.3
180.0763	6.8
193.0856	5.8
194.0918	1.4
221.1277	1.6
240.1010	1.7
253.1425	1.2
292.1898	2.2
293.1618	1.3
294.1453	2.1
309.1809	1.2
310.1241	1.3
310.1272	1.2
310.1402	1.3
310.1852	1.6
310.1888	2.2
310.2012	2.2
311.1399	1.5
311.1719	10.9
311.1961	1.2
312.1221	1.6
312.1560	2.7
312.1753	1.6
312.1917	2.9
312.2156	3.0
312.3617	1.2
313.1190	2.6
313.1385	1.3
313.1551	1.1
313.1757	1.8

Name: 2-((2-amino-3-hydroxypropanoyl)amino)-3-(1H-indol-3-yl)propanoic acid
PrecursorMZ: 292.1288
RT: 5.2722
ExactMass: 291.12190603
Spectrum_type: 2
charge: 1
Formula: C14H17N3O4
SMILES: C1=CC=C2C(=C1)C(=CN2)CC(C(=O)O)NC(=O)C(CO)N
Method: HCD
Collision_energy: [28.333334]
Isolation_window: 4.0
Ion_mode: P
Num Peaks: 67
60.0448	17.6
70.0654	5.9
81.0337	18.4
84.0809	7.8
86.0965	13.5
102.0914	9.3
110.0713	7.9
115.0502	11.8
120.0807	19.4
123.0440	14.7
130.0498	6.0
130.0650	17.5
132.0806	18.2
144.0805	12.4
146.0598	8.1
147.0760	8.1
150.0912	22.4
156.0807	7.5
159.0915	54.8
166.0859	7.2
170.0597	11.5
173.1283	10.9
175.0224	53.6
176.0815	8.8
186.1022	7.1
188.0702	100.0
189.0736	9.3
205.0968	50.4
206.1003	6.5
230.1382	11.8
245.0916	3.9
246.1231	11.7
248.1176	9.7
258.1332	9.9
265.1655	9.0
273.1219	5.5
274.1064	4.0
274.1185	5.2
275.1018	49.3
276.1057	6.0
276.1441	20.7
290.1377	7.9
290.1502	6.8
291.0692	15.4
291.1089	5.2
291.1328	28.2
291.1452	14.7
291.1685	15.0
291.2053	5.2
291.2425	5.1
292.0800	6.3
292.1166	13.0
292.1289	38.2
292.1405	5.1
292.1516	21.7
292.1661	6.0
293.1107	11.8
293.1267	23.3
293.1490	48.3
293.1631	6.3
293.1840	11.1
293.2215	12.8
294.1213	25.3
294.1299	7.2
294.1355	4.8
294.1443	6.6
294.1692	4.9

Name: 2-((2S,5S)-5-benzyl-3,6-dioxopiperazin-2-yl)acetate
PrecursorMZ: 263.1026
RT: 5.472
ExactMass: 261.0875319
Spectrum_type: 2
charge: 1
Formula: C13H13N2O4-
SMILES: C1=CC=C(C=C1)C[C@H]2C(=O)N[C@H](C(=O)N2)CC(=O)[O-]
Method: HCD
Collision_energy: [28.333334]
Isolation_window: 4.0
Ion_mode: P
Num Peaks: 20
120.0809	33.6
161.0711	4.6
166.0725	3.4
175.0867	4.3
189.1022	7.4
205.0494	3.6
216.1019	3.8
217.0971	100.0
218.1007	10.2
245.0920	18.0
245.1278	3.4
262.0707	5.5
262.1071	7.9
263.1025	75.9
263.1390	3.6
264.0869	4.1
264.1067	14.7
264.1229	3.8
265.1311	18.9
265.1538	3.8

Name: 2-((4-Amino-4-carboxybutanoyl)amino)-4-methylpentanoic acid
PrecursorMZ: 261.14421
RT: 6.9393
ExactMass: 260.13722174
Spectrum_type: 2
charge: 1
Formula: C11H20N2O5
SMILES: CC(C)CC(C(=O)O)NC(=O)CCC(C(=O)O)N
Method: HCD
Collision_energy: [28.333334]
Isolation_window: 4.0
Ion_mode: P
Num Peaks: 73
56.0499	1.6
58.0655	2.0
59.0734	2.2
60.0812	9.0
69.0702	3.2
70.0654	3.4
72.0811	1.1
84.0446	40.0
84.0810	6.4
85.0286	34.2
85.0480	1.2
86.0602	1.8
86.0966	100.0
87.1000	5.3
98.0965	2.2
102.0550	18.4
103.0390	2.1
114.0549	1.1
115.0502	1.0
116.0706	5.0
128.0705	1.6
129.0658	9.1
130.0497	10.3
130.0861	13.2
132.1018	56.4
133.0759	1.1
133.1051	3.7
141.0657	2.4
142.0498	1.6
142.0861	2.7
143.0450	2.2
144.0653	1.1
144.1017	12.7
146.0808	1.3
148.0602	9.9
153.0658	1.2
169.1334	2.1
170.1172	1.4
172.0712	1.6
179.0936	1.0
185.0554	7.5
185.0919	1.0
197.1281	59.3
198.1122	9.4
198.1317	5.9
199.0709	2.1
199.1073	1.7
203.0546	2.5
215.1386	6.7
216.1229	2.1
218.1383	3.5
225.1230	4.2
234.1232	3.5
243.1335	42.6
244.1176	9.8
244.1370	6.0
245.1206	0.9
259.1282	2.4
260.0577	1.2
260.0912	4.4
260.1125	3.5
260.1242	1.2
260.1490	1.0
261.0867	1.1
261.1072	2.7
261.1440	21.9
262.0922	2.8
262.1063	3.2
262.1280	49.6
262.1449	1.1
262.1488	2.0
263.1021	7.6
263.1332	2.4

Name: 2-((7,13-Dihydroxy-3-pentoxyoctadecanoyl)amino)ethanesulfonic acid
PrecursorMZ: 532.32918
RT: 1.1016
ExactMass: 509.33862414
Spectrum_type: 2
charge: 1
Formula: C25H51NO7S
SMILES: CCCCCC(CCCCCC(CCCC(CC(=O)NCCS(=O)(=O)O)OCCCCC)O)O
Method: HCD
Collision_energy: [28.333334]
Isolation_window: 4.0
Ion_mode: P
Num Peaks: 14
69.6353	16.5
85.0649	15.1
133.1008	100.0
134.1043	20.7
149.0955	23.5
189.1114	23.3
381.3137	46.1
399.3244	53.6
417.3350	51.1
435.3458	17.1
452.3720	36.7
461.2706	14.6
485.2890	14.9
497.2920	14.8

Name: 2-((Ethoxyhydroxyphosphinyl)oxy)-N,N,N-trimethylethanaminium Inner Salt
PrecursorMZ: 212.10438
RT: 8.5042
ExactMass: 211.09734505
Spectrum_type: 2
charge: 1
Formula: C7H18NO4P
SMILES: CCOP(=O)([O-])OCC[N+](C)(C)C
Method: HCD
Collision_energy: [28.333334]
Isolation_window: 4.0
Ion_mode: P
Num Peaks: 17
60.0812	11.6
70.0655	12.6
86.0602	9.4
86.0966	40.0
116.0705	6.5
124.9997	42.3
153.0310	24.2
168.0687	30.9
184.0732	15.8
211.1072	30.6
211.1173	22.1
211.1436	10.2
212.0918	36.5
212.1042	100.0
212.1276	17.2
213.1231	24.5
214.1071	6.3

Name: 2-(1,1,3-Trioxo-1,2-benzothiazol-2-yl)acetate
PrecursorMZ: 242.01151
RT: 8.4996
ExactMass: 239.99666847
Spectrum_type: 2
charge: 1
Formula: C9H6NO5S-
SMILES: C1=CC=C2C(=C1)C(=O)N(S2(=O)=O)CC(=O)[O-]
Method: HCD
Collision_energy: [28.333334]
Isolation_window: 4.0
Ion_mode: P
Num Peaks: 12
114.0914	15.7
196.0062	5.9
198.0217	4.2
224.0008	4.6
240.0864	4.9
240.1229	4.2
241.1546	2.6
242.0115	100.0
242.1022	5.4
243.0150	8.5
244.0072	2.7
244.0964	3.9

Name: 2-(1,1-Dimethylazetidin-1-ium-3-yl)acetic acid
PrecursorMZ: 144.10183
RT: 8.832333333333333
ExactMass: 144.102453689
Spectrum_type: 2
charge: 1
Formula: C7H14NO2+
SMILES: C[N+]1(CC(C1)CC(=O)O)C
Method: HCD
Collision_energy: [28.333334]
Isolation_window: 4.0
Ion_mode: P
Num Peaks: 16
58.0655	5.3
60.0811	37.2
69.6260	4.0
69.7184	3.9
84.0810	9.5
85.0286	100.0
86.0320	5.5
86.0601	2.9
97.0761	5.9
98.0965	17.2
121.9660	4.8
126.0912	12.9
143.0813	7.3
144.1017	93.9
145.0971	3.1
145.1050	6.7

Name: 2-(1-(4-Amino-4-oxobutyl)-4-hexyl-2,5-dioxopyrrol-3-yl)acetic acid
PrecursorMZ: 325.1756
RT: 5.7246
ExactMass: 324.16852187
Spectrum_type: 2
charge: 1
Formula: C16H24N2O5
SMILES: CCCCCCC1=C(C(=O)N(C1=O)CCCC(=O)N)CC(=O)O
Method: HCD
Collision_energy: [28.333334]
Isolation_window: 4.0
Ion_mode: P
Num Peaks: 139
55.0547	5.2
67.0547	1.6
69.0703	1.3
70.0656	3.4
71.0495	1.2
72.0812	0.8
79.0546	1.6
81.0703	2.6
83.0495	2.1
83.0859	14.5
84.0893	1.1
85.0650	1.0
86.0967	1.4
89.0600	1.5
91.0545	0.9
93.0701	1.8
95.0493	1.2
95.0858	2.4
97.0650	2.7
97.1013	1.0
97.3987	1.3
98.9845	1.0
99.0806	1.3
101.0599	0.9
105.0701	1.3
107.0857	1.5
109.0650	2.4
109.1013	1.3
110.0603	4.1
111.0444	0.8
111.0807	1.0
113.0598	1.1
114.0664	6.5
114.0915	2.5
116.0708	4.5
119.0857	2.0
121.0649	1.5
121.1012	1.1
123.0805	2.1
124.0758	7.7
125.0791	1.3
125.0962	1.4
126.0914	68.3
127.0947	5.1
128.0817	1.4
131.0856	1.0
133.0861	0.9
133.1013	1.4
135.0804	1.1
136.0757	6.8
137.0597	2.5
137.0960	1.2
145.1011	1.1
147.0555	1.0
147.1170	1.1
149.0961	1.3
150.0913	1.0
151.0947	1.0
152.0708	1.1
152.1072	1.4
161.0959	0.9
164.0707	100.0
165.0547	4.7
165.0740	8.6
166.0976	5.8
168.1021	0.9
169.1053	1.1
180.1132	1.9
181.0973	0.7
182.0812	91.8
183.0652	2.8
183.0845	8.5
183.1130	1.0
184.1084	1.2
194.1174	1.3
200.0917	4.2
204.1020	1.6
209.0922	0.9
209.1283	1.6
211.1188	0.9
212.1030	0.9
229.1296	9.0
243.1452	4.4
263.2004	0.8
271.1690	1.4
273.1850	1.3
278.8137	3.0
279.1340	1.5
280.8120	1.2
281.0809	0.9
289.1796	3.4
290.1386	1.1
291.1954	2.2
301.8294	1.3
305.1760	1.1
306.1325	1.6
307.1652	1.1
307.1900	3.3
308.0263	0.9
308.1489	2.7
309.2059	0.9
323.1213	1.3
323.1973	2.8
323.2521	0.9
324.0869	1.0
324.1072	2.7
324.1228	1.9
324.1429	2.7
324.1567	1.5
324.1934	1.8
324.2281	1.4
325.0250	1.7
325.1045	0.8
325.1180	1.2
325.1211	1.1
325.1393	1.7
325.1544	1.8
325.1756	6.3
325.2001	3.8
325.2164	2.1
326.0379	2.3
326.1016	1.7
326.1215	1.9
326.1374	1.8
326.1579	2.5
326.1725	1.0
326.1785	1.0
326.2073	4.0
326.3781	0.8
327.0854	2.1
327.1197	3.2
327.1345	1.8
327.1547	2.4
327.1702	1.1
327.1918	2.5
327.1952	0.8
327.2027	19.6
327.2326	1.3
327.3366	0.9

Name: 2-(1-(Aminomethyl)-3-butylcyclopentyl)acetic acid
PrecursorMZ: 214.18019
RT: 0.5818
ExactMass: 213.172878976
Spectrum_type: 2
charge: 1
Formula: C12H23NO2
SMILES: CCCCC1CCC(C1)(CC(=O)O)CN
Method: HCD
Collision_energy: [28.333334]
Isolation_window: 4.0
Ion_mode: P
Num Peaks: 162
57.0340	3.2
57.0704	16.6
58.0656	6.0
59.0497	7.0
60.0813	2.3
67.0547	25.5
69.0704	23.1
70.0656	2.0
71.0496	10.6
71.0860	3.7
73.0653	4.9
79.0547	7.0
81.0703	43.4
82.0738	2.7
83.0496	3.7
83.0860	48.0
84.0893	2.6
85.0288	3.5
85.0652	13.4
85.1016	1.6
86.0605	10.0
86.0968	1.8
87.0444	8.3
89.0601	87.3
90.0633	3.8
91.0546	5.4
93.0702	19.2
94.0736	1.6
95.0494	3.4
95.0859	100.0
96.0891	6.8
96.9956	2.9
97.0651	14.8
97.1015	26.1
98.1049	1.8
99.0443	6.1
99.0808	7.2
100.0761	3.3
101.0600	11.6
101.0964	17.3
104.0710	2.2
105.0185	2.3
105.0701	7.5
107.0707	4.4
107.0858	14.5
109.0650	4.5
109.1015	52.9
110.1048	5.3
111.0082	2.6
111.0444	2.7
111.0807	13.8
111.1171	5.2
113.0599	3.5
113.0964	2.7
115.0756	6.8
119.0494	1.8
119.0858	18.4
121.0651	7.6
121.1014	14.2
123.0807	9.7
123.1170	8.9
125.0963	6.2
127.0756	3.8
127.1118	2.2
128.1071	4.4
129.0183	3.7
129.0912	5.5
130.1230	7.4
131.0858	2.5
133.0498	8.0
133.0860	30.4
133.1012	18.7
134.1048	2.0
135.0804	2.7
135.1169	12.6
136.0756	2.2
137.0601	2.4
137.0962	14.1
137.1326	4.2
139.0027	12.0
139.1120	2.0
141.0911	4.3
145.1021	2.3
145.1224	14.6
147.1170	11.0
149.0963	4.0
149.1327	9.9
151.0967	34.1
151.1115	4.8
151.1481	11.8
152.1001	2.0
153.0915	2.0
155.0704	1.7
155.1069	3.0
157.0135	8.1
157.0498	17.9
158.0527	1.7
159.1171	3.1
161.0963	3.1
161.1327	14.1
163.1118	1.8
163.1481	8.5
165.0549	13.1
165.0913	2.6
165.1276	2.8
165.1639	2.2
167.1071	1.8
172.1702	1.8
173.1321	3.9
175.1148	2.0
175.1483	47.8
176.1517	6.8
177.0913	1.9
177.1272	2.9
179.1429	6.8
180.1747	4.0
181.1588	3.1
189.1280	1.7
191.1428	2.0
193.1589	24.7
194.1629	3.6
195.1378	3.8
196.1700	3.1
197.1538	3.3
198.1853	2.6
202.2167	1.9
207.1383	13.1
207.1589	39.1
208.1631	4.4
209.1541	1.6
210.1853	26.4
211.1690	7.7
211.1886	4.0
212.1632	2.2
213.0920	2.5
214.1804	3.4
215.1638	5.4
217.1587	2.5
218.1540	3.6
219.1744	3.9
221.1160	3.1
222.1120	3.7
223.1683	2.2
224.0973	1.9
224.1282	33.0
224.1648	1.8
225.0431	9.4
225.1300	4.7
225.1487	3.1
225.1975	3.2
226.0437	1.9
226.1802	5.8
226.2164	1.8
227.2105	1.9
228.0876	2.0
228.1961	11.3
228.2314	6.0
229.1437	2.1
229.1796	4.5
230.2111	1.8
230.2474	3.5
235.1696	1.7

Name: 2-(2,3-Dihydroxypropoxy(oxonio)phosphoryl)oxyethyl-trimethylazanium
PrecursorMZ: 296.06559
RT: 9.241
ExactMass: 259.11847442
Spectrum_type: 2
charge: 1
Formula: C8H22NO6P+2
SMILES: C[N+](C)(C)CCOP(=O)([OH2+])OCC(CO)O
Method: HCD
Collision_energy: [28.333334]
Isolation_window: 4.0
Ion_mode: P
Num Peaks: 8
86.0967	10.1
104.1070	100.0
236.9918	12.5
295.1279	23.5
295.1637	28.3
296.0655	33.8
297.1432	23.2
297.1797	14.2

Name: 2-(2-((2-Amino-4-methylpentanoyl)amino)propanoylamino)-3-phenylpropanoic acid
PrecursorMZ: 350.20689
RT: 4.6933
ExactMass: 349.20015635
Spectrum_type: 2
charge: 1
Formula: C18H27N3O4
SMILES: CC(C)CC(C(=O)NC(C)C(=O)NC(CC1=CC=CC=C1)C(=O)O)N
Method: HCD
Collision_energy: [28.333334]
Isolation_window: 4.0
Ion_mode: P
Num Peaks: 95
69.0701	1.4
69.5048	1.7
70.0654	3.1
72.0811	3.8
74.0603	1.8
81.0337	4.3
84.0810	7.8
86.0966	86.2
87.1000	3.1
89.0598	3.3
97.4563	1.4
98.0965	5.4
110.0713	2.1
111.0440	1.4
116.0706	1.7
120.0807	100.0
121.0759	1.5
121.0840	8.5
122.0600	2.8
130.0649	2.0
132.1017	4.2
133.1009	4.7
136.0754	4.0
140.1431	55.4
141.1464	5.7
142.1221	1.8
142.1588	16.9
143.1177	1.8
148.0752	1.5
149.0596	2.6
150.0910	2.7
154.0496	1.4
156.1382	4.1
157.1333	50.5
158.1366	4.3
158.1538	2.0
164.0702	1.7
164.1067	2.3
166.0532	3.7
166.0860	14.6
167.0896	1.7
168.0653	1.5
175.0864	1.4
185.1281	33.7
186.1316	3.3
189.1229	2.0
190.1219	2.9
190.1433	3.5
191.0812	1.8
191.1175	36.6
192.1209	3.3
196.0964	1.8
203.1386	4.5
204.1379	3.9
207.1487	4.1
219.1123	27.7
220.1160	2.9
221.1282	2.8
224.0912	7.5
233.1643	46.8
234.1677	8.0
237.1228	13.4
238.1263	2.4
261.1592	40.3
262.1627	6.6
267.1332	15.2
271.1432	2.5
279.1696	5.7
290.1492	1.4
297.1438	2.5
313.1388	3.3
315.1544	6.8
332.1126	2.0
333.1645	4.0
349.1389	3.1
349.1548	1.7
349.1739	4.1
349.1895	1.5
349.2110	34.2
349.2488	2.4
350.1218	5.1
350.1380	2.4
350.1580	3.5
350.1722	2.3
350.2059	4.8
350.2091	10.7
351.1004	1.5
351.1329	3.9
351.1356	2.4
351.1537	3.2
351.1709	3.9
351.1909	3.6
351.2273	8.2
352.1360	2.8
352.2232	4.2

Name: 2-(2-((2-Amino-4-methylpentanoyl)amino)propanoylamino)propanoic acid
PrecursorMZ: 274.17592
RT: 5.2472
ExactMass: 273.16885622
Spectrum_type: 2
charge: 1
Formula: C12H23N3O4
SMILES: CC(C)CC(C(=O)NC(C)C(=O)NC(C)C(=O)O)N
Method: HCD
Collision_energy: [28.333334]
Isolation_window: 4.0
Ion_mode: P
Num Peaks: 13
86.0966	84.9
130.1225	13.2
148.0756	14.9
153.0655	13.5
157.1333	100.0
164.0702	11.9
171.0761	30.4
185.1281	36.2
234.1848	45.0
274.1060	34.3
275.1374	15.9
276.1216	16.6
276.1952	20.2

Name: 2-(2-((5-Oxopyrrolidine-2-carbonyl)amino)propanoylamino)pentanedioic acid
PrecursorMZ: 330.12901
RT: 7.6467
ExactMass: 329.12229995
Spectrum_type: 2
charge: 1
Formula: C13H19N3O7
SMILES: CC(C(=O)NC(CCC(=O)O)C(=O)O)NC(=O)C1CCC(=O)N1
Method: HCD
Collision_energy: [28.333334]
Isolation_window: 4.0
Ion_mode: P
Num Peaks: 31
70.0654	69.8
72.0811	14.6
84.0446	25.0
90.0551	16.5
98.0602	10.5
102.0551	17.9
112.0869	25.6
114.0662	25.4
116.0706	22.8
130.0499	15.0
148.0603	20.0
155.0814	13.8
156.1017	11.0
184.0717	21.0
184.0965	12.4
186.0871	23.9
200.1276	11.7
213.0870	9.7
241.0811	10.8
244.0931	9.7
310.1510	10.5
312.1199	16.0
329.0734	16.1
329.1494	20.0
330.1306	100.0
330.1699	13.2
331.1303	22.9
331.1508	12.6
331.1843	23.2
332.1127	12.5
332.1473	24.6

Name: 2-(2-(2-((Z)-2-(2-hydroxyethoxy)ethenoxy)ethoxy)ethoxy)ethanol
PrecursorMZ: 254.15965
RT: 1.3172
ExactMass: 236.12598835
Spectrum_type: 2
charge: 1
Formula: C10H20O6
SMILES: C(COCCOCCO/C=C\OCCO)O
Method: HCD
Collision_energy: [28.333334]
Isolation_window: 4.0
Ion_mode: P
Num Peaks: 16
59.0496	32.9
60.0530	7.4
87.0444	39.3
89.0600	49.1
97.3994	5.1
103.0756	9.9
121.0861	50.6
122.0894	3.2
131.0703	40.4
133.0860	55.1
195.1227	12.0
207.1227	100.0
208.1261	9.7
254.1600	5.4
255.1129	8.9
256.1178	3.2

Name: 2-(2-(2-(2-Hydroxyethoxy)ethoxy)ethoxy)-1-((1-hydroxy-2-(2-(2-(2-hydroxyethoxy)ethoxy)ethoxy)ethyl)amino)ethanol
PrecursorMZ: 402.23283
RT: 5.1088
ExactMass: 401.22609631
Spectrum_type: 2
charge: 1
Formula: C16H35NO10
SMILES: C(COCCOCCOCC(NC(COCCOCCOCCO)O)O)O
Method: HCD
Collision_energy: [28.333334]
Isolation_window: 4.0
Ion_mode: P
Num Peaks: 26
59.0496	3.9
87.0443	29.2
89.0599	70.7
103.0390	100.0
103.0753	4.0
104.0423	3.8
121.0858	3.2
131.0701	11.4
133.0858	41.1
134.0892	2.9
147.0650	8.9
163.0964	3.7
175.0963	4.5
177.1118	11.4
191.0913	4.3
214.0028	4.5
235.1173	6.2
257.9924	6.8
339.2010	3.9
367.1952	4.3
385.2060	68.7
386.2099	11.3
401.0869	53.8
402.0905	9.2
402.2325	8.2
403.0849	9.7

Name: 2-(2-(2-(2-Hydroxyethoxy)ethoxy)ethoxy)acetate
PrecursorMZ: 209.10193
RT: 5.4202
ExactMass: 207.08686319
Spectrum_type: 2
charge: 1
Formula: C8H15O6-
SMILES: C(COCCOCCOCC(=O)[O-])O
Method: HCD
Collision_energy: [28.333334]
Isolation_window: 4.0
Ion_mode: P
Num Peaks: 34
59.0496	27.7
77.0601	16.0
87.0443	77.7
88.0476	3.3
89.0599	35.9
103.0391	100.0
103.0754	20.3
104.0425	3.9
107.0704	8.6
133.0858	5.6
140.0341	3.9
152.0706	8.7
163.0963	44.0
164.0706	4.8
164.0998	3.9
181.0969	4.1
191.0813	8.2
191.0911	3.9
192.0657	3.4
192.1018	4.5
208.0475	3.4
208.0605	4.1
208.0966	10.4
208.1077	3.8
208.1330	65.1
209.0807	5.1
209.0918	20.0
209.1014	4.2
209.1280	17.6
209.1366	6.8
210.0758	6.1
210.0870	5.9
210.1123	26.9
211.1076	4.9

Name: 2-(2-(2-Aminopropanoylamino)propanoylamino)-4-methylpentanoic acid
PrecursorMZ: 274.17565
RT: 2.9541500000000003
ExactMass: 273.16885622
Spectrum_type: 2
charge: 1
Formula: C12H23N3O4
SMILES: CC(C)CC(C(=O)O)NC(=O)C(C)NC(=O)C(C)N
Method: HCD
Collision_energy: [28.333334]
Isolation_window: 4.0
Ion_mode: P
Num Peaks: 23
86.0966	100.0
101.0710	44.6
114.0913	18.2
114.1277	9.4
116.0705	8.2
128.1069	27.5
128.1432	5.9
129.0658	14.9
130.1227	6.5
132.1016	8.5
142.1589	7.4
143.1178	11.9
146.1174	95.1
147.1211	7.3
215.1383	5.1
256.1648	6.5
273.0630	12.9
273.1225	16.2
273.1805	15.5
275.1015	4.6
275.1391	5.9
275.1603	5.2
275.1987	13.3

Name: 2-(2-(2-Deuteriooxyethoxy)ethoxy)ethanol
PrecursorMZ: 151.09644
RT: 2.836
ExactMass: 151.09548567
Spectrum_type: 2
charge: 1
Formula: C6H14O4
SMILES: [2H]OCCOCCOCCO
Method: HCD
Collision_energy: [28.333334]
Isolation_window: 4.0
Ion_mode: P
Num Peaks: 5
89.0599	100.0
110.9390	5.0
133.0860	4.5
150.0548	14.8
152.0704	10.6

Name: 2-(2-Amino-4-methyl-6-oxo-1,6-dihydropyrimidin-5-yl)acetic acid
PrecursorMZ: 184.07161
RT: 6.7192
ExactMass: 183.06439116
Spectrum_type: 2
charge: 1
Formula: C7H9N3O3
SMILES: CC1=C(C(=O)NC(=N1)N)CC(=O)O
Method: HCD
Collision_energy: [28.333334]
Isolation_window: 4.0
Ion_mode: P
Num Peaks: 107
57.0451	0.7
68.0499	0.9
70.0655	2.8
71.0495	0.5
81.0338	1.0
81.0702	0.7
82.0654	0.8
83.0495	0.8
83.0607	1.9
84.0447	1.5
84.0811	0.5
85.0288	0.5
86.0604	0.5
87.0443	0.5
91.0545	1.7
93.0700	0.5
94.0653	0.5
95.0494	0.7
95.0606	0.6
96.0446	15.9
97.0478	0.8
98.0602	1.7
100.0395	2.0
100.0758	1.0
101.0599	1.1
108.0445	0.5
110.0602	1.0
110.0714	4.0
111.0441	0.8
112.0506	1.5
112.0758	0.8
112.0872	0.7
114.0551	12.8
115.0584	0.7
121.1012	0.6
122.0600	1.3
123.0442	0.8
124.0394	1.3
124.0756	1.2
125.0709	1.1
126.0550	1.8
126.0663	0.8
126.0913	0.8
128.0707	0.5
136.0505	2.7
136.0756	2.0
137.0540	0.5
137.0597	0.8
137.0711	1.1
138.0550	3.2
138.0662	65.9
138.0912	2.5
139.0633	0.8
139.0695	4.1
139.0752	0.5
139.0865	1.0
139.1229	0.8
140.0453	0.7
140.0705	2.6
140.0818	3.8
140.1068	0.6
141.0657	1.2
142.0499	1.5
144.0657	0.5
148.0391	0.9
155.0812	1.1
155.0925	0.9
156.0665	0.6
156.0765	3.3
158.0812	0.5
164.0706	2.6
165.0550	0.7
165.0659	2.5
165.0739	0.6
165.1022	0.6
166.0508	3.3
166.0611	33.8
166.0862	3.8
167.0643	2.3
167.0814	3.2
168.0655	1.3
168.0809	0.6
182.0560	4.7
182.0812	7.3
182.0920	0.5
182.1174	3.7
183.0589	1.2
183.0764	3.3
183.0848	1.0
183.0917	7.9
183.1126	6.1
183.1201	0.6
184.0431	3.1
184.0587	1.2
184.0618	1.5
184.0716	100.0
184.0962	4.7
184.1079	0.5
184.1147	0.6
184.1329	1.2
185.0751	7.3
185.0918	5.5
185.1076	1.8
185.1281	2.4
186.0761	1.8
186.0872	5.3
186.1122	1.3

Name: 2-(2-Aminopropanoylamino)pentanedioate
PrecursorMZ: 219.09728
RT: 8.79852
ExactMass: 216.07462149
Spectrum_type: 2
charge: 1
Formula: C8H12N2O5-2
SMILES: CC(C(=O)NC(CCC(=O)[O-])C(=O)[O-])N
Method: HCD
Collision_energy: [28.333334]
Isolation_window: 4.0
Ion_mode: P
Num Peaks: 14
112.0756	22.0
130.0498	13.5
148.0603	51.1
172.0967	18.5
174.1120	9.5
202.1071	9.4
218.1017	37.2
218.1167	25.8
218.1382	12.0
219.0964	13.2
219.1129	15.8
220.0969	14.4
220.1182	100.0
220.1321	9.6

Name: 2-(2-Methylpropylazaniumyl)acetate
PrecursorMZ: 132.10194
RT: 6.9389
ExactMass: 131.094628657
Spectrum_type: 2
charge: 1
Formula: C6H13NO2
SMILES: CC(C)C[NH2+]CC(=O)[O-]
Method: HCD
Collision_energy: [28.333334]
Isolation_window: 4.0
Ion_mode: P
Num Peaks: 24
57.0704	15.6
58.0656	3.5
61.0401	3.2
69.0339	4.0
72.0812	5.1
74.0968	6.3
76.0397	34.2
84.0447	5.3
84.0811	3.2
86.0604	6.4
86.0967	100.0
87.1001	6.7
91.0545	3.0
105.0701	3.8
130.1591	19.9
131.0639	15.0
131.0856	4.2
131.1623	3.6
132.1019	43.7
133.0649	3.4
133.0760	3.2
133.1012	2.6
134.0812	5.2
134.0965	6.8

Name: 2-(2-amino-3-methylbutanamido)-4-carbamoylbutanoic acid
PrecursorMZ: 246.1446
RT: 2.2824
Spectrum_type: 2
charge: 1
SMILES: CC(C)C(C(=O)NC(CCC(=O)N)C(=O)O)N
Method: HCD
Collision_energy: [28.333334]
Isolation_window: 4.0
Ion_mode: P
Num Peaks: 118
69.0340	5.4
70.0656	10.1
71.0494	2.7
72.0812	23.6
82.0656	3.0
83.0608	16.8
84.0448	15.7
84.0812	17.2
86.0969	6.7
87.0444	3.8
94.0655	3.0
95.0604	2.8
96.0812	3.6
99.0445	3.2
100.0763	3.8
101.0712	5.0
110.0607	2.8
110.0716	10.2
114.0551	2.6
116.0706	2.7
118.0865	20.8
121.0397	4.7
122.0605	6.2
123.0792	4.8
124.0398	3.0
125.0709	3.8
128.0708	4.8
130.0501	6.7
130.0866	6.3
138.0556	5.1
139.0504	59.8
140.0540	3.6
142.0861	2.7
146.0599	4.8
147.0765	13.6
148.1122	25.2
149.1151	2.6
150.0552	4.9
152.0708	3.3
153.0548	3.7
158.0960	5.6
159.0766	3.4
162.0223	15.8
162.0553	3.9
164.0712	2.9
166.0617	2.6
166.0856	3.3
168.0656	4.5
172.0759	4.4
175.1231	37.5
176.0702	3.1
176.1073	2.8
176.1265	4.3
182.0811	3.5
182.1292	7.9
183.1130	33.5
184.1150	2.6
188.0704	6.3
188.0912	3.1
192.0657	3.5
194.0806	3.4
196.0969	3.2
199.1079	7.4
199.1436	3.2
210.0770	5.9
211.1072	5.1
211.1443	2.8
212.1062	3.2
214.1072	4.0
219.1127	3.3
222.0762	2.6
224.0914	2.8
227.1011	6.7
228.1346	54.0
229.1183	27.5
229.1362	4.7
230.1212	3.6
232.0968	5.7
232.1178	17.8
236.0901	5.7
237.0856	3.2
237.1217	4.0
239.1025	4.2
240.0860	4.7
242.1022	3.9
244.1180	6.6
245.1131	24.4
245.1494	7.2
246.0962	5.4
246.1462	4.1
247.1258	2.9
248.0918	4.0
248.1127	8.8
249.0873	5.8
250.1072	11.3
250.1303	11.3
251.1033	12.6
252.0855	16.3
253.1184	7.8
254.1018	26.6
255.0975	100.0
255.1343	5.6
256.0812	3.0
256.1001	8.9
256.1266	9.9
257.1136	23.1
257.1501	2.9
258.0956	17.8
258.1361	2.8
259.1036	2.6
259.1288	9.7
260.1126	18.4
261.1449	2.9
262.1286	13.6
263.1042	5.3
264.0823	4.8
265.1176	8.8
266.1019	7.5

Name: 2-(2-oxo-3H-benzimidazol-1-yl)acetate
PrecursorMZ: 193.06074
RT: 6.7501
ExactMass: 191.04566709
Spectrum_type: 2
charge: 1
Formula: C9H7N2O3-
SMILES: C1=CC=C2C(=C1)NC(=O)N2CC(=O)[O-]
Method: HCD
Collision_energy: [28.333334]
Isolation_window: 4.0
Ion_mode: P
Num Peaks: 8
147.0553	100.0
148.0586	8.6
175.0502	13.7
192.0653	3.5
193.0608	16.1
193.1000	6.9
194.0812	6.2
194.1176	6.4

Name: 2-(3-((4-Amino-2-methylpyrimidin-5-yl)-dideuteriomethyl)-4-methyl-1,3-thiazol-3-ium-5-yl)-1,1-dideuterioethanol
PrecursorMZ: 265.11164
RT: 14.3344
ExactMass: 269.13741434
Spectrum_type: 2
charge: 1
Formula: C12H17N4OS+
SMILES: [2H]C([2H])(CC1=C([N+](=CS1)C([2H])([2H])C2=CN=C(N=C2N)C)C)O
Method: HCD
Collision_energy: [28.333334]
Isolation_window: 4.0
Ion_mode: P
Num Peaks: 16
81.0339	3.3
84.0812	4.5
122.0714	100.0
123.0746	5.7
144.0479	24.6
246.1336	7.0
248.1129	4.4
264.1447	9.4
265.1311	7.7
265.1545	6.1
266.1041	7.8
266.1231	3.8
266.1259	4.3
266.1382	4.8
266.1605	10.4
266.1866	3.1

Name: 2-(3-(3,4-Dihydroxyphenyl)propanoylamino)-3-(4-hydroxyphenyl)propanoic acid
PrecursorMZ: 346.12844
RT: 5.1764
ExactMass: 345.12123733
Spectrum_type: 2
charge: 1
Formula: C18H19NO6
SMILES: C1=CC(=CC=C1CC(C(=O)O)NC(=O)CCC2=CC(=C(C=C2)O)O)O
Method: HCD
Collision_energy: [28.333334]
Isolation_window: 4.0
Ion_mode: P
Num Peaks: 52
70.0654	7.3
72.0811	19.3
81.0337	4.1
81.0701	5.4
84.0447	4.8
86.0966	29.1
102.0551	5.9
107.0492	38.7
116.0706	15.4
118.0862	6.9
121.0647	3.9
123.0439	24.7
130.0497	4.9
132.1017	7.3
135.0439	7.3
136.0755	53.6
139.0387	8.1
149.0594	4.2
150.0549	5.4
152.0704	80.7
153.0738	7.4
165.0543	20.3
180.0655	3.9
181.0492	30.6
182.0809	43.0
186.1120	5.1
188.0703	5.5
198.0758	65.4
199.0795	5.6
208.1693	15.7
213.1596	4.1
282.2059	10.2
300.1224	11.6
300.2163	36.0
301.2198	10.3
328.1158	4.5
330.0362	38.4
331.0397	6.1
344.1703	4.5
344.2424	19.8
345.0598	100.0
345.1202	4.4
345.1437	22.4
345.2452	6.6
346.0630	18.4
346.1273	18.3
346.1459	3.8
346.1755	5.5
347.1230	23.2
347.1555	4.3
347.1599	8.6
347.1827	4.2

Name: 2-(3-Hydroxy-4,5-bis(hydroxymethyl)-2-pyridinyl)acetic acid
PrecursorMZ: 214.07086
RT: 6.7319
ExactMass: 213.06372245
Spectrum_type: 2
charge: 1
Formula: C9H11NO5
SMILES: C1=C(C(=C(C(=N1)CC(=O)O)O)CO)CO
Method: HCD
Collision_energy: [28.333334]
Isolation_window: 4.0
Ion_mode: P
Num Peaks: 36
70.0654	3.5
72.0810	1.1
84.0446	1.3
96.0445	1.5
108.0444	12.8
110.0601	1.6
116.0706	1.4
122.0599	1.5
126.0548	10.4
127.0581	0.9
134.0598	1.0
138.0548	2.0
150.0547	1.0
152.0704	11.1
153.0734	0.9
166.0496	3.1
166.0860	1.3
168.0690	3.2
171.0763	1.0
181.0602	1.5
184.0601	18.9
185.0631	1.5
194.0808	1.4
196.0601	8.5
197.0632	1.0
197.0916	1.3
212.0913	12.2
213.0948	2.9
213.1229	1.7
214.0705	100.0
214.1066	1.0
214.1182	1.4
215.0739	8.5
215.1018	3.2
215.1388	0.9
216.0960	0.9

Name: 2-(3-Methyl-2,5-dioxopyrrol-1-yl)but-2-enoic acid
PrecursorMZ: 196.06044
RT: 6.4523
ExactMass: 195.05315777
Spectrum_type: 2
charge: 1
Formula: C9H9NO4
SMILES: CC=C(C(=O)O)N1C(=O)C=C(C1=O)C
Method: HCD
Collision_energy: [28.333334]
Isolation_window: 4.0
Ion_mode: P
Num Peaks: 36
81.0703	2.0
84.0447	8.6
89.0600	4.0
94.0655	3.4
96.0447	1.9
97.0399	2.3
100.0760	2.0
101.0599	3.5
122.0602	23.0
123.0634	1.9
124.0758	2.3
135.1169	3.2
140.0706	6.7
150.0550	46.4
150.0916	2.0
151.0582	3.9
152.0707	6.7
168.0656	19.8
168.1021	2.8
169.0690	2.2
178.0497	1.8
178.0862	3.0
180.0655	5.4
194.0812	3.4
194.1175	3.5
195.0764	1.9
195.1130	2.4
196.0604	100.0
196.0966	9.4
197.0638	10.3
197.0921	4.4
197.1076	4.3
197.1281	2.1
197.1652	2.1
198.0758	3.2
198.1126	2.4

Name: 2-(4,7-Bis(carboxymethyl)-10-(2-oxo-2-(7-sulfanylheptylamino)ethyl)-1,4,7,10-tetrazacyclododec-1-yl)acetic acid
PrecursorMZ: 534.29514
RT: 4.9407
ExactMass: 533.2883199
Spectrum_type: 2
charge: 1
Formula: C23H43N5O7S
SMILES: C1CN(CCN(CCN(CCN1CC(=O)NCCCCCCCS)CC(=O)O)CC(=O)O)CC(=O)O
Method: HCD
Collision_energy: [28.333334]
Isolation_window: 4.0
Ion_mode: P
Num Peaks: 20
81.0701	2.7
83.0858	2.9
86.0966	18.9
95.0855	3.9
97.1012	2.6
104.1071	100.0
105.1103	3.8
142.0261	5.8
162.9556	4.2
176.8750	3.8
264.2681	4.3
475.2213	19.8
476.2263	3.3
534.2947	50.6
534.5233	29.9
535.2986	12.2
535.5270	8.4
536.2957	2.7
536.5025	2.9
536.5389	18.3

Name: 2-(4-(1-Hydroxy-3-(4-(hydroxy(diphenyl)methyl)piperidin-1-yl)propyl)phenyl)-2-methylpropanoic acid
PrecursorMZ: 488.27907
RT: 5.3712
ExactMass: 487.27225866
Spectrum_type: 2
charge: 1
Formula: C31H37NO4
SMILES: CC(C)(C1=CC=C(C=C1)C(CCN2CCC(CC2)C(C3=CC=CC=C3)(C4=CC=CC=C4)O)O)C(=O)O
Method: HCD
Collision_energy: [28.333334]
Isolation_window: 4.0
Ion_mode: P
Num Peaks: 74
50.2511	4.5
50.3626	1.3
52.2523	1.9
52.3638	0.5
54.2535	5.5
54.3650	1.6
68.0498	0.5
69.0576	0.5
80.0546	0.7
82.0654	1.4
86.0966	1.4
87.0442	0.6
89.0599	5.5
91.0544	3.3
94.0653	0.5
96.0809	1.0
98.0965	0.6
105.0699	0.7
111.1042	0.7
115.0542	0.5
117.0699	0.8
122.0964	0.8
124.1121	0.9
129.0697	5.2
130.0732	0.6
131.0854	1.3
133.0858	3.1
143.0853	1.0
155.0854	0.8
157.1010	72.4
158.1044	7.1
159.1166	1.0
163.0753	1.6
167.0853	1.0
169.1011	0.6
175.1115	1.7
176.8748	0.6
177.0545	1.1
177.1120	1.1
199.1247	0.6
203.1063	1.0
205.1007	0.5
219.1012	5.9
219.1167	0.5
220.1043	0.7
221.1381	0.6
232.1328	1.5
234.1483	0.5
246.1482	2.1
250.1586	3.7
251.1618	0.7
252.1743	0.5
258.1482	1.0
262.1585	8.7
263.1619	1.3
280.1693	1.2
284.1639	2.8
288.1742	0.7
452.2576	81.7
453.2610	25.0
454.2640	0.8
470.2682	33.5
471.2716	10.5
472.2834	0.5
472.2875	0.6
487.2652	0.5
487.2948	1.2
488.2043	0.6
488.2202	0.5
488.2788	100.0
488.3376	0.5
488.3525	0.6
489.2821	29.8
490.2861	1.2

Name: 2-(4-(2-Hydroxy-3-(propan-2-ylamino)propoxy)phenyl)acetate
PrecursorMZ: 268.15411
RT: 7.9398
ExactMass: 266.13923312
Spectrum_type: 2
charge: 1
Formula: C14H20NO4-
SMILES: CC(C)NCC(COC1=CC=C(C=C1)CC(=O)[O-])O
Method: HCD
Collision_energy: [28.333334]
Isolation_window: 4.0
Ion_mode: P
Num Peaks: 24
86.0968	4.6
87.0444	3.1
91.0546	2.5
100.1123	5.3
105.0701	2.9
119.0493	12.7
133.0648	100.0
134.0682	9.2
135.0804	14.6
162.0915	7.3
165.0546	4.8
239.1277	19.3
266.1751	9.5
267.1340	2.1
267.1798	3.8
268.1178	3.7
268.1543	22.5
269.1132	2.3
269.1581	2.3
269.1866	2.9
269.2223	2.2
270.0967	3.4
270.1337	10.2
270.1701	10.7

Name: 2-(5-Aminopentyl(pyridin-2-ylmethyl)amino)acetic acid
PrecursorMZ: 252.17059
RT: 10.6312
ExactMass: 251.16337692
Spectrum_type: 2
charge: 1
Formula: C13H21N3O2
SMILES: C1=CC=NC(=C1)CN(CCCCCN)CC(=O)O
Method: HCD
Collision_energy: [28.333334]
Isolation_window: 4.0
Ion_mode: P
Num Peaks: 52
70.0652	6.8
84.0807	69.0
84.0833	7.4
85.0838	2.5
110.0715	40.4
113.1074	4.8
116.0708	6.0
123.0913	3.2
124.0394	15.5
124.0758	26.5
130.0863	43.2
138.0657	2.6
154.0862	6.9
156.0768	6.9
161.1070	3.1
189.1387	3.6
195.1129	3.7
197.1281	2.6
204.1257	6.8
205.1332	3.4
208.0966	3.2
208.1336	5.4
216.1494	3.8
217.1335	12.0
232.1180	4.5
235.1189	24.8
235.1440	100.0
236.0915	5.5
236.1031	3.8
236.1480	11.0
250.1287	3.1
250.1438	7.3
250.1661	4.6
251.1018	9.3
251.1387	21.5
251.1754	37.1
252.0868	11.4
252.1230	28.6
252.1343	6.1
252.1440	4.4
252.1591	14.9
252.1707	30.3
253.1181	16.8
253.1292	9.2
253.1543	53.8
253.1746	4.0
254.1022	59.7
254.1137	4.7
254.1386	16.7
254.1500	5.8
254.1609	5.3
254.1858	5.0

Name: 2-(6-Methyl-3-oxo-1,4-benzoxazin-4-yl)acetate
PrecursorMZ: 222.07586
RT: 6.3688
ExactMass: 220.0609828
Spectrum_type: 2
charge: 1
Formula: C11H10NO4-
SMILES: CC1=CC2=C(C=C1)OCC(=O)N2CC(=O)[O-]
Method: HCD
Collision_energy: [28.333334]
Isolation_window: 4.0
Ion_mode: P
Num Peaks: 23
96.0446	2.4
148.0756	2.4
157.1053	2.1
164.0704	2.5
176.0705	33.1
177.0735	3.3
192.0654	10.1
203.0813	6.4
203.1108	2.0
204.0654	14.8
205.0968	3.7
221.0917	7.6
221.1011	3.1
221.1285	7.1
222.0759	100.0
222.0851	4.4
222.1122	51.5
222.1485	6.1
223.0794	11.3
223.1074	7.9
223.1161	4.4
223.1437	10.2
224.1276	2.7

Name: 2-(Acetylamino)-2-deoxyhexitol
PrecursorMZ: 224.11269
RT: 2.8651
ExactMass: 223.10558726
Spectrum_type: 2
charge: 1
Formula: C8H17NO6
SMILES: CC(=O)NC(CO)C(C(C(CO)O)O)O
Method: HCD
Collision_energy: [28.333334]
Isolation_window: 4.0
Ion_mode: P
Num Peaks: 176
58.0656	0.4
60.0448	0.6
60.0562	0.2
67.0548	0.3
69.0340	0.4
70.0656	12.9
71.0496	0.7
71.0689	0.5
72.0447	0.3
72.0812	0.5
81.0339	0.9
82.0656	0.7
83.0496	0.6
84.0447	0.4
84.0812	4.8
85.0289	0.4
85.0652	0.6
85.0845	0.2
86.0605	0.4
86.0968	0.2
87.0444	0.6
88.0397	0.2
88.0761	0.3
95.0494	0.2
96.0447	5.3
97.0287	0.3
97.0478	0.3
98.0603	0.5
99.0444	0.3
100.0762	0.2
101.0601	0.5
102.0552	0.3
108.0447	0.7
108.0810	0.7
110.0603	1.3
111.0443	0.8
112.0871	1.2
113.0601	0.4
113.0711	0.5
114.0552	0.8
114.1030	0.2
115.0867	0.7
116.0708	2.4
122.0601	0.5
124.0395	1.2
124.0758	0.2
125.0235	0.6
125.0712	0.3
126.0551	0.7
127.0504	0.2
128.0707	0.6
129.0546	0.4
129.0660	0.2
130.0864	0.9
132.0659	0.3
132.0809	0.8
136.0758	0.2
138.0548	0.5
138.1025	0.3
139.0866	0.9
140.0707	0.3
142.0864	0.3
142.1232	0.2
143.0701	0.2
144.0657	0.4
146.0811	0.3
148.1122	0.6
149.0711	6.3
150.0551	0.3
150.0746	0.4
152.0703	0.3
153.0784	0.3
154.0868	0.3
158.0926	1.7
160.0757	1.3
162.0552	0.2
164.0703	0.2
164.0921	1.1
165.0549	0.3
166.0859	3.4
166.0977	5.4
167.0807	1.5
167.1012	0.3
168.0658	0.3
170.0809	0.2
173.0921	0.2
175.1196	1.6
178.0864	2.1
179.1181	0.6
180.1015	0.5
181.0961	0.3
181.1335	1.6
182.0813	3.4
182.1285	0.6
183.0874	0.3
184.0336	0.2
184.1081	100.0
184.1208	1.5
184.1346	0.7
184.1416	0.7
184.1522	0.3
184.1920	0.3
185.1118	9.0
185.1278	0.7
186.1125	2.4
188.0920	0.8
188.1280	0.2
190.0857	0.4
192.0657	0.4
192.1011	0.4
193.0972	0.8
194.0810	1.2
197.0916	0.2
198.1246	0.2
199.1440	1.8
206.0815	0.3
206.1020	2.1
208.0960	0.7
210.1245	0.4
211.1448	0.3
212.0916	3.8
213.0920	0.3
214.1090	0.2
218.0810	0.2
220.0966	0.3
222.0757	0.3
222.0944	0.2
222.1125	0.7
222.1325	0.2
223.1081	0.5
223.1436	0.8
224.0917	5.2
224.1086	0.2
224.1287	0.7
225.0925	0.5
225.1242	0.5
226.1069	4.6
227.1033	0.8
227.1142	0.3
227.1391	0.9
228.0863	0.2
228.1364	1.8
229.1159	0.4
229.1331	1.3
229.1550	0.2
230.1128	16.5
231.1153	1.8
232.0969	0.3
232.1178	1.1
233.1024	0.2
233.1295	0.2
234.0754	1.6
234.1122	1.1
234.1330	0.5
235.0793	0.2
235.1093	0.4
235.1412	0.3
236.0906	2.6
236.1284	0.2
236.1490	0.4
237.0878	0.6
237.1220	0.5
238.1072	4.9
239.1024	9.3
239.1406	0.4
240.0856	1.4
240.1052	0.3
240.1238	2.2
241.1194	1.5
241.1548	0.2
242.1008	0.9
242.1385	0.5
243.1337	0.9
244.0961	0.3
244.1296	0.9
245.1617	9.4

Name: 2-(But-2-ynoylamino)pentanedioic acid
PrecursorMZ: 214.07084
RT: 7.7173
ExactMass: 213.06372245
Spectrum_type: 2
charge: 1
Formula: C9H11NO5
SMILES: CC#CC(=O)NC(CCC(=O)O)C(=O)O
Method: HCD
Collision_energy: [28.333334]
Isolation_window: 4.0
Ion_mode: P
Num Peaks: 27
70.0654	62.2
72.0811	27.4
84.0446	46.7
100.0758	33.2
116.0706	47.3
122.0599	50.5
130.0498	28.6
150.0548	36.4
152.0704	34.8
167.0813	28.1
168.0650	91.6
168.1018	37.8
170.0809	30.9
170.1179	27.3
196.0603	79.2
197.0918	28.3
198.0760	80.3
212.0916	41.2
213.0868	37.9
213.1223	28.0
214.0710	100.0
214.1070	78.1
214.1189	43.3
215.1023	55.3
216.0864	39.5
216.0976	39.0
216.1227	62.3

Name: 2-(Carboxyformamido)-3-phenylpropanoic acid
PrecursorMZ: 238.07084
RT: 4.733
ExactMass: 237.06372245
Spectrum_type: 2
charge: 1
Formula: C11H11NO5
SMILES: C1=CC=C(C=C1)CC(C(=O)O)NC(=O)C(=O)O
Method: HCD
Collision_energy: [28.333334]
Isolation_window: 4.0
Ion_mode: P
Num Peaks: 30
81.0702	1.5
89.0599	2.2
95.0857	1.2
120.0809	9.2
125.0474	1.3
142.0500	1.2
142.0975	2.3
148.0757	1.2
164.0706	6.2
166.0864	1.3
192.0654	100.0
192.1007	1.4
193.0688	9.5
220.0601	1.6
222.0218	2.3
236.0917	1.7
236.1643	1.1
236.2370	1.5
237.0871	1.3
237.1223	1.7
238.0708	47.4
238.1071	5.4
238.1436	1.2
239.0743	5.9
239.1006	1.6
240.0325	1.4
240.0866	1.7
240.0981	2.6
240.1226	3.0
240.2320	1.9

Name: 2-(Carboxylatomethyl(2-hydroxyethyl)amino)acetate
PrecursorMZ: 178.0709
RT: 7.2492
ExactMass: 175.04807239
Spectrum_type: 2
charge: 1
Formula: C6H9NO5-2
SMILES: C(CO)N(CC(=O)[O-])CC(=O)[O-]
Method: HCD
Collision_energy: [28.333334]
Isolation_window: 4.0
Ion_mode: P
Num Peaks: 32
60.0448	4.0
60.0811	5.6
69.0514	5.0
70.0655	5.3
71.0494	5.2
72.0447	18.3
84.0810	30.2
86.0602	5.2
88.0394	6.5
88.0759	4.7
96.9952	5.1
97.4569	5.2
100.0394	4.0
102.0913	3.0
114.0550	8.6
118.0498	81.7
119.0855	3.1
130.0861	100.0
131.0894	20.6
132.0653	74.5
133.0686	3.6
150.0547	8.0
160.0601	5.9
176.0915	4.3
177.0657	6.4
178.0496	9.0
178.0708	28.9
178.0859	6.9
179.0814	4.5
180.0650	4.9
180.0807	8.8
180.1048	65.6

Name: 2-(Dimethylamino)pentanedioate
PrecursorMZ: 176.09172
RT: 7.7945
ExactMass: 173.06880783
Spectrum_type: 2
charge: 1
Formula: C7H11NO4-2
SMILES: CN(C)C(CCC(=O)[O-])C(=O)[O-]
Method: HCD
Collision_energy: [28.333334]
Isolation_window: 4.0
Ion_mode: P
Num Peaks: 31
55.0547	2.0
56.0500	3.6
58.0656	4.4
74.0604	7.0
84.0811	4.3
85.0288	6.1
87.0444	29.8
90.0552	5.9
98.0603	10.9
101.0599	8.5
102.0551	5.3
112.0759	42.8
113.0793	2.9
116.0708	73.6
117.0740	3.3
129.0660	2.1
130.0863	100.0
131.0340	5.0
131.0896	5.6
156.1020	15.9
157.1052	2.6
158.0813	24.1
174.1125	7.3
175.0708	3.8
175.0865	1.8
176.0708	2.6
176.0917	78.7
176.1069	2.9
176.8753	2.8
177.0951	5.8
178.0865	2.4

Name: 2-(Methanidyl(methyl)amino)ethanol
PrecursorMZ: 90.09153
RT: 12.9609
ExactMass: 88.076238942
Spectrum_type: 2
charge: 1
Formula: C4H10NO-
SMILES: CN([CH2-])CCO
Method: HCD
Collision_energy: [28.333334]
Isolation_window: 4.0
Ion_mode: P
Num Peaks: 8
70.0655	7.4
72.0447	2.4
72.0811	100.0
73.0845	4.6
89.0711	2.7
90.0915	50.9
91.0544	4.0
91.0949	3.4

Name: 2-(Methylamino)-1-tritioethanol
PrecursorMZ: 76.07605
RT: 7.2474
ExactMass: 77.07663816
Spectrum_type: 2
charge: 1
Formula: C3H9NO
SMILES: [3H]C(CNC)O
Method: HCD
Collision_energy: [28.333334]
Isolation_window: 4.0
Ion_mode: P
Num Peaks: 31
56.0500	0.3
58.0656	7.2
59.0691	0.2
65.0390	0.1
67.0547	0.4
69.0703	0.3
74.0970	0.2
76.0761	1.8
78.0342	0.2
79.0421	0.3
80.0499	0.5
82.0657	0.1
83.0606	0.1
84.0449	0.1
84.0812	3.0
85.0764	0.2
86.0604	0.1
86.0968	6.2
87.1000	0.4
93.0576	0.3
94.0375	0.3
94.0459	0.1
94.0494	0.2
94.0533	0.7
94.0554	0.8
94.0654	100.0
94.0754	0.5
94.0779	0.7
94.0815	0.3
94.0883	0.1
94.0972	0.3

Name: 2-(Methylamino)-4-(methylsulfanyl)butanoic acid
PrecursorMZ: 164.0738
RT: 7.1176
ExactMass: 163.06669983
Spectrum_type: 2
charge: 1
Formula: C6H13NO2S
SMILES: CNC(CCSC)C(=O)O
Method: HCD
Collision_energy: [28.333334]
Isolation_window: 4.0
Ion_mode: P
Num Peaks: 24
61.0110	1.4
70.0654	10.2
88.0394	1.2
103.0543	1.7
107.0492	1.3
116.0529	4.5
116.0705	6.2
117.0562	1.0
118.0685	11.0
120.0112	1.7
120.0807	100.0
123.0437	1.1
131.0490	4.2
133.0316	12.4
148.0791	1.0
149.0594	1.4
162.0586	2.1
163.0500	2.3
164.0567	1.3
164.0742	4.5
164.1067	1.8
164.1432	1.8
166.0725	1.4
166.0864	5.3

Name: 2-(Octadecanoylamino)-4-sulfobutanoic acid
PrecursorMZ: 450.28772
RT: 3.0282
ExactMass: 449.28110926
Spectrum_type: 2
charge: 1
Formula: C22H43NO6S
SMILES: CCCCCCCCCCCCCCCCCC(=O)NC(CCS(=O)(=O)O)C(=O)O
Method: HCD
Collision_energy: [28.333334]
Isolation_window: 4.0
Ion_mode: P
Num Peaks: 33
57.0703	12.4
67.0546	4.1
69.0702	4.8
69.3323	2.4
71.0858	14.2
81.0701	9.4
83.0858	8.8
85.1014	8.6
86.0966	2.8
88.0395	54.6
95.0857	14.9
97.1013	5.2
107.0161	3.5
109.1012	10.2
111.1170	2.3
117.9956	2.1
123.1168	5.0
137.1323	2.7
149.0266	2.1
166.0532	2.7
194.0479	5.4
212.0583	8.4
239.2365	23.2
240.2398	2.8
252.2679	3.1
280.2629	10.4
308.2576	4.0
309.1226	2.5
326.2682	100.0
327.2716	18.5
450.1999	2.2
450.2873	5.3
452.2171	3.8

Name: 2-(Piperidin-4-yl)acetic acid
PrecursorMZ: 144.10192
RT: 4.4177
ExactMass: 143.094628657
Spectrum_type: 2
charge: 1
Formula: C7H13NO2
SMILES: C1CNCCC1CC(=O)O
Method: HCD
Collision_energy: [28.333334]
Isolation_window: 4.0
Ion_mode: P
Num Peaks: 27
55.0546	14.3
58.0655	7.2
62.9294	10.3
80.0497	3.9
81.0701	3.1
82.0654	9.2
83.0494	6.1
84.0810	14.8
86.0602	7.7
87.0442	9.4
97.0649	5.4
100.0759	4.4
101.0598	41.6
103.9556	6.9
104.0706	3.2
108.0808	9.8
109.0648	4.0
121.9661	71.3
126.0912	31.4
128.1069	13.6
144.1018	100.0
144.9821	6.7
145.0757	3.2
145.1050	9.3
146.0599	4.7
146.0922	11.0
146.1174	41.0

Name: 2-(butanoylamino)-3-(1H-imidazol-5-yl)propanoic acid
PrecursorMZ: 226.11847
RT: 5.507
ExactMass: 225.11134135
Spectrum_type: 2
charge: 1
Formula: C10H15N3O3
SMILES: CCCC(=O)NC(CC1=CN=CN1)C(=O)O
Method: HCD
Collision_energy: [28.333334]
Isolation_window: 4.0
Ion_mode: P
Num Peaks: 42
55.0546	6.2
71.0494	3.0
81.0449	17.9
95.0605	4.0
101.0597	11.4
109.0761	22.7
110.0713	67.7
111.0746	3.4
124.0868	3.8
126.0549	8.8
127.0501	56.1
136.0754	3.0
156.0766	63.8
157.0800	3.7
161.1070	3.5
164.0704	4.0
170.0920	4.4
178.0862	5.0
179.1177	9.8
180.1015	3.6
180.1130	18.0
181.0969	3.9
181.1333	15.8
182.0810	5.6
189.1019	3.6
207.1124	13.6
208.0965	5.2
208.1076	13.9
209.1280	41.0
224.0916	3.1
224.1026	4.3
224.1276	4.7
224.1390	4.1
225.1228	24.6
226.1069	28.0
226.1182	36.2
227.0810	4.6
227.1016	8.8
227.1226	5.2
227.1386	100.0
228.0860	9.5
228.1419	6.5

Name: 2-(methylazaniumyl)ethanesulfonate
PrecursorMZ: 140.03757
RT: 1.1351
ExactMass: 139.03031432
Spectrum_type: 2
charge: 1
Formula: C3H9NO3S
SMILES: C[NH2+]CCS(=O)(=O)[O-]
Method: HCD
Collision_energy: [28.333334]
Isolation_window: 4.0
Ion_mode: P
Num Peaks: 3
58.0656	41.5
96.9956	7.8
140.0375	100.0

Name: 2-)(2-Aminoacetyl)amino(-5-(diaminomethylideneamino)pentanoic acid
PrecursorMZ: 232.14021
RT: 5.8704
ExactMass: 231.13313942
Spectrum_type: 2
charge: 1
Formula: C8H17N5O3
SMILES: C(CC(C(=O)O)NC(=O)CN)CN=C(N)N
Method: HCD
Collision_energy: [28.333334]
Isolation_window: 4.0
Ion_mode: P
Num Peaks: 45
58.0656	1.9
60.0561	7.8
70.0655	17.2
72.0812	1.9
84.0811	3.4
89.0600	5.2
100.0508	14.2
100.0759	8.2
110.0717	2.3
112.0871	5.6
115.0868	6.2
116.0708	14.6
127.0866	2.0
129.1022	2.1
133.0860	1.8
151.1232	3.0
158.0926	14.4
160.0970	5.4
164.0728	2.7
172.1084	6.9
173.0920	11.1
175.1192	12.3
197.1036	2.6
198.0876	4.3
203.1751	2.7
214.1293	1.7
215.1139	15.1
230.1868	6.1
231.1700	10.6
232.1404	100.0
233.1439	9.0
235.1083	2.2
236.1281	2.7
237.1247	4.6
238.1072	12.2
239.1072	3.9
239.1403	5.3
240.1226	4.9
241.1538	8.6
242.1206	3.2
242.1533	2.9
248.0350	4.6
251.1415	2.0
252.1216	8.5
253.1546	2.7

Name: 2-))2-(2,6-Diaminohexanoylamino)acetyl(amino(propanoic acid
PrecursorMZ: 275.17111
RT: 6.0023
ExactMass: 274.1641052
Spectrum_type: 2
charge: 1
Formula: C11H22N4O4
SMILES: CC(C(=O)O)NC(=O)CNC(=O)C(CCCCN)N
Method: HCD
Collision_energy: [28.333334]
Isolation_window: 4.0
Ion_mode: P
Num Peaks: 58
69.0340	5.5
70.0656	19.6
84.0812	59.7
89.0601	7.4
101.1076	6.9
102.0917	11.7
107.0735	5.1
112.1124	8.0
120.0809	12.0
122.0813	15.3
129.1025	36.9
130.0866	9.2
146.0811	8.1
147.1127	4.6
149.0235	14.0
156.0771	5.7
166.0534	7.1
166.0863	4.7
168.0688	11.7
213.1232	6.2
215.0939	14.5
230.1509	10.5
257.1615	11.1
258.1140	10.1
258.1413	8.8
274.1074	63.9
274.1748	6.4
274.2739	8.8
275.1109	12.4
275.1722	7.8
276.1216	11.4
276.1660	9.6
277.1222	7.2
278.1385	11.5
278.1951	4.5
279.1353	6.9
280.1275	17.0
280.1578	5.1
281.1509	10.3
282.1325	5.6
283.1657	29.0
284.1160	11.0
284.1456	4.7
284.1685	7.3
285.1818	14.8
286.1071	11.2
286.3098	9.6
287.1374	9.7
288.1228	100.0
289.1262	19.6
290.1384	35.1
290.2681	6.0
291.1388	8.7
291.1919	16.8
292.1541	9.6
292.1880	12.5
293.1518	8.7
294.1487	46.4

Name: 2-)2-)2-(2-Aminoethenoxy)ethoxy(ethoxy(ethanamine
PrecursorMZ: 191.13908
RT: 0.6892
ExactMass: 190.13174244
Spectrum_type: 2
charge: 1
Formula: C8H18N2O3
SMILES: C(COCCOCCOC=CN)N
Method: HCD
Collision_energy: [28.333334]
Isolation_window: 4.0
Ion_mode: P
Num Peaks: 98
55.0548	0.1
57.0703	0.1
58.0656	0.1
59.0496	0.7
70.0655	0.1
71.0495	0.1
72.0813	0.2
73.0652	0.3
83.0856	0.1
84.0810	0.1
85.0652	0.1
85.0765	0.2
86.0604	0.4
86.0967	0.2
87.0445	1.5
88.0478	0.1
89.0333	0.3
89.0419	0.1
89.0451	0.2
89.0485	0.6
89.0507	0.5
89.0600	100.0
89.0690	0.7
89.0714	0.9
89.0747	0.3
89.0782	0.1
89.0810	0.1
89.0842	0.1
89.0900	0.2
90.0632	4.5
91.0640	0.4
95.0857	0.1
98.0601	0.3
100.0758	0.1
101.0596	0.1
101.0965	0.1
102.0919	0.1
103.0392	0.2
103.0754	0.7
107.0705	6.2
107.0854	0.1
108.0738	0.3
108.0809	0.2
112.0759	0.1
116.0707	0.9
126.0912	0.1
130.0863	1.0
131.0698	0.1
131.0894	0.1
133.0374	0.1
133.0651	0.2
133.0695	0.1
133.0859	31.4
133.1016	0.2
133.1074	0.2
133.1132	0.1
134.0892	2.1
135.0438	0.2
135.0901	0.2
136.0757	0.1
150.0929	0.1
150.1132	0.1
151.0965	5.0
152.0817	0.3
152.0996	0.3
154.0861	0.1
156.1022	0.1
162.0549	0.1
165.0214	0.1
174.1123	0.1
177.1122	2.4
178.1153	0.2
179.1173	0.1
180.0654	0.1
190.1071	0.2
191.1388	0.8
192.0656	0.1
192.1005	0.1
192.1415	0.1
193.0959	0.1
194.0788	0.1
194.0942	0.1
194.1175	0.6
195.0759	0.1
195.1227	10.1
195.1605	0.1
196.0968	0.3
196.1257	0.8
197.1278	0.1
198.0888	0.2
198.1124	0.1
200.1272	0.1
202.1802	0.3
206.1751	0.2
207.1122	0.1
209.0918	0.1
210.0785	0.2
210.1103	0.2

Name: 2-Acetamido-4-methanesulfonylbutanoic acid
PrecursorMZ: 224.05843
RT: 2.1266
ExactMass: 223.05144369
Spectrum_type: 2
charge: 1
Formula: C7H13NO5S
SMILES: CC(=O)NC(CCS(=O)(=O)C)C(=O)O
Method: HCD
Collision_energy: [28.333334]
Isolation_window: 4.0
Ion_mode: P
Num Peaks: 10
56.0499	48.2
84.0446	19.0
86.0965	21.9
98.0601	22.0
136.0424	47.5
164.0702	15.7
182.0478	100.0
197.1280	8.1
222.0761	9.8
224.0915	16.9

Name: 2-Acetamido-6-aminohexanoic acid
PrecursorMZ: 189.12326
RT: 4.5587
ExactMass: 188.11609238
Spectrum_type: 2
charge: 1
Formula: C8H16N2O3
SMILES: CC(=O)NC(CCCCN)C(=O)O
Method: HCD
Collision_energy: [28.333334]
Isolation_window: 4.0
Ion_mode: P
Num Peaks: 87
58.0655	0.8
59.0608	1.2
60.0448	2.8
60.0812	12.9
69.0338	2.0
69.7561	1.2
70.0492	1.1
70.0655	13.2
71.0495	0.8
72.0811	2.8
82.0653	1.3
83.0494	0.9
84.0446	1.5
84.0810	83.5
85.0286	5.5
85.0650	2.9
85.0844	4.7
87.0443	1.1
88.0759	3.5
90.0914	1.1
95.0605	2.1
96.0444	0.9
98.0601	1.8
100.0758	3.3
101.0598	5.3
101.1074	4.5
102.0550	2.0
111.0442	1.2
112.0757	2.3
113.0710	6.1
114.0550	1.1
115.0866	13.8
116.0706	4.8
119.9752	2.2
126.0913	13.7
127.0865	13.7
127.0945	1.1
128.0705	2.5
129.1021	100.0
130.0497	13.3
130.0861	40.9
130.1054	6.0
131.0895	3.0
134.0811	1.3
142.0862	1.6
142.1226	1.4
144.1017	2.6
144.1130	3.0
146.0599	1.3
147.1127	21.0
148.1160	1.5
153.1021	5.8
154.0861	2.1
154.1224	3.0
160.0755	6.8
162.0549	0.7
165.0213	4.8
170.0810	1.5
170.1173	3.9
171.0763	1.8
171.1126	5.1
172.0966	9.3
172.1330	3.5
173.0709	2.4
173.0919	23.3
174.0952	1.1
179.9599	1.1
187.1077	1.7
187.1226	15.4
188.0704	1.2
188.0914	2.8
188.1027	2.4
188.1278	38.0
189.0867	2.8
189.1019	1.9
189.1231	37.1
189.1312	4.2
190.0498	1.5
190.0859	1.5
190.0972	2.0
190.1071	6.4
190.1184	8.3
190.1267	3.5
190.1434	15.0
191.0811	1.1
191.1175	1.5
191.1541	1.6

Name: 2-Amino-3-(carboxymethyl)pentanedioic acid
PrecursorMZ: 206.06574
RT: 9.1527
ExactMass: 205.05863707
Spectrum_type: 2
charge: 1
Formula: C7H11NO6
SMILES: C(C(CC(=O)O)C(C(=O)O)N)C(=O)O
Method: HCD
Collision_energy: [28.333334]
Isolation_window: 4.0
Ion_mode: P
Num Peaks: 9
84.0446	11.3
102.0219	12.5
114.0549	32.3
142.0497	100.0
160.0603	44.3
181.9779	18.2
199.9884	17.6
206.0659	8.6
206.1019	15.2

Name: 2-Amino-4-ethenylsulfonylbutanoic acid
PrecursorMZ: 194.04823
RT: 7.7843
ExactMass: 193.04087901
Spectrum_type: 2
charge: 1
Formula: C6H11NO4S
SMILES: C=CS(=O)(=O)CCC(C(=O)O)N
Method: HCD
Collision_energy: [28.333334]
Isolation_window: 4.0
Ion_mode: P
Num Peaks: 35
56.0500	5.5
72.0448	27.7
74.0241	18.3
75.0267	5.6
81.0703	3.3
84.0448	36.8
86.0604	14.4
102.0552	5.5
107.0731	2.6
114.0552	3.5
122.0603	2.4
130.0500	100.0
131.0532	4.8
132.0656	6.1
133.1014	3.3
135.1170	2.3
140.0343	4.0
148.0428	2.3
149.0268	4.6
150.0550	3.9
150.0761	4.4
166.0535	8.9
167.0816	2.4
174.0761	3.5
176.0377	2.8
178.0867	2.7
193.0984	3.0
194.0472	2.2
194.0813	11.7
194.1176	39.9
195.0765	44.0
195.1212	4.3
196.0064	6.5
196.0608	4.1
196.0969	7.5

Name: 2-Amino-5-((amino-(cyanoamino)methylidene)amino)pentanoic acid
PrecursorMZ: 200.11414
RT: 8.7914
ExactMass: 199.10692467
Spectrum_type: 2
charge: 1
Formula: C7H13N5O2
SMILES: C(CC(C(=O)O)N)CN=C(N)NC#N
Method: HCD
Collision_energy: [28.333334]
Isolation_window: 4.0
Ion_mode: P
Num Peaks: 20
70.0654	2.0
87.0555	2.1
98.0603	2.6
114.0551	4.8
116.0707	2.6
137.0822	4.4
139.0978	7.8
154.0862	5.6
183.0876	100.0
184.0905	6.2
198.0761	2.7
199.1077	5.4
199.1191	3.8
200.0919	6.3
200.1032	2.7
200.1140	17.0
201.0869	10.1
201.0981	4.3
202.0820	5.0
202.1074	4.5

Name: 2-Amino-5-(1-aminoethylideneamino)pentanoic acid
PrecursorMZ: 174.12377
RT: 13.4121
ExactMass: 173.11642673
Spectrum_type: 2
charge: 1
Formula: C7H15N3O2
SMILES: CC(=NCCCC(C(=O)O)N)N
Method: HCD
Collision_energy: [28.333334]
Isolation_window: 4.0
Ion_mode: P
Num Peaks: 32
58.0656	1.7
60.0562	52.4
60.0813	6.9
69.0340	3.8
70.0656	46.2
71.0688	2.2
72.0813	4.2
78.9851	1.7
84.0811	1.4
96.9955	7.7
98.0604	1.4
112.0873	5.4
114.1028	1.5
115.0868	1.3
116.0708	53.9
117.0742	2.4
130.0874	1.3
130.0975	18.1
135.0440	1.6
157.1086	3.7
158.0926	17.4
165.0215	10.1
174.1241	1.9
175.1191	93.0
176.1230	6.3
180.0819	16.3
180.1051	100.0
181.0838	1.5
181.1068	9.4
182.1010	3.0
190.1072	1.2
194.1178	5.4

Name: 2-Amino-5-(aminomethylideneamino)pentanoic acid
PrecursorMZ: 160.10804
RT: 4.6108
ExactMass: 159.100776666
Spectrum_type: 2
charge: 1
Formula: C6H13N3O2
SMILES: C(CC(C(=O)O)N)CN=CN
Method: HCD
Collision_energy: [28.333334]
Isolation_window: 4.0
Ion_mode: P
Num Peaks: 38
55.0546	2.0
58.0655	1.7
59.0495	1.2
60.0560	2.2
60.0812	1.1
62.0604	8.5
70.0655	100.0
71.0688	4.5
83.0494	3.9
84.0446	1.0
85.0651	0.8
86.0603	3.9
96.0445	1.8
97.0762	1.5
98.0965	2.9
99.0442	1.0
100.0758	6.9
101.0598	35.1
103.0391	0.9
113.0710	76.1
114.0550	16.4
114.0743	5.1
115.0584	0.9
115.0866	8.3
116.0706	4.4
118.0862	1.9
126.0913	22.9
127.0752	1.0
141.0656	1.4
142.0497	1.3
144.1018	7.1
158.1539	0.9
159.0763	22.3
160.0798	1.4
160.0975	4.3
160.1079	25.3
161.1114	1.4
162.1123	39.5

Name: 2-Amino-6-(2-(2-oxo-acetylamino)-acetylamino)-hexanoic acid
PrecursorMZ: 260.12359
RT: 8.7987
ExactMass: 259.11682065
Spectrum_type: 2
charge: 1
Formula: C10H17N3O5
SMILES: C(CCNC(=O)CNC(=O)C=O)C[C@@H](C(=O)O)N
Method: HCD
Collision_energy: [28.333334]
Isolation_window: 4.0
Ion_mode: P
Num Peaks: 25
70.0655	6.1
84.0811	11.0
86.0967	14.4
114.0915	10.7
116.0705	2.8
117.0661	4.0
129.1023	12.2
130.0863	8.6
132.0768	12.2
147.1128	18.3
172.0715	2.8
213.1234	3.1
214.1181	5.1
215.1389	16.8
242.1128	5.4
258.1339	4.3
259.1285	12.9
260.1239	66.1
260.1483	3.7
260.1967	11.0
261.1076	14.8
261.1278	5.4
261.1443	100.0
262.1415	4.7
262.1465	4.7

Name: 2-Amino-6-(dimethylamino)hexanoic acid
PrecursorMZ: 175.14394
RT: 15.5177
ExactMass: 174.136827821
Spectrum_type: 2
charge: 1
Formula: C8H18N2O2
SMILES: CN(C)CCCCC(C(=O)O)N
Method: HCD
Collision_energy: [28.333334]
Isolation_window: 4.0
Ion_mode: P
Num Peaks: 39
58.0657	0.9
60.0812	12.6
69.0339	2.4
70.0655	1.3
72.0812	1.6
78.9846	1.9
84.0811	32.7
85.0843	1.5
86.0966	0.6
89.0601	1.6
96.9954	8.6
98.0602	0.6
115.0059	0.6
116.0708	3.6
120.0476	0.6
130.0863	38.8
130.1227	5.5
131.0899	2.4
135.0439	1.0
158.1175	1.2
165.0214	6.6
175.1192	0.9
175.1441	20.7
176.1479	1.6
178.1228	0.6
179.0839	0.7
180.0815	17.4
180.1049	100.0
180.1382	0.7
181.0840	2.3
181.1066	10.1
182.1007	3.0
189.1596	9.4
190.1072	1.2
190.1627	0.9
193.0989	0.8
194.1174	4.8
195.1212	0.6
196.0637	0.6

Name: 2-Aminononadecane-1,3-diol
PrecursorMZ: 316.32044
RT: 4.7158
ExactMass: 315.313729551
Spectrum_type: 2
charge: 1
Formula: C19H41NO2
SMILES: CCCCCCCCCCCCCCCCC(C(CO)N)O
Method: HCD
Collision_energy: [28.333334]
Isolation_window: 4.0
Ion_mode: P
Num Peaks: 99
55.0546	3.5
57.0703	10.0
60.0448	74.0
61.0110	15.1
61.0481	2.2
67.0546	9.6
69.0702	18.1
69.3272	2.3
69.3292	2.1
70.0654	3.3
71.0495	3.0
71.0858	8.8
72.0811	30.5
73.0287	2.0
77.0058	8.5
81.0701	18.7
83.0858	18.9
85.1014	5.9
86.0966	34.8
89.0599	5.1
93.0700	4.4
94.0322	10.2
95.0856	20.8
97.0648	2.7
97.1013	14.4
97.4566	4.6
98.9842	7.8
107.0856	4.2
109.0282	4.0
109.1012	9.9
111.0804	3.0
111.1168	5.1
121.1011	5.1
123.1168	4.4
125.0959	3.1
130.0649	7.1
130.0861	2.4
132.0806	11.6
133.0858	3.2
135.1166	5.3
137.1323	2.3
139.1116	4.4
144.0805	15.8
148.0755	4.0
149.1323	5.0
153.1273	3.9
157.1332	3.0
159.0915	43.8
163.1479	3.8
167.1426	2.6
170.0598	8.8
171.1489	16.9
173.1283	4.3
181.1585	1.9
185.1644	4.5
199.1436	13.7
199.1802	7.8
201.1233	2.0
207.0048	2.6
213.1593	4.5
219.2103	7.4
227.1173	4.7
227.1748	5.6
229.1331	8.6
237.2209	6.1
254.2836	2.4
255.1121	6.0
255.2314	2.0
256.2632	2.2
257.1279	6.4
268.2994	16.1
269.1273	2.5
269.3028	2.8
271.1434	3.5
273.1598	3.6
280.2994	9.6
287.1381	3.4
289.1540	6.3
296.2942	5.2
297.1236	4.3
297.2976	11.1
298.3098	82.8
299.1021	1.8
299.1385	5.7
299.3131	17.3
301.1539	27.3
314.3047	4.6
315.1330	6.0
315.2346	8.2
315.3082	13.8
316.1174	3.2
316.2377	1.8
316.2831	2.4
316.3203	100.0
317.1116	3.4
317.1486	19.4
317.3237	22.9
318.1528	3.9
318.1813	7.6

Name: 2-Deoxy-trans-zeatin riboside
PrecursorMZ: 336.16595
RT: 9.4091
ExactMass: 335.15935417
Spectrum_type: 2
charge: 1
Formula: C15H21N5O4
SMILES: C/C(=C\CNC1=C2C(=NC=N1)N(C=N2)[C@H]3C[C@@H]([C@H](O3)CO)O)/CO
Method: HCD
Collision_energy: [28.333334]
Isolation_window: 4.0
Ion_mode: P
Num Peaks: 9
114.0916	3.2
154.0864	2.3
220.1193	100.0
221.1232	9.3
335.1433	2.6
335.1617	3.8
336.1440	5.5
336.1659	35.8
337.1730	5.3

Name: 2-Furancarboxylic acid, 5-((2-formyl-1H-pyrrol-1-yl)methyl)-
PrecursorMZ: 220.06024
RT: 7.2993
ExactMass: 219.05315777
Spectrum_type: 2
charge: 1
Formula: C11H9NO4
SMILES: C1=CN(C(=C1)C=O)CC2=CC=C(O2)C(=O)O
Method: HCD
Collision_energy: [28.333334]
Isolation_window: 4.0
Ion_mode: P
Num Peaks: 39
70.0655	40.1
71.0625	2.2
71.0688	25.2
74.0604	1.7
79.0181	1.7
81.0337	14.5
83.0606	1.6
84.0447	2.3
87.0442	1.6
90.0551	3.2
96.0445	2.4
97.0285	2.9
112.0758	1.8
119.0160	2.4
125.0232	100.0
126.0265	7.1
130.0497	1.5
130.0861	2.4
136.0617	1.4
148.0616	7.6
160.0617	2.0
191.0370	2.4
200.1027	2.9
201.0864	1.4
202.1082	3.4
218.0809	2.0
218.1023	1.7
218.1215	8.1
219.0759	7.5
219.1124	2.4
219.1230	1.9
220.0601	7.8
220.0821	3.9
220.0966	8.3
220.1188	48.8
221.0916	9.5
221.1217	3.9
222.0761	2.7
222.1121	19.2

Name: 2-Hydroxy-1-(3,6,11,17-tetrahydroxy-10,13-dimethyl-1,2,3,4,5,6,7,8,9,11,12,14,15,16-tetradecahydrocyclopenta(a)phenanthren-17-yl)ethanone
PrecursorMZ: 383.24231
RT: 5.116266666666666
ExactMass: 382.2355388
Spectrum_type: 2
charge: 1
Formula: C21H34O6
SMILES: CC12CCC(CC1C(CC3C2C(CC4(C3CCC4(C(=O)CO)O)C)O)O)O
Method: HCD
Collision_energy: [28.333334]
Isolation_window: 4.0
Ion_mode: P
Num Peaks: 87
69.0339	6.7
70.0655	13.4
72.0811	6.1
81.0338	28.3
81.0702	12.8
83.0494	10.5
84.0810	6.0
85.0286	6.2
86.0967	6.8
91.0544	6.0
93.0700	12.3
95.0492	8.5
95.0857	10.9
97.0286	5.6
99.0441	8.3
100.0758	7.8
105.0700	15.5
107.0857	10.8
110.0601	5.5
111.0441	29.4
116.0706	5.7
119.0855	14.1
121.1013	8.1
127.0389	5.9
130.0651	21.8
133.1011	8.9
135.0804	6.1
135.1168	15.0
136.0755	12.6
139.0753	5.6
145.1010	13.3
147.0803	5.4
147.1167	32.6
152.0704	10.0
157.1013	6.7
159.1167	10.7
161.0962	11.2
162.0548	8.5
163.1115	7.9
171.0803	5.6
173.0960	9.8
175.1118	9.4
196.0966	10.1
200.0703	22.0
202.0860	11.3
211.1451	5.7
222.1123	7.2
232.0970	5.8
238.1069	12.3
251.1790	35.3
252.1821	6.6
267.1737	5.9
269.1895	66.0
270.1932	10.9
281.1891	7.9
287.2000	17.6
292.1171	15.1
293.1896	12.2
311.1999	29.5
329.2105	74.6
330.2140	14.4
347.2211	100.0
348.2246	19.7
364.1385	20.5
364.1745	5.5
365.2317	55.7
365.2812	6.1
366.1524	8.6
366.2351	11.9
382.0895	34.6
382.1272	19.9
382.1471	60.5
382.1866	12.6
383.0725	16.6
383.1078	10.5
383.1547	16.9
383.2423	72.7
383.2932	35.6
384.1055	58.7
384.1450	19.1
384.1638	23.1
384.1887	13.6
384.2454	15.8
384.2976	5.5
385.0890	45.2
385.1427	6.2
385.1733	9.8

Name: 2-Hydroxyethyl(3-hydroxypropyl)azanium
PrecursorMZ: 102.09149
RT: 13.832
ExactMass: 120.102453689
Spectrum_type: 2
charge: 1
Formula: C5H14NO2+
SMILES: C(C[NH2+]CCO)CO
Method: HCD
Collision_energy: [28.333334]
Isolation_window: 4.0
Ion_mode: P
Num Peaks: 21
55.0546	0.4
56.0499	1.2
58.0655	2.0
59.0607	1.0
59.0733	0.6
60.0811	23.4
62.0604	0.5
74.0966	0.3
84.0810	10.3
85.0843	0.6
86.0966	0.3
100.0757	0.7
101.0709	0.4
102.0914	7.0
102.1278	1.4
103.0948	0.5
104.0719	0.3
104.0819	0.5
104.0999	0.4
104.1070	100.0
104.1141	0.6

Name: 2-Imidazol-1-ylpropanoate
PrecursorMZ: 141.06571
RT: 4.8638
ExactMass: 139.05075247
Spectrum_type: 2
charge: 1
Formula: C6H7N2O2-
SMILES: CC(C(=O)[O-])N1C=CN=C1
Method: HCD
Collision_energy: [28.333334]
Isolation_window: 4.0
Ion_mode: P
Num Peaks: 6
69.0450	30.8
69.2054	6.9
95.0604	6.3
123.0551	7.7
141.0656	100.0
142.0688	8.0

Name: 2-Iminiumyl-1,3-diazepane-4-carboxylate
PrecursorMZ: 158.09237
RT: 11.9263
ExactMass: 157.085126602
Spectrum_type: 2
charge: 1
Formula: C6H11N3O2
SMILES: C1C[C@H](NC(=[NH+]C1)N)C(=O)[O-]
Method: HCD
Collision_energy: [28.333334]
Isolation_window: 4.0
Ion_mode: P
Num Peaks: 75
58.0655	0.7
60.0410	0.2
60.0497	0.4
60.0510	0.3
60.0561	52.7
60.0610	0.3
60.0625	0.3
60.0812	0.9
61.0531	0.6
61.0594	0.6
70.0466	0.2
70.0575	0.4
70.0655	48.8
71.0494	0.4
71.0688	2.0
72.0811	4.4
73.0845	0.2
74.0603	0.2
78.9851	0.3
86.0604	0.2
88.0761	0.3
96.9954	1.5
97.0762	0.5
98.0602	0.6
100.0245	0.5
105.0335	0.6
110.0716	0.2
112.0871	6.0
113.0712	0.7
113.0905	0.3
114.0556	0.3
114.1027	1.8
115.0868	1.6
115.9642	0.3
116.0538	0.4
116.0574	0.4
116.0707	55.1
116.0882	0.4
117.0741	2.8
118.0351	0.2
118.0746	0.3
123.0110	0.2
130.0975	20.6
131.1015	1.0
133.0971	0.5
140.0816	0.6
140.1433	0.4
141.0660	0.5
146.0809	0.2
148.0787	0.8
157.1084	4.7
157.1699	0.9
158.0655	0.2
158.0924	22.8
158.1134	0.3
158.1534	0.5
159.0966	1.4
163.0752	0.2
165.0214	0.7
165.0655	0.3
166.0894	2.0
166.1072	0.2
168.0688	2.1
174.0873	0.2
175.0435	0.2
175.0781	0.2
175.0873	0.7
175.0938	0.6
175.1189	100.0
175.1435	0.5
175.1507	0.6
175.1599	0.2
176.1227	6.7
177.1236	0.6
179.0835	0.2

Name: 2-Methyl-1-(trideuteriomethyl)imidazole
PrecursorMZ: 97.07629
RT: 5.5503
ExactMass: 99.087578502
Spectrum_type: 2
charge: 1
Formula: C5H8N2
SMILES: [2H]C([2H])([2H])N1C=CN=C1C
Method: HCD
Collision_energy: [28.333334]
Isolation_window: 4.0
Ion_mode: P
Num Peaks: 10
56.0500	8.1
95.0607	0.5
96.0446	0.6
97.0399	0.4
97.0697	0.6
97.0711	0.4
97.0763	100.0
97.0828	0.6
98.0736	0.5
98.0796	5.5

Name: 2-Pyrimidinamine, 4-methyl-6-(1-propynyl)-
PrecursorMZ: 148.0866
RT: 2.4213
ExactMass: 147.0796473
Spectrum_type: 2
charge: 1
Formula: C8H9N3
SMILES: CC#CC1=NC(=NC(=C1)C)N
Method: HCD
Collision_energy: [28.333334]
Isolation_window: 4.0
Ion_mode: P
Num Peaks: 13
67.0293	100.0
105.0446	11.6
106.0651	12.3
107.0601	21.0
108.0680	19.5
122.0709	9.7
123.9640	8.3
147.0785	17.2
148.0752	24.6
148.0865	42.6
149.0819	39.8
150.0908	14.9
150.1021	6.7

Name: 2-Sulfamoylbenzoate
PrecursorMZ: 202.01671
RT: 8.0594
ExactMass: 200.00175385
Spectrum_type: 2
charge: 1
Formula: C7H6NO4S-
SMILES: C1=CC=C(C(=C1)C(=O)[O-])S(=O)(=O)N
Method: HCD
Collision_energy: [28.333334]
Isolation_window: 4.0
Ion_mode: P
Num Peaks: 10
70.0655	17.5
97.3985	4.1
184.0062	100.0
185.0099	7.4
200.0376	3.9
202.0167	37.0
202.0862	4.0
202.1799	5.2
203.0198	3.3
203.1020	6.2

Name: 2-Tritiooxypyrimidin-4-amine
PrecursorMZ: 112.05066
RT: 6.8724
ExactMass: 113.051486041
Spectrum_type: 2
charge: 1
Formula: C4H5N3O
SMILES: [3H]OC1=NC=CC(=N1)N
Method: HCD
Collision_energy: [28.333334]
Isolation_window: 4.0
Ion_mode: P
Num Peaks: 13
69.0451	5.3
69.0702	2.8
70.0655	2.8
79.0545	3.5
86.0601	5.8
95.0241	13.3
96.0808	2.8
111.0553	4.2
111.0917	3.8
112.0505	100.0
113.0537	3.2
113.1073	3.0
114.0913	73.9

Name: 2-acetamido-3-((E)-2-carboxyethenyl)sulfanylpropanoic acid
PrecursorMZ: 234.04288
RT: 6.955
ExactMass: 233.03579362
Spectrum_type: 2
charge: 1
Formula: C8H11NO5S
SMILES: CC(=O)NC(CS/C=C/C(=O)O)C(=O)O
Method: HCD
Collision_energy: [28.333334]
Isolation_window: 4.0
Ion_mode: P
Num Peaks: 39
58.9953	1.3
60.0447	1.1
70.0292	1.3
72.0811	3.5
86.9902	1.9
88.0396	8.7
100.0217	9.7
105.0006	3.7
114.0550	1.3
129.0007	1.2
140.0705	4.2
144.0656	1.1
146.0270	100.0
147.0304	5.4
148.0228	2.6
158.0813	1.7
170.0811	1.0
174.0219	3.1
175.0060	3.0
186.0760	17.2
187.0793	4.4
187.8825	1.2
189.8806	1.2
192.0324	71.5
192.0504	1.4
193.0361	4.8
194.0282	2.2
210.8985	1.6
232.0812	2.1
233.0922	1.4
233.1281	1.2
234.0423	1.5
234.0765	2.3
234.1120	1.1
234.1852	1.0
235.1073	1.2
235.1440	1.2
236.0915	1.6
236.1028	1.6

Name: 2-acetamido-3-(4-methoxyphenyl)propanoic Acid
PrecursorMZ: 238.1072
RT: 1.6916
ExactMass: 237.10010796
Spectrum_type: 2
charge: 1
Formula: C12H15NO4
SMILES: CC(=O)NC(CC1=CC=C(C=C1)OC)C(=O)O
Method: HCD
Collision_energy: [28.333334]
Isolation_window: 4.0
Ion_mode: P
Num Peaks: 7
136.0755	100.0
137.0595	6.8
137.0788	6.4
178.0860	50.8
179.0700	23.1
179.0893	4.7
196.0966	21.5

Name: 2-acetamido-4-methyl-N-(3-methyl-1-oxobutan-2-yl)pentanamide
PrecursorMZ: 257.18571
RT: 2.6996
ExactMass: 256.17869263
Spectrum_type: 2
charge: 1
Formula: C13H24N2O3
SMILES: CC(C)CC(C(=O)NC(C=O)C(C)C)NC(=O)C
Method: HCD
Collision_energy: [28.333334]
Isolation_window: 4.0
Ion_mode: P
Num Peaks: 26
72.0811	10.6
86.0967	27.5
98.0965	57.8
99.0999	3.6
100.1122	3.8
112.1121	18.6
114.0914	24.4
114.1278	4.1
126.1278	3.7
140.1432	61.8
141.1463	5.7
142.1223	5.0
144.1018	100.0
145.1051	8.2
154.1589	14.9
158.1175	46.1
195.0914	8.5
256.2632	4.9
257.1290	5.5
257.1854	68.3
257.2104	3.9
258.0788	5.2
258.1100	4.9
258.1891	10.0
259.1069	5.2
259.1647	14.4

Name: 2-amino-2-phenylacetate
PrecursorMZ: 193.09726
RT: 5.3882
ExactMass: 150.055503498
Spectrum_type: 2
charge: 1
Formula: C8H8NO2-
SMILES: C1=CC=C(C=C1)C(C(=O)[O-])N
Method: HCD
Collision_energy: [28.333334]
Isolation_window: 4.0
Ion_mode: P
Num Peaks: 15
89.0600	2.3
145.1053	1.5
147.0917	1.2
148.0759	1.9
149.1074	4.2
176.0706	1.4
177.1025	1.6
192.0660	2.2
192.1019	2.6
193.0973	100.0
193.1326	1.3
194.0814	5.6
194.1007	10.1
194.1178	4.6
195.1129	25.1

Name: 2-amino-3-(5-hydroxy-1H-indol-3-yl)propanoate
PrecursorMZ: 221.09155
RT: 8.6897
ExactMass: 219.07696722
Spectrum_type: 2
charge: 1
Formula: C11H11N2O3-
SMILES: C1=CC2=C(C=C1O)C(=CN2)CC(C(=O)[O-])N
Method: HCD
Collision_energy: [28.333334]
Isolation_window: 4.0
Ion_mode: P
Num Peaks: 20
58.0654	3.3
80.0496	3.7
119.0489	2.5
120.0805	17.7
160.0753	5.8
177.1017	19.0
178.1221	3.0
179.0933	2.3
204.0649	14.6
205.0683	2.5
220.0966	5.1
220.1178	4.7
220.1320	2.6
220.1532	3.3
221.0912	35.9
221.1278	7.7
222.0964	4.1
222.1117	100.0
223.1067	9.7
223.1156	5.2

Name: 2-amino-4-methylsulfonyl-N-pent-1-yn-3-ylbutanamide
PrecursorMZ: 247.11097
RT: 4.9329
ExactMass: 246.10381361
Spectrum_type: 2
charge: 1
Formula: C10H18N2O3S
SMILES: CCC(C#C)NC(=O)C(CCS(=O)(=O)C)N
Method: HCD
Collision_energy: [28.333334]
Isolation_window: 4.0
Ion_mode: P
Num Peaks: 7
60.0447	3.7
127.0863	4.6
155.1178	6.3
183.1125	100.0
184.1159	8.7
247.1092	5.1
247.1436	4.1

Name: 2-amino-5-(((1S)-1-carboxy-2-phenylethyl)amino)-5-oxopentanoic acid
PrecursorMZ: 295.12845
RT: 8.8236
ExactMass: 294.12157168
Spectrum_type: 2
charge: 1
Formula: C14H18N2O5
SMILES: C1=CC=C(C=C1)C[C@@H](C(=O)O)NC(=O)CCC(C(=O)O)N
Method: HCD
Collision_energy: [28.333334]
Isolation_window: 4.0
Ion_mode: P
Num Peaks: 14
84.0810	3.3
101.0598	4.2
121.0885	3.8
148.0757	3.7
166.0861	24.3
195.1128	7.3
249.1230	10.2
251.1384	2.6
295.1283	100.0
295.1645	49.7
296.1315	13.3
296.1483	2.9
296.1681	5.7
297.1427	2.9

Name: 2-amino-6-(((2R)-2-amino-4-carboxybutanoyl)amino)-4-methylideneheptanedioic acid
PrecursorMZ: 332.14473
RT: 7.7411
ExactMass: 331.13795002
Spectrum_type: 2
charge: 1
Formula: C13H21N3O7
SMILES: C=C(CC(C(=O)O)N)CC(C(=O)O)NC(=O)[C@@H](CCC(=O)O)N
Method: HCD
Collision_energy: [28.333334]
Isolation_window: 4.0
Ion_mode: P
Num Peaks: 37
56.0500	3.6
84.0447	34.4
98.0603	7.3
101.0599	5.8
102.0552	17.8
110.0600	3.5
122.0603	6.8
128.0708	3.5
139.0866	4.3
140.0706	60.6
141.0737	3.6
156.0655	4.1
158.0813	18.6
167.0816	6.0
168.0656	13.0
195.0764	6.3
200.1029	7.2
213.0869	3.8
223.0713	23.0
241.0816	9.7
251.1025	9.4
269.1133	18.7
279.0976	5.5
297.1080	100.0
298.1110	12.4
314.1348	35.2
315.1186	97.1
315.1369	4.9
316.1215	14.2
316.1391	6.9
331.1499	5.8
331.1642	5.8
332.1124	3.2
332.1460	43.1
333.1463	13.9
334.1288	7.2
334.1492	17.4

Name: 2-amino-9-((2R,3R,4R,5S,6R)-3,4,5-trihydroxy-6-(hydroxymethyl)oxan-2-yl)-1H-purin-6-one
PrecursorMZ: 314.10913
RT: 7.43
ExactMass: 313.10223322
Spectrum_type: 2
charge: 1
Formula: C11H15N5O6
SMILES: C1=NC2=C(N1[C@H]3[C@@H]([C@@H]([C@@H]([C@H](O3)CO)O)O)O)N=C(NC2=O)N
Method: HCD
Collision_energy: [28.333334]
Isolation_window: 4.0
Ion_mode: P
Num Peaks: 40
69.0338	6.2
70.0654	7.3
84.0810	6.9
87.0443	12.4
99.0441	13.4
116.0706	5.2
117.0546	14.8
128.0705	9.7
134.0962	7.2
137.0595	4.7
142.0861	6.1
152.0565	100.0
153.0600	4.6
168.0652	5.1
172.0967	3.4
178.0721	3.9
202.0721	5.4
210.0756	10.1
213.0861	3.8
214.0719	4.2
228.0861	10.8
232.0824	4.4
250.0931	5.3
251.1025	3.7
295.1271	3.8
296.0984	24.8
296.1125	4.2
297.1070	3.8
312.1572	4.4
313.1173	7.2
313.1388	17.1
313.1753	6.2
314.1081	63.6
314.1233	60.4
314.1365	7.0
315.1133	8.9
315.1331	5.9
315.1546	10.3
316.1167	8.6
316.1523	4.3

Name: 2-amino-9-((2R,4S,5R)-4-hydroxy-5-(hydroxymethyl)(213C)oxolan-2-yl)-1H-purin-6-one
PrecursorMZ: 306.05958
RT: 6.8242
ExactMass: 268.10010875
Spectrum_type: 2
charge: 1
Formula: C10H13N5O4
SMILES: C1[C@@H]([C@H](O[13C@H]1N2C=NC3=C2N=C(NC3=O)N)CO)O
Method: HCD
Collision_energy: [28.333334]
Isolation_window: 4.0
Ion_mode: P
Num Peaks: 59
69.0338	1.3
70.0654	1.5
81.0338	4.0
83.0495	1.6
84.0812	1.8
85.0286	1.2
97.0286	1.5
99.0442	2.3
101.0599	1.4
111.0443	8.9
116.0708	1.5
117.0549	2.0
123.0441	1.5
125.0597	2.2
127.0390	1.4
138.0550	7.3
139.0389	1.6
144.0655	1.7
149.0597	1.2
153.0658	1.5
169.0971	2.0
175.0017	5.2
179.0815	2.7
190.0126	61.9
191.0165	3.1
192.0105	2.9
245.0657	2.2
269.1128	5.2
270.0971	1.2
271.0807	1.3
286.1286	3.6
287.1231	4.9
288.1085	2.7
288.1247	1.2
288.1446	1.5
289.1547	2.0
304.1183	3.7
304.1387	11.7
304.1551	1.6
304.1754	1.6
304.2314	1.2
305.0570	1.3
305.1337	5.9
305.1498	4.5
306.0598	100.0
306.0963	3.6
306.1178	5.0
306.1338	6.4
306.1554	11.5
306.1817	4.9
307.0436	17.8
307.0626	11.3
307.1018	7.3
307.1264	5.3
307.1636	2.2
308.0586	4.7
308.1121	3.4
308.1334	2.0
308.1491	2.2

Name: 2-hydroxy-N-(1,3,6-trihydroxyoctadec-4-en-2-yl)docosanamide
PrecursorMZ: 654.60221
RT: 1.3122
ExactMass: 653.59582462
Spectrum_type: 2
charge: 1
Formula: C40H79NO5
SMILES: CCCCCCCCCCCCCCCCCCCCC(C(=O)NC(CO)C(C=CC(CCCCCCCCCCCC)O)O)O
Method: HCD
Collision_energy: [28.333334]
Isolation_window: 4.0
Ion_mode: P
Num Peaks: 70
55.0546	3.6
56.0499	4.2
57.0703	5.7
60.0448	100.0
67.0545	11.3
69.0702	13.2
69.4861	3.4
70.0654	2.6
70.7329	2.8
71.0858	6.4
72.0447	4.2
72.7342	2.6
74.0603	3.4
79.0545	6.7
81.0338	2.5
81.0701	15.9
83.0857	13.0
85.1013	3.9
86.0602	4.1
90.0550	5.2
91.0544	4.3
93.0700	8.2
95.0856	16.2
97.0650	3.0
97.1012	8.8
105.0699	4.7
107.0855	8.0
109.1012	9.3
111.1167	3.7
119.0855	8.7
121.1010	10.5
123.0803	2.4
123.1167	5.1
133.1009	6.7
135.1166	7.6
145.1009	4.8
147.1165	4.2
149.1325	2.9
161.1324	2.4
163.1481	2.5
245.2258	4.6
250.2521	4.9
252.2678	4.4
262.2523	39.6
263.2363	6.2
263.2555	6.2
264.2680	14.5
265.2516	4.2
280.2628	33.0
281.2659	5.9
282.2784	25.8
298.2733	15.2
299.2769	2.5
300.2890	7.7
309.2566	6.4
337.2519	3.3
355.2623	10.4
356.2662	2.5
356.3510	5.0
358.2402	3.2
398.3618	3.0
618.5806	14.1
619.5843	4.4
620.5951	6.3
636.5908	62.8
637.5945	24.9
638.6061	29.3
654.6016	54.9
655.6054	17.2
656.6164	26.8

Name: 2-methoxycarbonyl-3,4-dihydro-2H-pyrrol-5-olate
PrecursorMZ: 144.06546
RT: 5.1088
ExactMass: 142.050418117
Spectrum_type: 2
charge: 1
Formula: C6H8NO3-
SMILES: COC(=O)C1CCC(=N1)[O-]
Method: HCD
Collision_energy: [28.333334]
Isolation_window: 4.0
Ion_mode: P
Num Peaks: 14
56.0499	1.5
69.2710	0.9
72.0811	2.1
84.0447	100.0
85.0480	5.0
97.3983	0.9
116.0706	4.6
121.9662	3.8
142.0973	0.8
143.0814	3.5
144.0654	12.6
145.0692	0.8
145.0759	1.1
146.0597	1.0

Name: 2-phenyl-1H-benzimidazole-5-sulfonate
PrecursorMZ: 275.0477
RT: 2.4822
ExactMass: 273.03338833
Spectrum_type: 2
charge: 1
Formula: C13H9N2O3S-
SMILES: C1=CC=C(C=C1)C2=NC3=C(N2)C=C(C=C3)S(=O)(=O)[O-]
Method: HCD
Collision_energy: [28.333334]
Isolation_window: 4.0
Ion_mode: P
Num Peaks: 53
69.3166	0.3
69.5641	0.3
69.5978	0.3
70.0653	0.9
81.0335	0.3
81.0699	0.3
86.0965	0.7
93.0698	0.5
105.0698	0.6
107.0853	0.5
114.0912	0.4
116.0706	0.4
119.0852	0.4
120.0805	0.5
121.1010	0.3
132.1015	0.4
133.1009	0.6
134.0807	1.5
135.1165	0.4
144.0803	0.8
145.0757	0.4
147.1165	0.5
148.0752	3.1
149.0783	0.4
150.0909	0.6
194.0830	2.1
195.0917	0.8
211.0859	0.7
226.0729	0.9
230.1168	0.3
234.1842	0.9
258.1689	0.6
273.1215	0.4
273.1590	0.4
274.1050	0.6
274.1171	0.5
274.1404	0.4
275.0164	0.7
275.0226	0.6
275.0474	100.0
275.0715	0.4
275.0787	0.7
275.1018	0.6
275.1376	1.0
275.1995	2.2
276.0508	13.9
276.0848	0.4
276.1204	0.8
276.1804	0.5
276.2040	0.5
277.0418	2.3
277.1171	0.5
277.2149	1.1

Name: 3,3-Dideuterio-3-(diaminomethylideneamino)propanoic acid
PrecursorMZ: 132.07659
RT: 9.3509
ExactMass: 133.08203003
Spectrum_type: 2
charge: 1
Formula: C4H9N3O2
SMILES: [2H]C([2H])(CC(=O)O)N=C(N)N
Method: HCD
Collision_energy: [28.333334]
Isolation_window: 4.0
Ion_mode: P
Num Peaks: 54
55.0546	10.2
56.0499	2.1
58.0654	2.0
59.0495	3.5
60.0559	13.4
68.0498	1.7
69.0337	5.3
69.0702	4.0
69.8975	1.8
70.0654	18.2
71.0494	3.7
72.0446	9.6
72.0558	41.1
73.0286	2.7
74.0238	6.9
83.0493	4.7
83.0605	2.7
84.0445	100.0
84.0558	2.8
84.0639	5.2
84.0809	22.4
85.0285	5.6
85.0415	1.4
85.0479	18.0
85.0843	2.8
86.0601	9.4
86.0965	43.1
87.0441	88.7
87.0999	2.5
88.0393	3.9
88.0475	4.4
88.0758	3.5
90.0550	36.2
101.0597	25.1
102.0550	2.9
112.0757	2.1
114.0549	2.9
114.0660	16.8
114.0912	31.0
115.0501	13.3
115.0944	2.9
116.0705	3.6
130.0496	16.2
130.0859	5.5
130.1587	4.5
131.0528	4.2
131.0893	1.5
132.0654	2.0
132.0764	52.6
132.1016	37.6
133.0797	2.5
133.1048	3.2
134.0631	3.5
134.0960	3.0

Name: 3,4,5-Piperidinetriol, 1-ethyl-2-(hydroxymethyl)-, (2R,3R,4R,5S)-
PrecursorMZ: 192.12284
RT: 3.1382
ExactMass: 191.11575802
Spectrum_type: 2
charge: 1
Formula: C8H17NO4
SMILES: CCN1C[C@@H]([C@H]([C@@H]([C@H]1CO)O)O)O
Method: HCD
Collision_energy: [28.333334]
Isolation_window: 4.0
Ion_mode: P
Num Peaks: 96
57.0343	0.7
58.0656	4.8
60.0814	0.7
70.0655	1.6
72.0811	1.8
73.0290	0.7
74.0603	0.9
80.0499	1.1
83.0497	0.7
84.0809	0.8
85.0286	2.6
86.0606	0.8
87.0443	6.9
88.0760	1.2
96.0446	18.9
97.0477	1.0
98.0602	1.8
100.0759	1.5
101.0598	3.3
102.0915	1.0
103.0391	14.4
104.0706	1.5
108.0444	5.0
108.0808	1.5
110.0603	1.7
112.0395	4.0
112.0757	1.3
116.0705	1.1
118.0864	1.0
122.0599	1.7
124.0397	0.9
124.0759	0.8
126.0549	3.9
126.0911	1.0
130.0862	1.0
136.0758	2.2
136.0871	1.4
138.0549	7.8
138.0914	0.7
140.1070	1.0
142.0862	2.5
144.1020	2.1
149.0267	2.0
152.0706	3.1
152.0821	2.0
153.0782	1.6
154.0860	1.8
156.1015	0.9
164.0704	2.2
166.0858	0.9
168.1018	2.3
174.1124	1.1
180.0650	2.2
182.0810	100.0
182.1153	1.0
183.0844	9.4
184.0846	0.8
186.1122	2.5
188.1284	1.1
190.1070	1.1
192.0651	0.7
192.1229	70.6
192.1356	1.8
193.1262	6.4
194.0267	1.4
194.0803	5.1
194.1154	1.8
196.0602	4.8
196.0938	0.8
197.0904	2.1
198.0758	70.0
198.1127	1.3
199.0790	7.0
199.1075	7.1
200.0913	94.6
200.1284	3.9
201.0949	9.5
201.1220	2.5
202.1068	1.4
202.1212	1.7
202.1798	2.7
203.1390	1.7
204.0655	1.1
204.1227	35.0
205.1263	3.5
206.1387	5.0
208.0993	6.6
209.0902	2.6
210.0765	8.1
210.1088	1.0
211.0805	0.9
211.1195	5.5
212.0912	31.2
212.1252	1.1
213.0931	3.5
213.1230	3.8

Name: 3,6,9,12,15,18,21-Heptaoxatriacontan-1-ol
PrecursorMZ: 491.29902
RT: 5.3778
ExactMass: 452.33491849
Spectrum_type: 2
charge: 1
Formula: C23H48O8
SMILES: CCCCCCCCCOCCOCCOCCOCCOCCOCCOCCO
Method: HCD
Collision_energy: [28.333334]
Isolation_window: 4.0
Ion_mode: P
Num Peaks: 10
54.5891	4.9
73.0287	6.1
89.0599	38.2
133.0858	21.2
176.8751	13.4
177.1121	7.9
472.7901	5.0
481.3008	4.5
491.2985	100.0
492.3019	23.1

Name: 3,7-dihydropurine-2,6-dione
PrecursorMZ: 153.04051
RT: 5.6733
ExactMass: 154.03381511
Spectrum_type: 2
charge: 1
Formula: C5H4N4O2
SMILES: C1=NC2=[13C]([15NH]1)C(=O)NC(=O)N2
Method: HCD
Collision_energy: [28.333334]
Isolation_window: 4.0
Ion_mode: P
Num Peaks: 37
69.9659	0.6
83.0605	0.8
95.0604	12.9
96.9950	0.6
109.0759	0.7
110.0348	25.4
110.0600	0.6
111.0382	1.1
112.0868	4.6
124.0755	1.7
128.0452	5.6
133.0757	0.9
134.0595	2.7
136.0138	2.2
136.0756	0.8
136.0866	3.0
137.0707	0.8
151.0612	0.8
151.0806	1.2
152.0568	1.4
152.0703	6.1
152.1067	3.9
153.0275	0.7
153.0404	100.0
153.0534	0.7
153.0654	2.1
153.0737	0.6
153.1019	1.0
154.0244	31.6
154.0375	1.9
154.0437	5.1
154.0496	2.3
154.0861	2.7
154.0971	6.2
155.0276	1.7
155.0562	1.1
155.0811	12.8

Name: 3-(((2R)-2,4-dihydroxy-3,3-dimethylbutanoyl)(15N)amino)(313C)propanoic acid
PrecursorMZ: 220.11777
RT: 5.5286
ExactMass: 221.11106237
Spectrum_type: 2
charge: 1
Formula: C9H17NO5
SMILES: CC(C)(CO)[C@H](C(=O)[15NH][13CH2]CC(=O)O)O
Method: HCD
Collision_energy: [28.333334]
Isolation_window: 4.0
Ion_mode: P
Num Peaks: 94
55.0546	0.4
56.0499	0.5
57.0703	1.3
59.0496	2.4
60.0448	7.6
67.0546	1.6
69.0702	3.5
69.2050	0.4
70.0291	1.0
72.0447	7.3
72.0811	21.1
73.0287	1.8
73.0844	0.9
74.0239	0.4
74.0603	10.3
75.0637	0.3
83.0494	0.7
85.0650	6.6
86.0966	50.4
87.0555	0.4
87.0807	2.0
87.1000	2.8
90.0269	0.3
90.0494	0.7
90.0551	100.0
90.0610	0.7
91.0521	0.3
91.0585	3.0
93.0700	0.6
95.0493	2.9
96.0809	0.3
98.0238	6.7
100.0394	1.9
103.0754	8.5
104.0789	0.3
105.0700	0.3
106.0499	0.5
112.0394	0.3
113.0597	1.8
116.0342	16.6
117.0375	0.6
118.0863	2.5
120.0655	2.0
121.0649	0.3
124.0756	8.9
125.0790	0.7
131.0602	1.2
131.0701	1.3
132.1018	7.5
133.1050	0.5
135.0804	0.3
140.0341	2.5
142.0861	5.3
143.0897	0.4
146.0599	1.6
155.0813	3.1
156.1018	1.2
159.1166	0.5
160.0967	2.5
161.0958	0.4
166.0860	2.4
172.0966	0.3
173.1282	5.6
174.1123	3.0
174.1316	0.5
175.0862	0.3
175.1156	0.3
184.0966	22.1
185.1000	1.9
201.0656	0.3
201.1229	1.4
202.0874	0.9
202.1071	33.0
203.0813	0.6
203.1105	3.1
219.0759	2.0
219.0843	3.1
219.1126	3.5
219.1337	3.8
220.0608	0.6
220.0967	8.6
220.0993	3.3
220.1084	0.7
220.1176	40.8
220.1327	0.7
220.1350	0.8
220.1403	0.3
221.0914	1.5
221.1016	0.9
221.1206	3.9
221.1298	0.6
221.1532	0.7
222.0761	0.5
222.1121	0.4

Name: 3-(((2R)-2,4-dihydroxy-3,3-dimethylbutanoyl)amino)-2,2-dimethylpropanoic acid
PrecursorMZ: 248.14874
RT: 5.046
ExactMass: 247.14197277
Spectrum_type: 2
charge: 1
Formula: C11H21NO5
SMILES: CC(C)(CNC(=O)[C@@H](C(C)(C)CO)O)C(=O)O
Method: HCD
Collision_energy: [28.333334]
Isolation_window: 4.0
Ion_mode: P
Num Peaks: 44
55.0546	1.0
56.0499	1.5
59.0495	1.4
69.0702	3.1
70.0654	2.2
71.0494	1.1
74.0604	1.6
82.0653	6.6
83.0493	1.3
85.0650	3.1
86.0602	4.9
95.0493	2.1
95.0604	2.4
100.0757	100.0
101.0597	12.6
101.0791	5.0
103.0754	2.5
104.0706	1.5
112.0757	8.6
113.0597	1.5
118.0862	22.4
119.0893	1.5
126.0547	1.1
130.0861	2.0
134.0810	4.2
144.0654	2.8
176.1178	4.6
184.1327	1.5
194.1172	1.4
202.1433	1.4
204.1127	1.7
212.1276	7.8
230.1382	14.3
231.1123	1.8
231.1414	1.5
247.1066	1.4
247.1435	1.9
248.0910	1.3
248.1274	1.1
248.1487	28.3
249.1226	3.0
249.1501	3.0
250.1070	1.0
250.1182	1.4

Name: 3-((2E)-5-((3-(2-carboxyethyl)-5-(((2R)-4-((1R)-1-hydroxyethyl)-3-methyl-5-oxo-1,2-dihydropyrrol-2-yl)methyl)-4-methyl-1H-pyrrol-2-yl)methyl)-2-(((3R,4R)-3-ethyl-4-methyl-5-oxopyrrolidin-2-yl)methylidene)-3-methyl-1,3-dihydropyrrol-4-yl)propanoic acid
PrecursorMZ: 611.34366
RT: 5.9641
ExactMass: 610.33664982
Spectrum_type: 2
charge: 1
Formula: C33H46N4O7
SMILES: CC[C@@H]1[C@H](C(=O)NC1/C=C/2\C(C(=C(N2)CC3=C(C(=C(N3)C[C@@H]4C(=C(C(=O)N4)[C@@H](C)O)C)C)CCC(=O)O)CCC(=O)O)C)C
Method: HCD
Collision_energy: [28.333334]
Isolation_window: 4.0
Ion_mode: P
Num Peaks: 98
52.0279	2.3
52.1394	0.5
55.0547	1.2
65.9263	1.4
66.0378	0.5
67.9275	1.4
83.0859	2.2
84.0812	1.4
97.3995	0.8
108.0810	13.3
109.0842	0.9
120.0808	0.9
122.0599	0.5
126.0914	7.1
127.0947	0.6
138.0913	1.6
140.1069	0.6
148.0758	2.1
150.0549	2.0
150.0914	39.3
151.0947	3.7
152.0706	0.8
164.0706	2.7
166.0863	6.5
167.0897	1.2
168.0871	0.6
168.1019	100.0
168.1169	0.7
169.1052	8.9
180.1019	3.5
182.0812	0.7
194.0812	2.3
231.1128	1.5
233.1647	4.1
244.1331	0.7
245.1286	1.6
259.1439	1.1
271.1440	0.9
272.1283	1.6
273.1596	1.0
275.1752	19.3
276.1788	3.1
283.1439	0.6
285.1594	2.1
287.1391	2.3
288.1452	0.7
289.1545	7.2
290.1386	1.4
290.1578	0.6
291.1703	4.7
292.1737	2.6
293.1858	64.0
294.1892	9.8
295.1916	0.8
301.1545	12.0
302.1581	2.1
303.1704	2.6
304.1737	0.7
305.1494	1.6
307.1651	9.4
309.1807	2.6
317.1494	1.6
318.1531	0.9
319.1652	3.2
320.1685	1.1
329.1494	3.9
330.1532	0.8
331.1651	1.3
332.1686	0.6
343.1651	11.5
344.1727	34.8
345.1764	7.0
346.1798	0.7
361.1758	2.0
408.2281	1.2
410.2072	0.8
411.2115	0.8
450.2386	1.3
467.2374	0.7
468.2492	39.4
469.2530	12.1
470.2564	1.7
484.2437	1.7
485.2471	1.9
486.2593	3.5
487.2649	0.9
531.3414	0.5
593.3333	25.4
594.3367	10.2
595.3394	1.3
609.3272	1.1
610.3258	2.6
610.3621	6.2
610.3678	1.3
611.3024	0.5
611.3436	25.5
612.3469	8.7
613.3501	1.4

Name: 3-((2S)-2-aminopropanoyl)oxy-4-(trimethylazaniumyl)butanoate
PrecursorMZ: 233.14929
RT: 9.7016
ExactMass: 232.14230712
Spectrum_type: 2
charge: 1
Formula: C10H20N2O4
SMILES: C[C@@H](C(=O)OC(CC(=O)[O-])C[N+](C)(C)C)N
Method: HCD
Collision_energy: [28.333334]
Isolation_window: 4.0
Ion_mode: P
Num Peaks: 8
114.0549	11.8
156.0653	12.2
174.0758	100.0
175.0793	6.8
233.1490	23.8
234.1330	4.4
234.1848	4.7
235.1075	4.6

Name: 3-((3-Hydroxypropyl)amino)propanoic acid
PrecursorMZ: 148.09675
RT: 8.5182
ExactMass: 147.08954328
Spectrum_type: 2
charge: 1
Formula: C6H13NO3
SMILES: C(CNCCC(=O)O)CO
Method: HCD
Collision_energy: [28.333334]
Isolation_window: 4.0
Ion_mode: P
Num Peaks: 12
70.0654	93.0
71.0687	4.3
88.0395	40.1
88.0759	100.0
89.0792	5.4
112.0757	27.0
113.0790	2.8
130.0861	16.4
148.0966	36.1
149.0231	2.8
149.0820	7.2
149.1001	3.3

Name: 3-((4-hydroxyphenyl)methyl)-6-(1H-imidazol-5-ylmethyl)piperazine-2,5-dione
PrecursorMZ: 301.12924
RT: 5.764266666666667
ExactMass: 300.12224039
Spectrum_type: 2
charge: 1
Formula: C15H16N4O3
SMILES: C1=CC(=CC=C1CC2C(=O)NC(C(=O)N2)CC3=CN=CN3)O
Method: HCD
Collision_energy: [28.333334]
Isolation_window: 4.0
Ion_mode: P
Num Peaks: 27
70.0655	5.0
82.0529	3.2
86.0966	3.0
100.0759	2.8
110.0713	43.6
114.0663	4.7
116.0707	5.2
136.0756	13.9
166.0610	11.7
178.8732	3.4
197.0917	3.4
214.1181	4.5
228.1128	15.6
273.1341	12.5
282.1334	2.7
282.1816	5.2
284.1022	7.0
285.1233	2.8
300.1216	4.7
300.1424	4.5
300.1928	12.6
301.1291	100.0
301.1554	3.3
302.1020	4.1
302.1333	17.0
302.1545	4.2
303.1337	2.7

Name: 3-(1-Methylpyrrolidin-2-yl)pyridine
PrecursorMZ: 163.12293
RT: 0.8966
ExactMass: 162.115698455
Spectrum_type: 2
charge: 1
Formula: C10H14N2
SMILES: CN1CCCC1C2=CN=CC=C2
Method: HCD
Collision_energy: [28.333334]
Isolation_window: 4.0
Ion_mode: P
Num Peaks: 34
58.0656	2.7
84.0812	1.6
86.0604	27.7
87.0444	3.6
89.0600	100.0
90.0633	4.6
105.0337	2.4
106.0653	1.6
107.0705	5.5
130.0653	1.4
130.0862	2.1
132.0809	5.3
133.0859	12.2
136.0758	1.7
151.0966	53.5
152.0997	3.3
154.0864	1.2
156.1017	1.6
163.1230	12.8
164.0704	1.6
164.1267	1.5
165.0217	2.1
166.0876	1.7
168.0688	11.1
171.1491	4.6
172.0969	2.0
173.0788	2.9
174.1125	9.8
174.1856	1.7
177.1133	2.3
178.1228	2.0
180.0815	2.3
180.1048	12.8
181.1089	1.3

Name: 3-(18-(2-Carboxyethyl)-3,8,13,17-tetramethyl-21,22-dihydroporphyrin-2-yl)propanoic acid
PrecursorMZ: 511.23395
RT: 4.6312
ExactMass: 510.22670545
Spectrum_type: 2
charge: 1
Formula: C30H30N4O4
SMILES: CC1=CC2=CC3=C(C(=C(N3)C=C4C(=C(C(=N4)C=C5C(=CC(=N5)C=C1N2)C)C)CCC(=O)O)CCC(=O)O)C
Method: HCD
Collision_energy: [28.333334]
Isolation_window: 4.0
Ion_mode: P
Num Peaks: 47
56.8041	5.3
56.9156	1.6
57.0703	0.5
60.0813	1.7
67.0547	0.4
69.0703	0.6
70.0656	0.8
72.0812	0.4
81.0339	0.8
81.0703	0.7
84.0812	0.8
85.0288	15.2
86.0320	0.6
86.0968	0.8
95.0858	0.4
97.3999	0.4
104.1074	0.6
116.0709	0.4
142.0265	3.8
144.1020	0.6
159.0767	0.5
176.1026	0.5
184.0737	0.4
190.0497	0.5
217.1184	0.6
379.1921	0.7
393.2069	0.8
437.1967	0.4
438.2047	1.2
451.2134	1.8
452.2204	8.7
453.2240	2.7
493.2231	1.3
509.3598	0.6
510.2190	0.8
510.3546	0.5
510.4521	5.4
511.1556	0.6
511.1722	0.8
511.2066	1.9
511.2341	100.0
511.3133	0.7
511.4544	2.0
512.2021	0.6
512.2374	33.1
512.4665	2.3
513.2400	4.2

Name: 3-(1H-imidazol-5-yl)-2-(((2S)-5-oxopyrrolidine-2-carbonyl)amino)propanoic acid
PrecursorMZ: 267.10831
RT: 6.6371
ExactMass: 266.10150494
Spectrum_type: 2
charge: 1
Formula: C11H14N4O4
SMILES: C1CC(=O)N[C@@H]1C(=O)NC(CC2=CN=CN2)C(=O)O
Method: HCD
Collision_energy: [28.333334]
Isolation_window: 4.0
Ion_mode: P
Num Peaks: 33
84.0445	20.7
96.0445	62.3
97.0648	8.2
101.0597	8.2
110.0713	100.0
126.0913	12.8
128.0704	9.5
150.0547	17.9
156.0766	62.5
166.0527	10.1
166.0861	8.9
176.0816	34.4
204.0764	8.5
221.1029	66.4
221.1279	43.1
249.0977	82.0
249.1228	8.6
250.1030	7.8
265.1165	11.8
266.1013	44.8
266.1368	25.5
266.1490	80.1
267.0969	20.2
267.1082	57.9
267.1329	88.1
267.1679	16.4
268.0987	9.3
268.1161	37.7
268.1293	13.6
268.1530	11.3
269.0584	41.7
269.1121	14.3
269.1483	13.2

Name: 3-(1H-indol-3-yl)-2-(((2S)-5-oxopyrrolidine-2-carbonyl)amino)propanoic acid
PrecursorMZ: 298.11853
RT: 6.3741
ExactMass: 315.12190603
Spectrum_type: 2
charge: 1
Formula: C16H17N3O4
SMILES: C1CC(=O)N[C@@H]1C(=O)NC(CC2=CNC3=CC=CC=C32)C(=O)O
Method: HCD
Collision_energy: [28.333334]
Isolation_window: 4.0
Ion_mode: P
Num Peaks: 34
56.0499	6.8
94.0290	19.1
102.0552	12.4
111.0555	6.4
114.0915	5.7
126.0550	6.5
127.0503	20.4
130.0652	51.7
144.0808	100.0
145.0842	8.8
146.0601	26.7
155.0452	21.5
156.0810	10.9
169.0611	16.2
169.0761	71.7
170.0792	9.2
176.8753	7.7
188.0706	65.2
189.0743	8.8
195.0918	6.3
209.1076	7.3
235.0865	6.6
255.1127	25.1
270.1236	53.9
271.1276	8.4
281.0919	74.0
282.0954	9.9
297.1224	6.6
298.1186	59.9
298.1834	16.2
299.1029	10.3
299.1219	11.7
300.0854	5.8
300.1208	11.8

Name: 3-(1H-indol-3-yl)-2-((2-methoxyphenyl)carbamoylamino)propanoic acid
PrecursorMZ: 354.14436
RT: 4.8071
ExactMass: 353.1375561
Spectrum_type: 2
charge: 1
Formula: C19H19N3O4
SMILES: COC1=CC=CC=C1NC(=O)NC(CC2=CNC3=CC=CC=C32)C(=O)O
Method: HCD
Collision_energy: [28.333334]
Isolation_window: 4.0
Ion_mode: P
Num Peaks: 62
70.0655	3.7
86.0966	3.9
97.4314	2.3
116.0707	4.2
120.0807	4.8
124.0756	2.8
130.0650	46.1
131.0682	4.1
134.0598	5.5
136.0756	5.8
138.0912	3.3
140.0703	4.4
150.0548	65.4
151.0582	4.0
152.0705	63.2
153.0736	3.7
154.0861	3.9
158.0835	3.3
159.0916	13.9
163.0864	27.4
164.0899	2.9
167.0701	5.3
170.1174	9.6
176.8751	5.2
181.0969	12.7
188.0704	4.8
195.0651	4.2
205.0972	2.3
207.0761	17.6
207.1127	3.0
212.0912	3.1
213.0755	3.2
222.1123	4.2
225.0866	44.4
226.0906	3.1
230.1020	7.6
237.0867	2.7
249.1018	14.5
263.1173	6.7
267.1123	13.7
275.1174	24.8
276.1212	5.5
279.1123	2.9
280.1195	5.4
281.1279	43.6
282.1316	8.3
292.1438	18.1
293.1280	22.9
293.1472	4.4
294.1320	4.2
310.1544	31.0
311.1578	6.0
353.1323	4.3
353.1700	2.5
353.2056	10.5
354.1442	100.0
354.1780	35.5
354.2028	4.9
355.1470	19.9
355.1641	7.9
355.1828	4.0
356.1561	2.9

Name: 3-(2,3-Dihydroxypropoxy)-2-hydroxypropyl acetate
PrecursorMZ: 247.05741
RT: 7.1459
ExactMass: 208.09468823
Spectrum_type: 2
charge: 1
Formula: C8H16O6
SMILES: CC(=O)OCC(COCC(CO)O)O
Method: HCD
Collision_energy: [28.333334]
Isolation_window: 4.0
Ion_mode: P
Num Peaks: 25
57.0338	1.2
74.0602	0.7
75.0443	3.6
86.0966	0.8
98.9776	0.6
98.9790	0.4
98.9842	100.0
98.9892	0.5
98.9911	0.6
100.9884	0.4
116.9947	2.0
130.0499	0.6
140.0105	0.5
147.0760	0.6
155.0102	1.8
155.0813	0.5
173.0206	40.1
174.0241	1.3
186.0870	0.8
200.1277	0.4
245.1124	1.0
246.1086	0.6
247.0571	5.1
247.1079	0.4
248.0771	1.5

Name: 3-(2-((3-(2-carboxyethyl)-5-((3-ethyl-4-methyl-5-oxopyrrolidin-2-yl)methyl)-4-methyl-1H-pyrrol-2-yl)methylidene)-5-(1-(4-ethyl-3-methyl-5-oxopyrrolidin-2-yl)ethyl)-4-methylpyrrol-3-yl)propanoic acid
PrecursorMZ: 609.36449
RT: 4.2499
ExactMass: 608.35738526
Spectrum_type: 2
charge: 1
Formula: C34H48N4O6
SMILES: CCC1C(C(=O)NC1CC2=C(C(=C(N2)C=C3C(=C(C(=N3)C(C)C4C(C(C(=O)N4)CC)C)C)CCC(=O)O)CCC(=O)O)C)C
Method: HCD
Collision_energy: [28.333334]
Isolation_window: 4.0
Ion_mode: P
Num Peaks: 40
53.8091	4.2
53.9206	1.1
55.0546	2.1
67.7054	0.9
67.7075	5.7
67.8190	2.0
83.0859	4.8
89.0599	0.8
108.0809	1.8
124.0755	0.7
126.0914	8.3
138.0914	0.9
152.0706	0.8
166.0863	8.8
167.0896	1.0
178.0863	1.9
180.1019	16.1
181.1053	1.3
192.1019	1.5
194.1176	5.5
285.1594	1.8
286.1641	0.8
299.1752	1.4
303.1703	1.9
317.1859	1.7
327.1704	0.7
341.1859	1.2
357.1805	1.6
358.1881	5.8
359.1962	100.0
360.1996	20.6
361.2021	2.1
484.2805	66.8
485.2838	20.6
486.2865	2.1
607.3479	1.1
608.3524	3.6
609.3645	94.7
610.3678	36.6
611.3710	6.0

Name: 3-(3-(Hydroxymethyl)pyrazin-2-yl)propane-1,2-diol
PrecursorMZ: 185.09197
RT: 5.6771
ExactMass: 184.08479225
Spectrum_type: 2
charge: 1
Formula: C8H12N2O3
SMILES: C1=CN=C(C(=N1)CC(CO)O)CO
Method: HCD
Collision_energy: [28.333334]
Isolation_window: 4.0
Ion_mode: P
Num Peaks: 23
95.0605	4.2
107.0605	3.2
121.0760	18.4
124.0756	7.4
125.0710	5.7
126.0913	9.2
137.0709	8.1
138.0912	8.3
140.0706	3.0
140.1066	3.2
144.9272	3.1
149.0709	24.1
166.0498	5.1
166.0862	14.2
167.0814	33.0
168.0850	3.1
184.0604	4.4
184.0966	45.3
185.0918	100.0
185.0990	3.7
186.0547	5.3
186.0954	8.6
186.1122	10.8

Name: 3-(4-hydroxyphenyl)-2-(((2S)-5-oxopyrrolidine-2-carbonyl)amino)propanoic acid
PrecursorMZ: 293.11279
RT: 4.9455
ExactMass: 292.10592162
Spectrum_type: 2
charge: 1
Formula: C14H16N2O5
SMILES: C1CC(=O)N[C@@H]1C(=O)NC(CC2=CC=C(C=C2)O)C(=O)O
Method: HCD
Collision_energy: [28.333334]
Isolation_window: 4.0
Ion_mode: P
Num Peaks: 88
55.0546	10.5
70.0655	5.4
72.0811	6.5
81.0337	4.7
81.0701	3.1
83.0858	29.9
84.0446	27.3
86.0600	2.8
86.0966	45.3
100.0759	3.0
107.0492	6.4
108.0808	5.3
113.0597	3.1
114.0550	3.8
116.0705	6.3
119.0491	3.7
120.0807	16.8
121.0646	3.0
123.0439	3.9
126.0912	62.7
127.0945	7.9
130.0496	3.5
130.0861	6.0
132.0653	3.5
134.0599	3.9
136.0755	100.0
137.0788	5.1
138.0913	4.7
139.0387	7.3
146.0963	3.3
147.0439	7.4
150.0547	3.3
150.0912	4.1
160.0754	3.3
164.0704	5.5
165.0544	27.4
166.0861	43.2
167.0893	7.4
168.1017	16.0
176.0703	3.2
178.0861	8.0
181.0494	6.5
182.0809	41.5
183.0844	4.4
186.0547	11.5
192.1016	9.4
202.0859	6.8
204.1014	3.4
206.0444	3.4
230.0804	3.0
230.1176	3.3
231.1116	3.2
245.1282	3.3
246.1117	6.7
247.1072	38.0
247.1432	3.4
248.0915	4.2
248.1117	4.9
248.1277	8.8
249.1228	8.1
249.1591	3.6
250.1068	8.8
257.1532	3.6
274.1064	8.9
275.1014	6.0
275.1390	3.9
275.1631	2.8
276.0855	7.7
276.1218	4.4
277.1177	3.5
291.1328	12.2
291.1698	19.2
292.0806	3.6
292.1165	25.4
292.1659	5.7
292.1726	5.4
293.1123	30.8
293.1488	27.6
293.1721	4.1
293.1849	3.9
294.0958	19.2
294.1143	4.9
294.1316	11.6
294.1517	4.5
295.0709	16.4
295.1066	3.5
295.1280	17.2
295.1646	17.5

Name: 3-(n-Morpholino)propanesulfonic acid-d15
PrecursorMZ: 210.07932
RT: 2.1288
ExactMass: 224.16633032
Spectrum_type: 2
charge: 1
Formula: C7H15NO4S
SMILES: [2H]C1(C(OC(C(N1C([2H])([2H])C([2H])([2H])C([2H])([2H])S(=O)(=O)O[2H])([2H])[2H])([2H])[2H])([2H])[2H])[2H]
Method: HCD
Collision_energy: [28.333334]
Isolation_window: 4.0
Ion_mode: P
Num Peaks: 6
88.0757	4.0
123.0109	4.4
210.0788	100.0
210.1116	2.9
211.0824	8.6
212.0740	3.6

Name: 3-)3,4-Bis(hydroxymethylidene)cyclohexa-1,5-dien-1-yl(-1-piperidin-1-ylprop-2-en-1-one
PrecursorMZ: 274.14386
RT: 1.0359
ExactMass: 273.13649347
Spectrum_type: 2
charge: 1
Formula: C16H19NO3
SMILES: C1CCN(CC1)C(=O)C=CC2=CC(=CO)C(=CO)C=C2
Method: HCD
Collision_energy: [28.333334]
Isolation_window: 4.0
Ion_mode: P
Num Peaks: 94
57.0704	1.1
59.0609	2.3
67.0547	1.1
69.0704	4.7
70.0656	2.5
72.0813	1.9
74.0606	1.1
81.0338	1.8
81.0704	2.1
83.0860	4.7
84.0812	6.6
86.0969	26.6
87.1001	1.3
89.0601	3.0
93.0703	1.5
95.0858	2.1
98.0603	1.4
100.0760	1.1
100.1124	46.3
101.0601	1.3
107.0858	1.2
112.0760	12.6
116.0709	3.0
120.0809	1.1
122.0607	1.3
123.0443	23.3
124.0475	2.0
124.1122	3.3
126.0552	1.3
126.0915	9.5
128.1076	1.7
133.0652	1.8
133.0859	1.5
133.1015	1.2
136.0759	6.4
137.0601	2.3
138.0915	11.3
146.0598	2.2
147.0445	1.9
148.0759	8.2
149.0234	2.4
149.0599	3.7
150.0551	1.6
150.0915	1.6
152.0711	2.4
152.1072	9.8
153.1152	2.4
154.1231	4.2
161.0597	3.8
163.0754	1.2
164.0709	23.1
165.0745	1.9
166.0864	7.5
171.0445	1.5
188.0708	5.7
189.0548	24.2
190.0586	3.0
217.0974	2.5
226.2159	1.8
229.0990	1.6
235.1078	20.6
236.1108	2.6
242.2481	2.2
271.1077	1.2
272.1281	1.5
273.1461	2.2
274.1088	2.0
274.1439	47.1
274.2742	3.9
275.0487	14.0
275.1028	1.7
275.1469	8.0
276.0527	2.5
276.1596	100.0
277.1629	18.4
277.2163	1.2
278.0954	1.5
278.1664	1.1
279.0925	1.8
281.1171	1.3
281.1507	1.1
282.1345	3.1
284.3312	2.8
285.1220	1.3
286.2009	1.1
286.3106	1.6
289.1133	3.3
289.1443	1.8
290.2686	8.1
291.1373	1.4
291.1703	3.9
291.2724	1.5
292.1201	1.3
294.2062	2.7

Name: 3-Amino-3,3-dideuteriopropane-1-sulfonic acid
PrecursorMZ: 140.03753
RT: 7.74525
ExactMass: 141.04286781
Spectrum_type: 2
charge: 1
Formula: C3H9NO3S
SMILES: [2H]C([2H])(CCS(=O)(=O)O)N
Method: HCD
Collision_energy: [28.333334]
Isolation_window: 4.0
Ion_mode: P
Num Peaks: 7
58.0655	21.5
59.0496	4.0
74.0968	2.6
122.0270	12.0
140.0375	100.0
140.0678	4.6
141.0408	3.2

Name: 3-Deuterio-3-(2,3,4,5,6-pentadeuteriophenyl)prop-2-enoic acid
PrecursorMZ: 131.04913
RT: 6.8132
ExactMass: 154.090089969
Spectrum_type: 2
charge: 1
Formula: C9H8O2
SMILES: [2H]C1=C(C(=C(C(=C1[2H])[2H])C(=CC(=O)O)[2H])[2H])[2H]
Method: HCD
Collision_energy: [28.333334]
Isolation_window: 4.0
Ion_mode: P
Num Peaks: 14
57.0703	7.1
70.0654	2.2
74.0967	9.4
84.0446	2.3
86.0965	2.7
88.1122	2.8
103.0542	100.0
104.0576	7.2
117.0573	3.8
130.0411	3.1
130.0650	11.5
130.1589	28.0
131.1621	3.1
132.0806	21.1

Name: 3-Hexoxypropylazanium
PrecursorMZ: 160.16958
RT: 6.688733333333333
ExactMass: 160.170139325
Spectrum_type: 2
charge: 1
Formula: C9H22NO+
SMILES: CCCCCCOCCC[NH3+]
Method: HCD
Collision_energy: [28.333334]
Isolation_window: 4.0
Ion_mode: P
Num Peaks: 9
58.0655	100.0
59.0495	5.6
76.0760	8.9
85.1014	4.4
100.0758	3.0
143.1430	5.0
160.0757	4.5
160.1694	37.8
162.0548	12.0

Name: 3-Hydroxy-2,4,5-trihydroxymethylpyridine
PrecursorMZ: 168.06548
RT: 6.1865
ExactMass: 185.06880783
Spectrum_type: 2
charge: 1
Formula: C8H11NO4
SMILES: C1=C(C(=C(C(=N1)CO)O)CO)CO
Method: HCD
Collision_energy: [28.333334]
Isolation_window: 4.0
Ion_mode: P
Num Peaks: 28
55.0183	4.4
108.0444	6.3
109.0649	5.2
109.0760	14.9
114.0661	41.5
120.0807	12.2
122.0599	8.4
123.0109	4.9
124.0754	6.2
125.0707	4.4
126.0660	13.5
138.0546	3.9
139.0862	5.7
140.0342	6.2
140.0704	15.7
140.0816	7.2
140.1069	6.1
150.0548	15.0
152.0704	10.7
166.0860	8.5
167.0708	4.3
167.0813	36.1
168.0655	100.0
168.0766	34.1
168.1014	7.7
169.0687	10.2
169.0967	8.8
170.0809	10.6

Name: 3-Hydroxy-2-)5-(2-methylpropanoyl)-3-oxo-2,5-diazaspiro)3.4(octan-2-yl(butanamide
PrecursorMZ: 298.17585
RT: 7.6585
ExactMass: 297.16885622
Spectrum_type: 2
charge: 1
Formula: C14H23N3O4
SMILES: CC(C)C(=O)N1CCCC12CN(C2=O)C(C(C)O)C(=O)N
Method: HCD
Collision_energy: [28.333334]
Isolation_window: 4.0
Ion_mode: P
Num Peaks: 56
58.0656	6.2
70.0656	8.2
84.0812	6.5
86.0605	58.0
86.0968	9.4
89.0601	4.3
98.0604	3.8
98.0966	5.6
100.0759	3.0
102.0917	3.4
106.0654	3.5
116.0709	9.6
130.0865	4.4
132.0445	15.8
147.0554	14.8
154.0865	3.0
213.1237	7.5
281.1494	4.2
283.1753	3.5
296.1485	6.2
297.1461	11.4
297.1823	3.0
298.1288	100.0
298.1761	24.1
299.1309	13.7
299.1615	30.1
299.1968	6.3
300.1250	7.9
300.1655	3.0
301.1151	3.5
301.1743	7.1
302.1022	4.4
302.1963	3.0
302.3059	3.0
303.1340	4.8
304.1187	8.0
304.1780	9.4
304.2993	4.4
306.1329	9.4
307.1311	4.0
307.1647	4.2
308.1531	10.6
309.1463	9.7
310.1316	6.3
310.1717	7.8
311.1584	12.8
312.1440	18.3
312.1914	5.9
312.3262	3.0
313.1431	3.7
313.1758	24.0
314.1584	67.5
314.3413	3.9
315.1336	5.7
315.1653	16.2
316.1138	6.2

Name: 3-Hydroxy-3-methylglutaric acid
PrecursorMZ: 163.0601
RT: 5.3438
ExactMass: 162.05282342
Spectrum_type: 2
charge: 1
Formula: C6H10O5
SMILES: CC(CC(=O)O)(CC(=O)O)O
Method: HCD
Collision_energy: [28.333334]
Isolation_window: 4.0
Ion_mode: P
Num Peaks: 25
55.0547	4.7
56.0580	4.8
60.0812	20.5
61.0288	4.8
61.0846	11.4
85.0287	8.5
100.0245	11.6
101.0598	18.4
102.0632	29.1
105.0335	7.6
118.0351	3.9
138.9927	6.7
161.1305	4.4
161.1365	100.0
162.0545	4.4
162.0911	3.9
162.1124	9.6
162.1273	3.7
162.1378	8.2
163.0867	3.9
163.1227	6.2
164.0706	5.8
164.1071	7.4
165.0215	4.7
165.1025	4.3

Name: 3-Pyrrolidineacetic acid, 2-carboxy-4-(1-methylethenyl)-
PrecursorMZ: 214.10737
RT: 3.845
ExactMass: 213.10010796
Spectrum_type: 2
charge: 1
Formula: C10H15NO4
SMILES: CC(=C)C1CNC(C1CC(=O)O)C(=O)O
Method: HCD
Collision_energy: [28.333334]
Isolation_window: 4.0
Ion_mode: P
Num Peaks: 78
58.0657	13.1
60.0814	11.3
69.0703	1.8
70.0656	18.4
72.0812	2.3
79.0547	5.1
81.0703	2.4
83.0608	1.6
83.0858	1.8
84.0812	2.2
86.0605	27.1
87.0445	7.2
91.0543	1.5
93.0703	15.3
95.0858	2.9
96.0448	3.1
96.9955	14.4
104.0710	10.6
109.1017	2.1
111.0557	7.7
116.0709	3.7
118.0320	1.8
118.0866	3.4
119.0493	2.7
121.0651	15.2
123.0681	1.6
123.0920	3.6
126.0552	6.6
132.0477	3.1
135.0111	3.4
136.0426	4.8
150.0584	2.6
152.1184	4.8
164.0715	1.6
165.0549	33.8
166.0584	4.2
168.0690	5.3
170.1291	11.4
177.0582	1.4
178.1226	2.3
180.1027	2.3
181.0965	1.7
182.1293	1.6
184.1449	1.8
196.0961	1.8
206.0848	1.9
210.0793	4.3
212.0921	9.2
212.1262	1.6
213.0959	2.4
213.1233	9.3
214.1073	100.0
215.1111	9.5
215.1382	1.7
216.1249	2.3
218.0820	2.5
218.1389	49.8
219.1423	5.9
219.1741	1.9
221.0924	4.4
222.1128	7.0
223.1097	2.4
224.0956	10.2
224.1282	93.9
225.1308	16.0
226.1091	10.1
226.1789	1.7
227.1128	2.0
227.1387	1.8
228.0898	26.8
228.1241	2.1
229.0916	2.5
229.1198	3.3
229.1297	2.7
229.1556	2.9
230.1385	2.6
234.0761	3.6
235.1065	1.7

Name: 3-amino-4-(((1S)-1-carboxy-2-phenylethyl)amino)-4-oxobutanoic acid
PrecursorMZ: 281.11292
RT: 6.6665
ExactMass: 280.10592162
Spectrum_type: 2
charge: 1
Formula: C13H16N2O5
SMILES: C1=CC=C(C=C1)C[C@@H](C(=O)O)NC(=O)C(CC(=O)O)N
Method: HCD
Collision_energy: [28.333334]
Isolation_window: 4.0
Ion_mode: P
Num Peaks: 97
67.0545	2.1
70.0654	7.4
81.0337	2.8
81.0700	2.2
84.0445	2.3
84.0811	3.2
86.0602	3.0
88.0395	11.4
91.0542	2.8
95.0855	2.2
99.0442	2.3
101.0234	18.4
116.0706	3.4
120.0807	100.0
121.0395	3.2
121.0840	7.0
123.0440	4.5
125.0595	2.8
126.0549	2.4
128.0704	2.6
130.0497	6.4
132.0654	6.5
134.0962	2.3
136.0755	6.4
139.0500	29.1
149.0232	3.7
150.0549	4.3
152.0704	2.4
153.0404	3.8
162.0216	4.1
162.0786	3.3
164.0706	3.5
165.0544	4.0
165.0783	2.9
166.0721	12.7
166.0861	22.6
175.0863	6.4
178.0720	6.6
182.0443	2.4
182.0809	4.3
190.0863	2.6
191.0445	2.3
191.0699	2.3
192.0653	2.5
194.0444	3.5
194.0810	3.1
200.0702	6.5
204.0653	5.8
206.0668	5.4
209.0916	2.4
210.0756	4.8
216.1226	3.7
218.0445	2.7
218.0809	4.0
218.1170	2.3
219.1010	3.2
219.1125	2.6
221.0915	4.8
234.0979	2.8
234.1328	2.4
235.1071	9.7
235.1445	2.7
235.1687	2.5
236.0550	4.4
236.0912	2.3
237.0866	10.2
237.1227	2.8
238.0704	3.9
244.1174	2.4
246.0756	10.9
262.0702	6.2
262.1067	6.1
262.1281	5.5
263.1019	6.2
263.1637	6.4
264.0858	14.0
264.1222	3.9
265.0810	6.6
279.0965	21.9
279.1330	9.3
280.0808	13.4
280.0971	2.3
280.1013	11.0
280.1169	17.6
280.1375	4.5
281.0590	2.9
281.0872	2.4
281.0910	7.4
281.1125	98.8
281.1485	27.7
282.0960	14.3
282.1108	3.4
282.1158	9.0
282.1327	12.1
283.0915	11.1
283.1280	14.7
283.1635	2.4

Name: 3-amino-6-(hydroxymethyl)(213C)oxane-2,4,5-triol
PrecursorMZ: 162.07588
RT: 10.7968
ExactMass: 180.08272735
Spectrum_type: 2
charge: 1
Formula: C6H13NO5
SMILES: C(C1C(C(C([13CH](O1)O)N)O)O)O
Method: HCD
Collision_energy: [28.333334]
Isolation_window: 4.0
Ion_mode: P
Num Peaks: 89
55.0182	1.1
55.0545	6.9
56.0498	1.4
56.0579	0.6
57.0338	1.0
58.0653	1.1
59.0494	2.1
60.0447	4.8
60.0811	32.3
61.0844	1.9
69.0337	8.6
70.0654	6.9
70.0735	1.0
72.0446	5.3
73.0286	1.8
74.0602	1.0
80.0497	1.0
81.0336	2.0
83.0493	5.0
84.0445	7.8
84.0808	0.9
85.0285	5.7
86.0602	2.3
86.0965	15.0
87.0635	2.3
87.0935	1.2
87.0999	23.0
87.1025	0.9
96.0444	10.8
96.0808	1.1
97.0284	33.2
98.0317	2.2
98.0600	4.1
99.0440	1.7
100.0243	1.1
100.0394	1.0
100.0757	0.9
101.0596	48.3
102.0549	1.6
102.0630	3.9
103.0389	1.6
103.1229	1.2
104.1264	1.1
105.0334	2.6
108.0443	1.0
109.0283	0.9
114.0548	1.4
114.0912	3.5
115.0388	9.8
116.0422	0.8
116.0704	1.2
116.1069	1.0
118.0861	4.5
126.0547	3.3
127.0387	10.5
136.0752	1.0
139.5964	4.8
140.0979	1.0
142.0860	1.2
142.1221	0.9
143.1256	18.0
144.0652	24.0
144.1015	1.3
145.0491	1.9
145.0685	1.9
160.0753	4.3
160.0965	3.6
160.1117	1.7
160.1328	100.0
160.1454	1.5
160.1518	15.3
160.9009	1.9
161.1068	0.9
161.1290	1.0
161.1361	14.4
161.1552	1.1
162.0543	1.8
162.0757	17.5
162.0908	2.2
162.1121	5.7
162.1377	0.9
162.5991	4.1
163.0793	1.1
163.0861	4.4
163.1225	8.8
164.0523	1.7
164.0704	0.9
164.0917	2.6
164.1066	6.1

Name: 3-ethynyl-10,13-dimethyl-17-(6-methylheptan-2-yl)-2,3,4,7,8,9,11,12,14,15,16,17-dodecahydro-1H-cyclopenta(a)phenanthrene
PrecursorMZ: 395.36698
RT: 0.8596
ExactMass: 394.359951467
Spectrum_type: 2
charge: 1
Formula: C29H46
SMILES: CC(C)CCCC(C)C1CCC2C1(CCC3C2CC=C4C3(CCC(C4)C#C)C)C
Method: HCD
Collision_energy: [28.333334]
Isolation_window: 4.0
Ion_mode: P
Num Peaks: 10
81.0702	24.4
83.0859	13.7
95.0858	13.0
133.1011	25.1
145.1011	31.3
147.1166	14.1
159.1171	23.0
394.2114	26.5
395.3671	100.0
396.3696	27.2

Name: 3-methyl-2-(((2R)-pyrrolidine-2-carbonyl)amino)butanoic acid
PrecursorMZ: 215.13875
RT: 7.5729
ExactMass: 214.13174244
Spectrum_type: 2
charge: 1
Formula: C10H18N2O3
SMILES: CC(C)C(C(=O)O)NC(=O)[C@H]1CCCN1
Method: HCD
Collision_energy: [28.333334]
Isolation_window: 4.0
Ion_mode: P
Num Peaks: 9
70.0654	100.0
72.0810	5.0
118.0862	18.6
168.0687	15.2
172.1330	5.7
215.1021	10.5
215.1385	43.3
216.1225	11.6
216.1418	5.6

Name: 3-methyl-2-(((2R)-pyrrolidine-2-carbonyl)amino)pentanoic acid
PrecursorMZ: 229.15449
RT: 4.6851
ExactMass: 228.1473925
Spectrum_type: 2
charge: 1
Formula: C11H20N2O3
SMILES: CCC(C)C(C(=O)O)NC(=O)[C@H]1CCCN1
Method: HCD
Collision_energy: [28.333334]
Isolation_window: 4.0
Ion_mode: P
Num Peaks: 19
58.0656	4.6
70.0654	4.2
72.0811	78.5
84.0810	100.0
85.0844	6.5
86.0966	66.2
94.9297	4.4
112.1122	4.5
132.1017	5.9
157.0885	8.0
182.1368	6.0
228.1786	13.6
228.2318	9.6
229.0965	3.8
229.1177	3.9
229.1542	56.1
230.1581	5.5
230.2475	10.9
231.1698	10.1

Name: 3-methyl-2-(((2S)-5-oxopyrrolidine-2-carbonyl)amino)butanoic acid
PrecursorMZ: 229.11822
RT: 8.2815
ExactMass: 228.111007
Spectrum_type: 2
charge: 1
Formula: C10H16N2O4
SMILES: CC(C)C(C(=O)O)NC(=O)[C@@H]1CCC(=O)N1
Method: HCD
Collision_energy: [28.333334]
Isolation_window: 4.0
Ion_mode: P
Num Peaks: 32
55.0546	0.6
82.0655	2.8
83.0495	0.4
83.0607	4.5
84.0447	0.7
100.0759	1.0
101.0599	2.9
102.0552	0.3
114.0916	0.3
118.0864	0.4
129.0659	2.6
130.0499	1.3
136.0759	0.3
154.0864	0.3
165.1023	7.0
166.1058	0.7
183.1128	19.2
184.1161	1.6
209.1650	0.3
211.1076	5.9
212.1113	0.4
227.1755	1.3
228.0870	0.4
228.1231	0.3
228.1788	0.3
229.0947	0.7
229.1182	100.0
229.1422	0.7
230.1139	1.4
230.1223	9.6
230.1376	0.6
231.1242	0.6

Name: 3-methyl-2-(((2S)-5-oxopyrrolidine-2-carbonyl)amino)pentanoic acid
PrecursorMZ: 243.13361
RT: 6.0936
ExactMass: 242.12665706
Spectrum_type: 2
charge: 1
Formula: C11H18N2O4
SMILES: CCC(C)C(C(=O)O)NC(=O)[C@@H]1CCC(=O)N1
Method: HCD
Collision_energy: [28.333334]
Isolation_window: 4.0
Ion_mode: P
Num Peaks: 35
70.0654	8.4
83.0606	94.5
84.0446	51.7
84.0810	12.7
86.0966	63.5
95.0492	8.9
114.0914	35.7
116.0706	7.1
129.0657	17.0
130.0498	9.5
132.1018	40.7
152.0704	18.3
166.0971	5.0
178.0863	5.3
196.0974	6.1
196.1078	8.1
196.1441	30.4
197.1282	49.9
198.1119	4.7
210.0866	4.8
212.1025	24.2
224.0916	15.5
225.1227	5.5
227.0846	29.7
241.1541	14.3
242.1015	25.7
242.1130	73.6
242.1398	5.0
242.1493	100.0
243.1168	9.3
243.1335	57.8
243.1522	11.9
244.1188	8.1
244.1370	6.4
245.0942	6.5

Name: 3-methyl-2-(3-methyl-2-((2,4,5-trihydroxy-6-(hydroxymethyl)tetrahydro-2H-pyran-3-yl)amino)butanamido)pentanoic acid
PrecursorMZ: 393.22279
RT: 4.8396
ExactMass: 392.21586598
Spectrum_type: 2
charge: 1
Formula: C17H32N2O8
SMILES: CCC(C)C(C(=O)O)NC(=O)C(C(C)C)NC1C(C(C(OC1O)CO)O)O
Method: HCD
Collision_energy: [28.333334]
Isolation_window: 4.0
Ion_mode: P
Num Peaks: 126
69.0335	1.8
69.0697	1.4
70.0650	6.9
71.0858	1.6
72.0807	18.8
72.0829	1.3
81.0333	3.9
81.0354	1.6
85.0284	1.8
86.0962	26.5
86.0985	8.7
87.0992	1.9
89.0597	4.7
96.0443	5.3
97.0286	1.9
99.0441	1.5
110.0712	2.3
113.1073	8.1
114.0911	1.3
116.0701	3.5
118.0857	1.7
120.0800	9.4
126.0549	1.8
127.0383	1.4
127.1227	9.2
128.1068	1.6
130.0637	1.5
132.1018	3.1
133.0856	2.9
135.0792	1.8
136.0747	4.7
137.1071	3.2
138.0910	2.0
149.0231	6.0
150.0910	22.6
151.0943	2.2
151.1228	3.0
152.1069	2.3
154.0860	1.3
155.1166	2.5
159.0887	1.2
164.1068	25.3
165.1099	2.3
166.0532	1.5
166.0849	1.4
168.1011	1.6
180.1016	3.9
182.1172	6.1
183.1126	2.1
183.1485	1.8
185.1646	3.3
186.1122	1.3
194.1172	4.5
196.0965	10.7
196.1329	7.1
198.0757	3.5
198.1122	5.9
200.1388	8.1
210.1121	8.4
212.1277	7.5
213.1592	3.4
216.1226	13.0
217.0968	1.9
227.1751	4.3
228.1338	5.7
229.1544	2.4
230.1382	17.5
231.1420	2.7
231.1698	14.0
232.1735	1.9
234.1233	5.9
241.1541	1.2
243.1699	3.6
244.1175	1.9
246.0984	1.4
249.1336	1.6
249.1595	1.9
255.0762	2.2
255.1698	7.6
258.1328	1.6
262.1175	3.3
263.1748	8.5
264.1781	1.3
272.1963	17.8
273.1997	2.1
277.1538	1.4
279.1330	2.7
289.1176	4.3
291.1702	1.5
296.1962	3.5
297.1803	5.5
307.1647	3.9
308.1676	2.4
309.1801	100.0
310.1835	16.4
311.1594	20.7
311.1985	1.7
321.1792	1.5
332.1234	1.6
339.1906	12.2
340.1943	3.0
341.1697	3.0
355.1858	5.2
356.1892	3.7
357.2012	41.9
358.2046	7.6
359.1805	13.3
373.1960	2.0
374.1988	1.7
374.2313	1.7
375.2118	25.1
376.1497	2.9
376.2152	5.3
377.1911	4.9
391.2062	1.6
392.1131	1.4
392.1315	2.3
392.1535	1.8
392.2165	4.1
392.2384	6.3
393.1458	1.4
393.2224	20.1
394.2097	1.6
394.2289	3.1
394.3098	11.0
395.2011	6.4

Name: 3-morpholin-4-yl-N-(2-morpholin-4-ylethyl)propan-1-amine
PrecursorMZ: 258.21712
RT: 9.8845
ExactMass: 257.21032711
Spectrum_type: 2
charge: 1
Formula: C13H27N3O2
SMILES: C1COCCN1CCCNCCN2CCOCC2
Method: HCD
Collision_energy: [28.333334]
Isolation_window: 4.0
Ion_mode: P
Num Peaks: 36
58.0654	7.2
60.0811	7.2
69.9680	7.5
70.0654	50.4
72.0811	8.2
84.0809	37.4
100.0757	43.1
112.0869	10.6
114.0662	11.2
114.0913	65.8
116.0705	19.9
128.1068	24.8
144.0765	82.2
154.0861	7.1
154.1224	6.9
174.9723	14.0
196.1439	9.3
257.1275	24.7
257.1486	30.0
257.1603	10.0
258.0818	47.9
258.1126	11.4
258.1332	40.8
258.1445	21.3
258.1474	9.6
258.1701	10.8
258.1801	7.8
258.1923	26.1
258.2169	100.0
259.1279	22.7
259.1397	47.7
259.1436	18.3
259.2205	9.6
260.1271	22.1
260.1386	15.7
260.1499	28.8

Name: 3-oxo-4H-quinoxaline-2-carboxylate
PrecursorMZ: 191.04497
RT: 3.1233
ExactMass: 189.03001703
Spectrum_type: 2
charge: 1
Formula: C9H5N2O3-
SMILES: C1=CC=C2C(=C1)NC(=O)C(=N2)C(=O)[O-]
Method: HCD
Collision_energy: [28.333334]
Isolation_window: 4.0
Ion_mode: P
Num Peaks: 17
69.1851	2.6
74.0603	1.7
97.4575	1.8
120.0808	1.7
145.0394	37.0
146.0428	3.3
147.0551	4.6
162.1275	1.6
163.0499	5.2
190.0858	1.8
190.1222	5.4
191.0447	100.0
191.0816	1.7
192.0481	9.2
192.0654	2.2
192.1019	1.9
192.1585	1.5

Name: 3-phenyl-2-(((2R)-pyrrolidine-2-carbonyl)amino)propanoic acid
PrecursorMZ: 263.13869
RT: 5.0673
ExactMass: 262.13174244
Spectrum_type: 2
charge: 1
Formula: C14H18N2O3
SMILES: C1C[C@@H](NC1)C(=O)NC(CC2=CC=CC=C2)C(=O)O
Method: HCD
Collision_energy: [28.333334]
Isolation_window: 4.0
Ion_mode: P
Num Peaks: 16
70.0655	100.0
71.0688	3.7
116.0706	3.9
120.0807	3.5
135.0915	4.0
244.1184	2.5
245.1284	3.4
262.1066	4.0
262.1184	2.6
263.1014	3.7
263.1385	53.2
264.0855	2.8
264.1222	4.1
264.1331	3.1
264.1425	5.0
265.1172	4.8

Name: 4,4'-Methylenebis(1-butyl-3-phenylurea)
PrecursorMZ: 414.28568
RT: 1.3463
ExactMass: 396.25252628
Spectrum_type: 2
charge: 1
Formula: C23H32N4O2
SMILES: CCCCNC(=O)NC1=CC=C(C=C1)CC2=CC=C(C=C2)NC(=O)NCCCC
Method: HCD
Collision_energy: [28.333334]
Isolation_window: 4.0
Ion_mode: P
Num Peaks: 8
74.0967	65.6
106.0652	88.2
119.0856	15.7
132.0443	16.3
298.1907	100.0
324.1700	36.1
397.2586	60.4
398.2619	22.6

Name: 4,5-dimethyl-1H-imidazol-3-ium
PrecursorMZ: 97.07608
RT: 1.6827
ExactMass: 97.076573296
Spectrum_type: 2
charge: 1
Formula: C5H9N2+
SMILES: CC1=C([NH+]=CN1)C
Method: HCD
Collision_energy: [28.333334]
Isolation_window: 4.0
Ion_mode: P
Num Peaks: 11
54.0341	19.2
56.0498	18.4
57.0450	21.9
70.0652	4.7
80.0495	5.3
81.0448	80.7
95.0603	19.1
96.0682	5.2
97.0759	59.5
98.0711	100.0
99.0552	16.2

Name: 4,6-diamino-1H-1,3,5-triazin-3-ium-2-one
PrecursorMZ: 128.05667
RT: 7.6681
ExactMass: 128.05723483
Spectrum_type: 2
charge: 1
Formula: C3H6N5O+
SMILES: C1(=NC(=[NH+]C(=O)N1)N)N
Method: HCD
Collision_energy: [28.333334]
Isolation_window: 4.0
Ion_mode: P
Num Peaks: 12
74.0967	6.6
81.0449	6.2
84.0446	6.7
85.0511	6.5
86.0351	49.9
126.0912	11.9
127.0724	6.8
128.0565	100.0
129.1385	30.0
130.0410	5.8
130.0649	7.5
130.1589	28.9

Name: 4,7,10,13-Tetraoxa-1-oxoniacyclopentadecane
PrecursorMZ: 221.13828
RT: 1.9685
ExactMass: 221.13889877
Spectrum_type: 2
charge: 1
Formula: C10H21O5+
SMILES: C1COCCOCCOCCOCC[OH+]1
Method: HCD
Collision_energy: [28.333334]
Isolation_window: 4.0
Ion_mode: P
Num Peaks: 3
89.0600	100.0
133.0860	36.3
139.0754	9.6

Name: 4-((2-(Carboxymethylamino)-2-oxoethyl)amino)-4-oxobutanoic acid
PrecursorMZ: 233.0766
RT: 7.2484
ExactMass: 232.06953611
Spectrum_type: 2
charge: 1
Formula: C8H12N2O6
SMILES: C(CC(=O)O)C(=O)NCC(=O)NCC(=O)O
Method: HCD
Collision_energy: [28.333334]
Isolation_window: 4.0
Ion_mode: P
Num Peaks: 23
72.0811	44.1
74.0603	79.2
76.0396	26.9
84.0446	26.1
87.0555	57.5
88.0395	100.0
101.0234	46.7
102.0550	22.6
112.0396	25.1
126.0549	26.4
130.0498	41.5
133.0606	46.6
158.0445	59.1
168.0655	25.1
186.0759	36.1
198.0394	48.0
214.0704	23.9
216.0499	32.9
232.0967	32.1
232.1175	29.5
234.0758	38.3
234.0973	28.6
234.1848	75.2

Name: 4-((N'-methylcarbamimidoyl)amino)butanoate
PrecursorMZ: 160.10803
RT: 8.7822
ExactMass: 158.092951634
Spectrum_type: 2
charge: 1
Formula: C6H12N3O2-
SMILES: CN=C(N)NCCCC(=O)[O-]
Method: HCD
Collision_energy: [28.333334]
Isolation_window: 4.0
Ion_mode: P
Num Peaks: 43
57.0449	5.5
59.0496	1.5
72.0811	1.9
74.0716	5.4
84.0446	3.3
86.0603	10.9
87.0443	18.3
96.0683	1.8
98.0602	0.8
100.0758	2.9
101.0598	19.4
102.0632	1.0
104.0707	22.0
105.0741	1.0
113.0709	1.1
114.0550	1.5
114.0914	2.5
116.0707	4.2
117.9595	0.7
118.0862	2.5
124.0756	0.8
125.0709	7.1
128.0817	0.8
130.0497	1.4
137.0708	1.0
142.0861	2.3
142.0974	1.4
143.0814	1.0
159.0764	2.2
159.0914	1.0
160.0745	1.7
160.0871	0.9
160.0904	1.2
160.0972	24.7
160.1020	1.1
160.1079	100.0
160.9013	1.9
161.0708	1.2
161.1003	1.6
161.1056	0.8
161.1113	7.0
162.0759	1.0
162.1123	2.3

Name: 4-(1-Hydroxy-4-(4-(hydroxydiphenylmethyl)piperidin-1-yl)butyl)benzoic acid
PrecursorMZ: 460.24785
RT: 5.6007
ExactMass: 459.24095853
Spectrum_type: 2
charge: 1
Formula: C29H33NO4
SMILES: C1CN(CCC1C(C2=CC=CC=C2)(C3=CC=CC=C3)O)CCCC(C4=CC=C(C=C4)C(=O)O)O
Method: HCD
Collision_energy: [28.333334]
Isolation_window: 4.0
Ion_mode: P
Num Peaks: 28
51.1384	7.2
51.2499	2.0
91.0537	6.0
96.0802	1.6
117.0691	1.4
129.0697	2.4
131.0855	28.8
131.0900	1.8
132.0887	1.9
149.0232	2.1
171.1165	1.9
175.0752	4.7
191.0701	8.4
204.1016	2.9
218.1174	2.5
230.1173	2.8
250.1585	3.6
252.1739	1.5
256.1328	2.0
262.1586	9.6
263.1616	1.3
424.2265	43.5
425.2299	13.9
442.2371	49.2
443.2406	14.2
460.2478	100.0
461.2517	27.2
462.2437	3.4

Name: 4-(2-(1H-indol-3-yl)ethylamino)-4-oxobutanoate
PrecursorMZ: 261.1226
RT: 1.4698
ExactMass: 259.10826734
Spectrum_type: 2
charge: 1
Formula: C14H15N2O3-
SMILES: C1=CC=C2C(=C1)C(=CN2)CCNC(=O)CCC(=O)[O-]
Method: HCD
Collision_energy: [28.333334]
Isolation_window: 4.0
Ion_mode: P
Num Peaks: 5
144.0803	100.0
145.0836	10.2
243.1119	8.4
260.0903	3.4
261.1299	8.2

Name: 4-(2-Carboxyethylamino)butanoate
PrecursorMZ: 176.09177
RT: 8.275
ExactMass: 174.07663286
Spectrum_type: 2
charge: 1
Formula: C7H12NO4-
SMILES: C(CC(=O)[O-])CNCCC(=O)O
Method: HCD
Collision_energy: [28.333334]
Isolation_window: 4.0
Ion_mode: P
Num Peaks: 50
57.0452	2.1
69.0339	0.6
70.0656	2.0
71.0608	5.4
72.0448	2.1
72.0812	0.6
76.0397	0.7
86.0604	2.8
87.0444	73.7
88.0396	0.6
88.0477	2.6
88.0873	1.0
90.0553	21.0
97.3999	0.7
98.0537	0.6
98.0603	73.0
99.0636	3.7
101.0599	1.5
104.0709	4.5
112.0760	2.3
116.0623	0.7
116.0708	99.3
116.0794	0.7
117.0741	4.7
125.0711	0.7
126.0913	0.6
128.1071	1.0
130.0864	6.5
130.1229	0.5
138.0913	1.6
140.0707	31.8
140.1072	0.8
141.0740	2.2
143.0816	1.2
156.1018	0.8
158.0813	2.6
174.1129	1.6
174.1239	42.2
175.0713	1.7
175.1212	0.5
175.1274	5.9
176.0763	0.5
176.0918	100.0
176.1053	0.6
176.1075	1.0
176.1282	3.6
176.8755	0.8
177.0951	7.5
178.0862	0.7
178.0964	0.5

Name: 4-(3-Hydroxy-7-hydroxyimino-10,13-dimethyl-1,2,3,4,5,6,8,9,11,12,14,15,16,17-tetradecahydrocyclopenta)a(phenanthren-17-yl)pentanoic acid
PrecursorMZ: 406.29514
RT: 0.5917
ExactMass: 405.28790873
Spectrum_type: 2
charge: 1
Formula: C24H39NO4
SMILES: CC(CCC(=O)O)C1CCC2C1(CCC3C2C(=NO)CC4C3(CCC(C4)O)C)C
Method: HCD
Collision_energy: [28.333334]
Isolation_window: 4.0
Ion_mode: P
Num Peaks: 140
57.0705	1.2
59.0609	1.2
67.0548	1.6
69.0704	1.4
70.0656	3.5
71.0860	2.1
81.0340	5.4
81.0452	2.1
81.0703	3.6
83.0860	1.9
85.0651	1.2
86.0969	2.2
89.0602	2.0
93.0704	2.2
95.0607	2.3
95.0859	3.6
97.1016	1.0
98.0969	1.2
99.0445	1.4
99.0806	1.1
101.0601	1.0
105.0701	2.2
107.0858	4.0
109.1015	3.4
111.0807	1.1
119.0858	2.9
120.0811	1.2
121.0400	4.8
121.1014	3.6
123.0555	33.7
123.0799	1.4
123.1171	2.5
124.0592	2.2
125.0964	1.4
131.0856	1.3
133.0864	1.2
133.1014	3.0
135.1172	3.2
136.0621	2.6
137.0510	1.7
137.0599	100.0
137.0959	1.0
138.0633	8.1
139.0504	64.2
140.0541	4.5
141.0661	29.5
141.1274	2.8
142.0699	1.5
145.1014	6.7
147.1171	11.0
148.1209	1.4
149.1328	2.0
150.0915	7.6
151.0757	2.1
157.1011	1.2
159.1170	3.1
161.1327	3.7
163.0757	1.0
165.1278	2.0
171.1172	1.5
173.1324	1.4
175.1485	1.7
179.0702	1.1
185.1324	1.7
187.1486	1.6
189.1636	1.1
195.1377	1.2
197.1323	1.4
199.1487	2.8
201.1641	1.6
209.1330	1.1
211.1484	2.7
213.1642	4.8
215.1798	1.6
221.1677	1.3
223.1477	1.4
225.1643	1.4
227.1436	1.4
227.1790	1.8
229.1584	2.8
231.1749	1.2
234.1270	1.5
241.1584	1.5
241.1956	1.3
243.1738	1.8
245.1542	1.0
247.1690	1.6
255.1738	1.0
259.1703	1.1
261.1843	1.1
263.1766	2.4
264.2065	2.2
285.2210	1.6
291.1714	1.3
292.2019	6.8
293.2056	1.1
307.2423	2.8
309.2575	5.5
310.2614	1.2
319.2424	4.6
320.2471	1.1
325.2527	22.0
326.2559	5.7
335.2375	3.0
337.2530	20.3
338.2561	4.7
353.2480	6.1
354.2512	1.6
355.2635	44.3
356.2669	12.0
357.2770	5.4
358.2822	1.1
371.2589	28.5
372.2621	7.7
373.2740	27.0
374.2777	6.2
389.2693	17.8
390.2727	4.9
391.2842	5.2
392.2893	1.4
397.3116	1.0
399.2273	3.7
400.2342	1.3
406.2272	1.6
406.3003	1.6
408.2560	1.2
408.3114	17.5
409.2801	4.9
409.3166	3.1
410.2799	1.3
411.2489	3.9
412.2396	1.8
413.2662	22.1
414.2694	4.9
414.3361	1.7
415.2234	63.5
416.2269	14.9
417.2388	69.1
418.2417	17.3
419.2460	3.1

Name: 4-(4-(Hydroxy-diphenyl-methyl)-piperidin-1-yl)-1-(4-(1-hydroxy-1-methyl-ethyl)-phenyl)-butan-1-ol
PrecursorMZ: 474.29981
RT: 4.6039
ExactMass: 473.29299411
Spectrum_type: 2
charge: 1
Formula: C31H39NO3
SMILES: CC(C)(C1=CC=C(C=C1)C(CCCN2CCC(CC2)C(C3=CC=CC=C3)(C4=CC=CC=C4)O)O)O
Method: HCD
Collision_energy: [28.333334]
Isolation_window: 4.0
Ion_mode: P
Num Peaks: 50
50.6992	2.2
52.6989	1.9
52.7003	5.0
52.8118	1.5
59.0496	46.8
60.0530	1.3
70.0655	1.0
80.9483	1.0
82.0654	1.1
86.0967	1.7
89.0600	3.3
91.0544	3.0
98.0602	1.3
105.0701	0.8
116.0708	0.8
117.0698	1.0
129.0698	1.2
131.0855	12.0
132.0887	1.2
133.0859	2.2
143.0856	1.4
145.1013	1.6
171.1168	6.6
172.1202	1.0
189.1273	3.9
200.0917	1.5
205.1221	4.9
218.1024	2.4
232.1693	1.3
250.1587	1.5
262.1588	10.6
263.1622	1.7
270.1845	1.3
280.1692	1.8
288.1745	1.5
420.2686	7.6
421.2712	1.9
438.2788	92.2
439.2823	28.3
440.2853	3.4
456.2894	45.6
457.2929	15.4
458.2955	1.4
459.2801	1.4
473.3626	1.4
474.3000	100.0
474.3384	2.2
475.2998	26.9
475.3294	4.4
476.3021	3.8

Name: 4-(4-Hydroxybutanamido)butanoic acid
PrecursorMZ: 190.10727
RT: 5.4407
ExactMass: 189.10010796
Spectrum_type: 2
charge: 1
Formula: C8H15NO4
SMILES: C(CC(=O)O)CNC(=O)CCCO
Method: HCD
Collision_energy: [28.333334]
Isolation_window: 4.0
Ion_mode: P
Num Peaks: 17
69.0339	31.2
86.0603	69.2
87.0443	20.8
90.0552	9.6
104.0707	33.0
112.0760	9.6
116.0706	12.1
130.0498	15.3
144.1019	19.2
154.0862	52.5
172.0967	100.0
173.1005	9.0
189.0659	10.8
190.0497	14.5
190.1071	18.1
191.0702	8.9
191.0814	19.4

Name: 4-(6-Carboxyhexa-2,4-dien-2-yl)-3-(carboxymethyl)pyrrolidine-2-carboxylic acid
PrecursorMZ: 298.12811
RT: 6.9593
ExactMass: 297.12123733
Spectrum_type: 2
charge: 1
Formula: C14H19NO6
SMILES: CC(=CC=CCC(=O)O)C1CNC(C1CC(=O)O)C(=O)O
Method: HCD
Collision_energy: [28.333334]
Isolation_window: 4.0
Ion_mode: P
Num Peaks: 67
70.0654	9.0
81.0337	4.2
84.0446	12.3
84.0810	22.2
85.0286	5.2
86.0602	10.3
86.0966	7.7
87.0442	6.9
102.0547	3.9
104.0707	94.5
105.0738	3.8
108.0444	10.6
110.0712	5.4
116.0706	11.4
126.0549	10.0
128.0703	4.4
130.0498	9.0
130.0860	5.5
136.0616	8.5
141.0656	4.4
149.0594	5.6
153.0545	7.8
156.1017	6.8
165.0544	60.0
166.0575	4.1
167.0813	5.9
169.0968	4.6
170.0806	4.0
183.1125	5.5
195.0649	76.8
196.0681	7.4
208.0059	25.9
211.1075	7.4
234.1123	5.5
235.1435	5.2
239.1028	4.2
251.1388	4.2
252.1218	5.1
253.0632	4.3
253.1168	5.6
253.1540	11.9
263.1018	7.7
279.1325	4.6
280.1162	12.0
281.1118	12.9
296.1113	4.9
296.1240	7.5
296.1465	7.1
297.0534	13.5
297.0887	4.9
297.1069	17.4
297.1431	58.5
297.1790	5.1
298.0885	5.5
298.1080	4.1
298.1125	7.2
298.1276	100.0
298.1393	29.6
298.1618	5.9
299.1028	11.0
299.1224	39.4
299.1329	13.2
299.1588	34.0
300.1058	10.8
300.1201	9.8
300.1432	8.3
300.1566	11.5

Name: 4-(Aminomethyl)-5-(hydroxymethyl)-2-(trideuteriomethyl)pyridin-3-ol
PrecursorMZ: 169.09706
RT: 6.2222
ExactMass: 171.108707868
Spectrum_type: 2
charge: 1
Formula: C8H12N2O2
SMILES: [2H]C([2H])([2H])C1=NC=C(C(=C1O)CN)CO
Method: HCD
Collision_energy: [28.333334]
Isolation_window: 4.0
Ion_mode: P
Num Peaks: 23
97.0762	4.6
122.0599	1.8
123.0111	10.4
124.0756	2.6
140.0707	2.1
140.0817	7.2
150.0548	3.2
151.0866	2.9
152.0705	10.4
153.0659	2.8
168.0692	82.1
168.0763	8.9
168.0843	2.8
168.1018	1.8
169.0605	2.0
169.0728	4.0
169.0970	100.0
170.0647	4.2
170.0812	5.8
170.0926	2.3
170.1004	8.1
170.1170	2.1
171.0763	6.2

Name: 4-(Carbamoylamino)butanoate
PrecursorMZ: 147.0764
RT: 6.801825
ExactMass: 145.06131715
Spectrum_type: 2
charge: 1
Formula: C5H9N2O3-
SMILES: C(CC(=O)[O-])CNC(=O)N
Method: HCD
Collision_energy: [28.333334]
Isolation_window: 4.0
Ion_mode: P
Num Peaks: 11
84.0810	5.1
86.0603	100.0
87.0442	5.0
87.0636	6.6
100.1122	24.0
123.9643	9.5
146.0811	9.0
146.1175	3.4
147.0553	2.9
148.0394	2.7
148.0756	5.1

Name: 4-(Dimethylamino)butyric acid
PrecursorMZ: 132.10192
RT: 4.0146
ExactMass: 131.094628657
Spectrum_type: 2
charge: 1
Formula: C6H13NO2
SMILES: CN(C)CCCC(=O)O
Method: HCD
Collision_energy: [28.333334]
Isolation_window: 4.0
Ion_mode: P
Num Peaks: 66
55.0546	0.3
58.0654	1.2
59.0496	0.4
59.0733	0.4
60.0813	30.7
60.0876	0.2
61.0847	0.8
70.0656	0.6
73.0289	0.3
83.0496	1.3
84.0448	0.7
84.0812	3.6
85.0847	0.2
87.0334	0.3
87.0361	0.2
87.0444	48.1
87.0530	0.2
87.0555	0.4
88.0477	2.0
88.0760	0.6
89.0485	0.2
90.0553	0.3
95.0607	0.3
98.0604	0.6
100.0760	1.1
101.0600	11.1
102.0554	0.4
102.0633	0.6
102.0918	0.2
103.0392	0.4
107.0733	0.2
116.0708	0.2
121.0398	0.6
126.0552	0.2
128.1071	5.8
129.1106	0.4
130.0499	0.4
130.0869	0.3
132.0777	0.2
132.1020	11.0
133.1056	0.7
134.0799	0.2
136.0757	0.2
136.1121	0.3
137.0456	0.3
139.0504	0.9
140.1440	0.2
141.0659	2.1
143.0818	0.2
144.0663	0.4
144.1022	1.1
146.0638	0.2
146.0821	0.4
146.0933	0.6
146.1177	100.0
146.1363	0.6
146.1417	0.7
146.1534	1.0
146.1780	0.3
147.1211	7.1
148.0968	1.6
148.1224	0.7
150.0912	0.2
152.0707	9.1
153.0745	0.8
154.0500	0.7

Name: 4-(Ethenyl(methyl)amino)butanoic acid
PrecursorMZ: 144.10177
RT: 9.2596
ExactMass: 143.094628657
Spectrum_type: 2
charge: 1
Formula: C7H13NO2
SMILES: CN(CCCC(=O)O)C=C
Method: HCD
Collision_energy: [28.333334]
Isolation_window: 4.0
Ion_mode: P
Num Peaks: 46
58.0654	0.9
59.0495	0.1
59.0607	0.1
59.0732	0.4
60.0559	0.1
60.0659	0.2
60.0784	0.3
60.0811	49.5
60.0843	0.4
60.0968	0.1
69.0337	0.1
83.0493	0.2
84.0809	0.6
85.0285	0.3
86.0601	0.2
87.0180	0.4
87.0323	0.1
87.0369	0.3
87.0394	0.8
87.0441	100.0
87.0497	0.8
87.0528	0.1
87.0688	0.2
87.0713	0.2
98.0965	0.2
101.0597	1.4
104.0702	0.1
126.0911	0.5
128.1067	0.5
129.0780	0.1
144.1016	2.6
145.0756	0.1
145.0969	0.2
145.1049	0.2
146.0599	0.3
146.0920	0.5
146.1050	0.4
146.1077	0.4
146.1171	80.0
146.1266	0.4
146.1293	0.5
146.1327	0.2
146.1361	0.1
146.1710	0.1
146.1754	0.1
146.1776	0.1

Name: 4-(Hydroxy(methoxy)methyl)-5-(hydroxymethyl)-2-methylpyridin-3-ol
PrecursorMZ: 200.0917
RT: 6.3261
ExactMass: 199.0844579
Spectrum_type: 2
charge: 1
Formula: C9H13NO4
SMILES: CC1=NC=C(C(=C1O)C(O)OC)CO
Method: HCD
Collision_energy: [28.333334]
Isolation_window: 4.0
Ion_mode: P
Num Peaks: 31
58.0655	4.0
110.0601	25.3
111.0635	4.1
122.0600	18.3
124.0505	4.1
124.0757	4.9
134.0599	6.9
136.0755	8.1
138.0549	4.4
140.0163	8.3
140.0453	18.5
140.0706	8.7
142.0610	31.0
151.0627	9.4
152.0706	9.3
154.0609	6.1
155.0925	20.5
157.0719	43.0
164.0704	17.4
170.0808	4.2
180.0651	5.1
181.0608	14.7
181.0718	100.0
182.0446	27.8
182.0812	89.9
183.0866	17.1
198.0759	4.4
199.1076	6.0
200.0553	9.6
200.0916	54.7
202.1072	4.7

Name: 4-(Methyl-D3)-1H-pyrazole
PrecursorMZ: 83.06072
RT: 2.6319
ExactMass: 85.071928438
Spectrum_type: 2
charge: 1
Formula: C4H6N2
SMILES: [2H]C([2H])([2H])C1=CNN=C1
Method: HCD
Collision_energy: [28.333334]
Isolation_window: 4.0
Ion_mode: P
Num Peaks: 12
54.0343	2.5
56.0500	1.5
81.0450	1.0
81.0532	1.0
83.0556	0.7
83.0607	100.0
83.0659	0.5
84.0447	1.3
84.0577	0.7
84.0641	4.7
84.0811	0.9
84.9116	9.6

Name: 4-(Methylideneamino)phenol
PrecursorMZ: 122.06012
RT: 4.4553
ExactMass: 121.052763847
Spectrum_type: 2
charge: 1
Formula: C7H7NO
SMILES: C=NC1=CC=C(C=C1)O
Method: HCD
Collision_energy: [28.333334]
Isolation_window: 4.0
Ion_mode: P
Num Peaks: 9
94.0414	13.1
95.0492	8.9
107.0729	40.9
122.0599	100.0
122.0963	91.7
123.0632	7.8
123.0803	41.4
123.0996	9.6
124.0391	5.2

Name: 4-Acetamidobutanoate
PrecursorMZ: 146.08114
RT: 5.211
ExactMass: 144.066068181
Spectrum_type: 2
charge: 1
Formula: C6H10NO3-
SMILES: CC(=O)NCCCC(=O)[O-]
Method: HCD
Collision_energy: [28.333334]
Isolation_window: 4.0
Ion_mode: P
Num Peaks: 14
55.0546	18.5
65.0059	7.4
84.0446	6.8
86.0602	92.2
87.0636	5.6
106.0652	37.9
119.0524	85.6
128.0703	4.3
130.0496	4.9
145.1010	5.6
146.0598	7.4
147.0477	11.9
147.0681	6.8
148.0755	100.0

Name: 4-Amino-2-methyl-5-pyrimidinemethanol
PrecursorMZ: 140.08189
RT: 5.2664
ExactMass: 139.074561919
Spectrum_type: 2
charge: 1
Formula: C6H9N3O
SMILES: CC1=NC=C(C(=N1)N)CO
Method: HCD
Collision_energy: [28.333334]
Isolation_window: 4.0
Ion_mode: P
Num Peaks: 27
58.0656	7.3
70.0656	1.8
72.0812	28.0
81.0340	3.2
81.0451	83.4
82.0485	3.7
95.0607	1.8
109.0287	2.6
114.1028	8.9
122.0606	1.6
122.0714	42.7
123.0747	2.8
124.0758	1.6
124.0871	2.0
138.0915	2.1
139.0867	2.9
139.1231	4.7
140.0707	4.6
140.0819	100.0
140.1068	1.6
141.0546	1.6
141.0656	2.0
141.0851	6.8
141.1022	3.5
142.0863	2.5
142.0976	34.8
142.1227	1.7

Name: 4-Amino-4-oxobut-2-enoate
PrecursorMZ: 98.02386
RT: 5.5032
ExactMass: 114.01911799
Spectrum_type: 2
charge: 1
Formula: C4H4NO3-
SMILES: C(=CC(=O)[O-])C(=O)N
Method: HCD
Collision_energy: [28.333334]
Isolation_window: 4.0
Ion_mode: P
Num Peaks: 11
53.0026	6.5
70.0291	87.0
71.0131	8.5
96.9279	7.5
97.0398	7.5
97.0762	6.9
98.0238	100.0
98.0714	6.5
99.0078	7.4
99.0554	16.3
99.0917	14.6

Name: 4-Carbamimidamidobutanoate
PrecursorMZ: 146.09222
RT: 14.8104
ExactMass: 144.07730157
Spectrum_type: 2
charge: 1
Formula: C5H10N3O2-
SMILES: C(CC(=O)[O-])CN=C(N)N
Method: HCD
Collision_energy: [28.333334]
Isolation_window: 4.0
Ion_mode: P
Num Peaks: 13
60.0560	27.4
60.0811	38.6
84.0808	6.8
86.0602	9.1
87.0442	100.0
101.0597	9.2
128.0816	15.5
145.0968	8.2
146.0920	36.1
146.1173	62.8
147.0914	8.4
147.1205	6.1
148.0966	10.5

Name: 4-Ethenyl-2,5-bis(hydroxymethyl)pyridin-3-ol
PrecursorMZ: 182.08123
RT: 2.9126
ExactMass: 181.07389321
Spectrum_type: 2
charge: 1
Formula: C9H11NO3
SMILES: C=CC1=C(C(=NC=C1CO)CO)O
Method: HCD
Collision_energy: [28.333334]
Isolation_window: 4.0
Ion_mode: P
Num Peaks: 53
70.0655	0.7
81.0338	1.0
81.0701	0.5
91.0545	3.3
94.0653	1.5
106.0653	0.8
108.0446	0.5
111.0553	0.5
112.0507	0.6
122.0601	2.4
123.0553	0.9
124.0757	2.0
134.0600	1.7
135.0916	0.5
136.0757	1.3
138.0550	0.6
138.0915	0.6
140.0820	0.9
149.1073	0.6
150.0550	100.0
150.0675	0.6
151.0516	0.5
151.0582	8.0
151.0866	0.6
152.0706	13.0
154.0861	1.0
163.0866	1.0
164.0707	1.3
164.0819	0.5
164.1069	0.9
165.0661	0.6
165.1024	0.8
166.0499	2.1
166.0863	0.9
168.0656	1.3
168.0768	1.0
180.1020	1.1
181.0718	1.4
181.0971	9.2
181.1334	1.3
182.0812	3.3
182.0923	0.6
182.1007	0.8
182.1176	3.3
182.1285	0.6
183.0765	0.9
183.0917	25.9
183.1126	2.8
183.1491	0.5
184.0428	3.0
184.0604	0.8
184.0961	5.1
184.1077	0.9

Name: 4-Hydroxy-1-(2-(phenylmethoxycarbonylamino)propanoyl)pyrrolidine-2-carboxylate
PrecursorMZ: 337.1391
RT: 7.3039
ExactMass: 335.12431133
Spectrum_type: 2
charge: 1
Formula: C16H19N2O6-
SMILES: CC(C(=O)N1CC(CC1C(=O)[O-])O)NC(=O)OCC2=CC=CC=C2
Method: HCD
Collision_energy: [28.333334]
Isolation_window: 4.0
Ion_mode: P
Num Peaks: 40
84.0447	8.0
86.0968	8.2
95.0858	5.2
114.0551	4.8
116.0708	7.1
120.0809	78.0
121.0844	6.0
124.0758	5.2
125.0234	14.2
126.0550	6.1
130.0499	45.9
138.0914	5.2
142.0499	12.2
163.0864	6.3
164.0707	12.0
166.0863	45.6
167.0898	4.6
172.0605	10.0
178.0863	5.8
181.0971	100.0
182.0811	13.7
182.1005	9.7
186.0913	10.1
194.0812	6.6
199.1077	8.5
222.0764	5.4
232.0967	10.7
234.1124	4.6
291.1348	10.7
303.0857	6.3
304.1653	4.7
319.1311	8.4
320.1127	6.8
335.1252	5.3
336.1075	8.0
336.1444	5.3
337.1396	26.0
338.1217	11.7
339.1167	5.6
339.1549	9.4

Name: 4-Hydroxyhippurate
PrecursorMZ: 196.06031
RT: 5.963
ExactMass: 194.04533274
Spectrum_type: 2
charge: 1
Formula: C9H8NO4-
SMILES: C1=CC(=CC=C1C(=O)NCC(=O)[O-])O
Method: HCD
Collision_energy: [28.333334]
Isolation_window: 4.0
Ion_mode: P
Num Peaks: 8
89.0599	10.2
122.0600	6.8
150.0549	37.0
168.0655	5.7
178.0497	87.2
179.0530	5.8
196.0602	36.1
197.1071	100.0

Name: 4-Methyldiethcathinone
PrecursorMZ: 220.16951
RT: 7.7761
ExactMass: 219.162314293
Spectrum_type: 2
charge: 1
Formula: C14H21NO
SMILES: CCN(CC)C(C)C(=O)C1=CC=C(C=C1)C
Method: HCD
Collision_energy: [28.333334]
Isolation_window: 4.0
Ion_mode: P
Num Peaks: 33
58.0655	0.9
86.0605	1.1
86.0967	51.6
87.1001	3.0
90.0553	2.0
91.0544	1.7
97.0108	2.1
100.1123	30.7
101.1156	2.2
101.1201	9.3
111.0264	1.0
119.0493	17.2
120.0525	1.2
130.0862	2.6
137.0597	1.2
142.0863	1.2
143.0161	1.8
157.0318	1.2
202.1074	0.8
203.0370	3.7
219.0657	0.9
219.0918	0.8
219.1380	1.4
220.0970	1.7
220.1184	5.3
220.1695	100.0
221.0469	1.3
221.0921	1.0
221.1729	15.6
222.0758	1.4
222.1126	1.3
222.1487	1.0
222.1762	0.9

Name: 4-Tritiobutan-1-amine
PrecursorMZ: 74.09683
RT: 6.5634
ExactMass: 75.097373605
Spectrum_type: 2
charge: 1
Formula: C4H11N
SMILES: [3H]CCCCN
Method: HCD
Collision_energy: [28.333334]
Isolation_window: 4.0
Ion_mode: P
Num Peaks: 8
55.0547	1.7
56.0499	3.4
57.0452	3.3
57.0704	6.8
72.0812	4.6
74.0604	4.0
74.0968	100.0
75.1002	5.2

Name: 4-amino-4-oxo-2-(((2R)-pyrrolidine-2-carbonyl)amino)butanoic acid
PrecursorMZ: 230.11312
RT: 8.443
ExactMass: 229.10625597
Spectrum_type: 2
charge: 1
Formula: C9H15N3O4
SMILES: C1C[C@@H](NC1)C(=O)NC(CC(=O)N)C(=O)O
Method: HCD
Collision_energy: [28.333334]
Isolation_window: 4.0
Ion_mode: P
Num Peaks: 16
70.0654	100.0
101.0599	7.5
133.0606	6.6
183.0762	7.5
183.1126	7.2
186.1121	20.9
211.1072	6.8
213.0866	8.0
228.1228	5.8
228.2319	5.6
229.0817	8.9
229.1177	36.9
230.1126	59.3
232.0924	9.5
232.1175	29.8
232.1304	10.8

Name: 4-amino-4-oxo-2-(((2S)-5-oxopyrrolidine-2-carbonyl)amino)butanoic acid
PrecursorMZ: 244.09237
RT: 6.7917
ExactMass: 243.08552052
Spectrum_type: 2
charge: 1
Formula: C9H13N3O5
SMILES: C1CC(=O)N[C@@H]1C(=O)NC(CC(=O)N)C(=O)O
Method: HCD
Collision_energy: [28.333334]
Isolation_window: 4.0
Ion_mode: P
Num Peaks: 72
69.0702	2.3
70.0654	5.7
76.0396	54.7
84.0446	100.0
84.0810	2.7
85.0480	4.5
86.0966	42.6
87.0555	4.0
87.1000	2.6
88.0395	3.5
96.0444	5.6
102.0551	2.8
113.0709	9.3
114.0550	2.4
116.0706	9.4
124.0391	1.8
127.0501	1.9
128.0704	3.6
129.0657	13.2
130.0497	6.2
132.1018	23.1
133.0606	58.4
134.0640	1.9
139.0500	2.9
141.0656	34.9
142.0692	2.2
155.0444	2.0
155.0813	2.0
156.0651	2.2
157.0603	2.2
169.0605	75.1
170.0638	6.1
171.0762	2.4
178.0498	3.1
179.0528	3.6
179.0809	2.1
179.1175	1.8
180.0651	2.5
181.0606	7.5
181.0968	1.9
182.0447	2.5
182.0810	2.1
197.0917	3.1
197.1281	37.8
198.0870	1.8
198.1122	5.5
198.1316	4.6
199.0711	6.5
200.0909	2.1
206.0445	3.4
207.0479	5.2
209.0552	3.2
225.0863	5.0
225.1224	2.6
226.0703	2.6
226.0818	3.5
226.1068	2.0
227.0658	12.5
227.1020	6.9
228.0863	2.2
242.1022	2.2
243.0967	16.0
243.1334	16.5
244.0945	8.2
244.1175	13.0
244.1288	2.9
245.0915	2.4
245.1113	5.9
245.1486	2.7
246.0753	2.3
246.0974	2.8
246.1335	3.3

Name: 4-amino-5-(((1S)-1-carboxy-2-methylpropyl)amino)-5-oxopentanoic acid
PrecursorMZ: 247.12873
RT: 7.55335
ExactMass: 246.12157168
Spectrum_type: 2
charge: 1
Formula: C10H18N2O5
SMILES: CC(C)[C@@H](C(=O)O)NC(=O)C(CCC(=O)O)N
Method: HCD
Collision_energy: [28.333334]
Isolation_window: 4.0
Ion_mode: P
Num Peaks: 101
69.0703	2.2
70.0655	14.2
71.0689	2.1
72.0812	40.0
73.0843	2.0
81.0338	2.8
84.0447	41.8
84.0811	12.8
86.0603	2.8
86.0968	57.4
87.0443	3.5
87.1001	2.9
88.0396	5.0
96.0445	2.0
98.0603	2.3
98.0966	2.5
100.0757	2.0
102.0552	16.0
112.0759	3.1
114.0914	3.5
116.0707	8.8
118.0864	52.1
119.0896	2.6
120.0808	2.5
123.0680	6.4
124.0758	60.7
125.0235	3.7
125.0790	3.4
128.0707	3.1
129.1023	3.0
130.0863	11.4
131.0579	3.3
132.1020	3.5
138.0915	3.6
142.0863	4.9
144.0809	4.5
144.1018	2.1
146.0601	2.7
155.1180	3.1
156.0810	3.0
156.1019	2.8
158.0965	6.6
160.0757	3.9
166.0861	2.5
168.0806	2.0
172.0756	4.4
181.0972	3.5
181.1337	2.2
182.1177	3.1
183.1128	100.0
183.1192	2.1
184.0972	2.7
184.1162	10.1
186.1236	5.7
187.1073	2.3
188.0706	10.4
198.1237	4.6
199.1273	16.4
200.1282	15.4
201.1234	8.8
201.1316	2.2
202.0865	2.8
202.1069	2.9
211.1076	8.0
214.0863	5.1
216.1227	2.8
217.1551	2.1
227.1025	3.6
228.1062	2.9
228.1231	10.3
229.1182	63.8
230.0813	3.0
230.1021	2.7
230.1222	7.6
230.1386	11.7
231.1128	4.0
232.0968	11.3
245.1133	4.2
245.1305	7.6
245.1488	5.8
246.0768	6.1
246.0976	3.4
246.1124	28.8
246.1336	20.2
246.1464	18.9
246.1695	4.0
247.1071	21.9
247.1290	15.1
247.1443	20.3
247.1656	3.4
247.1795	3.0
248.0919	28.8
248.1025	3.7
248.1130	10.4
248.1282	32.3
248.1394	10.1
248.1495	7.7
248.1646	3.7
249.0859	6.5
249.1229	23.2
249.1596	13.9

Name: 4-amino-5-(((1S)-1-carboxy-2-phenylethyl)amino)-5-oxopentanoic acid
PrecursorMZ: 295.12854
RT: 6.6138
ExactMass: 294.12157168
Spectrum_type: 2
charge: 1
Formula: C14H18N2O5
SMILES: C1=CC=C(C=C1)C[C@@H](C(=O)O)NC(=O)C(CCC(=O)O)N
Method: HCD
Collision_energy: [28.333334]
Isolation_window: 4.0
Ion_mode: P
Num Peaks: 129
69.2704	1.9
70.0655	6.5
73.0288	3.1
81.0337	3.0
83.0494	3.0
83.0605	1.8
84.0446	24.2
84.0810	15.0
85.0398	3.7
86.0239	2.2
86.0603	2.1
86.0966	3.1
87.0555	3.3
88.0395	3.2
93.0699	1.7
96.0445	3.9
97.4575	1.9
99.0442	2.1
102.0550	8.6
107.0491	1.7
110.0713	1.9
114.0550	6.7
116.0706	15.0
120.0807	100.0
121.0647	2.3
121.0840	7.4
123.0440	2.3
128.0706	2.0
129.0657	3.2
129.1021	1.6
130.0498	4.8
130.0862	10.8
132.1017	2.8
136.0755	10.6
138.0548	1.7
139.0501	2.1
144.1018	1.6
147.1125	8.7
148.0603	12.3
149.0226	4.1
149.0268	3.8
149.0595	2.5
153.0403	1.6
156.0766	1.8
165.0545	4.3
166.0860	52.0
167.0811	2.7
167.0891	4.7
178.0720	4.6
179.0701	2.0
181.0493	7.2
182.0810	4.3
186.0759	6.9
186.0909	4.1
191.0810	4.4
196.0603	2.8
197.0295	2.1
201.1020	3.7
202.1055	3.0
203.0396	2.2
204.0499	7.3
206.0667	3.6
214.0858	1.6
215.0397	3.0
216.0651	4.7
222.0392	8.2
230.0809	2.4
230.1383	5.6
231.0169	5.1
231.1123	30.1
232.0966	6.6
232.1157	4.8
234.0754	1.7
235.1071	1.6
237.0864	9.9
247.1071	9.4
248.0914	2.5
248.1110	12.4
248.1485	2.9
249.0273	8.7
249.1230	4.6
249.1603	1.8
250.1067	3.4
250.1182	2.1
251.1022	1.7
251.1382	2.1
253.1174	1.9
258.0754	3.0
258.1330	3.8
259.1074	3.4
260.0910	5.3
260.1028	2.0
262.0705	4.4
274.0767	2.2
275.1385	5.5
276.0856	10.6
276.1216	2.5
276.1435	12.1
277.0893	2.0
277.1177	44.8
277.1409	2.9
278.1017	15.2
278.1130	8.9
278.1211	4.8
278.1379	1.9
279.0964	4.7
293.1127	17.1
293.1488	8.5
294.0962	25.0
294.1092	2.7
294.1162	26.2
294.1328	10.2
294.1531	8.4
294.1691	1.7
295.0148	1.8
295.0821	2.4
295.1006	2.5
295.1047	2.5
295.1281	44.9
295.1646	43.6
296.0739	11.4
296.1120	15.4
296.1250	10.6
296.1486	6.1
296.1671	7.0
297.1073	12.3
297.1240	1.7
297.1435	43.2
297.1798	2.1

Name: 5,5,6,6-tetradeuterio-(213C,1,3-15N2)1,3-diazinane-2,4-dione
PrecursorMZ: 115.05025
RT: 2.0735
ExactMass: 121.06545905
Spectrum_type: 2
charge: 1
Formula: C4H6N2O2
SMILES: [2H]C1(C(=O)[15NH][13C](=O)[15NH]C1([2H])[2H])[2H]
Method: HCD
Collision_energy: [28.333334]
Isolation_window: 4.0
Ion_mode: P
Num Peaks: 12
55.0182	34.7
58.0654	10.5
70.0654	71.2
72.0446	100.0
72.0811	13.1
86.0601	9.2
98.0600	7.5
113.1072	7.3
114.0548	13.7
114.0913	52.8
115.0502	70.9
116.0706	8.8

Name: 5-((3aR,6aS)-2-oxo-1,3,3a,4,6,6a-hexahydrothieno(3,4-d)imidazol-4-yl)pentanoic acid
PrecursorMZ: 245.0953
RT: 6.8148
ExactMass: 244.08816355
Spectrum_type: 2
charge: 1
Formula: C10H16N2O3S
SMILES: C1[C@@H]2[C@H](C(S1)CCCCC(=O)O)NC(=O)N2
Method: HCD
Collision_energy: [28.333334]
Isolation_window: 4.0
Ion_mode: P
Num Peaks: 97
69.0701	1.5
70.0654	1.5
72.0810	2.5
80.0497	2.1
81.0338	2.3
83.0494	1.8
84.0447	1.8
84.0810	2.1
85.0650	1.4
86.0602	2.8
86.0967	2.3
87.0442	2.3
95.0605	2.6
97.0397	2.3
98.0601	3.4
100.0758	10.0
100.1122	2.6
101.0598	2.1
102.0550	1.7
107.0604	1.4
111.0442	2.8
112.0758	2.7
114.0914	2.8
116.0707	2.5
118.0863	1.6
124.0756	1.3
126.0549	1.5
126.0911	1.3
128.0705	1.2
130.0498	1.6
130.0651	1.7
130.0861	1.4
138.0912	13.0
147.0915	1.3
149.0706	1.4
152.0707	1.6
152.1068	4.2
155.0812	4.6
156.0804	3.8
157.0759	1.3
163.0863	1.8
166.0683	1.9
166.0862	2.6
167.0524	2.1
167.0814	1.7
174.0917	1.4
174.1024	15.6
179.0813	3.2
180.0655	1.5
180.1017	3.8
182.1176	1.4
184.0794	1.4
191.0812	2.0
197.0917	3.4
198.0871	2.5
198.1122	47.5
199.0893	2.2
199.1156	4.1
200.0815	6.0
200.1278	10.3
201.1019	1.9
202.0971	6.3
205.0853	1.6
208.0964	2.0
209.0739	1.9
209.0915	4.2
210.1122	1.2
212.1389	6.7
216.1227	1.6
219.1012	2.3
226.1072	11.2
226.1182	1.6
227.0845	100.0
227.1024	4.8
228.0768	1.3
228.0879	10.2
228.1224	1.8
229.0795	2.7
243.1334	3.2
243.1698	3.2
244.0969	8.6
244.1173	12.7
244.1295	5.6
244.1537	2.5
244.1651	7.5
245.0949	16.1
245.1127	13.9
245.1280	3.8
245.1498	5.3
246.0868	21.1
246.0977	3.5
246.1125	7.1
246.1332	8.8
246.1480	1.5
246.1685	1.7
247.1071	5.7
247.1430	1.5

Name: 5-(2-(1-allyl-3,7-dimethyl-2,6-dioxo-2,3,6,7-tetrahydro-1H-purin-8-yl)hydrazono)pyrimidine-2,4,6(1H,3H,5H)-trione
PrecursorMZ: 375.11554
RT: 1.3935
ExactMass: 374.10871558
Spectrum_type: 2
charge: 1
Formula: C14H14N8O5
SMILES: CN1C2=C(N=C1N=NC3=C(NC(=O)NC3=O)O)N(C(=O)N(C2=O)CC=C)C
Method: HCD
Collision_energy: [28.333334]
Isolation_window: 4.0
Ion_mode: P
Num Peaks: 11
83.0242	9.6
95.0605	16.4
112.0869	16.3
167.0562	26.7
190.0720	9.4
209.0665	100.0
210.0702	5.7
261.0723	4.2
374.2842	9.3
375.1152	4.5
376.3316	21.1

Name: 5-(Dideuterio(hydroxy)methyl)-4-(hydroxymethyl)-2-methylpyridin-1-ium-3-ol
PrecursorMZ: 152.07081
RT: 6.2504
ExactMass: 172.094271737
Spectrum_type: 2
charge: 1
Formula: C8H12NO3+
SMILES: [2H]C([2H])(C1=C[NH+]=C(C(=C1CO)O)C)O
Method: HCD
Collision_energy: [28.333334]
Isolation_window: 4.0
Ion_mode: P
Num Peaks: 23
89.0600	3.7
91.0546	7.5
96.9955	5.9
110.0351	10.2
124.0758	3.4
134.0637	16.2
150.0552	5.1
150.0917	3.6
150.1280	6.3
151.0619	11.7
151.0868	5.1
152.0708	100.0
152.0818	3.0
152.1071	7.7
153.0409	54.5
153.0660	13.7
153.0741	7.9
153.1025	3.2
153.1388	4.9
154.0250	14.9
154.0500	6.7
154.0613	3.0
154.0976	5.2

Name: 5-(Dimethylazaniumyl)pentanoate
PrecursorMZ: 146.11747
RT: 9.1464
ExactMass: 145.110278721
Spectrum_type: 2
charge: 1
Formula: C7H15NO2
SMILES: C[NH+](C)CCCCC(=O)[O-]
Method: HCD
Collision_energy: [28.333334]
Isolation_window: 4.0
Ion_mode: P
Num Peaks: 8
55.0546	32.0
83.0494	19.4
84.0810	43.0
101.0598	100.0
121.9661	54.7
123.9642	36.1
128.1068	49.3
146.1173	90.3

Name: 5-(Hydroxymethyl)-2,4-dimethylpyridin-1-ium-3-ol
PrecursorMZ: 154.08619
RT: 7.7225
ExactMass: 154.086803626
Spectrum_type: 2
charge: 1
Formula: C8H12NO2+
SMILES: CC1=C(C(=[NH+]C=C1CO)C)O
Method: HCD
Collision_energy: [28.333334]
Isolation_window: 4.0
Ion_mode: P
Num Peaks: 11
67.0546	7.1
96.0444	5.9
110.0600	7.5
134.0630	7.1
136.0754	5.3
152.0700	9.2
154.0496	9.0
154.0860	100.0
155.0895	9.9
155.1541	5.6
156.0419	11.2

Name: 5-Amino-2-((2-amino-3-methylbutanoyl)amino)-5-oxopentanoic acid
PrecursorMZ: 246.14442
RT: 6.3868
ExactMass: 245.1375561
Spectrum_type: 2
charge: 1
Formula: C10H19N3O4
SMILES: CC(C)C(C(=O)NC(CCC(=O)N)C(=O)O)N
Method: HCD
Collision_energy: [28.333334]
Isolation_window: 4.0
Ion_mode: P
Num Peaks: 102
60.0812	3.6
69.2650	0.7
69.2670	0.8
70.0655	1.0
72.0447	2.6
72.0811	61.0
73.0845	1.9
83.0494	21.7
83.0606	9.5
84.0446	10.7
84.0527	1.1
86.0061	6.1
86.0604	1.2
86.0967	7.1
97.3997	1.4
98.9843	2.6
100.0758	23.7
101.0598	1.2
101.0710	4.2
101.0793	1.2
102.0551	0.8
102.0916	1.1
104.0529	1.1
112.0758	1.0
114.0550	2.8
114.0663	2.6
114.0914	1.6
116.0707	2.4
117.1022	2.7
118.0863	14.4
121.0648	2.1
125.0234	1.4
126.0550	1.5
126.0915	0.8
128.0705	1.4
130.0498	42.4
130.0650	1.1
131.0531	1.7
132.0113	12.1
132.1017	1.6
133.0606	1.9
138.0912	1.6
144.0808	1.4
146.0598	2.8
147.0763	100.0
148.0796	4.6
152.0705	1.7
156.0807	12.1
156.1018	2.5
174.0912	2.8
181.0608	1.7
181.0969	2.0
182.1174	16.2
182.1286	5.1
183.1126	24.3
183.1208	1.3
184.0965	1.1
184.1161	1.9
186.1486	4.9
188.0704	8.4
199.0533	3.7
199.0712	0.8
200.1279	2.9
210.1121	1.3
211.1073	2.1
227.0844	1.2
227.1385	1.3
228.0319	1.2
228.0856	0.9
228.1226	22.0
228.1339	39.5
228.1585	1.2
229.1179	18.9
229.1267	1.2
229.1365	3.9
230.0808	3.7
230.1214	2.1
244.1171	1.1
245.0471	1.2
245.0587	2.8
245.0907	1.3
245.0930	4.9
245.1028	1.9
245.1129	1.5
245.1281	1.3
245.1489	1.4
245.1519	0.7
246.0754	1.3
246.0968	1.8
246.1116	2.7
246.1233	2.7
246.1329	4.5
246.1445	18.8
246.1696	4.8
247.1073	3.2
247.1282	3.2
247.1436	1.1
247.1469	2.5
248.0912	1.8
248.1023	3.9
248.1118	1.0
248.1275	1.5

Name: 5-Amino-5-oxo-2-((2-(2,3,4,5,6-pentadeuteriophenyl)acetyl)amino)pentanoic acid
PrecursorMZ: 265.1184
RT: 6.3904
ExactMass: 269.14239073
Spectrum_type: 2
charge: 1
Formula: C13H16N2O4
SMILES: [2H]C1=C(C(=C(C(=C1[2H])[2H])CC(=O)NC(CCC(=O)N)C(=O)O)[2H])[2H]
Method: HCD
Collision_energy: [28.333334]
Isolation_window: 4.0
Ion_mode: P
Num Peaks: 15
84.0447	3.6
120.0808	3.7
130.0499	12.7
136.0757	45.2
137.0790	3.2
219.1123	2.8
248.0914	2.2
264.0870	3.8
264.1228	3.8
265.1182	100.0
265.1314	74.7
266.1025	6.3
266.1214	12.5
266.1356	9.5
267.1295	3.6

Name: 5-Aminopentanamide
PrecursorMZ: 117.10243
RT: 5.1563
ExactMass: 116.094963011
Spectrum_type: 2
charge: 1
Formula: C5H12N2O
SMILES: C(CCN)CC(=O)N
Method: HCD
Collision_energy: [28.333334]
Isolation_window: 4.0
Ion_mode: P
Num Peaks: 14
55.0547	29.3
56.0500	27.3
58.0657	4.6
59.0496	8.7
59.0735	4.3
72.0812	3.3
82.0655	11.2
83.0495	13.2
100.0760	31.6
101.0599	100.0
102.0633	7.1
118.0864	85.1
119.0897	3.8
126.0549	4.8

Name: 5-Ethenylpyrimidin-2-amine
PrecursorMZ: 122.07136
RT: 10.6706
ExactMass: 121.063997236
Spectrum_type: 2
charge: 1
Formula: C6H7N3
SMILES: C=CC1=CN=C(N=C1)N
Method: HCD
Collision_energy: [28.333334]
Isolation_window: 4.0
Ion_mode: P
Num Peaks: 22
54.0342	4.1
56.0499	12.2
57.0339	4.9
80.0497	10.4
81.0450	86.8
82.0483	4.0
96.0112	3.8
96.0446	4.4
100.0244	6.3
104.0706	15.7
120.0476	11.0
120.0808	8.5
122.0600	8.2
122.0712	100.0
122.0809	11.8
122.0964	29.7
123.0552	21.9
123.0747	6.3
123.0803	25.9
123.0916	22.8
124.0392	9.2
124.0756	15.9

Name: 5-amino-5-oxo-2-(((2R)-pyrrolidine-2-carbonyl)amino)pentanoic acid
PrecursorMZ: 244.12869
RT: 8.3967
ExactMass: 243.12190603
Spectrum_type: 2
charge: 1
Formula: C10H17N3O4
SMILES: C1C[C@@H](NC1)C(=O)NC(CCC(=O)N)C(=O)O
Method: HCD
Collision_energy: [28.333334]
Isolation_window: 4.0
Ion_mode: P
Num Peaks: 13
70.0654	100.0
130.0497	19.1
147.0761	50.4
215.0808	5.8
227.1022	6.7
243.0763	9.1
244.0967	8.8
244.1167	6.3
244.1285	40.2
245.1126	8.0
245.1488	48.0
246.1090	6.6
246.1334	6.2

Name: 5-ethyl-1-((2S,4R,5R)-4-hydroxy-5-(hydroxymethyl)oxolan-2-yl)pyrimidine-2,4-dione
PrecursorMZ: 257.11284
RT: 8.578
ExactMass: 256.10592162
Spectrum_type: 2
charge: 1
Formula: C11H16N2O5
SMILES: CCC1=CN(C(=O)NC1=O)[C@@H]2C[C@H]([C@H](O2)CO)O
Method: HCD
Collision_energy: [28.333334]
Isolation_window: 4.0
Ion_mode: P
Num Peaks: 25
96.0445	1.2
101.0598	2.3
124.0393	5.9
126.0549	1.6
141.0657	40.5
142.0689	2.4
146.0922	1.8
156.0655	1.5
197.1027	1.7
238.1071	2.3
256.1177	17.6
256.1303	2.8
256.1541	2.2
257.0910	1.4
257.1017	1.5
257.1125	100.0
257.1229	7.7
257.1487	8.9
258.0814	1.4
258.0967	3.0
258.1157	10.7
258.1325	2.7
258.1451	2.8
258.1695	1.9
259.1648	1.9

Name: 5-hydroxy-1-(4-hydroxy-3-methoxyphenyl)(413C)decan-3-one
PrecursorMZ: 277.17957
RT: 2.784
ExactMass: 295.18646414
Spectrum_type: 2
charge: 1
Formula: C17H26O4
SMILES: CCCCCC([13CH2]C(=O)CCC1=CC(=C(C=C1)O)OC)O
Method: HCD
Collision_energy: [28.333334]
Isolation_window: 4.0
Ion_mode: P
Num Peaks: 8
81.0702	13.0
111.0441	15.7
124.0756	8.5
137.0596	100.0
138.0626	10.5
277.1796	17.3
277.2152	13.9
279.0926	21.2

Name: 5-methyl-(213C,1,3-15N2)1H-pyrimidine-2,4-dione
PrecursorMZ: 127.05024
RT: 4.70795
ExactMass: 129.04035206
Spectrum_type: 2
charge: 1
Formula: C5H6N2O2
SMILES: CC1=C[15NH][13C](=O)[15NH]C1=O
Method: HCD
Collision_energy: [28.333334]
Isolation_window: 4.0
Ion_mode: P
Num Peaks: 14
56.0499	0.9
82.0290	1.5
84.0446	7.4
97.4322	0.4
109.0397	6.8
110.0237	24.9
110.0432	0.4
111.0270	1.3
127.0403	0.8
127.0424	0.6
127.0501	100.0
127.0600	0.8
128.0471	0.6
128.0534	6.0

Name: 6,7-Dimethoxy-1,2-dimethyl-3,4-dihydroisoquinolin-8-one
PrecursorMZ: 236.12799
RT: 2.0981
ExactMass: 235.1208434
Spectrum_type: 2
charge: 1
Formula: C13H17NO3
SMILES: CC1=C2C(=CC(=C(C2=O)OC)OC)CCN1C
Method: HCD
Collision_energy: [28.333334]
Isolation_window: 4.0
Ion_mode: P
Num Peaks: 121
58.0655	1.9
69.0702	2.0
70.0657	5.2
71.0497	3.6
72.0813	6.2
76.0396	2.1
80.0499	16.8
81.0339	32.7
83.0496	4.8
84.0813	3.5
86.0603	2.1
87.0445	3.3
89.0603	3.2
95.0608	5.5
96.0448	4.9
97.0650	1.9
98.0605	3.5
98.0966	4.3
100.0760	3.8
101.0600	19.3
102.0553	3.4
102.0917	2.1
108.0448	2.7
110.0605	7.6
110.0716	31.5
111.0444	10.5
114.0665	2.2
114.0919	3.9
116.0708	2.2
118.0864	8.0
122.0602	28.1
124.0760	9.2
126.0550	2.2
126.0917	2.1
130.0655	5.7
134.0602	1.9
134.0966	3.1
136.0757	2.9
136.1123	5.7
138.0661	3.1
140.0709	17.0
140.0816	2.6
142.0864	9.5
144.1021	26.1
149.0598	2.1
150.0914	1.8
152.0708	24.9
152.1072	8.5
153.0654	13.1
154.0862	2.2
156.0769	12.4
163.0992	1.9
166.0864	2.1
174.1034	2.7
176.1070	2.5
181.1335	2.8
182.0814	5.9
188.0829	3.6
190.0976	2.5
190.1227	14.8
192.1006	1.9
192.1157	5.3
200.0708	5.4
205.1335	1.9
209.1403	4.0
210.0794	4.5
217.0722	13.2
217.0968	2.4
218.0783	2.1
220.1338	1.8
221.1286	1.9
222.1115	7.1
223.1428	2.9
226.1558	6.9
229.0965	2.8
234.1107	7.7
235.0826	6.2
235.1081	18.3
235.1442	78.1
236.0919	78.6
236.1283	100.0
236.1457	6.3
236.1640	10.7
237.0956	9.3
237.1261	29.1
238.1069	31.0
238.1446	6.7
239.1099	5.0
239.1388	33.6
240.0689	1.8
240.1223	54.4
240.1611	3.1
241.1259	8.8
241.1549	22.8
242.1539	2.9
242.1770	3.0
244.0961	4.6
244.1662	42.5
244.1900	2.0
245.0916	5.7
245.1288	2.3
245.1677	5.5
246.1124	10.1
247.1073	14.0
247.1443	3.8
248.1072	4.1
248.1280	7.1
249.1238	17.0
249.1598	6.7
250.1089	20.5
250.1442	4.5
251.1008	6.3
251.1393	45.2
252.1224	63.6
253.1231	13.8
253.1548	21.2
254.1022	10.4
254.1387	32.3
255.1419	19.1
256.1176	7.4
256.1545	12.0

Name: 6,8-Dideuterio-3-(3,5-dideuterio-4-hydroxyphenyl)-7-hydroxy-2,3-dihydrochromen-4-one
PrecursorMZ: 257.08048
RT: 2.5812
ExactMass: 260.09866584
Spectrum_type: 2
charge: 1
Formula: C15H12O4
SMILES: [2H]C1=CC(=CC(=C1O)[2H])C2COC3=C(C2=O)C=C(C(=C3[2H])O)[2H]
Method: HCD
Collision_energy: [28.333334]
Isolation_window: 4.0
Ion_mode: P
Num Peaks: 7
107.0492	21.8
123.0440	100.0
135.0439	10.1
163.0387	49.9
257.0803	85.9
258.0391	23.8
258.0839	11.9

Name: 6-(6-Azaniumylhexanamido)hexanoate
PrecursorMZ: 227.17533
RT: 6.5632
ExactMass: 244.17869263
Spectrum_type: 2
charge: 1
Formula: C12H24N2O3
SMILES: C(CCC(=O)NCCCCCC(=O)[O-])CC[NH3+]
Method: HCD
Collision_energy: [28.333334]
Isolation_window: 4.0
Ion_mode: P
Num Peaks: 17
69.0703	2.1
79.0546	1.2
96.0810	17.5
97.0650	0.8
97.0844	1.2
113.1075	3.9
114.0915	15.2
115.0755	1.1
115.0948	1.0
209.1648	21.4
210.1683	3.1
226.1076	1.9
227.1520	0.7
227.1754	100.0
227.1986	0.7
228.1018	0.7
228.1789	13.1

Name: 6-Acetamidohexanoate
PrecursorMZ: 174.1125
RT: 5.5446
ExactMass: 172.09736831
Spectrum_type: 2
charge: 1
Formula: C8H14NO3-
SMILES: CC(=O)NCCCCCC(=O)[O-]
Method: HCD
Collision_energy: [28.333334]
Isolation_window: 4.0
Ion_mode: P
Num Peaks: 5
67.0546	6.3
109.1014	10.9
114.0915	100.0
115.0948	5.7
173.1175	4.2

Name: 6-Amino-2-(2-aminopropanoylamino)hexanoic acid
PrecursorMZ: 218.14988
RT: 10.740725
ExactMass: 217.14264148
Spectrum_type: 2
charge: 1
Formula: C9H19N3O3
SMILES: CC(C(=O)NC(CCCCN)C(=O)O)N
Method: HCD
Collision_energy: [28.333334]
Isolation_window: 4.0
Ion_mode: P
Num Peaks: 76
56.0499	1.3
70.0655	2.0
72.0812	7.7
73.0765	1.4
74.0605	2.1
80.0499	1.4
82.0655	2.5
84.0811	44.8
85.0845	2.3
86.0967	1.3
94.0653	1.3
98.0967	1.9
100.0759	1.5
101.0599	3.1
101.1075	2.8
107.0732	1.8
112.0760	1.1
114.0916	1.4
115.0756	3.0
116.0708	1.6
122.0602	0.9
124.0758	1.4
128.0707	1.9
129.1023	24.8
130.0863	19.7
130.1055	1.2
130.1227	1.5
131.0896	1.2
142.0864	1.6
144.0808	5.1
144.1020	1.6
147.1128	23.0
148.1162	1.5
154.0863	1.3
154.9417	1.4
155.1180	1.5
156.1020	2.2
158.0813	1.2
172.0968	5.1
172.9523	4.4
173.1285	1.2
174.1125	1.1
183.1128	1.4
190.9625	1.3
199.1077	0.9
200.0919	1.7
200.1034	1.0
200.1284	2.7
200.1394	3.3
201.1234	6.0
202.1074	1.8
217.0976	2.6
217.1180	8.5
217.1341	1.9
217.1544	3.2
218.0819	3.5
218.0925	2.2
218.1024	6.6
218.1176	13.6
218.1298	2.0
218.1388	100.0
218.1498	16.0
218.1731	1.2
219.0764	0.9
219.1129	4.6
219.1226	2.4
219.1334	3.1
219.1423	8.7
219.1510	1.8
220.0606	1.4
220.0969	12.8
220.1080	1.9
220.1183	44.4
220.1331	5.1
220.1440	1.6
220.1540	4.5

Name: 6-Hydroxy-2,7,8-trimethyl-2-(4,8,12-trimethyltridecyl)-3,4-dihydrochromene-5-carbaldehyde
PrecursorMZ: 427.3566
RT: 1.0384
ExactMass: 444.36034539
Spectrum_type: 2
charge: 1
Formula: C29H48O3
SMILES: CC1=C(C2=C(CCC(O2)(C)CCCC(C)CCCC(C)CCCC(C)C)C(=C1O)C=O)C
Method: HCD
Collision_energy: [28.333334]
Isolation_window: 4.0
Ion_mode: P
Num Peaks: 105
55.0546	0.7
57.0703	4.4
67.0546	1.5
69.0702	22.1
70.0736	0.9
71.0859	3.3
81.0701	6.1
83.0858	10.2
84.0892	0.6
85.1014	1.7
93.0701	1.3
95.0857	6.5
97.1013	6.2
97.4312	0.4
107.0856	1.5
109.1013	3.9
111.1169	3.9
119.0856	0.6
121.1012	1.6
123.1168	2.4
125.0597	0.5
125.1324	1.3
133.1011	0.9
135.0804	0.9
135.1167	1.3
137.0596	0.6
137.0960	1.8
137.1324	1.9
139.0753	0.9
145.1011	0.5
147.1167	0.5
149.0960	6.2
149.1324	1.9
150.0995	0.6
151.0752	2.2
151.1480	0.7
159.1167	0.9
161.0958	0.6
161.1322	0.5
163.0752	0.6
163.1117	5.2
163.1480	0.6
164.0832	1.3
165.0765	0.8
165.0794	0.7
165.0909	100.0
165.1054	0.6
165.1638	0.5
166.0942	8.5
167.0698	0.6
171.1163	0.5
173.0960	0.6
173.1325	0.7
175.0750	0.8
175.1116	2.4
175.1481	0.5
177.0908	5.7
177.1268	0.8
177.1637	0.5
178.0948	0.5
179.1064	2.2
187.1115	1.1
187.1478	0.5
189.0907	1.8
189.1272	1.3
191.1064	6.4
192.1096	0.7
193.1221	0.4
199.1116	0.5
201.1272	1.4
203.1064	4.8
203.1428	1.5
205.1220	11.8
206.1253	1.2
215.1432	0.7
217.1221	1.3
219.1376	2.8
220.1407	0.5
231.1376	2.1
233.1534	1.5
245.1533	0.9
247.1693	0.7
261.1844	0.5
275.2004	0.7
289.2157	1.3
301.2163	0.7
303.2310	0.6
317.2474	0.7
331.2622	0.7
345.2781	2.3
346.2810	0.5
359.2934	0.4
371.2936	1.1
399.3249	0.9
409.3456	1.7
410.3490	0.5
412.3330	0.6
426.3454	0.5
426.3742	0.5
427.3564	30.4
427.3807	0.4
428.3610	10.8
428.3885	1.1
429.3356	0.8
429.3711	3.2

Name: 6-Hydroxy-2,7-dimethyl-2-(4,8,12-trimethyltridecyl)chroman-8-carbaldehyde
PrecursorMZ: 431.35088
RT: 1.1313
ExactMass: 430.34469533
Spectrum_type: 2
charge: 1
Formula: C28H46O3
SMILES: CC1=C(C=C2CCC(OC2=C1C=O)(C)CCCC(C)CCCC(C)CCCC(C)C)O
Method: HCD
Collision_energy: [28.333334]
Isolation_window: 4.0
Ion_mode: P
Num Peaks: 53
55.0545	1.1
57.0702	3.4
67.0544	0.8
69.0701	7.1
71.0857	3.5
81.0700	5.1
83.0856	5.6
85.0649	0.9
85.1013	1.5
89.0598	2.0
93.0698	1.3
95.0855	5.1
97.1011	4.2
107.0855	1.5
109.1011	3.3
111.0803	3.3
111.1167	3.2
121.1009	1.4
123.0802	0.8
123.1166	2.9
133.0857	1.1
135.0802	1.6
135.1166	1.1
137.1321	0.8
149.1322	1.0
151.0624	0.8
151.0750	100.0
152.0781	9.0
163.0749	1.2
164.0830	2.2
165.0908	4.1
175.1114	1.7
177.0906	5.6
189.0906	2.2
191.1061	15.3
192.1091	1.9
193.1220	1.0
203.1060	5.4
204.1096	0.8
205.1216	4.3
206.1250	0.8
217.1217	4.3
218.1250	0.8
221.1165	6.9
231.1371	5.0
293.2827	1.2
413.3401	4.1
414.3428	0.9
429.3366	1.0
430.3400	4.8
431.3504	42.6
432.3538	12.8
433.3565	1.6

Name: 6-Hydroxy-N-(2-morpholinoethyl)nicotinamide
PrecursorMZ: 252.13405
RT: 2.6826
ExactMass: 251.12699141
Spectrum_type: 2
charge: 1
Formula: C12H17N3O3
SMILES: C1COCCN1CCNC(=O)C2=CNC(=O)C=C2
Method: HCD
Collision_energy: [28.333334]
Isolation_window: 4.0
Ion_mode: P
Num Peaks: 6
165.0658	100.0
166.0690	9.2
234.1228	3.0
236.0914	3.9
251.1022	3.8
252.1338	6.2

Name: 6-amino-2-(((2S)-5-oxopyrrolidine-2-carbonyl)amino)hexanoic acid
PrecursorMZ: 258.14436
RT: 9.5395
ExactMass: 257.1375561
Spectrum_type: 2
charge: 1
Formula: C11H19N3O4
SMILES: C1CC(=O)N[C@@H]1C(=O)NC(CCCCN)C(=O)O
Method: HCD
Collision_energy: [28.333334]
Isolation_window: 4.0
Ion_mode: P
Num Peaks: 26
69.5763	8.2
84.0446	16.7
84.0810	39.6
102.0550	10.2
104.1071	16.8
110.0713	12.8
129.1021	70.8
130.0861	18.9
146.0922	18.7
147.1125	14.5
157.0970	11.0
199.1072	10.9
200.0914	15.7
200.1026	9.5
240.1225	9.8
240.1339	12.4
242.1132	18.5
257.1123	12.5
258.0963	14.2
258.1095	7.7
258.1330	84.1
258.1441	77.0
259.1386	41.8
260.1124	6.7
260.1235	100.0
260.1486	6.8

Name: 6-amino-5-fluoro-3-(2-(hydroxymethyl)-1,3-oxathiolan-5-yl)-1H-pyrimidin-3-ium-2-one
PrecursorMZ: 248.04961
RT: 3.6833
ExactMass: 248.05051556
Spectrum_type: 2
charge: 1
Formula: C8H11FN3O3S+
SMILES: C1C(OC(S1)CO)[N+]2=CC(=C(NC2=O)N)F
Method: HCD
Collision_energy: [28.333334]
Isolation_window: 4.0
Ion_mode: P
Num Peaks: 6
101.0056	1.4
130.0307	0.7
130.0409	100.0
130.0510	0.7
131.0380	0.9
131.0443	4.2

Name: 6-amino-N-(6-amino-6-oxohexyl)hexanamide
PrecursorMZ: 226.1913
RT: 6.4885
ExactMass: 243.19467705
Spectrum_type: 2
charge: 1
Formula: C12H25N3O2
SMILES: C(CCC(=O)NCCCCCC(=O)N)CCN
Method: HCD
Collision_energy: [28.333334]
Isolation_window: 4.0
Ion_mode: P
Num Peaks: 39
55.0546	0.8
69.0703	2.8
70.0655	0.6
79.0546	1.3
96.0810	21.5
97.0650	1.1
97.0844	0.7
97.3983	0.4
101.0599	1.9
113.1075	4.4
114.0915	17.4
115.0755	1.3
115.0949	0.7
125.0711	4.3
152.0708	1.0
180.0657	2.8
208.0603	1.0
208.0968	0.6
209.1648	20.3
210.1488	0.5
210.1683	1.9
225.0870	0.9
225.1020	1.6
225.1234	8.6
225.1595	0.9
226.0171	0.7
226.0711	4.4
226.1075	1.1
226.1274	1.1
226.1913	10.8
227.0728	0.6
227.1188	0.6
227.1518	0.7
227.1753	100.0
227.1938	2.1
228.0654	1.4
228.1018	1.6
228.1789	9.0
228.2318	0.5

Name: 7-(1,3-Benzodioxol-5-yl)-1-piperidin-1-ylhepta-2,4,6-trien-1-one
PrecursorMZ: 312.15914
RT: 0.5417
ExactMass: 311.15214353
Spectrum_type: 2
charge: 1
Formula: C19H21NO3
SMILES: C1CCN(CC1)C(=O)C=CC=CC=CC2=CC3=C(C=C2)OCO3
Method: HCD
Collision_energy: [28.333334]
Isolation_window: 4.0
Ion_mode: P
Num Peaks: 186
57.0339	1.0
57.0703	6.4
60.0450	2.5
62.0605	30.6
67.0546	8.2
69.0703	26.3
70.0655	3.1
70.0736	1.7
71.0494	1.0
71.0859	6.3
72.0812	6.3
74.0604	4.4
79.0545	2.9
81.0702	14.0
83.0494	1.3
83.0859	6.7
84.0811	10.3
85.0651	1.9
85.1016	2.8
86.0967	26.6
87.1000	1.3
89.0600	4.1
91.0544	4.0
93.0701	6.2
95.0491	1.4
95.0858	15.7
96.0893	1.2
97.0650	1.9
97.1014	4.7
98.0603	7.2
98.9844	1.9
99.0442	1.1
99.0807	2.7
103.0543	2.0
105.0700	3.8
107.0857	7.7
109.0651	1.6
109.1014	10.3
111.0805	1.2
111.1171	2.0
112.0759	79.4
113.0598	0.9
113.0792	5.1
113.0964	1.0
116.0707	0.9
117.0701	1.2
119.0856	4.7
121.0649	1.3
121.1013	8.0
123.0804	1.5
123.1169	5.4
124.0758	1.0
125.0964	2.0
131.0492	27.3
131.0853	2.4
132.0526	2.3
133.0866	1.4
133.1012	8.1
135.0440	21.6
135.0808	1.5
135.1168	6.6
136.0473	1.3
137.0597	2.7
137.0961	1.8
137.1325	2.3
138.0913	3.3
139.1119	1.2
140.1069	1.7
141.0698	16.8
141.1275	1.3
142.0732	2.2
143.0855	1.2
145.1011	3.3
147.0807	2.2
147.1168	4.2
149.0235	5.1
149.0599	1.1
149.0963	1.6
149.1324	3.6
150.0914	1.1
151.0755	1.0
151.0982	1.8
151.1102	1.6
151.1479	1.0
157.1010	1.5
159.0443	1.3
159.1168	3.2
161.0597	20.3
161.0961	1.1
161.1326	2.8
162.0629	2.6
163.0758	0.9
163.1111	2.2
163.1484	1.5
164.1069	7.2
165.0916	2.0
165.1143	4.0
165.1280	1.2
167.0337	1.4
167.1304	1.1
169.0647	46.5
170.0684	5.7
171.1166	1.3
173.1325	2.3
175.1122	1.1
175.1476	1.8
177.0546	1.2
177.1278	1.0
177.1635	1.4
185.0597	0.9
185.1332	1.4
187.0752	5.1
187.1481	1.9
189.0910	1.0
189.1273	1.0
189.1636	1.4
194.1533	1.8
197.0595	17.5
198.0625	2.2
199.0753	20.6
199.1486	1.0
200.0788	2.4
201.0915	1.6
201.1637	1.0
213.0899	1.5
227.0701	100.0
228.0735	15.1
229.0776	1.3
229.1205	1.3
231.1011	1.4
243.2106	1.1
257.1290	2.3
261.2209	1.3
264.2679	3.2
279.2309	1.8
283.2058	1.2
292.2625	3.2
296.2942	1.0
299.2575	2.5
301.2163	5.3
302.2191	1.2
303.2307	0.9
306.2795	1.2
307.2594	1.6
310.2713	1.1
310.3107	1.7
311.1649	0.9
312.1592	61.6
312.2892	3.0
312.3260	3.0
313.1620	12.7
313.2748	3.1
314.0430	2.2
314.1747	15.6
315.1746	2.5
315.2701	1.0
316.1909	11.5
317.1548	1.6
317.1909	2.2
319.2299	2.3
319.3068	1.6
320.2587	3.0
320.2968	1.4
321.2255	1.0
321.2571	1.0
322.2740	8.0
323.2927	2.1
324.2899	6.6
325.2914	1.6
326.1755	6.4
326.3048	4.6
326.3776	17.8
327.0788	2.0
327.1769	1.1
327.2684	1.2
327.3804	3.7
328.1907	7.4
328.3208	1.8
329.0649	5.3
329.1023	1.2
329.1895	1.5
329.2473	1.1
330.0688	1.0
330.2062	9.5
330.3343	1.3
331.2095	1.3

Name: 7-(1,3-benzodioxol-5-yl)-N-(2-methylpropyl)hepta-2,6-dienamide
PrecursorMZ: 302.17486
RT: 0.5736
ExactMass: 301.1677936
Spectrum_type: 2
charge: 1
Formula: C18H23NO3
SMILES: CC(C)CNC(=O)C=CCCC=CC1=CC2=C(C=C1)OCO2
Method: HCD
Collision_energy: [28.333334]
Isolation_window: 4.0
Ion_mode: P
Num Peaks: 253
57.0338	1.8
57.0703	7.3
58.0657	3.4
59.0496	4.9
60.0449	14.5
62.0604	2.0
67.0547	11.8
69.0703	27.3
70.0655	3.3
71.0494	4.3
71.0860	6.5
72.0812	8.5
79.0545	6.5
81.0339	5.2
81.0702	23.8
83.0496	4.3
83.0859	10.3
84.0811	11.3
85.0652	5.4
85.1015	3.5
86.0968	53.3
87.1001	2.2
89.0600	2.4
91.0545	13.5
93.0701	13.1
95.0494	5.6
95.0858	23.9
96.0890	1.8
97.0650	5.0
97.1014	7.1
98.0600	2.9
99.0442	3.3
99.0807	4.5
100.0759	1.8
105.0701	9.2
107.0493	4.7
107.0857	14.2
109.0651	3.1
109.1014	16.2
110.1049	2.0
111.0442	2.1
111.0807	2.5
111.1170	2.0
112.0759	89.1
113.0792	6.4
113.0961	1.9
117.0702	1.8
117.0911	2.2
119.0857	10.0
120.0809	2.9
121.0287	2.5
121.0651	5.0
121.1013	15.2
122.0600	2.5
123.0442	27.3
123.0804	4.2
123.1170	8.9
124.0478	1.9
124.0758	3.0
125.0961	3.8
131.0491	12.0
131.0857	6.5
132.1018	2.8
133.0648	2.8
133.1012	12.0
135.0443	6.7
135.0806	3.8
135.1170	9.8
136.0757	15.2
137.0597	4.1
137.0960	3.7
137.1325	2.5
138.0913	10.2
139.1117	2.1
140.1071	2.2
141.0699	9.2
143.0856	3.1
143.1180	2.5
144.0806	6.4
145.1013	8.5
146.1174	8.3
147.0439	3.3
147.0802	2.5
147.1169	8.3
148.0754	3.3
149.0598	6.2
149.0963	5.3
149.1325	5.2
150.0545	2.6
150.0915	2.3
150.1277	2.0
151.0756	1.9
151.0984	2.7
151.1118	2.9
152.0706	2.3
152.1067	2.0
157.1013	4.0
157.1337	1.9
159.1168	8.6
161.0598	9.8
161.0959	3.5
161.1325	6.3
163.1121	4.8
163.1482	2.2
164.0702	6.1
164.1066	8.1
165.0913	4.5
167.0566	6.5
167.0856	34.3
168.0893	5.0
169.0648	29.9
170.0692	3.1
171.0809	3.0
171.1165	5.5
173.0591	2.7
173.0961	2.1
173.1327	5.6
175.0389	15.3
175.0746	2.7
175.1116	3.5
175.1479	3.6
177.1276	2.0
178.0858	2.7
178.1223	11.1
179.1063	2.0
179.1298	11.7
180.1372	2.1
183.0800	2.6
183.1160	2.4
185.1314	3.3
187.0751	5.1
187.1114	2.7
187.1481	8.0
188.0717	1.9
189.0906	4.5
189.1274	2.3
189.1636	3.6
191.1428	2.1
192.1388	1.8
193.1225	2.4
196.0964	3.2
197.0595	12.7
197.1327	1.8
199.0753	12.4
199.1477	2.8
200.0783	2.0
201.0909	1.8
207.1382	2.3
212.2372	3.4
213.1622	2.5
215.0697	7.1
216.0726	2.0
217.0860	1.8
225.1640	1.8
227.0701	59.1
227.1181	1.9
227.1798	2.8
228.0729	8.2
229.1340	9.4
235.1323	1.9
241.0978	3.5
243.1145	3.4
245.1304	3.4
252.2690	2.5
255.1130	16.1
255.2100	2.3
256.1174	2.6
257.1284	95.4
258.1114	2.9
258.1334	15.9
259.1379	2.0
264.2684	2.0
269.1284	1.8
271.1432	3.0
272.1276	2.2
273.1588	3.4
277.2161	2.7
279.2323	2.9
282.0523	3.2
282.2788	19.3
283.1081	8.9
283.2058	3.5
283.2833	5.9
284.1653	1.9
284.2949	7.6
285.1234	23.1
286.1294	4.0
287.1397	3.1
289.1550	4.7
290.2122	1.8
292.2640	1.8
295.2259	2.6
299.1360	2.1
299.2001	1.9
300.0622	2.5
300.1599	10.7
300.2899	3.0
301.1569	14.1
301.2161	20.2
302.1412	5.7
302.1751	100.0
302.2158	4.4
302.3053	6.8
303.1350	6.1
303.1775	21.1
303.2305	7.1
304.1890	7.6
304.2649	2.1
304.2993	21.2
305.1508	3.0
305.1898	2.5
305.2476	2.6
305.3019	4.8
306.2063	4.2
306.2780	7.4
307.1436	2.0
307.1763	4.4
307.2414	4.5
308.2957	2.6
309.1205	2.5
309.1588	4.0
309.2565	2.2
310.1079	2.3
310.1466	2.2
311.1378	3.9
311.1733	2.0
311.2356	1.9
312.1244	4.1
312.1592	41.4
312.3626	2.0
313.0703	2.0
313.1588	10.7
313.2774	3.3
314.1379	2.3
314.1745	12.1
315.0860	16.8
315.1329	6.8
315.1702	3.6
315.1971	3.9
316.0886	3.1
316.1917	14.3
317.1497	36.7
317.1857	2.4
317.2099	2.9
318.1523	6.1
318.2111	3.0
318.3004	9.5
319.2311	3.6
320.2244	2.6
320.2597	2.6
321.1197	2.0
321.1801	3.1
321.2558	2.9

Name: 7-Aminoheptane-1,2,3,4,5,6-hexol
PrecursorMZ: 194.10226
RT: 6.9192
ExactMass: 211.10558726
Spectrum_type: 2
charge: 1
Formula: C7H17NO6
SMILES: C(C(C(C(C(C(CO)O)O)O)O)O)N
Method: HCD
Collision_energy: [28.333334]
Isolation_window: 4.0
Ion_mode: P
Num Peaks: 12
83.0494	14.0
89.0600	14.8
112.0758	19.8
152.0567	24.0
176.0706	100.0
176.0916	83.4
193.0605	20.2
193.1700	16.8
194.0811	31.0
194.1019	33.9
194.1173	38.0
195.0762	27.8

Name: 7-Aminoheptanoate
PrecursorMZ: 146.11759
RT: 14.2266
ExactMass: 144.102453689
Spectrum_type: 2
charge: 1
Formula: C7H14NO2-
SMILES: C(CCCN)CCC(=O)[O-]
Method: HCD
Collision_energy: [28.333334]
Isolation_window: 4.0
Ion_mode: P
Num Peaks: 37
60.0812	9.7
67.0547	14.2
69.0703	2.2
81.0703	2.9
83.0859	3.1
84.0447	1.9
84.0811	3.6
86.0604	8.4
86.0967	10.6
87.0444	12.1
91.0545	3.2
93.0701	39.2
94.0735	3.1
98.0966	2.2
100.0759	8.4
109.0650	2.2
110.0966	2.9
111.0807	40.9
112.0840	3.6
121.9663	4.9
123.9645	3.9
126.0915	3.7
128.1071	2.9
129.0911	15.1
130.0944	1.8
144.1019	20.6
145.0760	2.4
145.0973	7.9
145.1052	4.1
146.0603	2.1
146.0813	3.7
146.1176	100.0
146.1540	11.8
147.1209	9.9
148.0757	2.7
148.0871	1.7
148.0969	5.0

Name: 8-Oxa-2-azaspiro(4.5)decane-1,3-dione, 2-allyl-
PrecursorMZ: 210.11227
RT: 1.3125
ExactMass: 209.10519334
Spectrum_type: 2
charge: 1
Formula: C11H15NO3
SMILES: C=CCN1C(=O)CC2(C1=O)CCOCC2
Method: HCD
Collision_energy: [28.333334]
Isolation_window: 4.0
Ion_mode: P
Num Peaks: 32
55.0546	15.4
69.0702	1.8
83.0858	58.4
95.0856	3.1
96.0809	2.0
97.1013	6.0
98.0601	6.8
107.0855	1.7
110.0600	1.8
123.0803	4.1
124.0756	58.9
124.1120	7.9
125.0595	1.8
125.0790	3.9
125.0961	3.3
126.0912	100.0
138.1275	11.2
139.1114	2.1
140.1066	2.1
152.1069	6.9
164.1068	10.9
165.0908	5.4
166.1224	17.7
167.0941	1.9
167.1064	1.7
168.1018	1.9
192.1016	6.4
194.1172	45.0
210.0791	3.2
210.1121	21.2
211.1142	2.2
212.1277	60.3

Name: 8-hydroxy-1,3-dimethyl-7-(prop-2-en-1-yl)-3,7-dihydro-1H-purine-2,6-dione
PrecursorMZ: 237.09817
RT: 5.1339
ExactMass: 236.09094026
Spectrum_type: 2
charge: 1
Formula: C10H12N4O3
SMILES: CN1C2=C(C(=O)N(C1=O)C)N(C(=O)N2)CC=C
Method: HCD
Collision_energy: [28.333334]
Isolation_window: 4.0
Ion_mode: P
Num Peaks: 22
89.0599	4.1
124.0758	6.0
138.0662	18.6
189.8810	13.3
192.1019	6.3
193.0721	6.8
212.8969	9.3
214.8949	3.4
218.0813	3.9
220.0970	5.3
221.1282	7.0
222.0747	13.1
235.1074	5.5
236.0920	17.4
236.1282	5.7
237.0878	3.9
237.0981	100.0
237.1230	8.0
238.1010	5.0
238.1070	9.9
238.1437	33.5
239.1370	3.7

Name: 9,10,12,13-Tetrahydroxyoctadecanoic acid
PrecursorMZ: 349.25748
RT: 4.9111
ExactMass: 348.25118886
Spectrum_type: 2
charge: 1
Formula: C18H36O6
SMILES: CCCCCC(C(CC(C(CCCCCCCC(=O)O)O)O)O)O
Method: HCD
Collision_energy: [28.333334]
Isolation_window: 4.0
Ion_mode: P
Num Peaks: 36
67.0545	13.7
69.2181	14.8
71.0494	15.9
79.0543	10.9
81.0336	27.6
81.0700	22.5
93.0698	20.3
95.0855	15.8
97.4563	13.5
107.0854	16.5
109.1012	11.2
121.1010	35.8
124.0754	26.0
135.1165	23.6
147.0435	11.7
148.0754	13.8
159.0675	18.5
164.0702	23.2
166.0860	22.1
192.0649	37.8
208.0963	12.1
223.1070	65.5
224.0911	100.0
225.0946	11.7
277.2153	60.9
295.2256	47.6
313.2368	13.3
330.1772	10.8
331.1627	12.9
348.1414	12.5
348.1910	17.1
349.1411	13.4
349.1744	72.1
350.1746	11.4
351.1904	10.8
351.2310	29.4

Name: 9,10,13-Trihydroxyoctadeca-11,15-dienoic acid
PrecursorMZ: 329.23176
RT: 5.0507
ExactMass: 328.22497412
Spectrum_type: 2
charge: 1
Formula: C18H32O5
SMILES: CCC=CCC(C=CC(C(CCCCCCCC(=O)O)O)O)O
Method: HCD
Collision_energy: [28.333334]
Isolation_window: 4.0
Ion_mode: P
Num Peaks: 33
67.0546	29.8
69.0702	35.6
71.0494	20.8
79.0544	18.9
81.0701	49.3
93.0700	27.7
95.0856	42.5
97.0648	27.9
99.0805	19.3
105.0700	28.7
107.0855	34.2
109.0649	36.5
109.1012	25.2
115.0754	23.0
119.0854	27.8
121.1011	24.0
123.0803	32.7
125.0961	17.8
131.0855	22.0
133.1011	21.0
135.1165	17.6
145.1010	20.4
147.1167	23.4
257.1893	18.8
275.1999	100.0
293.2105	77.3
294.2133	20.1
311.2211	27.2
328.1192	21.8
328.1378	28.0
330.0995	22.5
330.1342	18.7
331.1899	18.3

Name: 9-((2R)-2,3-dihydroxypropoxy)-9-oxononanoic acid
PrecursorMZ: 245.13816
RT: 4.7447
ExactMass: 262.14163842
Spectrum_type: 2
charge: 1
Formula: C12H22O6
SMILES: C(CCCC(=O)O)CCCC(=O)OC[C@@H](CO)O
Method: HCD
Collision_energy: [28.333334]
Isolation_window: 4.0
Ion_mode: P
Num Peaks: 14
55.0546	11.2
57.0339	10.1
83.0858	15.4
94.9297	100.0
96.9279	24.5
97.1013	50.1
107.0856	14.4
112.8958	35.9
114.8930	20.8
125.0960	75.5
171.1013	12.6
189.1119	66.0
227.1276	17.0
245.1379	86.3

Name: 9-((2R,4S)-4-hydroxy-5-(hydroxymethyl)oxolan-2-yl)-3H-purine-2,6-dione
PrecursorMZ: 251.0772
RT: 6.2207
ExactMass: 268.0807695
Spectrum_type: 2
charge: 1
Formula: C10H12N4O5
SMILES: C1[C@@H](C(O[C@H]1N2C=NC3=C2NC(=O)NC3=O)CO)O
Method: HCD
Collision_energy: [28.333334]
Isolation_window: 4.0
Ion_mode: P
Num Peaks: 19
69.0339	22.3
81.0337	6.7
99.0442	43.7
116.0707	33.1
137.0456	36.8
153.0406	100.0
162.0548	15.8
162.0912	15.6
188.0704	10.4
190.0499	8.6
206.0806	11.4
216.0652	9.8
234.0759	15.7
250.0707	8.9
250.1072	8.9
251.0784	9.6
251.1012	9.9
252.0863	69.5
253.0928	14.3

Name: 9-((4R,5S)-4-hydroxy-5-(hydroxymethyl)oxolan-2-yl)-1H-purin-6-one
PrecursorMZ: 291.0487
RT: 6.3598
ExactMass: 252.08585488
Spectrum_type: 2
charge: 1
Formula: C10H12N4O4
SMILES: C1[C@H]([C@@H](OC1N2C=NC3=C2N=CNC3=O)CO)O
Method: HCD
Collision_energy: [28.333334]
Isolation_window: 4.0
Ion_mode: P
Num Peaks: 17
81.0339	9.5
126.0913	12.1
166.0862	31.6
175.0013	12.8
272.1124	16.9
272.1279	8.2
274.1283	12.4
290.1019	19.6
290.1227	28.8
291.0486	100.0
291.0837	14.1
291.1332	9.1
291.1703	15.3
291.2425	28.3
292.0578	12.1
292.1161	9.5
292.1413	13.2

Name: 9-(1,3-benzodioxol-5-yl)-N-(2-methylpropyl)nona-2,4,8-trienamide
PrecursorMZ: 328.18987
RT: 1.0681
ExactMass: 327.18344366
Spectrum_type: 2
charge: 1
Formula: C20H25NO3
SMILES: CC(C)CNC(=O)C=CC=CCCC=CC1=CC2=C(C=C1)OCO2
Method: HCD
Collision_energy: [28.333334]
Isolation_window: 4.0
Ion_mode: P
Num Peaks: 32
57.0702	7.7
67.0545	3.0
68.0623	5.8
69.7997	2.1
72.0810	3.4
74.0966	3.0
79.0543	2.2
81.0701	2.0
95.0855	2.0
98.9841	13.0
103.0541	8.7
107.0854	7.0
131.0488	100.0
132.0522	8.6
133.1008	5.3
135.0437	12.3
149.0594	2.8
152.1066	2.6
161.0593	54.8
162.0626	5.4
167.1300	13.0
174.9919	2.5
187.0747	2.9
199.1116	2.0
227.1059	5.2
229.1216	10.0
255.1009	3.5
327.0763	2.0
328.1895	65.3
329.1930	14.3
330.2059	8.8
330.2772	2.1

Name: 9-(2-Deoxy-5-O-Phosphono-Alpha-D-Threo-Pentofuranosyl)-9h-Purin-6-Amine
PrecursorMZ: 332.07363
RT: 6.1472
ExactMass: 331.06817018
Spectrum_type: 2
charge: 1
Formula: C10H14N5O6P
SMILES: C1[C@H]([C@H](O[C@@H]1N2C=NC3=C(N=CN=C32)N)COP(=O)(O)O)O
Method: HCD
Collision_energy: [28.333334]
Isolation_window: 4.0
Ion_mode: P
Num Peaks: 7
108.0444	8.2
126.0549	9.3
331.1282	10.3
332.0735	100.0
332.1128	13.7
333.0772	14.8
333.1429	11.8

Name: 9-Octadecenoic acid (9Z)-,3-(((2-aminoethoxy)hydroxyphosphinyl)oxy)-2-hydroxypropyl ester, (R)-
PrecursorMZ: 480.30798
RT: 4.896
ExactMass: 479.3011898
Spectrum_type: 2
charge: 1
Formula: C23H46NO7P
SMILES: CCCCCCCC/C=C/CCCCCCCC(=O)OC[C@H](COP(=O)([O-])OCC[NH3+])O
Method: HCD
Collision_energy: [28.333334]
Isolation_window: 4.0
Ion_mode: P
Num Peaks: 106
55.0542	3.8
57.0699	5.4
62.0600	50.3
62.0618	7.6
67.0541	12.3
69.0697	14.9
71.0854	5.2
79.0540	3.0
81.0696	17.0
83.0853	13.3
85.0649	3.5
93.0695	6.1
95.0856	23.0
97.0649	3.1
97.1013	9.3
97.4570	5.5
98.9843	3.7
99.0804	3.5
105.0693	3.5
107.0856	6.6
109.1012	12.3
111.0804	3.9
119.0854	5.4
121.1011	13.1
123.0805	3.8
123.1167	5.0
125.0954	2.6
131.0855	3.3
133.1011	5.7
135.1167	7.4
137.0961	4.2
137.1317	2.6
145.1011	5.8
147.1166	3.2
149.1324	4.1
155.0103	11.5
157.1010	4.0
159.1167	5.4
161.0953	2.7
161.1322	6.5
165.0909	3.6
171.1165	4.3
173.1321	5.2
184.0727	3.1
187.1479	6.0
213.1262	2.9
213.1631	2.6
216.0628	4.3
225.1273	2.9
227.1426	3.1
233.1530	3.2
237.1632	3.6
243.1374	4.1
245.1535	3.1
251.1788	2.6
259.1686	3.3
265.2518	2.9
269.1895	4.8
281.1893	2.8
287.2002	3.1
297.1844	3.6
297.2209	3.6
303.1581	3.2
305.2104	4.7
306.2781	2.6
308.2941	10.1
309.1845	6.0
310.3094	2.8
313.2731	2.8
315.2311	14.8
323.1997	2.9
325.2164	3.1
327.1948	5.5
337.2730	25.9
338.2764	17.2
339.2336	3.9
339.2887	100.0
340.2922	20.1
341.3047	22.3
345.2050	3.0
349.2159	3.2
351.1952	4.4
357.2419	4.6
367.2260	4.3
369.2053	9.5
375.2523	13.8
385.2365	6.5
387.2155	7.0
403.2472	5.0
409.2357	3.0
419.2548	6.5
427.2473	5.4
445.2581	10.9
460.2828	4.5
461.2865	5.6
462.2967	18.5
463.2686	4.6
463.3010	6.7
464.3131	4.4
478.2910	5.6
479.2970	10.3
480.3075	22.5
481.1660	3.0
481.2799	10.4
481.3113	5.7
482.3229	6.8

Name: 9-Oxo-10,12,15-octadecatrienoic acid
PrecursorMZ: 293.21074
RT: 4.9087
ExactMass: 292.20384475
Spectrum_type: 2
charge: 1
Formula: C18H28O3
SMILES: CC/C=C/C/C=C/C=C/C(=O)CCCCCCCC(=O)O
Method: HCD
Collision_energy: [28.333334]
Isolation_window: 4.0
Ion_mode: P
Num Peaks: 123
55.0182	4.3
55.0546	6.0
57.0338	6.1
67.0546	20.5
69.0338	3.9
69.0702	17.5
71.0494	7.4
71.0858	7.2
79.0545	16.1
81.0337	5.5
81.0701	33.3
82.0734	3.1
83.0494	6.0
83.0857	13.4
85.0649	8.6
91.0544	13.3
93.0700	25.1
95.0492	16.5
95.0856	40.0
96.0890	4.5
97.0649	11.7
97.1012	9.5
97.4321	2.9
98.0601	7.5
99.0805	17.3
100.0757	40.1
101.0598	3.1
103.0390	8.7
105.0699	18.2
106.0733	2.5
107.0492	5.7
107.0855	28.9
108.0889	2.6
109.0649	12.1
109.1012	21.8
110.0682	2.6
111.0441	5.9
111.0804	8.3
113.0597	2.8
117.0699	8.3
119.0855	21.8
120.0890	4.1
121.0647	6.3
121.1011	16.7
122.1044	3.5
123.0803	15.9
123.1168	5.2
124.0837	2.8
125.0960	13.4
126.0549	6.9
126.0911	2.7
127.0750	4.6
131.0854	11.6
133.0646	43.6
133.1010	22.6
134.0679	3.3
134.1043	2.9
135.0803	7.8
135.1167	12.0
137.0959	13.3
139.1116	5.1
143.0854	3.4
145.1010	13.9
147.0803	6.4
147.1167	14.3
149.0958	12.6
149.1325	6.7
150.0994	2.9
151.1115	35.3
153.0909	3.6
157.1009	4.8
159.1165	11.2
161.0959	3.4
161.1323	6.2
163.1115	10.5
165.0910	2.6
165.1271	4.3
167.1064	3.8
168.1018	3.8
169.1009	2.8
171.1168	4.0
173.1322	7.5
175.0750	17.0
175.1111	4.3
176.0787	2.5
177.1271	10.3
183.1168	4.3
185.0807	3.7
185.1321	4.9
187.1114	4.3
189.1120	4.1
189.1273	2.6
191.1425	2.6
203.1427	3.1
205.1220	2.5
219.1738	6.6
221.1535	2.6
223.1326	2.7
229.1947	4.3
239.1792	7.2
247.2050	3.8
257.1895	14.4
258.1937	2.7
274.1879	8.2
275.2000	79.5
276.1594	2.5
276.2036	13.6
277.2159	8.9
292.1152	3.9
292.1533	8.5
292.1984	30.2
293.1116	5.2
293.1477	4.4
293.1738	2.7
293.2106	100.0
293.2235	2.9
294.1316	4.1
294.1689	6.8
294.2143	19.3
295.0709	3.6
295.1284	4.7
295.1514	3.6
295.2272	4.0

Name: 9-Oxononadeca-10,12-dienoic acid
PrecursorMZ: 309.24183
RT: 1.0063
ExactMass: 308.23514488
Spectrum_type: 2
charge: 1
Formula: C19H32O3
SMILES: CCCCCCC=CC=CC(=O)CCCCCCCC(=O)O
Method: HCD
Collision_energy: [28.333334]
Isolation_window: 4.0
Ion_mode: P
Num Peaks: 74
55.0545	3.2
57.0703	3.4
67.0546	19.4
69.0702	14.3
71.0858	52.2
79.0545	16.4
81.0337	5.2
81.0701	31.1
83.0494	6.6
83.0858	10.0
85.0650	2.9
91.0543	10.0
93.0700	34.3
95.0493	7.9
95.0856	25.5
97.0649	4.3
97.1012	6.2
99.0805	49.0
100.0838	2.5
105.0699	8.7
107.0492	3.5
107.0856	24.2
109.0646	3.1
109.1012	15.6
111.0806	2.9
113.0961	2.4
117.0698	2.9
119.0854	10.6
121.1011	25.7
123.1168	5.2
125.0960	6.0
131.0854	4.3
133.1010	9.4
135.0803	3.2
135.1167	34.5
136.1198	3.3
137.0960	3.5
137.1321	2.6
139.1116	2.4
141.0907	3.1
145.1009	4.0
147.1166	10.0
149.1324	10.6
151.1116	24.5
152.1148	2.5
153.1271	4.6
159.1168	3.7
161.1324	13.8
163.1117	7.1
163.1480	4.2
165.1273	4.2
167.1067	2.4
171.1165	3.4
173.1318	2.9
175.1481	4.1
177.1270	4.6
179.1428	83.6
180.1461	10.6
185.1318	2.5
189.1273	3.2
203.1276	5.2
221.1534	2.7
235.1689	3.0
241.1945	4.7
259.2053	6.4
261.2212	3.8
277.2157	100.0
278.2189	20.6
279.2319	12.4
308.2941	9.3
309.2417	14.8
309.2976	2.3
310.2454	3.0
311.2571	3.9

Name: 9H-pyrido(3,4-b)indol-2-ium
PrecursorMZ: 169.07593
RT: 4.3862
ExactMass: 169.076573296
Spectrum_type: 2
charge: 1
Formula: C11H9N2+
SMILES: C1=CC=C2C(=C1)C3=C(N2)C=[NH+]C=C3
Method: HCD
Collision_energy: [28.333334]
Isolation_window: 4.0
Ion_mode: P
Num Peaks: 11
109.0647	3.6
114.0547	2.2
123.0109	3.5
123.0803	2.2
130.0409	7.1
168.0689	24.5
168.1016	3.1
169.0758	100.0
170.0712	3.7
170.0792	11.9
171.0913	4.4

Name: Ac-Val-Val-Pro-Gln-OH
PrecursorMZ: 484.27638
RT: 4.3075
ExactMass: 483.26929854
Spectrum_type: 2
charge: 1
Formula: C22H37N5O7
SMILES: CC(C)[C@@H](C(=O)N[C@@H](C(C)C)C(=O)N1CCC[C@H]1C(=O)N[C@@H](CCC(=O)N)C(=O)O)NC(=O)C
Method: HCD
Collision_energy: [28.333334]
Isolation_window: 4.0
Ion_mode: P
Num Peaks: 29
72.0812	17.0
83.0607	4.8
84.0447	48.4
86.0968	20.7
87.0444	3.2
89.0600	9.1
97.3995	4.1
101.0711	100.0
102.0746	4.8
129.0658	7.6
133.0860	5.1
146.1176	28.9
183.1128	57.8
184.1162	4.0
197.1284	27.5
211.1077	20.6
225.1230	4.7
228.1340	5.4
256.1655	22.8
257.1494	24.3
274.1761	14.1
311.1717	4.5
339.1661	84.1
340.1693	13.9
424.2555	3.0
452.2491	7.4
484.2761	8.2
485.2781	3.5
486.2137	11.6

Name: Acetamidomalonic acid diethyl ester
PrecursorMZ: 218.10218
RT: 4.671
ExactMass: 217.09502258
Spectrum_type: 2
charge: 1
Formula: C9H15NO5
SMILES: CCOC(=O)C(C(=O)OCC)NC(=O)C
Method: HCD
Collision_energy: [28.333334]
Isolation_window: 4.0
Ion_mode: P
Num Peaks: 22
57.0339	2.8
72.0811	2.9
84.0446	24.9
85.0479	1.0
102.0550	14.4
116.0706	3.9
144.0654	100.0
145.0687	6.8
158.0811	5.0
162.0759	17.5
163.0794	1.1
186.0758	2.3
200.0915	1.3
209.0918	3.6
217.0960	1.1
218.0810	5.4
218.1014	1.7
218.1174	1.0
219.0761	1.7
219.1122	1.1
220.0965	1.0
237.0864	1.4

Name: Acetyl-L-leucyl-L-leucine
PrecursorMZ: 287.19632
RT: 2.7235
ExactMass: 286.18925731
Spectrum_type: 2
charge: 1
Formula: C14H26N2O4
SMILES: CC(C)C[C@@H](C(=O)N[C@@H](CC(C)C)C(=O)O)NC(=O)C
Method: HCD
Collision_energy: [28.333334]
Isolation_window: 4.0
Ion_mode: P
Num Peaks: 15
86.0967	50.7
122.0236	9.5
128.1070	54.6
131.0490	13.7
132.1019	28.8
156.1016	14.4
270.0757	100.0
271.0796	17.6
287.0682	10.3
287.1018	16.1
287.1381	15.6
287.1598	8.4
288.0863	50.9
288.1202	11.7
288.1450	9.0

Name: Acetyl-L-methionine sulfoxide
PrecursorMZ: 208.06366
RT: 5.8261
ExactMass: 207.05652907
Spectrum_type: 2
charge: 1
Formula: C7H13NO4S
SMILES: CC(=O)N[C@@H](CCS(=O)C)C(=O)O
Method: HCD
Collision_energy: [28.333334]
Isolation_window: 4.0
Ion_mode: P
Num Peaks: 39
56.0499	6.4
70.0655	1.2
74.0240	5.1
74.0603	0.6
75.0266	2.6
81.0337	4.9
84.0446	0.6
89.0599	0.7
95.0605	1.6
96.0445	0.6
98.0602	30.1
99.0635	1.6
102.0550	3.4
123.0552	1.0
131.0160	0.5
144.0537	0.6
144.0654	100.0
144.0747	0.5
144.0772	0.8
145.0686	6.5
148.0425	0.6
149.0265	1.5
163.1116	0.6
166.0531	9.0
181.0969	1.4
189.0656	2.0
190.0531	1.8
207.0760	1.5
207.1124	2.3
208.0635	2.5
208.0966	3.3
208.1330	1.7
209.0473	2.7
209.0917	6.1
209.1176	0.8
209.1280	10.0
209.2008	0.5
210.0757	0.9
210.1121	2.0

Name: Adenosine, 5'-deoxy-5'-(methylsulfinyl)-, (R)-
PrecursorMZ: 314.09132
RT: 6.3657
ExactMass: 313.08447515
Spectrum_type: 2
charge: 1
Formula: C11H15N5O4S
SMILES: C[S@@](=O)C[C@@H]1[C@H]([C@H]([C@@H](O1)N2C=NC3=C(N=CN=C32)N)O)O
Method: HCD
Collision_energy: [28.333334]
Isolation_window: 4.0
Ion_mode: P
Num Peaks: 167
55.0546	1.3
57.0339	1.7
57.0703	4.2
59.0495	1.6
61.0110	1.2
67.0546	1.3
69.0091	0.7
69.0116	0.7
69.0338	0.8
69.0702	1.4
69.8274	0.6
70.0654	1.4
71.0494	0.5
71.0858	3.9
72.0811	1.1
81.0338	1.0
81.0701	1.8
83.0494	4.3
83.0858	1.7
84.0446	1.7
84.0810	0.6
85.1014	2.7
86.0966	0.8
87.0442	0.5
89.0600	0.6
93.0700	0.7
95.0493	0.5
95.0857	2.9
97.0285	52.6
97.1013	0.8
97.4571	0.9
98.0319	2.5
100.0757	1.0
101.0598	16.2
102.0550	0.9
102.0631	0.9
103.0755	0.6
105.0701	0.6
107.0491	1.0
107.0855	0.6
108.0444	0.6
109.1012	1.3
110.0601	0.6
111.0440	0.5
114.0550	0.7
114.0663	0.5
114.0913	0.6
116.0706	1.0
119.0161	0.5
122.0837	1.2
123.1166	0.6
125.0708	0.7
126.0548	0.8
126.0912	0.6
127.0501	1.1
130.0497	0.5
136.0507	0.7
136.0533	0.6
136.0575	1.3
136.0616	100.0
136.0726	0.5
136.0757	0.5
137.0588	2.0
137.0649	5.0
138.0547	7.6
142.0498	0.7
143.0160	4.2
146.0921	0.7
148.0617	0.5
149.0596	0.8
152.0704	0.9
154.0860	0.8
156.0651	0.7
161.0266	2.1
162.0773	0.8
162.0913	0.7
164.0565	6.4
166.0860	0.5
172.0601	0.8
172.0867	0.5
176.0565	0.5
178.0721	3.6
179.0370	2.8
180.1018	0.6
184.0601	9.4
185.0633	0.9
188.0706	0.6
190.0863	0.8
192.1016	2.4
199.0863	1.0
208.0965	4.5
210.1119	0.7
213.1382	21.6
214.0859	1.5
214.1417	3.3
216.1021	0.5
217.0967	4.5
218.0809	3.0
220.0824	0.6
220.1328	2.3
232.0826	0.7
232.0966	0.9
234.1118	0.6
235.1073	2.9
236.0914	12.0
237.0946	1.5
248.0774	1.2
249.0906	0.6
249.1229	0.8
250.0931	0.8
250.1070	2.0
253.1178	4.6
254.1213	0.6
257.2470	0.5
260.0912	6.2
261.0945	1.1
267.0969	4.5
268.1004	0.6
269.1486	0.5
277.1178	1.7
278.0702	1.0
278.1018	8.7
279.1053	1.6
294.1087	0.6
295.0922	0.7
295.1283	0.7
295.1652	0.7
296.0805	5.7
296.1121	1.4
296.1478	0.6
297.0845	0.8
297.1440	0.9
312.1198	0.5
312.1415	1.0
312.1573	1.3
312.1792	0.5
313.1022	5.3
313.1181	2.8
313.1389	3.5
313.1538	1.5
313.1607	1.0
313.1758	2.1
313.1905	42.7
313.2112	1.3
313.2729	13.2
314.0909	30.7
314.1212	2.9
314.1378	3.7
314.1585	1.1
314.1728	1.5
314.1936	11.6
314.2765	2.6
315.0637	7.1
315.0945	3.9
315.1338	2.2
315.1543	1.7
315.1700	3.5
315.1926	3.7
315.2266	0.8
315.2303	0.5
316.0680	0.7
316.0855	1.0
316.0960	0.5
316.1173	1.6
316.1374	1.0
316.1505	0.9
316.1536	0.9

Name: Ala-Leu-Glu
PrecursorMZ: 332.18127
RT: 6.7637
ExactMass: 331.17433553
Spectrum_type: 2
charge: 1
Formula: C14H25N3O6
SMILES: C[C@@H](C(=O)N[C@@H](CC(C)C)C(=O)N[C@@H](CCC(=O)O)C(=O)O)N
Method: HCD
Collision_energy: [28.333334]
Isolation_window: 4.0
Ion_mode: P
Num Peaks: 60
72.0812	3.9
84.0447	6.5
84.0811	3.5
86.0968	100.0
87.1001	4.2
90.0553	4.8
96.0446	2.8
100.0760	3.1
100.1123	4.9
101.0599	4.8
102.0552	9.0
130.0500	5.5
132.1019	33.4
133.1053	2.8
138.0913	2.7
141.0660	3.9
148.0604	29.9
155.0816	13.9
157.1336	41.0
158.1369	2.8
169.0972	3.2
170.1177	2.7
173.0920	6.6
173.1281	3.0
174.1125	14.3
183.0768	5.8
185.1284	33.8
186.1319	2.8
197.1283	4.8
200.1025	3.2
201.0870	8.0
201.1231	5.9
203.1390	3.6
215.1392	6.5
219.0975	11.4
243.1338	5.5
261.1446	2.8
271.1440	3.2
287.1601	8.7
298.1760	11.3
299.1799	3.7
314.1709	10.5
315.1335	3.9
330.1537	3.2
330.2020	18.0
331.1298	11.7
331.1646	5.5
331.1857	15.9
331.2029	6.1
332.1127	9.9
332.1322	5.6
332.1486	7.0
332.1810	13.0
333.1440	21.8
333.1807	10.6
334.1281	10.4
334.1435	4.6
334.1641	8.3
334.2146	3.3
334.2739	2.9

Name: Ala-Lys
PrecursorMZ: 218.14979
RT: 5.617
ExactMass: 217.14264148
Spectrum_type: 2
charge: 1
Formula: C9H19N3O3
SMILES: C[C@@H](C(=O)N[C@@H](CCCCN)C(=O)O)N
Method: HCD
Collision_energy: [28.333334]
Isolation_window: 4.0
Ion_mode: P
Num Peaks: 19
60.0559	2.5
69.6405	2.9
70.0655	3.6
84.0810	100.0
85.0843	5.1
90.0551	3.7
101.1075	2.9
129.1022	12.5
130.0861	31.4
147.1127	7.8
175.1188	14.4
201.1230	9.6
217.1176	3.1
217.1323	2.4
218.0923	3.0
218.1250	5.0
218.1492	13.6
219.1126	3.9
219.1336	9.9

Name: Ala-Met(O)
PrecursorMZ: 237.09063
RT: 7.9253
ExactMass: 236.08307817
Spectrum_type: 2
charge: 1
Formula: C8H16N2O4S
SMILES: CC(C(=O)NC(CCS(=O)C)C(=O)O)N
Method: HCD
Collision_energy: [28.333334]
Isolation_window: 4.0
Ion_mode: P
Num Peaks: 59
55.0547	6.9
56.0500	2.3
59.0496	4.4
74.0240	9.8
75.0267	5.7
76.0397	2.8
80.0499	22.0
81.0338	1.6
83.0495	8.8
84.0448	2.7
87.0444	1.3
101.0599	49.8
102.0552	1.6
102.0634	2.1
110.0603	8.2
124.0394	1.9
127.0868	1.5
130.0500	28.3
134.0599	2.0
134.0966	3.0
136.1122	6.9
137.1074	60.4
138.0550	12.8
138.1106	3.6
144.0656	1.3
146.0600	3.5
149.0268	3.5
155.0819	1.6
163.0993	1.3
166.0534	51.1
167.0571	2.0
173.0922	56.2
174.0956	3.6
191.0814	1.4
191.1178	5.5
202.0534	1.8
218.0923	4.0
219.0779	1.3
220.1079	5.4
220.1444	2.1
235.1078	4.7
235.1439	5.8
236.0918	13.4
236.1031	5.9
236.1282	24.7
236.1480	2.1
236.1645	18.6
237.0897	17.7
237.1232	49.2
237.1333	3.5
237.1596	100.0
238.0929	3.0
238.1071	11.5
238.1186	15.6
238.1271	2.4
238.1437	5.6
238.1634	13.5
239.1021	3.4
239.1390	3.5

Name: Alanyl-homoarginine
PrecursorMZ: 260.17159
RT: 10.3294
ExactMass: 259.16443955
Spectrum_type: 2
charge: 1
Formula: C10H21N5O3
SMILES: C[C@@H](C(=O)N[C@@H](CCCCN=C(N)N)C(=O)O)N
Method: HCD
Collision_energy: [28.333334]
Isolation_window: 4.0
Ion_mode: P
Num Peaks: 47
60.0561	12.4
70.0656	15.8
72.0812	2.7
84.0812	17.9
100.0760	3.0
114.0664	14.4
114.0916	12.9
116.0708	9.8
121.0888	3.4
126.1027	3.7
129.1024	6.2
130.0864	11.9
144.0769	39.1
145.0803	3.0
154.0864	4.5
158.0927	3.3
171.1127	4.1
172.1081	14.3
175.1191	4.9
189.1347	28.3
196.0969	3.1
200.1391	3.0
201.1235	5.8
212.0918	4.6
225.1345	4.0
242.1024	6.2
242.1389	7.1
243.1449	7.8
258.2180	3.5
259.1284	4.8
259.1403	23.8
259.1641	3.6
260.1128	23.8
260.1278	11.2
260.1502	57.6
260.1717	100.0
260.1961	15.8
261.1230	11.0
261.1556	7.3
261.1747	9.8
262.1074	6.1
262.1184	40.6
262.1281	5.9
262.1441	16.1
262.1516	17.8
262.1652	4.6
262.1765	2.9

Name: Alanylarginine
PrecursorMZ: 246.1555
RT: 10.48685
ExactMass: 245.14878949
Spectrum_type: 2
charge: 1
Formula: C9H19N5O3
SMILES: CC(C(=O)NC(CCCN=C(N)N)C(=O)O)N
Method: HCD
Collision_energy: [28.333334]
Isolation_window: 4.0
Ion_mode: P
Num Peaks: 67
60.0560	9.8
70.0653	52.0
72.0810	4.3
84.0809	16.0
86.0713	1.5
87.0554	3.7
90.0550	5.1
100.0757	3.2
112.0868	6.5
113.0708	2.6
114.0661	16.3
114.1025	1.5
115.0500	4.8
115.0864	14.8
116.0704	42.9
117.0737	1.6
128.0816	4.5
129.1020	4.1
130.0859	2.5
130.0972	1.5
132.0764	22.5
133.0968	12.4
140.1066	1.8
147.1122	1.9
154.0860	2.3
157.1080	1.9
158.0920	23.9
159.0761	13.6
175.1185	39.9
176.1219	2.2
185.1280	2.2
186.1233	3.4
187.1071	7.5
202.1179	10.9
211.1181	3.4
211.1436	1.6
212.1023	1.5
228.1225	2.2
229.1287	14.4
230.1019	2.0
230.1130	2.1
230.1386	2.0
244.1649	6.6
244.1762	1.9
245.1004	2.8
245.1277	6.3
245.1680	2.5
246.1121	4.1
246.1228	2.6
246.1333	8.8
246.1461	3.1
246.1555	100.0
246.1688	4.3
246.1805	3.9
247.1069	2.7
247.1284	4.6
247.1393	70.3
247.1434	17.0
247.1589	7.7
247.1653	2.8
248.1120	3.7
248.1273	18.1
248.1396	5.2
248.1419	3.9
248.1486	4.0
248.1610	1.7
248.1746	7.5

Name: Alanylleucine zwitterion
PrecursorMZ: 203.13902
RT: 1.9541600000000001
ExactMass: 202.13174244
Spectrum_type: 2
charge: 1
Formula: C9H18N2O3
SMILES: C[C@@H](C(=O)N[C@@H](CC(C)C)C(=O)[O-])[NH3+]
Method: HCD
Collision_energy: [28.333334]
Isolation_window: 4.0
Ion_mode: P
Num Peaks: 15
72.0812	57.8
73.0845	2.2
86.0968	18.0
132.1020	100.0
133.1052	6.7
143.1179	25.1
144.1212	1.9
146.1176	11.4
147.1207	1.3
171.1128	2.2
202.0976	1.9
202.1074	1.1
203.1182	1.2
203.1389	6.5
204.1221	1.2

Name: Amino-PEG12-CH2COOH
PrecursorMZ: 604.35299
RT: 2.1944
ExactMass: 603.34660536
Spectrum_type: 2
charge: 1
Formula: C26H53NO14
SMILES: C(COCCOCCOCCOCCOCCOCCOCCOCCOCCOCCOCCOCC(=O)O)N
Method: HCD
Collision_energy: [28.333334]
Isolation_window: 4.0
Ion_mode: P
Num Peaks: 19
69.0338	18.9
69.4528	6.3
83.0494	7.6
87.0443	37.1
89.0599	100.0
99.0441	28.7
111.0441	17.9
125.0597	7.8
133.0858	50.4
155.0702	16.7
173.0808	6.7
177.1119	12.0
587.3266	71.6
588.3303	20.6
603.4756	6.6
604.3458	6.1
604.3859	66.9
605.3879	23.3
606.3831	6.6

Name: Amiocaproic acid
PrecursorMZ: 114.09147
RT: 6.2282
ExactMass: 130.086803626
Spectrum_type: 2
charge: 1
Formula: C6H12NO2-
SMILES: C(CCC(=O)[O-])CCN
Method: HCD
Collision_energy: [28.333334]
Isolation_window: 4.0
Ion_mode: P
Num Peaks: 20
57.0451	1.2
58.0655	14.5
59.0495	1.0
68.0499	1.5
69.0702	5.6
70.0655	3.3
79.0545	7.2
86.0602	2.1
96.0809	6.0
97.0649	2.2
98.0964	3.7
112.0506	1.0
112.9998	8.4
113.0597	2.0
114.0546	1.0
114.0662	3.7
114.0913	100.0
115.0542	1.1
115.0947	6.5
116.1069	25.8

Name: Asn-Leu-Leu
PrecursorMZ: 359.22831
RT: 4.8223
ExactMass: 358.22162007
Spectrum_type: 2
charge: 1
Formula: C16H30N4O5
SMILES: CC(C)C[C@@H](C(=O)N[C@@H](CC(C)C)C(=O)O)NC(=O)[C@H](CC(=O)N)N
Method: HCD
Collision_energy: [28.333334]
Isolation_window: 4.0
Ion_mode: P
Num Peaks: 42
69.0701	4.1
69.6490	1.6
81.0700	1.9
83.0857	2.1
86.0966	84.0
87.0553	4.6
87.0999	4.2
88.0394	2.5
89.0598	2.6
95.0856	1.7
98.0236	2.7
115.0501	1.6
132.1016	8.5
133.0605	1.8
138.0910	2.7
141.1019	14.4
155.1176	23.6
156.1208	1.9
166.0861	3.0
183.1123	23.5
184.1160	1.6
199.1800	2.0
200.1388	100.0
201.1425	7.4
216.1222	1.8
227.1749	1.9
228.1336	57.1
229.1376	4.9
245.1856	3.5
255.1695	2.6
279.1693	1.4
283.1638	2.1
325.1748	3.8
341.2496	4.7
342.2017	3.0
343.2648	1.5
359.1352	7.9
359.1586	2.5
359.2282	5.1
360.1412	1.9
361.1369	2.3
361.1717	2.0

Name: Asn-Met(O)
PrecursorMZ: 280.09579
RT: 7.2065
ExactMass: 279.08889182
Spectrum_type: 2
charge: 1
Formula: C9H17N3O5S
SMILES: CS(=O)CCC(C(=O)O)NC(=O)C(CC(=O)N)N
Method: HCD
Collision_energy: [28.333334]
Isolation_window: 4.0
Ion_mode: P
Num Peaks: 43
56.0499	17.7
72.0811	5.7
74.0240	11.2
75.0266	6.5
86.0602	11.7
87.0554	11.3
101.0234	6.2
118.0863	5.0
130.0862	5.3
136.0390	7.9
149.0228	13.2
154.0497	34.8
157.0607	22.7
164.0341	6.1
166.0531	36.9
171.0762	16.9
176.0373	4.8
181.0605	15.0
182.0445	100.0
183.0482	7.9
199.0710	28.2
216.0972	8.1
216.1227	9.3
221.0587	16.9
244.1177	8.6
245.0586	6.1
246.0426	38.5
262.0850	6.4
262.1279	17.2
263.0691	34.1
278.1230	7.6
278.1368	5.8
279.0931	5.4
279.1326	11.8
280.0959	45.9
280.1174	26.5
280.1402	7.9
281.0986	4.8
281.1116	12.7
281.1490	6.9
282.0966	12.2
282.1329	22.2
282.1686	5.6

Name: Asparagylisoleucine
PrecursorMZ: 246.14461
RT: 5.608475
ExactMass: 245.1375561
Spectrum_type: 2
charge: 1
Formula: C10H19N3O4
SMILES: CCC(C)C(C(=O)O)NC(=O)C(CC(=O)N)N
Method: HCD
Collision_energy: [28.333334]
Isolation_window: 4.0
Ion_mode: P
Num Peaks: 56
69.0702	12.5
70.0655	13.3
72.0811	21.3
84.0446	6.7
84.0810	10.7
86.0967	70.0
87.0555	48.7
95.0604	7.0
96.0444	6.3
98.0237	8.6
100.0758	10.4
102.0549	5.8
110.0236	9.4
111.0441	9.8
112.0758	17.6
116.0706	14.7
127.0865	5.8
128.0706	10.2
130.0498	7.9
132.1018	21.1
141.1021	54.6
148.0604	8.8
155.1176	7.0
166.0861	73.1
173.0919	12.1
174.1025	53.1
175.1057	6.1
178.0496	5.9
183.1126	13.4
187.1075	62.8
188.1110	5.8
200.0815	15.9
200.1278	14.2
200.1389	29.8
202.0973	19.3
212.0915	100.0
213.0947	10.7
227.0844	20.6
228.0764	6.1
228.0864	10.8
228.1224	11.0
229.1179	55.8
230.1215	7.6
245.0932	10.9
245.1127	15.6
245.1280	18.6
245.1485	10.2
246.0869	89.8
246.1121	37.9
246.1330	21.2
246.1453	17.1
247.0918	9.8
247.1067	16.4
247.1441	27.5
248.0912	7.6
248.1028	5.8

Name: Azetidine
PrecursorMZ: 99.09186
RT: 0.598
ExactMass: 57.057849228
Spectrum_type: 2
charge: 1
Formula: C3H7N
SMILES: C1CNC1
Method: HCD
Collision_energy: [28.333334]
Isolation_window: 4.0
Ion_mode: P
Num Peaks: 17
56.0499	4.4
56.9651	4.3
58.0655	5.6
70.0655	18.4
71.0607	5.3
72.0811	7.9
81.0449	3.6
97.0649	4.6
97.0761	7.4
98.0713	6.8
98.0964	6.4
99.0441	5.0
99.0554	6.8
99.0918	100.0
100.0757	24.7
100.0951	5.0
100.1122	15.0

Name: Bis(2-hydroxyethyl)-(hydroxymethyl)azanium
PrecursorMZ: 136.09692
RT: 11.1463
ExactMass: 136.09736831
Spectrum_type: 2
charge: 1
Formula: C5H14NO3+
SMILES: C(CO)[NH+](CCO)CO
Method: HCD
Collision_energy: [28.333334]
Isolation_window: 4.0
Ion_mode: P
Num Peaks: 29
56.0499	1.6
70.0656	1.9
74.0605	12.7
80.0499	1.2
88.0760	3.6
96.9955	1.2
100.0760	3.5
107.0732	6.9
118.0864	7.9
120.0478	3.0
120.0810	9.3
125.0711	0.9
134.0812	0.8
134.0965	5.4
135.0150	1.3
135.0918	22.3
135.0992	1.7
136.0217	1.6
136.0619	0.9
136.0758	3.9
136.0872	1.0
136.0969	18.5
136.1119	1.6
137.0710	2.3
137.1003	1.3
137.1075	3.5
138.0550	1.5
138.0914	100.0
138.1026	2.4

Name: Boc-DL-Asp-DL-Phe-Gly-Ph
PrecursorMZ: 498.22324
RT: 5.2652
ExactMass: 497.21620034
Spectrum_type: 2
charge: 1
Formula: C26H31N3O7
SMILES: CC(C)(C)OC(=O)NC(CC(=O)O)C(=O)NC(CC1=CC=CC=C1)C(=O)NCC(=O)C2=CC=CC=C2
Method: HCD
Collision_energy: [28.333334]
Isolation_window: 4.0
Ion_mode: P
Num Peaks: 22
70.0655	22.3
72.0810	17.7
84.0446	11.2
84.0810	11.9
86.0966	36.4
116.0706	23.7
130.0498	9.1
148.0602	8.7
148.0754	11.1
166.0861	34.6
194.0809	13.1
244.1199	9.2
245.1278	17.7
257.1279	26.1
287.1384	69.1
288.1418	8.7
303.1334	37.9
305.1490	100.0
306.1523	13.4
323.1718	9.9
375.1551	12.1
498.2217	22.8

Name: Brl 36378
PrecursorMZ: 455.21375
RT: 0.6887
ExactMass: 432.22603674
Spectrum_type: 2
charge: 1
Formula: C23H32N2O6
SMILES: CCOC(=O)C(CCCC1CC2=CC=CC=C2O1)N[C@@H](C)C(=O)N3CCC[C@H]3C(=O)O
Method: HCD
Collision_energy: [28.333334]
Isolation_window: 4.0
Ion_mode: P
Num Peaks: 128
67.0548	9.3
69.0703	8.8
70.0656	57.5
71.0498	8.8
72.0813	33.4
79.0547	8.0
81.0339	25.3
81.0703	14.1
82.0657	7.4
83.0494	9.3
83.0859	13.5
84.0448	18.0
84.0812	73.5
85.0289	8.2
86.0607	8.7
86.0969	40.3
87.0446	7.5
93.0702	14.0
95.0494	10.8
95.0859	12.3
96.0448	11.8
97.0649	12.4
98.0606	7.5
98.0969	7.3
99.0445	10.1
101.0600	10.9
102.0551	18.9
105.0701	8.9
107.0495	12.9
107.0859	15.3
109.0653	8.3
110.0717	20.2
111.0444	19.6
112.0762	7.7
114.0553	9.9
116.0709	100.0
119.0858	9.8
120.0812	19.2
121.0650	14.3
121.1016	11.2
123.0807	8.3
125.0600	10.3
126.0914	17.9
128.0710	23.8
130.0502	13.4
130.0865	23.7
131.0862	7.8
133.1017	7.5
135.0806	12.3
136.0761	15.2
137.0598	10.0
140.0708	7.4
141.0664	9.7
142.0503	11.1
145.1014	8.4
147.0786	9.7
147.1155	8.0
148.0755	8.9
149.0601	8.3
149.0965	14.1
151.0755	7.3
152.0707	10.3
156.0767	15.8
157.1013	7.8
164.0699	9.4
166.0521	9.5
166.0864	26.4
168.0769	7.4
168.1021	8.4
173.0943	7.5
178.0867	7.9
180.1014	20.7
182.0801	10.2
183.1166	8.1
189.1268	7.9
192.0648	9.1
194.0818	7.6
195.0773	28.7
195.1151	8.4
196.0727	10.4
199.1103	8.1
201.1271	10.9
213.1244	16.1
215.1396	11.0
217.1217	11.5
219.1378	9.6
223.0716	71.1
225.1248	10.9
241.0819	10.0
243.1380	7.3
291.1436	7.6
294.1465	11.7
322.1406	29.8
340.1515	11.3
344.1712	8.6
345.1808	55.9
346.1840	11.9
419.2441	8.1
437.2006	12.4
437.2552	13.3
446.3253	12.0
454.1610	10.0
455.2127	15.0
457.1617	11.0
458.1922	14.3
459.1847	10.6
459.2874	65.3
460.1787	39.4
460.2917	16.6
461.1962	16.9
461.2979	10.5
462.1905	11.1
463.1645	8.3
463.2310	9.3
464.2136	16.6
465.1962	19.4
466.2406	9.3
467.2077	17.5
468.1903	9.5
468.2578	7.4
469.1880	12.2
470.1959	9.4
470.2678	74.4
471.1743	7.4
471.2034	8.0
471.2693	24.6
472.1740	11.2
472.2599	10.2

Name: Butyl(diethyl)azanium
PrecursorMZ: 130.159
RT: 7.375
ExactMass: 130.159574642
Spectrum_type: 2
charge: 1
Formula: C8H20N+
SMILES: CCCC[NH+](CC)CC
Method: HCD
Collision_energy: [28.333334]
Isolation_window: 4.0
Ion_mode: P
Num Peaks: 21
57.0703	16.4
60.0560	8.3
68.0498	5.1
69.0702	9.1
70.0198	2.2
72.0811	21.6
74.0967	22.2
84.0446	2.4
84.0810	2.8
86.0966	100.0
88.1123	5.6
103.0543	5.6
112.1120	2.4
129.1385	26.0
130.0410	8.8
130.0650	16.8
130.1419	3.0
130.1589	77.8
131.1622	7.7
132.0805	4.1
132.1018	6.6

PrecursorMZ: 160.10803
RT: 9.5273
Spectrum_type: 2
charge: 1
SMILES: C(CCN=C(N)N)CC(=O)O
Method: HCD
Collision_energy: [28.333334]
Isolation_window: 4.0
Ion_mode: P
Num Peaks: 35
55.0546	2.9
58.0655	11.2
60.0560	6.6
62.0604	3.0
70.0655	1.8
82.0654	1.6
83.0494	2.0
84.0446	1.2
98.0966	0.9
100.0758	19.9
101.0598	39.0
102.0550	8.0
102.0631	1.8
114.0914	7.7
116.0706	1.2
117.9595	1.0
118.0863	7.0
125.0709	1.4
126.0913	6.4
142.0862	2.1
143.0814	3.0
144.1017	1.9
159.0848	2.3
159.1129	2.0
160.0875	1.2
160.0905	1.0
160.0971	42.5
160.1079	100.0
160.1334	1.0
160.9013	2.2
161.0708	1.3
161.1004	2.6
161.1050	1.0
161.1113	6.6
162.1123	14.9

PrecursorMZ: 130.04096
RT: 4.0955
Spectrum_type: 2
charge: 1
SMILES: C1=NC(=O)NC(=C1F)N
Method: HCD
Collision_energy: [28.333334]
Isolation_window: 4.0
Ion_mode: P
Num Peaks: 8
87.0355	3.1
113.0146	5.6
130.0308	0.8
130.0410	100.0
130.0650	1.5
130.1589	1.7
131.0380	1.3
131.0443	4.3

PrecursorMZ: 104.07076
RT: 3.852
Spectrum_type: 2
charge: 1
SMILES: CC(=O)NCCO
Method: HCD
Collision_energy: [28.333334]
Isolation_window: 4.0
Ion_mode: P
Num Peaks: 4
62.0604	100.0
62.9295	29.5
86.0602	25.8
87.0443	5.8

PrecursorMZ: 130.15895
RT: 6.5112
Spectrum_type: 2
charge: 1
SMILES: CCCCNCC(C)C
Method: HCD
Collision_energy: [28.333334]
Isolation_window: 4.0
Ion_mode: P
Num Peaks: 10
57.0703	27.0
74.0968	23.4
84.0447	53.5
86.0603	11.1
86.0966	14.3
129.1387	12.3
130.0498	9.5
130.0652	17.2
130.1590	100.0
131.1622	11.6

PrecursorMZ: 118.12278
RT: 11.9844
Spectrum_type: 2
charge: 1
SMILES: CCN(CC)CCO
Method: HCD
Collision_energy: [28.333334]
Isolation_window: 4.0
Ion_mode: P
Num Peaks: 28
58.0656	9.2
59.0734	9.4
70.0655	8.3
71.0689	1.1
72.0812	12.5
73.0845	0.5
74.0968	2.0
86.0967	2.3
89.1077	0.4
96.0114	0.8
96.9955	0.5
97.4005	0.5
100.1123	14.2
101.0598	0.5
101.1157	0.8
103.0544	0.7
116.0708	1.9
117.0740	0.6
117.1388	0.7
118.0776	0.7
118.0864	100.0
118.0951	0.7
118.1228	37.1
119.0897	6.0
119.1260	2.7
120.0477	2.7
120.0557	1.2
120.0809	3.4

Name: Caprooyl lysine
PrecursorMZ: 245.18568
RT: 7.22445
ExactMass: 244.17869263
Spectrum_type: 2
charge: 1
Formula: C12H24N2O3
SMILES: CCCCCC(=O)N[C@@H](CCCCN)C(=O)O
Method: HCD
Collision_energy: [28.333334]
Isolation_window: 4.0
Ion_mode: P
Num Peaks: 61
70.0071	3.2
70.0654	15.4
71.0858	7.3
72.0810	4.5
84.0810	44.9
86.0602	13.1
86.0966	5.9
87.0442	6.0
90.0552	5.3
95.0604	6.5
98.0600	3.3
99.0804	6.0
100.0757	20.6
101.0597	13.6
104.0705	4.0
112.0505	3.6
112.0757	6.2
113.0709	10.6
116.0705	4.2
118.0861	3.3
127.0500	4.9
129.1020	51.2
130.0860	25.7
132.0766	12.7
142.0858	3.6
144.0653	6.1
146.0809	5.5
147.1126	22.5
149.0265	28.2
155.0813	11.5
158.0922	11.8
170.0557	10.1
172.0712	5.3
180.0652	23.0
182.0807	4.9
182.1537	6.5
184.0711	3.5
184.0965	15.7
198.1120	19.3
200.1021	5.6
200.1276	14.5
209.0916	7.1
226.1068	21.5
226.1181	7.6
227.1017	12.7
227.1752	3.7
228.0973	14.5
228.1223	9.6
243.2149	4.2
244.0965	7.6
244.1171	22.0
244.1287	61.3
245.1125	93.0
245.1309	5.8
245.1489	3.5
245.1854	32.6
246.1075	100.0
246.1330	70.0
246.1891	5.6
247.1097	4.7
247.1367	4.3

Name: Carbamoylglutamate
PrecursorMZ: 191.06611
RT: 7.5601
ExactMass: 188.04332136
Spectrum_type: 2
charge: 1
Formula: C6H8N2O5-2
SMILES: C(CC(=O)[O-])C(C(=O)[O-])NC(=O)N
Method: HCD
Collision_energy: [28.333334]
Isolation_window: 4.0
Ion_mode: P
Num Peaks: 19
88.0394	9.4
98.0965	6.6
111.0439	8.8
116.0705	8.7
129.0544	24.0
130.0497	100.0
144.1017	57.8
146.0598	7.2
146.0963	6.0
148.0602	7.6
174.0548	19.0
190.0496	7.7
190.0862	6.7
190.1068	10.4
191.0814	6.9
192.0652	9.9
192.0844	6.3
192.1017	6.0
192.1379	7.1

Name: Carboxymethyl-(deuteriomethyl)-dimethylazanium
PrecursorMZ: 156.04215
RT: 0.6798
ExactMass: 119.093080371
Spectrum_type: 2
charge: 1
Formula: C5H12NO2+
SMILES: [2H]C[N+](C)(C)CC(=O)O
Method: HCD
Collision_energy: [28.333334]
Isolation_window: 4.0
Ion_mode: P
Num Peaks: 7
58.0656	20.3
74.0968	17.5
154.0863	17.3
154.1228	15.1
156.0422	100.0
156.1385	17.2
158.1540	15.7

Name: Cedefingol
PrecursorMZ: 344.31532
RT: 1.305
ExactMass: 343.30864417
Spectrum_type: 2
charge: 1
Formula: C20H41NO3
SMILES: CCCCCCCCCCCCCCC[C@@H]([C@H](CO)NC(=O)C)O
Method: HCD
Collision_energy: [28.333334]
Isolation_window: 4.0
Ion_mode: P
Num Peaks: 49
55.0546	3.0
57.0702	3.4
58.0655	2.1
60.0448	69.0
62.0604	7.2
67.0546	12.5
69.0702	8.0
70.0654	7.1
71.0494	3.1
71.0859	2.3
72.0811	15.5
74.0604	4.0
81.0701	17.9
83.0858	8.8
86.0967	6.3
88.0759	41.0
95.0857	19.0
97.1013	7.0
102.0550	4.1
106.0863	41.3
107.0896	2.0
109.1013	9.7
111.1169	2.2
123.1168	3.7
146.1174	7.8
171.1490	10.1
194.0810	2.3
199.1438	11.4
213.1590	2.8
254.2837	5.2
257.1279	2.0
266.2838	51.4
267.2874	10.9
282.2786	2.1
284.2944	33.8
285.2979	5.4
302.3049	2.2
308.2944	17.3
309.2972	3.8
326.3048	100.0
327.3082	21.3
328.3115	2.3
343.1421	13.9
344.1008	1.8
344.1451	3.5
344.3153	62.1
345.1426	2.3
345.1785	4.7
345.3188	14.0

Name: Citrulline, (+-)-
PrecursorMZ: 198.08476
RT: 4.5374
ExactMass: 175.09569129
Spectrum_type: 2
charge: 1
Formula: C6H13N3O3
SMILES: C(CC(C(=O)O)N)CNC(=O)N
Method: HCD
Collision_energy: [28.333334]
Isolation_window: 4.0
Ion_mode: P
Num Peaks: 31
55.0546	10.8
69.7548	7.8
70.0654	10.0
74.0966	6.4
80.0497	9.2
96.0445	24.0
101.0598	20.8
113.0708	8.6
138.0523	48.2
152.0816	6.5
153.0633	57.9
154.0973	8.7
155.0789	15.9
159.0762	11.5
181.0581	30.0
182.0921	12.9
196.0966	28.4
196.1076	9.3
197.0554	44.7
197.0918	9.9
197.1000	8.5
197.1281	12.9
198.0757	11.7
198.0846	100.0
198.1120	10.3
198.1232	7.5
199.0871	8.7
199.1074	9.5
199.1436	9.1
200.0733	6.9
200.1025	40.2

Name: Cyclo(-Gly-His)
PrecursorMZ: 195.08763
RT: 6.79805
ExactMass: 194.08037557
Spectrum_type: 2
charge: 1
Formula: C8H10N4O2
SMILES: C1C(=O)N[C@H](C(=O)N1)CC2=CN=CN2
Method: HCD
Collision_energy: [28.333334]
Isolation_window: 4.0
Ion_mode: P
Num Peaks: 22
82.0528	3.6
96.0445	5.0
101.0597	4.0
110.0713	16.9
122.0712	25.6
150.0660	16.3
150.1025	4.0
152.0705	3.9
166.0609	3.5
166.0859	3.3
167.0925	44.3
168.1131	3.8
178.0609	13.3
193.0969	2.9
194.0809	18.7
194.1172	7.6
195.0873	100.0
195.1124	4.7
196.0600	19.5
196.0967	14.6
196.1077	10.6
196.1326	3.5

Name: Cyclohexanecarboxylic acid
PrecursorMZ: 129.09103
RT: 8.0948
ExactMass: 128.083729621
Spectrum_type: 2
charge: 1
Formula: C7H12O2
SMILES: C1CCC(CC1)C(=O)O
Method: HCD
Collision_energy: [28.333334]
Isolation_window: 4.0
Ion_mode: P
Num Peaks: 98
53.0391	0.1
55.0182	0.3
55.0545	0.5
57.0336	0.1
65.0390	0.2
67.0472	0.1
67.0487	0.1
67.0547	15.1
67.0606	0.1
67.0622	0.1
67.0721	0.1
68.0580	0.8
69.0338	0.1
69.0703	0.4
70.0657	0.1
77.0387	0.2
80.0499	0.1
81.0702	0.6
82.0654	0.2
83.0495	0.1
83.0821	0.1
83.0858	3.9
84.0893	0.2
85.0650	0.3
86.0607	0.1
91.0545	2.9
92.0576	0.2
93.0383	0.1
93.0476	0.1
93.0543	0.1
93.0579	0.3
93.0607	0.3
93.0657	0.9
93.0701	46.4
93.0799	0.2
93.0825	0.3
93.0860	0.1
93.0985	0.2
94.0734	3.5
95.0493	0.2
95.0760	0.1
96.0808	0.1
96.9954	0.1
98.0604	0.1
110.0966	1.6
111.0392	0.1
111.0508	0.1
111.0647	0.4
111.0680	0.4
111.0805	55.7
111.0970	0.3
111.1008	0.1
111.1058	0.1
111.1176	0.2
112.0838	4.1
113.0853	0.2
115.0870	0.1
120.0485	0.1
121.9662	0.3
123.9651	0.1
124.0761	0.1
126.0915	0.2
128.1070	2.3
128.1439	0.1
129.0652	0.1
129.0711	0.2
129.0751	0.2
129.0910	24.4
129.1078	0.1
129.1109	0.2
129.1370	0.1
130.0943	1.9
130.1600	0.1
131.0957	0.1
132.1022	0.2
134.0627	0.3
138.0545	0.1
138.0913	0.1
138.1280	0.1
139.0507	0.1
141.0657	1.0
142.0866	0.1
142.1575	0.1
144.1017	0.4
146.0551	0.2
146.0678	0.1
146.0725	0.1
146.0861	0.2
146.0933	0.7
146.0985	0.5
146.1174	100.0
146.1364	0.5
146.1420	0.6
146.1555	0.1
146.1735	0.3
147.1208	7.8
148.0963	0.4
148.1221	0.6

Name: D,L-Leucylglycylglycylglycin
PrecursorMZ: 303.16589
RT: 6.3328
ExactMass: 302.15901982
Spectrum_type: 2
charge: 1
Formula: C12H22N4O5
SMILES: CC(C)CC(C(=O)NCC(=O)NCC(=O)NCC(=O)O)N
Method: HCD
Collision_energy: [28.333334]
Isolation_window: 4.0
Ion_mode: P
Num Peaks: 43
70.0654	13.5
72.0811	35.8
76.0395	12.9
81.0338	7.6
83.0606	12.5
84.0446	15.2
101.0597	6.9
101.0710	10.0
116.0706	23.7
136.1121	5.8
138.0913	7.1
155.1177	8.1
158.1175	5.8
159.1128	5.2
180.1018	5.1
182.1285	60.1
183.1125	100.0
184.1159	10.5
200.1389	17.4
210.1232	14.0
211.1073	38.8
228.1336	8.5
285.1550	52.4
286.1399	10.6
301.1752	7.9
301.2228	20.4
302.1013	13.4
302.1366	19.5
302.1580	7.3
302.1753	6.5
302.2251	5.8
303.0981	6.7
303.1326	38.7
303.1690	11.3
303.1898	7.3
304.1176	33.1
304.1362	8.3
304.1536	8.2
304.1667	7.0
304.1912	5.6
305.1248	11.6
305.1486	16.4
305.1846	9.3

Name: D-Alanyl-D-glutamine
PrecursorMZ: 218.11324
RT: 7.8388
ExactMass: 217.10625597
Spectrum_type: 2
charge: 1
Formula: C8H15N3O4
SMILES: C[C@H](C(=O)N[C@H](CCC(=O)N)C(=O)O)N
Method: HCD
Collision_energy: [28.333334]
Isolation_window: 4.0
Ion_mode: P
Num Peaks: 33
69.8269	6.2
70.0655	23.1
74.0603	6.8
84.0447	19.6
89.0712	20.8
101.0600	6.4
101.0710	5.9
102.0550	8.7
114.0551	6.4
116.0706	19.5
128.0704	7.9
130.0498	80.9
147.0762	100.0
154.0861	10.9
158.0811	15.3
170.1173	12.7
172.0966	33.3
172.1330	8.9
184.0602	16.9
198.0758	21.9
199.0792	9.9
200.0916	10.5
201.0867	16.7
216.1226	29.6
217.1171	6.6
217.1263	7.9
218.0812	5.9
218.1022	69.2
218.1133	12.9
218.1173	15.2
218.1381	23.8
219.0968	16.0
220.1188	15.7

Name: D-Glutamic acid, 1-methyl ester
PrecursorMZ: 162.07619
RT: 6.0725
ExactMass: 160.0609828
Spectrum_type: 2
charge: 1
Formula: C6H10NO4-
SMILES: COC(=O)[C@@H](CCC(=O)[O-])N
Method: HCD
Collision_energy: [28.333334]
Isolation_window: 4.0
Ion_mode: P
Num Peaks: 38
56.0500	1.9
70.0656	6.4
84.0395	0.6
84.0448	100.0
84.0489	0.5
84.0500	0.8
85.0287	1.9
85.0481	4.3
88.0760	12.9
89.0794	0.7
98.0967	0.7
102.0552	43.5
103.0585	1.7
112.0760	3.3
114.1279	11.3
115.1314	1.1
116.0531	6.4
116.0708	14.1
117.0550	0.5
117.0740	0.8
120.0116	2.5
130.0502	0.7
136.0755	0.8
144.0656	49.2
144.1019	2.7
145.0319	0.6
145.0499	0.7
145.0690	3.5
160.0969	3.0
160.1334	3.5
161.0710	1.2
162.0588	5.0
162.0762	8.1
162.0911	0.7
162.1126	8.8
162.1272	0.8
163.1158	0.8
164.0708	1.1

Name: D-Panthenol-d4
PrecursorMZ: 170.11747
RT: 8.8346
ExactMass: 209.15651507
Spectrum_type: 2
charge: 1
Formula: C9H19NO4
SMILES: [2H]C([2H])(CC([2H])([2H])O)NC(=O)[C@@H](C(C)(C)CO)O
Method: HCD
Collision_energy: [28.333334]
Isolation_window: 4.0
Ion_mode: P
Num Peaks: 13
55.0546	4.9
109.0760	5.0
112.0758	6.6
154.1223	6.6
168.0688	17.5
169.0721	6.0
170.0646	7.0
170.0807	5.3
170.0920	8.5
170.1172	100.0
171.1205	8.9
171.1489	5.6
172.1329	11.9

Name: DL-Glutamine
PrecursorMZ: 147.0764
RT: 2.8574
ExactMass: 146.06914219
Spectrum_type: 2
charge: 1
Formula: C5H10N2O3
SMILES: C(CC(=O)N)C(C(=O)O)N
Method: HCD
Collision_energy: [28.333334]
Isolation_window: 4.0
Ion_mode: P
Num Peaks: 12
56.0499	1.9
64.9276	1.3
84.0446	100.0
85.0286	2.9
85.0480	4.3
88.0395	2.0
100.0758	1.9
102.0550	27.9
123.9643	4.7
130.0497	22.9
148.0602	4.4
149.0269	3.0

Name: DL-Seryl-DL-alanine
PrecursorMZ: 177.08686
RT: 6.8761
ExactMass: 176.07970687
Spectrum_type: 2
charge: 1
Formula: C6H12N2O4
SMILES: CC(C(=O)O)NC(=O)C(CO)N
Method: HCD
Collision_energy: [28.333334]
Isolation_window: 4.0
Ion_mode: P
Num Peaks: 13
60.0448	100.0
74.0603	48.6
84.0446	7.9
90.0551	11.6
130.1224	24.4
131.0812	7.7
159.0763	7.0
176.0699	9.0
176.0915	11.3
177.0655	45.1
177.0870	7.2
178.0691	8.6
178.0858	9.8

Name: Daidzein(1-)
PrecursorMZ: 255.06414
RT: 2.9947
ExactMass: 253.05008376
Spectrum_type: 2
charge: 1
Formula: C15H9O4-
SMILES: C1=CC(=CC=C1C2=COC3=C(C2=O)C=CC(=C3)O)[O-]
Method: HCD
Collision_energy: [28.333334]
Isolation_window: 4.0
Ion_mode: P
Num Peaks: 9
137.0232	1.4
199.0750	2.4
227.0700	1.2
254.0526	2.8
255.0367	0.7
255.0431	0.5
255.0647	100.0
255.0927	0.5
256.0680	15.2

Name: Deca-3,5,7-trienedioylcarnitine
PrecursorMZ: 340.17512
RT: 6.7953
ExactMass: 339.16818752
Spectrum_type: 2
charge: 1
Formula: C17H25NO6
SMILES: C[N+](C)(C)CC(CC(=O)[O-])OC(=O)C/C=C/C=C/C=C/CC(=O)O
Method: HCD
Collision_energy: [28.333334]
Isolation_window: 4.0
Ion_mode: P
Num Peaks: 59
57.0339	1.8
60.0812	9.0
69.0524	1.8
69.0544	2.0
70.0654	9.2
79.0545	1.8
81.0338	3.5
84.0446	2.6
84.0810	5.1
85.0286	100.0
86.0320	4.4
86.0966	3.9
91.0544	4.9
95.0493	1.8
96.0446	2.2
100.0757	1.8
105.0699	12.1
109.0285	3.6
110.0713	3.1
111.0440	1.7
112.0759	2.0
116.0706	19.2
119.0492	4.7
128.0704	1.8
130.0497	2.0
130.0862	2.9
132.1016	2.7
133.0647	24.6
134.0679	2.1
141.0657	3.4
144.1017	4.2
151.0752	6.6
156.0764	1.7
161.0595	15.0
162.0626	1.7
173.0921	2.2
179.0699	4.3
181.0969	5.7
193.0705	4.7
195.0858	2.3
209.0917	2.8
235.0962	2.6
277.1168	1.7
281.1006	2.9
322.1271	1.7
323.1199	1.8
338.3413	3.1
339.1192	3.8
339.1515	10.9
339.1898	2.8
340.1168	2.8
340.1490	13.7
340.1735	80.6
341.1297	2.6
341.1450	8.1
341.1752	13.0
342.0953	1.9
342.1307	3.7
342.1639	5.3

Name: Deiodoamiodarone
PrecursorMZ: 394.23739
RT: 6.0503
ExactMass: 393.23039385
Spectrum_type: 2
charge: 1
Formula: C25H31NO3
SMILES: CCCCC1=C(C2=CC=CC=C2O1)C(=O)C3=CC=C(C=C3)OCCN(CC)CC
Method: HCD
Collision_energy: [28.333334]
Isolation_window: 4.0
Ion_mode: P
Num Peaks: 43
72.0812	3.2
86.0968	32.2
91.0545	4.4
97.3986	2.6
100.1123	100.0
101.1157	4.5
101.1200	3.5
105.0701	4.9
117.0700	10.3
119.0493	10.6
131.0492	16.7
133.0648	5.4
221.0960	10.1
234.1853	10.7
247.1119	5.1
248.1647	3.5
249.0908	4.9
251.1060	3.2
260.1071	4.8
265.1220	3.1
275.1070	3.2
277.0860	7.3
292.1331	3.0
293.0808	2.8
293.1174	6.7
295.0962	7.5
313.1071	4.3
392.2224	2.8
392.2963	7.9
393.2252	2.7
393.2541	8.2
393.2966	4.0
394.2015	18.2
394.2378	87.6
394.2744	8.4
394.3105	49.8
395.2044	4.1
395.2402	22.6
395.3125	11.1
396.2169	47.4
396.2529	18.4
396.2897	9.8
396.3258	9.8

Name: Deuterio 1,1,2,2,3,3-hexadeuterio-3-(deuterio-(1,2,2,3,3,4,4,5,5-nonadeuteriocyclohexyl)amino)propane-1-sulfonate
PrecursorMZ: 222.11577
RT: 6.4118
ExactMass: 238.21526932
Spectrum_type: 2
charge: 1
Formula: C9H19NO3S
SMILES: [2H]C1(CC(C(C(C1([2H])[2H])([2H])[2H])([2H])[2H])([2H])N([2H])C([2H])([2H])C([2H])([2H])C([2H])([2H])S(=O)(=O)O[2H])[2H]
Method: HCD
Collision_energy: [28.333334]
Isolation_window: 4.0
Ion_mode: P
Num Peaks: 8
83.0858	16.7
123.0110	8.3
140.0374	73.4
222.0759	7.6
222.1154	100.0
223.1184	9.5
224.0917	8.9
224.1280	7.0

Name: Deuterio 1,3,3,4,4-pentadeuterio-5-oxopyrrolidine-2-carboxylate
PrecursorMZ: 130.04987
RT: 9.6719
ExactMass: 135.080253561
Spectrum_type: 2
charge: 1
Formula: C5H7NO3
SMILES: [2H]C1(C(N(C(=O)C1([2H])[2H])[2H])C(=O)O[2H])[2H]
Method: HCD
Collision_energy: [28.333334]
Isolation_window: 4.0
Ion_mode: P
Num Peaks: 9
57.0702	5.1
70.0655	43.7
82.0653	5.2
84.0446	100.0
84.0810	11.6
86.0966	9.1
130.0497	21.2
130.0860	6.4
130.1589	24.3

Name: Deuterio-(5-(dideuterio(hydroxy)methyl)-3-hydroxy-2-methyl-4-pyridinyl)methanone
PrecursorMZ: 168.06554
RT: 7.0196
ExactMass: 170.077073387
Spectrum_type: 2
charge: 1
Formula: C8H9NO3
SMILES: [2H]C(=O)C1=C(C(=NC=C1C([2H])([2H])O)C)O
Method: HCD
Collision_energy: [28.333334]
Isolation_window: 4.0
Ion_mode: P
Num Peaks: 24
96.0446	1.5
120.0808	9.0
122.0601	3.7
123.0111	12.5
123.0679	1.5
124.0393	5.0
148.0788	1.7
150.0550	3.2
166.0500	36.6
166.0859	9.1
166.0978	1.4
167.0531	6.7
167.0815	3.3
167.0895	2.0
167.1543	37.1
168.0491	1.4
168.0680	100.0
168.1016	4.0
168.1575	3.3
169.0693	6.9
169.0762	1.9
169.0973	2.9
170.0649	3.2
170.0808	2.3

Name: Di-n-butyl ammonium
PrecursorMZ: 130.15901
RT: 7.3179
ExactMass: 130.159574642
Spectrum_type: 2
charge: 1
Formula: C8H20N+
SMILES: CCCC[NH2+]CCCC
Method: HCD
Collision_energy: [28.333334]
Isolation_window: 4.0
Ion_mode: P
Num Peaks: 14
55.0546	1.3
57.0452	1.8
57.0703	13.3
74.0968	21.0
81.0337	2.7
83.0494	3.0
84.0446	1.7
97.4317	2.0
129.1386	23.0
130.0609	1.8
130.0651	11.4
130.1590	100.0
131.0603	4.4
131.1622	10.2

Name: Diethyl(1-hydroxyethylidene)azanium
PrecursorMZ: 116.10713
RT: 1.3375
ExactMass: 116.10753907
Spectrum_type: 2
charge: 1
Formula: C6H14NO+
SMILES: CC[N+](=C(C)O)CC
Method: HCD
Collision_energy: [28.333334]
Isolation_window: 4.0
Ion_mode: P
Num Peaks: 24
57.0703	6.6
58.0656	2.2
59.0734	1.7
60.0448	31.5
70.0656	2.6
71.0495	2.8
72.0812	2.7
74.0968	70.6
75.1001	3.3
88.0760	4.0
91.0545	6.3
114.0632	1.3
114.0915	3.3
114.1027	1.5
114.1279	2.1
115.0544	1.8
116.0496	0.9
116.1071	100.0
116.1435	3.7
117.0574	2.6
117.0699	2.0
117.1104	7.2
118.0652	6.7
118.0864	16.8

Name: Diethylene Glycol Monobutyl Ether
PrecursorMZ: 163.13278
RT: 1.2212
ExactMass: 162.125594432
Spectrum_type: 2
charge: 1
Formula: C8H18O3
SMILES: CCCCOCCOCCO
Method: HCD
Collision_energy: [28.333334]
Isolation_window: 4.0
Ion_mode: P
Num Peaks: 6
57.0703	40.0
89.0598	43.4
105.0336	32.7
128.1068	30.7
162.1279	23.4
164.1068	100.0

Name: Dietylaminopropin
PrecursorMZ: 112.1123
RT: 2.9575
ExactMass: 111.104799419
Spectrum_type: 2
charge: 1
Formula: C7H13N
SMILES: CCN(CC)CC#C
Method: HCD
Collision_energy: [28.333334]
Isolation_window: 4.0
Ion_mode: P
Num Peaks: 53
56.0500	1.7
57.0340	1.1
58.0656	7.7
59.0735	5.9
60.0768	0.2
68.0501	0.2
69.0340	0.4
70.0656	1.0
72.0812	1.3
74.0606	0.3
74.0969	0.2
86.0606	0.2
86.0970	0.2
87.0445	0.3
90.0554	0.2
96.0114	0.4
96.0812	0.2
96.9956	0.4
100.1124	0.9
104.0709	9.4
105.0743	0.4
111.0557	0.2
111.0920	0.8
112.0762	0.2
112.1124	0.6
113.1078	0.5
114.0917	0.5
115.1235	0.3
118.0476	0.3
118.0642	0.2
118.0691	0.7
118.0728	0.6
118.0865	100.0
118.0995	0.4
118.1044	0.7
118.1093	0.3
118.1228	2.3
118.1300	0.3
119.0190	1.3
119.0898	5.5
120.0476	1.2
120.0558	0.5
120.0909	0.4
121.0168	0.2
122.0813	8.5
123.0839	0.3
127.0727	0.4
127.0868	0.3
128.1435	1.7
129.1023	2.0
130.1593	0.7
131.1180	0.2
134.0631	0.2

Name: Dimethyl(3-sulfopropyl)azanium
PrecursorMZ: 168.06894
RT: 3.1175
ExactMass: 168.06943948
Spectrum_type: 2
charge: 1
Formula: C5H14NO3S+
SMILES: C[NH+](C)CCCS(=O)(=O)O
Method: HCD
Collision_energy: [28.333334]
Isolation_window: 4.0
Ion_mode: P
Num Peaks: 39
58.0655	1.6
59.0497	1.0
60.0813	2.2
69.0340	1.1
70.0656	1.7
74.0604	0.6
78.9845	0.5
86.0969	1.0
96.9955	2.9
98.0604	0.6
98.9757	0.8
116.0709	3.8
116.9863	0.8
118.0865	0.9
123.0112	11.0
125.0069	0.5
139.0504	1.5
141.0221	0.6
144.0323	0.8
148.0789	0.5
152.0706	1.3
165.0216	4.3
166.0895	1.2
166.1075	0.5
168.0393	0.6
168.0691	100.0
168.0990	0.6
169.0725	5.7
170.0641	4.4
170.1169	0.5
171.1492	0.6
179.1186	0.5
180.0825	3.1
180.1051	36.6
181.0839	0.5
181.1067	3.5
182.1035	0.8
187.1086	0.6
188.1758	0.5

Name: Diosgenine 3-sulphate
PrecursorMZ: 495.27799
RT: 0.5383
Spectrum_type: 2
charge: 1
SMILES: CC1CCC2(C(C3C(O2)CC4C3(CCC5C4CC=C6C5(CCC(C6)OS(=O)(=O)O)C)C)C)OC1
Method: HCD
Collision_energy: [28.333334]
Isolation_window: 4.0
Ion_mode: P
Num Peaks: 168
55.0286	1.2
55.0316	5.4
55.1432	1.7
57.0338	1.0
57.0704	1.9
59.0609	1.5
67.0548	3.1
69.0340	2.3
69.0704	5.8
71.0496	1.2
71.0859	1.1
79.0547	1.6
81.0703	12.2
83.0496	2.0
83.0860	3.2
85.0289	1.8
85.0652	4.0
86.0969	2.6
89.0601	2.4
91.0541	2.1
93.0703	4.8
95.0495	1.4
95.0859	11.8
97.0652	2.5
97.1016	2.3
99.0442	0.9
99.0808	2.3
101.0601	1.0
104.0710	1.7
105.0702	5.8
107.0494	1.0
107.0858	9.8
108.0889	0.9
109.0650	2.5
109.1015	11.8
110.1046	1.2
111.0444	3.8
111.0809	2.0
111.1172	3.8
113.0600	2.3
113.0964	1.5
119.0858	7.2
120.0808	0.9
121.0652	2.3
121.1014	10.1
122.1048	1.4
123.0808	2.7
123.1171	8.7
125.0599	2.9
125.0963	9.5
127.0754	0.9
127.1119	2.3
131.0858	3.5
133.0870	1.1
133.1013	12.0
134.1050	1.2
135.0809	1.8
135.1170	5.5
137.0599	3.5
137.0962	1.7
137.1327	1.8
139.1120	7.1
143.0860	1.2
145.1015	5.1
147.0805	2.9
147.1171	4.6
149.0963	5.9
149.1326	4.0
151.0756	3.2
151.1119	3.0
153.0912	1.7
153.1276	0.9
157.1013	2.5
159.1172	4.9
161.0965	1.3
161.1327	5.0
163.1120	7.4
163.1479	1.5
165.0913	7.6
165.1278	2.5
167.1069	6.4
171.1017	1.1
171.1170	1.4
173.0959	1.1
173.1327	2.9
175.1120	1.7
175.1481	1.7
177.1274	1.7
177.1639	1.0
180.1380	0.9
181.1224	5.6
183.1167	0.9
185.1325	1.2
187.1482	3.0
189.1640	1.3
191.1068	1.2
197.1332	1.1
199.1483	1.9
201.1643	2.4
203.0910	1.5
203.1085	0.9
203.1801	1.1
205.1220	1.5
211.1481	1.3
213.1638	3.4
214.1669	1.2
215.1796	44.2
216.1829	8.2
221.1173	1.6
227.1794	1.1
229.1947	1.1
231.0330	1.1
233.1899	2.4
245.0480	4.2
249.0789	2.4
253.1953	6.4
254.1995	1.2
255.2109	3.2
259.1696	4.2
260.1728	1.1
271.2058	3.4
273.2214	1.0
281.2273	1.5
283.2417	1.3
285.0799	0.9
299.2371	4.4
300.2411	0.9
309.1346	0.9
313.1474	6.0
314.1503	1.4
317.2489	1.9
351.1646	2.3
353.1784	2.2
369.1765	1.0
379.2999	6.9
380.2996	1.7
381.3141	1.0
396.3247	2.3
397.2045	4.9
397.3102	24.4
398.2109	1.1
398.3077	5.9
399.3202	1.8
407.3361	1.0
412.3217	1.4
414.3412	1.2
415.3206	12.5
416.3205	3.1
417.3341	1.4
424.2853	0.9
426.3026	1.2
477.2660	2.6
478.2707	1.1
479.2835	1.3
493.2646	0.9
494.2970	6.5
495.2779	100.0
496.2803	30.3
497.2876	18.1
498.2933	4.6
499.2896	1.8
505.3000	1.6
507.2778	1.2
507.3103	1.3
508.2600	1.1
509.2944	1.3
510.2883	2.6
511.2975	1.1

Name: Disuccinimidyl suberate
PrecursorMZ: 337.13889
RT: 6.2281
ExactMass: 336.13213636
Spectrum_type: 2
charge: 1
Formula: C16H20N2O6
SMILES: C1CC(=O)N(C1=O)C(=O)CCCCCCC(=O)N2C(=O)CCC2=O
Method: HCD
Collision_energy: [28.333334]
Isolation_window: 4.0
Ion_mode: P
Num Peaks: 40
69.0702	15.3
83.0857	13.7
84.0810	8.2
95.0856	9.1
97.1013	13.4
100.0758	13.3
112.0757	55.8
146.0598	67.4
148.0755	50.4
154.0862	10.1
164.0704	9.0
166.0861	22.0
174.0549	30.0
176.0703	11.7
192.0878	18.6
194.0811	8.3
194.1174	7.9
210.1119	15.1
220.0831	12.3
220.0960	19.8
222.1121	10.9
245.1281	33.1
246.1318	8.2
273.1229	38.6
291.1334	100.0
291.1684	11.0
292.1370	13.9
309.1795	9.2
319.1280	51.3
320.1322	9.2
321.3143	9.6
335.1603	8.0
336.2527	39.2
337.1384	47.0
337.1756	43.8
337.2563	11.1
338.1203	8.2
338.1362	9.8
338.3408	53.2
339.1541	15.3

Name: Ethyl-(2-hydroxyethyl)-methylazanium
PrecursorMZ: 104.10715
RT: 14.1418
ExactMass: 104.10753907
Spectrum_type: 2
charge: 1
Formula: C5H14NO+
SMILES: CC[NH+](C)CCO
Method: HCD
Collision_energy: [28.333334]
Isolation_window: 4.0
Ion_mode: P
Num Peaks: 4
58.0656	9.0
60.0812	19.4
104.1071	100.0
105.1104	5.6

Name: Feruloylagmatine
PrecursorMZ: 307.17505
RT: 3.2579
ExactMass: 306.16919058
Spectrum_type: 2
charge: 1
Formula: C15H22N4O3
SMILES: COC1=C(C=CC(=C1)/C=C/C(=O)NCCCCN=C(N)N)O
Method: HCD
Collision_energy: [28.333334]
Isolation_window: 4.0
Ion_mode: P
Num Peaks: 75
60.0559	1.4
70.0656	3.0
72.0812	3.5
81.0340	1.4
83.0495	4.0
84.0812	2.0
98.0603	2.8
101.0600	13.6
107.0730	1.5
111.0445	2.0
114.1029	15.3
115.0870	4.9
116.0708	1.7
120.0809	1.2
131.1292	4.4
145.0285	6.0
154.0863	6.8
157.1089	1.6
171.1131	1.3
172.0969	5.1
177.0548	85.2
178.0582	9.6
197.1289	2.0
204.1385	18.8
205.1422	2.6
206.1288	1.6
222.1490	20.7
223.1525	3.3
243.1136	1.3
247.1448	3.8
248.1276	5.6
265.1573	1.5
267.1501	3.0
290.1501	8.1
291.1533	1.2
305.1538	2.3
305.1913	2.1
306.1827	12.2
307.1766	83.5
308.1787	13.8
309.1822	7.8
309.2183	2.2
310.1321	1.4
310.1664	1.5
310.2061	3.1
311.1386	1.9
311.1975	5.5
312.1251	2.0
312.1706	5.6
313.1218	1.3
313.1568	3.3
313.2109	2.3
314.1384	16.3
315.1394	5.0
315.1724	2.5
316.1185	1.8
316.1569	8.0
317.1519	6.4
317.1881	2.2
318.1319	2.6
318.1768	4.2
319.1666	9.1
320.1511	7.4
320.1944	2.7
321.1503	1.5
321.1825	13.1
322.2019	100.0
323.1622	2.0
323.2032	24.7
323.7115	3.7
324.1458	1.3
324.2087	4.7
325.1764	1.5
325.2131	3.4
326.1433	1.4

Name: Gaba carboxy-14C
PrecursorMZ: 86.06036
RT: 9.601266666666668
ExactMass: 105.06657052
Spectrum_type: 2
charge: 1
Formula: C4H9NO2
SMILES: C(C[14C](=O)O)CN
Method: HCD
Collision_energy: [28.333334]
Isolation_window: 4.0
Ion_mode: P
Num Peaks: 14
53.0027	1.2
56.0500	3.0
58.0656	1.5
68.0499	5.4
69.0339	100.0
70.0373	4.8
84.0447	5.5
84.0811	4.5
85.0764	2.6
86.0604	28.0
86.0968	6.4
87.0444	48.7
87.0636	1.6
97.3986	0.8

Name: Gardenin A
PrecursorMZ: 419.13287
RT: 1.2137
ExactMass: 418.12638228
Spectrum_type: 2
charge: 1
Formula: C21H22O9
SMILES: COC1=CC(=CC(=C1OC)OC)C2=CC(=O)C3=C(C(=C(C(=C3O2)OC)OC)OC)O
Method: HCD
Collision_energy: [28.333334]
Isolation_window: 4.0
Ion_mode: P
Num Peaks: 17
121.0648	2.3
161.1322	2.1
274.2242	2.5
343.0808	2.1
371.0756	8.7
372.0793	2.2
389.0861	79.0
390.0897	15.5
399.3448	2.7
403.1019	3.9
404.1095	18.0
405.1130	4.0
417.3550	38.0
418.3584	8.4
419.1330	100.0
420.1366	22.1
421.1385	2.5

Name: Gln-Ala
PrecursorMZ: 218.1132
RT: 7.23865
ExactMass: 217.10625597
Spectrum_type: 2
charge: 1
Formula: C8H15N3O4
SMILES: C[C@@H](C(=O)O)NC(=O)[C@H](CCC(=O)N)N
Method: HCD
Collision_energy: [28.333334]
Isolation_window: 4.0
Ion_mode: P
Num Peaks: 27
70.0655	6.8
72.0811	3.5
74.0604	5.5
83.0606	13.7
84.0446	19.1
86.0603	3.8
90.0551	34.0
101.0710	7.4
116.0707	8.6
129.0656	3.7
147.0763	6.5
148.0615	19.7
154.0861	20.9
155.0813	7.3
172.0966	13.5
200.0918	5.0
200.1026	35.6
201.0867	22.6
201.1063	3.3
202.1077	4.3
216.1224	4.3
217.0968	3.8
217.1175	7.0
218.1021	15.7
219.1127	3.7
220.0972	3.3
220.1188	100.0

Name: Gln-Met(O)
PrecursorMZ: 294.11129
RT: 7.4155
ExactMass: 293.10454189
Spectrum_type: 2
charge: 1
Formula: C10H19N3O5S
SMILES: CS(=O)CCC(C(=O)O)NC(=O)C(CCC(=O)N)N
Method: HCD
Collision_energy: [28.333334]
Isolation_window: 4.0
Ion_mode: P
Num Peaks: 51
56.0499	17.3
74.0603	17.4
83.0606	4.9
84.0446	29.2
85.0286	4.7
86.0966	20.8
87.0442	18.6
88.0395	10.0
97.0285	6.4
101.0710	15.9
127.0389	5.1
130.0497	20.4
131.0699	5.6
132.1017	17.3
144.1018	7.8
147.0761	6.3
154.0860	33.5
161.0681	4.7
165.0693	6.7
166.0532	6.1
167.0450	5.3
167.0813	4.9
172.0965	100.0
173.1000	7.2
185.0554	21.4
195.0760	12.3
202.0817	12.2
212.1024	18.5
212.1275	9.0
213.0866	34.5
230.1131	29.3
230.1382	39.7
231.1419	5.5
248.1488	10.8
258.1330	38.4
259.0742	13.2
276.1006	25.4
276.1436	90.6
277.0847	19.8
277.1468	11.3
292.1172	5.6
292.1388	6.4
293.1139	6.6
293.1481	6.2
293.1700	14.2
294.1114	44.8
294.1328	24.5
294.1541	23.9
295.1275	13.3
295.1643	7.0
296.1120	18.6

Name: Gln-Pro-Leu
PrecursorMZ: 357.21231
RT: 5.5395
ExactMass: 356.20597001
Spectrum_type: 2
charge: 1
Formula: C16H28N4O5
SMILES: CC(C)C[C@@H](C(=O)O)NC(=O)[C@@H]1CCCN1C(=O)[C@H](CCC(=O)N)N
Method: HCD
Collision_energy: [28.333334]
Isolation_window: 4.0
Ion_mode: P
Num Peaks: 29
70.0654	47.7
84.0809	18.7
86.0966	21.4
96.0445	11.1
116.0705	15.8
121.0648	9.2
132.1017	17.0
147.0761	17.2
180.1129	8.6
181.0966	8.1
187.1073	9.5
208.1082	7.3
211.1441	7.6
244.1284	30.0
256.1898	14.1
256.2262	8.6
280.1647	8.6
339.1707	8.7
339.2008	12.9
340.1869	11.9
356.1485	15.2
357.1451	18.0
357.1805	91.5
357.2134	23.3
358.1625	19.6
358.1972	100.0
359.1592	26.6
359.1980	20.5
359.2517	8.2

Name: Gln-Val-Leu
PrecursorMZ: 359.22868
RT: 1.3872
ExactMass: 358.22162007
Spectrum_type: 2
charge: 1
Formula: C16H30N4O5
SMILES: CC(C)C[C@@H](C(=O)O)NC(=O)[C@H](C(C)C)NC(=O)[C@H](CCC(=O)N)N
Method: HCD
Collision_energy: [28.333334]
Isolation_window: 4.0
Ion_mode: P
Num Peaks: 95
69.0702	3.7
70.0654	30.6
72.0811	52.9
74.0603	4.9
81.0337	5.6
83.0493	3.0
83.0605	8.3
84.0446	12.7
84.0810	5.5
86.0603	4.1
86.0966	100.0
87.0554	3.4
87.1000	5.1
100.0757	4.3
101.0710	9.6
111.0440	3.7
115.0867	4.1
116.0706	16.1
118.0862	36.3
119.0896	2.9
120.0654	5.6
120.0807	5.1
121.1011	3.0
126.0913	2.8
129.0657	9.9
130.0498	15.0
132.1018	31.3
141.0655	4.0
141.1021	6.0
143.1177	24.8
147.0762	39.2
150.0911	7.4
155.1177	12.0
157.1336	4.3
166.0862	9.3
169.1336	3.8
171.1125	16.5
173.0917	5.3
182.1285	15.7
183.1125	24.9
184.1158	3.2
185.1644	9.9
187.1073	8.8
187.1439	4.5
189.1229	16.0
196.1441	36.0
197.0916	3.9
197.1281	27.9
198.1120	4.3
200.1390	49.2
201.1424	4.4
210.1234	4.9
211.1073	4.2
213.1592	4.7
214.1544	13.4
215.1382	7.6
216.1226	12.7
217.1336	4.2
224.1389	11.6
225.1229	4.4
228.1338	39.1
229.1374	3.2
230.1747	2.9
231.1701	3.2
242.1494	16.9
244.1286	4.3
244.1539	3.0
245.1275	6.3
260.1601	3.2
293.1488	10.2
295.1284	3.5
307.1900	3.4
341.1692	12.0
341.2176	37.5
342.2015	8.8
342.2224	6.1
343.1966	6.9
358.1281	5.8
358.1486	4.4
358.1642	4.4
358.1969	24.7
358.2208	4.4
359.1243	5.8
359.1444	3.3
359.1594	6.6
359.1805	9.8
359.1972	6.6
359.2291	22.6
360.1285	4.8
360.1448	3.0
360.1916	3.9
360.2306	3.9
360.2360	7.3
361.1753	4.4
361.2094	3.9

Name: Glu-Ile-Pro
PrecursorMZ: 358.19676
RT: 6.5871
ExactMass: 357.18998559
Spectrum_type: 2
charge: 1
Formula: C16H27N3O6
SMILES: CC[C@H](C)[C@@H](C(=O)N1CCC[C@@H]1C(=O)O)NC(=O)[C@H](CCC(=O)O)N
Method: HCD
Collision_energy: [28.333334]
Isolation_window: 4.0
Ion_mode: P
Num Peaks: 104
69.0702	1.8
69.4979	1.9
70.0654	93.8
71.0688	3.3
72.0811	21.2
81.0337	3.2
84.0446	9.8
84.0810	5.7
85.0287	3.1
86.0966	55.1
87.0442	2.3
87.1000	1.9
96.0445	8.1
98.0601	2.7
98.0965	3.0
102.0550	12.4
114.0550	14.9
116.0706	100.0
117.0738	5.5
118.0861	5.0
119.0338	4.3
121.0647	3.2
126.0548	6.9
126.1276	2.2
128.0705	2.1
129.0658	3.6
130.0497	2.5
130.0862	1.9
132.1018	33.9
133.0496	1.9
133.0606	1.8
133.1052	1.6
141.0655	1.6
142.0861	2.4
144.1018	3.6
147.0438	4.6
148.0603	3.6
152.0702	1.9
154.0497	14.4
156.1018	2.3
161.0444	4.8
166.0860	2.3
170.1174	2.5
178.0860	9.2
179.0547	2.2
180.0652	1.9
181.0968	19.4
182.1003	1.8
183.1125	8.0
183.1489	9.4
184.1330	2.5
195.0760	1.9
197.1281	10.6
199.1076	3.1
201.1231	18.3
209.0917	16.4
210.0952	1.6
211.1073	2.7
211.1437	9.3
215.1386	29.9
216.1423	2.5
225.1229	3.9
227.1023	4.7
229.1178	17.3
229.1542	10.6
236.1156	1.7
243.1335	21.6
244.1369	1.7
245.1127	50.8
246.1164	4.4
255.1121	3.0
261.1440	1.5
262.1077	1.8
293.1489	13.1
294.1532	2.4
295.1286	2.9
298.1068	2.4
313.1179	1.8
340.1172	1.8
340.1861	9.2
341.1335	1.7
341.1706	1.6
341.1896	1.7
342.2017	2.5
356.1825	1.7
357.1255	1.9
357.1451	18.9
357.1651	4.8
357.1817	6.0
357.2778	2.1
358.1277	32.2
358.1466	3.4
358.1617	5.1
358.1961	37.7
359.1249	13.4
359.1596	16.4
359.1805	3.5
359.1982	6.9
360.1066	1.8
360.1259	2.2
360.1404	5.2
360.1597	1.7
360.2116	5.5
360.2369	2.2

Name: Glu-Leu-Glu
PrecursorMZ: 390.18655
RT: 7.2349
ExactMass: 389.17981483
Spectrum_type: 2
charge: 1
Formula: C16H27N3O8
SMILES: CC(C)C[C@@H](C(=O)N[C@@H](CCC(=O)O)C(=O)O)NC(=O)[C@H](CCC(=O)O)N
Method: HCD
Collision_energy: [28.333334]
Isolation_window: 4.0
Ion_mode: P
Num Peaks: 40
70.0654	3.6
84.0446	54.2
84.0811	6.7
86.0966	78.9
87.1000	4.2
96.0445	11.0
102.0550	36.0
121.0647	4.4
129.0658	14.7
129.1021	4.9
130.0497	8.7
132.1018	100.0
133.1051	6.5
147.0440	4.8
147.0761	5.1
148.0602	26.4
149.0232	17.1
167.0813	11.1
168.0652	5.1
195.0762	17.8
197.1281	23.4
213.0866	16.1
215.1387	18.0
225.1231	5.6
231.0971	18.4
241.0815	26.7
243.1334	18.4
259.0920	19.2
326.1698	4.2
354.1648	6.7
372.1759	24.0
373.1797	3.7
389.1335	17.9
389.1710	3.4
390.1343	4.1
390.1578	3.2
390.1869	12.2
391.1469	6.2
391.1505	3.8
391.1902	3.4

Name: Glu-Leu-Leu
PrecursorMZ: 374.22771
RT: 5.471
ExactMass: 373.22128572
Spectrum_type: 2
charge: 1
Formula: C17H31N3O6
SMILES: CC(C)C[C@@H](C(=O)N[C@@H](CC(C)C)C(=O)O)NC(=O)[C@H](CCC(=O)O)N
Method: HCD
Collision_energy: [28.333334]
Isolation_window: 4.0
Ion_mode: P
Num Peaks: 12
84.0445	10.7
86.0966	100.0
96.0444	7.7
102.0549	13.4
121.0648	10.3
132.1017	74.1
197.1280	38.1
215.1384	45.1
225.1229	11.0
243.1334	20.4
356.2167	9.2
373.1752	13.5

Name: Glu-Val-Glu
PrecursorMZ: 376.17082
RT: 7.6071
ExactMass: 375.16416476
Spectrum_type: 2
charge: 1
Formula: C15H25N3O8
SMILES: CC(C)[C@@H](C(=O)N[C@@H](CCC(=O)O)C(=O)O)NC(=O)[C@H](CCC(=O)O)N
Method: HCD
Collision_energy: [28.333334]
Isolation_window: 4.0
Ion_mode: P
Num Peaks: 26
69.7249	6.9
70.0654	8.3
72.0811	57.5
84.0446	52.4
84.0810	7.7
102.0550	40.5
118.0862	100.0
129.0656	8.9
130.0497	10.9
147.0761	14.6
148.0602	38.1
167.0814	11.4
183.1125	31.6
195.0758	16.9
201.1230	19.9
213.0864	16.2
229.1179	19.5
231.0971	18.5
241.0815	23.3
259.0918	12.8
358.1602	22.4
375.1551	17.4
376.1376	11.6
376.1717	14.7
377.1323	9.9
377.1708	10.1

Name: Glu-Val-Leu
PrecursorMZ: 360.21251
RT: 6.1899
ExactMass: 359.20563565
Spectrum_type: 2
charge: 1
Formula: C16H29N3O6
SMILES: CC(C)C[C@@H](C(=O)O)NC(=O)[C@H](C(C)C)NC(=O)[C@H](CCC(=O)O)N
Method: HCD
Collision_energy: [28.333334]
Isolation_window: 4.0
Ion_mode: P
Num Peaks: 29
70.0655	7.0
72.0811	81.6
84.0446	18.6
86.0966	100.0
102.0550	24.2
116.0707	6.8
118.0863	42.1
129.0657	9.0
132.1018	79.4
156.1018	6.1
183.1125	53.1
184.1161	5.6
197.1282	24.1
201.1230	62.6
202.1266	6.9
211.1075	15.4
215.1387	38.5
225.1230	7.3
229.1179	46.5
243.1336	30.9
342.2018	18.5
359.1199	39.4
359.2165	5.4
360.1232	6.4
360.1424	6.0
360.2092	20.3
361.1152	12.2
361.1383	11.9
361.1747	5.7

Name: Gly-L-Pro
PrecursorMZ: 173.09197
RT: 8.8532
ExactMass: 172.08479225
Spectrum_type: 2
charge: 1
Formula: C7H12N2O3
SMILES: C1C[C@H](N(C1)C(=O)C[NH3+])C(=O)[O-]
Method: HCD
Collision_energy: [28.333334]
Isolation_window: 4.0
Ion_mode: P
Num Peaks: 29
67.0546	3.9
70.0654	6.8
98.0601	5.0
100.0758	4.0
109.1011	4.7
112.0758	4.4
114.0548	4.0
116.0705	15.4
126.0912	6.4
127.0866	7.6
128.1068	5.5
131.0813	11.2
139.0863	3.5
154.0860	4.5
155.0814	6.3
156.0654	4.5
156.1018	5.2
156.1381	5.2
157.0972	4.7
158.0811	8.4
172.0966	7.9
172.1077	12.6
172.1331	3.0
173.0918	100.0
174.0909	9.6
174.0951	3.8
174.1122	15.1
174.1233	8.5
174.1485	5.0

Name: GlyTouCan:G11947QF
PrecursorMZ: 406.13144
RT: 8.3894
ExactMass: 383.14276061
Spectrum_type: 2
charge: 1
Formula: C14H25NO11
SMILES: CC(=O)N[C@H]1[C@@H]([C@H]([C@@H](O[C@@H]1O)CO)O)O[C@@H]2[C@H]([C@@H]([C@H]([C@@H](O2)CO)O)O)O
Method: HCD
Collision_energy: [28.333334]
Isolation_window: 4.0
Ion_mode: P
Num Peaks: 6
203.0522	6.3
226.0683	9.1
244.0788	6.3
406.1309	100.0
407.0747	8.8
407.1344	14.7

Name: GlyTouCan:G15930XB
PrecursorMZ: 220.1177
RT: 9.0436
ExactMass: 219.11067264
Spectrum_type: 2
charge: 1
Formula: C9H17NO5
SMILES: C1CC1N[C@H]2[C@H]([C@@H]([C@H](OC2O)CO)O)O
Method: HCD
Collision_energy: [28.333334]
Isolation_window: 4.0
Ion_mode: P
Num Peaks: 113
59.0607	6.6
60.0447	15.5
69.0337	5.8
70.0654	11.4
72.0446	5.1
72.0810	2.1
73.0286	3.5
81.0336	11.0
82.0653	5.5
83.0493	2.3
84.0445	6.4
84.0809	21.5
85.0285	10.6
86.0602	3.6
87.0442	6.6
88.0394	6.0
95.0492	13.8
95.0604	23.1
96.0444	8.5
97.0284	53.7
98.0318	2.4
98.0601	5.0
99.0441	4.0
100.0393	3.6
102.0549	3.1
103.0501	4.6
107.0605	3.1
108.0443	2.7
110.0600	8.2
111.0440	5.2
111.0553	4.3
112.0756	4.8
113.0596	36.2
114.0549	4.0
114.0630	2.5
114.0913	5.5
115.0389	4.4
120.0654	6.8
121.0395	2.5
123.0551	4.3
124.0755	4.4
125.0595	21.3
126.0548	18.9
127.0388	8.3
128.0704	46.9
129.0543	2.6
129.0735	2.7
129.1020	22.7
130.0496	3.4
130.0860	8.5
137.0708	2.3
138.0547	15.5
139.0749	2.4
141.0656	12.1
142.0497	2.8
142.0860	16.3
143.0448	6.2
143.0700	8.8
144.0652	100.0
145.0685	6.4
147.1124	7.3
153.0657	3.2
155.0700	6.3
155.1177	9.0
156.1017	25.4
157.1049	2.9
160.0601	3.7
165.0656	12.0
166.0860	3.8
167.0699	4.0
168.0653	5.9
171.0760	8.7
172.1327	3.9
173.1281	5.0
174.1121	7.8
176.0915	2.7
183.0761	17.7
184.0963	14.2
185.0804	9.4
186.0754	5.0
201.0865	13.5
201.1228	7.9
202.0705	5.9
202.0864	3.2
202.1068	34.5
203.0657	8.2
203.0907	3.2
203.1019	3.7
203.1104	3.3
204.0860	2.5
218.1021	5.0
218.1173	7.6
218.1375	7.7
219.0966	5.1
219.1124	2.1
219.1207	2.5
219.1330	12.1
219.1487	28.2
220.0798	4.7
220.0963	2.4
220.1074	12.2
220.1174	51.4
220.1327	13.1
220.1526	3.4
220.1690	3.1
221.0761	29.4
221.0914	2.7
221.1192	3.9
221.1278	2.5
221.1642	13.6
222.0963	4.2
222.1120	6.2
222.1328	3.7

Name: GlyTouCan:G31374ZJ
PrecursorMZ: 324.12819
RT: 11.2268
ExactMass: 341.13219593
Spectrum_type: 2
charge: 1
Formula: C12H23NO10
SMILES: C(C1C(C(C(C(O1)O)N)OC2C(C(C(C(O2)CO)O)O)O)O)O
Method: HCD
Collision_energy: [28.333334]
Isolation_window: 4.0
Ion_mode: P
Num Peaks: 14
69.0337	9.3
85.0286	21.0
96.0444	23.0
97.0284	22.3
115.0388	9.1
126.0547	8.7
127.0387	19.0
144.0653	48.5
145.0490	9.9
162.0758	100.0
305.1334	14.5
306.1175	29.1
323.1439	28.2
324.1281	31.9

Name: Gnf-PF-4421
PrecursorMZ: 246.11245
RT: 7.7275
ExactMass: 245.10519334
Spectrum_type: 2
charge: 1
Formula: C14H15NO3
SMILES: CCC1=CC2=C(C=C1)NC=C(C2=O)C(=O)OCC
Method: HCD
Collision_energy: [28.333334]
Isolation_window: 4.0
Ion_mode: P
Num Peaks: 44
60.0561	1.8
114.0662	1.7
114.0914	1.7
114.1027	1.0
132.0768	1.2
134.0964	16.8
135.0997	1.8
147.0916	2.2
156.0809	1.3
160.0756	1.0
172.0756	1.3
173.0837	1.4
175.0864	2.2
184.0758	3.3
186.0874	0.9
186.0917	1.6
188.0708	1.7
199.0865	1.8
200.0705	6.9
203.1174	0.8
204.0655	0.9
212.0704	2.0
218.0810	28.0
219.0845	2.2
230.0809	19.4
231.0847	1.9
244.1284	0.9
245.0911	4.7
245.1013	1.1
245.1130	1.0
245.1274	3.1
245.1494	1.6
245.1856	1.5
246.0763	1.2
246.1122	100.0
246.1333	1.1
246.1482	1.4
247.1074	12.2
247.1174	13.5
247.1436	13.2
248.0916	2.0
248.1126	1.2
248.1280	5.1
248.1493	1.6

Name: H-Ala-Glu-OH
PrecursorMZ: 219.09736
RT: 3.6351
ExactMass: 218.09027155
Spectrum_type: 2
charge: 1
Formula: C8H14N2O5
SMILES: CC(C(=O)NC(CCC(=O)O)C(=O)O)N
Method: HCD
Collision_energy: [28.333334]
Isolation_window: 4.0
Ion_mode: P
Num Peaks: 60
58.0656	2.0
60.0813	1.4
70.0655	2.3
84.0446	1.2
84.0811	4.4
86.0605	1.4
93.0702	2.5
96.0811	1.6
98.0966	1.3
101.0599	3.0
102.0554	1.0
112.0757	1.2
121.0649	2.5
126.0549	1.5
130.0499	1.4
130.0861	1.1
148.0604	6.1
165.0547	6.1
176.0707	1.4
178.0521	1.3
207.1493	2.3
216.1237	1.8
218.1192	5.1
218.1387	100.0
219.1141	2.1
219.1422	10.8
220.0966	2.9
220.1166	1.2
220.1316	3.0
221.1278	8.2
221.1652	1.0
222.0769	2.4
222.1138	3.5
222.1312	1.5
222.1507	3.3
223.1434	8.2
224.0579	2.3
224.0918	1.2
224.1282	20.2
224.1485	1.4
224.1757	3.2
225.1291	3.5
225.1599	4.1
226.0716	1.4
226.1071	2.5
228.1616	1.1
229.1319	2.0
230.1157	4.7
231.1479	1.5
232.1336	1.3
233.1288	3.0
234.1122	8.6
234.1335	8.1
235.1133	1.7
235.1436	7.4
236.1281	38.2
237.1287	6.5
237.1598	2.1
238.1454	2.8
239.1373	1.5

Name: H-Asp-Leu-Pro-OH
PrecursorMZ: 344.18111
RT: 6.632
ExactMass: 343.17433553
Spectrum_type: 2
charge: 1
Formula: C15H25N3O6
SMILES: CC(C)C[C@@H](C(=O)N1CCC[C@H]1C(=O)O)NC(=O)[C@H](CC(=O)O)N
Method: HCD
Collision_energy: [28.333334]
Isolation_window: 4.0
Ion_mode: P
Num Peaks: 125
67.0546	2.9
69.0703	2.8
70.0290	2.3
70.0654	98.2
71.0688	4.4
72.0811	22.4
79.0545	3.3
81.0338	4.6
81.0701	4.2
84.0446	3.7
84.0810	8.5
85.0286	4.8
86.0966	37.1
88.0395	5.6
93.0701	2.7
95.0857	2.5
97.0286	2.4
100.0759	2.8
102.0551	2.9
107.0855	3.1
112.0756	2.6
114.0550	2.7
114.0914	2.4
116.0706	66.2
117.0738	3.8
118.0862	5.9
119.0854	2.4
121.1012	5.4
123.0554	3.4
123.0804	2.7
125.0708	15.6
125.0960	2.8
128.0705	4.7
130.0498	3.1
130.0862	2.9
132.1018	6.3
137.0595	2.5
140.0704	2.5
141.1022	2.9
142.0861	6.3
144.1016	3.2
148.0603	2.5
151.0752	2.6
151.0862	3.4
156.1020	3.6
164.0703	2.4
166.0862	2.7
166.0974	3.7
167.0813	5.5
169.0969	4.1
170.1171	2.7
171.1488	2.3
181.0970	3.5
183.1123	4.2
183.1491	4.3
184.1331	3.7
185.0918	33.2
186.1122	12.7
187.1074	6.5
189.1118	2.6
196.0603	2.6
197.1283	3.2
199.1076	3.1
199.1436	2.9
200.1277	5.5
201.0867	3.7
201.1231	26.1
202.1071	3.1
202.1437	2.7
211.1440	2.4
213.0866	19.6
213.1228	3.1
215.1020	6.1
215.1386	3.0
229.1179	10.8
229.1543	15.9
231.0646	2.5
231.0972	12.3
245.1129	5.6
247.1283	8.9
249.0753	4.1
266.0839	2.7
273.1843	4.9
279.1335	5.2
289.1792	3.1
291.0855	2.6
291.1946	9.3
297.0858	3.3
298.1756	2.4
307.1900	2.7
309.0951	3.1
309.1438	3.9
309.2053	5.5
326.1222	2.4
326.1368	3.4
326.1707	5.1
327.1341	3.8
327.1546	3.2
328.1542	2.6
330.0364	39.9
331.0398	5.9
343.1308	13.3
343.1479	5.1
343.1638	13.6
343.1865	5.3
344.0911	2.9
344.1118	9.5
344.1304	4.0
344.1480	8.8
344.1632	2.9
344.1809	43.5
344.2417	12.6
345.0596	100.0
345.1065	3.7
345.1276	2.8
345.1438	19.0
345.1654	9.9
345.1823	7.1
345.2017	10.9
345.2451	2.6
346.0631	12.7
346.1268	9.1
346.1418	7.7
346.1613	3.2
346.1974	7.1

Name: H-Asp-Val-Pro-OH
PrecursorMZ: 330.16541
RT: 7.437
ExactMass: 329.15868546
Spectrum_type: 2
charge: 1
Formula: C14H23N3O6
SMILES: CC(C)[C@@H](C(=O)N1CCC[C@H]1C(=O)O)NC(=O)[C@H](CC(=O)O)N
Method: HCD
Collision_energy: [28.333334]
Isolation_window: 4.0
Ion_mode: P
Num Peaks: 61
70.0655	100.0
72.0811	20.4
81.0338	5.2
84.0446	4.8
84.0810	17.5
85.0287	11.7
88.0395	7.2
98.0965	5.5
98.9842	10.5
99.0442	4.6
107.0855	7.5
110.0713	6.7
116.0706	52.1
118.0862	6.7
128.0703	5.8
129.0658	6.0
130.0862	5.3
142.1224	4.8
147.1126	8.0
155.0810	5.4
156.0764	5.3
156.1016	5.9
167.0813	6.5
169.1330	5.6
185.0918	46.6
186.1122	7.3
187.1075	9.7
196.0603	4.6
199.1074	5.2
213.0867	28.0
215.1021	6.2
215.1387	26.8
225.1227	5.0
227.1022	7.8
231.0972	6.4
237.0863	6.4
242.1130	12.0
284.1237	5.2
288.1185	6.5
295.1280	7.1
311.1363	10.1
312.1202	5.9
314.1355	5.6
328.1531	8.6
328.2112	12.6
329.1131	8.1
329.1341	30.4
329.1489	13.3
329.1706	22.1
330.0585	4.9
330.0975	8.8
330.1320	43.4
330.1669	55.6
331.1126	5.5
331.1302	19.5
331.1493	6.4
331.1649	12.3
331.1865	7.1
332.1115	13.5
332.1468	13.2
332.1806	7.9

Name: H-DL-Ala-DL-Ala-DL-Ala-DL-Ala-DL-xiThr-DL-Leu-OH
PrecursorMZ: 517.29751
RT: 4.9287
ExactMass: 516.29076226
Spectrum_type: 2
charge: 1
Formula: C22H40N6O8
SMILES: CC(C)CC(C(=O)O)NC(=O)C(C(C)O)NC(=O)C(C)NC(=O)C(C)NC(=O)C(C)NC(=O)C(C)N
Method: HCD
Collision_energy: [28.333334]
Isolation_window: 4.0
Ion_mode: P
Num Peaks: 22
74.0603	8.4
86.0966	76.4
89.0598	6.5
131.0815	8.9
132.1019	15.6
141.1020	12.9
155.1178	26.0
159.0763	16.3
183.1124	17.5
200.1390	100.0
201.1428	10.0
211.1070	9.1
215.1388	6.9
228.1337	51.5
233.1489	7.0
272.1598	24.9
285.1551	15.8
290.1706	11.1
386.2024	20.5
499.2866	23.1
517.2972	39.8
518.2983	10.4

Name: H-DL-Leu-DL-Leu-DL-Val-DL-Phe-NH2
PrecursorMZ: 512.32147
RT: 1.5621
ExactMass: 489.33150487
Spectrum_type: 2
charge: 1
Formula: C26H43N5O4
SMILES: CC(C)CC(C(=O)NC(CC(C)C)C(=O)NC(C(C)C)C(=O)NC(CC1=CC=CC=C1)C(=O)N)N
Method: HCD
Collision_energy: [28.333334]
Isolation_window: 4.0
Ion_mode: P
Num Peaks: 18
70.0656	1.4
72.0812	1.0
86.0969	1.1
89.0601	1.0
116.0707	0.8
120.0811	59.2
121.0844	4.8
131.0494	1.7
132.1021	1.0
133.0860	0.7
149.0599	2.2
166.0865	100.0
167.0900	10.0
168.0908	0.8
215.1391	0.7
219.1344	1.4
224.0923	2.0
311.2222	0.8

Name: H-DL-Val-DL-Tyr-DL-Tyr-DL-Phe-OH
PrecursorMZ: 591.28124
RT: 3.1282666666666668
ExactMass: 590.27404956
Spectrum_type: 2
charge: 1
Formula: C32H38N4O7
SMILES: CC(C)C(C(=O)NC(CC1=CC=C(C=C1)O)C(=O)NC(CC2=CC=C(C=C2)O)C(=O)NC(CC3=CC=CC=C3)C(=O)O)N
Method: HCD
Collision_energy: [28.333334]
Isolation_window: 4.0
Ion_mode: P
Num Peaks: 22
118.0653	12.3
120.0809	14.4
133.1015	5.2
136.0757	5.1
146.0601	100.0
147.0635	5.2
175.0866	7.8
180.1383	27.1
182.0811	5.9
203.0815	70.9
204.0849	5.8
208.1332	16.8
236.1072	10.3
265.0855	10.0
282.1124	8.5
327.1338	8.0
327.2069	7.0
353.1854	5.8
384.1551	17.1
410.2064	6.8
591.2822	16.0
592.2836	6.5

Name: H-Glu-Leu-OH
PrecursorMZ: 261.14416
RT: 6.9556
ExactMass: 260.13722174
Spectrum_type: 2
charge: 1
Formula: C11H20N2O5
SMILES: CC(C)CC(C(=O)O)NC(=O)C(CCC(=O)O)N
Method: HCD
Collision_energy: [28.333334]
Isolation_window: 4.0
Ion_mode: P
Num Peaks: 67
70.0654	4.7
81.0337	3.3
84.0446	40.5
84.0809	2.0
85.0480	2.0
86.0966	100.0
87.1000	5.0
88.0395	3.1
97.0286	4.4
100.0758	9.9
102.0550	12.4
102.0914	3.4
109.0285	8.1
115.0866	1.9
116.0706	4.2
121.1012	2.5
126.0549	3.6
129.0657	8.2
130.0497	34.2
130.0862	2.2
132.1018	54.9
133.1052	3.3
141.0657	6.8
147.0762	1.8
148.0603	12.7
158.0922	20.3
159.0763	6.2
172.0603	4.6
182.0922	3.4
184.1077	7.5
196.0601	2.7
197.1281	68.4
198.1127	2.0
198.1318	6.2
200.1025	2.5
202.1071	1.9
208.0965	9.7
214.1434	2.9
215.0844	3.0
215.1388	1.8
216.1225	6.3
224.0913	3.3
225.1228	7.0
226.0708	2.3
226.1071	4.2
227.1275	2.2
228.0975	58.4
229.1010	6.0
242.1017	3.5
242.1387	2.0
243.0794	32.6
243.1335	68.4
244.0826	3.6
244.1179	6.4
244.1370	7.8
260.0914	2.2
260.1119	6.2
260.1236	21.7
260.1480	5.0
261.0907	4.5
261.1076	2.8
261.1219	5.0
261.1440	16.1
262.0920	2.6
262.1067	5.5
262.1287	12.0
263.1018	4.3

Name: H-Gly-DL-Pro-DL-Ala-Gly-DL-Pro-OH
PrecursorMZ: 398.20302
RT: 5.6569
ExactMass: 397.1961336
Spectrum_type: 2
charge: 1
Formula: C17H27N5O6
SMILES: CC(C(=O)NCC(=O)N1CCCC1C(=O)O)NC(=O)C2CCCN2C(=O)CN
Method: HCD
Collision_energy: [28.333334]
Isolation_window: 4.0
Ion_mode: P
Num Peaks: 20
70.0656	23.3
89.0601	21.5
112.0871	9.9
133.0859	12.1
144.0658	7.7
195.1129	50.7
380.1934	36.2
381.1974	8.3
397.2089	7.0
398.1466	7.3
398.2033	100.0
399.2117	23.4
400.1635	6.9
400.2159	29.6
401.2043	25.8
409.1991	13.3
410.1883	7.9
411.1753	7.1
412.2073	8.2
415.2132	7.9

Name: H-Ile-Lys-Ile-Ser-Ser-OH
PrecursorMZ: 569.32891
RT: 4.8976
ExactMass: 546.33771245
Spectrum_type: 2
charge: 1
Formula: C24H46N6O8
SMILES: CC[C@H](C)[C@@H](C(=O)N[C@@H](CCCCN)C(=O)N[C@@H]([C@@H](C)CC)C(=O)N[C@@H](CO)C(=O)N[C@@H](CO)C(=O)O)N
Method: HCD
Collision_energy: [28.333334]
Isolation_window: 4.0
Ion_mode: P
Num Peaks: 44
50.2502	2.1
70.0654	3.9
72.0810	14.7
84.0446	30.3
86.0966	31.6
101.0710	100.0
102.0743	3.7
104.1070	2.0
116.0705	1.4
118.0862	10.6
129.0657	7.7
130.0496	1.6
138.0912	1.5
183.1125	39.5
184.1159	2.9
193.0969	2.3
196.1441	3.6
197.1281	8.4
211.1073	26.3
212.1110	2.2
213.1229	1.5
214.1544	3.4
224.1388	1.8
228.1338	8.0
231.1699	11.6
242.1494	1.9
244.1289	2.2
255.2103	1.6
311.1705	5.3
339.1655	79.5
340.1690	11.9
341.2174	2.9
359.2282	4.4
412.3198	3.4
424.2546	11.1
425.2584	2.5
452.2495	42.3
453.2527	8.6
510.2878	3.1
551.3179	4.9
552.3197	1.6
569.3290	5.5
570.3052	6.2
571.3083	1.8

Name: H-Leu-D-Leu-D-Leu-OH
PrecursorMZ: 358.26961
RT: 2.9569
ExactMass: 357.26275661
Spectrum_type: 2
charge: 1
Formula: C18H35N3O4
SMILES: CC(C)C[C@@H](C(=O)N[C@H](CC(C)C)C(=O)N[C@H](CC(C)C)C(=O)O)N
Method: HCD
Collision_energy: [28.333334]
Isolation_window: 4.0
Ion_mode: P
Num Peaks: 6
86.0967	100.0
199.1803	44.6
227.1751	48.7
228.1786	6.4
245.1857	8.1
358.2693	6.9

Name: H-Leu-D-Leu-Leu-OMe
PrecursorMZ: 372.28452
RT: 1.1612
ExactMass: 371.27840667
Spectrum_type: 2
charge: 1
Formula: C19H37N3O4
SMILES: CC(C)C[C@@H](C(=O)N[C@H](CC(C)C)C(=O)N[C@@H](CC(C)C)C(=O)OC)N
Method: HCD
Collision_energy: [28.333334]
Isolation_window: 4.0
Ion_mode: P
Num Peaks: 11
72.0810	2.1
86.0966	100.0
87.1000	4.3
146.1174	26.8
147.1208	1.5
199.1802	32.9
200.1836	3.2
227.1750	33.1
228.1786	3.8
259.2013	5.7
372.2854	4.5

Name: H-Phe-Arg-OH.TFA
PrecursorMZ: 322.18707
RT: 2.9693
ExactMass: 321.18008961
Spectrum_type: 2
charge: 1
Formula: C15H23N5O3
SMILES: C1=CC=C(C=C1)CC(C(=O)NC(CCCN=C(N)N)C(=O)O)N
Method: HCD
Collision_energy: [28.333334]
Isolation_window: 4.0
Ion_mode: P
Num Peaks: 36
60.0562	8.9
70.0656	24.3
72.0814	7.8
84.0813	23.0
98.0968	13.5
98.9845	15.5
116.0711	8.8
120.0811	33.7
122.0815	48.8
130.0866	8.1
138.1031	9.8
152.0709	9.8
158.0926	9.8
175.1194	35.8
190.0985	11.7
199.1083	12.9
210.0800	21.2
226.1189	40.9
283.1659	8.0
305.1598	8.4
320.1915	13.0
321.1884	9.4
322.1884	100.0
323.1948	18.2
324.1932	16.6
325.1771	8.3
328.1877	62.4
329.1539	16.4
329.1918	12.3
330.1356	9.7
330.3365	12.5
332.1560	14.8
333.1477	9.3
335.1631	10.4
336.1959	11.3
341.1818	79.4

Name: H-Pro-Phe-Leu-Ile-OH
PrecursorMZ: 489.3066
RT: 1.2252
ExactMass: 489.30769542
Spectrum_type: 2
charge: 1
Formula: C26H41N4O5+
SMILES: CC[C@H](C)[C@@H](C(=O)O)NC(=O)[C@H](CC(C)C)NC(=O)[C@H](CC1=CC=CC=C1)NC(=O)[C@@H]2CCC[NH2+]2
Method: HCD
Collision_energy: [28.333334]
Isolation_window: 4.0
Ion_mode: P
Num Peaks: 14
70.0654	72.2
71.0688	2.0
72.0811	8.5
86.0965	1.6
120.0807	14.8
146.1174	4.6
183.1489	1.8
219.1487	5.3
229.1547	1.6
243.1698	100.0
244.1735	11.2
247.1439	2.5
390.2375	1.3
489.3077	1.8

Name: H-Pyr-Asp-Pro-NH2
PrecursorMZ: 341.14473
RT: 5.1844
ExactMass: 340.13828437
Spectrum_type: 2
charge: 1
Formula: C14H20N4O6
SMILES: C1C[C@H](N(C1)C(=O)[C@H](CC(=O)O)NC(=O)[C@@H]2CCC(=O)N2)C(=O)N
Method: HCD
Collision_energy: [28.333334]
Isolation_window: 4.0
Ion_mode: P
Num Peaks: 32
69.5784	6.4
70.0654	8.7
72.0810	4.6
84.0445	28.0
86.0965	5.9
96.0444	8.3
98.0963	5.8
105.0698	4.3
114.0548	6.0
164.0704	5.0
166.0859	5.1
166.0973	4.4
167.0812	7.9
180.0650	9.6
184.1076	100.0
185.1111	7.7
198.0753	7.6
230.1129	21.7
250.1179	24.4
287.1385	4.3
295.1392	58.5
296.1429	7.1
305.1485	5.1
323.1342	10.9
339.3441	7.9
340.1525	5.8
341.1453	54.1
341.1838	7.7
342.1322	4.3
342.1488	8.2
343.1659	10.2
343.2004	10.0

Name: H-Pyr-Tyr-Gly-Gly-OH
PrecursorMZ: 407.155
RT: 5.6076
ExactMass: 406.14884905
Spectrum_type: 2
charge: 1
Formula: C18H22N4O7
SMILES: C1CC(=O)N[C@@H]1C(=O)N[C@@H](CC2=CC=C(C=C2)O)C(=O)NCC(=O)NCC(=O)O
Method: HCD
Collision_energy: [28.333334]
Isolation_window: 4.0
Ion_mode: P
Num Peaks: 9
76.0395	31.6
84.0445	7.0
86.0965	6.8
107.0490	9.8
133.0604	100.0
136.0753	29.6
247.1068	30.7
275.1015	20.6
406.2321	9.7

Name: Hexadecasphinganine(1+)
PrecursorMZ: 274.2736
RT: 4.8312
ExactMass: 274.274604391
Spectrum_type: 2
charge: 1
Formula: C16H36NO2+
SMILES: CCCCCCCCCCCCC[C@H]([C@H](CO)[NH3+])O
Method: HCD
Collision_energy: [28.333334]
Isolation_window: 4.0
Ion_mode: P
Num Peaks: 31
55.0546	4.5
57.0703	5.1
60.0448	99.0
67.0546	9.6
69.0702	9.1
69.3977	4.6
73.0287	5.2
81.0701	16.9
83.0857	13.3
89.0599	11.9
95.0857	20.0
97.1012	6.6
97.4562	4.8
109.1013	9.2
133.0859	5.1
150.0912	25.6
212.2371	4.0
226.2524	20.9
227.2564	6.1
231.1489	3.8
234.1848	15.3
238.2524	13.1
256.2629	100.0
257.2662	18.2
273.1229	5.0
274.1429	4.0
274.2734	50.8
275.1373	4.8
275.1742	9.3
275.2769	8.7
276.1949	4.3

Name: Hexadecyl-bis(2-hydroxyethyl)azanium
PrecursorMZ: 330.33617
RT: 1.7541333333333333
ExactMass: 330.337204646
Spectrum_type: 2
charge: 1
Formula: C20H44NO2+
SMILES: CCCCCCCCCCCCCCCC[NH+](CCO)CCO
Method: HCD
Collision_energy: [28.333334]
Isolation_window: 4.0
Ion_mode: P
Num Peaks: 6
70.0654	2.7
88.0759	6.0
106.0863	4.8
312.3252	5.2
330.3360	100.0
331.3394	20.5

Name: Histidinyl-Proline
PrecursorMZ: 299.13413
RT: 5.7549
ExactMass: 252.12224039
Spectrum_type: 2
charge: 1
Formula: C11H16N4O3
SMILES: C1CC(N(C1)C(=O)C(CC2=CN=CN2)N)C(=O)O
Method: HCD
Collision_energy: [28.333334]
Isolation_window: 4.0
Ion_mode: P
Num Peaks: 28
70.0654	53.7
74.0603	18.0
81.0336	6.6
84.0810	10.0
95.0604	6.5
96.0444	23.7
110.0712	69.3
116.0705	15.2
141.1020	19.7
156.0765	100.0
169.0966	19.4
187.1074	6.7
229.1540	24.0
237.0973	8.8
297.1437	26.6
297.1831	22.9
298.1266	9.9
298.1401	35.9
298.1637	6.7
299.1355	48.2
299.1595	19.4
299.1955	32.7
300.1208	28.6
300.1403	7.2
300.1579	8.3
300.1923	13.1
301.1154	9.8
301.1540	7.0

Name: Histidylthreonine
PrecursorMZ: 257.12409
RT: 9.7069
ExactMass: 256.117155
Spectrum_type: 2
charge: 1
Formula: C10H16N4O4
SMILES: C[C@H]([C@@H](C(=O)O)NC(=O)[C@H](CC1=CN=CN1)N)O
Method: HCD
Collision_energy: [28.333334]
Isolation_window: 4.0
Ion_mode: P
Num Peaks: 9
110.0711	6.2
114.0661	5.0
124.0868	22.8
169.0605	6.4
256.1177	4.2
257.1121	5.2
257.1239	100.0
258.0964	7.4
258.1292	7.4

Name: Hydron;methyl 3-aminopropanoate
PrecursorMZ: 104.07077
RT: 7.1322
ExactMass: 104.071153562
Spectrum_type: 2
charge: 1
Formula: C4H10NO2+
SMILES: [H+].COC(=O)CCN
Method: HCD
Collision_energy: [28.333334]
Isolation_window: 4.0
Ion_mode: P
Num Peaks: 9
58.0655	9.2
72.0447	42.1
75.0444	56.5
87.0443	54.5
90.0551	32.8
102.1278	18.1
104.0707	100.0
104.1070	21.7
105.0698	10.4

Name: Hydroxybutyrylcarnitine
PrecursorMZ: 248.14892
RT: 8.4008
ExactMass: 247.14197277
Spectrum_type: 2
charge: 1
Formula: C11H21NO5
SMILES: CC(CC(=O)O[C@@H](CC(=O)[O-])C[N+](C)(C)C)O
Method: HCD
Collision_energy: [28.333334]
Isolation_window: 4.0
Ion_mode: P
Num Peaks: 19
60.0811	6.3
87.0443	100.0
103.0391	11.7
140.0705	6.4
169.0971	9.1
189.0754	6.3
229.1180	22.2
247.1065	10.5
247.1160	5.5
247.1283	23.5
247.1436	13.5
247.1552	5.8
248.1290	15.3
248.1488	70.2
248.1638	18.9
249.1226	18.8
249.1516	5.1
249.1597	25.5
250.0892	4.2

Name: Hydroxypropionylcarnitine
PrecursorMZ: 216.12282
RT: 8.3887
ExactMass: 233.12632271
Spectrum_type: 2
charge: 1
Formula: C10H19NO5
SMILES: C[N+](C)(C)C[C@H](CC(=O)[O-])OC(=O)CCO
Method: HCD
Collision_energy: [28.333334]
Isolation_window: 4.0
Ion_mode: P
Num Peaks: 22
60.0811	5.5
70.0655	4.3
72.0811	70.7
84.0810	8.2
111.0441	4.6
114.0914	26.1
129.1021	10.8
130.0861	4.4
157.0494	100.0
158.0527	7.1
169.0967	5.2
215.1022	22.5
215.1107	4.5
215.1386	78.7
216.0764	12.2
216.1227	50.5
216.1424	7.9
216.1587	6.6
217.0966	9.5
217.1178	18.5
217.1543	15.5
218.1021	6.8

Name: Ile-Met(O)
PrecursorMZ: 279.13711
RT: 5.6071
ExactMass: 278.13002836
Spectrum_type: 2
charge: 1
Formula: C11H22N2O4S
SMILES: CCC(C)C(C(=O)NC(CCS(=O)C)C(=O)O)N
Method: HCD
Collision_energy: [28.333334]
Isolation_window: 4.0
Ion_mode: P
Num Peaks: 60
56.0499	6.5
69.0703	2.0
69.0739	2.1
70.0654	1.9
74.0240	13.8
74.0604	12.0
75.0266	8.9
84.0446	2.2
86.0967	45.6
87.1000	2.1
95.0604	1.8
102.0551	2.1
116.0706	9.6
120.0808	8.2
130.0498	20.9
132.0654	3.7
133.0605	2.5
133.0759	3.6
136.0755	8.7
141.1021	10.7
148.0603	1.7
149.0270	5.3
150.1276	1.7
151.0865	14.8
166.0531	100.0
167.0568	4.5
169.1334	9.3
180.1017	10.5
187.1076	4.2
197.1285	1.8
198.0755	1.8
215.1387	34.4
216.1423	4.0
219.0566	3.1
232.0828	6.3
233.1315	8.9
260.0775	6.7
261.1247	4.4
262.1064	2.3
278.0886	10.8
278.1021	1.9
278.1376	4.0
278.1489	3.2
279.0504	10.5
279.0931	18.8
279.1361	61.5
279.1685	4.5
279.2064	2.8
280.0556	2.7
280.0956	3.8
280.1167	9.3
280.1286	15.3
280.1397	4.5
280.1533	6.6
280.1657	3.6
280.1876	2.0
281.0917	2.7
281.1115	2.2
281.1269	1.8
281.1484	9.5

Name: Ile-Tyr-Ala
PrecursorMZ: 366.20223
RT: 2.2135
ExactMass: 365.19507097
Spectrum_type: 2
charge: 1
Formula: C18H27N3O5
SMILES: CC[C@H](C)[C@@H](C(=O)N[C@@H](CC1=CC=C(C=C1)O)C(=O)N[C@@H](C)C(=O)O)N
Method: HCD
Collision_energy: [28.333334]
Isolation_window: 4.0
Ion_mode: P
Num Peaks: 8
72.0812	24.0
86.0968	18.9
136.0758	100.0
207.1126	23.5
235.1440	24.7
249.1601	19.1
263.1397	22.2
368.4245	13.0

Name: Ile-Tyr-Val
PrecursorMZ: 394.23328
RT: 4.6875
ExactMass: 393.2263711
Spectrum_type: 2
charge: 1
Formula: C20H31N3O5
SMILES: CC[C@H](C)[C@@H](C(=O)N[C@@H](CC1=CC=C(C=C1)O)C(=O)N[C@@H](C(C)C)C(=O)O)N
Method: HCD
Collision_energy: [28.333334]
Isolation_window: 4.0
Ion_mode: P
Num Peaks: 79
70.0655	2.9
72.0811	26.4
73.0844	1.0
81.0337	2.6
84.0810	1.2
86.0966	36.8
87.1000	1.9
107.0490	0.9
110.0713	1.3
111.0441	1.0
118.0863	1.1
120.0807	3.1
130.0650	1.5
132.1017	2.8
136.0755	100.0
137.0788	8.1
150.0912	2.4
151.0615	1.0
164.1068	6.4
165.0544	1.0
182.0808	3.9
185.1645	18.3
186.1679	1.6
194.1171	1.6
196.0965	1.8
196.1327	2.3
198.0755	0.9
200.1278	12.0
200.1383	1.0
201.1311	1.0
202.1435	0.9
210.1120	1.2
212.1278	1.8
213.1593	17.7
214.1628	2.4
230.1383	4.1
231.1698	3.5
235.1436	31.3
236.1472	4.0
243.1697	0.9
245.1855	3.2
249.1592	19.1
250.1630	2.5
263.1385	26.2
263.1746	1.7
264.1421	3.7
264.1698	1.1
277.1540	17.0
278.1574	2.8
281.1488	3.7
295.1646	3.8
309.1801	17.5
310.1837	3.9
311.1593	6.8
339.1904	2.0
348.1336	0.9
357.2014	6.6
358.2049	1.5
359.1802	4.5
375.2120	4.9
376.2137	0.9
377.1905	1.5
393.1427	2.2
393.1787	1.3
393.1995	6.4
393.2227	5.7
393.2462	1.1
394.1244	1.6
394.1462	1.0
394.1645	1.5
394.2037	2.2
394.2321	7.7
394.2584	1.3
395.1588	3.5
395.1967	3.4
395.2347	1.3
395.2628	1.7
396.1410	1.2
396.1921	2.0

Name: Ile-Val-Pro
PrecursorMZ: 328.22267
RT: 4.666449999999999
ExactMass: 327.21580641
Spectrum_type: 2
charge: 1
Formula: C16H29N3O4
SMILES: CC[C@H](C)[C@@H](C(=O)N[C@@H](C(C)C)C(=O)N1CCC[C@@H]1C(=O)O)N
Method: HCD
Collision_energy: [28.333334]
Isolation_window: 4.0
Ion_mode: P
Num Peaks: 21
56.0499	4.4
70.0654	10.0
72.0811	28.9
86.0966	55.2
89.0598	11.5
97.4318	6.7
98.0965	4.1
116.0706	100.0
120.0808	10.8
133.0858	8.9
170.1173	15.8
176.8751	5.1
185.1645	40.7
186.1678	4.8
213.1594	32.8
228.9328	6.6
311.0901	4.7
328.2231	6.3
329.1157	6.6
329.1481	5.1
329.2068	16.0

Name: Indoline-2-carboxylate
PrecursorMZ: 146.05995
RT: 7.2721
ExactMass: 162.055503498
Spectrum_type: 2
charge: 1
Formula: C9H8NO2-
SMILES: C1C(NC2=CC=CC=C21)C(=O)[O-]
Method: HCD
Collision_energy: [28.333334]
Isolation_window: 4.0
Ion_mode: P
Num Peaks: 10
91.0542	3.9
118.0651	100.0
119.0684	8.9
121.9660	5.2
123.9641	5.4
144.0806	15.0
145.0760	8.0
145.0838	4.6
146.0598	32.9
147.0630	4.3

Name: Isopentenyladenine9-Glucoside
PrecursorMZ: 366.17702
RT: 1.1635
ExactMass: 365.16991885
Spectrum_type: 2
charge: 1
Formula: C16H23N5O5
SMILES: CC(=CCNC1=C2C(=NC=N1)N(C=N2)C3C(C(C(C(O3)CO)O)O)O)C
Method: HCD
Collision_energy: [28.333334]
Isolation_window: 4.0
Ion_mode: P
Num Peaks: 59
69.0704	3.0
70.0656	6.1
72.0812	4.2
81.0338	5.7
83.0496	6.7
84.0811	4.1
85.0285	2.6
89.0601	3.1
98.0965	2.7
111.0443	24.1
116.0710	3.2
136.0619	46.0
150.0546	3.0
152.0709	2.8
163.1231	2.8
180.1022	3.1
188.0708	6.0
202.0861	2.6
204.1245	100.0
205.1279	11.9
207.0761	2.9
235.1433	3.1
237.0871	9.6
253.1184	3.0
255.0977	8.6
263.1391	3.2
364.1834	2.8
365.1354	6.3
365.1768	7.6
366.1776	71.9
367.1839	16.2
368.1850	4.0
368.4250	3.6
369.1497	3.6
369.1755	3.9
370.1323	3.6
371.1545	3.7
371.1963	3.3
372.1459	8.3
373.1362	3.3
373.1801	5.7
374.1643	7.5
374.3628	4.3
375.1567	6.5
376.1379	3.3
376.1978	3.7
377.1718	6.0
378.1522	3.6
378.1997	5.6
379.1486	5.8
379.1928	4.4
379.2945	5.3
380.1841	4.8
381.1679	3.6
381.2050	2.8
382.1373	2.7
382.2056	4.5
383.1750	4.3
384.1475	6.2

Name: Kynurenate
PrecursorMZ: 190.05066
RT: 4.5793
ExactMass: 188.034768053
Spectrum_type: 2
charge: 1
Formula: C10H6NO3-
SMILES: C1=CC=C2C(=C1)C(=O)C=C(N2)C(=O)[O-]
Method: HCD
Collision_energy: [28.333334]
Isolation_window: 4.0
Ion_mode: P
Num Peaks: 15
86.0967	1.8
120.0808	1.4
131.0854	1.4
144.9928	1.3
145.0395	7.5
145.1010	1.4
162.0548	82.9
163.0582	7.9
189.0658	1.8
189.1636	1.9
190.0497	100.0
190.0860	8.5
191.0449	27.7
191.0531	9.9
191.0812	1.8

Name: L-Arg-L-Asp
PrecursorMZ: 290.14544
RT: 9.8655
ExactMass: 289.13861872
Spectrum_type: 2
charge: 1
Formula: C10H19N5O5
SMILES: C(CC(C(=O)NC(CC(=O)O)C(=O)O)N)CN=C(N)N
Method: HCD
Collision_energy: [28.333334]
Isolation_window: 4.0
Ion_mode: P
Num Peaks: 21
60.0560	17.4
69.9336	6.8
70.0654	58.7
86.0603	9.6
101.0598	6.5
112.0870	9.7
146.0922	8.3
175.1187	20.7
190.0532	6.3
230.1132	6.4
231.0969	7.0
272.1236	11.3
273.1185	16.7
288.0855	7.4
289.0893	13.4
289.1504	27.8
290.1057	19.1
290.1348	36.2
290.1462	100.0
291.1503	7.9
291.2424	13.3

Name: L-Furosine
PrecursorMZ: 255.1335
RT: 11.0065
ExactMass: 254.12665706
Spectrum_type: 2
charge: 1
Formula: C12H18N2O4
SMILES: C1=COC(=C1)C(=O)CNCCCCC(C(=O)O)N
Method: HCD
Collision_energy: [28.333334]
Isolation_window: 4.0
Ion_mode: P
Num Peaks: 16
84.0810	97.4
108.0446	9.7
124.0393	68.6
126.0549	44.8
130.0862	53.9
192.1016	9.1
194.1287	7.0
195.1125	8.6
210.1122	38.0
237.1594	6.4
254.1608	24.9
254.1857	5.3
255.1335	100.0
255.1698	27.6
256.1386	10.3
256.1764	9.0

Name: L-Lysine, N6-(2-hydroxy-2-methyl-1-oxopropyl)-
PrecursorMZ: 233.14932
RT: 9.338
ExactMass: 232.14230712
Spectrum_type: 2
charge: 1
Formula: C10H20N2O4
SMILES: CC(C)(C(=O)NCCCC[C@@H](C(=O)O)N)O
Method: HCD
Collision_energy: [28.333334]
Isolation_window: 4.0
Ion_mode: P
Num Peaks: 35
72.0447	3.1
84.0810	23.0
90.0552	3.0
98.0602	2.7
99.0442	3.5
100.0758	8.6
101.0598	11.4
110.0967	2.3
112.0760	2.4
114.0662	24.1
116.0707	7.0
118.0862	3.1
126.0914	3.3
128.1069	15.8
130.0862	11.1
154.0862	11.5
156.1021	2.3
172.0967	24.2
173.1284	8.1
176.8748	3.5
190.1072	43.6
191.1387	8.0
197.1283	5.7
215.1384	3.4
216.1227	100.0
217.1267	2.8
232.1174	6.4
232.1293	3.7
233.1126	3.5
233.1245	6.8
233.1492	78.3
234.1127	2.5
234.1333	73.3
234.1510	8.6
235.1076	5.0

Name: L-Methionine-(carboxy-13C,methyl-d3), 99 atom % 13C, 99 atom % D
PrecursorMZ: 150.0582
RT: 8.1963
ExactMass: 153.07323484
Spectrum_type: 2
charge: 1
Formula: C5H11NO2S
SMILES: [2H]C([2H])([2H])SCC[C@@H]([13C](=O)O)N
Method: HCD
Collision_energy: [28.333334]
Isolation_window: 4.0
Ion_mode: P
Num Peaks: 44
56.0499	80.9
58.0655	31.6
59.0734	30.7
61.0111	33.0
69.2658	6.3
69.3485	6.0
70.0655	14.5
74.0239	4.6
74.0604	9.0
80.0498	10.8
84.0446	39.9
84.0811	16.7
85.0479	5.3
87.0265	10.9
88.0395	21.7
88.0759	23.3
91.0544	38.8
96.9953	13.3
102.0551	26.0
102.0915	60.4
103.0947	7.5
104.0529	100.0
105.0563	6.0
106.0487	5.5
128.6228	10.5
130.0497	7.3
130.0863	7.2
132.1019	7.7
133.0317	64.4
134.0350	5.5
134.0632	31.4
148.0968	20.0
149.0231	11.2
150.0586	10.5
150.0774	56.8
150.0912	54.2
150.1123	11.9
150.1276	71.8
151.0861	6.6
151.1311	8.4
151.6255	48.5
152.0567	14.0
152.0701	25.0
152.0734	5.3

Name: L-Prolinamide-2,5,5-D3
PrecursorMZ: 115.08667
RT: 9.8954
ExactMass: 117.098143185
Spectrum_type: 2
charge: 1
Formula: C5H10N2O
SMILES: [2H][C@]1(CCC(N1)([2H])[2H])C(=O)N
Method: HCD
Collision_energy: [28.333334]
Isolation_window: 4.0
Ion_mode: P
Num Peaks: 11
68.0498	1.4
70.0614	0.7
70.0654	100.0
71.0688	1.6
74.9378	2.8
92.9482	1.7
114.0550	1.2
114.0913	6.6
115.0865	1.1
115.9641	0.9
116.0706	27.2

Name: L-Tryptophyl-L-Proline
PrecursorMZ: 302.14952
RT: 5.2088
ExactMass: 301.14264148
Spectrum_type: 2
charge: 1
Formula: C16H19N3O3
SMILES: C1C[C@H](N(C1)C(=O)[C@H](CC2=CNC3=CC=CC=C32)N)C(=O)O
Method: HCD
Collision_energy: [28.333334]
Isolation_window: 4.0
Ion_mode: P
Num Peaks: 61
69.6690	1.4
70.0654	100.0
71.0688	3.8
72.0811	4.0
81.0337	1.6
86.0966	4.0
110.0713	2.0
114.0549	3.5
116.0706	3.7
121.0647	25.0
122.0679	2.2
123.0440	6.9
123.0552	3.5
130.0651	3.5
131.0853	1.4
132.0806	3.2
138.0912	11.0
144.0806	3.6
150.0913	2.6
154.0499	1.4
159.0915	13.3
160.0948	1.6
170.0599	3.6
172.0756	1.5
187.1073	1.7
188.0703	9.4
205.0967	7.8
211.0865	1.7
240.2682	7.7
253.1179	2.4
257.1066	9.1
257.1277	2.6
258.1116	1.9
259.1220	2.3
268.0962	2.2
283.1068	3.2
285.1227	12.9
285.1845	3.4
286.1284	2.2
300.1788	2.6
300.2885	1.6
300.3524	1.7
301.1178	9.9
301.1386	2.2
301.1526	3.6
301.1914	1.9
302.1013	5.9
302.1212	1.9
302.1375	7.2
302.1502	35.4
302.1731	4.6
302.3045	10.6
303.1126	9.5
303.1330	5.4
303.1474	4.2
303.1532	6.2
303.1708	2.6
303.3083	2.3
304.1161	2.0
304.1296	2.4
304.1383	1.8

Name: L-Valyl-L-glutamic acid
PrecursorMZ: 247.12873
RT: 7.1922
ExactMass: 246.12157168
Spectrum_type: 2
charge: 1
Formula: C10H18N2O5
SMILES: CC(C)C(C(=O)NC(CCC(=O)O)C(=O)O)N
Method: HCD
Collision_energy: [28.333334]
Isolation_window: 4.0
Ion_mode: P
Num Peaks: 32
70.0655	6.0
72.0812	100.0
73.0845	3.9
76.0396	5.6
84.0447	10.0
84.0810	4.7
85.0287	5.4
86.0967	21.3
97.3993	5.3
98.9844	9.3
102.0551	5.0
116.0707	5.6
118.0864	6.6
129.1022	4.2
130.0499	46.1
142.0498	20.6
145.0608	4.4
147.0763	4.4
147.1125	5.2
148.0604	34.1
172.0604	6.5
173.0211	4.3
187.0714	5.5
200.0917	20.7
205.0820	4.1
245.1856	4.3
246.0969	8.9
246.1100	4.1
247.1291	15.3
248.0917	4.4
248.1130	7.5
249.1573	13.7

Name: L-alpha-aminoacyl-L-arginine
PrecursorMZ: 232.14009
RT: 9.337250000000001
ExactMass: 232.14096445
Spectrum_type: 2
charge: 1
Formula: C8H18N5O3+
SMILES: C(C[C@@H](C(=O)[O-])NC(=O)C[NH3+])C[NH+]=C(N)N
Method: HCD
Collision_energy: [28.333334]
Isolation_window: 4.0
Ion_mode: P
Num Peaks: 15
60.0560	16.1
70.0654	20.9
112.0869	8.7
116.0705	23.7
130.0973	7.5
158.0920	12.4
175.1187	100.0
177.9643	7.2
201.0978	84.4
202.1014	11.1
231.1335	9.2
231.1698	16.5
232.1402	29.3
232.1538	7.4
233.1257	8.7

Name: L-erythro-sphingosine(1+)
PrecursorMZ: 300.28916
RT: 3.74615
ExactMass: 300.290254455
Spectrum_type: 2
charge: 1
Formula: C18H38NO2+
SMILES: CCCCCCCCCCCCC/C=C/[C@@H]([C@@H](CO)[NH3+])O
Method: HCD
Collision_energy: [28.333334]
Isolation_window: 4.0
Ion_mode: P
Num Peaks: 19
56.0499	8.6
69.0702	9.7
81.0701	7.8
82.0655	6.7
83.0857	6.4
97.4002	10.6
112.0757	13.2
112.8958	6.6
140.0707	9.9
211.1075	63.9
223.1074	21.0
252.2682	13.1
264.2676	8.6
269.1128	34.5
281.2663	7.4
282.2788	94.2
283.1284	100.0
283.2821	18.8
284.1319	11.6

Name: L-homocitrulline zwitterion
PrecursorMZ: 190.1183
RT: 8.7688
ExactMass: 189.11134135
Spectrum_type: 2
charge: 1
Formula: C7H15N3O3
SMILES: C(CCNC(=O)N)C[C@@H](C(=O)[O-])[NH3+]
Method: HCD
Collision_energy: [28.333334]
Isolation_window: 4.0
Ion_mode: P
Num Peaks: 53
55.0545	4.5
60.0811	4.5
70.0653	9.1
71.0494	9.3
72.0810	12.1
73.0650	3.4
82.0653	3.4
84.0809	15.3
86.0602	5.2
87.0441	2.8
90.0914	6.0
100.0757	16.8
101.0596	16.3
104.0704	2.9
109.1011	4.5
112.0756	11.7
115.0864	9.4
116.0704	7.8
118.0860	3.5
126.0911	12.9
127.0863	3.6
128.0702	3.8
129.1019	14.7
130.0494	4.5
130.0859	7.6
134.0808	19.1
142.1223	7.4
143.1175	4.2
144.1016	7.0
144.1128	30.3
154.0856	3.5
154.1222	12.7
165.0213	3.3
172.0963	12.1
172.1327	16.3
173.0915	3.8
188.1058	3.1
188.1275	14.2
189.1010	3.3
189.1229	22.4
189.1379	24.3
190.0858	8.4
190.0971	3.3
190.1069	30.8
190.1181	57.6
190.1430	70.3
191.0811	5.3
191.1214	4.3
191.1469	5.9
191.1537	100.0
192.1013	6.1
192.1378	7.0
192.1570	5.6

Name: L-threo-dihydrosphingosine (C18)
PrecursorMZ: 302.30504
RT: 4.753299999999999
ExactMass: 302.305904519
Spectrum_type: 2
charge: 1
Formula: C18H40NO2+
SMILES: CCCCCCCCCCCCCCC[C@@H]([C@H](CO)[NH3+])O
Method: HCD
Collision_energy: [28.333334]
Isolation_window: 4.0
Ion_mode: P
Num Peaks: 115
55.0547	1.9
57.0703	2.9
60.0448	100.0
61.0481	2.3
67.0546	9.4
69.0702	8.5
70.0655	2.9
71.0495	1.7
71.0859	2.4
72.0812	8.7
81.0702	14.0
83.0858	8.3
85.1015	1.7
86.0967	14.2
93.0701	2.0
95.0857	16.6
97.1013	6.6
105.0700	1.4
107.0856	1.9
108.0810	3.8
109.1013	9.9
111.1170	2.4
112.0870	1.5
116.0707	2.4
119.0855	2.0
121.1013	2.8
123.1168	2.8
124.0757	1.9
126.0913	7.1
132.0807	1.9
132.1018	2.2
133.1010	2.2
135.0677	2.4
136.0756	6.8
138.0912	2.8
143.1177	1.3
144.0807	2.6
145.1011	1.5
147.1167	1.3
148.0756	32.1
149.0786	2.7
150.0913	11.4
154.0499	2.4
154.0862	3.1
159.0916	5.7
159.1169	1.8
171.1125	1.4
178.0862	8.2
182.0838	1.7
185.1647	2.4
188.0705	7.4
189.1233	1.4
203.1388	1.5
205.0970	5.5
209.0710	1.5
211.0534	4.8
211.0864	20.5
212.0901	2.8
213.1594	1.8
227.1175	2.0
229.1332	3.8
231.1488	4.1
237.1023	1.9
240.2683	3.2
241.0967	6.3
242.1004	1.4
242.2478	1.6
243.1122	2.8
247.0862	3.3
254.2839	15.1
255.1124	10.5
255.2871	2.7
256.1160	2.0
257.1281	27.8
258.1122	8.9
258.1322	2.9
259.1439	3.6
265.0969	3.7
266.2839	10.9
267.2870	1.7
273.1593	11.7
274.1627	2.9
275.1750	4.9
283.1074	3.0
283.2822	2.5
284.2944	82.6
285.1229	8.5
285.2978	15.5
286.0705	3.7
286.1065	1.5
287.1387	3.7
301.0846	3.2
301.1179	63.3
301.1532	5.1
301.1910	1.8
301.2156	6.4
301.2929	3.0
302.1019	1.3
302.1217	10.8
302.1382	1.9
302.1483	1.9
302.2200	1.4
302.2701	1.7
302.3049	73.9
303.0751	1.3
303.0964	2.9
303.1334	14.8
303.1691	5.4
303.2314	4.2
303.3083	14.2
304.0808	1.7
304.1170	9.5
304.1336	1.6
304.1381	1.8
304.1662	3.4

Name: Leu-Ala-Ser
PrecursorMZ: 290.17078
RT: 5.4501
ExactMass: 289.16377084
Spectrum_type: 2
charge: 1
Formula: C12H23N3O5
SMILES: C[C@@H](C(=O)N[C@@H](CO)C(=O)O)NC(=O)[C@H](CC(C)C)N
Method: HCD
Collision_energy: [28.333334]
Isolation_window: 4.0
Ion_mode: P
Num Peaks: 28
60.0448	10.9
72.0811	90.9
74.0603	37.5
86.0966	100.0
125.0961	11.0
126.0913	13.9
128.1070	21.3
144.9273	13.0
148.1120	14.5
166.0861	21.9
173.1280	88.4
176.8750	17.3
177.0868	28.8
187.0976	11.7
187.1438	31.8
191.1023	46.8
201.1230	91.7
215.1387	12.4
237.1482	26.6
277.0926	11.2
289.1160	26.3
289.1538	33.9
290.1376	13.8
290.1718	15.4
291.1327	35.8
291.1694	32.0
291.1940	17.0
291.2423	31.7

Name: Leu-Ala-Tyr
PrecursorMZ: 366.20147
RT: 4.8033
ExactMass: 365.19507097
Spectrum_type: 2
charge: 1
Formula: C18H27N3O5
SMILES: C[C@@H](C(=O)N[C@@H](CC1=CC=C(C=C1)O)C(=O)O)NC(=O)[C@H](CC(C)C)N
Method: HCD
Collision_energy: [28.333334]
Isolation_window: 4.0
Ion_mode: P
Num Peaks: 30
69.7556	3.1
70.0654	5.2
72.0810	10.2
81.0336	5.4
86.0965	100.0
87.0999	5.0
120.0806	13.1
126.0548	7.1
136.0754	68.8
137.0787	4.9
157.1332	74.2
158.1366	5.6
165.0542	9.7
166.0858	3.6
173.1278	3.5
175.0864	3.8
182.0807	29.2
185.1280	51.3
186.1314	4.1
201.1226	6.2
207.1122	25.4
208.1156	4.6
221.0912	7.1
235.1070	19.6
235.1435	3.0
253.1176	6.5
267.1335	3.4
295.1641	4.8
366.1499	3.2
366.2012	6.4

Name: Leucylglutamine
PrecursorMZ: 260.1601
RT: 6.1406
ExactMass: 259.15320616
Spectrum_type: 2
charge: 1
Formula: C11H21N3O4
SMILES: CC(C)CC(C(=O)NC(CCC(=O)N)C(=O)O)N
Method: HCD
Collision_energy: [28.333334]
Isolation_window: 4.0
Ion_mode: P
Num Peaks: 88
69.0701	1.7
71.0494	1.4
72.0811	3.4
81.0338	4.5
83.0606	9.4
84.0446	12.1
86.0603	2.0
86.0966	70.7
87.1000	3.8
96.0445	2.2
96.0809	7.9
97.0650	2.2
98.0602	2.2
98.9842	9.8
100.0216	2.6
100.0758	8.3
101.0169	3.8
101.0598	3.9
101.0710	3.7
109.0285	4.3
111.0441	4.7
112.0758	2.9
114.0914	100.0
115.0947	7.0
116.0706	8.2
118.0863	2.0
126.0911	2.6
128.0705	4.3
129.0657	1.8
130.0498	51.7
131.0531	2.4
131.1178	5.9
132.0654	2.2
132.1018	12.9
138.0548	5.5
146.0270	2.4
147.0763	96.4
148.0795	5.4
149.0596	2.2
158.0599	4.3
166.0497	2.8
167.0337	2.5
168.1018	2.9
175.0865	4.3
196.1330	2.0
196.1441	4.2
197.1281	15.2
200.1642	15.1
206.1172	5.6
213.0688	4.8
214.1435	4.0
215.1180	3.2
224.1277	11.6
225.1228	2.1
226.1071	2.9
230.0809	2.9
231.0889	3.0
241.1173	2.3
241.1543	21.8
242.1383	2.8
242.1492	33.2
243.0906	8.1
243.1334	17.6
243.1524	3.9
244.1369	1.5
258.1332	1.6
259.1067	3.3
259.1284	3.7
259.1436	3.2
259.1648	10.6
260.0912	4.2
260.1023	2.5
260.1130	3.6
260.1241	3.2
260.1273	4.0
260.1484	3.1
260.1601	26.1
260.1851	16.2
260.2002	3.8
261.0864	3.5
261.1227	24.4
261.1459	3.1
261.1622	4.0
262.1068	35.5
262.1166	2.3
262.1286	3.1
262.1569	3.5
279.1230	1.5

Name: Linoleamide
PrecursorMZ: 280.26326
RT: 0.5299
ExactMass: 279.256214676
Spectrum_type: 2
charge: 1
Formula: C18H33NO
SMILES: CCCCC/C=C\C/C=C\CCCCCCCC(=O)N
Method: HCD
Collision_energy: [28.333334]
Isolation_window: 4.0
Ion_mode: P
Num Peaks: 260
55.0544	4.2
56.0500	1.9
57.0340	5.6
57.0703	64.3
58.0656	2.0
58.0737	3.4
59.0496	5.2
62.0605	4.3
67.0547	69.8
68.0580	3.8
69.0339	4.0
69.0703	61.5
70.0656	2.4
70.0737	3.1
71.0495	7.3
71.0859	52.0
72.0448	2.7
72.0811	2.7
72.0892	2.4
79.0546	17.0
81.0339	1.9
81.0702	95.3
82.0735	5.8
83.0495	8.7
83.0859	56.9
84.0812	3.0
84.0890	3.1
85.0651	17.3
85.1015	17.1
86.0604	6.3
86.0968	2.3
87.0443	2.7
88.0760	2.3
89.0600	20.9
91.0543	10.5
93.0701	34.8
94.0734	2.2
95.0495	12.6
95.0858	100.0
96.0890	7.8
97.0650	15.0
97.1014	41.5
98.0967	2.0
98.1048	2.1
98.9843	3.3
99.0442	4.5
99.0807	14.0
100.0759	10.7
101.0601	3.8
105.0700	14.5
107.0494	2.0
107.0706	9.3
107.0857	40.2
108.0885	3.0
109.0649	6.8
109.1013	71.2
110.1046	7.0
111.0443	2.1
111.0806	16.4
111.1170	17.1
112.0759	2.7
113.0599	16.8
113.0962	7.5
114.0915	9.8
115.0755	3.4
116.0708	2.0
117.0701	4.2
119.0856	24.8
120.0890	1.9
121.0649	3.6
121.1013	49.4
122.1045	3.6
123.0805	12.9
123.1169	39.7
124.1204	3.3
125.0599	2.8
125.0962	13.6
125.1325	4.9
126.0912	2.9
127.0754	2.4
127.1118	37.0
128.1070	7.4
128.1155	3.0
128.1437	3.2
131.0704	7.1
131.0854	9.0
132.0445	7.5
133.0863	5.0
133.1012	26.8
134.1048	2.7
135.0805	8.8
135.1168	48.6
136.1201	4.8
137.0599	2.4
137.0961	13.9
137.1325	20.0
139.0753	4.8
139.1117	11.9
141.0911	3.3
141.1274	23.1
142.1221	6.3
142.1587	4.6
143.0859	2.1
145.1012	10.5
147.0803	3.0
147.1169	20.0
148.1208	2.7
149.0233	22.6
149.0963	11.3
149.1325	24.1
150.1264	5.6
151.0970	4.1
151.1119	15.7
151.1481	11.2
153.0911	5.5
153.1274	25.4
154.1221	2.0
154.1311	2.1
155.1068	4.1
155.1430	8.2
156.1022	2.3
156.1375	5.4
157.0496	8.7
157.1008	4.0
159.1169	9.5
161.0959	3.5
161.1325	18.9
162.1359	2.0
163.0754	1.8
163.1118	7.8
163.1481	13.0
165.0910	3.6
165.1274	8.1
165.1638	8.8
167.1067	4.6
167.1432	7.2
168.1370	3.1
169.1223	17.5
169.1581	2.7
170.1160	5.0
170.1537	5.8
171.1178	4.0
173.1325	6.6
175.1116	2.6
175.1481	10.0
177.1277	4.9
177.1637	7.7
179.1069	1.9
179.1430	13.6
179.1792	6.0
181.1225	3.1
181.1587	6.1
183.1170	1.9
183.1379	8.1
184.1692	2.0
185.1316	2.8
185.1537	2.0
187.1481	4.9
189.1275	2.3
189.1637	6.4
191.1062	2.4
191.1432	3.4
191.1794	3.5
193.1224	2.3
193.1590	4.1
195.1367	3.2
195.1746	3.9
196.1690	2.7
198.1847	3.7
199.1480	2.0
201.1639	2.5
203.1434	1.8
203.1793	2.2
205.1579	2.5
207.1740	2.4
209.1530	2.6
211.1482	2.2
213.1640	1.9
215.1797	1.8
217.1951	2.9
219.2107	4.6
221.1165	2.5
221.2263	2.3
222.1491	5.0
223.0755	2.0
223.1688	3.9
226.2163	2.0
230.2484	2.1
231.2104	1.9
233.2262	14.4
234.2297	3.0
237.0752	4.4
239.0903	2.9
240.2321	2.3
243.2112	9.5
244.0967	2.5
244.2140	2.1
245.2263	25.1
246.2301	4.4
247.2423	6.5
249.1841	2.7
251.0459	2.1
251.2367	4.6
252.2663	2.6
254.2477	1.9
256.2630	4.5
258.2425	5.3
259.2062	2.9
261.2210	21.3
262.2257	4.8
263.2369	27.4
264.2396	6.1
265.2520	7.1
268.2633	4.8
270.0767	1.8
274.2165	2.7
275.1994	8.3
276.2318	2.5
277.2156	17.9
278.2188	3.9
278.2479	6.7
279.2315	87.7
280.2349	12.5
280.2628	35.2
281.0513	3.1
281.2391	3.6
281.2667	5.3
282.2788	51.9
283.0293	2.7
283.2863	6.7
284.1673	2.2
284.2217	2.0
284.2933	5.8
285.2203	2.0
286.3097	3.3
287.2357	2.0
288.0863	2.1
288.2569	2.7
289.1804	2.2
289.2160	3.1
290.1356	3.2
290.2122	2.0
291.1582	2.9
291.1941	3.7
292.2268	45.2
292.2593	2.0
293.1381	2.4
293.2076	3.3
293.2309	5.8
294.2104	2.2
294.2420	10.0
296.2585	54.8
296.2930	5.1
297.2640	10.2
298.2739	13.3
299.0613	21.5
299.2557	8.9
300.0618	5.9
300.2898	2.0
301.0588	2.6

Name: Lithospermoside
PrecursorMZ: 330.1169
RT: 3.1299
ExactMass: 329.11106656
Spectrum_type: 2
charge: 1
Formula: C14H19NO8
SMILES: C1=C/C(=C/C#N)/[C@@H]([C@H]([C@@H]1O)O)O[C@H]2[C@@H]([C@H]([C@@H]([C@H](O2)CO)O)O)O
Method: HCD
Collision_energy: [28.333334]
Isolation_window: 4.0
Ion_mode: P
Num Peaks: 111
70.0656	9.1
81.0337	2.7
84.0813	8.0
86.0603	3.4
89.0601	2.7
95.0606	2.8
98.0603	3.8
99.0442	3.2
110.0603	2.8
112.0761	2.9
114.0553	3.6
116.0709	6.7
122.0604	3.9
122.0814	8.4
126.0552	2.9
128.0709	6.1
130.0865	6.3
132.0445	6.9
134.0812	2.7
137.0713	2.9
138.0550	4.0
141.0660	3.5
150.0553	6.5
152.0708	3.5
155.0817	6.3
158.0814	6.0
164.0703	3.6
167.0815	3.7
168.0664	9.0
169.0978	2.9
173.0922	16.8
176.0923	6.3
180.0654	3.1
182.0810	3.5
185.0924	3.6
186.0762	13.3
187.1080	4.2
194.0811	3.2
210.0790	12.4
219.1132	5.8
224.0917	4.5
230.1031	2.7
240.2328	2.8
241.1170	4.5
245.1134	5.7
248.1134	11.3
253.1177	4.1
257.1130	4.7
261.1227	3.2
265.1183	11.1
267.1330	4.0
281.1499	5.6
283.1345	2.8
284.1126	5.0
285.1519	3.1
287.1245	3.6
296.1139	3.3
297.1547	6.3
299.1245	2.8
301.1423	3.2
302.1242	3.1
307.1284	4.6
312.1081	5.6
313.1407	7.7
314.1233	6.9
316.1393	3.3
317.1356	5.6
320.1350	6.0
322.1479	2.8
325.1396	4.1
328.1380	6.1
329.1369	15.3
329.1741	8.7
330.0378	10.9
330.1174	48.2
330.1622	3.4
330.3362	4.6
331.1515	60.2
331.2341	6.6
332.1326	44.3
333.1329	10.0
333.1646	9.4
334.1482	12.8
335.1454	100.0
336.1064	5.8
336.1521	11.5
337.1425	9.4
337.1635	5.0
338.1451	19.7
339.1559	8.3
340.1626	17.6
341.1323	7.9
341.1690	5.7
342.1221	6.3
342.1655	8.1
343.0873	3.4
343.1533	9.1
344.1410	16.8
345.0611	30.7
345.1393	7.1
345.1749	17.2
346.0906	76.5
346.1496	8.3
346.3330	4.3
347.0928	10.2
347.1455	15.4
347.1836	3.8
348.0936	4.9
348.1281	10.5
348.1673	3.4
349.1616	35.5

Name: Margaroylglycine
PrecursorMZ: 350.26798
RT: 2.2724
ExactMass: 327.27734404
Spectrum_type: 2
charge: 1
Formula: C19H37NO3
SMILES: CCCCCCCCCCCCCCCCC(=O)NCC(=O)O
Method: HCD
Collision_energy: [28.333334]
Isolation_window: 4.0
Ion_mode: P
Num Peaks: 7
83.0856	3.0
137.0593	4.4
156.1743	100.0
157.1777	9.8
164.0703	2.6
224.0910	8.5
350.2678	7.5

Name: Methyl 2-((2-amino-3-(4-hydroxyphenyl)propanoyl)amino)propanoate
PrecursorMZ: 267.13384
RT: 4.441
ExactMass: 266.12665706
Spectrum_type: 2
charge: 1
Formula: C13H18N2O4
SMILES: CC(C(=O)OC)NC(=O)C(CC1=CC=C(C=C1)O)N
Method: HCD
Collision_energy: [28.333334]
Isolation_window: 4.0
Ion_mode: P
Num Peaks: 50
72.0812	5.1
73.0652	6.1
101.0599	13.8
114.0662	3.4
115.0756	27.1
119.0492	3.8
120.0810	51.5
121.0844	7.8
136.0758	63.3
137.0598	11.7
147.0441	5.8
152.0707	4.6
170.1176	3.4
179.0703	44.3
180.0735	4.1
190.0976	33.2
196.0969	100.0
197.1002	8.3
207.1127	12.1
209.0922	5.4
218.0923	11.2
222.1235	13.2
236.1028	28.4
239.1027	5.0
247.1073	3.4
248.1282	4.0
249.1232	5.4
250.1068	12.1
250.1186	3.5
251.1023	6.5
251.1385	4.2
265.1171	6.7
265.1543	11.7
266.1021	13.8
266.1378	19.8
266.1500	8.0
266.1744	9.7
267.0964	3.8
267.1108	9.4
267.1333	39.8
267.1445	4.0
267.1692	12.5
268.1169	14.6
268.1288	68.8
268.1533	7.4
268.1653	10.8
269.1124	10.8
269.1304	9.1
269.1489	19.9
269.1853	4.8

Name: Methyl 2-((2-hydroxy-3-methylbutanoyl)amino)-3-methylbutanoate
PrecursorMZ: 232.15431
RT: 5.7827
ExactMass: 231.14705815
Spectrum_type: 2
charge: 1
Formula: C11H21NO4
SMILES: CC(C)C(C(=O)OC)NC(=O)C(C(C)C)O
Method: HCD
Collision_energy: [28.333334]
Isolation_window: 4.0
Ion_mode: P
Num Peaks: 80
55.0547	1.9
70.0656	1.2
72.0812	5.6
73.0652	5.4
74.0605	9.4
81.0339	2.4
83.0496	1.7
84.0448	1.0
86.0603	1.0
86.0968	11.8
87.1001	1.1
98.0967	2.9
100.0759	2.2
101.0600	2.7
102.0552	1.0
104.0707	1.1
105.0701	6.4
106.0735	3.6
110.0603	0.9
111.0444	1.3
114.0916	1.9
115.0756	36.1
116.0709	2.5
116.0790	2.4
117.0740	1.1
126.0914	1.1
128.0708	0.9
132.1019	3.2
134.0814	1.2
136.0619	0.9
137.0598	0.9
138.0915	3.0
142.0862	1.8
154.1228	3.5
156.1021	1.8
158.0815	0.9
169.1338	1.3
170.1177	0.9
171.0765	1.2
172.0971	0.9
172.1334	2.5
174.0776	1.0
174.1126	7.2
182.1174	1.1
186.1126	1.9
186.1490	4.8
187.1441	1.6
188.0819	1.1
190.0975	1.9
200.1283	1.6
214.0865	0.9
214.0975	3.1
214.1076	2.1
214.1438	6.9
215.0817	1.3
216.1233	3.0
230.1177	1.9
230.1386	1.2
230.1753	3.0
231.0849	1.2
231.1129	4.0
231.1216	2.9
231.1342	1.9
232.0969	21.7
232.1081	5.1
232.1180	5.1
232.1339	5.3
232.1543	100.0
233.0588	1.3
233.0921	6.5
233.1016	2.4
233.1286	12.0
233.1581	10.0
234.0588	1.8
234.0762	4.7
234.0873	2.2
234.0985	6.8
234.1126	13.3
234.1336	17.1
234.1485	3.1

Name: Methyl 2-(Acetylamino)-3-O-((1r)-1-Carboxyethyl)-2-Deoxy-Beta-D-Glucopyranoside
PrecursorMZ: 308.13375
RT: 7.1976
ExactMass: 307.12671663
Spectrum_type: 2
charge: 1
Formula: C12H21NO8
SMILES: C[C@H](C(=O)O)O[C@@H]1[C@H]([C@@H](O[C@@H]([C@H]1O)CO)OC)NC(=O)C
Method: HCD
Collision_energy: [28.333334]
Isolation_window: 4.0
Ion_mode: P
Num Peaks: 86
55.0546	1.7
69.0703	2.2
70.0655	8.5
81.0338	1.9
83.0494	2.1
84.0447	3.7
96.0446	11.3
97.0649	1.9
98.0603	5.6
99.0443	1.6
100.0759	1.7
101.0599	4.3
109.0286	2.7
110.0602	3.8
114.0551	5.6
114.0663	1.7
116.0708	15.6
122.0603	1.5
124.0759	3.0
126.0550	18.6
126.0915	3.5
127.0390	2.0
138.0550	100.0
138.0913	2.6
139.0583	6.6
144.0656	20.5
145.0760	2.0
148.0757	2.0
150.0550	2.6
152.0705	1.6
161.0708	1.5
162.0915	3.3
163.0867	1.9
164.0705	2.3
166.0864	5.4
168.0656	26.0
169.0692	2.4
176.0706	5.4
183.1128	3.9
186.0761	33.1
187.0791	2.4
190.0863	2.5
200.1069	2.7
204.1020	3.3
207.1127	3.9
208.0604	1.6
208.0964	1.9
210.1121	1.9
212.1278	2.1
214.1438	1.5
225.1233	2.0
230.1175	2.2
244.1079	3.4
246.0763	2.0
248.1278	1.9
261.1596	16.1
262.1632	2.6
276.1077	30.7
277.1110	3.5
277.1291	2.0
289.1541	3.4
290.1142	3.4
290.1377	2.3
291.1322	2.2
291.1697	2.6
292.1171	1.9
292.1294	2.0
306.1325	4.5
306.1817	4.4
307.1048	2.4
307.1285	4.8
307.1375	2.7
307.1650	82.1
308.0964	3.1
308.1118	4.2
308.1256	9.5
308.1490	4.3
308.1680	15.8
308.1852	7.3
308.1976	2.7
309.1423	6.2
309.1805	22.1
310.1264	6.0
310.1401	5.6
310.1828	2.1
310.2012	1.9

Name: Methyl 3-((2,4-dihydroxy-3,3-dimethyl-butanoyl)amino)propanoate
PrecursorMZ: 234.13339
RT: 1.8755
ExactMass: 233.12632271
Spectrum_type: 2
charge: 1
Formula: C10H19NO5
SMILES: CC(C)(CO)C(C(=O)NCCC(=O)OC)O
Method: HCD
Collision_energy: [28.333334]
Isolation_window: 4.0
Ion_mode: P
Num Peaks: 34
57.0703	1.2
59.0496	1.3
67.0545	1.0
69.0702	1.3
72.0447	4.4
85.0650	4.0
87.0443	2.8
88.0395	6.0
90.0551	2.7
95.0493	2.3
98.0238	1.3
103.0755	4.2
104.0707	100.0
104.0780	1.0
105.0740	4.2
113.0598	1.1
114.0550	1.2
116.0342	4.0
124.0756	4.4
130.0498	7.0
131.0702	1.6
142.0862	2.5
160.0968	1.1
166.0863	1.3
174.1123	1.7
184.0966	7.0
198.1123	3.7
202.1071	10.2
203.1103	1.2
216.1227	11.8
217.1264	1.4
234.1333	18.0
235.1365	2.1
235.1442	1.2

Name: Ms
PrecursorMZ: 237.09034
RT: 6.7796
ExactMass: 236.08307817
Spectrum_type: 2
charge: 1
Formula: C8H16N2O4S
SMILES: CSCCC(C(=O)NC(CO)C(=O)O)N
Method: HCD
Collision_energy: [28.333334]
Isolation_window: 4.0
Ion_mode: P
Num Peaks: 38
56.0498	15.3
74.0603	28.2
84.0446	4.9
99.0553	19.7
109.0283	10.6
110.0600	3.7
126.0546	5.6
127.0499	3.1
127.0864	11.2
130.0496	6.2
138.0546	3.2
145.0605	19.4
154.0496	11.3
155.0811	4.7
164.0702	7.0
166.0530	9.7
173.0918	100.0
174.0953	8.1
190.0857	3.1
191.0840	5.3
192.0651	12.7
192.1014	3.1
218.0808	2.9
218.1174	4.6
219.0794	4.1
220.0631	3.5
220.0964	8.0
236.0913	47.8
236.1276	37.1
237.0857	5.8
237.0880	14.4
237.1317	4.2
237.1583	3.2
238.0705	14.9
238.1069	77.4
238.1429	5.7
239.1022	3.0
239.1124	3.3

Name: Myristic acid diethanolamide
PrecursorMZ: 316.28403
RT: 1.3587
ExactMass: 315.27734404
Spectrum_type: 2
charge: 1
Formula: C18H37NO3
SMILES: CCCCCCCCCCCCCC(=O)N(CCO)CCO
Method: HCD
Collision_energy: [28.333334]
Isolation_window: 4.0
Ion_mode: P
Num Peaks: 21
57.0703	4.3
58.0655	4.3
60.0447	2.3
69.0701	2.2
70.0654	12.8
71.0494	6.9
71.0858	4.4
81.0703	3.1
88.0759	89.7
89.0792	3.9
95.0857	3.9
106.0863	100.0
107.0895	3.6
109.1012	2.5
280.2624	2.6
298.2734	33.7
299.2764	7.2
314.3056	4.2
316.2839	55.7
317.1487	3.1
317.2871	11.1

Name: N'-(morpholine-4-carboximidoyl)morpholine-4-carboximidamide
PrecursorMZ: 242.16071
RT: 11.2722
ExactMass: 241.15387487
Spectrum_type: 2
charge: 1
Formula: C10H19N5O2
SMILES: C1COCCN1/C(=N\C(=N)N2CCOCC2)/N
Method: HCD
Collision_energy: [28.333334]
Isolation_window: 4.0
Ion_mode: P
Num Peaks: 29
70.0654	9.9
84.0809	7.2
99.0917	15.8
100.0757	65.5
114.0913	47.7
127.0863	4.5
128.1067	10.9
151.1227	20.1
155.0813	35.5
172.1074	4.3
183.1123	3.8
225.1229	7.4
227.1746	7.0
240.1704	4.5
241.1177	6.3
241.1541	65.2
242.1381	11.6
242.1493	9.9
242.1603	94.7
242.1846	7.7
243.1123	4.3
243.1333	95.8
243.1643	5.4
243.1811	4.8
244.0958	3.7
244.1292	5.2
244.1536	6.3
244.1653	5.0
244.2013	100.0

Name: N,N'-Dimethylurea
PrecursorMZ: 89.07122
RT: 2.90505
ExactMass: 88.063662883
Spectrum_type: 2
charge: 1
Formula: C3H8N2O
SMILES: CNC(=O)NC
Method: HCD
Collision_energy: [28.333334]
Isolation_window: 4.0
Ion_mode: P
Num Peaks: 6
58.0292	100.0
70.0655	7.2
72.0448	27.4
72.0811	6.7
88.0760	5.9
89.0712	37.1

Name: N,N-Bis(2-methylpropyl)formamide
PrecursorMZ: 158.15401
RT: 1.0976
ExactMass: 157.14666423
Spectrum_type: 2
charge: 1
Formula: C9H19NO
SMILES: CC(C)CN(CC(C)C)C=O
Method: HCD
Collision_energy: [28.333334]
Isolation_window: 4.0
Ion_mode: P
Num Peaks: 13
57.0703	4.8
59.0496	0.8
60.0812	2.8
86.0968	1.3
100.0759	1.9
101.0599	10.5
102.0915	29.5
103.0948	1.4
116.1071	1.1
158.1540	100.0
159.0914	0.9
159.1572	9.4
160.1332	23.4

Name: N,N-Diethylmethacrylamide
PrecursorMZ: 142.12278
RT: 3.5271
ExactMass: 141.115364102
Spectrum_type: 2
charge: 1
Formula: C8H15NO
SMILES: CCN(CC)C(=O)C(=C)C
Method: HCD
Collision_energy: [28.333334]
Isolation_window: 4.0
Ion_mode: P
Num Peaks: 53
58.0657	14.0
69.0340	9.0
71.0496	4.3
72.0450	2.0
72.0813	54.7
73.0846	2.0
84.0447	2.8
87.0445	3.4
88.0761	3.0
89.0601	1.8
89.1077	1.6
96.9955	9.5
97.0763	6.6
98.0606	1.8
100.0760	9.1
102.0915	1.8
104.0709	4.3
105.0338	6.6
115.9642	1.6
118.0865	4.1
121.9664	8.0
123.1169	1.6
123.9646	4.5
133.9648	1.9
134.0634	22.3
134.9730	1.8
139.0866	3.8
142.1228	100.0
142.1591	2.6
143.1262	8.7
144.1022	2.5
146.0817	3.7
146.1176	3.4
147.0555	1.6
148.0971	8.2
149.0235	5.0
150.1127	2.4
152.0729	8.2
155.0819	10.4
155.1543	2.4
156.1020	2.4
156.1385	3.1
157.0974	27.7
157.1702	4.9
158.1178	5.0
158.1541	34.5
159.1488	27.3
160.1529	2.4
162.0766	2.9
162.1127	1.6
163.0750	2.6
164.0919	1.9
164.1283	10.3

Name: N,N-diethyl-5-methyl-1H-(1,2,4)triazolo(1,5-a)pyrimidin-8-ium-7-amine
PrecursorMZ: 206.13943
RT: 0.898
ExactMass: 206.14057053
Spectrum_type: 2
charge: 1
Formula: C10H16N5+
SMILES: CCN(CC)C1=[N+]2C(=NC(=C1)C)N=CN2
Method: HCD
Collision_energy: [28.333334]
Isolation_window: 4.0
Ion_mode: P
Num Peaks: 54
56.0498	16.3
59.0606	9.8
68.0497	9.4
70.0653	8.7
81.0449	8.9
83.0605	13.4
85.0760	8.2
95.0603	12.0
97.0759	16.7
98.0712	20.3
109.0758	15.8
110.0711	20.2
111.0915	12.0
112.0868	19.7
121.0757	5.4
122.0710	27.1
123.0662	9.4
123.0914	14.2
124.0866	22.2
125.0817	9.5
126.1023	10.2
136.0866	12.3
137.0818	15.9
138.1023	9.1
148.0865	18.2
149.0228	7.7
149.0817	11.3
150.1021	11.1
151.0974	9.0
161.0817	5.9
162.1020	5.4
163.0974	30.2
164.0926	100.0
164.1048	9.3
164.1177	11.0
165.0767	11.2
165.0959	6.1
165.1131	27.7
166.1085	13.7
177.1130	8.0
178.1080	5.7
179.1284	5.8
189.1128	13.3
204.1236	10.3
205.1190	34.7
205.1274	6.7
205.1440	10.0
206.1029	60.1
206.1393	61.5
207.1240	9.2
207.1345	5.8
207.1429	7.3
208.1186	10.1
208.1549	11.0

Name: N-((2S,3R,4S,5R)-3,4,5,6-tetrahydroxyhexan-2-yl)acetamide
PrecursorMZ: 208.11782
RT: 6.49415
ExactMass: 207.11067264
Spectrum_type: 2
charge: 1
Formula: C8H17NO5
SMILES: C[C@@H]([C@H]([C@@H]([C@@H](CO)O)O)O)NC(=O)C
Method: HCD
Collision_energy: [28.333334]
Isolation_window: 4.0
Ion_mode: P
Num Peaks: 35
60.0448	10.5
67.0546	13.1
71.0495	17.8
81.0337	16.2
81.0701	12.5
82.0416	15.5
100.0758	20.2
104.0707	16.4
112.0757	12.1
113.0598	16.7
148.0967	11.9
152.0706	10.2
162.0910	14.8
163.0057	10.1
163.0750	9.5
164.0703	11.8
165.1019	25.4
166.0861	10.3
166.1071	47.4
172.0965	9.6
189.0182	10.1
190.0496	22.0
190.1071	99.5
191.0006	100.0
191.1051	13.4
192.0654	13.3
199.0863	10.1
207.0396	10.7
208.0602	11.9
208.0967	30.8
208.1173	18.9
209.0805	19.6
209.0917	13.2
210.0785	26.0
210.1121	28.2

Name: N-((3R,4R)-1,3,4,5,6-pentahydroxyhexan-2-yl)acetamide
PrecursorMZ: 206.10221
RT: 6.1978
ExactMass: 223.10558726
Spectrum_type: 2
charge: 1
Formula: C8H17NO6
SMILES: CC(=O)NC(CO)[C@H]([C@H](C(CO)O)O)O
Method: HCD
Collision_energy: [28.333334]
Isolation_window: 4.0
Ion_mode: P
Num Peaks: 32
60.0448	25.3
69.0339	9.3
83.0494	7.9
85.0287	5.6
86.0602	5.9
92.0708	4.7
99.0443	5.4
103.0389	4.6
111.0442	15.5
128.0705	5.4
129.0545	18.0
146.0598	5.7
146.0810	14.6
160.0392	4.4
162.0549	66.1
164.0917	11.0
178.0973	8.1
188.0340	75.5
188.0704	9.7
188.0915	100.0
189.0373	9.1
189.0957	6.7
205.0971	8.8
205.1584	8.9
206.0244	11.0
206.0445	22.2
206.0810	10.7
206.0921	28.8
206.1021	34.6
207.0761	4.9
207.1850	4.2
208.0601	4.1

Name: N-((4-amino-2-methylpyrimidin-5-yl)methyl)-N-((Z)-5-hydroxy-3-(methyldisulfanyl)pent-2-en-2-yl)formamide
PrecursorMZ: 329.10978
RT: 2.7940666666666667
ExactMass: 328.10276824
Spectrum_type: 2
charge: 1
Formula: C13H20N4O2S2
SMILES: CC1=NC=C(C(=N1)N)CN(C=O)/C(=C(/CCO)\SSC)/C
Method: HCD
Collision_energy: [28.333334]
Isolation_window: 4.0
Ion_mode: P
Num Peaks: 46
81.0450	3.2
83.0494	2.7
86.0061	3.1
86.0967	1.5
97.4332	0.9
110.0713	26.6
111.0747	1.5
115.0213	5.3
122.0713	25.4
123.0750	2.0
123.0790	40.7
124.0825	1.4
124.0868	15.4
137.0821	11.2
139.0977	16.9
140.1010	1.0
144.0477	2.8
148.0867	2.5
149.0822	1.9
163.0244	2.2
163.0978	1.0
165.0545	1.2
167.0926	12.3
169.0971	1.1
170.0745	5.7
177.1133	1.8
178.1213	1.2
191.1289	4.9
205.1212	1.0
219.1237	3.3
221.1393	4.2
222.1476	2.7
223.1010	1.0
249.1341	1.6
253.1114	12.5
254.1151	1.3
281.1062	3.2
282.0790	3.0
299.0995	1.2
328.0843	2.4
328.1146	1.2
329.1095	100.0
329.1486	1.8
330.1130	16.0
330.1330	1.5
331.1041	2.6

Name: N-((Cyclohexylamino)carbonyl)glycine
PrecursorMZ: 201.12323
RT: 4.4223
ExactMass: 200.11609238
Spectrum_type: 2
charge: 1
Formula: C9H16N2O3
SMILES: C1CCC(CC1)NC(=O)NCC(=O)O
Method: HCD
Collision_energy: [28.333334]
Isolation_window: 4.0
Ion_mode: P
Num Peaks: 6
55.0546	10.9
83.0858	36.0
126.0912	100.0
156.1017	30.5
200.0915	9.2
201.1229	38.5

Name: N-(1-deoxy-1-fructosyl)phenylalanine
PrecursorMZ: 328.13859
RT: 7.2031
ExactMass: 327.13180201
Spectrum_type: 2
charge: 1
Formula: C15H21NO7
SMILES: C1=CC=C(C=C1)C[C@@H](C(=O)O)NCC2([C@H]([C@@H]([C@H](O2)CO)O)O)O
Method: HCD
Collision_energy: [28.333334]
Isolation_window: 4.0
Ion_mode: P
Num Peaks: 96
69.0338	5.1
70.0654	5.4
81.0337	2.1
84.0809	3.2
85.0286	4.3
87.0316	2.0
91.0542	4.2
96.0808	1.3
97.0285	8.8
98.0965	2.6
99.0441	3.2
107.0490	2.6
110.0713	3.2
111.0442	1.3
112.0393	2.6
116.0706	1.3
120.0807	28.5
121.0840	2.3
123.0439	1.8
127.0388	8.7
130.0649	1.6
131.0489	2.4
132.0805	20.0
132.1017	1.7
133.0838	1.7
136.0754	3.0
142.1223	1.3
143.0575	7.0
144.0653	1.2
144.0805	3.1
144.1016	1.6
148.0755	1.8
149.0263	1.3
149.0593	1.2
152.0339	1.8
156.0756	3.1
156.0805	1.3
161.0680	4.4
162.0545	1.3
162.0912	3.0
164.0701	1.3
165.0542	2.3
166.0860	21.6
167.0894	1.7
174.0910	1.5
178.0859	12.4
179.0890	1.7
180.0652	4.5
182.0810	1.5
198.0910	3.6
202.0858	1.8
208.0962	1.2
210.0756	3.9
216.1014	1.2
228.0863	1.4
228.1016	1.8
244.0632	8.6
244.0962	6.8
246.1119	9.5
247.1153	1.3
264.1224	34.0
265.1259	4.8
274.0738	1.3
280.1170	1.8
281.1214	2.4
282.1331	3.8
292.0843	3.8
292.1172	42.4
293.1208	6.1
308.1118	1.8
309.1154	2.9
310.0960	2.3
310.1277	100.0
311.1312	15.5
326.1220	3.1
326.2078	2.0
327.1053	3.6
327.1283	6.8
327.1316	1.7
327.1537	1.2
327.1684	2.2
327.1911	2.6
327.2041	1.6
327.2267	3.4
328.1376	7.7
328.1536	3.9
328.1852	1.6
328.1894	1.5
328.1969	3.4
329.1496	9.3
329.1863	1.4
330.1313	5.5
330.1517	1.5
330.1689	1.6
330.2121	1.9
330.2376	1.2

Name: N-(2,4,5-trihydroxy-6-(hydroxymethyl)(213C)oxan-3-yl)acetamide
PrecursorMZ: 204.08644
RT: 8.088750000000001
ExactMass: 225.0970366
Spectrum_type: 2
charge: 1
Formula: C8H15NO6
SMILES: [13CH3][13C](=O)[15NH]C1C(C(C(O[13CH]1O)CO)O)O
Method: HCD
Collision_energy: [28.333334]
Isolation_window: 4.0
Ion_mode: P
Num Peaks: 43
60.0448	3.1
69.7023	2.9
70.0654	8.8
84.0446	14.3
84.0811	3.4
85.0286	5.0
90.0551	45.1
96.0444	4.3
97.0285	5.1
98.0601	5.9
98.0965	3.8
100.0757	3.1
101.0598	16.0
104.0707	6.0
114.0662	3.2
115.0503	3.7
123.0439	5.1
126.0548	32.1
126.0912	20.0
138.0548	54.2
139.0580	4.2
140.1068	3.3
144.0653	18.1
144.0764	3.0
144.1017	100.0
145.1050	7.1
146.0598	13.5
158.0598	3.3
158.0812	3.1
158.1174	5.9
168.0653	8.6
186.0548	2.7
186.0758	4.0
188.0702	21.9
204.0649	3.5
204.0865	5.8
204.0974	50.1
204.1227	80.3
205.0971	3.6
205.1260	6.6
206.0245	6.3
206.0802	3.9
206.1021	2.6

Name: N-(2-Hydroxyethyl)undecanamide
PrecursorMZ: 230.2112
RT: 0.5672
ExactMass: 229.204179104
Spectrum_type: 2
charge: 1
Formula: C13H27NO2
SMILES: CCCCCCCCCCC(=O)NCCO
Method: HCD
Collision_energy: [28.333334]
Isolation_window: 4.0
Ion_mode: P
Num Peaks: 180
57.0339	1.2
57.0703	12.2
58.0656	1.6
59.0496	10.7
62.0605	4.9
67.0547	3.9
69.0703	4.1
70.0655	1.7
71.0496	2.0
71.0860	6.3
72.0448	4.3
74.0605	0.8
79.0545	1.1
81.0702	6.0
83.0494	1.1
83.0859	7.4
84.0812	1.1
84.0893	0.7
85.0651	2.3
85.1015	4.8
86.0605	3.2
86.0967	1.0
87.0443	2.3
88.0761	4.7
89.0600	10.3
90.0552	0.7
91.0545	1.1
93.0702	2.2
95.0494	0.8
95.0858	12.8
96.0891	1.5
97.0650	1.8
97.1014	3.5
98.9844	28.1
99.0443	1.2
99.0807	1.9
100.0759	6.5
101.0599	1.7
101.0963	1.0
102.0917	1.5
104.0709	0.8
105.0337	1.4
105.0700	1.4
106.0865	4.5
107.0705	3.2
107.0855	3.4
109.0650	1.3
109.1014	9.1
110.1046	1.1
111.0442	1.0
111.0807	2.5
111.1170	0.7
113.0601	2.2
113.0960	1.2
115.0755	0.8
118.0865	0.8
119.0855	2.7
121.1013	4.3
122.0601	1.1
123.0806	3.3
123.1170	3.4
125.0599	1.0
125.0965	1.3
127.0756	1.0
127.1117	0.8
130.1228	12.0
130.1588	0.8
131.0857	1.0
133.0860	1.9
133.1012	3.6
135.0803	0.7
135.1170	2.7
137.0597	3.6
137.0962	2.4
137.1324	0.9
139.1117	1.3
141.0908	0.7
145.1014	1.3
145.1223	0.7
147.1169	3.1
149.0236	0.8
149.1325	2.5
151.1120	1.6
151.1483	1.3
155.1068	0.8
156.1017	0.8
156.1748	2.2
157.0494	0.8
157.1016	0.7
159.1171	1.3
161.0596	0.9
161.1325	1.6
163.0753	1.8
163.1120	0.9
163.1481	1.3
164.0706	1.3
165.0548	3.7
165.1275	1.0
165.1637	0.8
167.0340	0.8
169.0859	0.9
171.1168	0.7
173.1324	0.9
174.1852	4.7
174.9922	2.5
175.1116	0.9
175.1483	4.4
176.1515	0.8
177.1270	1.3
177.1641	1.0
179.1068	1.7
179.1434	0.8
182.0809	2.2
184.1698	7.1
184.2059	5.1
185.1729	1.2
189.1280	0.8
189.1639	0.8
191.1431	0.7
193.1223	22.4
193.1581	1.8
194.1267	3.1
195.1381	2.2
200.2009	1.5
202.1809	5.3
202.2166	52.6
203.1430	0.7
203.1809	1.2
203.2198	7.0
207.1012	1.0
210.1850	0.9
211.1690	0.7
212.2009	12.5
213.2042	1.7
218.2102	0.7
221.1172	24.4
221.1529	0.7
222.1210	3.4
225.0429	1.4
226.2165	62.8
227.2200	10.7
228.1966	4.0
228.2324	6.2
229.1807	0.8
229.2013	1.4
229.2354	1.3
230.2114	25.4
230.2482	1.0
231.2143	3.5
232.1898	1.0
233.1531	1.5
233.1902	0.9
234.1859	0.9
235.1682	2.6
236.1276	1.1
236.1643	1.1
237.1860	0.9
238.1438	3.6
238.2174	0.9
239.1275	4.5
239.1984	1.8
240.1315	0.9
240.1963	2.4
240.2323	0.8
242.2117	1.0
242.2473	4.1
243.1961	0.9
243.2505	0.7
244.2270	33.1
245.2298	5.6
246.1874	1.3
246.2027	0.8
246.2427	100.0
247.2460	15.2
248.1666	0.7
248.2480	1.5
249.1852	1.0
249.2320	0.8
250.1795	1.9
250.2158	1.1

Name: N-(2-Methylacryloyl)-L-histidine
PrecursorMZ: 224.10295
RT: 5.8053
ExactMass: 223.09569129
Spectrum_type: 2
charge: 1
Formula: C10H13N3O3
SMILES: CC(=C)C(=O)N[C@@H](CC1=CN=CN1)C(=O)O
Method: HCD
Collision_energy: [28.333334]
Isolation_window: 4.0
Ion_mode: P
Num Peaks: 33
96.0684	11.5
97.0764	5.9
109.0762	97.4
110.0603	4.3
110.0714	16.1
110.0796	6.2
112.0760	3.3
114.0916	4.8
124.0871	5.5
126.1027	6.9
153.0659	10.1
156.0769	15.4
170.0925	8.1
178.0863	6.5
178.0977	3.8
180.1132	31.7
205.0970	3.3
206.0810	3.8
206.0922	4.9
207.1127	3.0
208.1079	6.5
222.1124	15.8
223.1074	14.5
223.1170	7.4
223.1439	6.9
224.0918	14.5
224.1027	100.0
224.1275	10.0
225.1050	9.8
225.1231	20.3
225.1596	12.2
226.1071	5.1
226.1184	17.6

Name: N-(2-aminophenyl)-D-gluconamide
PrecursorMZ: 251.10227
RT: 7.816
ExactMass: 286.1164863
Spectrum_type: 2
charge: 1
Formula: C12H18N2O6
SMILES: C1=CC=C(C(=C1)N)NC(=O)[C@@H]([C@H]([C@@H]([C@@H](CO)O)O)O)O
Method: HCD
Collision_energy: [28.333334]
Isolation_window: 4.0
Ion_mode: P
Num Peaks: 19
72.0811	3.8
95.0605	4.1
101.0598	2.6
152.0703	4.8
161.0708	11.4
215.0811	2.3
233.0918	3.0
234.0760	3.2
249.1525	2.6
250.0924	3.0
250.1069	5.5
250.1277	3.1
251.0464	4.3
251.1021	100.0
251.1376	3.2
252.0860	16.4
252.1057	11.3
252.1225	20.5
253.1176	18.4

Name: N-(2-iminopropyl)butan-1-amine
PrecursorMZ: 129.13874
RT: 6.7115
ExactMass: 128.131348519
Spectrum_type: 2
charge: 1
Formula: C7H16N2
SMILES: CCCCNCC(=N)C
Method: HCD
Collision_energy: [28.333334]
Isolation_window: 4.0
Ion_mode: P
Num Peaks: 6
57.0704	16.5
74.0968	23.3
127.0727	1.2
129.1387	10.4
130.1591	100.0
131.1623	4.6

Name: N-(3-acetamidopropyl)acetamide
PrecursorMZ: 159.11283
RT: 4.4718
ExactMass: 158.105527694
Spectrum_type: 2
charge: 1
Formula: C7H14N2O2
SMILES: CC(=O)NCCCNC(=O)C
Method: HCD
Collision_energy: [28.333334]
Isolation_window: 4.0
Ion_mode: P
Num Peaks: 9
99.0918	16.4
100.0758	100.0
117.1023	22.3
118.0863	10.9
142.0862	18.2
158.1540	6.6
159.1124	7.4
160.0968	23.9
161.0708	6.7

Name: N-(4-Methoxybenzyl)aniline
PrecursorMZ: 214.1224
RT: 1.3332
ExactMass: 213.115364102
Spectrum_type: 2
charge: 1
Formula: C14H15NO
SMILES: COC1=CC=C(C=C1)CNC2=CC=CC=C2
Method: HCD
Collision_energy: [28.333334]
Isolation_window: 4.0
Ion_mode: P
Num Peaks: 9
106.0652	32.6
107.0493	7.3
120.0807	94.4
121.0647	100.0
121.0839	7.3
122.0679	7.5
213.0912	5.0
214.1223	49.3
215.1257	7.7

Name: N-(4-Methylpentanoyl)-L-Phenylalanine
PrecursorMZ: 264.15918
RT: 1.9966
ExactMass: 263.15214353
Spectrum_type: 2
charge: 1
Formula: C15H21NO3
SMILES: CC(C)CCC(=O)N[C@@H](CC1=CC=CC=C1)C(=O)O
Method: HCD
Collision_energy: [28.333334]
Isolation_window: 4.0
Ion_mode: P
Num Peaks: 5
71.0859	12.5
120.0807	100.0
121.0840	9.5
166.0861	86.3
265.1309	12.4

Name: N-(4-acetamidobutyl)acetamide
PrecursorMZ: 173.1283
RT: 3.8964
ExactMass: 172.121177757
Spectrum_type: 2
charge: 1
Formula: C8H16N2O2
SMILES: CC(=O)NCCCCNC(=O)C
Method: HCD
Collision_energy: [28.333334]
Isolation_window: 4.0
Ion_mode: P
Num Peaks: 15
72.0811	16.2
95.0857	12.0
112.1121	6.3
113.0962	11.3
113.1074	4.7
114.0914	100.0
115.0947	5.3
126.0913	5.2
130.1224	15.6
131.1178	56.6
132.1213	4.5
154.0861	5.1
156.1018	43.7
173.0782	5.9
173.1281	12.0

Name: N-(6-isocyanatohexyl)acetamide
PrecursorMZ: 185.12845
RT: 1.9427
ExactMass: 184.121177757
Spectrum_type: 2
charge: 1
Formula: C9H16N2O2
SMILES: CC(=O)NCCCCCCN=C=O
Method: HCD
Collision_energy: [28.333334]
Isolation_window: 4.0
Ion_mode: P
Num Peaks: 8
55.0547	7.1
83.0859	20.8
126.0914	100.0
127.0947	7.6
168.1019	5.5
183.0917	26.5
184.0951	24.9
185.1284	29.7

Name: N-6-methyl-2-deoxyadenosine
PrecursorMZ: 266.12465
RT: 2.1794
ExactMass: 265.11748936
Spectrum_type: 2
charge: 1
Formula: C11H15N5O3
SMILES: CNC1=C2C(=NC=N1)N(C=N2)C3CC(C(O3)CO)O
Method: HCD
Collision_energy: [28.333334]
Isolation_window: 4.0
Ion_mode: P
Num Peaks: 69
55.0548	1.4
70.0656	5.4
81.0339	6.3
83.0495	2.6
84.0812	1.7
96.0447	2.6
96.0811	1.7
101.0600	9.5
111.0444	3.4
115.0866	2.0
116.0708	2.4
117.0549	1.7
122.0603	2.1
126.0915	2.4
130.0866	1.9
136.0758	1.4
142.0867	1.4
150.0564	12.7
150.0776	100.0
151.0815	6.4
152.0710	2.2
168.0655	8.3
170.0814	5.2
172.1087	1.7
185.1291	1.9
186.1125	3.2
190.0876	1.5
191.1172	2.0
201.0910	2.8
218.1391	3.0
235.1184	1.5
248.1375	1.7
252.1225	1.7
260.1285	3.6
264.1243	5.1
264.1460	1.9
265.1187	10.6
266.0989	4.8
266.1242	2.7
266.1417	2.0
267.1335	8.2
268.1177	42.7
269.1208	6.6
269.1505	4.1
270.1334	31.9
271.1357	4.1
271.1678	6.5
272.1599	2.7
273.1923	16.7
274.1065	5.7
274.1950	2.1
275.1047	2.2
276.1227	8.4
276.1787	1.7
277.1188	9.2
277.1545	5.5
278.1056	2.2
278.1387	30.0
279.1398	8.1
280.1176	21.0
281.1196	3.8
281.1499	4.0
282.1321	5.7
282.1558	29.1
283.1321	2.8
283.1617	6.9
284.1508	4.7
285.1500	5.2
285.1817	2.3

Name: N-Acetyl-Hexosamine
PrecursorMZ: 222.09788
RT: 2.5997
ExactMass: 221.0899372
Spectrum_type: 2
charge: 1
Formula: C8H15NO6
SMILES: CC(=O)NC1C(C(C(OC1O)CO)O)O
Method: HCD
Collision_energy: [28.333334]
Isolation_window: 4.0
Ion_mode: P
Num Peaks: 238
57.0340	2.3
58.0658	2.8
59.0497	2.1
60.0450	5.4
68.0500	1.5
69.0340	3.6
70.0657	10.9
71.0496	3.0
72.0449	1.8
72.0813	5.4
73.0289	1.5
74.0605	6.9
79.0547	2.0
81.0340	7.0
82.0657	1.3
83.0496	6.0
84.0448	18.5
84.0813	4.9
85.0289	5.3
85.0653	1.7
86.0605	20.3
86.0969	6.7
87.0446	5.1
88.0399	3.0
90.0554	5.0
91.0546	1.4
93.0704	3.7
95.0494	2.4
96.0448	9.5
97.0287	11.7
98.0604	6.4
99.0444	5.9
100.0397	3.7
100.0762	2.6
101.0236	2.3
101.0601	20.7
102.0554	6.4
103.0393	1.4
104.0710	2.0
105.0701	2.5
107.0495	1.9
107.0858	2.6
108.0449	2.8
109.0288	7.2
110.0603	4.8
111.0445	3.0
112.0394	2.3
112.0762	2.3
113.0600	1.8
114.0554	7.4
115.0391	1.5
116.0709	9.8
117.0548	3.8
118.0867	1.5
119.0860	1.7
120.0659	2.9
121.0650	3.6
121.1015	2.2
122.0240	1.6
122.0605	2.1
123.0443	3.2
124.0394	2.6
124.0759	2.6
125.0237	1.4
125.0614	1.9
125.0712	2.4
126.0551	21.8
127.0393	3.3
128.0710	4.8
128.1073	1.7
129.0551	1.5
130.0501	27.5
130.0866	2.1
131.0537	2.0
131.0859	3.2
132.0658	5.6
132.0810	2.5
132.1020	1.6
134.0604	1.4
136.0759	3.4
137.0236	2.0
137.0599	2.4
138.0552	23.5
138.0915	2.2
140.0344	89.8
140.0703	3.2
141.0380	5.6
142.0500	5.2
142.0864	3.3
144.0657	13.1
144.1020	1.4
145.1013	1.8
146.0450	1.4
146.0603	3.8
146.0812	2.2
146.0964	1.5
147.0804	1.5
147.1172	4.0
148.0607	2.1
149.0711	4.4
149.0963	38.4
150.0554	1.6
150.1008	3.8
151.0758	1.4
152.0707	6.9
154.0502	4.9
154.0865	1.7
156.0661	2.8
156.1022	3.9
158.0814	2.1
160.0972	2.0
162.0549	4.9
162.0762	1.4
163.1120	11.4
164.0709	6.9
164.0922	1.9
165.0548	7.6
165.0915	1.8
166.0491	2.9
166.0861	4.1
166.0982	1.9
166.1229	28.6
167.0703	1.6
167.0822	1.9
167.1269	3.2
168.0658	9.1
168.1015	2.7
170.0817	3.6
173.0924	2.5
174.0765	1.6
174.1127	15.5
175.1160	1.9
176.0699	2.2
176.0921	1.7
177.0546	1.5
178.0504	1.7
178.0724	9.8
178.0867	11.7
180.0655	6.3
180.1018	2.9
181.0976	4.0
182.0812	4.1
183.0776	1.4
183.1132	1.4
184.0608	7.5
184.1089	42.3
185.1134	2.4
186.0765	12.1
186.1126	8.1
188.0709	2.5
188.0919	5.1
188.1279	5.0
190.1075	1.3
191.1069	4.7
192.0656	12.2
192.1013	5.3
193.0974	1.9
194.0815	4.5
195.0770	1.4
196.0601	3.2
196.0964	3.0
198.0762	3.2
200.0923	1.7
202.1075	6.4
204.0664	1.9
204.0869	8.5
206.0450	1.9
206.0819	2.3
206.1025	4.2
207.0766	2.4
208.0607	5.3
208.0975	1.4
208.1331	4.2
209.1174	12.2
210.0762	4.9
210.1207	1.8
211.0730	1.5
211.1078	2.4
212.0913	4.2
213.0878	1.7
214.1078	4.2
215.1041	1.7
216.0872	9.0
216.1229	9.7
218.1018	1.5
218.1392	2.8
220.0617	1.3
220.1179	14.1
221.0918	2.2
221.1219	2.7
222.0765	8.5
222.0961	1.9
222.1325	1.9
223.0729	1.9
223.1090	2.9
224.0549	2.0
224.0754	2.5
224.0955	7.4
224.1289	10.7
225.0877	7.3
225.1257	2.3
226.0187	2.4
226.0711	13.1
226.1081	3.7
226.1439	100.0
227.0758	1.4
227.1028	25.1
227.1473	13.6
228.0333	5.0
228.0854	10.9
228.1498	1.5
229.0835	1.5
229.1183	8.8
230.1040	10.4
230.1165	4.8
230.1395	3.7
231.0977	5.6
231.1345	2.9
232.0610	13.0
232.0795	1.4
232.1181	13.8
233.0640	2.2
233.1125	3.9
234.0975	6.8
234.1336	5.1
235.1081	2.2
236.0909	4.1
236.1126	2.6
236.1484	2.5
237.0878	5.0
238.0709	10.5
238.1065	2.4
239.1027	12.8
240.0864	14.2
241.0863	2.1
241.1194	4.1
242.1008	4.9
243.0993	1.9

Name: N-Acryloylglycylglycine
PrecursorMZ: 187.07121
RT: 1.6972
ExactMass: 186.0640568
Spectrum_type: 2
charge: 1
Formula: C7H10N2O4
SMILES: C=CC(=O)NCC(=O)NCC(=O)O
Method: HCD
Collision_energy: [28.333334]
Isolation_window: 4.0
Ion_mode: P
Num Peaks: 10
56.0499	3.0
76.0396	6.0
84.0446	20.7
111.0554	3.5
112.0393	100.0
113.0426	5.0
125.0709	10.5
143.0815	3.2
169.0607	12.8
187.0710	9.5

Name: N-Formyl-L-alpha-aspartyl-L-phenylalanine 2-methyl ester
PrecursorMZ: 323.12343
RT: 7.9944
ExactMass: 322.1164863
Spectrum_type: 2
charge: 1
Formula: C15H18N2O6
SMILES: COC(=O)[C@H](CC1=CC=CC=C1)NC(=O)[C@H](CC(=O)O)NC=O
Method: HCD
Collision_energy: [28.333334]
Isolation_window: 4.0
Ion_mode: P
Num Peaks: 33
70.0291	12.5
86.0968	4.7
88.0396	16.9
116.0707	6.4
120.0809	100.0
121.0843	9.3
123.0442	4.2
124.0758	5.9
130.0499	8.0
134.0602	4.6
150.0915	4.3
158.0450	10.3
164.0709	5.0
166.0864	51.6
167.0899	4.1
180.0653	7.9
208.0607	4.5
235.1077	9.0
259.1079	4.9
260.0915	5.6
262.0708	6.6
277.1184	8.0
279.1342	5.1
281.1136	5.3
289.1799	4.9
305.1149	5.8
322.0926	4.9
322.1268	8.3
323.1246	14.5
324.1063	10.6
324.1444	6.0
325.1053	7.3
325.1388	11.9

Name: N-Glycyl-DL-proline
PrecursorMZ: 173.09209
RT: 4.0995
ExactMass: 172.08479225
Spectrum_type: 2
charge: 1
Formula: C7H12N2O3
SMILES: C1CC(N(C1)C(=O)CN)C(=O)O
Method: HCD
Collision_energy: [28.333334]
Isolation_window: 4.0
Ion_mode: P
Num Peaks: 60
58.0656	3.6
68.0498	4.4
69.5875	4.7
69.7543	3.8
70.0655	23.9
72.0447	3.4
72.0811	16.5
82.0653	4.0
84.0447	9.9
84.0810	20.0
85.0650	3.7
85.0762	4.3
86.0602	6.9
89.0710	3.4
98.0601	6.2
100.0758	11.0
100.1122	10.5
102.0550	3.5
110.0601	4.0
111.0553	5.2
112.0758	10.0
114.0550	15.1
115.0866	35.2
116.0706	15.3
126.0912	11.0
127.0865	64.9
128.0705	33.2
128.0897	4.8
128.1069	8.7
129.0657	4.8
129.1021	7.6
130.0498	10.4
130.0862	5.4
131.0814	18.7
132.0654	7.2
144.0654	6.5
155.0814	4.1
156.0653	7.4
156.1018	5.6
156.1382	30.9
157.0606	8.8
157.0970	4.7
158.0811	14.1
171.1127	3.9
171.1491	4.1
172.0966	8.4
172.1068	4.5
172.1331	7.3
173.0713	4.1
173.0919	100.0
173.1071	3.7
173.1647	9.3
174.0759	9.5
174.0873	10.0
174.0955	6.1
174.1123	48.0
174.1234	10.5
175.0709	10.5
175.0864	4.2
175.1075	9.1

Name: N-Isobutyryl-2 inverted exclamation mark-deoxyguanosine
PrecursorMZ: 338.14529
RT: 3.1438
ExactMass: 337.13861872
Spectrum_type: 2
charge: 1
Formula: C14H19N5O5
SMILES: CC(C)C(=O)NC1=NC2=C(C(=O)N1)N=CN2C3CC(C(O3)CO)O
Method: HCD
Collision_energy: [28.333334]
Isolation_window: 4.0
Ion_mode: P
Num Peaks: 76
70.0656	10.9
72.0812	1.9
81.0339	2.0
84.0812	6.7
86.0603	5.5
87.0445	2.0
96.0687	1.6
100.0760	2.2
101.0600	2.5
105.0337	2.3
111.0445	2.0
112.0873	2.0
116.0707	2.8
122.0602	2.1
130.0860	2.5
132.0445	2.6
136.0616	4.9
163.0752	4.1
166.0975	2.0
204.0875	2.6
220.1192	1.5
222.0985	100.0
223.1018	10.7
251.0818	4.6
255.1095	1.9
279.0765	13.1
281.0447	4.8
285.1244	1.6
293.0918	1.5
295.1015	3.8
311.1021	3.8
313.1130	1.5
321.0870	2.3
323.0548	1.9
325.1504	1.8
327.0500	3.5
328.1491	4.4
329.1135	9.3
332.1710	1.8
336.1646	2.9
337.1389	2.3
337.1839	3.0
338.1459	31.0
338.1815	4.1
339.1528	5.5
340.1552	6.4
341.1775	6.4
342.1497	3.2
342.1752	3.4
343.1553	5.0
343.1953	1.9
344.1472	2.0
344.1755	2.8
345.0616	2.1
345.1357	7.7
345.1796	4.9
346.1620	8.0
346.3331	1.6
347.1603	4.6
348.1631	2.7
349.1421	1.6
349.1783	2.7
350.1814	3.3
351.1568	2.5
351.1929	9.4
352.1595	4.5
352.1983	2.8
353.1790	2.2
354.1676	12.7
354.3139	2.6
355.0461	1.7
355.1608	3.8
355.1927	4.0
356.1945	3.1
357.1076	21.9
357.1734	3.9

Name: N-Lactoyl-Glucosamine
PrecursorMZ: 234.09853
RT: 5.7769
ExactMass: 251.10050188
Spectrum_type: 2
charge: 1
Formula: C9H17NO7
SMILES: CC(C(=O)N[C@@H]1[C@H]([C@@H]([C@H](OC1O)CO)O)O)O
Method: HCD
Collision_energy: [28.333334]
Isolation_window: 4.0
Ion_mode: P
Num Peaks: 68
60.0448	0.9
69.0339	7.6
72.0812	1.8
74.0605	2.1
81.0339	3.3
83.0495	1.1
84.0447	3.0
86.0968	3.3
95.0859	1.0
96.0447	1.4
98.0603	1.2
99.0443	18.4
100.0477	1.0
111.0443	6.1
116.1072	22.3
117.1107	1.4
124.0759	1.3
126.0551	10.5
126.0661	1.0
130.1228	9.4
133.0761	1.4
136.0619	52.4
136.0755	2.3
137.0593	1.5
137.0652	2.8
138.0550	2.9
139.0754	3.5
144.0656	3.5
152.0820	4.7
162.0551	1.1
168.0656	0.9
174.0551	5.1
186.0762	2.2
188.0707	1.0
188.1433	1.4
190.0861	1.0
191.0453	1.5
204.0866	2.5
205.0496	0.9
214.0865	1.5
214.1075	1.1
216.0669	0.9
216.1023	1.1
217.0975	1.8
218.0815	4.3
232.0970	12.3
232.1180	2.3
232.1332	3.0
233.0374	1.8
233.0920	4.8
233.1013	3.1
233.1285	23.7
233.1481	4.5
234.0596	2.6
234.0776	4.5
234.0986	100.0
234.1123	21.1
234.1233	2.5
234.1327	3.4
234.1490	5.0
235.0713	5.9
235.1022	6.2
235.1067	6.1
235.1185	4.5
235.1439	11.2
236.0745	1.6
236.0918	10.4
236.1281	4.8

Name: N-Octanoyl-L-valine
PrecursorMZ: 244.19049
RT: 4.5726
ExactMass: 243.18344366
Spectrum_type: 2
charge: 1
Formula: C13H25NO3
SMILES: CCCCCCCC(=O)N[C@@H](C(C)C)C(=O)O
Method: HCD
Collision_energy: [28.333334]
Isolation_window: 4.0
Ion_mode: P
Num Peaks: 9
81.0702	11.8
83.0857	9.4
86.0966	36.7
95.0856	12.7
163.1479	15.4
180.1744	29.9
181.1587	8.3
226.1797	100.0
227.1834	16.5

Name: N-Undecanoylglycine
PrecursorMZ: 226.17997
RT: 4.5696
ExactMass: 243.18344366
Spectrum_type: 2
charge: 1
Formula: C13H25NO3
SMILES: CCCCCCCCCCC(=O)NCC(=O)O
Method: HCD
Collision_energy: [28.333334]
Isolation_window: 4.0
Ion_mode: P
Num Peaks: 25
57.0703	9.6
67.0546	9.9
69.0702	16.7
81.0701	35.8
83.0857	40.3
93.0700	13.4
95.0856	37.0
97.0648	11.4
97.1013	25.9
100.0758	8.9
107.0855	21.9
109.1012	12.0
111.0804	19.0
121.1011	29.6
123.0803	12.0
124.1120	10.3
149.0959	10.3
163.1480	43.0
173.1326	10.7
180.1744	82.6
181.1584	16.0
181.1775	8.9
198.1851	13.3
226.1797	100.0
227.1835	13.8

Name: N-carbamoyl-L-tryptophanate
PrecursorMZ: 248.10283
RT: 7.648
ExactMass: 246.08786625
Spectrum_type: 2
charge: 1
Formula: C12H12N3O3-
SMILES: C1=CC=C2C(=C1)C(=CN2)C[C@@H](C(=O)[O-])NC(=O)N
Method: HCD
Collision_energy: [28.333334]
Isolation_window: 4.0
Ion_mode: P
Num Peaks: 6
146.0600	20.7
159.0919	26.1
188.0705	100.0
205.0971	12.7
231.0760	12.0
249.1573	50.9

Name: N-dimethyl-3-ammonio-1-propanesulfonate
PrecursorMZ: 168.06878
RT: 12.1573
ExactMass: 167.06161445
Spectrum_type: 2
charge: 1
Formula: C5H13NO3S
SMILES: C[NH+](C)CCCS(=O)(=O)[O-]
Method: HCD
Collision_energy: [28.333334]
Isolation_window: 4.0
Ion_mode: P
Num Peaks: 19
58.0654	0.9
59.0495	1.2
86.0966	0.8
109.0648	0.3
120.0807	0.4
123.0109	13.4
124.0142	0.4
141.0214	0.7
166.0855	0.5
166.1224	0.3
167.0815	0.3
168.0536	0.6
168.0569	0.4
168.0686	100.0
168.0805	0.5
168.0835	0.6
169.0723	4.6
170.0644	2.1
170.0727	0.3

Name: N-hydroxycyclohexanecarboxamide
PrecursorMZ: 144.10195
RT: 8.0162
ExactMass: 143.094628657
Spectrum_type: 2
charge: 1
Formula: C7H13NO2
SMILES: C1CCC(CC1)C(=O)NO
Method: HCD
Collision_energy: [28.333334]
Isolation_window: 4.0
Ion_mode: P
Num Peaks: 84
55.0182	0.3
55.0546	0.5
57.0338	0.2
58.0656	0.4
65.0390	0.2
67.0472	0.1
67.0547	20.9
67.0573	0.5
67.0622	0.2
68.0580	1.2
69.0340	0.3
69.0703	0.5
77.0387	0.2
81.0703	0.8
82.0655	0.3
83.0495	0.2
83.0859	4.9
84.0893	0.4
85.0651	0.4
86.0604	0.3
91.0546	4.6
92.0578	0.4
93.0403	0.2
93.0579	0.4
93.0603	0.3
93.0702	59.8
93.0799	0.4
93.0824	0.4
93.0861	0.2
93.0967	0.2
94.0734	5.3
95.0494	0.5
95.0765	0.2
96.9954	0.3
105.0338	0.1
110.0968	1.8
111.0417	0.2
111.0552	0.2
111.0644	0.4
111.0681	0.2
111.0807	65.1
111.0932	0.4
111.0970	0.4
111.1010	0.2
111.1152	0.2
112.0772	0.2
112.0839	6.1
113.0858	0.3
121.9661	0.3
123.9649	0.2
126.0918	0.2
128.1071	2.3
129.0706	0.2
129.0911	26.8
129.1078	0.2
129.1109	0.3
130.0862	0.3
130.0944	2.6
131.0959	0.2
134.0631	0.6
144.1019	0.5
146.0589	0.4
146.0802	0.4
146.0931	0.7
146.0984	0.2
146.1176	100.0
146.1364	0.7
146.1416	0.7
146.1489	0.3
146.1696	0.2
147.1210	9.6
148.0793	0.3
148.0966	1.2
148.1223	0.9
150.1123	0.1
152.0720	0.2
152.1071	0.1
157.1705	0.2
158.1542	0.5
160.0972	0.3
160.9009	0.2
161.0924	0.4
162.1128	0.4
164.0706	0.1

Name: N-methyl-N-(tritritiomethyl)aniline
PrecursorMZ: 122.09654
RT: 0.6536
ExactMass: 127.113822103
Spectrum_type: 2
charge: 1
Formula: C8H11N
SMILES: [3H]C([3H])([3H])N(C)C1=CC=CC=C1
Method: HCD
Collision_energy: [28.333334]
Isolation_window: 4.0
Ion_mode: P
Num Peaks: 10
97.3992	5.5
107.0732	23.4
120.0809	7.9
122.0602	9.7
122.0965	100.0
123.0555	7.1
123.0919	8.9
123.0999	9.5
124.0393	4.2
124.0757	17.1

Name: N-methyllysine
PrecursorMZ: 161.12853
RT: 14.9386
ExactMass: 160.121177757
Spectrum_type: 2
charge: 1
Formula: C7H16N2O2
SMILES: CNCCCCC(C(=O)O)N
Method: HCD
Collision_energy: [28.333334]
Isolation_window: 4.0
Ion_mode: P
Num Peaks: 57
58.0653	0.9
60.0562	3.5
60.0813	5.3
69.0339	0.6
70.0656	2.7
72.0813	0.8
78.9846	1.6
82.0142	1.0
84.0812	10.8
85.0844	0.7
89.0714	0.5
96.9955	7.1
98.0970	0.8
100.0247	4.0
101.0255	0.5
101.0603	0.7
102.0223	0.6
104.0709	0.6
105.0338	3.2
107.0858	0.4
109.1013	0.5
115.0062	0.5
116.0709	3.2
116.1074	0.6
118.0352	1.4
118.0864	0.4
120.0115	0.4
120.0477	0.9
123.0114	0.9
130.0866	8.5
130.0974	1.2
131.0900	0.7
141.0510	0.8
146.0815	0.5
148.0790	3.3
158.0927	1.1
160.1335	2.6
161.1285	2.4
163.0756	1.2
165.0216	4.7
165.0662	1.1
166.0896	7.7
167.0913	0.6
168.0691	11.0
169.0727	0.7
171.1498	1.1
172.0426	0.6
175.1192	7.5
176.1223	0.4
178.1224	0.6
179.0844	0.7
180.0821	14.9
180.1052	100.0
180.1381	0.7
181.0841	1.8
181.1068	9.0
182.1012	3.1

Name: N2-(3-Carboxy-1-oxopropyl)-L-lysine
PrecursorMZ: 247.12865
RT: 4.1152
ExactMass: 246.12157168
Spectrum_type: 2
charge: 1
Formula: C10H18N2O5
SMILES: C(CCN)C[C@@H](C(=O)O)NC(=O)CCC(=O)O
Method: HCD
Collision_energy: [28.333334]
Isolation_window: 4.0
Ion_mode: P
Num Peaks: 38
70.0654	14.5
72.0811	3.7
81.0337	4.2
84.0810	67.0
85.0843	3.0
90.0551	4.7
98.9842	6.2
100.0757	3.1
101.0234	11.4
101.1074	2.8
112.0757	6.6
114.0550	3.9
129.1021	36.0
130.0497	6.7
130.0861	27.5
132.0766	23.5
138.0547	4.4
147.1126	18.1
184.0715	3.6
186.0871	16.6
200.0913	3.2
211.1074	17.9
212.0914	3.3
228.0975	9.6
229.1179	3.1
246.1080	100.0
246.1338	5.0
246.1444	3.0
246.1811	3.6
247.1109	11.0
247.1284	43.1
247.1427	4.2
247.1645	10.4
248.1130	5.3
248.1242	3.0
248.1490	5.7
248.1648	3.0
249.1234	4.4

Name: N5-(4-Phenoxyphenyl)-L-glutamine
PrecursorMZ: 315.13394
RT: 6.442
ExactMass: 314.12665706
Spectrum_type: 2
charge: 1
Formula: C17H18N2O4
SMILES: C1=CC=C(C=C1)OC2=CC=C(C=C2)NC(=O)CC[C@@H](C(=O)O)N
Method: HCD
Collision_energy: [28.333334]
Isolation_window: 4.0
Ion_mode: P
Num Peaks: 16
130.0501	31.8
186.0915	25.0
206.0968	23.6
224.1071	17.0
252.1019	26.2
255.1127	10.3
270.1128	13.5
280.0967	24.2
298.1074	86.0
299.1112	13.6
313.1184	11.1
314.1023	18.6
314.1220	10.9
315.1340	100.0
316.1174	9.9
316.1366	15.4

Name: Nalpha-(indol-3-ylacetyl)-glutamine
PrecursorMZ: 304.12882
RT: 6.4093
ExactMass: 302.114081
Spectrum_type: 2
charge: 1
Formula: C15H16N3O4-
SMILES: C1=CC=C2C(=C1)C(=CN2)CC(=O)N[C@@H](CCC(=O)N)C(=O)[O-]
Method: HCD
Collision_energy: [28.333334]
Isolation_window: 4.0
Ion_mode: P
Num Peaks: 22
84.0446	18.0
100.0757	2.8
102.0550	12.6
114.0662	2.0
130.0497	21.0
130.0650	39.9
131.0684	3.6
148.0603	13.1
157.0759	3.6
212.1067	2.3
226.0860	1.9
230.1170	2.9
240.1015	2.6
257.1279	2.8
258.1228	2.3
286.1060	6.5
303.1333	5.5
304.1286	100.0
305.1322	18.1
305.1494	1.8
306.0966	3.2
306.1318	2.4

Name: N~2~-Succinylarginine
PrecursorMZ: 275.13453
RT: 9.0871
ExactMass: 274.12771969
Spectrum_type: 2
charge: 1
Formula: C10H18N4O5
SMILES: C(C[C@H](C(=O)O)NC(=O)CCC(=O)O)CN=C(N)N
Method: HCD
Collision_energy: [28.333334]
Isolation_window: 4.0
Ion_mode: P
Num Peaks: 41
60.0560	3.3
70.0654	18.7
90.0553	3.4
95.0605	3.1
98.0601	2.9
100.0394	3.3
112.0869	9.0
115.0867	4.4
116.0706	10.8
118.0498	3.2
132.0766	11.6
140.0815	5.6
141.0656	22.6
142.0689	8.8
152.0706	3.2
158.0922	5.4
170.0559	6.2
172.9521	3.1
175.1187	22.8
186.0872	5.2
197.0916	5.4
198.0758	4.0
200.0549	3.0
212.1025	3.4
216.0863	4.9
218.0656	15.1
222.0867	4.9
231.0761	2.7
234.1848	12.6
240.0974	8.6
258.1079	11.2
258.1322	3.2
274.1067	8.7
274.1393	12.2
275.1345	72.1
275.1596	3.0
276.1185	100.0
276.1422	20.7
276.1947	3.4
277.1214	5.4
277.1390	12.2

Name: Octa-3,6-dienoylcarnitine
PrecursorMZ: 284.18527
RT: 7.2255
ExactMass: 283.17835828
Spectrum_type: 2
charge: 1
Formula: C15H25NO4
SMILES: C/C=C/C/C=C/CC(=O)OC(CC(=O)[O-])C[N+](C)(C)C
Method: HCD
Collision_energy: [28.333334]
Isolation_window: 4.0
Ion_mode: P
Num Peaks: 12
105.0700	13.1
135.0804	7.2
152.0829	5.3
225.1118	100.0
226.1152	14.0
227.1274	9.1
283.1263	4.2
283.1629	5.6
284.1638	17.0
284.1852	28.8
285.1461	7.1
286.2005	5.2

Name: Oxalylproline
PrecursorMZ: 285.10785
RT: 7.1015
ExactMass: 284.10083623
Spectrum_type: 2
charge: 1
Formula: C12H16N2O6
SMILES: C1CC(N(C1)C(=O)C(=O)N2CCCC2C(=O)O)C(=O)O
Method: HCD
Collision_energy: [28.333334]
Isolation_window: 4.0
Ion_mode: P
Num Peaks: 18
59.0608	5.4
70.0655	3.0
96.0446	5.7
98.0602	6.5
114.0551	2.1
114.0914	7.6
116.0707	8.7
125.0233	11.5
128.0706	100.0
129.0739	5.7
142.0498	2.8
239.1025	65.3
240.1060	7.7
267.0974	4.0
284.0908	3.0
285.1078	4.6
286.1071	1.9
286.1277	4.7

Name: PEG-3 lauramine
PrecursorMZ: 318.29995
RT: 2.3235
ExactMass: 317.29299411
Spectrum_type: 2
charge: 1
Formula: C18H39NO3
SMILES: CCCCCCCCCCCCN(CCO)CCOCCO
Method: HCD
Collision_energy: [28.333334]
Isolation_window: 4.0
Ion_mode: P
Num Peaks: 7
88.0759	5.9
102.0915	4.8
112.8958	4.7
256.2632	34.2
257.2667	4.6
318.2998	100.0
319.3032	19.0

Name: PR dipeptide
PrecursorMZ: 272.17156
RT: 6.3954
ExactMass: 271.16443955
Spectrum_type: 2
charge: 1
Formula: C11H21N5O3
SMILES: C1CC(NC1)C(=O)NC(CCCN=C(N)N)C(=O)O
Method: HCD
Collision_energy: [28.333334]
Isolation_window: 4.0
Ion_mode: P
Num Peaks: 76
70.0656	4.9
72.0448	2.9
72.0812	1.5
84.0812	1.5
89.0599	1.1
96.0811	3.4
110.0715	2.8
112.0871	1.3
114.1027	1.9
122.0601	1.3
122.0813	1.8
123.0440	1.9
127.0975	1.4
137.0598	1.4
141.0659	1.3
149.0233	1.9
150.0918	1.3
156.0766	1.7
165.0544	1.4
168.0684	1.2
183.0810	1.5
185.0926	4.5
189.0903	1.1
201.0911	11.4
202.0948	1.6
214.0864	6.1
214.1096	1.5
215.0940	22.4
216.0978	3.4
225.1227	1.3
226.1553	1.9
232.1333	2.1
244.0968	7.7
245.1026	1.1
248.1292	1.2
256.1543	1.1
260.1280	13.3
261.1313	2.2
270.1314	2.3
271.1340	1.4
271.1653	3.4
272.0923	3.4
272.1722	16.2
273.0979	2.7
273.1230	3.3
273.1462	1.7
273.1721	2.2
274.1073	100.0
274.1672	2.2
274.2718	1.7
275.1107	15.8
275.1641	3.0
276.1230	11.5
277.1272	3.6
277.1556	1.6
278.1385	99.3
279.1418	16.6
280.1463	2.0
281.1540	2.0
282.1353	2.3
283.1326	1.9
283.1646	1.5
284.1113	2.3
284.1497	8.0
285.1482	2.9
285.1806	1.1
286.1660	1.5
286.3105	1.4
287.1088	1.2
287.1600	7.9
288.0866	4.3
289.1227	1.5
290.1026	3.2
290.1384	3.2
291.1395	1.5
292.1543	2.2

Name: Pentadecanedioylcarnitine
PrecursorMZ: 416.3
RT: 5.6297
ExactMass: 415.29338803
Spectrum_type: 2
charge: 1
Formula: C22H41NO6
SMILES: C[N+](C)(C)CC(CC(=O)[O-])OC(=O)CCCCCCCCCCCCCC(=O)O
Method: HCD
Collision_energy: [28.333334]
Isolation_window: 4.0
Ion_mode: P
Num Peaks: 21
60.0812	14.5
69.0702	14.5
70.0653	4.8
81.0701	12.0
83.0858	7.6
85.0286	26.2
95.0856	14.9
107.0857	6.5
109.1012	18.9
114.0913	10.6
121.1011	13.8
123.1167	6.1
135.1165	8.5
144.1017	5.6
237.1847	5.3
279.1736	12.6
297.1841	52.7
415.1848	4.9
416.2997	100.0
417.3031	20.6
418.2037	12.2

Name: Phenylalanyl-leucin
PrecursorMZ: 279.16979
RT: 1.1848
ExactMass: 278.16304257
Spectrum_type: 2
charge: 1
Formula: C15H22N2O3
SMILES: CC(C)CC(C(=O)O)NC(=O)C(CC1=CC=CC=C1)N
Method: HCD
Collision_energy: [28.333334]
Isolation_window: 4.0
Ion_mode: P
Num Peaks: 7
72.0811	16.0
120.0806	100.0
121.0839	7.5
132.1017	31.2
149.0231	5.1
279.1693	11.4
299.0611	5.8

Name: Piperazine
PrecursorMZ: 87.09199
RT: 12.845
ExactMass: 86.084398327
Spectrum_type: 2
charge: 1
Formula: C4H10N2
SMILES: C1CNCCN1
Method: HCD
Collision_energy: [28.333334]
Isolation_window: 4.0
Ion_mode: P
Num Peaks: 67
56.0500	11.6
56.9653	6.5
57.0338	3.5
58.0656	49.7
59.0609	7.9
60.0449	4.0
60.0813	7.0
67.0546	5.6
68.0500	8.2
69.0339	4.8
69.0452	4.3
70.0656	92.7
71.0495	3.8
71.0608	3.0
71.0690	4.3
72.0448	6.5
72.0812	21.4
74.0603	3.0
81.0451	9.4
82.0655	19.1
83.0497	4.4
83.0608	5.8
83.0858	2.7
84.0812	6.0
85.0651	9.7
85.0763	11.9
85.0842	3.9
86.0604	26.3
86.0968	54.9
87.0444	13.7
87.0920	100.0
88.0760	39.2
88.0951	3.9
88.1124	8.9
90.0916	5.3
93.0450	3.1
94.0654	25.1
94.9299	26.9
95.0606	80.8
96.0447	91.4
96.0556	25.3
96.0637	2.6
96.0808	4.6
96.9280	3.6
97.0400	14.9
97.0481	4.4
97.0763	30.8
98.0605	3.9
98.0716	7.4
98.0968	3.8
99.0556	16.9
99.0666	3.3
99.0919	36.0
100.0395	2.6
100.0759	47.0
100.0952	2.9
101.1075	7.4
102.0914	7.9
102.1280	19.2
103.1232	7.7
104.0708	11.7
104.1072	20.7
106.0655	3.2
106.0864	17.5
108.0556	5.4
108.0811	8.6
109.0763	17.9

Name: Piperazinium(2+)
PrecursorMZ: 87.09179
RT: 2.3213
ExactMass: 88.100048391
Spectrum_type: 2
charge: 1
Formula: C4H12N2+2
SMILES: C1C[NH2+]CC[NH2+]1
Method: HCD
Collision_energy: [28.333334]
Isolation_window: 4.0
Ion_mode: P
Num Peaks: 15
56.0497	3.4
58.0654	7.6
59.0606	5.7
68.0497	8.1
70.0653	69.5
85.0397	3.4
85.0760	21.9
86.0600	11.2
86.0794	3.7
86.0964	4.1
86.9086	27.0
87.0917	100.0
88.0757	15.9
88.0950	3.9
88.1120	5.4

Name: Piperidin-1-ium-4-one
PrecursorMZ: 100.07587
RT: 5.6731
ExactMass: 100.076238942
Spectrum_type: 2
charge: 1
Formula: C5H10NO+
SMILES: C1C[NH2+]CCC1=O
Method: HCD
Collision_energy: [28.333334]
Isolation_window: 4.0
Ion_mode: P
Num Peaks: 25
55.0546	0.6
56.0499	9.1
57.0339	0.3
57.0532	0.3
59.0608	0.6
71.0495	1.1
71.0607	1.9
72.0447	0.5
72.0811	1.2
81.0450	0.8
82.0289	0.9
82.0654	3.3
83.0858	0.6
99.0442	1.8
99.0554	8.2
99.0918	1.3
100.0395	0.4
100.0589	0.5
100.0690	0.8
100.0758	100.0
100.0826	0.6
100.1077	0.3
100.1121	0.5
101.0734	0.4
101.0791	5.1

Name: Putrescine
PrecursorMZ: 89.10767
RT: 8.2602
ExactMass: 88.100048391
Spectrum_type: 2
charge: 1
Formula: C4H12N2
SMILES: C(CCN)CN
Method: HCD
Collision_energy: [28.333334]
Isolation_window: 4.0
Ion_mode: P
Num Peaks: 47
53.0391	3.2
55.0184	4.4
55.0548	50.0
56.0136	32.5
56.0500	10.1
56.0580	3.0
56.9654	4.5
57.0339	2.8
58.0657	17.5
59.0609	3.0
60.0813	2.8
69.0340	3.3
70.0656	29.0
72.0450	3.2
72.0813	100.0
73.0846	4.1
82.0656	3.6
83.0608	5.7
83.0859	2.5
84.0448	7.6
84.0814	3.1
86.0605	7.8
86.0969	25.2
88.0761	19.6
88.1125	4.2
94.0655	2.8
95.0607	30.1
96.0448	28.8
96.0558	9.6
96.0811	5.9
97.0399	6.0
97.0763	3.8
98.0604	65.8
98.0715	3.8
99.0556	7.3
99.0637	3.7
100.0760	8.1
101.0713	58.7
101.1075	2.9
102.0746	2.9
102.0917	10.3
102.1280	10.6
103.1231	4.1
104.0709	9.8
104.1072	4.5
106.0865	9.9
109.0764	3.4

Name: Pyroglutamylglutamine
PrecursorMZ: 258.10817
RT: 6.510471428571429
ExactMass: 257.10117059
Spectrum_type: 2
charge: 1
Formula: C10H15N3O5
SMILES: C1CC(=O)NC1C(=O)NC(CCC(=O)N)C(=O)O
Method: HCD
Collision_energy: [28.333334]
Isolation_window: 4.0
Ion_mode: P
Num Peaks: 55
70.0655	6.3
81.0338	3.8
84.0447	100.0
84.0811	3.0
85.0480	4.6
86.0603	3.3
87.0443	3.9
98.0601	6.5
100.0758	5.3
101.0710	2.9
102.0550	4.0
114.0663	5.7
115.0503	3.1
116.0706	11.6
129.0658	16.5
130.0498	42.5
132.0808	3.2
147.0764	7.5
166.0864	3.7
166.0974	3.9
167.0813	3.7
168.0767	4.6
172.0713	8.3
180.0767	10.0
184.0716	7.2
194.0810	3.1
195.0761	8.4
198.0871	27.3
212.0915	3.2
212.1028	7.0
212.1278	3.4
213.0870	6.1
221.0917	2.9
223.0709	13.2
228.0975	19.9
239.1021	4.9
240.0977	11.7
240.1232	8.2
241.0815	31.0
241.1167	4.1
257.0926	3.3
257.1125	12.3
257.1258	18.4
257.1488	11.0
258.0750	6.5
258.0970	4.0
258.1081	83.3
258.1335	11.3
258.1451	3.1
258.1809	5.9
259.1093	13.2
259.1284	7.8
259.1434	3.8
260.0908	4.0
260.1380	3.5

Name: Pyrrolidine-3-carboxylate
PrecursorMZ: 98.06023
RT: 7.6628
ExactMass: 114.055503498
Spectrum_type: 2
charge: 1
Formula: C5H8NO2-
SMILES: C1CNCC1C(=O)[O-]
Method: HCD
Collision_energy: [28.333334]
Isolation_window: 4.0
Ion_mode: P
Num Peaks: 15
55.0183	11.1
56.9652	45.4
68.0499	15.5
69.0338	58.8
69.8744	5.4
70.0654	100.0
81.0449	7.3
96.0445	31.7
97.0285	12.3
97.0397	9.8
97.0761	10.8
98.0601	48.6
98.0713	12.2
99.0554	7.1
100.0757	6.9

Name: Quinolin-1-ium-2-carboxylic acid
PrecursorMZ: 174.05502
RT: 6.4109
ExactMass: 174.055503498
Spectrum_type: 2
charge: 1
Formula: C10H8NO2+
SMILES: C1=CC=C2C(=C1)C=CC(=[NH+]2)C(=O)O
Method: HCD
Collision_energy: [28.333334]
Isolation_window: 4.0
Ion_mode: P
Num Peaks: 16
70.0655	7.9
84.0811	19.8
97.4000	3.7
109.1014	6.2
114.0916	4.5
116.0708	5.6
126.0914	28.0
130.0863	29.0
146.0601	100.0
147.0634	9.5
172.0967	3.6
174.0550	72.8
174.0911	4.4
175.0583	7.1
175.0866	4.4
176.1072	4.9

Name: Qv
PrecursorMZ: 246.14444
RT: 6.2593375
ExactMass: 245.1375561
Spectrum_type: 2
charge: 1
Formula: C10H19N3O4
SMILES: CC(C)C(C(=O)O)NC(=O)C(CCC(=O)N)N
Method: HCD
Collision_energy: [28.333334]
Isolation_window: 4.0
Ion_mode: P
Num Peaks: 36
72.0811	49.6
81.0337	10.3
83.0606	27.1
84.0446	32.2
86.0967	33.4
100.0759	8.5
101.0598	5.1
101.0711	8.9
112.0758	5.0
118.0863	34.7
130.0497	13.5
133.0606	8.4
147.0763	35.5
181.0969	7.0
182.1287	15.9
183.1127	76.0
184.1162	5.3
186.1486	36.5
200.1278	14.2
211.1074	5.5
228.1339	100.0
229.1179	57.7
229.1365	12.6
230.1216	5.8
245.0917	10.6
245.1279	17.0
245.1484	14.8
246.0760	9.8
246.1122	38.0
246.1329	8.2
246.1450	15.4
246.1696	31.9
247.1068	24.6
247.1436	14.1
248.0915	20.6
248.1276	8.0

Name: S-(2-(3-((2,4-dihydroxy-3,3-dimethylbutanoyl)amino)propanoylamino)ethyl) ethanethioate
PrecursorMZ: 321.14694
RT: 2.7407
ExactMass: 320.14059304
Spectrum_type: 2
charge: 1
Formula: C13H24N2O5S
SMILES: CC(=O)SCCNC(=O)CCNC(=O)C(C(C)(C)CO)O
Method: HCD
Collision_energy: [28.333334]
Isolation_window: 4.0
Ion_mode: P
Num Peaks: 12
103.0212	8.6
114.0549	41.5
120.0477	19.1
149.0743	14.7
159.0584	7.5
174.0580	5.6
191.0846	100.0
192.0880	5.4
303.1367	36.6
304.1399	6.1
321.1302	90.0
322.1337	12.5

Name: Ser-Tyr-Leu
PrecursorMZ: 382.19732
RT: 5.1696
ExactMass: 381.18998559
Spectrum_type: 2
charge: 1
Formula: C18H27N3O6
SMILES: CC(C)C[C@@H](C(=O)O)NC(=O)[C@H](CC1=CC=C(C=C1)O)NC(=O)[C@H](CO)N
Method: HCD
Collision_energy: [28.333334]
Isolation_window: 4.0
Ion_mode: P
Num Peaks: 61
60.0447	10.3
69.8701	4.5
70.0654	13.6
72.0811	12.1
74.0603	5.1
81.0337	8.6
85.0286	11.1
86.0966	57.4
87.0555	18.1
110.0713	14.4
120.0806	8.3
128.1069	5.9
131.0489	12.7
132.1018	4.6
136.0754	47.1
137.0786	6.1
150.0910	10.2
151.0944	6.2
156.0764	6.7
160.0756	4.2
164.1066	14.1
165.0545	8.3
166.0862	4.2
173.1281	100.0
174.1314	9.1
176.0816	5.2
178.0860	12.5
182.0808	23.4
184.0600	7.6
201.1229	53.4
212.1279	6.1
216.1226	4.4
221.1027	13.6
223.1072	65.9
224.1113	6.7
230.1381	9.9
249.0977	11.6
251.1021	29.3
295.1634	6.3
296.1678	14.9
297.1436	47.5
298.1474	7.4
327.1539	6.1
344.1880	6.7
345.1652	33.0
346.1694	6.1
363.1759	13.1
380.1942	18.4
381.1446	8.9
381.1776	10.9
381.1977	6.1
381.2194	10.6
382.1635	4.3
382.1730	4.8
382.2124	10.2
382.2572	24.4
383.1591	16.1
383.1942	13.0
383.2332	5.2
384.1429	4.5
384.2277	4.8

Name: Ser-Val-Leu
PrecursorMZ: 318.20175
RT: 2.1301
ExactMass: 317.19507097
Spectrum_type: 2
charge: 1
Formula: C14H27N3O5
SMILES: CC(C)C[C@@H](C(=O)O)NC(=O)[C@H](C(C)C)NC(=O)[C@H](CO)N
Method: HCD
Collision_energy: [28.333334]
Isolation_window: 4.0
Ion_mode: P
Num Peaks: 30
60.0446	8.1
72.0810	53.3
86.0965	73.0
101.0709	8.1
128.1066	8.5
132.1017	9.8
134.0597	14.4
148.0753	21.5
152.0703	100.0
153.0735	10.3
157.1332	22.2
159.1125	78.6
166.0858	20.3
173.1281	97.5
174.1315	9.4
185.1278	14.8
187.1072	29.7
194.0807	12.7
201.1229	42.9
213.1590	7.7
300.1215	9.3
301.1537	10.9
317.1131	9.6
317.1482	87.2
318.1318	27.2
318.1540	13.1
319.1283	12.0
319.1634	15.2
320.1108	8.9
320.1482	18.1

Name: Serinylthreonine zwitterion
PrecursorMZ: 207.09736
RT: 6.943433333333333
ExactMass: 206.09027155
Spectrum_type: 2
charge: 1
Formula: C7H14N2O5
SMILES: C[C@H]([C@@H](C(=O)[O-])NC(=O)[C@H](CO)[NH3+])O
Method: HCD
Collision_energy: [28.333334]
Isolation_window: 4.0
Ion_mode: P
Num Peaks: 29
56.0498	3.6
60.0448	79.8
74.0604	38.9
84.0447	4.6
102.0551	14.6
106.0500	5.6
108.0444	18.1
116.0705	7.1
120.0655	100.0
121.0688	3.6
130.0498	21.6
142.0862	4.2
143.0812	3.9
162.0912	6.0
178.0496	4.6
188.0915	6.9
189.0866	44.7
206.0246	4.3
206.0815	7.8
206.0920	3.8
206.1010	8.2
206.1173	5.4
207.0759	8.2
207.0972	12.7
207.1125	18.7
208.0604	7.4
208.0965	35.6
208.1074	4.3
208.1326	6.5

Name: Suc-Ala-Pro-Pro-OH
PrecursorMZ: 384.17637
RT: 7.7772
ExactMass: 383.16925015
Spectrum_type: 2
charge: 1
Formula: C17H25N3O7
SMILES: C[C@@H](C(=O)N1CCC[C@H]1C(=O)N2CCC[C@H]2C(=O)O)NC(=O)CCC(=O)O
Method: HCD
Collision_energy: [28.333334]
Isolation_window: 4.0
Ion_mode: P
Num Peaks: 11
70.0656	50.9
116.0709	100.0
151.0868	77.9
195.1129	87.6
223.1081	28.1
338.1711	38.0
340.2597	24.5
366.1659	56.4
384.1233	38.1
384.1766	72.0
385.1779	17.7

Name: TT zwitterion
PrecursorMZ: 221.11279
RT: 6.7103
ExactMass: 220.10592162
Spectrum_type: 2
charge: 1
Formula: C8H16N2O5
SMILES: C[C@H]([C@@H](C(=O)N[C@@H]([C@@H](C)O)C(=O)[O-])[NH3+])O
Method: HCD
Collision_energy: [28.333334]
Isolation_window: 4.0
Ion_mode: P
Num Peaks: 29
56.0499	6.9
72.0811	3.9
74.0604	100.0
75.0637	3.6
84.0445	3.3
90.0552	13.1
102.0551	7.3
120.0655	38.0
128.0340	3.4
130.0498	6.4
134.0600	3.4
140.0819	3.9
159.0764	8.1
162.0549	8.4
174.1121	3.9
176.0705	4.5
184.0964	3.4
202.1073	11.0
203.1022	16.5
220.0638	3.2
220.1185	29.9
221.0925	5.9
221.1128	5.0
222.0760	5.9
222.0871	5.3
222.1123	4.4
222.1235	5.8
223.1069	4.7
223.1436	3.9

Name: Tetraethylene glycol monomethyl ether
PrecursorMZ: 209.13819
RT: 2.0113
ExactMass: 208.13107373
Spectrum_type: 2
charge: 1
Formula: C9H20O5
SMILES: COCCOCCOCCOCCO
Method: HCD
Collision_energy: [28.333334]
Isolation_window: 4.0
Ion_mode: P
Num Peaks: 5
59.0496	90.3
89.0599	59.7
103.0755	100.0
133.0858	22.4
208.0216	16.3

Name: Tetraethylene glycol-d8
PrecursorMZ: 195.12231
RT: 2.5219
ExactMass: 202.16563764
Spectrum_type: 2
charge: 1
Formula: C8H18O5
SMILES: [2H]C([2H])(C([2H])([2H])OCCOCCOC([2H])([2H])C([2H])([2H])O)O
Method: HCD
Collision_energy: [28.333334]
Isolation_window: 4.0
Ion_mode: P
Num Peaks: 249
56.0497	0.1
57.0702	0.3
59.0495	0.3
59.0607	0.2
67.0544	3.6
68.0133	0.1
68.0497	0.1
68.0578	0.2
69.0449	0.1
69.0522	0.2
69.0545	0.1
69.0701	0.6
69.0849	0.1
69.0869	0.2
69.2259	0.2
69.2349	0.2
69.2394	0.2
69.2549	0.2
69.2699	0.2
69.3451	0.2
69.3524	0.2
69.3710	0.1
69.3742	0.1
69.3775	0.2
69.3874	0.1
69.3975	0.2
69.4097	0.2
69.4199	0.1
69.4309	0.2
69.4412	0.2
69.4452	0.2
69.4492	0.2
69.4680	0.2
69.5091	0.2
69.5121	0.1
69.5187	0.2
69.5257	0.2
69.5294	0.2
69.5438	0.1
69.5725	0.2
69.6854	0.1
69.6902	0.1
69.7474	0.1
69.7525	0.1
69.8473	0.1
69.8529	0.1
70.0653	0.4
71.0493	0.3
72.0809	0.1
73.0649	0.3
79.0543	1.1
81.0336	0.4
81.0700	5.6
82.0653	0.1
82.0733	0.4
83.0241	0.2
83.0493	0.4
83.0605	0.6
83.0856	0.6
84.0445	0.2
84.0557	0.2
85.0649	0.3
85.0761	0.3
86.0965	0.1
87.0441	0.9
87.0917	0.2
89.0326	0.4
89.0502	0.1
89.0541	0.6
89.0597	100.0
89.0655	0.6
89.0692	0.2
89.0860	0.2
89.0877	0.3
90.0631	4.3
91.0542	0.8
91.0639	0.2
93.0698	2.9
94.0650	0.1
94.0731	0.2
94.9295	0.1
95.0239	0.2
95.0491	0.2
95.0604	9.6
95.0855	2.2
96.0638	0.2
96.0888	0.1
97.0647	0.5
97.0760	0.1
97.4569	0.3
98.0599	0.2
98.0711	0.1
100.0757	0.1
101.0597	0.1
105.0697	0.4
106.0651	0.1
107.0701	5.1
107.0854	1.3
108.0443	0.1
108.0734	0.2
108.0806	0.5
108.0887	0.1
109.0283	0.1
109.0647	0.2
109.0758	0.3
109.1011	0.3
110.0599	0.2
110.0711	0.7
111.0554	0.1
111.0802	0.3
111.0915	0.5
112.0868	6.6
113.0903	0.1
114.1024	0.2
117.0696	0.6
117.9594	0.4
119.0853	0.3
120.0805	0.1
121.0645	0.3
121.1009	0.7
123.0677	0.1
123.0801	0.1
123.1166	0.1
124.0754	0.1
124.0867	0.1
125.0230	0.6
125.0707	0.1
125.0820	0.2
126.0548	0.1
126.1023	0.1
127.0136	0.7
130.0859	1.1
131.0852	0.6
132.0803	0.1
133.0751	0.2
133.0816	0.2
133.0856	22.7
133.0960	0.1
133.1006	1.4
134.0596	0.5
134.0889	1.5
134.1041	0.2
135.0662	0.2
135.0801	0.3
135.1164	3.8
135.9698	0.1
136.0138	0.4
136.0753	1.1
136.0865	0.4
136.1196	0.3
137.0593	0.4
137.0818	0.2
137.0957	0.1
138.0546	0.2
138.0660	0.2
138.0911	0.1
138.1021	0.2
140.0451	1.0
140.0702	0.1
147.1164	0.2
148.0753	1.4
148.1115	0.1
149.0704	0.2
149.0786	0.2
149.0958	0.3
149.1069	1.0
149.1320	1.5
150.0546	0.3
150.0909	0.8
150.1353	0.2
151.0751	0.7
151.0865	0.2
151.0961	3.6
151.1113	0.2
152.0702	0.4
152.0928	0.3
152.0995	0.2
152.1179	0.2
153.0768	0.2
153.1017	0.5
153.1131	0.6
154.0495	0.2
154.0861	0.1
154.1222	0.2
156.0400	0.2
157.0478	0.8
158.0559	0.1
159.1164	1.5
160.1196	0.2
161.0818	0.2
164.0337	0.4
164.0702	1.7
166.0858	0.3
166.1221	0.2
168.0651	0.2
168.1013	0.2
168.1380	0.2
176.0701	0.5
176.1064	0.2
177.0541	0.5
177.1018	0.2
177.1116	1.5
177.1268	1.4
178.0857	1.9
178.1300	0.2
178.1334	1.9
179.0558	0.2
179.0698	0.1
179.0897	0.1
179.0924	0.2
179.1175	0.2
182.0438	0.2
193.1441	0.1
193.1582	0.1
194.0441	0.2
194.0806	1.2
194.0918	0.2
194.1031	0.7
194.1169	0.8
194.1394	1.1
195.0506	0.4
195.0651	0.2
195.0758	0.3
195.0837	0.1
195.0871	0.5
195.1015	0.1
195.1123	7.8
195.1149	0.2
195.1221	5.1
195.1369	1.5
195.1483	0.2
196.0596	1.2
196.0632	1.3
196.0752	0.2
196.0962	1.5
196.1155	0.8
196.1252	0.5
196.1331	0.3
196.1402	0.1
196.1439	6.0
196.1543	0.1
196.1686	0.2
197.0664	3.0
197.0803	0.2
197.0914	0.6
197.1278	2.8
197.1322	0.4
197.1474	0.3
197.1644	0.2

Name: Thr-Ala-Val
PrecursorMZ: 290.17087
RT: 2.9016
ExactMass: 289.16377084
Spectrum_type: 2
charge: 1
Formula: C12H23N3O5
SMILES: C[C@H]([C@@H](C(=O)N[C@@H](C)C(=O)N[C@@H](C(C)C)C(=O)O)N)O
Method: HCD
Collision_energy: [28.333334]
Isolation_window: 4.0
Ion_mode: P
Num Peaks: 11
72.0812	100.0
74.0604	43.0
86.0968	19.4
112.8959	13.7
114.8932	16.9
128.1071	22.1
173.1285	64.8
191.1026	52.4
201.1233	68.8
289.1409	30.8
289.1548	19.6

Name: Thr-Ile-Leu
PrecursorMZ: 346.23297
RT: 4.6849
ExactMass: 345.2263711
Spectrum_type: 2
charge: 1
Formula: C16H31N3O5
SMILES: CC[C@H](C)[C@@H](C(=O)N[C@@H](CC(C)C)C(=O)O)NC(=O)[C@H]([C@@H](C)O)N
Method: HCD
Collision_energy: [28.333334]
Isolation_window: 4.0
Ion_mode: P
Num Peaks: 71
56.0498	1.2
58.0656	1.7
67.0547	1.2
69.0702	1.6
69.6642	1.4
69.7569	1.5
70.0654	1.9
72.0811	2.9
74.0603	8.1
77.0058	18.0
81.0337	2.7
81.0701	1.4
84.0446	1.8
86.0966	30.6
87.1000	1.6
89.0598	3.0
94.0322	20.8
95.0858	1.2
101.0710	15.6
119.0857	1.3
120.0807	1.5
126.0911	1.6
132.1017	2.8
133.0858	2.1
142.1224	6.2
143.1177	5.8
147.0440	1.2
152.1067	1.1
169.1333	1.5
170.1170	1.5
178.0860	2.4
187.1438	100.0
188.1471	10.3
200.1278	1.8
204.0653	1.2
215.1386	47.4
216.1423	4.4
222.1115	1.7
226.2159	2.8
233.1492	1.6
245.1856	1.9
255.1119	2.7
284.2941	11.3
285.2976	3.9
287.1382	1.1
297.1229	1.6
315.1326	1.7
327.1323	2.0
328.1161	2.0
329.1478	1.3
329.1846	1.1
330.1322	1.2
344.3155	6.8
345.1434	9.9
345.1786	3.5
345.2004	1.5
345.2757	1.2
345.3184	3.3
346.1259	6.3
346.1480	1.8
346.1638	5.1
346.1784	1.2
346.2026	1.3
346.2316	3.8
347.1217	2.3
347.1587	7.9
347.1950	5.3
348.1412	4.1
348.1796	1.2
348.2157	1.2
348.2550	2.3

Name: Thr-Met(O)
PrecursorMZ: 267.10076
RT: 6.7847333333333335
ExactMass: 266.09364285
Spectrum_type: 2
charge: 1
Formula: C9H18N2O5S
SMILES: CC(C(C(=O)NC(CCS(=O)C)C(=O)O)N)O
Method: HCD
Collision_energy: [28.333334]
Isolation_window: 4.0
Ion_mode: P
Num Peaks: 20
56.0499	34.1
74.0239	23.5
74.0603	38.6
84.0446	18.5
102.0550	68.3
130.0497	17.3
136.0615	24.3
159.0762	43.7
166.0531	100.0
185.0918	36.8
203.1022	46.6
221.1280	21.6
249.0888	28.6
266.1011	24.6
266.1493	16.6
267.0993	67.2
267.1326	48.2
268.1031	16.6
268.1174	35.6
269.1119	17.9

Name: Thr-Ser-Phe
PrecursorMZ: 354.16527
RT: 4.9183
ExactMass: 353.15868546
Spectrum_type: 2
charge: 1
Formula: C16H23N3O6
SMILES: C[C@H]([C@@H](C(=O)N[C@@H](CO)C(=O)N[C@@H](CC1=CC=CC=C1)C(=O)O)N)O
Method: HCD
Collision_energy: [28.333334]
Isolation_window: 4.0
Ion_mode: P
Num Peaks: 20
74.0603	15.3
84.0445	12.4
86.0965	34.2
98.0964	33.3
116.0705	30.1
120.0806	47.6
136.0754	16.2
143.0812	14.9
152.0703	19.4
161.0917	29.4
166.0859	31.1
189.0865	41.1
194.0807	100.0
207.1122	43.8
212.0912	79.3
235.1072	14.9
336.1567	16.1
354.1333	9.7
355.1640	12.2
356.1482	15.9

Name: Threonyllysine
PrecursorMZ: 248.16028
RT: 5.5884
ExactMass: 247.15320616
Spectrum_type: 2
charge: 1
Formula: C10H21N3O4
SMILES: CC(C(C(=O)NC(CCCCN)C(=O)O)N)O
Method: HCD
Collision_energy: [28.333334]
Isolation_window: 4.0
Ion_mode: P
Num Peaks: 92
67.0547	8.7
69.0340	2.6
70.0656	25.9
71.0496	4.1
72.0812	5.5
74.0605	9.9
82.0656	3.2
83.0496	2.6
84.0449	3.6
84.0812	99.5
85.0288	12.4
85.0652	7.3
85.0844	5.5
86.0604	5.1
87.0444	8.6
88.0761	4.4
95.0494	5.8
98.0604	5.5
100.0760	13.5
101.0600	15.2
101.1075	3.0
108.0447	7.1
110.0718	2.7
112.0759	8.2
112.0873	2.8
113.0598	6.0
113.0713	5.4
114.0553	3.0
114.0665	34.6
114.1028	9.5
116.0709	9.3
117.0550	2.7
118.0864	9.6
123.0683	3.8
126.0551	43.9
126.0916	2.8
127.0587	3.7
128.0707	3.8
128.0807	3.9
129.1024	24.8
130.0501	2.6
130.0864	62.1
131.0341	2.6
131.0900	4.8
133.0321	4.7
142.0866	2.7
147.1130	20.4
152.1067	2.5
160.0969	10.0
188.1281	8.0
195.1126	3.8
197.0920	4.1
205.1547	6.6
213.1233	19.2
220.0992	2.8
225.1235	2.9
230.1128	6.7
230.1409	5.1
231.1341	18.5
246.1343	4.2
247.1279	28.5
248.1226	22.9
248.1583	32.8
249.1234	3.3
249.1427	3.3
249.1646	3.3
250.1655	19.0
251.1376	3.3
252.1445	30.8
253.1205	2.7
253.1541	16.2
255.1336	25.2
256.0810	23.3
256.1176	50.0
257.0838	2.7
257.1155	14.8
258.1809	16.3
259.1308	9.8
260.1212	3.6
260.1507	11.1
261.1148	4.8
261.1458	11.8
262.1283	8.5
263.1591	2.7
264.1445	42.6
265.1476	6.4
266.1019	7.7
266.1602	100.0
266.1866	6.4
267.1366	2.6
267.1630	11.2
268.1662	7.4

Name: Toluidine Red
PrecursorMZ: 308.10255
RT: 1.0777
ExactMass: 307.09569129
Spectrum_type: 2
charge: 1
Formula: C17H13N3O3
SMILES: CC1=CC(=C(C=C1)N=NC2=C(C=CC3=CC=CC=C32)O)[N+](=O)[O-]
Method: HCD
Collision_energy: [28.333334]
Isolation_window: 4.0
Ion_mode: P
Num Peaks: 28
59.0495	4.2
69.2881	1.0
95.0855	1.0
106.0652	2.3
117.0909	0.9
122.0601	2.1
128.0494	27.0
129.0527	2.5
146.0599	4.6
151.0501	4.7
152.0579	73.6
153.0611	6.0
156.0442	100.0
157.0476	9.0
158.0599	1.4
174.0547	12.0
175.0581	1.3
233.1068	1.6
245.1068	2.0
262.1096	1.5
274.0969	7.7
275.1003	1.5
276.0889	3.1
290.0915	2.7
291.0996	17.1
292.1031	3.6
308.1023	57.1
309.1057	9.3

Name: Trans-urocanate
PrecursorMZ: 139.05014
RT: 8.3058
ExactMass: 137.035102407
Spectrum_type: 2
charge: 1
Formula: C6H5N2O2-
SMILES: C1=C(NC=N1)/C=C/C(=O)[O-]
Method: HCD
Collision_energy: [28.333334]
Isolation_window: 4.0
Ion_mode: P
Num Peaks: 13
93.0448	9.5
95.0605	15.8
121.0396	84.6
122.0429	6.4
137.0456	3.6
138.0547	6.5
138.0912	14.9
139.0500	100.0
139.0864	4.0
139.1228	3.2
140.0534	6.9
140.1068	3.2
141.0656	5.5

Name: Tridecanediamide
PrecursorMZ: 243.20662
RT: 1.3848500000000001
ExactMass: 242.199428076
Spectrum_type: 2
charge: 1
Formula: C13H26N2O2
SMILES: C(CCCCCC(=O)N)CCCCCC(=O)N
Method: HCD
Collision_energy: [28.333334]
Isolation_window: 4.0
Ion_mode: P
Num Peaks: 65
55.0547	23.3
56.0500	8.3
57.0703	18.8
67.0546	27.2
69.0703	55.3
70.0655	10.0
71.0495	4.7
71.0859	11.6
79.0546	15.4
81.0702	68.8
82.0656	5.2
83.0495	5.5
83.0859	88.8
84.0811	7.0
84.0892	4.8
85.0651	8.5
85.1015	4.3
93.0701	35.6
95.0858	42.3
96.0810	7.0
97.0650	22.3
97.1014	66.1
97.3992	3.7
98.0967	3.9
98.1048	4.1
99.0806	4.0
100.0758	5.7
105.0701	4.5
107.0857	44.8
109.1014	11.4
110.0966	9.9
111.0806	17.9
111.1171	6.8
114.0915	9.8
121.1013	42.4
123.1169	8.3
124.1121	13.6
125.0961	14.3
131.0856	8.2
135.1168	9.7
138.1277	6.8
139.1117	7.1
139.9146	5.1
141.9129	9.4
147.1169	4.5
163.1482	53.3
164.1514	6.3
173.1325	11.1
180.1747	47.7
181.1587	26.4
181.1781	6.9
190.1589	3.5
191.1432	3.8
197.2012	10.9
198.1856	4.9
208.1695	100.0
209.1729	12.7
210.1851	14.0
225.1960	14.8
226.1801	11.8
243.2066	38.9
244.2099	5.5
245.1008	5.6
245.1149	8.1
245.1359	28.9

Name: Tryptophylvaline
PrecursorMZ: 304.16553
RT: 5.0395
ExactMass: 303.15829154
Spectrum_type: 2
charge: 1
Formula: C16H21N3O3
SMILES: CC(C)C(C(=O)O)NC(=O)C(CC1=CNC2=CC=CC=C21)N
Method: HCD
Collision_energy: [28.333334]
Isolation_window: 4.0
Ion_mode: P
Num Peaks: 63
55.0547	2.4
58.0656	14.5
72.0812	30.2
81.0339	3.8
83.0859	8.6
86.0968	30.1
87.1001	2.7
91.0545	43.5
92.0579	2.9
98.0603	2.3
108.0810	9.4
116.0708	9.5
126.0915	18.9
130.0653	13.2
132.0809	18.7
136.0758	10.1
143.1179	6.5
144.0809	29.7
145.0843	3.2
150.0915	32.3
151.0949	2.6
157.1336	2.7
159.0918	77.6
160.0758	3.2
160.0875	2.4
160.0952	7.0
163.1233	2.5
170.0602	16.4
178.0864	19.9
185.1649	14.1
186.1491	3.6
186.1684	4.1
203.1389	2.5
212.2373	25.4
213.1597	10.2
213.2409	2.5
214.1633	3.6
233.1649	2.4
257.0920	2.3
259.1440	4.9
275.1754	12.1
285.1230	5.4
285.1595	2.4
286.1067	2.9
287.1390	57.0
288.1420	10.3
303.0962	4.4
303.1322	11.5
303.1703	16.4
303.1909	4.2
304.1177	13.5
304.1319	2.4
304.1658	21.8
304.2998	100.0
305.1136	3.3
305.1497	9.8
305.1686	3.8
305.1841	7.9
305.3031	20.4
306.0966	2.6
306.1310	10.7
306.1468	2.8
306.1819	5.3

Name: Tyrosylglutamic acid
PrecursorMZ: 311.12346
RT: 7.5655
ExactMass: 310.1164863
Spectrum_type: 2
charge: 1
Formula: C14H18N2O6
SMILES: C1=CC(=CC=C1CC(C(=O)NC(CCC(=O)O)C(=O)O)N)O
Method: HCD
Collision_energy: [28.333334]
Isolation_window: 4.0
Ion_mode: P
Num Peaks: 19
70.0655	3.2
84.0810	5.1
96.0445	3.7
136.0756	9.1
148.0603	2.9
265.1167	3.6
267.1337	3.9
292.0810	3.0
292.1021	5.5
292.1176	3.7
293.1127	5.9
310.0914	6.0
310.1121	4.1
310.1271	5.6
311.1229	100.0
311.1609	2.5
312.1064	5.9
312.1256	16.0
313.1391	6.5

Name: Tyrosylthreonine
PrecursorMZ: 283.1283
RT: 5.0977
ExactMass: 282.12157168
Spectrum_type: 2
charge: 1
Formula: C13H18N2O5
SMILES: CC(C(C(=O)O)NC(=O)C(CC1=CC=C(C=C1)O)N)O
Method: HCD
Collision_energy: [28.333334]
Isolation_window: 4.0
Ion_mode: P
Num Peaks: 56
70.0654	5.0
72.0810	24.2
73.0844	2.4
81.0336	2.4
86.0965	3.2
91.0543	2.1
102.0549	2.6
114.0549	6.5
119.0489	4.4
120.0654	3.6
120.0806	3.3
121.0840	2.9
128.0705	1.5
130.0649	2.7
136.0754	100.0
137.0787	8.8
144.0805	3.5
165.0541	1.6
167.0560	3.3
170.0595	5.0
182.0807	3.1
190.0858	3.8
192.1014	1.8
202.0855	1.7
208.0961	2.4
210.1227	2.1
220.0963	5.4
238.1063	2.0
238.1178	11.3
246.1120	4.4
264.1222	9.5
265.1166	3.6
266.1012	2.5
266.1855	3.3
267.1695	2.8
281.1480	4.0
282.0964	1.6
282.1322	35.3
282.1443	6.1
282.1681	1.9
283.1057	2.1
283.1268	6.7
283.1382	2.6
283.1637	2.2
284.1107	1.6
284.1235	54.3
284.1454	1.9
284.1484	3.1
284.1605	2.1
284.1955	3.3
284.2942	1.6
284.3304	2.8
285.1212	5.6
285.1244	5.7
285.1436	1.9
285.1796	5.8

Name: Undecaethylene glycol
PrecursorMZ: 520.33226
RT: 2.6206
ExactMass: 502.2989269
Spectrum_type: 2
charge: 1
Formula: C22H46O12
SMILES: C(COCCOCCOCCOCCOCCOCCOCCOCCOCCOCCO)O
Method: HCD
Collision_energy: [28.333334]
Isolation_window: 4.0
Ion_mode: P
Num Peaks: 12
87.0442	6.8
89.0599	100.0
90.0632	4.1
133.0858	47.8
177.1119	14.3
503.3056	37.7
504.3087	9.0
520.3319	17.0
520.5079	16.6
521.3336	3.5
521.5129	5.1
522.5237	7.7

Name: Urea, N'-cyclohexyl-N,N-dimethyl-
PrecursorMZ: 171.14911
RT: 5.5586
ExactMass: 170.141913202
Spectrum_type: 2
charge: 1
Formula: C9H18N2O
SMILES: CN(C)C(=O)NC1CCCCC1
Method: HCD
Collision_energy: [28.333334]
Isolation_window: 4.0
Ion_mode: P
Num Peaks: 15
67.0546	15.3
72.0447	30.7
83.0857	14.7
89.0711	51.7
94.9297	14.3
100.1121	8.2
109.1012	34.5
112.8959	10.6
126.0913	64.0
170.0647	56.7
170.0723	9.7
171.1490	100.0
171.1853	14.2
172.1524	9.2
173.1170	14.9

Name: Val-Asp-Glu
PrecursorMZ: 362.15505
RT: 7.6595
ExactMass: 361.1485147
Spectrum_type: 2
charge: 1
Formula: C14H23N3O8
SMILES: CC(C)[C@@H](C(=O)N[C@@H](CC(=O)O)C(=O)N[C@@H](CCC(=O)O)C(=O)O)N
Method: HCD
Collision_energy: [28.333334]
Isolation_window: 4.0
Ion_mode: P
Num Peaks: 27
70.0654	15.9
72.0810	61.7
84.0445	28.9
84.0810	14.6
88.0394	20.3
102.0550	31.8
116.0706	16.7
118.0863	23.6
127.0865	12.4
130.0496	15.0
148.0602	47.9
181.0605	37.1
186.1123	12.7
187.1074	100.0
188.1278	20.6
199.0711	13.4
215.1022	31.3
217.0815	65.7
245.0763	81.7
361.0687	13.8
361.1429	15.5
361.1718	15.1
362.1217	31.6
362.1576	19.3
363.1184	14.8
363.1540	13.6
363.1751	26.4

Name: Val-Gly-Ile
PrecursorMZ: 288.19137
RT: 4.8461
ExactMass: 287.18450629
Spectrum_type: 2
charge: 1
Formula: C13H25N3O4
SMILES: CC[C@H](C)[C@@H](C(=O)O)NC(=O)CNC(=O)[C@H](C(C)C)N
Method: HCD
Collision_energy: [28.333334]
Isolation_window: 4.0
Ion_mode: P
Num Peaks: 40
70.0655	7.8
72.0811	100.0
81.0338	8.0
86.0966	91.3
118.0862	9.5
127.1229	9.7
129.1021	12.0
130.0651	7.7
130.0858	8.0
132.1018	15.3
143.1178	21.3
144.0806	33.5
157.0969	21.0
158.0962	51.0
159.0919	9.5
159.0997	7.6
168.0807	7.7
170.0598	10.3
171.1127	15.6
172.1331	19.1
175.1075	12.5
189.1232	22.9
269.0922	7.6
270.1117	20.6
271.1060	13.9
287.1003	19.2
287.1381	43.4
287.1732	11.3
288.0859	16.3
288.1222	28.3
288.1344	27.8
288.1594	8.9
288.1918	11.5
289.1153	27.7
289.1520	20.7
289.1750	8.2
289.1914	12.2
290.1124	11.1
290.1377	8.2
290.1507	17.0

Name: Val-Leu-Ala
PrecursorMZ: 302.20707
RT: 1.566
ExactMass: 301.20015635
Spectrum_type: 2
charge: 1
Formula: C14H27N3O4
SMILES: C[C@@H](C(=O)O)NC(=O)[C@H](CC(C)C)NC(=O)[C@H](C(C)C)N
Method: HCD
Collision_energy: [28.333334]
Isolation_window: 4.0
Ion_mode: P
Num Peaks: 11
72.0811	100.0
86.0966	59.3
171.1490	44.9
185.1645	39.8
199.1437	40.8
203.1388	10.7
213.1594	29.9
257.1280	6.2
301.1170	11.1
301.1539	6.8
302.2064	6.9

Name: Val-Leu-Phe
PrecursorMZ: 378.23841
RT: 2.9499666666666666
ExactMass: 377.23145648
Spectrum_type: 2
charge: 1
Formula: C20H31N3O4
SMILES: CC(C)C[C@@H](C(=O)N[C@@H](CC1=CC=CC=C1)C(=O)O)NC(=O)[C@H](C(C)C)N
Method: HCD
Collision_energy: [28.333334]
Isolation_window: 4.0
Ion_mode: P
Num Peaks: 9
72.0811	75.9
86.0967	100.0
120.0807	72.8
185.1647	54.0
213.1596	66.9
219.1489	25.3
247.1437	16.2
378.2153	85.2
379.2186	18.9

Name: Val-Met(O)
PrecursorMZ: 265.12167
RT: 5.9552
ExactMass: 264.1143783
Spectrum_type: 2
charge: 1
Formula: C10H20N2O4S
SMILES: CC(C)C(C(=O)NC(CCS(=O)C)C(=O)O)N
Method: HCD
Collision_energy: [28.333334]
Isolation_window: 4.0
Ion_mode: P
Num Peaks: 31
55.0546	6.4
56.0498	3.5
72.0811	11.9
74.0239	4.8
74.0603	7.0
75.0265	1.9
83.0494	3.9
101.0597	23.0
127.0864	5.1
130.0497	3.8
155.1176	4.3
164.0705	4.7
166.0530	28.4
166.0859	7.3
166.1224	45.5
167.1258	2.8
173.0916	2.7
201.1230	25.0
202.1265	2.5
219.1155	3.7
263.1378	3.3
264.1223	6.1
264.1338	4.2
265.1203	18.2
265.1540	2.1
266.1018	4.1
266.1379	7.1
266.1505	2.3
266.1744	100.0
267.1310	2.6
267.1792	6.4

Name: Val-Thr
PrecursorMZ: 219.13377
RT: 1.5707
ExactMass: 218.12665706
Spectrum_type: 2
charge: 1
Formula: C9H18N2O4
SMILES: C[C@H]([C@@H](C(=O)O)NC(=O)[C@H](C(C)C)N)O
Method: HCD
Collision_energy: [28.333334]
Isolation_window: 4.0
Ion_mode: P
Num Peaks: 163
56.0499	0.2
58.0656	0.4
60.0449	0.2
70.0656	3.6
71.0689	0.2
72.0812	2.3
74.0605	1.6
80.0500	0.2
81.0338	0.2
81.0704	0.1
83.0495	0.2
84.0447	0.6
84.0812	0.4
85.0288	0.1
86.0605	0.7
86.0968	2.1
87.0445	0.4
90.0553	0.3
93.0702	0.3
95.0607	1.0
95.0858	0.1
96.0447	0.4
96.9957	0.2
101.0602	0.2
102.0210	0.4
102.0410	0.6
102.0444	0.2
102.0552	100.0
102.0660	0.6
102.0689	0.5
102.0738	0.3
102.0816	0.1
102.0855	0.3
102.0929	0.1
103.0522	0.4
103.0584	4.1
104.0596	0.4
104.0707	0.6
108.0446	2.4
110.0605	0.2
111.0443	0.7
112.0761	0.3
114.0548	0.1
115.0869	0.1
116.0709	0.4
118.0653	0.6
118.0865	0.4
120.0655	0.2
120.0808	0.1
121.0648	0.3
123.0551	0.1
124.0395	0.4
124.0761	0.2
126.0553	0.6
128.0709	0.2
130.0500	1.5
130.0645	0.3
130.0864	0.3
132.0810	0.3
132.1021	0.3
136.0754	0.2
138.0549	0.1
140.0342	0.4
142.0660	0.1
142.0861	0.1
143.0726	0.2
144.0810	3.2
145.0846	0.4
146.0361	0.1
146.0601	17.7
147.0636	1.6
148.1122	0.3
152.0568	0.3
152.0705	0.2
158.0965	0.5
160.0755	0.3
161.0707	0.2
162.0546	0.2
164.0703	0.4
165.0544	0.6
166.0862	0.2
170.0600	0.9
173.0928	0.2
173.1281	0.3
174.1026	1.2
175.1062	0.1
175.1230	0.3
176.0684	0.2
176.0830	0.3
178.0744	0.2
178.0980	1.1
178.1210	0.1
182.0809	0.5
182.1165	0.2
184.1095	0.2
184.1329	0.2
187.1228	0.2
187.9848	0.2
188.0354	0.5
188.0421	0.3
188.0706	73.7
188.0984	0.6
188.1057	0.6
188.1155	0.2
188.1473	0.2
189.0740	9.0
189.1210	0.2
190.0757	0.8
191.0813	1.2
192.0661	0.2
192.0862	0.1
194.0806	0.1
199.1069	0.2
201.1236	0.2
206.0824	0.2
209.0920	0.3
210.0751	0.3
214.0862	0.2
217.1175	0.1
218.0821	0.3
218.0976	0.1
218.1169	0.5
219.0758	0.3
219.1143	0.1
219.1342	0.3
220.0605	0.2
220.0816	0.1
221.0920	0.5
222.0744	0.2
222.0873	0.5
222.1129	0.3
223.1083	0.3
224.0930	1.6
224.1277	2.0
225.0909	0.2
225.1266	0.4
226.0702	0.6
226.1088	0.3
226.1190	0.1
227.1025	1.0
227.1383	0.2
228.0864	2.4
228.1236	0.2
229.0920	0.3
229.1185	0.6
229.1545	0.8
230.1152	1.8
230.1388	0.3
231.1140	0.3
232.1166	0.6
233.1284	10.8
234.0761	0.8
234.1321	1.6
235.1073	0.1
236.0768	1.4
236.0936	1.0
237.0869	10.0
237.1206	0.7
238.0889	1.1
238.1113	0.2
239.1045	0.2
240.0827	0.2
240.1212	0.3

Name: Valylthreonine
PrecursorMZ: 219.1337
RT: 5.5783
ExactMass: 218.12665706
Spectrum_type: 2
charge: 1
Formula: C9H18N2O4
SMILES: CC(C)C(C(=O)NC(C(C)O)C(=O)O)N
Method: HCD
Collision_energy: [28.333334]
Isolation_window: 4.0
Ion_mode: P
Num Peaks: 18
72.0811	100.0
73.0845	3.7
86.0967	13.1
120.0655	10.0
131.0602	7.4
140.0339	2.9
146.0599	14.6
154.0862	3.3
200.0916	2.7
218.0807	4.7
218.1176	3.1
219.0760	15.9
219.1123	3.4
219.1350	4.3
220.0601	3.8
220.0965	18.3
220.1174	3.7
220.1331	2.5

Name: Valylvalyllysine
PrecursorMZ: 345.24932
RT: 2.965
ExactMass: 344.24235551
Spectrum_type: 2
charge: 1
Formula: C16H32N4O4
SMILES: CC(C)C(C(=O)NC(C(C)C)C(=O)NC(CCCCN)C(=O)O)N
Method: HCD
Collision_energy: [28.333334]
Isolation_window: 4.0
Ion_mode: P
Num Peaks: 19
70.0656	26.1
72.0812	85.0
84.0812	36.4
89.0601	26.1
129.1022	27.5
130.0865	47.1
147.1130	76.3
171.1492	59.6
172.0970	23.5
175.1197	25.5
345.2530	100.0
346.1705	19.2
346.3315	37.0
347.1614	22.8
348.2050	55.0
353.2166	37.2
356.1496	19.3
356.3516	20.4
362.2312	47.9

Name: alpha-4-Norpyridoxal
PrecursorMZ: 140.07059
RT: 7.7546
ExactMass: 139.06332853
Spectrum_type: 2
charge: 1
Formula: C7H9NO2
SMILES: CC1=C(C=C(C=N1)CO)O
Method: HCD
Collision_energy: [28.333334]
Isolation_window: 4.0
Ion_mode: P
Num Peaks: 13
85.0764	1.5
94.0654	7.0
110.0603	8.5
112.0870	1.7
122.0602	100.0
123.0636	7.4
138.0914	56.3
139.0868	1.5
139.0947	11.0
140.0707	21.8
141.0661	2.1
141.0740	2.1
141.1134	1.4

Name: cyclo(DL-Glu-DL-Pro-DL-Glu-DL-Pro)
PrecursorMZ: 453.1981
RT: 7.8344
ExactMass: 452.19071386
Spectrum_type: 2
charge: 1
Formula: C20H28N4O8
SMILES: C1CC2C(=O)NC(C(=O)N3CCCC3C(=O)NC(C(=O)N2C1)CCC(=O)O)CCC(=O)O
Method: HCD
Collision_energy: [28.333334]
Isolation_window: 4.0
Ion_mode: P
Num Peaks: 23
50.3718	1.7
70.0655	7.6
84.0447	11.1
96.0810	2.3
114.0915	8.2
116.0708	50.9
117.0741	2.7
181.0971	8.0
209.0918	1.9
209.1648	9.3
226.1918	3.1
227.1026	100.0
228.1063	10.2
228.1595	2.5
322.2488	8.1
323.2513	1.6
435.3327	11.3
436.3361	2.8
451.2093	1.9
452.2113	1.8
453.1980	1.5
453.3435	33.4
454.3468	9.0

Name: cyclo(N(Me)Ala-bAla-DL-OGly(allyl)-Pro-Ile-N(Me)Phe)
PrecursorMZ: 626.35473
RT: 6.0641
ExactMass: 625.34754886
Spectrum_type: 2
charge: 1
Formula: C33H47N5O7
SMILES: CC[C@H](C)[C@H]1C(=O)N([C@H](C(=O)N([C@H](C(=O)NCCC(=O)OC(C(=O)N2CCC[C@H]2C(=O)N1)CC=C)C)C)CC3=CC=CC=C3)C
Method: HCD
Collision_energy: [28.333334]
Isolation_window: 4.0
Ion_mode: P
Num Peaks: 134
52.0278	3.1
55.0547	1.8
65.9262	3.1
67.5941	3.8
69.5932	1.3
69.5953	4.9
69.7068	1.7
70.0655	1.9
83.0857	6.8
94.0653	1.8
108.0808	12.1
124.0758	2.0
126.0913	21.8
127.0944	1.6
136.0755	3.4
138.0911	4.3
148.0756	5.5
150.0912	23.1
151.0943	2.3
152.0704	4.4
154.0863	3.9
162.0911	1.7
164.0704	6.0
166.0861	26.3
167.0892	2.4
168.1018	49.6
169.1052	3.6
176.1069	3.7
180.1017	12.4
182.0810	1.9
190.1224	2.0
194.0810	7.0
195.1124	3.6
206.0810	1.3
210.1123	3.6
229.1330	1.6
231.1125	3.4
231.1488	17.0
232.1515	2.1
233.1645	2.9
240.1224	1.3
245.1280	2.5
245.1645	1.6
246.1483	3.6
256.1440	4.4
257.1282	1.3
258.1592	4.7
259.1433	1.5
271.1439	2.7
273.1593	13.7
274.1433	1.8
274.1627	2.2
275.1386	3.8
275.1748	12.3
276.1420	1.5
276.1787	2.5
277.1540	1.5
285.1591	3.5
289.1541	9.1
290.1590	2.1
290.1860	1.4
291.1356	2.4
291.1698	53.3
292.1166	1.4
292.1729	9.6
293.1857	12.5
294.1886	1.7
299.1381	1.7
301.1541	24.7
302.1576	5.1
303.1335	1.5
303.1699	12.9
304.1731	2.0
305.1852	1.3
307.1648	5.8
309.1802	1.9
316.1642	1.8
317.1490	6.3
318.1531	1.5
319.1646	3.8
320.1964	5.9
329.1491	6.4
330.1544	1.4
331.1649	2.3
333.1807	1.6
341.1489	2.0
341.1710	1.3
343.1647	17.8
344.1722	59.4
345.1430	1.6
345.1759	11.9
357.1439	2.6
358.1753	16.9
359.1592	3.0
359.1826	14.6
360.1431	1.4
360.1857	1.9
377.1690	3.2
408.2281	2.0
410.2076	1.7
411.2384	7.5
450.2382	1.4
454.2324	2.4
464.2181	2.1
466.2325	2.6
467.2376	1.4
468.2486	55.9
469.2527	17.4
470.2256	4.7
470.2558	2.8
471.2595	2.5
482.2278	4.6
483.2604	5.4
484.2380	2.8
500.2384	5.9
501.2418	1.3
502.2539	7.9
503.2567	1.7
590.3319	1.3
591.3156	3.5
592.3210	1.7
593.3325	56.2
594.3358	22.5
595.3406	3.0
607.3118	7.5
608.3441	69.0
609.3475	24.9
610.3514	3.4
624.3759	7.7
625.3199	10.0
625.3623	13.2
626.3547	100.0
627.3581	34.2
628.3630	4.5

Name: diethyl-(2-((2R)-2-phenylbutanoyl)oxyethyl)azanium
PrecursorMZ: 264.19564
RT: 0.692
ExactMass: 264.196354072
Spectrum_type: 2
charge: 1
Formula: C16H26NO2+
SMILES: CC[C@H](C1=CC=CC=C1)C(=O)OCC[NH+](CC)CC
Method: HCD
Collision_energy: [28.333334]
Isolation_window: 4.0
Ion_mode: P
Num Peaks: 7
100.1123	33.0
163.0754	100.0
164.0789	15.2
264.1956	90.1
265.1316	34.7
265.1539	22.1
265.1990	10.2

Name: e-Pyrrole-lysine
PrecursorMZ: 255.13395
RT: 7.1705
ExactMass: 254.12665706
Spectrum_type: 2
charge: 1
Formula: C12H18N2O4
SMILES: C1=C(N(C(=C1)C=O)CCCCC(C(=O)O)N)CO
Method: HCD
Collision_energy: [28.333334]
Isolation_window: 4.0
Ion_mode: P
Num Peaks: 35
70.0656	4.6
84.0448	7.3
87.0444	7.9
100.0760	5.6
110.0603	3.6
116.0708	4.4
128.0708	4.8
135.0918	3.3
163.0866	5.8
173.1074	6.8
179.1180	4.7
191.1180	16.3
192.1019	3.2
194.0924	10.2
201.1024	7.5
209.1284	21.2
219.1128	34.7
220.1064	3.6
220.1172	3.3
228.1229	3.0
236.0920	3.8
237.1233	79.2
238.1186	15.0
238.1275	6.2
253.1174	4.4
254.1022	18.6
254.1388	3.9
255.1121	3.1
255.1338	100.0
256.0583	6.7
256.0960	3.8
256.1174	7.5
256.1285	85.5
257.1326	6.7
257.1485	5.2

Name: epsilon-(gamma-L-Glutamyl)lysine
PrecursorMZ: 276.15514
RT: 6.798
ExactMass: 275.14812078
Spectrum_type: 2
charge: 1
Formula: C11H21N3O5
SMILES: C(CCNC(=O)CCC(C(=O)O)N)CC(C(=O)O)N
Method: HCD
Collision_energy: [28.333334]
Isolation_window: 4.0
Ion_mode: P
Num Peaks: 12
70.0655	11.4
84.0447	12.6
84.0810	78.9
129.1022	19.2
130.0498	11.9
130.0861	81.0
131.0895	6.9
147.1126	100.0
274.1760	16.1
275.1378	10.2
276.1554	15.7
277.1528	10.9

Name: epsilon-N-(L-propionyl-2-)-L-lysine
PrecursorMZ: 203.13882
RT: 8.1872
ExactMass: 202.13174244
Spectrum_type: 2
charge: 1
Formula: C9H18N2O3
SMILES: CCC(=O)NCCCC[C@@H](C(=O)O)N
Method: HCD
Collision_energy: [28.333334]
Isolation_window: 4.0
Ion_mode: P
Num Peaks: 74
57.0338	1.6
70.0655	31.2
74.0604	2.0
84.0446	3.6
84.0810	66.2
85.0844	3.7
86.0603	2.0
86.0966	3.7
87.0443	9.9
97.0285	1.8
98.0966	1.6
100.0758	9.8
101.0598	6.4
112.0758	26.2
114.0550	3.9
114.0662	17.4
114.0914	6.0
116.0707	7.2
118.0863	5.3
123.0552	3.9
125.0709	3.7
126.0549	4.5
126.0913	33.8
128.0705	7.1
128.1067	1.8
129.1022	1.6
130.0862	13.8
133.0606	25.3
137.0708	4.1
138.0548	9.7
140.0705	8.2
140.1069	100.0
141.1101	9.5
142.0692	2.1
142.0861	2.0
143.1178	8.0
144.0653	6.4
144.1019	4.3
147.1126	3.4
149.0708	2.4
155.0814	4.6
156.0846	6.7
156.1018	6.7
157.1335	15.0
158.0810	8.6
158.1174	8.7
167.0815	8.9
168.1017	2.8
168.1381	2.7
184.0797	2.4
184.0964	4.1
185.0919	15.3
186.0759	3.6
186.1123	12.5
186.1485	8.9
187.0711	7.8
202.0651	3.9
202.0706	2.1
202.0823	5.9
202.0901	16.3
202.1070	13.6
202.1799	3.3
203.0820	3.7
203.0919	2.5
203.1023	39.7
203.1178	2.7
203.1387	37.4
204.0655	1.9
204.0865	7.9
204.1019	2.9
204.1043	4.4
204.1227	47.6
204.1423	3.1
204.1591	33.8

Name: ethyl 2-(((2R)-4-methyl-2-((5-oxopyrrolidine-2-carbonyl)amino)pentanoyl)amino)acetate
PrecursorMZ: 328.18632
RT: 1.9821
ExactMass: 327.17942091
Spectrum_type: 2
charge: 1
Formula: C15H25N3O5
SMILES: CCOC(=O)CNC(=O)[C@@H](CC(C)C)NC(=O)C1CCC(=O)N1
Method: HCD
Collision_energy: [28.333334]
Isolation_window: 4.0
Ion_mode: P
Num Peaks: 7
84.0446	8.4
86.0967	29.1
104.0707	100.0
112.8957	5.0
167.0927	4.7
197.1281	23.5
225.1233	6.6

Name: gamma-D-Glutamylglycine
PrecursorMZ: 205.0817
RT: 8.88175
ExactMass: 204.07462149
Spectrum_type: 2
charge: 1
Formula: C7H12N2O5
SMILES: C(CC(=O)NCC(=O)O)[C@H](C(=O)O)N
Method: HCD
Collision_energy: [28.333334]
Isolation_window: 4.0
Ion_mode: P
Num Peaks: 15
76.0396	33.1
84.0446	58.7
84.0809	38.4
85.0285	87.2
99.0441	22.6
130.0496	57.5
134.0445	44.7
142.0497	43.6
142.0860	25.8
145.0493	100.0
188.0553	26.0
204.1023	58.1
204.1225	25.7
206.1018	48.0
206.1170	40.9

Name: gamma-L-Glutamyl-L-pipecolic acid
PrecursorMZ: 259.12857
RT: 3.4934
ExactMass: 258.12157168
Spectrum_type: 2
charge: 1
Formula: C11H18N2O5
SMILES: C1CCN(C(C1)C(=O)O)C(=O)CCC(C(=O)O)N
Method: HCD
Collision_energy: [28.333334]
Isolation_window: 4.0
Ion_mode: P
Num Peaks: 164
58.0656	5.9
59.0731	2.3
60.0445	2.6
60.0812	10.5
69.0336	3.0
70.0655	36.7
81.0338	5.6
82.0656	3.0
83.0495	4.6
84.0447	6.3
84.0812	47.0
85.0288	39.3
85.0841	2.5
86.0604	9.2
86.0964	2.4
87.0440	2.6
88.0396	3.2
90.0552	6.5
95.0492	2.2
96.0447	5.2
97.0286	5.3
98.0603	8.4
99.0442	4.6
100.0392	2.0
100.0759	8.3
101.0599	12.2
102.0552	5.0
103.0392	3.8
110.0603	6.5
110.0966	5.5
111.0439	2.6
112.0759	7.2
112.1124	3.7
113.0709	2.2
114.0551	6.7
114.0664	5.7
115.0504	2.7
116.0708	18.0
117.0548	3.7
121.0283	3.6
124.0392	3.1
124.0755	2.3
126.0546	4.4
126.0914	10.6
127.0389	3.5
127.1229	2.3
128.0708	12.1
129.0548	2.0
129.0658	4.9
130.0500	9.8
130.0863	11.9
132.0655	3.4
132.0767	22.7
134.0446	2.4
136.0756	2.6
138.0554	3.4
139.0387	2.8
140.0707	3.4
142.0499	6.8
142.0866	3.5
144.0658	9.2
144.1021	5.8
148.0603	5.7
150.0548	2.5
151.0866	2.7
152.0709	3.5
153.1020	3.2
154.0499	2.0
154.0859	3.7
156.0652	2.5
156.1015	2.8
159.0764	8.7
159.0916	4.3
162.0760	3.8
167.0340	4.5
167.0815	2.6
168.0652	5.4
168.1017	2.1
170.0566	8.5
170.0810	8.2
172.0597	2.1
172.0724	3.2
179.0826	3.2
180.0650	2.3
181.0974	3.2
182.0797	3.0
184.0736	4.4
186.0752	2.5
186.0892	6.1
186.1122	11.7
193.0973	2.6
194.0806	5.6
195.0774	2.4
195.1131	7.3
196.0580	3.2
196.0961	3.6
196.1117	4.0
197.0920	11.6
199.1080	6.5
200.0917	2.2
202.0862	5.4
204.0865	7.6
209.0927	2.1
210.0755	8.4
211.0765	3.8
211.1079	3.7
212.0916	2.4
213.0888	4.1
213.1231	18.5
214.1191	34.0
215.1212	2.5
215.1393	6.7
216.1219	3.7
218.1385	4.4
221.0928	6.8
222.0738	2.8
224.0907	3.4
225.0885	2.5
226.0705	4.1
226.1061	4.4
227.0671	2.7
227.1031	2.4
227.1376	2.9
228.0849	7.1
232.1175	3.4
238.0714	2.4
239.1027	8.1
240.0871	4.6
241.1196	4.7
242.1130	3.4
244.1178	28.4
245.1216	3.3
246.0984	2.5
252.0863	2.7
256.0808	6.0
257.1126	10.3
258.1062	17.2
259.1025	2.2
259.1293	30.7
260.0919	5.3
260.1243	40.0
261.1277	2.5
262.1278	59.5
263.1305	9.1
264.1079	3.5
264.1445	3.0
266.1223	2.1
267.0999	8.8
269.0814	2.3
269.1139	6.5
270.0967	18.1
271.0979	2.4
271.1292	6.7
272.1216	10.7
273.1102	25.0
273.1455	5.5
274.0938	13.6
274.1309	3.4
275.1249	6.8
276.1190	100.0
277.0861	10.7
277.1220	10.4
278.1240	8.9
279.0965	2.3

Name: gamma-Ureidonorvaline
PrecursorMZ: 176.10292
RT: 9.6227
ExactMass: 175.09569129
Spectrum_type: 2
charge: 1
Formula: C6H13N3O3
SMILES: C(C[C@@H](C(=O)[O-])[NH3+])CNC(=O)N
Method: HCD
Collision_energy: [28.333334]
Isolation_window: 4.0
Ion_mode: P
Num Peaks: 13
70.0655	34.7
112.0759	5.4
113.0711	44.4
114.0551	8.7
114.0915	5.7
115.0867	15.8
116.0708	8.9
118.0863	22.6
159.0764	100.0
176.0707	7.2
176.8753	51.8
178.0860	6.8
178.1247	8.3

Name: l-Glutamyl-l-threonine
PrecursorMZ: 249.1078
RT: 8.5048
ExactMass: 247.0930112
Spectrum_type: 2
charge: 1
Formula: C9H15N2O6-
SMILES: C[C@H]([C@@H](C(=O)[O-])NC(=O)[C@H](CCC(=O)[O-])[NH3+])O
Method: HCD
Collision_energy: [28.333334]
Isolation_window: 4.0
Ion_mode: P
Num Peaks: 23
74.0603	100.0
84.0446	62.2
84.0810	32.3
101.0596	33.6
102.0550	51.5
107.0492	26.6
120.0654	87.6
130.0498	26.8
148.0602	92.1
155.0812	51.0
202.1071	40.4
213.0865	30.0
231.0971	71.8
247.1470	24.3
248.1125	76.0
248.1255	46.8
248.1489	40.5
249.1240	25.4
249.1595	43.5
250.1071	30.0
250.1279	52.7
250.1432	38.1
251.1388	40.5

Name: l-Valine, N-(carboxymethyl)-
PrecursorMZ: 176.09162
RT: 7.8257
ExactMass: 175.0844579
Spectrum_type: 2
charge: 1
Formula: C7H13NO4
SMILES: CC(C)[C@@H](C(=O)O)NCC(=O)O
Method: HCD
Collision_energy: [28.333334]
Isolation_window: 4.0
Ion_mode: P
Num Peaks: 40
58.0655	3.3
60.0560	3.4
69.0338	1.3
70.0654	5.2
74.0603	1.3
87.0442	73.0
88.0476	2.7
90.0551	13.8
101.0597	2.4
110.0965	2.1
112.0757	100.0
113.0790	6.1
114.0551	1.7
114.0662	39.9
115.0632	1.3
115.0695	7.3
116.0705	5.3
120.0653	1.6
128.1069	14.1
129.1099	1.6
130.0861	33.4
130.0971	1.6
130.1225	2.3
131.0893	2.3
132.0655	1.7
140.0704	2.7
156.1018	3.4
158.0811	3.2
160.0629	3.4
174.0868	3.7
174.1122	17.4
174.1485	2.6
175.0862	13.7
175.1155	4.9
175.1188	5.0
176.0707	1.7
176.0915	31.4
176.1277	1.4
177.0948	2.2
178.0859	19.3

Name: methyl (2R)-2-(((2R)-2-hydroxypropanoyl)amino)-3-methylbutanoate
PrecursorMZ: 204.12305
RT: 5.5839
ExactMass: 203.11575802
Spectrum_type: 2
charge: 1
Formula: C9H17NO4
SMILES: C[C@H](C(=O)N[C@H](C(C)C)C(=O)OC)O
Method: HCD
Collision_energy: [28.333334]
Isolation_window: 4.0
Ion_mode: P
Num Peaks: 62
55.0547	6.9
59.0496	2.2
62.0605	2.7
81.0339	2.3
83.0495	7.7
86.0968	6.2
97.0287	1.8
98.0967	8.4
100.0219	1.8
101.0600	49.3
102.0633	3.1
104.0708	28.5
107.0731	4.1
112.0508	9.1
114.0664	3.9
122.0602	1.7
124.0760	1.8
126.0550	2.5
126.0915	100.0
127.0948	7.1
132.0445	9.9
132.0810	1.7
132.1020	2.2
144.0656	3.9
144.1020	78.9
145.1053	6.0
146.0272	11.6
154.0864	21.2
155.0894	2.8
158.1177	4.9
158.1541	2.1
160.0759	3.9
160.0870	3.3
164.0820	2.0
166.0866	2.4
178.0862	1.6
185.0924	2.8
186.1125	4.4
188.0707	77.2
202.1074	3.9
202.1804	2.5
202.2166	27.8
203.0815	5.6
203.1183	2.5
203.2201	4.7
204.0660	5.3
204.0767	16.1
204.0877	3.1
204.1028	10.1
204.1152	1.8
204.1231	90.9
205.0497	2.7
205.0610	1.8
205.0803	1.5
205.0972	40.8
205.1065	1.7
205.1261	7.9
206.0671	13.1
206.0813	52.2
206.0921	7.0
206.1019	3.9
206.1176	11.7

Name: methyl (2S)-2-(((2S)-2-(((2S)-2-aminopropanoyl)amino)-4-methylpentanoyl)amino)-3-phenylpropanoate
PrecursorMZ: 364.22289
RT: 1.3645
ExactMass: 363.21580641
Spectrum_type: 2
charge: 1
Formula: C19H29N3O4
SMILES: C[C@@H](C(=O)N[C@@H](CC(C)C)C(=O)N[C@@H](CC1=CC=CC=C1)C(=O)OC)N
Method: HCD
Collision_energy: [28.333334]
Isolation_window: 4.0
Ion_mode: P
Num Peaks: 14
86.0966	52.4
120.0807	100.0
121.0841	8.1
146.1174	89.0
147.1209	6.5
157.1334	6.4
191.1175	28.4
217.1543	17.5
219.1123	34.0
220.1158	3.4
233.1644	9.7
261.1590	9.9
364.2240	9.1
365.1717	3.2

Name: methyl (2S)-2-(2-aminopropanoylamino)propanoate
PrecursorMZ: 175.1078
RT: 3.2346
ExactMass: 174.10044231
Spectrum_type: 2
charge: 1
Formula: C7H14N2O3
SMILES: C[C@@H](C(=O)OC)NC(=O)C(C)N
Method: HCD
Collision_energy: [28.333334]
Isolation_window: 4.0
Ion_mode: P
Num Peaks: 10
104.0708	100.0
105.0742	4.2
115.0868	5.5
143.0816	1.9
146.0601	1.2
174.0774	1.5
174.1127	1.3
175.0867	2.4
175.1077	4.1
176.8753	19.1

Name: methyl (2S)-2-(deuterioamino)-3-(4-hydroxyphenyl)propanoate
PrecursorMZ: 178.08612
RT: 1.6383
ExactMass: 196.09582002
Spectrum_type: 2
charge: 1
Formula: C10H13NO3
SMILES: [2H]N[C@@H](CC1=CC=C(C=C1)O)C(=O)OC
Method: HCD
Collision_energy: [28.333334]
Isolation_window: 4.0
Ion_mode: P
Num Peaks: 6
91.0544	4.1
119.0491	11.4
136.0755	100.0
137.0595	10.6
137.0788	8.7
178.0859	3.3

Name: methyl (3R)-2-amino-3-hydroxybutanoate
PrecursorMZ: 134.08112
RT: 2.2466
ExactMass: 133.07389321
Spectrum_type: 2
charge: 1
Formula: C5H11NO3
SMILES: C[C@H](C(C(=O)OC)N)O
Method: HCD
Collision_energy: [28.333334]
Isolation_window: 4.0
Ion_mode: P
Num Peaks: 7
56.0499	61.9
69.8261	14.7
74.0603	100.0
102.0550	16.5
116.0705	24.7
133.0757	15.9
136.0212	19.2

Name: n-Hexanoyl histidine
PrecursorMZ: 254.14966
RT: 5.0046
ExactMass: 253.14264148
Spectrum_type: 2
charge: 1
Formula: C12H19N3O3
SMILES: CCCCCC(=O)N[C@@H](CC1=CN=CN1)C(=O)O
Method: HCD
Collision_energy: [28.333334]
Isolation_window: 4.0
Ion_mode: P
Num Peaks: 32
70.0655	2.9
95.0605	30.0
96.0682	4.6
109.0761	39.6
110.0794	2.4
112.0870	30.4
120.0808	43.3
121.0841	3.7
124.0868	2.9
126.1025	14.0
142.0473	2.5
153.0657	9.8
170.0922	18.2
176.8751	1.6
208.1439	2.6
210.1598	10.6
218.1648	4.2
236.1388	3.4
236.1753	20.2
237.1786	3.3
253.0975	2.1
253.1178	7.6
253.1541	4.9
254.1014	2.2
254.1132	4.0
254.1495	100.0
254.1858	45.8
255.1122	2.7
255.1330	10.1
255.1526	10.9
255.1694	2.0
255.1893	6.3

Name: o-Cresol, alpha-(hexylamino)-
PrecursorMZ: 208.16953
RT: 0.6542
ExactMass: 207.162314293
Spectrum_type: 2
charge: 1
Formula: C13H21NO
SMILES: CCCCCCNCC1=CC=CC=C1O
Method: HCD
Collision_energy: [28.333334]
Isolation_window: 4.0
Ion_mode: P
Num Peaks: 19
86.0967	6.6
89.0600	8.8
96.0810	6.1
100.1123	32.9
102.1280	10.0
107.0493	72.3
108.0527	6.4
115.0756	6.3
207.1128	8.3
207.1493	5.9
208.0968	11.7
208.1332	28.5
208.1696	100.0
208.1804	8.1
209.1076	15.6
209.1283	14.8
209.1646	6.0
209.1732	9.8
210.1123	14.7

Name: sn-Glycero-3-phosphorylchloin
PrecursorMZ: 296.06562
RT: 4.5099
ExactMass: 258.11064939
Spectrum_type: 2
charge: 1
Formula: C8H21NO6P+
SMILES: C[N+](C)(C)CCOP(=O)(O)OCC(CO)O
Method: HCD
Collision_energy: [28.333334]
Isolation_window: 4.0
Ion_mode: P
Num Peaks: 12
86.0966	19.9
104.1070	100.0
126.0913	9.3
236.9920	30.8
253.0430	10.7
295.1645	21.5
296.0483	9.1
296.0648	49.8
297.1415	8.2
297.1800	8.2
298.1196	20.0
316.1302	18.4

Name: tert-butyl (2S)-2-((cyanomethyl)carbamoyl)pyrrolidine-1-carboxylate
PrecursorMZ: 254.14961
RT: 5.7697
ExactMass: 253.14264148
Spectrum_type: 2
charge: 1
Formula: C12H19N3O3
SMILES: CC(C)(C)OC(=O)N1CCC[C@H]1C(=O)NCC#N
Method: HCD
Collision_energy: [28.333334]
Isolation_window: 4.0
Ion_mode: P
Num Peaks: 27
70.0654	2.3
83.0492	2.1
101.0598	4.3
109.0760	6.0
112.0758	2.9
140.0704	2.1
150.0548	2.1
154.0973	16.9
209.1281	15.6
210.1316	2.4
227.1750	3.8
235.1064	1.6
237.1229	8.7
253.0982	2.4
253.1177	5.0
253.1541	14.0
253.1907	4.6
254.1013	2.5
254.1125	5.0
254.1389	4.4
254.1493	100.0
255.0763	2.0
255.1126	2.3
255.1333	12.1
255.1526	10.6
255.1697	8.8
256.0963	1.7

Name: tert-butyl (2S)-2-cyano-6-azaspiro(2.5)octane-6-carboxylate
PrecursorMZ: 237.15947
RT: 8.0378
ExactMass: 236.152477885
Spectrum_type: 2
charge: 1
Formula: C13H20N2O2
SMILES: CC(C)(C)OC(=O)N1CCC2(CC1)C[C@@H]2C#N
Method: HCD
Collision_energy: [28.333334]
Isolation_window: 4.0
Ion_mode: P
Num Peaks: 27
55.0547	12.9
83.0494	7.8
101.0598	39.3
102.0632	2.1
120.0807	4.5
136.1120	4.8
137.1072	45.7
138.1104	3.7
142.0862	2.8
144.1016	3.2
189.8808	6.4
212.8968	18.5
214.8947	4.5
220.1442	10.1
236.0734	5.0
236.1025	6.4
236.1279	29.9
236.1468	2.9
236.1641	10.7
237.1219	6.6
237.1338	3.5
237.1593	100.0
238.1073	10.0
238.1444	5.5
238.1542	2.6
238.1635	11.6
239.1382	5.0

Name: tert-butyl (2S,4R)-2-((2S)-2-methoxycarbonylpyrrolidine-1-carbonyl)-4-(methylideneamino)pyrrolidine-1-carboxylate
PrecursorMZ: 354.20217
RT: 3.0605
ExactMass: 353.19507097
Spectrum_type: 2
charge: 1
Formula: C17H27N3O5
SMILES: CC(C)(C)OC(=O)N1C[C@@H](C[C@H]1C(=O)N2CCC[C@H]2C(=O)OC)N=C
Method: HCD
Collision_energy: [28.333334]
Isolation_window: 4.0
Ion_mode: P
Num Peaks: 17
70.0656	16.8
97.3980	6.2
116.0708	100.0
117.0741	5.7
143.0816	66.7
208.0969	8.8
209.1001	5.9
210.1125	5.0
211.1441	96.5
212.1475	13.4
239.1394	5.0
335.1321	8.0
353.1703	4.5
354.1339	6.5
354.2024	68.0
355.2059	13.8
355.2631	7.5

Name: trans-(7S,14S)-1,8-dimethyl-4,7,11,14-tetrakis(2-methylpropyl)-1,3,5,8,10,12-hexazacyclotetradecane-2,6,9,13-tetrone
PrecursorMZ: 511.39644
RT: 7.9795
ExactMass: 510.3893541
Spectrum_type: 2
charge: 1
Formula: C26H50N6O4
SMILES: CC(C)C[C@H]1C(=O)NC(NC(=O)N([C@H](C(=O)NC(NC(=O)N1C)CC(C)C)CC(C)C)C)CC(C)C
Method: HCD
Collision_energy: [28.333334]
Isolation_window: 4.0
Ion_mode: P
Num Peaks: 12
50.3718	4.5
59.0608	86.0
114.0915	10.9
209.1647	10.9
226.1914	5.1
228.1590	6.3
322.2490	16.1
435.3329	33.8
436.3357	9.0
453.3433	100.0
454.3473	21.1
511.3959	7.6

Name: 1,3-Dimethyluracil
PrecursorMZ: 141.06589
RT: 1.5775
ExactMass: 140.058577502
Spectrum_type: 2
charge: 1
Formula: C6H8N2O2
SMILES: CN1C=CC(=O)N(C1=O)C
Method: HCD
Collision_energy: [28.333334]
Isolation_window: 4.0
Ion_mode: P
Num Peaks: 12
83.0859	1.4
96.0810	1.6
109.0398	3.9
124.0758	9.4
127.0502	100.0
128.0535	5.9
139.0866	8.1
140.0708	2.1
140.0900	1.3
140.1070	2.2
141.0658	4.8
142.0863	4.6

Name: 1,5-Isoquinolinediol
PrecursorMZ: 162.05487
RT: 2.6197333333333335
ExactMass: 161.047678466
Spectrum_type: 2
charge: 1
Formula: C9H7NO2
SMILES: C1=CC2=C(C=CNC2=O)C(=C1)O
Method: HCD
Collision_energy: [28.333334]
Isolation_window: 4.0
Ion_mode: P
Num Peaks: 15
59.0495	2.4
72.0447	100.0
73.0480	3.3
86.0602	14.8
87.0635	1.4
129.0656	9.6
133.0520	5.7
134.0599	2.2
136.0756	2.3
144.0440	2.8
161.0469	6.2
161.0707	2.8
161.0918	23.0
162.0548	34.3
163.0579	3.7

Name: 1-Methylxanthine
PrecursorMZ: 167.05608
RT: 4.6533
ExactMass: 166.04907545
Spectrum_type: 2
charge: 1
Formula: C6H6N4O2
SMILES: CN1C(=O)C2=C(NC1=O)N=CN2
Method: HCD
Collision_energy: [28.333334]
Isolation_window: 4.0
Ion_mode: P
Num Peaks: 68
56.0498	0.8
59.0607	0.7
67.0292	0.7
68.0497	0.8
69.0087	1.0
69.5080	0.6
70.0653	0.6
83.0241	1.4
83.0605	1.5
84.0557	0.8
85.0761	0.6
97.0759	0.8
97.4562	0.7
98.0600	0.7
106.0649	6.0
107.0603	0.9
108.0807	0.7
109.0758	1.1
110.0347	17.1
111.0380	0.7
111.0913	0.7
112.0867	0.6
120.0805	3.5
122.0597	1.0
122.0712	0.7
123.0107	1.8
123.0791	0.6
124.0740	0.8
124.0866	4.5
125.0229	0.7
125.0717	0.9
125.0818	81.8
125.0943	0.8
126.0789	1.0
126.0851	4.5
126.1020	1.0
128.0451	3.3
136.0137	1.2
138.0909	2.1
140.0334	0.7
148.0749	1.0
148.0864	0.8
149.0453	1.7
149.0817	2.7
150.0544	1.6
150.1021	1.0
154.0242	1.1
165.1131	2.1
166.0487	0.7
166.0857	25.1
166.0974	1.3
166.1082	5.1
166.1335	0.6
167.0442	0.8
167.0558	100.0
167.0702	1.2
167.0810	1.1
167.0888	2.2
167.0922	9.6
167.1285	2.5
167.1538	1.1
168.0528	1.1
168.0591	5.2
168.0683	11.4
168.0953	0.9
168.1012	1.4
168.1128	0.6
169.0758	2.1

Name: 2'-Aminoacetophenone
PrecursorMZ: 136.07565
RT: 1.173
ExactMass: 135.068413911
Spectrum_type: 2
charge: 1
Formula: C8H9NO
SMILES: CC(=O)C1=CC=CC=C1N
Method: HCD
Collision_energy: [28.333334]
Isolation_window: 4.0
Ion_mode: P
Num Peaks: 10
94.0652	8.4
108.0808	7.1
134.0963	6.4
136.0214	17.1
136.0616	5.3
136.0755	100.0
136.1119	16.9
137.0788	9.6
137.1071	16.8
138.0911	9.8

Name: 2-Acetamidophenol
PrecursorMZ: 152.0706
RT: 1.4947
ExactMass: 151.06332853
Spectrum_type: 2
charge: 1
Formula: C8H9NO2
SMILES: CC(=O)NC1=CC=CC=C1O
Method: HCD
Collision_energy: [28.333334]
Isolation_window: 4.0
Ion_mode: P
Num Peaks: 10
79.0545	5.3
81.0701	5.2
96.0809	17.2
109.0523	5.4
109.0650	4.9
124.0755	12.4
137.0469	43.7
152.0704	100.0
152.1066	8.0
153.0736	7.2

Name: 2-Methylhippuric Acid
PrecursorMZ: 194.08109
RT: 3.1443
ExactMass: 193.07389321
Spectrum_type: 2
charge: 1
Formula: C10H11NO3
SMILES: CC1=CC=CC=C1C(=O)NCC(=O)O
Method: HCD
Collision_energy: [28.333334]
Isolation_window: 4.0
Ion_mode: P
Num Peaks: 10
94.9297	2.6
109.0761	2.5
175.1232	2.8
176.0703	3.4
194.0810	100.0
194.1033	13.9
194.1175	2.4
195.0843	11.7
196.0965	5.4
196.1441	6.2

Name: 2-Piperidone
PrecursorMZ: 100.07587
RT: 1.7064
ExactMass: 99.068413911
Spectrum_type: 2
charge: 1
Formula: C5H9NO
SMILES: C1CCNC(=O)C1
Method: HCD
Collision_energy: [28.333334]
Isolation_window: 4.0
Ion_mode: P
Num Peaks: 7
58.0291	3.9
69.0338	3.9
69.6799	2.4
71.0494	2.2
99.0440	2.5
100.0757	100.0
101.0791	5.1

Name: 3-Amino-4-hydroxybenzoic acid
PrecursorMZ: 154.04986
RT: 6.685109090909091
Spectrum_type: 2
charge: 1
Method: HCD
Collision_energy: [28.333334]
Isolation_window: 4.0
Ion_mode: P
Num Peaks: 21
67.0545	0.9
95.0492	2.5
95.0605	1.6
110.0601	2.4
112.0393	5.1
126.0547	1.3
136.0391	1.1
137.0708	5.6
140.0340	4.9
152.0563	0.9
152.0703	1.4
153.0657	1.0
154.0366	0.8
154.0496	100.0
154.0628	0.8
154.0858	1.2
154.0972	0.7
155.0530	7.1
155.0701	0.9
155.0812	2.9
156.1016	0.8

Name: 3-Penten-2-one
PrecursorMZ: 102.09148
RT: 1.2428
ExactMass: 84.057514874
Spectrum_type: 2
charge: 1
Formula: C5H8O
SMILES: C/C=C/C(=O)C
Method: HCD
Collision_energy: [28.333334]
Isolation_window: 4.0
Ion_mode: P
Num Peaks: 9
60.0448	52.9
69.0702	8.9
69.2737	7.9
69.3352	8.4
83.0732	10.0
97.4561	6.5
100.0757	7.3
102.0914	100.0
102.1278	15.5

Name: 4-Aminobenzoic Acid
PrecursorMZ: 138.05499
RT: 5.3024
ExactMass: 137.047678466
Spectrum_type: 2
charge: 1
Formula: C7H7NO2
SMILES: C1=CC(=CC=C1C(=O)O)N
Method: HCD
Collision_energy: [28.333334]
Isolation_window: 4.0
Ion_mode: P
Num Peaks: 18
93.0575	5.4
110.0603	4.1
120.0444	4.8
121.0397	4.1
136.0216	2.4
136.0617	2.3
136.0756	4.7
137.0459	4.5
137.0710	2.7
137.1074	5.4
138.0549	100.0
138.0913	5.8
139.0501	2.8
139.0582	8.0
139.0865	3.6
139.1230	13.3
140.0707	4.7
140.0817	2.6

Name: 5-Aminolevulinic Acid
PrecursorMZ: 132.06537
RT: 8.6573
ExactMass: 131.058243149
Spectrum_type: 2
charge: 1
Formula: C5H9NO3
SMILES: C(CC(=O)O)C(=O)CN
Method: HCD
Collision_energy: [28.333334]
Isolation_window: 4.0
Ion_mode: P
Num Peaks: 6
84.0445	21.3
86.0601	100.0
114.0548	70.9
130.1587	47.5
132.1016	19.1
134.0630	37.7

Name: 5-Methoxyindoleacetic acid
PrecursorMZ: 206.08057
RT: 4.9709
ExactMass: 205.07389321
Spectrum_type: 2
charge: 1
Formula: C11H11NO3
SMILES: COC1=CC2=C(C=C1)NC=C2CC(=O)O
Method: HCD
Collision_energy: [28.333334]
Isolation_window: 4.0
Ion_mode: P
Num Peaks: 17
69.6829	2.6
81.0335	2.5
89.0596	2.5
99.0439	4.5
136.0750	4.7
162.0907	2.8
164.0700	14.1
190.0854	5.9
205.0959	2.6
206.0439	3.1
206.0803	100.0
207.0387	2.7
207.0752	2.3
207.0837	10.9
207.1117	3.4
208.0596	3.6
208.0958	22.1

Name: 7-Methylxanthine
PrecursorMZ: 167.05641
RT: 4.8122
ExactMass: 166.04907545
Spectrum_type: 2
charge: 1
Formula: C6H6N4O2
SMILES: CN1C=NC2=C1C(=O)NC(=O)N2
Method: HCD
Collision_energy: [28.333334]
Isolation_window: 4.0
Ion_mode: P
Num Peaks: 92
67.0547	0.5
70.0655	0.3
74.0240	0.7
79.0545	0.3
81.0703	0.4
84.0811	0.2
91.0545	0.3
93.0702	0.5
94.0653	0.2
95.0130	0.2
95.0606	4.0
95.0857	0.3
96.0446	0.2
103.0545	0.4
105.0701	0.4
106.0654	0.4
107.0493	0.5
107.0858	1.0
108.0447	0.2
109.0650	0.3
109.0762	1.5
110.0351	18.4
110.0603	0.3
111.0384	0.8
112.0871	1.8
119.0858	0.4
120.0809	22.5
121.0649	0.3
121.0761	0.5
121.0842	1.9
121.1012	0.4
122.0601	0.4
123.0805	0.3
123.0918	0.2
124.0394	1.3
124.0509	0.3
124.0760	0.3
125.0233	0.2
125.0709	0.3
126.1026	0.4
128.0455	4.0
131.0492	0.8
136.0757	0.5
137.0790	2.6
138.0548	0.4
138.0914	0.4
139.0754	0.6
139.0865	0.3
140.0706	0.5
140.0819	0.6
140.0930	0.3
140.1070	0.3
148.0756	0.4
149.0598	0.4
149.0711	0.5
149.0961	0.4
150.0550	3.9
150.1026	1.6
151.0579	0.3
154.0247	0.3
165.0742	0.9
165.1025	0.5
165.1389	0.2
166.0499	1.5
166.0725	9.5
166.0863	5.2
166.0969	0.9
166.1227	1.1
167.0373	0.3
167.0417	0.8
167.0447	0.8
167.0480	0.2
167.0564	100.0
167.0682	0.5
167.0708	1.0
167.0755	0.6
167.0814	1.6
167.0894	0.5
167.1066	0.2
167.1180	0.5
167.1258	0.4
167.1542	2.1
168.0532	1.2
168.0597	6.3
168.0657	1.7
168.0763	0.6
168.0877	0.2
168.1020	1.3
168.1130	4.2
169.0612	0.4
169.0758	0.9
169.0972	0.9

Name: Adenine
PrecursorMZ: 136.06173
RT: 5.686452173913043
ExactMass: 135.05449518
Spectrum_type: 2
charge: 1
Formula: C5H5N5
SMILES: C1=NC2=NC=NC(=C2N1)N
Method: HCD
Collision_energy: [28.333334]
Isolation_window: 4.0
Ion_mode: P
Num Peaks: 24
74.0603	0.4
91.0544	0.4
94.0400	0.6
95.0605	0.3
119.0351	1.3
135.0553	0.4
135.0744	0.5
135.0803	0.7
136.0104	0.3
136.0214	0.8
136.0506	1.1
136.0532	0.4
136.0616	100.0
136.0702	0.6
136.0726	0.6
136.0755	2.4
136.0966	0.7
137.0456	3.2
137.0588	1.7
137.0649	5.3
137.0707	0.5
137.1070	0.4
138.0548	0.4
138.0911	0.5

Name: Afalanine
PrecursorMZ: 208.09631
RT: 2.4832
ExactMass: 207.08954328
Spectrum_type: 2
charge: 1
Formula: C11H13NO3
SMILES: CC(=O)NC(CC1=CC=CC=C1)C(=O)O
Method: HCD
Collision_energy: [28.333334]
Isolation_window: 4.0
Ion_mode: P
Num Peaks: 17
55.0545	28.3
80.0496	18.6
83.0492	13.0
101.0596	69.9
108.0442	100.0
120.0805	35.2
122.0598	44.4
148.0751	21.0
150.0910	19.8
162.0910	21.2
164.0928	13.4
180.1013	49.1
206.1395	12.2
207.1130	14.9
208.0961	43.8
208.1183	12.0
210.0785	19.6

Name: Aspartame
PrecursorMZ: 295.12859
RT: 4.7146
ExactMass: 294.12157168
Spectrum_type: 2
charge: 1
Formula: C14H18N2O5
SMILES: COC(=O)[C@H](CC1=CC=CC=C1)NC(=O)[C@H](CC(=O)O)N
Method: HCD
Collision_energy: [28.333334]
Isolation_window: 4.0
Ion_mode: P
Num Peaks: 112
69.0702	2.0
70.0654	5.5
72.0811	2.0
81.0338	2.7
81.0701	2.3
84.0446	4.4
84.0810	2.2
85.0650	1.7
86.0603	3.4
86.0966	16.1
88.0396	1.9
91.0543	2.9
102.0550	7.1
107.0492	1.9
110.0601	2.0
114.0550	3.1
116.0707	3.7
119.0491	4.4
120.0807	71.1
121.0647	3.9
121.0841	7.1
123.0439	3.2
129.0657	3.7
130.0497	9.2
130.0861	5.7
132.1018	3.2
134.0602	1.9
136.0755	100.0
137.0709	1.5
137.0788	9.4
138.0548	2.4
142.0498	2.8
144.1017	2.1
146.0962	2.5
147.0439	11.4
147.0759	3.4
149.0596	12.0
150.0548	2.4
150.0912	2.1
151.0864	2.0
152.0706	2.2
164.0704	3.0
165.0545	7.8
165.0656	2.6
166.0497	2.8
166.0861	46.6
167.0894	5.0
168.1018	2.1
177.1018	2.5
178.0860	5.3
179.0812	3.2
180.0652	2.9
182.0810	11.5
183.0844	1.7
192.0652	1.9
192.1016	7.6
193.0966	2.5
194.0811	2.2
202.0860	1.7
206.0808	2.5
220.0965	1.8
222.0783	3.4
223.1072	2.2
231.1123	3.2
232.0968	2.3
236.0912	2.5
247.1072	2.2
248.0915	2.4
248.1127	3.3
248.1276	4.5
248.1391	2.8
249.0861	2.0
249.1230	5.6
249.1596	4.6
250.1069	3.9
250.1436	2.5
251.1383	2.4
255.1122	3.7
260.0909	2.1
276.0858	2.9
276.1215	2.8
277.0812	2.0
277.1177	4.3
277.2160	1.8
278.1011	7.4
278.1372	3.0
279.0960	2.5
293.1491	4.1
294.0781	1.9
294.0964	10.3
294.1117	1.8
294.1149	2.7
294.1308	8.2
294.1460	2.4
294.1509	2.4
295.0709	76.5
295.0935	2.3
295.1065	1.8
295.1280	17.7
295.1646	19.6
296.0586	3.1
296.0746	12.9
296.0920	3.8
296.1116	8.7
296.1263	3.6
296.1475	4.3
296.1674	2.9
297.0889	2.2
297.1078	2.0
297.1229	5.2
297.1442	5.4
297.1822	2.6

Name: Avobenzone
PrecursorMZ: 311.16377
RT: 1.02884
ExactMass: 310.15689456
Spectrum_type: 2
charge: 1
Formula: C20H22O3
SMILES: CC(C)(C)C1=CC=C(C=C1)C(=O)CC(=O)C2=CC=C(C=C2)OC
Method: HCD
Collision_energy: [28.333334]
Isolation_window: 4.0
Ion_mode: P
Num Peaks: 18
81.0701	11.2
83.0857	11.0
87.0442	25.8
95.0857	14.2
109.1011	14.2
123.1168	11.0
222.1040	14.0
223.1114	42.0
225.1272	11.1
265.1581	91.6
266.1620	17.7
267.1739	26.9
283.1686	100.0
284.1720	20.5
311.1633	77.1
311.2576	12.1
312.1664	14.9
312.3246	13.0

Name: Beta-Aminoisobutyric Acid
PrecursorMZ: 104.07074
RT: 8.654483333333333
Spectrum_type: 2
charge: 1
Method: HCD
Collision_energy: [28.333334]
Isolation_window: 4.0
Ion_mode: P
Num Peaks: 15
56.0499	4.6
58.0625	0.8
58.0655	100.0
59.0689	3.5
74.0240	0.8
79.0545	3.4
84.0446	6.5
85.0479	0.9
95.0492	1.1
102.0551	1.1
102.1278	1.2
103.0542	4.7
104.0707	1.7
104.1070	1.0
105.0699	14.9

Name: Caffeine
PrecursorMZ: 195.08755
RT: 1.4568
ExactMass: 194.08037557
Spectrum_type: 2
charge: 1
Formula: C8H10N4O2
SMILES: CN1C=NC2=C1C(=O)N(C(=O)N2C)C
Method: HCD
Collision_energy: [28.333334]
Isolation_window: 4.0
Ion_mode: P
Num Peaks: 15
55.0546	5.1
97.1013	7.9
98.0601	4.9
124.1120	9.1
136.0755	12.8
138.0660	25.1
138.1276	16.1
152.1068	5.5
162.0543	3.8
164.0704	27.0
166.1223	11.4
194.1173	25.1
195.0873	100.0
195.1206	2.9
196.0902	7.4

Name: Choline
PrecursorMZ: 104.10715
RT: 13.8905
ExactMass: 104.10753907
Spectrum_type: 2
charge: 1
Formula: C5H14NO+
SMILES: C[N+](C)(C)CCO
Method: HCD
Collision_energy: [28.333334]
Isolation_window: 4.0
Ion_mode: P
Num Peaks: 13
58.0656	1.8
59.0734	0.5
60.0812	17.5
61.0846	0.5
84.0811	1.8
102.0916	1.3
102.1280	1.0
104.0721	0.3
104.0999	0.7
104.1072	100.0
104.1142	0.8
105.1042	0.4
105.1105	5.3

Name: Cinnamic Acid
PrecursorMZ: 149.05984
RT: 0.5745
ExactMass: 148.052429494
Spectrum_type: 2
charge: 1
Formula: C9H8O2
SMILES: C1=CC=C(C=C1)/C=C/C(=O)O
Method: HCD
Collision_energy: [28.333334]
Isolation_window: 4.0
Ion_mode: P
Num Peaks: 44
58.0657	1.1
59.0496	0.5
67.0547	1.1
77.0390	0.5
79.0547	0.5
91.0545	0.7
93.0703	1.2
95.0495	0.8
95.0859	2.2
97.0652	0.9
97.1017	0.4
105.0193	0.6
105.0338	100.0
105.0448	0.5
105.0489	0.6
106.0371	8.3
107.0858	1.8
109.0651	0.6
109.1015	1.6
111.0806	0.7
113.0600	0.7
121.0285	0.8
121.1014	0.7
123.0112	0.4
125.0963	0.8
135.0805	0.9
148.0791	0.7
149.0239	3.3
149.0599	40.2
149.1326	1.1
150.0632	4.7
151.0241	0.6
151.0650	0.6
153.0913	0.6
153.1276	1.2
156.1386	0.4
157.1702	0.6
158.1542	1.8
163.0756	22.0
164.0791	2.1
166.0893	1.4
167.0555	1.7
168.0691	5.5
169.0351	2.5

Name: D-Glutamine
PrecursorMZ: 147.07622
RT: 9.5310625
ExactMass: 146.06914219
Spectrum_type: 2
charge: 1
Formula: C5H10N2O3
SMILES: C(CC(=O)N)[C@H](C(=O)O)N
Method: HCD
Collision_energy: [28.333334]
Isolation_window: 4.0
Ion_mode: P
Num Peaks: 40
55.0547	7.4
59.0496	2.3
60.0812	49.6
61.0846	1.7
70.0655	1.7
74.0062	30.2
81.0337	1.4
82.0653	1.4
83.0494	5.6
84.0446	17.4
84.0810	10.4
86.0603	2.3
86.0966	7.1
87.0443	100.0
88.0217	1.1
88.0476	5.7
100.0758	2.3
101.0598	31.1
102.0009	9.2
102.0550	5.1
102.0632	2.4
102.0914	1.8
110.0602	1.3
112.0757	1.4
120.0114	28.5
123.9643	5.5
128.0706	1.2
128.1069	9.3
130.0498	8.1
130.0862	1.9
146.0602	1.1
146.0811	1.3
146.0922	4.0
146.1174	68.8
147.1207	6.5
148.0426	26.1
148.0710	1.2
148.0967	4.6
148.1119	1.5
149.0271	3.1

Name: Deoxycytidine
PrecursorMZ: 228.09767
RT: 6.631118181818182
ExactMass: 227.0906059
Spectrum_type: 2
charge: 1
Formula: C9H13N3O4
SMILES: C1[C@@H]([C@H](O[C@H]1N2C=CC(=NC2=O)N)CO)O
Method: HCD
Collision_energy: [28.333334]
Isolation_window: 4.0
Ion_mode: P
Num Peaks: 18
112.0506	100.0
113.0539	4.1
116.0708	2.0
117.0545	1.8
126.0549	1.6
138.0661	4.7
156.0654	2.4
183.0915	15.7
199.0863	7.1
226.1069	3.2
227.0812	10.1
227.1012	2.5
228.0861	4.3
228.1227	1.9
229.0969	26.4
229.1180	3.6
230.1017	4.1
230.1495	11.6

Name: Dodecanedioic Acid
PrecursorMZ: 231.15887
RT: 5.49
ExactMass: 230.15180918
Spectrum_type: 2
charge: 1
Formula: C12H22O4
SMILES: C(CCCCCC(=O)O)CCCCC(=O)O
Method: HCD
Collision_energy: [28.333334]
Isolation_window: 4.0
Ion_mode: P
Num Peaks: 10
81.0700	37.2
135.1166	25.8
149.1324	100.0
167.1429	97.7
185.1532	31.6
212.0917	29.1
214.1433	31.9
230.0787	27.3
230.1021	54.7
232.0962	31.1

Name: Glycyl-L-tyrosine
PrecursorMZ: 239.10229
RT: 6.8439
ExactMass: 238.09535693
Spectrum_type: 2
charge: 1
Formula: C11H14N2O4
SMILES: C1=CC(=CC=C1C[C@@H](C(=O)O)NC(=O)CN)O
Method: HCD
Collision_energy: [28.333334]
Isolation_window: 4.0
Ion_mode: P
Num Peaks: 55
101.0597	1.4
111.0440	0.6
124.0756	0.7
128.0706	0.7
130.0498	0.6
136.0618	0.6
136.0754	1.5
141.0656	2.0
148.0754	0.6
149.0709	0.6
150.0547	1.0
160.0868	0.7
161.0706	0.8
165.0545	0.6
166.0861	1.2
168.0652	0.6
173.0917	1.0
175.0751	0.6
175.0864	1.0
176.0702	0.8
179.0813	1.0
182.0810	1.0
184.0864	0.7
191.0813	1.4
192.0655	0.6
192.0763	0.8
192.1017	2.2
193.0967	0.9
194.0808	3.7
194.0920	1.0
194.1172	1.7
202.0971	2.0
203.0810	0.9
204.0654	0.8
212.0914	0.7
220.0713	0.9
220.0966	1.1
220.1074	6.7
221.0912	1.0
221.1108	0.7
222.0759	2.0
238.0710	1.7
238.0817	3.7
238.1070	5.4
238.1181	2.8
238.1431	1.1
239.0773	0.7
239.0825	0.6
239.1021	100.0
239.1379	1.6
240.0866	5.9
240.0958	0.6
240.1055	10.1
240.1225	2.9
241.1176	7.2

Name: Indole-3-Acetic Acid
PrecursorMZ: 176.07051
RT: 5.2798
ExactMass: 175.06332853
Spectrum_type: 2
charge: 1
Formula: C10H9NO2
SMILES: C1=CC=C2C(=C1)C(=CN2)CC(=O)O
Method: HCD
Collision_energy: [28.333334]
Isolation_window: 4.0
Ion_mode: P
Num Peaks: 6
130.0650	75.1
131.0683	6.8
176.0704	10.8
176.8751	100.0
177.0738	0.8
177.8786	0.8

Name: Indole-3-Carboxaldehyde
PrecursorMZ: 146.06001
RT: 1.4618538461538462
ExactMass: 145.052763847
Spectrum_type: 2
charge: 1
Formula: C9H7NO
SMILES: C1=CC=C2C(=C1)C(=CN2)C=O
Method: HCD
Collision_energy: [28.333334]
Isolation_window: 4.0
Ion_mode: P
Num Peaks: 31
70.0654	1.1
84.0446	0.7
90.0340	1.3
91.0543	1.1
98.0601	6.3
99.0635	1.2
105.0698	0.7
117.0573	0.5
117.0698	1.0
118.0651	7.8
119.0685	0.6
119.0854	0.5
121.9660	0.9
123.9643	0.7
128.0493	11.2
129.0528	0.8
144.0653	1.9
144.0806	1.1
145.0758	6.8
145.1009	1.7
146.0235	2.9
146.0478	0.6
146.0598	100.0
146.0720	0.7
146.0789	0.8
147.0553	1.2
147.0631	10.5
147.0796	0.6
147.0917	0.6
147.1166	0.5
148.0754	1.0

Name: L-Leucine
PrecursorMZ: 132.1019
RT: 7.1508
ExactMass: 131.094628657
Spectrum_type: 2
charge: 1
Formula: C6H13NO2
SMILES: CC(C)C[C@@H](C(=O)O)N
Method: HCD
Collision_energy: [28.333334]
Isolation_window: 4.0
Ion_mode: P
Num Peaks: 42
57.0703	1.5
60.0448	4.6
61.0526	3.6
67.0546	1.1
69.0117	1.4
69.0339	1.2
69.0702	1.4
69.1774	1.4
69.6084	1.0
69.8696	0.8
69.9760	0.7
72.0811	49.2
74.0967	1.7
84.0446	1.5
84.0810	0.8
86.0603	1.7
86.0966	100.0
87.1000	6.3
88.0759	1.2
88.1123	0.8
91.0544	3.4
95.0493	0.8
97.4567	1.3
103.0543	4.2
105.0699	5.7
106.0653	0.9
116.0706	2.5
130.0650	4.9
130.1589	5.6
131.0491	1.3
131.0680	1.3
131.0854	4.5
131.1622	1.3
132.0650	0.9
132.0806	3.0
132.1018	3.3
133.0646	2.7
133.0758	1.6
133.1010	3.1
134.0599	1.6
134.0810	42.2
134.0962	1.8

Name: L-Lysine
PrecursorMZ: 147.11273
RT: 16.0102
ExactMass: 146.105527694
Spectrum_type: 2
charge: 1
Formula: C6H14N2O2
SMILES: C(CCN)C[C@@H](C(=O)O)N
Method: HCD
Collision_energy: [28.333334]
Isolation_window: 4.0
Ion_mode: P
Num Peaks: 9
70.0654	5.9
84.0810	100.0
85.0843	8.0
130.0861	39.8
131.0894	3.6
146.1538	2.8
147.1125	4.3
148.0966	5.1
149.0232	8.2

Name: L-Phenylalanine
PrecursorMZ: 166.08625
RT: 6.3767
ExactMass: 165.078978594
Spectrum_type: 2
charge: 1
Formula: C9H11NO2
SMILES: C1=CC=C(C=C1)C[C@@H](C(=O)O)N
Method: HCD
Collision_energy: [28.333334]
Isolation_window: 4.0
Ion_mode: P
Num Peaks: 11
69.9912	2.8
96.0445	14.0
120.0808	3.0
123.0109	4.7
123.0678	4.0
165.0213	3.7
166.0861	100.0
166.1224	2.8
167.0813	9.5
167.0895	9.5
168.0689	38.2

Name: L-Valine
PrecursorMZ: 118.08635
RT: 7.79
ExactMass: 117.078978594
Spectrum_type: 2
charge: 1
Formula: C5H11NO2
SMILES: CC(C)[C@@H](C(=O)O)N
Method: HCD
Collision_energy: [28.333334]
Isolation_window: 4.0
Ion_mode: P
Num Peaks: 8
58.0656	10.8
59.0734	11.1
97.3993	0.4
118.0776	0.6
118.0796	0.5
118.0864	100.0
118.0952	0.7
119.0897	5.0

Name: Lycorine
PrecursorMZ: 288.12277
RT: 2.9941
ExactMass: 287.11575802
Spectrum_type: 2
charge: 1
Formula: C16H17NO4
SMILES: C1CN2CC3=CC4=C(C=C3[C@H]5[C@H]2C1=C[C@@H]([C@H]5O)O)OCO4
Method: HCD
Collision_energy: [28.333334]
Isolation_window: 4.0
Ion_mode: P
Num Peaks: 17
112.0395	9.3
112.8958	5.7
140.0342	49.1
141.0376	2.8
184.1695	48.4
185.1729	5.4
270.1119	4.1
271.1078	2.8
286.1069	4.9
287.1372	7.6
288.0886	7.6
288.1228	100.0
289.1275	16.0
289.1409	4.7
289.1519	5.3
290.1021	3.0
290.1378	7.4

Name: Methionine Sulfoxide
PrecursorMZ: 166.05319
RT: 9.1035
ExactMass: 165.04596439
Spectrum_type: 2
charge: 1
Formula: C5H11NO3S
SMILES: CS(=O)CC[C@@H](C(=O)O)N
Method: HCD
Collision_energy: [28.333334]
Isolation_window: 4.0
Ion_mode: P
Num Peaks: 26
56.0499	19.6
74.0239	100.0
74.0603	2.5
75.0266	21.0
95.0493	2.1
95.0604	3.5
96.9953	2.5
102.0550	19.2
118.0862	2.9
119.0491	2.3
120.0807	13.3
123.0110	9.2
123.0439	6.9
148.0788	5.1
149.0266	13.2
164.0917	2.5
164.1066	2.7
165.0212	4.4
166.0533	10.1
166.0864	5.7
166.0893	8.9
166.1224	2.2
167.0338	2.2
167.0814	3.3
168.0688	71.8
168.0762	3.3

Name: N-Acetyl-Neuraminic Acid
PrecursorMZ: 310.1128
RT: 7.7278
ExactMass: 309.10598118
Spectrum_type: 2
charge: 1
Formula: C11H19NO9
SMILES: CC(=O)N[C@@H]1[C@H](CC(O[C@H]1[C@@H]([C@@H](CO)O)O)(C(=O)O)O)O
Method: HCD
Collision_energy: [28.333334]
Isolation_window: 4.0
Ion_mode: P
Num Peaks: 25
60.0447	8.1
70.0654	11.8
84.0447	9.3
103.0390	6.6
112.0393	11.8
121.0283	22.2
126.0912	11.4
130.0497	17.2
136.0755	100.0
148.0602	9.7
150.0551	7.5
167.0337	18.4
196.0599	9.5
197.0442	10.1
232.0808	9.4
274.0917	40.3
292.1020	12.1
309.1078	16.0
309.1798	6.9
310.1260	6.8
310.1396	20.6
311.1222	33.3
311.1591	7.6
312.1073	10.1
312.1659	9.4

Name: N-Acetylserotonin
PrecursorMZ: 219.1126
RT: 3.2944
ExactMass: 218.105527694
Spectrum_type: 2
charge: 1
Formula: C12H14N2O2
SMILES: CC(=O)NCCC1=CNC2=C1C=C(C=C2)O
Method: HCD
Collision_energy: [28.333334]
Isolation_window: 4.0
Ion_mode: P
Num Peaks: 111
59.0495	0.7
60.0448	0.8
69.0338	1.0
69.0702	0.8
70.0655	0.6
71.0494	1.0
72.0447	3.1
74.0604	1.0
79.0545	0.7
81.0337	3.5
81.0701	1.0
83.0494	0.9
84.0446	0.9
85.0286	0.7
85.0650	0.7
86.0603	1.5
87.0442	0.9
91.0543	0.9
93.0700	1.2
95.0492	0.8
95.0856	1.1
96.0809	1.1
97.0285	2.0
97.0649	0.7
97.4570	1.2
98.0601	0.8
99.0442	0.9
100.0758	1.0
102.0550	3.0
105.0699	1.4
107.0856	1.0
109.0284	0.8
109.1012	0.7
111.0441	0.8
112.0757	0.8
112.1121	1.8
113.0597	1.2
116.0705	0.8
119.0855	1.5
121.1011	1.0
122.0599	0.9
123.0804	0.6
124.0756	2.3
128.0704	0.7
130.0862	1.2
130.1225	1.2
131.0853	0.8
132.0807	1.4
133.0647	0.7
133.1010	1.3
135.0802	0.8
137.0959	0.6
140.0704	7.6
141.0544	1.6
142.0861	1.6
145.1010	1.2
147.1165	0.8
148.1119	2.4
150.0547	0.7
152.0704	1.3
158.0810	7.8
158.1174	1.7
159.0853	0.7
159.1166	1.8
160.0617	0.8
160.0755	100.0
160.0966	2.5
161.0788	11.1
161.0956	0.8
161.1323	1.4
168.0654	1.4
170.0811	0.8
172.1330	6.5
174.0759	0.9
174.0913	0.8
175.0862	0.7
177.1019	0.8
184.0755	0.7
190.0861	0.7
193.1584	2.6
200.0736	2.3
200.0914	4.9
200.1277	1.5
201.0654	0.9
201.1021	1.1
202.0859	6.4
202.1064	1.9
203.0896	0.7
203.1426	0.6
204.0513	0.7
217.0966	0.7
217.1260	0.7
217.1585	0.8
218.0812	2.2
218.0925	0.8
218.1018	11.0
218.1171	2.8
218.1282	4.0
218.1383	2.6
219.0760	1.4
219.1127	5.3
219.1379	1.5
219.1741	1.3
220.0599	0.6
220.0962	4.2
220.1074	1.6
220.1174	6.2
220.1323	1.0
221.0915	6.5
221.1281	4.3
221.1530	2.1

Name: N-Methyl-L-proline
PrecursorMZ: 130.08624
RT: 7.65154
ExactMass: 129.078978594
Spectrum_type: 2
charge: 1
Formula: C6H11NO2
SMILES: CN1CCC[C@H]1C(=O)O
Method: HCD
Collision_energy: [28.333334]
Isolation_window: 4.0
Ion_mode: P
Num Peaks: 15
57.0703	2.1
69.0702	7.1
74.0966	2.9
84.0446	3.1
84.0810	6.8
86.0966	100.0
86.1022	0.6
88.1122	0.8
103.0543	0.8
129.1384	1.3
130.0649	2.1
130.0861	1.3
130.1589	11.1
131.1621	1.1
132.1018	1.9

Name: N-Stearoylethanolamine
PrecursorMZ: 328.32076
RT: 1.1051
ExactMass: 327.313729551
Spectrum_type: 2
charge: 1
Formula: C20H41NO2
SMILES: CCCCCCCCCCCCCCCCCC(=O)NCCO
Method: HCD
Collision_energy: [28.333334]
Isolation_window: 4.0
Ion_mode: P
Num Peaks: 63
57.0703	2.1
58.0656	9.4
60.0449	18.5
67.0546	3.3
69.0703	4.4
70.0656	2.7
71.0859	1.7
72.0812	3.4
74.0604	1.0
76.0397	2.5
81.0702	5.7
83.0859	4.9
84.0810	1.0
85.1016	1.1
86.0968	2.9
95.0858	7.8
97.1014	4.2
98.9844	42.8
100.0758	1.1
109.1014	4.7
111.1170	1.5
123.1169	1.5
133.1012	2.4
135.0441	3.9
146.1177	1.0
154.1227	5.5
156.1022	1.2
174.9922	11.7
176.9892	2.8
240.2684	2.0
251.0001	3.9
252.2685	15.1
252.9970	2.0
253.2717	2.4
255.1129	2.5
270.2790	100.0
271.2824	16.9
280.2997	5.3
281.3033	1.0
282.3155	4.1
297.1238	1.4
310.3102	8.9
311.3137	2.1
315.1856	2.8
327.1332	1.5
327.1707	1.6
327.1916	1.1
327.2287	3.0
327.2501	1.9
328.1535	1.7
328.2272	11.7
328.2656	3.0
328.3208	83.0
329.1484	2.6
329.1865	1.1
329.2081	3.6
329.2294	25.8
329.3241	17.3
330.1333	1.5
330.2065	6.4
330.2318	3.2
330.2791	2.3
330.3268	1.5

Name: N-methyl-D-aspartic acid
PrecursorMZ: 130.0499
RT: 3.828
ExactMass: 147.05315777
Spectrum_type: 2
charge: 1
Formula: C5H9NO4
SMILES: CN[C@H](CC(=O)O)C(=O)O
Method: HCD
Collision_energy: [28.333334]
Isolation_window: 4.0
Ion_mode: P
Num Peaks: 45
56.0499	1.5
57.0702	0.6
58.0655	4.1
59.0734	3.5
68.0498	3.8
69.0338	0.7
69.0702	0.7
69.9914	0.7
70.0102	0.6
70.0655	39.1
71.0688	1.9
74.0967	0.9
82.0654	1.8
83.0606	5.5
84.0394	0.7
84.0446	100.0
84.0499	0.6
84.0810	63.9
85.0286	4.7
85.0398	1.3
85.0480	4.5
85.0844	3.0
86.0602	13.6
86.0966	6.8
87.0444	0.5
87.0554	0.6
88.0395	0.7
90.0551	18.2
97.4571	0.5
100.0394	0.7
102.0550	2.2
114.0550	1.3
114.0914	1.7
128.0705	0.9
128.1434	1.0
129.0658	3.3
130.0497	19.4
130.0650	3.2
130.0861	18.5
130.1589	3.4
131.0530	1.4
131.0894	1.5
132.0654	5.1
132.0766	10.5
132.1018	16.8

Name: Nicotinic Acid
PrecursorMZ: 124.03936
RT: 4.8716
ExactMass: 123.032028402
Spectrum_type: 2
charge: 1
Formula: C6H5NO2
SMILES: C1=CC(=CN=C1)C(=O)O
Method: HCD
Collision_energy: [28.333334]
Isolation_window: 4.0
Ion_mode: P
Num Peaks: 19
69.0336	0.4
78.0340	0.4
80.0497	5.3
81.0530	0.4
96.0445	3.6
97.4570	0.5
107.0728	0.3
122.0964	0.7
123.0554	0.4
123.9952	0.3
124.0299	0.7
124.0392	100.0
124.0485	0.7
124.0756	0.4
124.0840	0.3
125.0362	0.5
125.0425	6.7
125.0707	0.4
140.0340	0.4

Name: Phenylacetylglutamine
PrecursorMZ: 265.11768
RT: 4.8656
ExactMass: 264.111007
Spectrum_type: 2
charge: 1
Formula: C13H16N2O4
SMILES: C1=CC=C(C=C1)CC(=O)N[C@@H](CCC(=O)N)C(=O)O
Method: HCD
Collision_energy: [28.333334]
Isolation_window: 4.0
Ion_mode: P
Num Peaks: 36
69.2902	9.9
70.0653	28.1
72.0810	29.3
81.0699	6.8
98.0600	80.6
102.0548	25.6
107.0489	8.8
116.0704	34.6
120.0805	16.5
121.0643	7.0
126.0547	34.7
130.0857	9.2
136.0753	100.0
137.0783	7.3
150.0545	15.3
162.0909	30.7
166.0720	13.6
194.0804	15.3
218.1168	6.4
219.1117	7.1
220.0822	9.3
220.0959	7.4
220.1325	6.8
246.0754	8.6
247.1062	7.8
248.0909	16.9
264.0854	13.7
264.0975	7.0
264.1220	19.9
264.1338	10.4
265.1169	40.5
266.0874	6.9
266.1013	28.3
266.1131	23.0
266.1366	15.9
267.1324	7.3

Name: Pipecolic Acid
PrecursorMZ: 130.0862
RT: 8.0912
ExactMass: 129.078978594
Spectrum_type: 2
charge: 1
Formula: C6H11NO2
SMILES: C1CCNC(C1)C(=O)O
Method: HCD
Collision_energy: [28.333334]
Isolation_window: 4.0
Ion_mode: P
Num Peaks: 17
56.0498	0.8
57.0703	1.2
69.0702	1.2
74.0967	1.2
84.0446	6.3
84.0757	1.0
84.0810	100.0
84.0863	0.6
85.0843	6.2
86.0966	19.1
88.1123	1.6
130.0497	1.1
130.0651	1.0
130.0861	31.4
130.1589	5.2
131.0894	1.8
132.1018	0.9

Name: Prednisone
PrecursorMZ: 359.18517
RT: 1.4457
ExactMass: 358.17802393
Spectrum_type: 2
charge: 1
Formula: C21H26O5
SMILES: C[C@]12CC(=O)[C@H]3[C@H]([C@@H]1CC[C@@]2(C(=O)CO)O)CCC4=CC(=O)C=C[C@]34C
Method: HCD
Collision_energy: [28.333334]
Isolation_window: 4.0
Ion_mode: P
Num Peaks: 14
57.0703	23.2
83.0495	9.7
85.0650	12.4
95.0495	12.5
151.1118	30.0
163.1118	49.7
215.1066	11.4
257.1172	9.5
305.1526	10.5
323.1640	24.7
341.1741	22.9
359.1848	100.0
360.1888	22.4
361.2014	18.5

Name: Pyridoxine
PrecursorMZ: 170.08116
RT: 6.3686
ExactMass: 169.07389321
Spectrum_type: 2
charge: 1
Formula: C8H11NO3
SMILES: CC1=NC=C(C(=C1O)CO)CO
Method: HCD
Collision_energy: [28.333334]
Isolation_window: 4.0
Ion_mode: P
Num Peaks: 137
56.0498	1.0
58.0655	1.4
60.0448	0.8
67.0546	1.7
68.0498	1.7
69.0338	1.5
69.0702	2.2
70.0654	2.8
71.0495	1.2
72.0446	0.6
72.0811	0.9
73.0651	1.6
79.0545	1.3
81.0337	2.1
81.0701	1.9
82.0654	1.6
83.0494	1.3
83.0858	0.9
84.0393	0.6
84.0446	100.0
84.0498	0.6
84.0810	2.6
85.0286	1.1
85.0479	4.5
85.0650	0.6
86.0602	0.7
91.0543	0.6
93.0700	0.8
94.0652	0.8
95.0493	1.5
95.0605	1.7
95.0856	1.0
96.0445	1.3
96.0809	31.4
97.0285	3.7
97.0649	2.9
97.0760	2.1
97.0842	2.0
97.1013	0.6
98.0601	2.2
99.0805	0.5
100.0395	0.7
100.0506	3.5
100.0757	3.0
101.0598	1.1
102.0550	2.8
107.0492	0.6
107.0604	0.6
107.0855	1.1
108.0808	1.7
109.0648	2.8
109.1012	1.1
110.0600	4.3
110.0712	1.5
111.0441	2.1
111.0553	1.5
111.0804	1.0
112.0757	5.5
113.0233	0.6
113.0597	0.9
114.0550	2.6
116.0706	1.2
122.0600	1.8
123.0440	0.6
123.0552	8.1
123.0632	0.6
123.0804	0.9
123.1168	0.9
124.0391	0.6
124.0756	45.0
125.0599	1.0
125.0708	39.2
125.0785	3.5
125.0960	1.1
126.0549	2.1
126.0741	2.8
126.0912	8.5
126.1276	0.8
127.0501	0.6
128.0705	3.2
130.0497	0.8
130.0861	0.9
133.1010	0.6
134.0599	0.6
140.0705	0.6
140.1068	2.0
141.0546	0.9
141.0656	0.6
142.0497	0.6
142.0861	31.9
143.0897	1.9
150.0548	6.6
150.0912	1.2
151.0501	5.8
151.0581	3.7
151.0752	0.6
151.0864	0.8
151.1116	0.7
152.0341	0.9
152.0533	0.6
152.0704	11.3
153.0546	0.9
153.0656	2.7
153.0734	0.9
153.0907	0.9
153.1020	0.5
154.0861	13.4
154.0969	0.7
168.0653	2.6
168.0691	1.5
168.0806	1.0
168.0850	1.5
168.1017	2.8
169.0491	0.9
169.0606	24.5
169.0685	1.6
169.0759	3.1
169.0855	1.6
169.0964	4.2
170.0444	0.7
170.0590	0.6
170.0649	1.6
170.0809	82.0
170.0926	0.9
170.0964	1.1
170.1173	1.6
171.0648	0.6
171.0763	4.6
171.0843	6.2
171.0914	0.9
171.1116	3.7
171.1489	0.8
171.1854	2.4
172.0754	0.5
172.0965	6.1
172.1078	8.5
172.1328	0.8

Name: Pyrimidine
PrecursorMZ: 81.04493
RT: 1.7159
ExactMass: 80.037448136
Spectrum_type: 2
charge: 1
Formula: C4H4N2
SMILES: C1=CN=CN=C1
Method: HCD
Collision_energy: [28.333334]
Isolation_window: 4.0
Ion_mode: P
Num Peaks: 12
53.9977	4.2
54.0341	100.0
55.0375	5.4
56.0498	5.3
67.0418	1.9
80.0495	35.9
81.0448	56.4
81.0528	2.1
82.0482	3.3
82.0526	1.9
82.0652	12.3
83.0604	16.6

Name: Sulfachlorpyridazine
PrecursorMZ: 285.02062
RT: 2.196
ExactMass: 284.0134744
Spectrum_type: 2
charge: 1
Formula: C10H9ClN4O2S
SMILES: C1=CC(=CC=C1N)S(=O)(=O)NC2=NN=C(C=C2)Cl
Method: HCD
Collision_energy: [28.333334]
Isolation_window: 4.0
Ion_mode: P
Num Peaks: 9
68.0498	5.2
89.0600	8.7
92.0497	5.6
108.0446	27.5
156.0114	100.0
157.0149	4.6
284.3310	5.3
285.0206	23.6
287.0174	6.0

Name: Tryptophol
PrecursorMZ: 162.09131
RT: 1.453575
ExactMass: 161.084063974
Spectrum_type: 2
charge: 1
Formula: C10H11NO
SMILES: C1=CC=C2C(=C1)C(=CN2)CCO
Method: HCD
Collision_energy: [28.333334]
Isolation_window: 4.0
Ion_mode: P
Num Peaks: 10
97.4572	5.0
130.0650	6.5
136.0755	7.6
147.0676	5.7
161.0707	2.9
162.0911	100.0
163.0943	10.5
163.1228	5.7
164.0704	4.6
164.1068	4.0

Name: Tyramine
PrecursorMZ: 138.09112
RT: 9.1702
ExactMass: 137.084063974
Spectrum_type: 2
charge: 1
Formula: C8H11NO
SMILES: C1=CC(=CC=C1CCN)O
Method: HCD
Collision_energy: [28.333334]
Isolation_window: 4.0
Ion_mode: P
Num Peaks: 9
69.7520	20.7
96.9953	43.1
120.0474	68.5
121.0646	100.0
136.1115	27.6
137.1071	36.2
138.0546	66.3
138.0911	54.9
138.1022	25.7

Name: Xanthosine
PrecursorMZ: 285.08252
RT: 6.4271
ExactMass: 284.07568412
Spectrum_type: 2
charge: 1
Formula: C10H12N4O6
SMILES: C1=NC2=C(N1[C@H]3[C@@H]([C@@H]([C@H](O3)CO)O)O)NC(=O)NC2=O
Method: HCD
Collision_energy: [28.333334]
Isolation_window: 4.0
Ion_mode: P
Num Peaks: 114
57.0339	1.3
69.0338	6.0
70.0654	3.8
73.0287	1.3
81.0337	3.6
82.0654	1.1
84.0810	6.6
85.0286	1.7
86.0966	1.5
87.0442	1.8
97.0285	1.8
99.0441	5.8
110.0350	1.0
110.0600	1.3
111.0441	1.3
115.0389	1.3
115.0866	1.8
116.0706	1.3
122.0599	1.3
125.0709	1.0
128.0703	1.1
130.0862	0.9
133.0493	1.8
134.0599	1.3
140.1434	1.6
148.0754	1.9
149.0708	0.9
152.0707	1.0
153.0405	100.0
154.0248	1.5
154.0376	1.1
154.0439	5.0
160.0752	1.2
163.0863	1.6
164.0706	1.9
166.0861	1.1
167.0562	23.4
168.0597	2.6
176.0706	1.5
177.1018	1.4
179.0812	3.6
181.0969	2.0
187.0865	1.1
190.0498	1.2
190.0859	2.2
191.0813	2.2
192.1017	2.9
194.0807	1.8
195.1125	1.0
203.0815	1.0
204.0653	1.0
205.0967	1.9
206.0922	1.8
207.0761	6.1
208.0965	1.3
209.0914	1.9
221.0916	1.8
224.1021	3.5
226.1072	1.2
227.1021	1.3
231.0756	2.1
233.0913	1.8
238.1185	1.5
238.1535	1.1
239.1386	1.5
248.1023	1.0
249.0863	7.1
250.1069	1.1
251.1022	2.4
251.1386	1.0
265.0922	2.0
266.1014	2.3
266.1140	1.3
266.1377	1.8
267.0969	1.0
267.1330	1.4
267.1696	1.8
268.1172	3.5
269.1125	5.1
269.1492	1.7
283.1034	13.3
283.1283	4.1
283.1431	2.1
283.1649	6.8
283.2003	2.2
284.0518	1.0
284.0652	2.8
284.1119	33.1
284.1262	8.0
284.1482	8.9
284.1615	3.2
284.3303	1.2
285.0837	2.2
285.1081	1.1
285.1155	4.8
285.1232	4.9
285.1440	6.1
285.1592	4.1
285.1804	10.2
286.0472	3.1
286.0681	3.2
286.0913	1.1
286.1068	3.1
286.1279	14.5
286.1428	6.1
286.1629	2.2
286.1771	2.0
286.2115	1.5
286.2366	1.8
287.1233	19.4
287.1384	2.7
287.1596	7.2
287.1730	1.4
287.2076	1.4

Name: epsilon-Acetyl-L-lysine
PrecursorMZ: 189.12325
RT: 8.4951
ExactMass: 188.11609238
Spectrum_type: 2
charge: 1
Formula: C8H16N2O3
SMILES: CC(=O)NCCCC[C@@H](C(=O)O)N
Method: HCD
Collision_energy: [28.333334]
Isolation_window: 4.0
Ion_mode: P
Num Peaks: 66
55.0545	1.6
58.0655	3.3
60.0448	1.1
70.0655	1.9
72.0447	3.0
72.0811	10.8
82.0653	1.9
83.0494	3.0
84.0446	1.7
84.0810	43.6
85.0844	2.4
86.0602	0.9
86.0966	8.0
87.0443	1.3
90.0551	1.5
90.0915	6.0
100.0757	6.0
100.1122	1.2
101.0598	18.7
102.0551	1.0
112.0757	21.8
113.0791	1.0
116.0707	1.0
126.0912	100.0
126.1009	0.7
126.1276	3.5
127.0945	7.4
128.0704	1.9
128.1068	24.6
129.1102	1.7
130.0497	4.2
130.0861	15.8
131.0896	0.9
142.0861	3.0
143.1177	6.3
144.1017	4.4
146.0599	1.2
147.1126	0.8
148.0602	0.9
154.0861	1.3
154.1224	25.7
155.1258	1.1
165.0212	2.2
170.0812	1.1
170.1173	0.7
172.0966	2.0
172.1329	18.8
173.1364	0.8
187.1074	2.3
188.0915	2.6
188.1025	2.8
188.1070	4.4
188.1278	7.9
188.1390	3.3
189.0866	1.4
189.1230	11.4
189.1594	39.8
190.0497	0.8
190.0859	2.9
190.1070	10.8
190.1183	6.3
190.1258	1.0
190.1434	70.3
190.1618	4.5
191.0814	0.9
191.1469	3.3

Name: (((3b,7a)-3,7-dihydroxy-24-oxocholan-24-yl)amino)ethanesulfonic acid
PrecursorMZ: 464.2825
RT: 2.79
Spectrum_type: 2
charge: 1
SMILES: O=S(O)(CCNC(CC[C@@H](C)[C@H]1CC[C@@]2([H])[C@]3([H])[C@H](O)CC4C[C@@H](O)CC[C@]4(C)[C@@]3([H])CC[C@]12C)=O)=O
Method: HCD
Collision_energy: [28.333334]
Isolation_window: 4.0
Ion_mode: P
Num Peaks: 68
51.5872	5.0
67.0546	3.3
69.0702	2.5
81.0701	8.5
83.0858	4.3
91.0543	2.1
93.0700	4.6
95.0856	9.2
97.4569	1.9
105.0698	4.8
107.0856	10.0
109.1012	8.0
119.0855	6.9
121.1011	11.9
123.1167	2.9
126.0218	58.5
131.0853	2.5
133.1010	8.7
135.1167	11.3
137.0958	2.6
145.1010	4.8
147.1167	10.2
149.0959	2.2
149.1324	8.8
159.1166	5.1
161.1323	12.6
163.1114	5.0
163.1480	5.2
173.1326	3.3
175.1114	3.0
175.1479	9.3
177.1272	5.7
185.1324	4.4
187.1477	3.8
189.1271	2.4
189.1635	7.4
197.1321	1.9
199.1479	3.3
201.1634	20.7
202.1666	3.8
203.1427	3.1
203.1790	3.0
208.0634	19.7
211.1478	4.2
213.1634	2.9
215.1790	18.9
216.1824	3.2
217.1584	1.8
225.1637	2.4
229.1579	3.9
229.1945	2.7
231.1740	2.1
239.1788	2.6
243.2098	3.3
257.1896	3.3
262.1099	3.0
274.1102	1.9
288.1256	3.2
300.1258	2.1
302.1409	3.7
321.2570	10.6
322.2602	2.5
339.2675	19.6
340.2711	3.8
382.2040	2.8
464.2820	100.0
465.2856	30.4
466.2835	4.3

Name: ((2-(3-Chloro-4-ethoxyphenyl)pyrazolo(1,5-a)pyrazin-4-yl)thio)acetonitrile
PrecursorMZ: 345.05793
RT: 6.8342
ExactMass: 344.0498599
Spectrum_type: 2
charge: 1
Formula: C16H13ClN4OS
SMILES: CCOC1=C(C=C(C=C1)C2=NN3C=CN=C(C3=C2)SCC#N)Cl
Method: HCD
Collision_energy: [28.333334]
Isolation_window: 4.0
Ion_mode: P
Num Peaks: 3
345.0576	100.0
346.0603	15.0
346.1050	16.2

Name: ((5S)-8-methyl-8-propan-2-yl-8-azoniabicyclo(3.2.1)octan-3-yl) 3-hydroxy-2-phenylpropanoate
PrecursorMZ: 332.2216
RT: 2.5171
ExactMass: 332.22256882
Spectrum_type: 2
charge: 1
Formula: C20H30NO3+
SMILES: CC(C)[N+]1([C@H]2CCC1CC(C2)OC(=O)C(CO)C3=CC=CC=C3)C
Method: HCD
Collision_energy: [28.333334]
Isolation_window: 4.0
Ion_mode: P
Num Peaks: 8
72.0811	3.9
86.0967	4.8
96.0444	8.1
173.1281	9.3
331.1649	3.8
332.1123	3.6
332.2212	100.0
333.2245	20.9

Name: (+)-Boldine
PrecursorMZ: 328.14978
RT: 6.5427
ExactMass: 327.14705815
Spectrum_type: 2
charge: 1
Formula: C19H21NO4
SMILES: CN1CCC2=CC(=C(C3=C2[C@@H]1CC4=CC(=C(C=C43)OC)O)OC)O
Method: HCD
Collision_energy: [28.333334]
Isolation_window: 4.0
Ion_mode: P
Num Peaks: 20
87.0442	3.7
101.0598	4.9
103.0390	17.6
103.0754	2.7
158.1176	3.2
242.1131	10.9
265.1276	4.2
310.1394	6.3
311.1321	3.0
326.1809	3.6
327.1544	10.5
327.1697	12.5
327.1910	11.5
328.0915	4.1
328.1177	3.3
328.1498	100.0
329.1516	19.1
329.1708	3.4
329.2050	7.6
330.1343	5.7

Name: (+)-Eriodictyol
PrecursorMZ: 289.07041
RT: 1.7269
ExactMass: 288.0633881
Spectrum_type: 2
charge: 1
Formula: C15H12O6
SMILES: C1[C@H](OC2=CC(=CC(=C2C1=O)O)O)C3=CC(=C(C=C3)O)O
Method: HCD
Collision_energy: [28.333334]
Isolation_window: 4.0
Ion_mode: P
Num Peaks: 109
69.0322	3.7
70.0638	7.4
70.0683	3.1
81.0320	4.8
84.0792	6.5
85.0633	2.3
86.0585	2.9
87.0424	2.5
98.0583	2.4
100.0740	5.1
101.0580	3.8
107.0473	2.5
111.0423	3.9
112.0738	2.7
114.0532	2.7
116.0687	4.9
120.0790	2.4
126.0531	4.7
126.0894	3.1
128.0687	4.3
130.0480	2.3
130.0844	3.8
132.0635	2.5
136.0735	2.6
138.0548	2.5
140.0686	3.9
142.0862	2.5
144.0637	2.1
149.0576	3.6
152.0707	2.4
158.0908	3.3
164.0699	2.2
168.0660	2.5
177.0187	2.3
177.0543	5.2
179.0340	35.1
180.0376	3.9
180.1010	2.7
182.0916	2.4
200.1040	3.7
200.1273	2.1
204.1020	26.0
205.1053	2.3
211.1077	3.4
219.0292	7.0
219.0631	2.9
222.0738	2.5
233.0795	3.5
237.0396	3.7
242.0817	2.6
243.0651	13.0
244.0964	2.5
247.0601	6.1
257.0808	4.4
261.0751	7.6
269.1127	3.0
270.0724	2.3
270.1350	3.0
271.0596	11.9
272.1155	2.3
274.1314	2.9
275.1126	3.7
283.1297	3.8
284.0917	37.0
285.0727	3.0
285.0951	5.2
286.1290	3.1
288.0866	8.5
288.1159	6.5
288.1483	3.7
289.0706	72.0
289.1483	2.6
290.0748	11.8
290.1344	15.5
291.1364	4.7
291.1697	3.0
292.1158	2.7
292.1481	3.9
293.1168	2.7
293.1497	3.6
294.0982	4.3
295.1305	4.2
295.1703	2.7
296.1252	8.2
297.0819	2.3
297.1525	6.3
298.1402	5.8
299.1340	4.4
299.1724	3.0
300.0863	3.7
300.1194	8.6
300.1494	5.6
301.0683	6.3
301.1204	3.2
301.1493	4.2
302.1025	100.0
302.1309	6.9
302.1608	3.0
303.1054	15.2
303.1626	2.2
304.1089	2.5
304.1438	4.1
305.1532	2.6
306.0991	2.8
306.1920	5.0
307.1290	39.9
307.1649	3.3
308.1344	6.3
309.1805	2.3

Name: (+)-Genipin
PrecursorMZ: 209.08066
RT: 2.8775
ExactMass: 226.08412354
Spectrum_type: 2
charge: 1
Formula: C11H14O5
SMILES: COC(=O)C1=CO[C@H]([C@H]2[C@@H]1CC=C2CO)O
Method: HCD
Collision_energy: [28.333334]
Isolation_window: 4.0
Ion_mode: P
Num Peaks: 9
81.0701	3.8
123.0440	21.5
147.0439	6.0
147.1167	5.3
149.0596	100.0
150.0630	9.3
163.0752	28.2
191.0701	17.7
209.0805	8.3

Name: (+-)-3-(4-Hydroxyphenyl)lactic acid
PrecursorMZ: 183.06515
RT: 5.4422
ExactMass: 182.0579088
Spectrum_type: 2
charge: 1
Formula: C9H10O4
SMILES: C1=CC(=CC=C1CC(C(=O)O)O)O
Method: HCD
Collision_energy: [28.333334]
Isolation_window: 4.0
Ion_mode: P
Num Peaks: 38
67.0546	3.2
81.0700	2.4
87.0442	2.3
91.0544	74.1
92.0577	5.2
93.0700	3.1
95.0493	5.6
97.0761	3.8
98.0600	2.2
109.0649	8.3
111.0805	6.2
121.0760	15.1
122.0600	2.7
123.0439	12.8
123.0804	2.2
125.0708	9.2
135.0551	2.0
136.0755	16.1
137.0595	18.6
137.0707	6.7
138.0912	9.6
164.0704	21.7
165.0546	15.0
165.0656	16.9
166.0861	6.0
167.0814	8.8
181.0840	3.8
181.0968	100.0
182.0810	15.0
182.1002	18.0
182.1172	13.9
182.1901	2.5
183.0648	3.2
183.0761	5.7
183.1126	23.5
184.0964	3.2
184.1157	2.0
185.0918	6.5

Name: (+-)-3-Phenyllactic acid
PrecursorMZ: 189.05222
RT: 4.2121
ExactMass: 166.062994177
Spectrum_type: 2
charge: 1
Formula: C9H10O3
SMILES: C1=CC=C(C=C1)CC(C(=O)O)O
Method: HCD
Collision_energy: [28.333334]
Isolation_window: 4.0
Ion_mode: P
Num Peaks: 65
58.0291	10.0
60.0448	13.0
70.0655	17.9
72.0447	8.1
72.0811	76.6
74.0603	10.8
75.0556	51.4
81.0336	11.4
83.0494	8.7
84.0447	21.5
85.0399	11.6
86.0603	67.8
86.0966	47.7
95.0605	16.3
98.0602	26.2
100.0759	11.7
101.0709	7.6
102.0550	22.1
110.0601	14.6
111.0441	27.3
112.0508	10.1
112.0758	18.3
113.0346	8.9
114.0551	15.1
115.0866	32.2
116.0706	13.9
118.0862	59.6
120.0807	21.1
126.0549	19.8
127.0503	16.3
128.0704	56.8
129.0545	13.0
130.0610	8.1
130.0861	23.0
134.0809	29.0
140.0705	9.6
142.0861	8.1
142.1588	19.9
143.1178	17.6
144.1017	16.4
146.0598	8.9
146.0811	8.7
148.0967	11.6
152.0704	10.4
155.0562	71.1
156.0593	10.1
162.0911	8.0
162.1124	9.6
170.0810	43.6
170.1173	12.7
171.1125	28.4
172.0966	100.0
187.1075	7.5
188.0703	32.2
188.0817	9.6
188.0914	76.5
188.1279	9.1
188.1639	9.7
189.0657	32.8
189.1021	37.4
189.1227	17.3
190.0860	31.4
190.0972	42.0
190.1070	71.8
191.0813	8.5

Name: (+-)-Dihydrodaidzein
PrecursorMZ: 257.08049
RT: 2.5188333333333333
ExactMass: 256.07355886
Spectrum_type: 2
charge: 1
Formula: C15H12O4
SMILES: C1C(C(=O)C2=C(O1)C=C(C=C2)O)C3=CC=C(C=C3)O
Method: HCD
Collision_energy: [28.333334]
Isolation_window: 4.0
Ion_mode: P
Num Peaks: 11
95.0494	10.1
107.0493	15.4
123.0441	100.0
124.0475	9.0
135.0440	10.2
137.0233	7.5
163.0389	46.6
256.1160	8.2
257.0805	72.6
257.1281	16.2
258.0852	10.7

Name: (-)-Mitragynine
PrecursorMZ: 399.23459
RT: 6.1701
ExactMass: 398.22055744
Spectrum_type: 2
charge: 1
Formula: C23H30N2O4
SMILES: CC[C@@H]1CN2CCC3=C([C@@H]2C[C@@H]1/C(=C\OC)/C(=O)OC)NC4=C3C(=CC=C4)OC
Method: HCD
Collision_energy: [28.333334]
Isolation_window: 4.0
Ion_mode: P
Num Peaks: 58
59.0609	7.3
70.0656	17.8
72.0812	5.9
84.0812	40.7
89.0601	8.2
98.0716	5.2
101.0600	9.3
114.1027	8.7
116.0708	6.9
128.0708	5.1
130.0864	19.3
133.0861	4.0
147.1130	3.8
175.1199	3.9
258.1080	8.8
267.1464	5.0
269.1598	7.7
275.1354	3.9
284.1721	5.2
311.1599	4.4
312.1667	7.5
313.1755	11.6
314.1815	16.7
325.1761	20.1
326.1800	3.8
336.2030	6.4
353.2094	3.6
354.2132	21.2
355.2180	3.6
357.1771	8.0
359.1925	7.6
382.2090	14.0
384.1872	4.4
397.2192	4.6
398.2348	11.3
399.1856	5.3
399.2346	100.0
400.2302	25.7
401.1902	16.9
402.1977	70.2
403.2070	57.5
404.2120	62.5
405.2157	19.2
406.2109	4.7
407.1947	5.2
408.1716	4.7
408.2107	5.6
409.2086	8.6
410.1532	8.5
410.1977	7.0
411.2293	6.0
412.2183	11.3
413.1906	27.3
414.1908	7.1
414.2306	6.6
415.2069	63.7
416.2097	16.3
417.1903	7.0

Name: (-)-N-Acetylneuraminic acid
PrecursorMZ: 310.11306
RT: 5.2289
ExactMass: 327.11654587
Spectrum_type: 2
charge: 1
Formula: C11H21NO10
SMILES: CC(=O)N[C@@H]1[C@H](C[C@](O[C@H]1[C@@H]([C@@H](CO)O)O)(C(=O)O)O)O.O
Method: HCD
Collision_energy: [28.333334]
Isolation_window: 4.0
Ion_mode: P
Num Peaks: 134
69.0340	22.3
70.0656	29.9
72.0448	8.3
73.0290	7.5
81.0340	22.5
82.0658	7.9
83.0495	10.5
84.0448	52.7
84.0813	60.1
85.0288	52.3
86.0605	10.5
87.0444	10.1
88.0397	31.4
96.0448	24.7
97.0288	57.1
98.0604	36.3
98.9848	7.6
99.0444	19.2
100.0760	18.2
102.0553	42.6
108.0446	8.9
109.0289	11.0
110.0603	18.8
111.0445	12.2
112.0760	35.0
114.0553	37.2
115.0393	8.6
116.0709	45.5
117.0551	8.3
120.0814	9.6
123.0558	7.8
126.0552	35.8
127.0393	38.1
128.0709	30.3
130.0501	99.4
130.0865	35.5
132.0657	27.8
132.0810	9.4
136.0760	10.7
138.0551	12.8
139.0395	11.8
141.0659	9.1
142.0501	28.0
142.0863	17.8
144.0658	72.5
145.0498	20.8
146.0815	27.4
147.1130	36.1
148.0607	67.8
150.0556	8.9
152.0714	7.8
153.0659	20.0
154.0865	9.4
156.0657	27.2
159.0771	10.9
160.0610	21.8
162.0563	9.2
162.0763	58.1
164.0710	8.5
165.0551	7.6
166.0514	11.8
166.0865	11.8
168.0660	19.1
172.0609	15.0
174.0766	10.7
175.1088	7.7
178.0860	12.4
180.0661	22.4
182.0811	9.8
183.0766	27.0
186.0764	8.8
192.0668	11.9
194.0817	7.9
195.0772	21.9
196.0604	8.4
202.0717	8.7
208.0606	27.2
210.0777	25.7
213.0875	24.4
214.0720	8.1
225.0872	15.6
226.0712	40.4
228.0867	13.0
231.0976	7.5
235.9889	8.5
237.0872	23.8
238.0696	8.5
244.0639	22.4
246.0963	14.8
253.1185	24.8
254.1164	10.5
255.0975	10.6
255.1357	8.2
256.0832	7.5
259.0826	14.1
260.0916	8.8
264.1249	10.3
267.0976	8.1
273.1079	36.3
274.0924	34.1
275.0966	7.7
276.1091	7.7
283.1270	8.0
288.1101	11.9
291.1195	38.6
292.1029	100.0
293.1064	14.5
294.1210	15.8
302.1350	51.2
306.1192	25.5
308.1397	8.4
309.1309	63.2
309.1667	10.8
310.0971	10.3
310.1331	39.9
311.1360	8.9
312.1110	10.6
313.1060	20.0
315.0867	9.3
315.1195	11.7
316.1114	12.4
317.1383	7.9
318.0961	68.2
318.1290	12.2
319.1109	13.7
319.1529	39.7
320.1490	14.8
321.1296	35.7
323.1480	15.7
324.1313	46.0
326.1315	13.6
327.1210	15.4
328.1077	19.8
329.1009	20.9

Name: (-)-melptelchromene E
PrecursorMZ: 533.2542
RT: 1.1277
Spectrum_type: 2
charge: 1
SMILES: CC1(C)C=CC2=C(OC)C([C@@H](C[C@H](O)C3=C(OC)C=C(OC(C)(C)C=C4)C4=C3OC)C)=C(OC)C=C2O1
Method: HCD
Collision_energy: [28.333334]
Isolation_window: 4.0
Ion_mode: P
Num Peaks: 20
59.2490	1.4
59.2508	5.3
59.3622	1.5
69.0878	2.4
97.4557	1.5
432.2294	2.0
446.2456	3.9
447.2498	1.2
461.2330	1.2
461.2682	7.2
462.2723	2.3
463.2486	1.7
474.2400	1.2
477.2643	2.6
489.2640	11.1
490.2673	3.1
505.2589	7.1
533.2537	100.0
534.2570	32.3
535.2680	12.1

Name: (2,3-dihydroxy-1-(7-methoxy-2-oxochromen-6-yl)-3-methylbutyl) (Z)-2-methylbut-2-enoate
PrecursorMZ: 377.15938
RT: 0.8551
ExactMass: 376.1522031
Spectrum_type: 2
charge: 1
Formula: C20H24O7
SMILES: C/C=C(/C)\C(=O)OC(C1=C(C=C2C(=C1)C=CC(=O)O2)OC)C(C(C)(C)O)O
Method: HCD
Collision_energy: [28.333334]
Isolation_window: 4.0
Ion_mode: P
Num Peaks: 61
57.0703	16.1
67.0547	2.1
69.0703	2.9
83.0495	2.3
85.0651	11.9
95.0494	4.3
109.0650	2.1
145.0647	2.3
149.0597	10.0
187.0753	3.9
203.0702	2.3
205.0858	3.9
215.0702	4.1
215.1066	3.8
221.0807	6.3
229.0864	2.7
231.1013	2.7
233.1171	10.7
235.1330	2.1
243.1379	3.6
247.0964	4.5
247.1326	2.9
253.1221	2.8
257.0806	3.3
257.1171	4.2
259.1329	4.0
261.1483	11.8
271.1328	11.8
273.1120	8.3
273.1486	3.8
275.0913	11.5
275.1276	9.1
276.0964	2.2
277.1435	6.0
283.0971	2.7
289.1433	18.1
290.1466	2.8
291.1589	15.8
299.1281	3.5
301.1075	2.9
313.1430	4.3
329.1751	2.3
331.1539	7.2
331.1897	5.4
341.1386	4.7
341.1740	4.6
343.1902	3.7
359.1488	71.5
359.1834	16.5
360.1522	14.4
360.1868	3.4
361.2006	17.3
376.0824	5.0
376.1984	3.5
377.0774	5.4
377.1592	23.0
377.1957	11.4
378.1651	5.2
378.2151	100.0
379.2134	19.0
379.2180	13.1

Name: (2-Isobutyrylamino-acetylamino)-acetic acid
PrecursorMZ: 203.10249
RT: 6.9744
ExactMass: 202.09535693
Spectrum_type: 2
charge: 1
Formula: C8H14N2O4
SMILES: CC(C)C(=O)NCC(=O)NCC(=O)O
Method: HCD
Collision_energy: [28.333334]
Isolation_window: 4.0
Ion_mode: P
Num Peaks: 51
58.0656	5.4
60.0448	9.8
70.0655	7.4
72.0811	84.1
73.0844	3.7
76.0396	29.8
82.0653	3.7
84.0446	9.3
84.0810	9.2
86.0602	4.3
86.0967	11.5
87.0555	3.3
88.0395	14.5
90.0551	8.1
99.0442	3.8
102.0550	6.8
112.0758	4.5
112.1121	18.7
114.0550	6.1
116.0343	3.9
116.0706	17.5
118.0862	24.7
126.0548	7.0
126.0661	4.3
128.0705	49.7
130.0498	5.9
140.0704	23.2
142.0496	5.7
142.0862	4.5
144.0653	8.1
144.1016	4.8
156.1018	18.5
157.0970	91.8
158.0810	21.5
158.1004	6.4
158.1174	100.0
162.0756	3.8
172.0715	11.8
184.0964	7.4
185.0919	12.9
186.0759	6.9
202.0707	14.0
202.0819	22.6
202.1071	39.9
203.1022	90.7
203.1096	3.9
204.0652	7.0
204.0763	7.9
204.0864	16.6
204.1068	6.5
204.1225	13.7

Name: (2E)-2-(hydroxy(phenyl)methylidene)-6-methoxy-1-benzofuran-3-one
PrecursorMZ: 269.0808
RT: 5.1818
ExactMass: 268.07355886
Spectrum_type: 2
charge: 1
Formula: C16H12O4
SMILES: COC1=CC2=C(C=C1)C(=C(O2)C(=O)C3=CC=CC=C3)O
Method: HCD
Collision_energy: [28.333334]
Isolation_window: 4.0
Ion_mode: P
Num Peaks: 82
70.0656	3.3
81.0338	2.0
81.0701	1.3
84.0448	2.1
95.0856	1.8
97.3985	1.5
101.0599	2.5
107.0494	2.6
112.0760	2.8
127.0390	4.6
131.0492	15.3
132.0444	4.9
132.0524	1.5
140.0707	2.5
147.0438	2.9
154.0499	1.4
159.0441	8.9
160.0524	2.7
161.0601	1.7
165.0546	1.8
166.0322	2.9
166.0859	1.9
167.0857	4.1
178.0863	9.4
180.0656	1.5
194.1176	6.0
195.0804	15.2
196.0839	2.5
204.1017	2.3
205.0646	1.1
206.0811	2.0
208.0965	1.7
213.0695	4.9
213.0910	6.1
221.1284	1.1
222.1126	2.4
223.0753	13.5
224.0794	1.9
224.0828	2.1
224.0919	2.4
226.0620	2.4
235.0966	5.0
240.1019	9.3
241.0645	5.8
241.0858	23.7
241.1055	1.6
242.0898	4.1
243.0767	1.8
250.1073	2.4
250.1434	1.6
250.1909	3.2
251.0702	4.8
252.0657	10.2
252.0771	2.8
252.0867	1.6
252.1227	1.5
252.1589	1.7
253.0723	1.1
253.0853	2.1
254.0572	1.8
267.1340	2.2
268.0627	1.2
268.0750	4.0
268.0816	3.8
268.0966	25.2
268.1176	5.6
268.1312	2.0
268.1538	2.8
268.2633	7.6
269.0807	100.0
269.1017	5.3
269.1280	2.2
269.1489	2.3
269.1517	1.4
269.2663	1.3
270.0743	2.2
270.0855	16.0
270.1117	10.8
270.1335	1.7
271.0727	3.5
271.0959	2.6
271.1087	1.2

Name: (2E,6E,10Z)-12-hydroxy-10-(hydroxymethyl)-6-methyl-2-(4-methylpent-3-enyl)dodeca-2,6,10-trienoic acid
PrecursorMZ: 337.23723
RT: 1.1793
ExactMass: 336.2300595
Spectrum_type: 2
charge: 1
Formula: C20H32O4
SMILES: CC(=CCC/C(=C\CC/C(=C/CC/C(=C/CO)/CO)/C)/C(=O)O)C
Method: HCD
Collision_energy: [28.333334]
Isolation_window: 4.0
Ion_mode: P
Num Peaks: 106
55.0546	10.3
62.0605	9.2
67.0547	22.1
69.0703	30.7
71.0495	14.1
71.0859	9.5
79.0546	10.5
81.0703	63.8
83.0495	10.0
83.0859	22.2
85.0652	19.6
93.0702	34.8
95.0494	13.5
95.0858	53.1
97.0650	14.9
97.1015	16.7
99.0444	10.3
99.0807	15.2
105.0701	19.2
107.0857	40.9
109.0651	15.5
109.1014	33.8
111.0806	18.3
113.0598	9.0
114.0915	8.1
119.0857	29.1
120.0809	13.3
121.0649	7.8
121.1013	36.6
123.0806	18.3
123.1169	16.7
124.0757	11.0
125.0962	18.4
126.0915	13.5
127.1118	18.0
128.1070	11.9
131.0856	13.1
133.1012	30.6
135.0805	10.9
135.1169	26.8
136.0757	9.4
137.0961	15.6
139.1118	13.2
143.0857	10.2
145.1012	21.6
147.1169	23.1
149.0962	12.5
149.1326	23.7
151.1118	14.7
153.0911	8.2
153.1275	9.0
155.1067	11.7
157.1012	10.5
159.1168	19.5
160.0997	15.3
161.0964	7.9
161.1076	19.3
161.1326	16.9
163.1118	17.2
163.1483	8.1
164.0707	86.0
165.0912	9.9
171.1169	12.1
173.1326	15.7
175.1120	8.2
175.1484	9.0
179.1069	8.3
180.1019	12.9
182.0813	83.1
185.1329	8.1
187.1482	10.3
189.1638	7.9
191.1431	12.6
193.1224	9.1
196.1080	13.8
210.1124	100.0
211.1159	64.9
219.1381	13.1
237.1484	9.8
283.2047	9.6
301.2162	37.8
303.2317	13.1
318.1814	62.5
319.1871	14.7
319.2264	35.4
320.1976	27.0
320.2583	9.7
321.2422	11.5
335.1965	12.9
335.2213	8.4
336.1418	10.3
336.1947	34.9
336.2251	14.2
337.1398	9.1
337.1731	10.0
337.1766	9.7
337.1992	19.4
337.2368	58.9
338.2079	29.0
338.2415	19.2
338.3417	23.7
339.1683	21.3
339.1945	7.7
339.2152	9.7
339.2320	8.1
339.2522	17.7

Name: (2R)-2,4-dihydroxy-3,3-dimethyl-N-(3-oxo-4-phenylbutyl)butanamide
PrecursorMZ: 294.16984
RT: 7.667949999999999
ExactMass: 293.16270821
Spectrum_type: 2
charge: 1
Formula: C16H23NO4
SMILES: CC(C)(CO)[C@H](C(=O)NCCC(=O)CC1=CC=CC=C1)O
Method: HCD
Collision_energy: [28.333334]
Isolation_window: 4.0
Ion_mode: P
Num Peaks: 55
55.0547	1.6
71.0495	0.9
81.0338	2.1
83.0495	2.7
84.0811	1.1
85.0287	1.1
86.0968	1.2
97.0287	2.8
99.0443	1.7
101.0599	7.8
111.0443	4.3
130.0864	1.1
132.1019	2.0
144.1021	1.1
147.0443	1.5
152.0568	29.3
154.0863	3.6
164.1070	1.2
176.1068	1.0
186.0764	1.3
194.1176	20.3
195.1209	2.1
196.1333	5.2
204.0515	1.3
207.1256	1.4
218.0671	1.8
220.0827	2.2
221.0860	1.0
223.1201	1.1
230.0674	1.2
230.1386	2.0
258.1337	2.4
260.0771	1.7
276.1443	4.8
277.1182	4.1
278.0883	4.1
292.1404	9.6
293.0637	2.9
293.1130	1.6
293.1195	1.0
293.1478	10.3
293.1852	5.5
294.0968	1.0
294.1329	9.3
294.1697	100.0
294.2028	2.4
295.0791	2.1
295.1276	8.2
295.1729	14.3
295.1984	3.5
296.0987	33.6
296.1129	3.8
296.1467	5.1
296.1606	1.6
296.1854	29.6

Name: (2R)-3-sulfanyl-2-))(4R)-4-)(3R,5S,7R,8R,9S,10S,12S,13R,14S,17R)-3,7,12-trihydroxy-10,13-dimethyl-2,3,4,5,6,7,8,9,11,12,14,15,16,17-tetradecahydro-1H-cyclopenta)a(phenanthren-17-yl(pentanoyl(amino(propanoic acid
PrecursorMZ: 512.30369
RT: 0.619
ExactMass: 511.29675933
Spectrum_type: 2
charge: 1
Formula: C27H45NO6S
SMILES: C[C@H](CCC(=O)N[C@@H](CS)C(=O)O)[C@H]1CC[C@@H]2[C@@]1([C@H](C[C@H]3[C@H]2[C@@H](C[C@H]4[C@@]3(CC[C@H](C4)O)C)O)O)C
Method: HCD
Collision_energy: [28.333334]
Isolation_window: 4.0
Ion_mode: P
Num Peaks: 155
56.9231	1.0
59.0601	1.6
67.0540	1.3
69.0333	0.8
69.0696	2.1
70.0648	3.3
71.0488	1.7
72.0805	1.8
79.0538	0.8
81.0331	4.7
81.0703	3.6
83.0494	2.0
83.0860	1.9
84.0812	4.8
85.0643	1.8
86.0967	3.7
89.0599	2.3
91.0546	0.9
93.0701	2.5
95.0494	3.6
95.0859	4.5
97.0652	1.8
99.0443	0.9
99.0808	1.0
104.1073	2.5
105.0701	2.2
107.0494	1.8
107.0858	4.0
109.0650	2.0
109.1014	4.3
110.0596	0.8
111.0444	1.6
111.0808	1.1
112.0750	0.8
113.0598	1.2
116.0710	1.1
119.0857	3.3
120.0812	1.9
121.0651	2.5
121.1014	4.9
123.0445	1.1
123.0806	2.0
123.1169	2.0
125.0964	2.2
126.0218	1.0
126.0915	1.8
127.0754	0.9
127.1120	1.5
128.0709	0.9
130.0655	0.9
131.0854	1.6
133.0654	1.3
133.0862	1.5
133.1011	3.6
135.0809	1.7
135.1172	2.4
136.0749	1.4
137.0599	3.3
137.0962	2.2
138.0907	1.1
139.0758	1.1
139.1110	0.8
141.0659	9.6
143.0855	1.1
143.1071	1.3
145.1012	2.2
147.0808	1.4
147.1168	2.8
149.0598	1.4
149.0965	2.0
149.1327	1.5
150.0905	1.0
151.0758	1.6
151.1117	1.1
153.0914	1.1
155.1069	1.1
157.1013	1.4
159.1169	2.5
161.0598	1.0
161.0959	1.5
161.1327	2.3
163.0756	1.2
163.1117	1.6
164.0701	1.1
165.0912	1.7
166.0853	1.3
167.1068	1.0
171.1168	1.4
173.0956	0.8
173.1325	1.7
175.0755	1.0
175.1117	1.1
175.1487	1.6
177.0902	1.0
179.1058	1.0
180.1013	1.2
183.1159	1.0
184.0735	4.1
185.1318	1.2
187.1482	0.9
188.0696	0.9
189.1266	0.9
191.1424	0.8
197.1326	1.2
201.1637	1.0
203.1420	0.8
208.0267	0.8
211.1495	1.0
213.1638	1.2
215.1791	0.8
221.1291	0.8
229.1571	1.1
253.1957	1.1
255.2112	1.0
271.1443	2.4
272.1522	5.4
273.1571	1.7
273.2201	1.1
288.1227	2.1
396.2289	1.4
396.3269	1.3
412.3222	0.9
413.2065	1.2
414.2225	0.9
414.3369	100.0
415.3402	28.5
416.3434	4.4
417.3118	0.9
430.3322	5.0
432.3483	2.1
441.3413	1.7
459.3329	0.9
464.2826	3.1
465.2900	1.0
482.2885	1.0
494.2936	1.5
508.2712	1.3
510.2895	4.3
511.2894	1.2
512.1928	1.0
512.3049	16.8
513.3071	5.6
514.3103	1.7
515.3596	1.6
516.3552	1.5
518.3553	1.0
519.3428	9.1
520.3439	5.0
521.3191	3.4
522.2213	1.0
522.3545	1.6
523.3506	0.8
524.3812	1.0
527.3147	0.9
528.3070	1.4

Name: (2S)-2,3-Dihydro-6-(2-hydroxyethyl)-2-(hydroxymethyl)-2,5,7-trimethyl-1H-inden-1-one
PrecursorMZ: 249.14806
RT: 0.8675
ExactMass: 248.1412445
Spectrum_type: 2
charge: 1
Formula: C15H20O3
SMILES: CC1=CC2=C(C(=C1CCO)C)C(=O)[C@](C2)(C)CO
Method: HCD
Collision_energy: [28.333334]
Isolation_window: 4.0
Ion_mode: P
Num Peaks: 10
119.0854	14.0
147.1164	7.7
157.1009	100.0
158.1039	9.9
175.1113	33.4
185.1320	26.2
203.1425	6.2
231.1372	12.1
249.1117	7.4
249.1476	9.4

Name: (2S)-Isoxanthohumol
PrecursorMZ: 355.15365
RT: 1.2665
ExactMass: 354.1467238
Spectrum_type: 2
charge: 1
Formula: C21H22O5
SMILES: CC(=CCC1=C2C(=C(C=C1O)OC)C(=O)C[C@H](O2)C3=CC=C(C=C3)O)C
Method: HCD
Collision_energy: [28.333334]
Isolation_window: 4.0
Ion_mode: P
Num Peaks: 41
81.0702	0.4
95.0857	0.3
107.0493	1.3
121.0648	0.4
126.0914	0.4
145.0649	0.4
147.0440	5.0
148.0472	0.4
164.0707	1.5
165.0740	0.4
179.0175	0.4
179.0208	0.4
179.0338	63.8
179.0470	0.3
179.0501	0.5
180.0372	6.0
181.0393	0.3
193.0494	1.5
196.0968	1.3
197.0444	6.1
198.0477	0.5
223.0752	0.3
228.1231	0.3
235.0963	20.7
236.0997	2.7
257.0807	0.8
263.0913	0.3
281.0804	0.5
299.0911	24.6
300.0945	4.1
301.0966	0.4
354.1927	0.3
355.1082	0.5
355.1177	0.7
355.1537	100.0
355.1894	0.4
355.1998	0.6
355.2629	0.4
356.1570	22.5
357.1596	2.5
357.2786	0.4

Name: (2S,3R,3aS,7aR)-2-(4-hydroxy-3-methoxyphenyl)-3a,7a-dimethoxy-3-methyl-5-prop-2-enyl-3,7-dihydro-2H-1-benzofuran-6-one
PrecursorMZ: 375.17997
RT: 1.3293
ExactMass: 374.17293854
Spectrum_type: 2
charge: 1
Formula: C21H26O6
SMILES: C[C@@H]1[C@H](O[C@]2([C@@]1(C=C(C(=O)C2)CC=C)OC)OC)C3=CC(=C(C=C3)O)OC
Method: HCD
Collision_energy: [28.333334]
Isolation_window: 4.0
Ion_mode: P
Num Peaks: 20
57.0704	37.3
83.0495	17.9
85.0652	26.7
95.0494	26.6
109.0650	16.9
205.0498	17.2
263.1273	13.0
273.1124	14.3
275.1280	12.2
285.1118	11.3
287.1287	11.7
289.1068	38.3
339.1596	13.7
341.1743	13.5
357.1692	44.4
359.1852	32.5
375.1797	100.0
376.1812	18.2
376.2000	15.9
377.1953	56.5

Name: (2S,3R,5R,10R,13R,14S,17S)-2,3,14-Trihydroxy-10,13-Dimethyl-17-((2R,3R)-2,3,6-Trihydroxy-6-Methylheptan-2-Yl)-2,3,4,5,9,11,12,15,16,17-Decahydro-1H-Cyclopenta(A)Phenanthren-6-One
PrecursorMZ: 481.31509
RT: 2.5705
ExactMass: 480.30870374
Spectrum_type: 2
charge: 1
Formula: C27H44O7
SMILES: C[C@]12CCC3C(=CC(=O)[C@H]4[C@@]3(C[C@@H]([C@@H](C4)O)O)C)[C@@]1(CC[C@@H]2[C@](C)([C@@H](CCC(C)(C)O)O)O)O
Method: HCD
Collision_energy: [28.333334]
Isolation_window: 4.0
Ion_mode: P
Num Peaks: 122
67.0545	2.0
69.0405	4.3
69.0425	2.1
69.0701	28.3
69.1251	3.3
69.4127	2.3
69.5957	2.2
70.0734	2.1
79.0543	2.3
81.0700	22.3
83.0491	2.1
89.0598	4.3
93.0699	7.5
95.0492	4.1
95.0855	4.3
97.0648	13.1
97.1012	2.3
97.4575	2.3
99.0804	18.1
105.0698	3.6
107.0855	17.2
109.0647	3.5
109.1011	5.5
111.0804	2.6
119.0854	3.9
121.0647	3.3
121.1010	4.8
123.0802	12.7
123.1166	4.3
125.0959	22.8
126.0994	2.2
127.1115	5.8
131.0853	3.7
133.0858	2.3
133.1010	4.6
135.0802	3.0
135.1165	6.4
137.0958	2.3
143.0853	2.5
143.1064	6.6
145.1010	6.5
147.0801	2.7
147.1165	5.9
149.0959	2.9
149.1323	3.1
157.1007	2.9
159.0800	2.1
159.1165	4.8
161.0959	3.1
161.1321	2.4
163.1113	2.5
165.1271	62.6
166.1304	7.6
169.1005	2.2
171.0801	3.8
171.1163	2.5
173.0958	11.6
173.1321	3.2
175.1114	2.8
177.1269	3.7
179.1426	2.3
183.1164	2.2
185.1321	2.1
187.1114	5.8
187.1481	2.3
189.0904	2.5
191.1062	8.5
197.1323	3.1
201.1267	2.3
203.1426	2.0
205.1218	2.5
209.1319	2.0
213.1270	3.3
215.1424	3.7
219.1377	2.0
225.1270	3.3
227.1425	2.3
231.1373	3.6
233.1530	1.8
237.1630	2.2
243.1375	3.0
249.1481	6.6
254.1486	3.1
255.1735	4.6
265.1579	6.9
267.1735	2.5
283.1684	8.8
285.1842	4.6
293.1892	2.1
295.2050	4.6
299.1378	5.0
301.1790	8.6
302.1819	2.2
303.1946	10.2
304.1982	2.2
311.2001	4.0
313.2152	4.4
319.1893	5.4
329.2103	3.0
331.2256	4.7
335.1993	2.3
347.2207	3.0
353.2100	5.0
371.2206	73.4
372.2239	15.5
391.2620	3.6
409.2724	9.9
410.2759	2.5
427.2831	32.6
428.2866	8.5
445.2936	100.0
446.2970	27.7
447.2997	2.3
452.2156	2.2
462.2020	2.9
463.3043	19.8
464.3073	6.7
480.2101	9.4
481.2172	4.5
481.3157	9.2
482.2259	5.1
482.3193	3.2

Name: (2S,3R,5R,10R,13R,14S,17S)-2,3,14-trihydroxy-10,13-dimethyl-17-((2R,3R,5R)-2,3,6-trihydroxy-5,6-dimethylheptan-2-yl)-2,3,4,5,9,11,12,15,16,17-decahydro-1H-cyclopenta(a)phenanthren-6-one
PrecursorMZ: 495.33159
RT: 4.76615
ExactMass: 494.3243538
Spectrum_type: 2
charge: 1
Formula: C28H46O7
SMILES: C[C@H](C[C@H]([C@@](C)([C@H]1CC[C@@]2([C@@]1(CCC3C2=CC(=O)[C@H]4[C@@]3(C[C@@H]([C@@H](C4)O)O)C)C)O)O)O)C(C)(C)O
Method: HCD
Collision_energy: [28.333334]
Isolation_window: 4.0
Ion_mode: P
Num Peaks: 130
55.0546	6.4
67.0546	27.2
69.0702	28.4
70.0655	11.7
71.0495	17.5
71.0858	6.4
72.0811	13.9
79.0545	17.7
81.0337	8.9
81.0701	100.0
82.0735	6.5
83.0494	9.1
83.0858	19.5
85.0287	11.7
85.0650	41.6
86.0966	17.0
87.0443	13.4
91.0543	12.2
93.0700	23.4
95.0493	7.6
95.0857	58.6
97.0649	19.3
97.1013	7.9
99.0806	65.8
101.0598	16.9
105.0700	20.6
107.0856	31.6
109.0650	9.0
109.1013	32.2
111.0441	17.4
111.0804	19.1
113.0597	8.7
113.0961	10.6
115.0390	6.4
115.0754	9.7
116.0706	10.7
117.0699	9.4
119.0855	24.8
120.0807	12.5
121.0649	7.9
121.1012	20.5
123.0805	9.0
123.1169	6.4
125.0961	12.1
129.0546	7.9
129.0697	8.7
131.0854	22.2
133.1010	25.0
135.0804	12.0
135.1167	15.3
136.0756	6.4
137.0596	7.2
137.0960	10.8
139.0752	7.3
143.0855	9.7
145.1010	24.4
147.0806	10.5
147.1167	18.5
149.0960	13.9
149.1323	8.7
157.1011	13.2
159.1166	23.2
161.0960	15.8
161.1324	19.1
163.1114	10.1
164.0707	7.0
166.0864	10.1
169.1012	9.2
171.1167	17.9
173.1325	15.5
175.1116	8.3
175.1479	9.9
177.1274	6.7
183.1170	13.1
185.1322	19.8
187.1479	10.0
189.1274	9.9
191.1065	7.9
193.1223	9.0
197.1325	7.3
199.1480	7.8
201.1273	9.6
201.1636	7.8
203.1429	14.0
209.1324	7.3
211.1476	7.5
213.1270	7.2
215.1425	11.3
219.1378	15.2
221.1534	22.7
223.1475	8.7
223.1689	8.4
227.1429	6.7
237.1483	11.8
239.1643	9.0
247.1688	8.6
249.0868	6.8
259.1691	6.9
273.1844	6.4
275.1993	8.2
311.2008	7.0
313.2160	7.1
325.2157	8.2
329.2475	8.3
331.2622	7.3
361.2361	9.6
373.1755	15.3
405.2794	8.0
423.2890	16.3
425.3039	7.5
441.2990	22.7
442.3026	8.8
443.3140	15.1
458.2964	7.0
459.3095	39.6
460.3134	15.4
461.3265	12.5
476.3065	7.0
477.3202	39.1
478.3237	10.0
479.3352	11.5
494.1840	7.3
494.2275	24.7
494.3171	8.1
494.3477	12.5
495.3306	37.9
496.2037	8.6
496.2418	18.9
496.3323	11.1
497.3471	9.2

Name: (2S,4S)-2',10,11-trimethoxy-5-methylspiro)5-azatricyclo)6.3.1.04,12(dodeca-1(12),8,10-triene-2,4'-cyclohexa-2,5-diene(-1'-one
PrecursorMZ: 342.16948
RT: 1.895
ExactMass: 341.16270821
Spectrum_type: 2
charge: 1
Formula: C20H23NO4
SMILES: CN1CCC2=CC(=C(C3=C2[C@@H]1C[C@@]34C=CC(=O)C(=C4)OC)OC)OC
Method: HCD
Collision_energy: [28.333334]
Isolation_window: 4.0
Ion_mode: P
Num Peaks: 107
58.0656	8.1
70.0656	27.5
72.0812	8.4
81.0340	6.8
83.0498	4.0
84.0448	8.5
84.0812	11.6
86.0604	6.1
86.0969	5.1
95.0495	4.2
97.0290	3.9
98.0601	4.1
99.0444	4.0
100.0760	6.4
101.0601	6.4
102.0550	7.0
107.0494	78.1
108.0533	5.7
110.0603	4.3
110.0715	4.0
111.0444	10.5
112.0762	3.8
114.0551	6.2
116.0709	22.7
122.0611	3.6
123.0450	4.7
125.0605	3.4
126.0552	6.6
128.0715	6.3
130.0502	7.5
130.0652	6.3
130.0862	4.9
136.0763	3.5
137.0606	4.4
138.0551	13.9
139.0398	4.4
140.0710	4.3
142.0498	4.5
142.0865	4.2
144.1029	3.6
149.0607	3.7
152.0717	3.9
154.0873	3.6
163.0753	7.3
164.0703	4.4
165.0550	6.9
166.0504	4.2
166.0870	4.0
168.0653	8.0
170.0823	6.7
173.0598	5.3
173.0950	3.7
177.0561	3.9
180.0648	4.2
180.1014	4.6
181.0987	4.2
182.0807	8.2
186.0745	4.9
189.0547	10.1
191.1081	3.9
194.0806	3.9
225.0911	78.7
226.0959	9.7
239.1043	4.4
249.0942	3.8
265.0861	37.7
266.0890	7.3
267.1017	37.7
268.1032	6.5
285.1123	100.0
286.1152	18.0
295.0974	16.5
297.1124	26.8
298.1138	5.2
305.1766	4.1
313.0730	5.2
313.1094	23.4
314.1093	4.6
341.1447	5.8
341.1783	11.8
342.1699	45.6
343.1695	7.9
344.1388	6.7
345.1010	3.7
345.1411	5.1
345.1760	6.9
346.1569	3.9
347.1286	9.1
349.1460	3.8
350.1418	5.5
351.1169	5.0
351.1568	3.4
352.1811	5.4
353.1353	5.5
353.1762	4.3
354.1286	6.6
354.1724	3.4
354.3160	9.4
355.1514	5.6
356.1468	5.8
356.1873	6.1
357.1757	11.5
358.1577	8.6
359.1542	5.8
359.1954	5.7
360.1674	17.4
361.1707	3.5

Name: (2S,6R,8aS)-6-(2-hydroxypropan-2-yl)-8a-methyl-4-methylidene-1,2,3,4a,5,6,7,8-octahydronaphthalen-2-ol
PrecursorMZ: 256.22685
RT: 0.565
ExactMass: 238.193280068
Spectrum_type: 2
charge: 1
Formula: C15H26O2
SMILES: C[C@@]12CC[C@H](CC1C(=C)C[C@@H](C2)O)C(C)(C)O
Method: HCD
Collision_energy: [28.333334]
Isolation_window: 4.0
Ion_mode: P
Num Peaks: 140
57.0340	2.0
57.0704	17.4
58.0657	2.2
59.0496	6.2
62.0605	1.9
67.0547	10.2
69.0703	10.4
71.0495	4.1
71.0860	8.4
72.0449	2.5
73.0288	1.9
73.0652	5.2
79.0546	3.5
81.0703	17.2
83.0497	2.1
83.0859	12.5
85.0652	6.5
85.1015	4.0
87.0444	6.7
88.0760	4.2
89.0600	88.4
90.0634	3.3
91.0545	2.6
93.0702	7.7
95.0858	21.4
97.0650	4.3
97.1014	8.3
98.9844	35.8
99.0443	2.9
99.0807	4.9
100.0761	2.7
101.0599	4.5
101.0964	10.2
105.0701	4.2
106.0865	4.1
107.0706	8.5
107.0857	8.3
109.0650	2.7
109.1014	16.3
111.0445	1.8
111.0806	5.2
111.1169	3.6
113.0599	3.7
115.0756	8.5
116.0709	2.8
119.0857	6.0
120.0810	11.7
121.1013	11.2
122.0967	8.0
123.0807	4.7
123.1170	6.8
124.0760	4.7
125.0964	4.7
126.0916	3.3
127.0756	2.4
129.0184	10.9
131.0858	4.2
133.0861	32.0
133.1009	8.3
135.1170	8.7
137.0963	3.8
137.1328	3.2
139.0754	2.1
139.1119	3.4
143.1067	1.9
145.1021	3.8
145.1224	16.5
147.1170	6.3
148.0758	31.1
149.0795	2.4
149.0957	2.7
149.1326	5.2
150.0915	23.5
151.0966	11.2
151.1118	4.3
153.0912	3.6
155.0469	4.5
155.1066	1.9
157.1224	4.3
159.1167	4.6
161.1325	4.7
163.1117	2.1
163.1483	3.0
165.1282	2.1
173.1317	3.9
175.1484	4.2
177.1123	6.1
177.1639	2.0
185.0809	1.9
189.1483	2.0
195.1227	15.3
195.1377	1.9
200.2009	3.8
203.1796	4.1
207.1575	2.0
209.1171	5.1
211.1084	3.8
212.2013	2.4
215.0937	3.5
221.1894	2.3
223.1689	1.8
230.2135	2.6
230.2479	12.3
231.2507	2.2
237.1845	3.7
240.1960	12.2
240.2314	4.3
241.1975	4.2
245.1651	5.1
249.1862	2.7
251.1852	59.2
252.1884	8.2
254.2118	3.3
254.2477	1.9
256.2278	4.6
256.2629	3.4
257.1901	3.4
258.2427	14.6
259.1480	2.3
259.2056	5.2
259.2452	2.6
260.2235	4.2
260.2582	2.7
261.2209	3.8
262.1438	100.0
262.2380	5.9
263.1457	15.1
263.2391	1.8
265.1805	2.6
268.0959	2.6
271.1438	6.5
272.2584	5.5
273.1595	27.8
274.1070	24.0
274.1630	5.0
274.2740	75.7
275.1112	4.1
275.1745	8.2
275.2770	13.5
276.2309	4.9

Name: (2beta,3beta,9epsilon,17epsilon,22R)-2,3,14,20,22-Pentahydroxyergost-7-en-6-one
PrecursorMZ: 479.33683
RT: 1.4037
ExactMass: 478.32943918
Spectrum_type: 2
charge: 1
Formula: C28H46O6
SMILES: C[C@@H](C[C@H]([C@@](C)(C1CC[C@@]2([C@@]1(CCC3C2=CC(=O)C4[C@@]3(C[C@@H]([C@@H](C4)O)O)C)C)O)O)O)C(C)C
Method: HCD
Collision_energy: [28.333334]
Isolation_window: 4.0
Ion_mode: P
Num Peaks: 207
53.2598	4.6
55.0546	5.8
57.0703	8.4
67.0546	41.9
69.0702	47.3
70.0655	12.5
71.0494	15.7
71.0858	10.6
72.0811	5.4
79.0545	23.2
81.0337	6.4
81.0701	94.7
82.0735	6.4
83.0494	10.6
83.0857	20.0
85.0287	6.9
85.0650	39.2
85.1014	11.6
86.0966	12.3
87.0442	14.1
91.0544	13.4
93.0700	41.2
95.0492	6.8
95.0856	69.2
96.0889	5.3
97.0649	22.1
97.1013	8.0
99.0441	6.1
99.0805	52.7
100.0839	5.8
101.0598	21.0
105.0699	22.9
107.0492	4.5
107.0856	33.9
109.0649	18.4
109.1012	45.2
111.0441	17.2
111.0805	13.5
113.0597	9.0
113.0961	18.9
115.0391	8.5
116.0707	20.4
117.0699	9.7
119.0855	36.4
120.0807	30.5
121.0647	13.6
121.1011	33.8
123.0804	14.6
123.1167	8.9
125.0595	7.3
125.0960	14.5
127.0753	10.0
129.0544	9.0
129.0698	6.8
131.0854	27.4
133.0646	5.7
133.1011	28.1
135.0803	15.2
135.1167	16.5
136.0754	6.1
137.0595	25.9
137.0960	11.6
139.0752	8.0
139.1115	15.5
143.0702	4.0
143.0854	12.3
145.1010	32.0
146.1044	4.7
147.0803	11.9
147.1166	21.5
149.0960	18.8
149.1322	7.9
151.0752	4.8
151.1116	6.0
153.0905	5.6
155.0855	7.6
157.1010	15.4
159.1167	25.6
161.0960	11.2
161.1323	25.2
163.0751	5.2
163.1116	10.4
163.1480	11.9
165.0910	5.6
167.1066	8.2
169.1012	11.2
171.1165	14.5
173.0961	5.6
173.1324	14.8
175.1116	9.4
175.1479	10.3
177.1273	9.3
177.1635	5.7
179.1065	7.1
181.1011	4.0
181.1222	4.5
183.1167	11.2
185.1322	24.5
187.1114	8.0
187.1484	16.0
189.1268	7.0
189.1636	6.3
191.1065	4.1
191.1428	6.2
193.0963	5.3
193.1217	5.1
195.1166	6.0
195.1377	4.6
197.1322	10.9
199.1116	6.9
199.1479	10.9
201.1269	8.8
201.1632	6.9
203.1428	18.9
205.1584	11.5
209.1325	7.0
211.1479	6.7
213.1265	4.8
213.1635	5.7
215.1434	5.4
217.1220	5.5
217.1585	5.6
219.1377	9.0
219.1740	4.0
221.1532	30.2
222.1563	5.9
223.1477	5.9
223.1689	16.0
225.1270	4.2
225.1634	7.0
227.1426	4.7
229.1584	4.8
229.1950	4.0
231.1375	6.5
231.1739	7.0
233.1533	6.0
235.1686	6.9
237.1484	5.8
239.1639	12.2
239.1790	5.1
241.1581	4.8
243.1737	5.3
245.1533	4.6
247.1688	8.3
249.1849	5.7
251.1788	4.9
253.1584	4.9
253.1940	5.0
257.1529	4.1
261.1845	4.6
263.1386	6.7
269.1898	5.5
273.1230	4.0
287.2002	10.5
289.2158	6.5
299.1385	14.3
305.2107	4.1
311.2001	5.1
313.2161	9.7
315.1947	6.7
315.2315	6.8
319.1650	10.2
327.2311	8.9
329.2469	5.0
331.2259	4.5
331.2615	6.4
333.2415	6.5
333.2777	4.5
345.2407	5.1
347.2208	7.6
349.2354	5.2
351.2149	7.5
363.2512	6.2
406.1747	4.6
407.2934	14.2
409.2729	13.4
409.3080	5.0
416.2418	11.4
424.2919	4.5
425.3041	22.0
426.3071	7.7
427.2840	7.3
427.3191	6.5
442.3019	8.5
443.2785	4.2
443.3145	38.4
444.3177	13.7
445.2939	4.4
445.3297	8.5
452.2166	9.2
459.3096	4.0
460.3122	14.7
461.3254	58.1
462.2011	13.0
462.3285	17.8
463.3403	14.5
477.3207	4.0
478.1969	6.8
478.2280	4.9
478.3223	20.0
479.1788	5.7
479.3358	100.0
480.2116	32.2
480.2443	8.1
480.3387	31.2
481.2180	10.7
481.3513	44.9

Name: (3-(Benzyloxy)propyl)triphenylphosphonium
PrecursorMZ: 411.1873
RT: 10.5045
ExactMass: 411.18777751
Spectrum_type: 2
charge: 1
Formula: C28H28OP+
SMILES: C1=CC=C(C=C1)COCCC[P+](C2=CC=CC=C2)(C3=CC=CC=C3)C4=CC=CC=C4
Method: HCD
Collision_energy: [28.333334]
Isolation_window: 4.0
Ion_mode: P
Num Peaks: 9
89.0600	18.0
95.0607	68.4
114.1028	11.9
133.0860	12.2
316.1265	23.8
411.1876	100.0
412.1888	24.1
415.1436	26.0
416.1449	11.7

Name: (3-Carboxy-2-(R)-Hydroxy-Propyl)-Trimethyl-Ammonium
PrecursorMZ: 144.10186
RT: 9.3305
ExactMass: 162.11301837
Spectrum_type: 2
charge: 1
Formula: C7H16NO3+
SMILES: C[N+](C)(C)C[C@@H](CC(=O)O)O
Method: HCD
Collision_energy: [28.333334]
Isolation_window: 4.0
Ion_mode: P
Num Peaks: 7
58.0655	74.6
59.0733	38.5
84.0810	7.9
121.9661	13.5
144.1017	100.0
145.1050	10.6
146.0923	8.3

Name: (3S)-1-methyl-5-oxo-2-pyridin-3-ylpyrrolidine-3-carboxylic acid
PrecursorMZ: 221.09162
RT: 2.484
ExactMass: 220.08479225
Spectrum_type: 2
charge: 1
Formula: C11H12N2O3
SMILES: CN1C([C@H](CC1=O)C(=O)O)C2=CN=CC=C2
Method: HCD
Collision_energy: [28.333334]
Isolation_window: 4.0
Ion_mode: P
Num Peaks: 61
67.0545	0.8
69.0701	0.9
69.8175	0.6
70.0188	0.7
79.0543	0.9
81.0700	1.1
93.0447	1.1
93.0699	1.7
95.0604	1.8
95.0855	1.0
105.0699	0.9
107.0854	1.3
119.0854	0.9
120.0806	1.4
121.1009	0.8
123.0802	0.7
125.0229	0.6
147.1164	0.8
152.0340	1.3
159.1164	0.8
161.0706	1.1
161.0959	1.1
161.1321	1.6
163.0498	3.4
164.0702	1.8
165.0291	1.6
175.0862	1.7
176.0701	3.1
176.1064	0.7
177.0653	2.8
177.1017	1.3
178.0858	0.7
181.0602	1.6
185.1322	0.8
193.0965	1.1
202.0491	1.4
203.0809	0.9
203.1422	0.7
204.0649	2.4
209.0915	4.4
210.0949	0.7
219.1119	1.2
219.1374	0.9
220.0598	1.7
220.0962	2.5
220.1436	1.8
221.0551	1.1
221.0813	0.7
221.0914	100.0
221.1089	0.7
221.1268	2.3
221.1531	2.4
222.0758	6.6
222.0949	12.4
222.1113	2.8
222.1480	0.9
222.1589	1.6
223.0705	2.1
223.0818	1.1
223.1067	1.9
239.0658	0.9

Name: (3S)-3,7-diaminoheptanoic acid
PrecursorMZ: 161.12831
RT: 11.7214
ExactMass: 160.121177757
Spectrum_type: 2
charge: 1
Formula: C7H16N2O2
SMILES: C(CCN)C[C@@H](CC(=O)O)N
Method: HCD
Collision_energy: [28.333334]
Isolation_window: 4.0
Ion_mode: P
Num Peaks: 23
70.0654	100.0
84.0809	8.9
97.0286	5.9
98.0601	4.5
105.0335	8.3
116.0705	6.6
130.0860	87.0
131.0892	6.5
144.1016	12.9
159.1126	13.3
160.0754	38.7
160.0864	7.2
160.0967	13.1
160.1116	23.4
160.1332	6.9
160.9011	39.1
161.0707	5.1
161.1071	5.9
161.1281	9.2
162.0910	13.2
162.1124	7.5
163.0863	20.8
163.1227	43.0

Name: (3S,10S)-3-Isopropyl-6,10-Dimethylcyclodec-6-Ene-1,4-Dione
PrecursorMZ: 237.18465
RT: 4.94095
ExactMass: 236.177630004
Spectrum_type: 2
charge: 1
Formula: C15H24O2
SMILES: C[C@H]1CC/C=C(/CC(=O)[C@@H](CC1=O)C(C)C)\C
Method: HCD
Collision_energy: [28.333334]
Isolation_window: 4.0
Ion_mode: P
Num Peaks: 73
55.0546	2.0
57.0703	2.1
67.0547	8.2
69.0339	1.8
69.0703	8.9
71.0495	2.7
73.0651	2.0
79.0545	2.2
81.0702	34.4
82.0736	2.4
83.0858	8.0
85.0651	3.0
93.0701	4.9
95.0857	100.0
96.0891	6.6
97.0650	2.8
97.1014	11.7
99.0807	2.7
107.0857	9.4
109.0650	2.3
109.1013	54.3
110.1047	4.0
111.0805	2.5
111.1170	6.1
115.0755	3.8
119.0856	2.4
120.0809	38.2
121.0650	1.9
121.0841	2.7
121.1012	30.2
122.0603	2.4
122.1046	3.2
123.0805	3.4
123.1169	24.4
124.1202	2.3
125.0962	2.6
127.0753	1.8
133.1010	2.2
135.1168	5.5
136.0756	3.2
137.0962	2.2
137.1325	13.2
139.1117	9.2
141.0908	1.9
142.0499	3.2
145.1011	2.0
149.0960	2.1
149.1325	1.8
157.1223	7.0
159.1169	2.4
163.1116	5.6
164.0703	1.9
164.1069	2.2
167.1067	2.1
175.1483	2.6
177.1273	3.1
177.1637	15.7
181.1223	6.0
182.0810	3.6
191.1795	2.5
192.1019	3.4
201.1635	3.4
218.0811	2.2
219.1740	7.5
220.0969	2.5
236.0922	2.9
237.0861	2.2
237.1232	7.0
237.1489	3.5
237.1848	55.1
238.1071	5.2
238.1185	2.2
238.1882	8.0

Name: (3S,5aR,6R,7aS,14aR,14bR)-1,2,3,6,7,7a,10,14,14a,14b-Decahydro-6-hydroxy-3,13-dimethoxy-5,5,7a,9,14b-pentamethyl-5H-3,5a-epoxy-12H-furo(3,4-i)oxepino(4,3-a)xanthen-12-one
PrecursorMZ: 475.23238
RT: 0.9175
ExactMass: 474.22536804
Spectrum_type: 2
charge: 1
Formula: C26H34O8
SMILES: CC1=C2COC(=O)C2=C(C3=C1O[C@]4(C[C@H]([C@@]56[C@@]([C@H]4C3)(CC[C@@](O5)(OC6(C)C)OC)C)O)C)OC
Method: HCD
Collision_energy: [28.333334]
Isolation_window: 4.0
Ion_mode: P
Num Peaks: 10
69.0703	9.1
315.1588	8.7
329.1744	11.6
347.1851	22.2
457.2226	7.9
475.0593	12.2
475.2327	46.6
475.3252	100.0
476.2357	10.6
476.3286	23.3

Name: (4-(2-(1H-pyrazol-1-yl)ethyl)piperazin-1-yl)(benzo)d(thiazol-2-yl)methanone
PrecursorMZ: 342.13876
RT: 5.5043
ExactMass: 341.13103142
Spectrum_type: 2
charge: 1
Formula: C17H19N5OS
SMILES: C1CN(CCN1CCN2C=CC=N2)C(=O)C3=NC4=CC=CC=C4S3
Method: HCD
Collision_energy: [28.333334]
Isolation_window: 4.0
Ion_mode: P
Num Peaks: 93
60.0561	6.5
69.0340	5.6
70.0656	64.1
72.0812	9.0
74.0716	3.7
82.0655	3.7
84.0448	3.9
84.0812	39.0
85.0288	34.0
86.0969	4.9
87.0444	6.5
97.0287	20.2
100.0760	7.2
101.0599	9.2
105.0337	4.0
109.0287	4.4
112.0759	7.2
112.0872	27.0
114.0666	10.9
114.1029	16.8
116.0710	10.2
127.0392	39.1
128.0705	5.8
130.0865	32.1
132.0447	5.0
142.0869	4.6
144.1023	11.2
145.0497	27.7
146.0925	9.5
158.0928	4.8
163.0602	9.0
163.0753	7.2
175.1191	9.9
185.0914	4.5
186.0741	4.7
196.0961	8.6
197.0904	4.4
209.0922	4.1
221.1491	5.6
223.1550	9.2
225.1228	5.1
228.0988	5.1
231.1086	3.8
234.0766	4.0
245.1246	100.0
246.1283	11.2
255.1336	4.8
264.1468	5.9
267.1453	17.3
287.1231	4.6
296.0889	5.5
297.1517	4.8
301.1374	4.6
304.1383	4.6
311.0905	3.9
322.1492	17.6
323.1220	5.2
323.1545	5.1
325.1464	6.7
326.1458	3.8
328.1549	4.4
329.1441	4.0
331.1695	4.1
339.1640	3.9
340.1604	24.0
341.1728	28.3
342.1349	5.5
342.1748	13.7
343.1615	69.6
344.1587	19.3
344.1895	9.3
345.1721	19.9
346.1710	22.7
347.1508	21.9
348.1677	6.6
349.1718	28.5
350.0846	4.7
350.1536	33.7
351.1716	6.6
352.1565	7.5
353.1022	4.4
354.1752	44.9
354.3138	4.3
355.1382	7.1
355.1759	8.1
356.1918	16.6
357.1055	3.8
357.1762	78.8
358.1788	53.4
359.1425	8.1
359.1884	17.9
360.1891	22.1
361.1623	25.7

Name: (4S,5R,9R)-5,9-Dimethyl-14-methylidenetetracyclo)11.2.1.01,10.04,9(hexadec-10-ene-5-carboxylic acid
PrecursorMZ: 301.21598
RT: 0.5918
ExactMass: 300.208930132
Spectrum_type: 2
charge: 1
Formula: C20H28O2
SMILES: C[C@@]12CCC[C@@]([C@H]1CCC34C2=CCC(C3)C(=C)C4)(C)C(=O)O
Method: HCD
Collision_energy: [28.333334]
Isolation_window: 4.0
Ion_mode: P
Num Peaks: 376
55.0546	2.9
57.0339	1.6
57.0704	3.9
58.0656	3.4
59.0496	2.2
59.0608	1.3
60.0449	7.0
67.0547	10.9
69.0338	2.2
69.0703	9.9
70.0656	11.5
71.0496	5.0
71.0859	2.4
72.0812	6.9
74.0605	1.9
79.0546	6.7
81.0339	16.3
81.0702	29.8
82.0736	1.6
83.0496	4.0
83.0859	10.4
84.0447	1.4
84.0811	3.1
85.0286	1.5
85.0651	5.2
85.1015	1.2
86.0603	2.0
86.0968	17.0
87.0443	4.0
88.0760	1.3
89.0600	3.2
91.0545	9.7
93.0701	21.4
94.0735	1.3
95.0494	5.1
95.0858	37.7
96.0811	1.1
96.0889	2.9
97.0651	4.3
97.1014	6.0
97.3269	1.1
98.0603	3.5
98.0967	1.4
99.0443	9.8
99.0807	4.0
100.0763	1.6
101.0600	2.6
105.0701	19.5
106.0735	1.8
107.0494	12.3
107.0857	26.8
108.0891	2.2
109.0649	3.7
109.1014	19.8
110.0606	2.1
110.1048	1.8
111.0443	3.9
111.0807	5.4
111.1168	1.9
112.0761	2.2
112.1122	1.4
113.0599	2.3
113.0964	2.1
114.0917	3.9
114.1281	2.1
115.0391	1.7
115.0756	1.2
115.0868	1.3
116.0709	2.9
117.0699	4.0
118.0866	1.6
119.0857	20.9
120.0810	15.3
120.0891	1.7
121.0650	25.5
121.0840	1.1
121.1013	26.8
122.0600	1.5
122.0687	2.2
122.1047	2.8
123.0443	6.0
123.0805	6.0
123.1169	8.5
124.0759	4.4
125.0598	2.6
125.0962	4.7
126.0551	2.0
126.0914	1.5
126.1279	1.1
127.0754	2.3
127.1119	1.4
128.0707	1.2
128.1068	1.7
129.0698	1.4
131.0701	1.1
131.0858	13.0
132.0811	1.5
132.0895	1.3
132.1021	4.1
133.0653	1.4
133.0865	2.0
133.1012	24.0
134.0813	2.5
134.0961	2.8
134.1046	2.2
135.0807	4.5
135.1169	20.6
136.0758	3.7
136.1205	1.4
137.0599	4.1
137.0962	4.6
137.1325	2.6
138.0913	11.8
139.0757	3.2
139.1117	2.8
140.0704	1.9
140.1067	1.7
141.0910	3.2
141.1024	2.5
142.0865	1.2
143.0857	4.9
144.1022	1.7
144.1385	6.2
145.1012	73.9
146.0605	1.5
146.1046	8.7
146.1175	4.4
147.0440	2.2
147.0807	2.5
147.1169	19.1
148.0756	3.0
148.1212	2.2
149.0597	1.3
149.0962	6.6
149.1325	25.7
150.0902	1.6
150.1362	2.9
151.0763	2.3
151.0966	1.3
151.1118	4.8
152.0706	1.8
152.1062	1.7
153.0911	1.9
153.1275	1.2
154.0860	2.3
154.1225	6.3
155.0846	1.6
155.1065	1.2
156.1023	1.1
156.1387	2.3
157.1012	7.9
157.1333	2.1
158.1174	3.4
159.0809	1.5
159.1169	26.2
160.0748	1.9
160.1205	3.3
161.0959	3.2
161.1325	14.7
162.0550	1.4
162.0903	2.5
162.1362	2.0
163.0752	1.7
163.1116	7.6
163.1234	2.4
163.1481	4.6
164.0706	7.0
164.1056	2.0
165.0909	4.0
165.1272	2.1
166.0858	4.0
166.1222	3.4
167.1062	2.9
168.1017	9.2
169.0998	3.2
171.1167	8.5
172.1333	3.2
173.0954	2.2
173.1322	12.0
174.0899	1.7
174.1361	1.8
175.0968	1.3
175.1109	4.7
175.1482	4.5
176.0705	1.3
176.1067	1.2
177.0544	3.6
177.0901	1.6
177.1266	3.1
177.1637	1.6
178.0847	2.0
179.1058	3.0
179.1430	1.3
180.1013	3.8
181.0986	1.5
181.1215	2.2
182.0818	1.8
182.1172	1.1
183.1166	2.9
185.0958	1.2
185.1322	7.0
187.1121	2.5
187.1480	23.4
188.0711	1.2
188.1519	3.4
189.1276	4.8
189.1637	17.4
190.0854	3.7
190.1671	2.4
191.1056	2.1
191.1426	2.6
192.1005	2.0
193.1216	3.6
194.0809	1.3
195.1166	2.1
195.1379	1.1
196.0962	1.3
197.1323	3.2
199.1480	13.0
200.1519	2.0
201.0536	2.0
201.1258	3.8
201.1637	9.4
202.1663	1.9
203.0696	3.0
203.1069	1.2
203.1431	1.7
203.1801	1.8
205.1210	2.3
205.1590	1.5
206.0809	1.4
207.1375	6.8
209.1312	2.6
211.1477	3.4
212.2368	2.0
213.1294	1.6
213.1636	11.6
214.1225	1.6
214.1675	1.4
215.1430	1.5
215.1791	7.1
216.1019	1.2
216.1831	1.3
217.1577	1.2
219.0650	5.5
219.1377	4.0
221.1535	2.0
222.1127	1.3
223.1472	1.6
225.1645	4.2
227.1180	1.3
227.1430	1.8
227.1793	16.1
228.1255	1.3
228.1827	2.8
229.1328	2.3
229.1573	1.8
229.1946	1.2
231.1383	1.3
233.1528	1.5
239.1798	1.6
241.1579	2.2
241.1964	1.5
242.1173	1.5
243.1712	2.0
245.1278	2.9
245.1538	2.3
246.1359	5.4
247.1432	4.5
247.1692	1.2
253.1945	1.2
255.1139	1.5
255.1486	1.8
255.1738	1.9
255.2104	3.6
256.1337	3.2
257.1285	13.3
257.1646	27.6
258.1335	1.5
258.1690	4.3
259.1419	1.5
259.1687	1.8
265.1956	3.2
267.2097	1.1
273.1210	2.5
273.1586	3.1
273.1853	1.4
273.2188	2.3
275.2004	2.3
277.1810	1.1
277.2160	2.3
279.2332	1.5
282.2784	1.2
283.1073	3.9
283.1433	8.2
283.1708	1.3
283.2051	9.8
284.0912	1.3
284.1276	1.7
284.2081	2.7
284.2947	1.2
285.1234	6.6
286.1053	1.4
286.1315	2.1
287.1016	2.6
287.1381	5.4
289.1534	1.2
291.1223	16.1
291.1957	1.2
292.1248	2.5
293.2125	1.8
295.2270	2.4
297.1886	1.3
298.1542	1.3
299.1353	2.3
299.2003	1.7
300.1171	1.7
300.1487	8.5
300.1958	1.1
301.1177	4.6
301.1541	38.9
301.2156	66.0
302.1022	1.7
302.1384	7.0
302.1583	4.8
302.2189	14.5
303.1348	8.1
303.1695	1.2
303.2299	8.0
304.1170	2.9
304.1612	1.8
304.2336	1.4
304.2987	6.3
305.0926	1.2
305.1518	4.1
305.2455	1.5
305.3024	2.1
306.1346	2.6
307.1654	2.4
308.1446	1.6
308.1949	1.1
309.1225	24.2
309.1823	3.2
309.2572	100.0
310.1288	6.5
310.2608	25.0
311.1010	1.4
311.1365	1.6
311.1690	2.8
311.2655	3.4
312.1238	2.6
312.3613	1.3
313.1168	1.9
313.1543	2.7
313.2101	4.3
314.1017	2.6
314.1409	3.1
314.2101	1.2
314.2683	1.5
315.1366	3.0
315.1685	1.2
315.1942	1.3
315.2304	2.5
316.1207	2.7
316.1631	4.2
317.1148	1.2
317.1486	9.1
318.1357	3.4
318.3017	1.4
319.1323	2.4
319.1649	48.5
319.2216	13.2
320.1166	2.2
320.1696	8.3
320.2328	2.0
320.2903	2.8

Name: (5E)-2-heptyl-3,4,7-trihydroxy-2,3,4,7,8,9-hexahydrooxecin-10-one
PrecursorMZ: 323.18243
RT: 3.6499
ExactMass: 300.19367399
Spectrum_type: 2
charge: 1
Formula: C16H28O5
SMILES: CCCCCCCC1C(C(/C=C/C(CCC(=O)O1)O)O)O
Method: HCD
Collision_energy: [28.333334]
Isolation_window: 4.0
Ion_mode: P
Num Peaks: 14
70.0656	7.6
98.9846	13.4
122.0815	37.9
210.0796	18.6
263.1506	13.9
264.1098	8.3
264.1341	40.0
306.1574	8.7
323.1848	100.0
324.1517	7.8
324.1872	17.3
330.3366	10.3
336.1674	64.1
337.1720	10.1

Name: (6aR,9R,9aR)-9-acetyl-3-((1E,3E,5S)-3,5-dimethylhepta-1,3-dienyl)-6a-methyl-9,9a-dihydrofuro(2,3-h)isochromene-6,8-dione
PrecursorMZ: 405.16717
RT: 0.8932
ExactMass: 382.17802393
Spectrum_type: 2
charge: 1
Formula: C23H26O5
SMILES: CC[C@H](C)/C=C(\C)/C=C/C1=CC2=CC(=O)[C@]3([C@@H](C2=CO1)[C@@H](C(=O)O3)C(=O)C)C
Method: HCD
Collision_energy: [28.333334]
Isolation_window: 4.0
Ion_mode: P
Num Peaks: 16
83.0495	11.2
97.3995	9.3
369.1672	10.3
385.1992	7.3
387.1779	61.0
388.1815	11.7
403.1511	14.0
404.1146	9.7
404.1541	29.1
405.1091	10.5
405.1672	100.0
405.1892	27.8
405.2251	9.4
406.1703	20.2
406.1931	11.9
407.1682	7.4

Name: (8Z)-8-ethylidene-3-hydroxy-2-methoxy-5,6a,7,9-tetrahydropyrrolo(2,1-c)(1,4)benzodiazepine-6,11-dione
PrecursorMZ: 289.11754
RT: 5.2043
ExactMass: 288.111007
Spectrum_type: 2
charge: 1
Formula: C15H16N2O4
SMILES: C/C=C\1/CC2C(=O)NC3=CC(=C(C=C3C(=O)N2C1)OC)O
Method: HCD
Collision_energy: [28.333334]
Isolation_window: 4.0
Ion_mode: P
Num Peaks: 37
55.0545	3.5
83.0856	6.7
97.0647	3.0
107.0490	8.7
107.0602	4.7
108.0442	3.8
119.0602	2.7
122.0597	8.9
124.0753	2.6
126.0910	19.8
136.0753	23.5
138.0909	26.8
139.0943	2.2
140.1065	2.5
144.1017	2.5
150.0545	8.8
152.0702	7.0
164.0701	100.0
165.0544	3.4
165.0655	7.6
165.0735	9.1
166.0857	6.8
184.0033	2.7
225.1014	7.8
230.1170	2.2
271.1067	37.4
272.1103	6.9
272.1274	2.3
288.0863	3.1
288.1211	2.3
289.1171	18.0
289.1529	10.8
290.1007	2.3
290.1208	2.7
290.1378	2.5
291.1692	7.0
291.2419	3.2

Name: (E)-1-(2-(Hydroxymethyl)pyrrolidin-1-yl)-2-methyldec-8-ene-1,3-dione
PrecursorMZ: 264.19551
RT: 6.5188
ExactMass: 281.19909372
Spectrum_type: 2
charge: 1
Formula: C16H27NO3
SMILES: C/C=C/CCCCC(=O)C(C)C(=O)N1CCCC1CO
Method: HCD
Collision_energy: [28.333334]
Isolation_window: 4.0
Ion_mode: P
Num Peaks: 10
55.0546	12.3
101.0598	30.1
164.1432	34.3
165.1384	14.5
264.1230	7.2
264.1453	33.1
264.1952	100.0
265.1889	40.3
266.1378	7.4
266.1739	6.2

Name: (E)-7-methylidene-10-oxo-4-propan-2-ylundec-5-enoic acid
PrecursorMZ: 235.1689
RT: 5.5732
ExactMass: 252.17254462
Spectrum_type: 2
charge: 1
Formula: C15H24O3
SMILES: CC(C)C(CCC(=O)O)/C=C/C(=C)CCC(=O)C
Method: HCD
Collision_energy: [28.333334]
Isolation_window: 4.0
Ion_mode: P
Num Peaks: 74
67.0546	6.8
69.0338	5.7
69.0702	18.9
73.0651	8.7
74.0604	34.3
75.0637	5.3
79.0545	5.7
81.0338	7.1
81.0701	23.8
83.0858	10.0
85.0651	6.5
86.0967	44.5
87.1000	19.5
93.0700	26.3
95.0605	18.7
95.0857	34.8
105.0700	13.6
107.0856	69.9
108.0444	17.3
109.1013	13.6
119.0855	47.3
120.0807	14.4
121.1012	35.2
123.0804	10.0
130.0496	12.1
132.1020	6.1
133.1010	38.0
135.1167	34.8
137.0961	7.8
145.1011	6.4
147.1167	17.5
157.1012	7.6
159.1166	6.2
160.0869	5.3
162.1025	34.3
166.0861	10.1
173.1323	27.6
175.1116	12.9
175.1480	56.5
176.1511	6.9
177.1272	11.6
187.8825	10.8
189.1269	6.4
189.1636	14.4
189.8809	10.2
190.0870	6.3
191.0814	10.4
191.1428	30.5
193.0718	9.3
194.0479	11.1
199.1479	13.7
205.0493	20.4
206.0921	6.9
210.8985	9.1
212.8964	7.7
216.1228	6.4
217.1584	29.0
218.0813	8.1
218.1617	5.1
234.0785	43.9
234.1121	11.8
234.1332	7.7
234.1851	5.2
235.1076	17.3
235.1322	6.9
235.1438	8.5
235.1689	100.0
236.0920	34.5
236.1279	10.1
236.1640	8.7
236.1729	14.2
237.0866	75.4
237.0982	18.5
237.1229	11.4

Name: (S)-(5-bromo-1H-indol-3-yl)((R)-1-methylpyrrolidin-2-yl)methanol
PrecursorMZ: 291.04883
RT: 5.9823
ExactMass: 308.05243
Spectrum_type: 2
charge: 1
Formula: C14H17BrN2O
SMILES: CN1CCC[C@@H]1[C@H](C2=CNC3=C2C=C(C=C3)Br)O
Method: HCD
Collision_energy: [28.333334]
Isolation_window: 4.0
Ion_mode: P
Num Peaks: 41
72.0812	3.4
81.0339	5.6
86.0968	5.0
97.0286	2.1
98.0968	1.7
106.0653	3.3
111.0443	5.2
114.0664	1.6
125.0711	3.1
126.0551	1.7
127.0392	3.1
128.0707	1.6
143.1183	1.7
157.1337	5.2
175.0017	100.0
176.0051	5.2
176.9998	5.7
185.1284	2.2
205.0496	1.9
216.0869	2.8
223.0601	5.4
260.1392	5.5
272.1135	3.0
289.0894	1.6
289.1396	2.5
289.1549	1.6
290.1027	5.6
290.1233	7.5
290.1387	9.0
290.2327	2.9
291.0489	52.9
291.1074	1.6
291.1333	6.3
292.0525	5.2
292.1168	10.2
292.1413	10.3
292.1540	2.6
292.1668	8.6
293.0470	2.4
293.1130	1.6
293.1492	3.7

Name: (S)-3-Amino-5-methyl-hexanoic acid
PrecursorMZ: 146.11749
RT: 1.263
ExactMass: 145.110278721
Spectrum_type: 2
charge: 1
Formula: C7H15NO2
SMILES: CC(C)C[C@@H](CC(=O)O)N
Method: HCD
Collision_energy: [28.333334]
Isolation_window: 4.0
Ion_mode: P
Num Peaks: 3
86.0966	100.0
87.0999	7.8
148.1118	7.2

Name: (S)-N-((R)-1-((2-amino-2-oxoethyl)amino)-4-methyl-1-oxopentan-2-yl)-1-(2-((3-(2,3-dihydrobenzo(b)(1,4)dioxin-6-yl)-2-methyl-4-oxo-4H-chromen-7-yl)oxy)acetyl)pyrrolidine-2-carboxamide (M+H)+
PrecursorMZ: 635.27084
RT: 0.9362
ExactMass: 634.2638788
Spectrum_type: 2
charge: 1
Formula: C33H38N4O9
SMILES: CC1=C(C(=O)C2=C(O1)C=C(C=C2)OCC(=O)N3CCCC3C(=O)NC(CC(C)C)C(=O)NCC(=O)N)C4=CC5=C(C=C4)OCCO5
Method: HCD
Collision_energy: [28.333334]
Isolation_window: 4.0
Ion_mode: P
Num Peaks: 22
163.0864	12.6
164.0703	19.7
208.1202	17.0
212.0790	6.0
235.1073	52.3
236.1155	21.4
261.0864	19.2
263.1022	22.1
264.1101	24.8
265.1177	10.6
307.1281	20.6
309.1439	17.2
326.1492	16.4
335.1234	14.2
358.1393	13.3
371.1832	12.5
399.1780	26.2
427.1727	21.7
472.2071	30.0
473.2115	6.6
635.2703	100.0
636.2726	25.1

Name: 1,1'-Didodecyl 3,3'-sulfinyldipropanoate
PrecursorMZ: 531.4074
RT: 0.9985999999999999
ExactMass: 530.40049612
Spectrum_type: 2
charge: 1
Formula: C30H58O5S
SMILES: CCCCCCCCCCCCOC(=O)CCS(=O)CCC(=O)OCCCCCCCCCCCC
Method: HCD
Collision_energy: [28.333334]
Isolation_window: 4.0
Ion_mode: P
Num Peaks: 20
57.0703	23.9
69.0702	7.6
69.0891	7.6
71.0858	24.3
73.0287	21.5
83.0858	5.5
85.1014	14.8
97.1012	9.5
97.4576	6.6
105.0005	100.0
111.1168	6.9
123.0109	5.8
139.9144	4.4
273.1878	7.3
291.1983	6.7
345.2086	13.1
399.3260	5.3
531.4075	17.8
532.4102	5.0
533.2790	7.4

Name: 1,2-Benzenediol, 4-(2-amino-1-hydroxyethyl)-
PrecursorMZ: 152.07062
RT: 6.2565
ExactMass: 169.07389321
Spectrum_type: 2
charge: 1
Formula: C8H11NO3
SMILES: C1=CC(=C(C=C1C(CN)O)O)O
Method: HCD
Collision_energy: [28.333334]
Isolation_window: 4.0
Ion_mode: P
Num Peaks: 85
67.0546	4.8
69.0337	2.0
69.0701	1.0
70.0654	3.7
71.0495	1.3
79.0545	4.5
80.0497	2.3
81.0337	1.6
81.0701	6.0
82.0653	3.0
83.0494	2.3
84.0446	3.1
91.0543	3.2
93.0700	5.4
94.0652	2.8
95.0492	2.5
95.0856	1.7
96.0445	3.9
96.0808	2.1
97.0648	1.7
98.0601	2.8
100.0394	3.2
105.0699	3.7
106.0651	3.4
107.0491	3.9
107.0602	1.1
107.0730	2.3
107.0855	6.6
108.0444	2.7
108.0808	1.5
109.0648	3.8
109.0760	18.7
109.1012	1.7
110.0237	1.8
110.0600	6.3
110.0793	1.1
111.0441	2.5
111.0804	1.6
112.0392	1.3
112.0757	3.2
122.0600	4.7
123.0439	1.4
123.0803	2.6
124.0392	5.0
124.0756	8.3
125.0597	1.5
125.0708	11.6
126.0548	1.3
126.0912	17.2
133.0759	1.9
133.1010	5.1
134.0598	11.9
135.0436	1.5
135.0551	1.2
135.0803	1.3
136.0389	3.1
136.0755	2.7
137.0467	1.7
150.0549	3.1
150.0912	9.3
150.1275	2.3
151.0387	1.7
151.0504	2.0
151.0617	4.2
151.0753	3.4
151.0866	6.0
151.0945	1.9
151.1116	9.3
151.1222	1.3
152.0341	5.5
152.0567	42.7
152.0704	100.0
152.0813	1.3
152.1068	12.3
153.0412	1.3
153.0543	3.6
153.0599	2.2
153.0658	15.4
153.0738	7.2
153.0907	2.7
153.1021	3.0
154.0497	5.0
154.0860	47.6
154.0969	17.7
154.1221	1.3

Name: 1-(((5-Aminonaphthalen-1-yl)amino)methylidene)-7-(8-(((5-aminonaphthalen-1-yl)amino)methylidene)-1,6-dihydroxy-3-methyl-7-oxo-5-propan-2-ylnaphthalen-2-yl)-3,8-dihydroxy-6-methyl-4-propan-2-ylnaphthalen-2-one
PrecursorMZ: 400.17792
RT: 0.3975
ExactMass: 798.3417352
Spectrum_type: 2
charge: 1
Formula: C50H46N4O6
SMILES: CC1=CC2=C(C(=CNC3=CC=CC4=C3C=CC=C4N)C(=O)C(=C2C(C)C)O)C(=C1C5=C(C6=C(C=C5C)C(=C(C(=O)C6=CNC7=CC=CC8=C7C=CC=C8N)O)C(C)C)O)O
Method: HCD
Collision_energy: [28.333334]
Isolation_window: 4.0
Ion_mode: P
Num Peaks: 11
89.0600	8.7
133.0861	6.2
384.2358	6.1
400.1780	100.0
400.2844	5.5
400.6796	45.4
401.1784	29.9
401.6791	7.8
761.3925	47.1
762.3966	19.2
763.3976	6.6

Name: 1-(1,3-Benzodioxol-5-yl)-3-(3,4-dimethoxyphenyl)prop-2-en-1-one
PrecursorMZ: 313.10676
RT: 6.8362
ExactMass: 312.09977361
Spectrum_type: 2
charge: 1
Formula: C18H16O5
SMILES: COC1=C(C=C(C=C1)C=CC(=O)C2=CC3=C(C=C2)OCO3)OC
Method: HCD
Collision_energy: [28.333334]
Isolation_window: 4.0
Ion_mode: P
Num Peaks: 31
97.3993	0.9
107.0493	1.0
119.0493	4.8
121.0284	1.1
123.0440	1.5
147.0318	0.8
147.0440	100.0
148.0473	8.8
149.0597	70.3
150.0630	6.3
159.0441	1.9
173.0596	3.6
175.0753	0.9
201.0545	4.3
211.0753	1.8
219.0650	5.9
220.0683	0.7
225.0910	2.0
235.0752	0.8
249.0908	2.2
253.0857	6.5
254.0898	0.9
267.1012	3.3
271.0963	9.1
272.0996	1.8
277.0855	1.4
295.0961	12.0
296.0994	1.9
312.3625	0.8
313.1066	13.1
314.1099	2.3

Name: 1-(1-Benzyl-2,5-dioxopyrrolidin-3-yl)piperidine-4-carboxamide
PrecursorMZ: 316.16529
RT: 4.6737
ExactMass: 315.15829154
Spectrum_type: 2
charge: 1
Formula: C17H21N3O3
SMILES: C1CN(CCC1C(=O)N)C2CC(=O)N(C2=O)CC3=CC=CC=C3
Method: HCD
Collision_energy: [28.333334]
Isolation_window: 4.0
Ion_mode: P
Num Peaks: 20
72.0811	7.9
82.0654	0.6
84.0758	0.6
84.0810	100.0
84.0851	0.5
84.0863	0.7
84.1059	0.4
85.0781	0.3
85.0843	4.6
86.0966	0.7
89.0599	0.4
112.8959	0.5
171.1490	4.9
172.1522	0.4
187.1079	0.3
199.1438	4.1
217.1542	0.7
316.1649	36.8
316.2228	0.5
317.1685	6.1

Name: 1-(2,5-Difluorophenyl)-3-(3-(4-methoxyphenyl)-2-methyl-4-oxo-3,4-dihydroquinazolin-6-yl)urea
PrecursorMZ: 437.14172
RT: 3.4144
ExactMass: 436.13469677
Spectrum_type: 2
charge: 1
Formula: C23H18F2N4O3
SMILES: CC1=NC2=C(C=C(C=C2)NC(=O)NC3=C(C=CC(=C3)F)F)C(=O)N1C4=CC=C(C=C4)OC
Method: HCD
Collision_energy: [28.333334]
Isolation_window: 4.0
Ion_mode: P
Num Peaks: 3
437.1415	100.0
437.3015	11.1
438.1444	19.0

Name: 1-(2-(3,4-dimethoxyphenyl)-1-hydroxy-4-methyl-1H-imidazol-5-yl)ethanone
PrecursorMZ: 277.11767
RT: 6.8078
ExactMass: 276.111007
Spectrum_type: 2
charge: 1
Formula: C14H16N2O4
SMILES: CC1=C(N(C(=N1)C2=CC(=C(C=C2)OC)OC)O)C(=O)C
Method: HCD
Collision_energy: [28.333334]
Isolation_window: 4.0
Ion_mode: P
Num Peaks: 73
69.6468	1.4
70.0653	2.0
81.0336	1.1
84.0446	1.5
84.0807	0.9
86.0965	1.3
88.0393	1.0
96.0442	1.1
103.0539	1.9
116.0704	1.5
120.0806	4.5
126.0545	0.8
129.0656	1.3
130.0649	1.5
131.0488	2.2
141.0656	1.1
144.1013	1.0
146.0597	5.2
157.0758	2.2
158.0597	20.7
162.0908	1.0
166.0859	2.5
168.0804	3.0
173.0705	6.3
174.0544	2.5
175.0862	2.8
185.1068	21.0
186.1101	2.7
190.0859	1.1
201.0653	1.9
202.0493	5.4
204.0874	1.1
215.0805	2.7
217.0966	3.4
218.0805	1.1
219.0758	3.3
229.1539	0.9
230.0914	0.9
230.1380	3.7
231.1121	64.3
232.0825	5.7
232.0974	1.2
232.1157	9.1
233.1277	1.3
234.1845	4.5
243.0757	1.5
258.0753	1.0
258.1329	2.5
259.0687	1.1
259.1068	3.4
260.0768	7.1
260.0907	8.1
260.1023	2.2
261.0858	2.8
261.0943	1.0
275.1377	2.4
275.1592	1.8
276.0847	2.3
276.1216	6.9
276.1424	3.6
276.1586	0.8
276.1941	1.1
277.0786	1.3
277.1173	100.0
277.1511	1.2
278.0872	9.7
278.1013	9.4
278.1130	3.7
278.1206	15.1
278.1361	5.5
279.0937	2.7
279.1332	8.5
279.1689	2.5

Name: 1-(5-Hydroxy-1-(2-hydroxy-ethyl)-2-methyl-1H-indol-3-yl)-ethanone
PrecursorMZ: 234.11233
RT: 8.6698
ExactMass: 233.10519334
Spectrum_type: 2
charge: 1
Formula: C13H15NO3
SMILES: CC1=C(C2=C(N1CCO)C=CC(=C2)O)C(=O)C
Method: HCD
Collision_energy: [28.333334]
Isolation_window: 4.0
Ion_mode: P
Num Peaks: 37
60.0812	1.4
84.0811	1.2
87.0444	1.7
88.0759	1.3
101.0599	2.8
109.0762	1.4
120.0807	1.7
121.0886	1.5
133.0760	3.1
135.0553	1.3
135.0917	2.5
143.0339	16.9
150.0913	1.7
175.0601	2.4
188.1282	1.6
190.0977	1.5
192.1129	2.9
210.8987	1.1
216.1018	22.9
217.1056	3.5
217.1330	1.6
232.1333	3.8
233.0918	6.2
233.1282	13.2
233.1371	1.3
234.0874	1.6
234.0991	2.7
234.1124	100.0
234.1324	23.3
235.1075	29.2
235.1167	9.3
235.1441	33.4
236.0915	7.3
236.1026	2.4
236.1117	1.5
236.1280	37.8
236.1478	3.6

Name: 1-Methylhydantoin
PrecursorMZ: 115.0503
RT: 5.6129
ExactMass: 114.042927438
Spectrum_type: 2
charge: 1
Formula: C4H6N2O2
SMILES: CN1CC(=O)NC1=O
Method: HCD
Collision_energy: [28.333334]
Isolation_window: 4.0
Ion_mode: P
Num Peaks: 19
58.0655	1.1
70.0654	5.1
72.0447	1.5
72.0811	0.5
73.0399	4.3
79.0545	0.5
86.0603	1.1
87.0554	1.3
88.0394	2.0
95.0606	0.6
114.0914	8.1
115.0418	0.8
115.0502	100.0
115.0586	0.7
115.0947	0.7
116.0476	0.7
116.0534	4.2
116.0706	1.1
116.1069	1.5

Name: 1-hydroxy-N-(6-methoxy-2,3,4,9-tetrahydro-1H-carbazol-1-yl)isoquinoline-4-carboxamide
PrecursorMZ: 388.17069
RT: 7.6727
ExactMass: 387.15829154
Spectrum_type: 2
charge: 1
Formula: C23H21N3O3
SMILES: COC1=CC2=C(C=C1)NC3=C2CCCC3NC(=O)C4=CNC(=O)C5=CC=CC=C54
Method: HCD
Collision_energy: [28.333334]
Isolation_window: 4.0
Ion_mode: P
Num Peaks: 11
70.0654	13.9
84.0810	12.5
114.0549	10.1
142.0862	16.5
198.1234	9.1
242.1500	11.8
298.1391	9.1
370.1596	12.5
387.2718	7.5
388.1710	100.0
389.1760	16.4

Name: 12(13)Ep-9-KODE
PrecursorMZ: 293.21091
RT: 4.9199
ExactMass: 310.21440943
Spectrum_type: 2
charge: 1
Formula: C18H30O4
SMILES: CCCCCC1C(O1)/C=C/C(=O)CCCCCCCC(=O)O
Method: HCD
Collision_energy: [28.333334]
Isolation_window: 4.0
Ion_mode: P
Num Peaks: 193
55.0182	1.6
55.0546	1.5
57.0340	2.4
67.0546	15.0
69.0339	3.6
69.0703	11.7
70.0655	1.7
71.0495	4.3
71.0859	5.9
79.0546	9.1
81.0338	6.9
81.0702	20.2
82.0735	1.4
83.0494	3.6
83.0859	7.8
85.0651	5.4
86.0967	7.1
91.0545	9.3
93.0701	15.4
94.0735	2.0
95.0493	8.4
95.0857	21.7
96.0891	1.8
97.0650	7.3
97.1014	6.1
99.0806	6.5
100.0758	1.5
101.0599	3.6
105.0700	11.6
106.0734	1.8
107.0493	4.1
107.0857	16.7
108.0445	1.4
108.0809	2.1
108.0891	2.1
109.0649	9.4
109.1013	13.5
110.0602	2.6
110.0683	1.6
110.1047	1.4
111.0806	5.3
112.0759	1.5
113.0597	1.6
113.0962	1.8
116.0709	1.9
117.0699	3.8
119.0492	4.3
119.0857	15.0
120.0889	1.5
121.0649	6.3
121.1013	13.1
122.0601	2.7
123.0805	6.7
123.1168	3.3
124.0839	1.6
125.0961	9.3
126.0914	1.5
127.0753	1.4
129.0697	1.8
131.0856	9.4
132.1019	3.3
133.0647	1.5
133.1012	13.3
134.1045	1.7
135.0804	5.6
135.1168	10.3
136.0757	100.0
137.0595	1.4
137.0960	7.1
139.0754	1.5
139.1117	3.9
141.0910	1.7
143.0854	2.9
145.1012	9.3
146.1042	1.9
147.0805	3.5
147.1169	8.8
148.1200	1.4
149.0961	11.2
149.1073	1.4
149.1325	4.6
150.0913	3.0
150.0991	3.0
151.0751	2.1
151.1117	15.2
152.1151	1.7
153.0909	2.3
157.1013	3.3
159.1168	7.5
160.1203	1.4
161.0961	4.6
161.1324	4.4
162.0550	3.7
162.0914	1.7
163.1117	7.9
164.0707	2.7
165.0909	2.5
165.1275	3.2
166.0862	2.8
167.0703	1.7
167.0895	1.6
167.1066	1.4
168.1019	9.2
171.1166	3.1
173.1325	4.9
175.1116	3.5
175.1485	2.0
176.0706	1.9
177.1274	6.1
178.0863	1.9
179.1066	2.7
179.1431	1.9
185.1322	3.5
187.1114	1.5
187.1479	1.7
189.1122	2.3
189.1275	1.7
190.0863	1.4
191.1427	2.0
192.0847	1.7
192.1022	2.2
192.1128	2.3
193.0970	2.6
193.1224	1.9
193.1335	1.4
195.1378	1.5
201.1638	1.7
202.0862	2.2
205.1221	1.5
207.1380	1.4
217.1584	1.5
219.1378	2.3
219.1740	2.4
220.0968	10.8
221.1537	2.4
228.1017	1.6
229.1950	2.7
230.1176	1.5
232.0965	2.9
233.1536	1.6
239.1792	3.0
241.1951	1.4
246.1122	6.8
247.2058	2.1
249.1599	3.8
250.1435	1.4
256.0966	2.1
257.1537	1.5
257.1898	6.4
258.1123	1.7
258.1935	1.8
264.1224	2.4
265.1544	5.6
273.1846	2.6
274.1069	14.6
274.1437	1.6
274.1884	4.7
275.1113	1.6
275.1390	2.8
275.1640	1.7
275.2003	37.0
276.0865	1.6
276.1219	5.7
276.1596	1.8
276.2039	8.2
277.1548	1.8
277.2162	11.4
278.1388	2.2
291.1952	8.2
292.1179	38.7
292.1367	15.5
292.1536	3.4
292.1639	2.9
292.1992	21.1
293.0942	2.2
293.1137	10.2
293.1492	15.9
293.1874	8.4
293.2111	38.3
294.0780	1.4
294.0967	4.6
294.1144	1.8
294.1322	13.5
294.1465	2.5
294.1698	3.2
294.1833	3.3
294.2156	6.0
295.1080	1.7
295.1288	3.6
295.1481	1.4
295.1648	23.1
295.1877	2.1
295.2267	6.8

Name: 2,2'-((2,4,7,9-Tetramethyldec-5-yne-4,7-diyl)bis(oxy))diethanol
PrecursorMZ: 332.27928
RT: 1.1148
ExactMass: 314.24570956
Spectrum_type: 2
charge: 1
Formula: C18H34O4
SMILES: CC(C)CC(C)(C#CC(C)(CC(C)C)OCCO)OCCO
Method: HCD
Collision_energy: [28.333334]
Isolation_window: 4.0
Ion_mode: P
Num Peaks: 22
57.0703	9.7
59.0496	8.8
69.0702	10.3
83.0858	17.5
93.0701	10.9
95.0857	40.2
97.0649	11.3
107.0704	3.4
107.0856	25.3
109.1013	28.4
121.1012	23.0
125.0961	6.5
135.1167	100.0
136.1200	10.3
149.1325	9.8
151.1480	3.3
153.1274	33.3
191.1792	79.5
192.1825	11.7
209.1898	10.7
297.2423	4.3
331.1514	8.2

Name: 2,2'-Anhydrouridine
PrecursorMZ: 227.06614
RT: 4.8063
ExactMass: 226.05897142
Spectrum_type: 2
charge: 1
Formula: C9H10N2O5
SMILES: C1=CN2[C@H]3[C@H]([C@@H]([C@H](O3)CO)O)OC2=NC1=O
Method: HCD
Collision_energy: [28.333334]
Isolation_window: 4.0
Ion_mode: P
Num Peaks: 215
56.0500	2.4
57.0340	3.0
58.0657	5.1
67.0547	3.0
68.0499	4.2
69.0340	5.6
69.0703	2.5
70.0292	4.4
70.0656	35.7
71.0497	3.1
72.0449	3.6
72.0812	3.3
74.0241	4.0
74.0606	7.2
75.0444	3.0
79.0545	2.3
80.0500	11.5
81.0340	8.0
81.0703	3.7
82.0655	5.5
83.0498	3.7
84.0449	11.4
84.0812	10.1
85.0289	9.3
85.0651	2.5
86.0605	12.8
86.0970	3.9
87.0444	4.7
88.0397	6.8
88.0761	2.9
89.0601	6.0
90.0554	16.1
94.0291	2.3
94.0655	2.3
95.0493	2.8
95.0608	2.4
95.0859	5.3
96.0447	18.8
96.9956	5.5
97.0288	22.9
97.0651	2.4
98.0605	7.4
99.0444	6.3
100.0396	18.4
100.0762	6.0
101.0601	7.9
102.0553	25.2
104.0709	4.9
108.0446	3.0
109.1014	3.0
110.0603	7.2
111.0444	5.0
111.0555	3.1
112.0397	4.5
112.0761	12.0
113.0714	5.6
114.0553	15.5
115.9643	5.7
116.0709	34.3
117.0548	3.1
117.9599	2.3
117.9799	2.7
118.0500	4.9
120.0448	5.9
120.0656	2.5
121.0653	2.3
122.0238	2.8
122.0602	4.9
123.0441	3.4
124.0395	29.7
124.0759	3.3
125.0712	3.6
126.0551	10.2
126.0916	4.8
127.0394	7.9
128.0342	2.4
128.0708	67.9
129.0742	3.4
130.0500	9.0
132.0295	3.9
132.0656	5.3
133.0862	2.4
133.9746	2.3
134.0599	2.3
136.0418	2.6
136.0756	2.5
137.0235	3.9
137.0599	3.4
138.0551	69.3
138.1029	3.2
139.0589	3.9
139.0862	3.6
140.0343	21.1
140.0705	4.4
142.0500	8.3
142.0865	6.4
143.0581	7.2
144.0657	6.7
146.0450	49.1
146.0814	2.8
148.0394	4.1
148.0608	2.4
148.0758	2.4
149.0270	15.2
152.0707	7.0
153.0546	2.8
154.0501	4.2
154.0862	3.7
156.0659	4.6
160.0604	2.8
161.0691	2.9
162.0554	2.4
163.9857	3.6
164.0713	6.5
165.0549	3.9
166.0500	83.1
166.0859	4.1
167.0538	8.3
167.0816	2.9
168.0663	12.7
170.0812	11.5
171.0765	10.9
172.0608	7.9
172.0967	2.7
174.0762	13.4
175.1190	2.3
177.9648	4.9
178.0010	2.8
178.0865	2.7
180.0655	8.7
181.0612	3.2
181.0974	3.7
182.0455	4.5
182.0813	6.1
184.0606	100.0
184.0944	3.9
185.0652	9.6
185.0922	22.0
186.0761	4.1
186.0950	2.8
186.1121	2.3
187.1081	2.6
188.0917	18.2
190.0520	2.3
190.0710	3.9
190.1075	4.4
192.0678	23.1
193.0980	4.7
194.0805	5.9
196.0585	3.6
198.0738	3.9
199.0715	4.0
199.1075	4.5
200.0916	8.9
201.1235	2.7
202.0705	5.2
203.1139	2.8
208.0609	6.7
208.0963	2.3
209.0927	3.1
210.0400	9.7
210.0764	5.3
211.1077	3.5
212.0903	3.5
213.0873	4.5
214.0709	3.0
216.0866	38.7
216.1228	2.5
217.0820	5.8
218.1029	5.8
220.0815	7.3
220.1176	4.8
225.0867	4.4
225.1297	7.6
226.0714	9.9
226.1062	4.5
226.1800	4.7
227.0664	49.3
227.1031	4.4
228.0673	3.9
228.0879	26.1
229.0833	4.9
229.1178	18.0
230.0997	4.9
230.1199	4.7
230.1394	5.2
231.0977	29.2
232.0812	2.9
232.1195	6.9
233.0771	2.5
233.1130	20.4
234.0968	29.9
235.1001	3.2
236.0918	2.6
236.1126	21.6
237.0867	7.9
237.1181	2.3
238.0729	20.9
238.1110	2.9
238.1304	5.5
239.1041	11.9
240.0863	7.4
241.0819	8.9
241.1167	3.4
242.0673	5.9
242.1008	10.1
243.0979	10.6
243.1331	6.2
244.0803	3.4
244.1172	4.5
245.1132	5.9
246.0954	5.3
246.1352	2.4
247.0922	7.4
247.1282	6.9

Name: 2,2,6,6-Tetramethylpiperidine
PrecursorMZ: 142.15872
RT: 8.0608
ExactMass: 141.15174961
Spectrum_type: 2
charge: 1
Formula: C9H19N
SMILES: CC1(CCCC(N1)(C)C)C
Method: HCD
Collision_energy: [28.333334]
Isolation_window: 4.0
Ion_mode: P
Num Peaks: 4
69.0701	31.6
83.0857	58.0
142.1586	100.0
143.1541	28.7

Name: 2,3-Diaminopyridine
PrecursorMZ: 110.07131
RT: 6.2521
ExactMass: 109.063997236
Spectrum_type: 2
charge: 1
Formula: C5H7N3
SMILES: C1=CC(=C(N=C1)N)N
Method: HCD
Collision_energy: [28.333334]
Isolation_window: 4.0
Ion_mode: P
Num Peaks: 25
55.0546	3.5
68.0498	11.5
69.0450	23.2
70.0403	6.1
70.0528	2.7
70.0654	16.2
80.0497	2.4
81.0449	3.0
82.0653	4.7
83.0494	5.1
83.0606	10.7
93.0448	5.3
107.0603	3.1
108.0557	5.7
108.0683	6.8
109.0760	26.5
110.0601	43.1
110.0713	100.0
111.0553	17.5
111.0633	3.0
111.0746	4.8
111.0791	11.3
111.0917	49.9
112.0505	9.4
112.0869	12.9

Name: 2,4-Dihydroxy-5-methoxy-2a'',5a'',7''-trimethyldodecahydrodispiro)furan-3,2'-furan-5',6''-naphtho)1,8-bc(furan(-2''(2a''H)-one
PrecursorMZ: 397.22212
RT: 0.6033
ExactMass: 396.21480336
Spectrum_type: 2
charge: 1
Formula: C21H32O7
SMILES: CC1CC2C3C(CCCC3(C14CCC5(O4)C(C(OC5O)OC)O)C)(C(=O)O2)C
Method: HCD
Collision_energy: [28.333334]
Isolation_window: 4.0
Ion_mode: P
Num Peaks: 209
67.0548	21.2
69.0339	13.3
69.0704	31.5
70.0656	86.6
71.0496	24.6
72.0813	61.0
79.0546	21.3
81.0340	41.3
81.0703	41.6
83.0497	23.4
83.0859	15.0
84.0448	31.4
84.0812	45.7
85.0653	18.0
86.0605	12.6
86.0968	68.1
87.0444	22.1
91.0546	22.5
93.0702	29.4
95.0496	26.0
95.0859	32.2
96.0448	11.5
97.0651	26.5
98.0603	12.0
98.0967	21.7
99.0444	17.9
100.0761	14.9
101.0602	25.3
102.0554	21.1
105.0701	19.5
107.0494	19.2
107.0859	31.5
109.0653	18.0
109.1015	17.4
110.0604	14.2
110.0717	18.5
111.0443	38.7
111.0808	11.6
112.0762	23.9
113.0603	17.1
114.0554	15.9
115.0393	11.8
116.0709	100.0
117.0697	14.4
119.0858	28.3
120.0812	29.4
121.0651	29.7
121.1015	25.7
123.0444	13.3
123.0807	27.1
124.0760	12.7
125.0600	24.1
125.0965	15.0
126.0920	22.1
128.0708	20.3
129.0550	11.1
130.0500	20.5
130.0867	17.5
131.0857	24.1
132.0657	13.3
133.0652	15.7
133.1012	27.9
135.0809	27.8
136.0756	28.0
137.0600	23.2
137.0965	16.0
139.0756	14.6
140.0709	17.4
142.0501	16.4
142.0859	13.9
143.0705	14.2
143.0857	14.6
144.1019	12.6
145.1013	27.6
147.0799	21.8
147.1169	19.7
148.0608	16.2
149.0602	14.1
149.0963	21.1
151.0756	17.3
152.0705	20.9
153.0551	11.1
153.0915	17.4
154.0862	12.9
156.0659	11.7
157.1016	17.4
159.0807	15.1
159.1172	20.0
161.0964	24.3
163.1120	15.7
164.0708	11.2
165.0547	13.6
165.0916	12.6
166.0866	20.4
168.0658	14.5
168.1021	11.1
169.1010	16.1
171.1169	24.7
173.0942	16.9
173.1327	18.0
175.1112	18.0
177.0549	13.8
178.0855	14.9
180.1026	12.4
181.1005	15.3
182.0817	12.8
183.1164	27.4
184.0431	13.8
185.0967	15.8
185.1326	16.2
187.1112	24.6
189.0903	14.3
189.1270	16.5
191.1062	22.8
193.1227	12.1
194.0815	11.1
195.1158	11.8
196.0968	14.0
197.0941	16.1
197.1317	14.7
199.1117	21.6
201.1276	31.6
205.1231	14.5
207.1162	11.4
207.1388	14.8
208.0977	11.9
209.0943	11.1
211.1128	14.4
213.1266	21.1
215.1068	12.0
215.1424	14.5
217.1223	32.4
219.1375	27.4
220.0971	13.0
223.1097	11.2
225.1271	17.0
227.1053	13.9
229.1219	15.4
230.1392	16.6
231.1381	14.1
235.1337	14.5
237.1253	11.2
237.1496	14.1
241.1208	14.8
243.1397	14.5
247.1704	16.4
255.1596	22.8
257.1527	12.0
261.1225	11.5
267.1368	13.8
271.1689	14.9
283.1666	13.9
295.1683	11.7
297.1849	17.2
299.1631	11.7
299.2002	11.6
311.2002	11.8
313.1798	14.8
315.1954	17.4
317.1748	18.9
325.1800	18.6
327.1957	18.8
329.2117	13.5
331.1918	21.8
333.2058	11.2
339.1928	14.6
341.2112	14.5
343.1907	23.0
345.2065	23.6
347.2224	20.9
349.2014	22.0
351.2213	14.2
357.2086	15.1
359.2229	20.8
361.2006	27.8
363.2192	17.5
365.2356	15.8
367.2122	12.0
375.2174	11.8
377.2330	12.0
379.2115	21.8
381.1873	16.2
393.2269	11.1
396.1750	25.6
397.1766	18.6
397.2184	12.5
398.1499	14.1
398.2152	33.3
399.1807	11.2
400.1486	19.2
401.1363	11.9
402.1597	17.7
403.1552	18.0
403.2132	23.8
404.1394	18.6
405.1791	17.3
406.1534	29.6
406.2048	14.3
407.1369	14.3
407.1986	15.8
408.1752	18.6
409.1640	21.0
410.1446	12.7
410.1927	17.1
411.1847	15.2
411.2389	30.5
412.1693	19.2
413.1491	13.1
414.3369	51.5

Name: 2,6-dihydroxy-3-(4-methoxyphenyl)-5-(2,3,4,9-tetrahydro-1H-beta-carbolin-1-yl)pyrimidin-4(3H)-one
PrecursorMZ: 405.16093
RT: 5.1925
ExactMass: 404.14845513
Spectrum_type: 2
charge: 1
Formula: C22H20N4O4
SMILES: COC1=CC=C(C=C1)N2C(=C(C(=O)NC2=O)C3C4=C(CCN3)C5=CC=CC=C5N4)O
Method: HCD
Collision_energy: [28.333334]
Isolation_window: 4.0
Ion_mode: P
Num Peaks: 65
70.0656	3.2
81.0338	1.5
84.0447	2.0
84.0811	6.8
85.0288	1.3
90.0553	2.4
97.0286	1.3
98.0603	1.4
99.0443	1.1
101.0599	1.1
102.0552	2.2
110.0715	0.8
111.0442	0.9
116.0709	2.7
118.0865	3.0
126.0551	1.0
128.0707	5.0
130.0497	1.7
130.0863	3.5
132.0768	2.8
139.0393	2.0
144.0657	1.0
147.1132	0.9
168.0774	2.0
170.0562	2.7
177.0546	1.4
183.0877	10.3
200.0916	1.0
223.0598	4.5
232.1176	4.8
234.0755	1.7
240.0986	2.2
245.1148	0.9
258.1085	10.4
259.1115	1.3
274.1273	2.3
275.1340	1.9
276.1179	2.1
291.1341	1.2
312.1085	2.0
313.1110	1.0
324.1081	1.1
341.1440	1.6
359.1558	10.2
360.1605	1.5
361.1686	1.0
390.1391	2.3
403.1844	1.8
405.1615	100.0
406.1650	18.8
407.1666	7.7
408.1706	1.1
409.1873	1.4
410.1488	0.9
411.1366	1.2
413.1575	1.2
415.1820	1.4
416.1699	1.0
417.1462	0.9
417.1906	0.9
418.1429	2.6
418.1890	0.9
419.1803	2.0
420.2182	2.1
421.1946	2.7

Name: 2-((1R,2R)-3-oxo-2-((Z)-5-(3,4,5-trihydroxy-6-(hydroxymethyl)oxan-2-yl)oxypent-2-enyl)cyclopentyl)acetic acid
PrecursorMZ: 406.20686
RT: 6.06798
ExactMass: 388.17333247
Spectrum_type: 2
charge: 1
Formula: C18H28O9
SMILES: C1CC(=O)[C@@H]([C@H]1CC(=O)O)C/C=C\CCOC2C(C(C(C(O2)CO)O)O)O
Method: HCD
Collision_energy: [28.333334]
Isolation_window: 4.0
Ion_mode: P
Num Peaks: 22
70.0656	3.6
71.0495	4.9
85.0287	6.2
85.0651	40.6
86.0967	4.7
107.0856	3.4
111.0442	4.0
114.0914	5.6
119.0856	4.5
131.0855	15.4
145.1011	8.1
149.0960	15.0
163.1117	8.7
167.1066	11.0
191.1066	29.1
192.1100	3.9
209.1170	39.2
210.1206	6.1
227.1276	100.0
228.1311	9.6
406.2326	4.5
406.2588	4.9

Name: 2-((6-Methylpyridin-2-yl)carbamoyl)-5-(trifluoromethyl)benzoic acid
PrecursorMZ: 325.07886
RT: 5.8551
ExactMass: 324.0721767
Spectrum_type: 2
charge: 1
Formula: C15H11F3N2O3
SMILES: CC1=NC(=CC=C1)NC(=O)C2=C(C=C(C=C2)C(F)(F)F)C(=O)O
Method: HCD
Collision_energy: [28.333334]
Isolation_window: 4.0
Ion_mode: P
Num Peaks: 6
70.0653	22.8
124.0754	18.8
164.0702	27.4
182.0805	31.6
325.0783	100.0
325.1741	15.3

Name: 2-(3,4-Dihydroxyphenyl)-5-hydroxy-10-isopropyl-9,10-dihydropyrano(2,3-f)chromene-4,8-dione
PrecursorMZ: 383.11001
RT: 1.5174
ExactMass: 382.10525291
Spectrum_type: 2
charge: 1
Formula: C21H18O7
SMILES: CC(C)C1CC(=O)OC2=C1C3=C(C(=C2)O)C(=O)C=C(O3)C4=CC(=C(C=C4)O)O
Method: HCD
Collision_energy: [28.333334]
Isolation_window: 4.0
Ion_mode: P
Num Peaks: 15
176.8753	4.2
291.1951	3.4
322.2482	5.3
340.2591	10.5
381.2156	5.8
382.1295	4.0
382.1483	4.3
383.1100	100.0
383.1610	5.5
383.2032	8.7
384.1109	13.6
384.1454	4.6
384.1829	3.9
385.1101	5.1
385.1412	8.9

Name: 2-(4-(3-(2,6-Dimethylmorpholin-4-YL)-2-methylpropyl)phenyl)-2-methylpropanoic acid
PrecursorMZ: 334.23684
RT: 6.3946
ExactMass: 333.23039385
Spectrum_type: 2
charge: 1
Formula: C20H31NO3
SMILES: CC1CN(CC(O1)C)CC(C)CC2=CC=C(C=C2)C(C)(C)C(=O)O
Method: HCD
Collision_energy: [28.333334]
Isolation_window: 4.0
Ion_mode: P
Num Peaks: 15
195.0761	3.4
290.2099	3.6
299.1229	3.8
333.1409	4.9
333.1781	4.8
334.1273	3.8
334.2365	100.0
334.2714	21.1
335.1205	3.5
335.1587	4.3
335.1784	6.0
335.2405	21.3
335.2750	4.3
336.1066	3.3
336.2527	20.9

Name: 2-(4-(6-((3R,5S)-3,5-dimethylpiperazin-1-yl)-4-methylpyridin-3-yl)phenyl)-7-methyl-3H,4H,7H-pyrrolo(2,3-d)pyrimidin-4-one
PrecursorMZ: 429.23984
RT: 2.3426
ExactMass: 428.23245954
Spectrum_type: 2
charge: 1
Formula: C25H28N6O
SMILES: C[C@@H]1CN(C[C@@H](N1)C)C2=NC=C(C(=C2)C)C3=CC=C(C=C3)C4=NC5=C(C=CN5C)C(=O)N4
Method: HCD
Collision_energy: [28.333334]
Isolation_window: 4.0
Ion_mode: P
Num Peaks: 12
86.0968	2.1
326.2683	1.8
395.2937	1.9
413.3038	3.4
428.3152	5.7
429.2399	100.0
429.2981	2.0
430.2434	24.5
430.2975	1.9
430.3313	10.3
431.2370	3.1
431.2550	6.7

Name: 2-(9-methyl-6,9-diazaspiro(4.5)decane-6-carbonyl)-4H-chromen-4-one
PrecursorMZ: 327.17014
RT: 6.2095
ExactMass: 326.16304257
Spectrum_type: 2
charge: 1
Formula: C19H22N2O3
SMILES: CN1CCN(C2(C1)CCCC2)C(=O)C3=CC(=O)C4=CC=CC=C4O3
Method: HCD
Collision_energy: [28.333334]
Isolation_window: 4.0
Ion_mode: P
Num Peaks: 20
70.0655	4.3
80.0498	57.2
81.0531	3.1
83.0494	2.7
116.0707	3.2
120.0808	20.9
146.0600	16.6
164.0704	2.6
166.0863	9.7
192.0654	5.1
309.1441	3.3
326.1355	4.6
327.1197	4.2
327.1358	3.1
327.1549	6.1
327.1702	100.0
328.1191	2.5
328.1509	10.4
328.1732	21.0
328.1909	4.7

Name: 2-(Isopropylamino)-1-(3-methoxyphenyl)ethanol
PrecursorMZ: 192.13819
RT: 5.7586
ExactMass: 209.141578849
Spectrum_type: 2
charge: 1
Formula: C12H19NO2
SMILES: CC(C)NCC(C1=CC(=CC=C1)OC)O
Method: HCD
Collision_energy: [28.333334]
Isolation_window: 4.0
Ion_mode: P
Num Peaks: 8
58.0656	16.8
59.0496	6.2
105.0700	7.6
133.0648	52.0
192.1382	100.0
192.1580	6.1
193.1417	9.5
194.1175	9.3

Name: 2-)2-(2-Propoxyethoxy)ethoxy(ethanol
PrecursorMZ: 193.14357
RT: 0.6354
ExactMass: 192.13615911
Spectrum_type: 2
charge: 1
Formula: C9H20O4
SMILES: CCCOCCOCCOCCO
Method: HCD
Collision_energy: [28.333334]
Isolation_window: 4.0
Ion_mode: P
Num Peaks: 8
89.0600	100.0
90.0633	4.2
107.0705	5.6
133.0859	28.9
134.0892	2.2
151.0964	4.6
177.1120	2.9
195.1226	10.8

Name: 2-Amino-3-(3-amino-4-hydroxyphenyl)propanoic acid
PrecursorMZ: 197.09209
RT: 6.2937
ExactMass: 196.08479225
Spectrum_type: 2
charge: 1
Formula: C9H12N2O3
SMILES: C1=CC(=C(C=C1CC(C(=O)O)N)N)O
Method: HCD
Collision_energy: [28.333334]
Isolation_window: 4.0
Ion_mode: P
Num Peaks: 49
67.0547	3.2
68.0499	6.3
69.0703	2.2
81.0702	4.8
87.0443	9.8
93.0701	2.7
95.0857	2.4
96.0444	2.2
107.0494	2.7
107.0858	2.4
110.0603	2.1
125.0234	17.5
125.0711	3.5
135.0805	2.4
135.1168	3.3
136.0757	100.0
137.0596	3.2
137.0711	2.3
137.0789	7.6
138.0549	5.0
150.0549	3.0
150.0913	2.0
151.0755	2.7
151.0866	8.5
152.0707	19.0
152.1069	2.1
153.0547	5.1
153.0913	2.5
154.0499	5.5
154.0863	34.9
155.0895	2.4
162.0550	18.5
168.0655	6.9
178.0502	2.8
179.0702	2.9
179.0815	10.5
180.0288	3.4
180.0655	19.1
181.0856	2.2
182.0447	9.7
195.0764	3.5
196.0604	6.9
196.0967	9.0
197.0669	3.9
197.0811	2.2
197.0919	21.7
198.0763	7.1
198.1124	4.4
199.0760	3.2

Name: 2-Aminobenzimidazole
PrecursorMZ: 134.07133
RT: 4.9804
ExactMass: 133.063997236
Spectrum_type: 2
charge: 1
Formula: C7H7N3
SMILES: C1=CC=C2C(=C1)NC(=N2)N
Method: HCD
Collision_energy: [28.333334]
Isolation_window: 4.0
Ion_mode: P
Num Peaks: 18
86.0967	0.5
91.0544	0.7
92.0497	1.6
105.0701	0.4
133.0642	0.7
133.0761	0.8
134.0605	1.4
134.0713	100.0
134.0796	0.5
134.0819	0.6
134.0964	2.5
135.0551	0.5
135.0684	0.9
135.0745	7.8
135.0916	0.5
136.0216	1.1
136.0617	3.9
136.0755	2.3

Name: 2-Aminobicyclo(2,2,1)heptane-2-carboxylic acid
PrecursorMZ: 156.10192
RT: 10.1463
ExactMass: 155.094628657
Spectrum_type: 2
charge: 1
Formula: C8H13NO2
SMILES: C1CC2CC1CC2(C(=O)O)N
Method: HCD
Collision_energy: [28.333334]
Isolation_window: 4.0
Ion_mode: P
Num Peaks: 20
67.0546	4.6
70.0654	2.8
95.0605	3.5
110.0713	12.2
111.0553	5.5
115.9641	9.4
133.9645	4.2
133.9745	2.6
137.0708	6.6
155.0813	6.8
156.0420	2.6
156.0655	3.4
156.0765	2.8
156.1017	100.0
156.1381	2.8
157.0606	3.2
157.1051	9.0
157.1697	2.9
158.0969	2.9
158.1174	9.2

Name: 2-Carbomethoxypyridine
PrecursorMZ: 138.05498
RT: 6.5175
ExactMass: 137.047678466
Spectrum_type: 2
charge: 1
Formula: C7H7NO2
SMILES: COC(=O)C1=CC=CC=N1
Method: HCD
Collision_energy: [28.333334]
Isolation_window: 4.0
Ion_mode: P
Num Peaks: 13
69.0338	1.9
93.0448	9.4
95.0605	15.9
96.0445	5.5
97.0397	2.2
121.0396	81.3
122.0430	2.5
136.0617	1.9
137.0456	2.6
138.0548	4.3
138.0909	1.6
139.0500	100.0
140.0532	3.6

Name: 2-Ethyl-4-methylimidazole
PrecursorMZ: 111.09178
RT: 2.9561
ExactMass: 110.084398327
Spectrum_type: 2
charge: 1
Formula: C6H10N2
SMILES: CCC1=NC=C(N1)C
Method: HCD
Collision_energy: [28.333334]
Isolation_window: 4.0
Ion_mode: P
Num Peaks: 8
83.0606	4.8
84.0810	2.1
96.0683	6.7
110.0601	9.4
111.0553	7.2
111.0917	100.0
112.0757	1.6
112.0950	6.6

Name: 2-Methoxy-4-nitroaniline
PrecursorMZ: 169.06072
RT: 4.6138
ExactMass: 168.05349212
Spectrum_type: 2
charge: 1
Formula: C7H8N2O3
SMILES: COC1=C(C=CC(=C1)[N+](=O)[O-])N
Method: HCD
Collision_energy: [28.333334]
Isolation_window: 4.0
Ion_mode: P
Num Peaks: 12
69.6082	3.8
81.0695	3.9
98.0596	2.9
109.0648	10.5
123.0108	5.0
123.0803	5.9
152.0340	100.0
153.0375	8.0
168.0688	39.0
168.1016	3.4
170.0445	15.1
170.0809	4.3

Name: 2-Morpholinoethylamine
PrecursorMZ: 131.11792
RT: 7.307
ExactMass: 130.110613074
Spectrum_type: 2
charge: 1
Formula: C6H14N2O
SMILES: C1COCCN1CCN
Method: HCD
Collision_energy: [28.333334]
Isolation_window: 4.0
Ion_mode: P
Num Peaks: 10
57.0704	33.1
58.0656	16.2
74.0968	29.3
75.0557	28.6
86.0967	23.3
98.0967	15.3
114.0915	68.9
129.1387	15.1
130.1591	86.4
131.1179	100.0

Name: 2-Naphthylamine
PrecursorMZ: 144.08071
RT: 1.9898
ExactMass: 143.073499291
Spectrum_type: 2
charge: 1
Formula: C10H9N
SMILES: C1=CC=C2C=C(C=CC2=C1)N
Method: HCD
Collision_energy: [28.333334]
Isolation_window: 4.0
Ion_mode: P
Num Peaks: 6
117.0701	5.0
120.0809	1.6
143.0731	6.3
144.0808	100.0
145.0843	11.7
152.0571	1.1

Name: 2-amino-3-methyl-N-(2-(morpholin-4-yl)ethyl)pentanamide
PrecursorMZ: 244.20178
RT: 6.8716
ExactMass: 243.19467705
Spectrum_type: 2
charge: 1
Formula: C12H25N3O2
SMILES: CCC(C)C(C(=O)NCCN1CCOCC1)N
Method: HCD
Collision_energy: [28.333334]
Isolation_window: 4.0
Ion_mode: P
Num Peaks: 6
114.0915	100.0
131.1179	35.6
226.1798	10.5
227.1752	47.1
244.0965	18.1
244.2018	92.1

Name: 2-amino-4-(3,5-dimethoxyphenyl)-5-oxo-5,6,7,8-tetrahydro-4H-chromene-3-carbonitrile
PrecursorMZ: 327.13389
RT: 1.1965
ExactMass: 326.12665706
Spectrum_type: 2
charge: 1
Formula: C18H18N2O4
SMILES: COC1=CC(=CC(=C1)C2C(=C(OC3=C2C(=O)CCC3)N)C#N)OC
Method: HCD
Collision_energy: [28.333334]
Isolation_window: 4.0
Ion_mode: P
Num Peaks: 76
70.0657	2.8
72.0812	1.2
80.0499	2.7
81.0340	4.8
84.0812	1.1
98.0969	1.2
108.0446	1.2
110.0603	1.2
110.0714	1.2
111.0445	2.9
120.0811	2.2
122.0604	1.1
131.0494	1.7
133.0763	11.1
145.0761	2.1
146.0610	1.2
148.0761	1.2
152.0710	1.2
160.0761	1.4
165.0551	3.4
170.0926	3.1
181.0976	1.1
220.1195	2.2
235.1208	2.7
267.1132	5.1
268.1203	5.1
281.1283	1.3
297.1247	3.5
299.1391	1.3
311.1392	1.3
315.1355	1.1
317.1496	1.7
319.1662	1.1
325.1176	4.5
325.1823	2.6
326.1229	2.7
326.1563	1.6
327.1345	100.0
327.1668	4.5
328.1369	18.1
329.1493	6.3
329.1864	1.2
330.1308	5.3
330.1826	3.1
331.1309	4.0
331.1675	5.3
332.1529	7.5
332.1960	3.9
332.3328	1.1
333.1467	7.2
333.1849	3.0
334.1292	2.3
334.1708	5.7
335.1612	11.0
335.1981	1.8
336.1545	2.3
336.1901	2.1
337.1807	6.1
338.1465	1.5
339.1352	3.6
339.1650	1.4
339.1932	2.0
340.1214	2.6
340.1652	4.5
340.2142	1.1
341.1457	8.6
341.1903	3.6
342.1574	4.7
343.1318	3.6
343.1662	4.6
344.1171	1.2
344.1527	6.5
345.1442	5.2
345.1895	3.2
346.1307	2.4
346.1683	4.6

Name: 2H-1-Benzopyran-2-one, 7-(ethylamino)-4-methyl-
PrecursorMZ: 204.10181
RT: 3.1748
ExactMass: 203.094628657
Spectrum_type: 2
charge: 1
Formula: C12H13NO2
SMILES: CCNC1=CC2=C(C=C1)C(=CC(=O)O2)C
Method: HCD
Collision_energy: [28.333334]
Isolation_window: 4.0
Ion_mode: P
Num Peaks: 7
107.0729	1.0
204.0627	0.7
204.0702	0.7
204.1020	100.0
204.1421	0.8
205.1053	14.2
206.1078	0.8

Name: 3',4',5'-Trimethoxyflavonol
PrecursorMZ: 329.10157
RT: 4.6135
ExactMass: 328.09468823
Spectrum_type: 2
charge: 1
Formula: C18H16O6
SMILES: COC1=CC(=CC(=C1OC)OC)C2=C(C(=O)C3=CC=CC=C3O2)O
Method: HCD
Collision_energy: [28.333334]
Isolation_window: 4.0
Ion_mode: P
Num Peaks: 33
60.0448	0.9
70.0655	0.9
72.0811	3.2
86.0966	3.1
98.9842	3.8
116.0706	1.6
136.0755	2.9
165.0545	0.9
171.1490	1.2
182.0809	2.2
185.1644	1.2
199.1437	1.1
213.1593	1.1
241.0856	3.2
255.0646	4.2
268.0723	7.1
269.0803	69.2
270.0837	11.4
283.0956	7.3
284.0996	1.4
296.0673	4.4
309.2248	1.1
311.0906	100.0
312.0942	18.3
313.0962	1.8
314.0774	2.2
328.1149	1.2
329.1010	85.4
329.1481	2.0
330.1044	17.3
330.1307	1.3
331.1065	1.7
331.1646	1.8

Name: 3,4,5-trimethoxy-N-3-pyridylbenzamide
PrecursorMZ: 289.11796
RT: 5.6175
ExactMass: 288.111007
Spectrum_type: 2
charge: 1
Formula: C15H16N2O4
SMILES: COC1=CC(=CC(=C1OC)OC)C(=O)NC2=CN=CC=C2
Method: HCD
Collision_energy: [28.333334]
Isolation_window: 4.0
Ion_mode: P
Num Peaks: 25
72.0811	10.3
74.0604	6.2
81.0337	6.3
86.0967	6.4
98.9842	9.1
107.0491	16.4
107.0603	13.0
119.0599	5.5
145.0967	5.6
146.0809	8.6
165.0545	10.4
165.0655	14.4
172.0964	8.4
173.1281	26.3
201.1228	7.3
225.1019	17.1
271.1070	100.0
272.1114	14.3
288.1069	8.9
288.1220	12.8
289.1173	53.3
290.1010	13.7
290.1216	14.7
290.1380	7.8
291.1334	6.8

Name: 3,4-Dihydro-3-oxo-2-quinoxalinecarboxylic acid
PrecursorMZ: 191.04501
RT: 3.1064
ExactMass: 190.03784206
Spectrum_type: 2
charge: 1
Formula: C9H6N2O3
SMILES: C1=CC=C2C(=C1)NC(=O)C(=N2)C(=O)O
Method: HCD
Collision_energy: [28.333334]
Isolation_window: 4.0
Ion_mode: P
Num Peaks: 8
120.0807	25.0
121.0841	3.7
145.0395	25.6
147.0551	4.8
163.0499	3.7
191.0448	100.0
191.1175	3.1
192.0483	10.1

Name: 3,5,9-Trioxa-4-phosphapentacosan-1-aminium, 4,7-dihydroxy-N,N,N-trimethyl-10-oxo-, 4-oxide
PrecursorMZ: 496.33946
RT: 4.945672727272727
ExactMass: 496.34031496
Spectrum_type: 2
charge: 1
Formula: C24H51NO7P+
SMILES: CCCCCCCCCCCCCCCC(=O)OCC(COP(=O)(O)OCC[N+](C)(C)C)O
Method: HCD
Collision_energy: [28.333334]
Isolation_window: 4.0
Ion_mode: P
Num Peaks: 49
55.1491	2.4
55.2606	0.5
57.0703	0.6
60.0812	4.6
70.0655	0.6
71.0733	0.7
71.0859	1.1
72.0811	0.6
81.0701	0.6
83.0858	0.5
85.1014	0.8
86.0966	17.8
87.1000	0.8
95.0857	1.0
104.0998	0.5
104.1071	71.8
104.1144	0.4
105.1104	3.4
109.1013	0.5
116.0707	1.0
120.0807	0.5
124.9998	5.7
131.0700	0.6
148.0757	0.5
163.0154	0.6
184.0563	0.8
184.0731	100.0
185.0765	4.6
220.0966	1.2
231.1335	0.8
258.1096	1.3
271.1435	0.6
289.1546	0.6
291.1701	0.6
313.2732	2.3
373.1750	1.5
419.2541	0.6
427.2832	0.5
466.1955	0.6
478.3286	5.6
479.3322	1.1
495.2339	0.6
496.2101	0.8
496.2415	0.6
496.3391	46.1
497.3424	10.6
498.2220	0.7
498.2574	0.4
498.3451	1.3

Name: 3,5-Dimethoxyphenyl 4-(phenylcarbonyl)piperazinyl ketone
PrecursorMZ: 355.16477
RT: 2.8515
ExactMass: 354.15795719
Spectrum_type: 2
charge: 1
Formula: C20H22N2O4
SMILES: COC1=CC(=CC(=C1)C(=O)N2CCN(CC2)C(=O)C3=CC=CC=C3)OC
Method: HCD
Collision_energy: [28.333334]
Isolation_window: 4.0
Ion_mode: P
Num Peaks: 32
59.0497	5.8
70.0657	10.2
84.0811	7.3
87.0443	8.9
89.0600	19.0
101.0600	11.5
103.0393	16.2
111.0444	5.7
122.0814	7.8
129.0547	5.6
133.0858	12.4
147.0654	7.9
210.0797	8.5
215.0708	5.8
239.1055	13.6
243.0649	14.6
255.1130	15.3
261.0752	8.9
297.1547	5.7
324.1487	8.0
341.0328	5.4
355.1642	100.0
356.1692	22.1
356.3513	6.8
357.1708	5.9
358.3672	7.2
359.1579	18.4
367.1975	6.2
369.0270	19.1
369.1803	23.4
371.1895	10.6
373.2487	9.9

Name: 3-((4-Hydroxyphenyl)methyl)-2,3,6,7,8,8a-hexahydropyrrolo(1,2-a)pyrazine-1,4-dione
PrecursorMZ: 261.12296
RT: 3.332057142857143
ExactMass: 260.11609238
Spectrum_type: 2
charge: 1
Formula: C14H16N2O3
SMILES: C1CC2C(=O)NC(C(=O)N2C1)CC3=CC=C(C=C3)O
Method: HCD
Collision_energy: [28.333334]
Isolation_window: 4.0
Ion_mode: P
Num Peaks: 63
70.0654	51.4
72.0810	3.4
74.0603	4.2
81.0337	10.2
83.0605	4.0
84.0446	5.1
86.0966	21.4
98.0601	8.6
99.0440	3.8
107.0491	17.9
110.0600	4.0
116.0706	4.2
120.0807	4.0
129.0655	2.4
130.0496	5.3
132.1017	5.2
134.0598	4.5
136.0755	51.2
137.0788	3.3
143.1176	6.2
147.0441	3.5
147.0761	11.2
152.0704	8.1
154.0736	3.6
155.0814	12.0
171.0398	3.4
171.1121	2.9
188.1067	3.8
197.1280	7.9
203.0807	4.6
204.0759	5.0
214.1068	4.3
216.1014	3.2
216.1220	3.7
218.0807	4.8
224.0911	3.5
228.0862	3.8
233.1281	10.3
242.1018	6.9
242.1169	3.2
242.1493	13.2
243.1122	5.2
243.1336	6.2
244.0965	7.2
244.1174	7.2
245.0912	11.8
260.0910	22.7
260.1024	4.5
260.1122	17.3
260.1269	13.2
260.1385	4.3
260.1498	7.5
261.0734	15.2
261.1227	100.0
262.0812	3.6
262.1064	26.5
262.1172	6.1
262.1271	17.8
262.1431	7.3
262.2369	4.3
263.1010	8.6
263.1381	5.5
263.1498	3.4

Name: 3-(4-(2-Cyclopropyl-6-methylpyrimidin-4-yl)piperazin-1-yl)-1-(2,2,2-trifluoroethyl)pyrrolidin-2-one
PrecursorMZ: 384.20137
RT: 8.7217
ExactMass: 383.19329489
Spectrum_type: 2
charge: 1
Formula: C18H24F3N5O
SMILES: CC1=CC(=NC(=N1)C2CC2)N3CCN(CC3)C4CCN(C4=O)CC(F)(F)F
Method: HCD
Collision_energy: [28.333334]
Isolation_window: 4.0
Ion_mode: P
Num Peaks: 12
101.0598	3.2
114.0914	2.5
223.1199	5.7
284.1489	6.0
292.1536	2.5
322.2485	4.6
323.1726	3.7
340.2592	7.9
384.1453	2.4
384.2013	100.0
385.2044	20.2
386.2075	2.5

Name: 3-(4-Methyl-1-piperazinyl)-5,10-dihydro-5,10-ethanopyridazino(3,4-b)quinoxaline
PrecursorMZ: 309.18223
RT: 1.10965
ExactMass: 308.17494466
Spectrum_type: 2
charge: 1
Formula: C17H20N6
SMILES: CN1CCN(CC1)C2=NN=C3C(=C2)N4CCN3C5=CC=CC=C54
Method: HCD
Collision_energy: [28.333334]
Isolation_window: 4.0
Ion_mode: P
Num Peaks: 7
57.0339	21.7
59.0495	12.4
101.0597	14.2
291.2163	15.5
309.1303	30.0
309.1819	100.0
310.1853	18.0

Name: 3-(5-acetyl-4-(carboxymethyl)-1H-pyrrol-3-yl)propanoic acid
PrecursorMZ: 240.08642
RT: 2.9862
ExactMass: 239.07937252
Spectrum_type: 2
charge: 1
Formula: C11H13NO5
SMILES: CC(=O)C1=C(C(=CN1)CCC(=O)O)CC(=O)O
Method: HCD
Collision_energy: [28.333334]
Isolation_window: 4.0
Ion_mode: P
Num Peaks: 5
123.0676	6.1
150.0547	20.4
194.0808	47.1
240.0861	100.0
241.0893	10.2

Name: 3-(6,8-Dimethoxy-1-oxoisochromen-3-yl)-2-hydroxypropanoic acid
PrecursorMZ: 295.08112
RT: 5.9398
ExactMass: 294.07395278
Spectrum_type: 2
charge: 1
Formula: C14H14O7
SMILES: COC1=CC(=C2C(=C1)C=C(OC2=O)CC(C(=O)O)O)OC
Method: HCD
Collision_energy: [28.333334]
Isolation_window: 4.0
Ion_mode: P
Num Peaks: 23
83.0131	22.4
97.3984	27.3
120.0810	33.3
123.0440	23.5
127.0389	22.8
139.0390	40.8
147.0440	32.4
168.1022	22.9
175.0391	47.7
175.0754	28.3
177.0546	28.7
203.0701	75.3
205.0859	28.4
231.0649	87.1
249.0756	60.4
259.0605	27.7
277.0703	100.0
293.1498	34.8
294.0964	24.6
295.0809	82.4
295.1286	26.6
295.1650	24.8
297.1212	36.4

Name: 3-(Indol-3-YL) lactate
PrecursorMZ: 206.08105
RT: 5.2811
ExactMass: 205.07389321
Spectrum_type: 2
charge: 1
Formula: C11H11NO3
SMILES: C1=CC=C2C(=C1)C(=CN2)C[C@@H](C(=O)O)O
Method: HCD
Collision_energy: [28.333334]
Isolation_window: 4.0
Ion_mode: P
Num Peaks: 30
81.0338	2.4
86.0966	4.4
87.0999	3.9
101.0598	2.9
118.0651	12.2
122.0599	2.5
126.0912	5.1
132.0807	2.2
132.1017	3.1
133.1049	4.6
144.1017	4.4
146.0599	4.4
148.0756	2.3
160.0755	43.8
161.0788	4.2
164.0704	16.1
178.0498	2.5
188.0703	24.7
189.0734	2.8
204.1224	4.0
205.0600	3.8
205.0966	4.1
206.0445	2.9
206.0808	100.0
206.0902	3.0
206.1173	4.9
207.0758	2.7
207.0843	10.4
207.1125	4.1
208.0965	4.3

Name: 3-(Octyloxy)propanamine
PrecursorMZ: 188.20086
RT: 5.923
ExactMass: 187.193614421
Spectrum_type: 2
charge: 1
Formula: C11H25NO
SMILES: CCCCCCCCOCCCN
Method: HCD
Collision_energy: [28.333334]
Isolation_window: 4.0
Ion_mode: P
Num Peaks: 12
57.0704	21.3
58.0656	61.2
71.0859	39.3
76.0761	100.0
128.0706	8.2
142.0864	9.5
165.0214	7.0
170.0811	22.5
187.1077	5.3
188.2009	46.9
189.2043	7.5
190.1071	6.1

Name: 3-Aminopyridine
PrecursorMZ: 95.06065
RT: 4.1466
ExactMass: 94.0530982
Spectrum_type: 2
charge: 1
Formula: C5H6N2
SMILES: C1=CC(=CN=C1)N
Method: HCD
Collision_energy: [28.333334]
Isolation_window: 4.0
Ion_mode: P
Num Peaks: 12
68.0499	6.0
78.0342	0.7
94.0654	10.2
94.9299	4.4
95.0549	0.8
95.0606	100.0
95.0681	0.8
96.0447	6.2
96.0580	0.6
96.0640	5.5
96.9279	0.4
97.0763	0.5

Name: 3-Aminosalicylic acid
PrecursorMZ: 154.04959
RT: 2.5645
ExactMass: 153.042593085
Spectrum_type: 2
charge: 1
Formula: C7H7NO3
SMILES: C1=CC(=C(C(=C1)N)O)C(=O)O
Method: HCD
Collision_energy: [28.333334]
Isolation_window: 4.0
Ion_mode: P
Num Peaks: 21
69.0221	2.5
69.8260	1.2
80.0496	7.3
81.0336	3.1
84.0445	3.0
85.0285	4.3
97.4581	1.2
98.0600	3.0
107.0490	1.2
108.0443	32.5
109.0476	1.8
110.0598	2.1
126.0546	7.3
136.0389	9.5
140.0340	1.2
153.0653	1.2
153.1018	3.8
154.0494	100.0
154.0858	1.5
155.0526	8.1
156.0417	1.5

Name: 3-Hydroxy-3,8-dimethyl-5-(propan-2-ylidene)-1,2,3,3a,4,5,6,8a-octahydroazulen-6-one
PrecursorMZ: 235.16916
RT: 5.4003
ExactMass: 234.16197994
Spectrum_type: 2
charge: 1
Formula: C15H22O2
SMILES: CC1=CC(=O)C(=C(C)C)CC2C1CCC2(C)O
Method: HCD
Collision_energy: [28.333334]
Isolation_window: 4.0
Ion_mode: P
Num Peaks: 72
67.0547	15.1
69.0703	24.0
71.0495	13.6
73.0652	8.8
79.0547	13.4
81.0702	37.5
83.0859	13.8
85.0652	11.5
91.0545	13.2
93.0701	41.4
95.0494	11.6
95.0858	61.5
97.0651	8.9
105.0701	27.9
107.0606	48.2
107.0857	66.5
109.0650	17.6
109.1014	20.2
117.0702	11.4
119.0857	65.6
121.0650	16.5
121.1013	44.2
123.0807	14.3
130.0500	11.7
131.0855	14.5
133.1012	43.1
135.0805	16.0
135.1168	43.7
139.0754	9.8
145.1011	11.2
147.0805	9.8
147.1168	20.6
149.0961	9.2
157.1013	17.5
159.1170	23.4
161.0962	16.5
163.0755	12.3
171.1169	15.7
172.0604	27.5
173.1326	32.3
175.1118	36.8
175.1482	87.4
176.1514	9.3
177.1276	13.2
179.1067	13.0
186.1853	14.2
187.8824	9.4
189.1273	20.6
189.1636	14.5
189.8811	9.0
191.1430	12.9
193.1227	9.1
199.1482	14.0
210.8989	16.1
212.8969	13.9
215.1473	11.3
217.1225	26.5
217.1588	30.0
219.1378	18.4
234.0761	20.9
234.1125	19.0
234.2063	40.2
235.1076	23.9
235.1328	52.8
235.1692	100.0
236.0917	31.3
236.1030	62.2
236.1263	13.6
236.1642	9.6
236.1749	11.3
237.1228	11.5
237.1483	27.8

Name: 3-Hydroxy-6,6-dimethyl-2-(3,4,5-trimethoxyphenyl)-3,5,6,7-tetrahydrobenzimidaz ol-4-one
PrecursorMZ: 347.15964
RT: 1.18998
ExactMass: 346.15287181
Spectrum_type: 2
charge: 1
Formula: C18H22N2O5
SMILES: CC1(CC2=C(C(=O)C1)N(C(=N2)C3=CC(=C(C(=C3)OC)OC)OC)O)C
Method: HCD
Collision_energy: [28.333334]
Isolation_window: 4.0
Ion_mode: P
Num Peaks: 40
126.0912	3.1
136.0754	3.6
150.0910	3.0
164.1069	4.1
194.1173	9.6
208.0965	4.4
210.0908	2.8
212.1067	2.8
223.1199	20.1
224.1278	75.0
226.0733	6.9
227.1175	8.0
229.0967	6.7
238.0858	5.1
240.0892	8.8
241.0968	36.3
242.1003	5.5
255.1123	92.2
256.1158	14.5
257.1283	13.6
266.0807	8.3
268.0837	10.3
269.1280	3.7
283.1071	83.2
284.1107	14.2
285.1233	9.1
287.1384	2.9
315.1332	100.0
315.1694	5.3
316.1366	19.0
317.1497	11.5
317.1851	4.3
345.3257	4.5
346.2371	3.6
347.1614	7.7
347.1959	22.5
348.1992	4.3
349.1769	3.6
349.2119	12.5
349.2723	3.1

Name: 3-Isobutylhexahydropyrrolo(1,2-a)pyrazine-1,4-dione
PrecursorMZ: 211.14386
RT: 6.5769
ExactMass: 210.136827821
Spectrum_type: 2
charge: 1
Formula: C11H18N2O2
SMILES: CC(C)CC1C(=O)N2CCCC2C(=O)N1
Method: HCD
Collision_energy: [28.333334]
Isolation_window: 4.0
Ion_mode: P
Num Peaks: 14
55.0547	3.4
83.0493	2.3
101.0597	8.3
111.0554	2.7
111.0917	24.8
195.1124	6.0
210.1120	4.2
210.1486	2.1
211.1073	6.5
211.1437	100.0
212.0912	1.9
212.1277	1.6
212.1473	10.0
213.1230	2.6

Name: 3-Methylpyridazine
PrecursorMZ: 95.06059
RT: 5.5876
ExactMass: 94.0530982
Spectrum_type: 2
charge: 1
Formula: C5H6N2
SMILES: CC1=NN=CC=C1
Method: HCD
Collision_energy: [28.333334]
Isolation_window: 4.0
Ion_mode: P
Num Peaks: 10
65.0390	1.9
67.0546	1.5
68.0499	17.1
94.0653	9.3
94.9297	40.4
95.0493	6.4
95.0605	100.0
96.0445	6.3
96.0555	1.6
96.0639	5.4

Name: 3-Methylpyridine
PrecursorMZ: 94.06535
RT: 6.4095
ExactMass: 93.057849228
Spectrum_type: 2
charge: 1
Formula: C6H7N
SMILES: CC1=CN=CC=C1
Method: HCD
Collision_energy: [28.333334]
Isolation_window: 4.0
Ion_mode: P
Num Peaks: 13
58.0656	1.4
59.0734	0.7
60.0813	13.8
67.0547	0.9
93.0577	0.8
94.0532	0.8
94.0555	0.7
94.0654	98.7
94.0780	0.7
95.0687	7.0
96.0447	2.7
104.1073	100.0
105.1105	5.1

Name: 3-O-Methylfunicone
PrecursorMZ: 406.14902
RT: 2.1668
ExactMass: 388.11581759
Spectrum_type: 2
charge: 1
Formula: C20H20O8
SMILES: C/C=C/C1=C(C(=O)C(=CO1)C(=O)C2=C(C=C(C=C2OC)OC)C(=O)OC)OC
Method: HCD
Collision_energy: [28.333334]
Isolation_window: 4.0
Ion_mode: P
Num Peaks: 64
59.0609	17.2
70.0656	22.8
72.0813	17.6
81.0339	11.5
84.0447	7.9
84.0811	13.7
86.0968	35.4
98.0970	7.8
102.0553	8.1
107.0494	8.3
110.0717	5.0
111.0443	5.9
112.1124	10.1
116.0709	21.8
120.0443	8.6
120.0811	19.7
128.0708	5.7
130.0503	8.6
132.1022	5.8
136.0756	10.8
137.0599	7.9
140.0710	5.7
142.0497	6.1
144.1020	6.6
149.0598	30.1
150.0667	4.9
152.0706	4.9
153.0550	7.2
161.0597	22.5
164.0708	6.0
165.0548	4.9
166.0860	6.9
167.0699	5.6
182.0809	5.7
187.1084	5.1
195.0648	37.3
198.1125	4.9
203.0702	23.1
221.0792	9.0
241.1184	6.3
265.0690	5.9
277.1196	4.8
285.1116	5.4
297.1086	5.0
311.0910	24.8
371.1123	100.0
372.1156	20.4
373.1201	5.7
389.1229	7.9
405.1710	8.6
406.1531	8.7
407.1910	10.4
408.1797	9.1
409.1621	7.2
410.1495	5.3
411.1902	6.4
412.1748	5.2
413.1994	5.5
414.1844	6.5
416.1407	6.5
417.1651	6.0
418.1517	9.3
421.1583	8.9
422.1944	4.9

Name: 3-Oxochol-4-ene-24-oic acid
PrecursorMZ: 395.25546
RT: 1.1459
ExactMass: 372.26644501
Spectrum_type: 2
charge: 1
Formula: C24H36O3
SMILES: C[C@H](CCC(=O)O)[C@H]1CC[C@@H]2[C@@]1(CC[C@H]3[C@H]2CCC4=CC(=O)CC[C@]34C)C
Method: HCD
Collision_energy: [28.333334]
Isolation_window: 4.0
Ion_mode: P
Num Peaks: 15
69.0703	33.5
74.0603	25.2
81.0701	39.8
87.0443	35.9
89.0599	38.8
95.0857	50.5
109.1012	27.0
123.0804	29.9
185.1531	28.5
395.1451	29.1
395.2558	100.0
395.3628	29.7
396.2600	26.2
397.1615	34.0
397.2355	52.3

Name: 4'-(Ethoxycarbonyl)succinanilic acid
PrecursorMZ: 266.10195
RT: 2.9096
ExactMass: 265.09502258
Spectrum_type: 2
charge: 1
Formula: C13H15NO5
SMILES: CCOC(=O)C1=CC=C(C=C1)NC(=O)CCC(=O)O
Method: HCD
Collision_energy: [28.333334]
Isolation_window: 4.0
Ion_mode: P
Num Peaks: 195
55.0549	0.4
58.0657	0.4
69.0340	0.5
70.0656	17.0
71.0689	0.6
72.0813	1.8
74.0606	0.4
80.0499	17.6
81.0340	1.7
81.0533	0.9
81.0705	0.6
82.0655	0.5
83.0496	5.7
84.0449	0.5
84.0812	1.3
85.0654	0.4
86.0606	0.4
86.0968	0.9
87.0445	0.5
95.0496	0.4
95.0859	0.4
96.0446	0.7
97.0287	0.6
98.0604	0.8
98.0969	0.4
99.0444	0.6
100.0762	1.0
101.0601	1.6
107.0495	0.5
108.0450	0.5
110.0605	0.7
110.0717	1.1
111.0444	1.3
111.0557	0.4
112.0397	0.4
112.0760	0.6
114.0488	0.6
114.0553	28.5
114.1029	9.1
115.0394	0.4
115.0587	1.6
115.0870	0.4
115.1065	0.4
116.0709	19.5
117.0746	0.9
120.0809	1.2
121.0650	0.5
122.0604	0.6
123.0446	0.7
123.0807	0.4
124.0759	0.8
125.0715	0.4
126.0553	1.5
126.0918	0.7
127.0391	1.1
128.0709	0.9
130.0504	0.4
130.0865	1.0
131.0490	0.5
136.0757	0.9
137.0598	0.8
138.0553	0.8
138.0913	0.5
139.0391	0.4
140.0711	0.8
142.0502	0.7
142.0867	0.4
148.0762	0.8
149.0266	0.6
150.0553	0.6
150.0916	0.7
152.0710	1.9
152.1072	4.5
153.0546	0.4
153.0783	0.4
153.1119	0.6
154.0869	0.5
154.1233	0.5
156.0774	0.5
156.1021	0.4
158.0928	0.9
160.0755	0.5
162.0553	0.5
162.0917	0.4
163.0755	0.4
163.1231	1.2
164.0706	0.8
165.0551	0.7
165.1023	0.9
166.0512	0.5
166.0863	1.4
168.0658	0.7
170.1175	0.9
173.0926	0.6
176.0702	0.6
177.0546	0.6
178.0862	1.1
178.1224	0.6
179.0697	0.7
180.0653	0.5
180.1017	1.0
181.0986	0.4
182.0810	0.6
188.0702	0.6
190.0857	0.5
192.1027	0.4
194.0810	1.2
195.0519	0.9
196.0981	0.5
198.1128	2.2
204.0646	0.6
204.1029	0.4
205.0979	0.4
206.0807	0.8
207.1135	0.4
208.0968	2.0
210.0766	0.4
211.1073	0.6
212.0912	0.6
218.0821	0.4
219.0574	0.5
219.1141	0.4
220.0964	1.1
222.0768	0.4
222.1120	0.6
224.0912	0.8
233.1304	0.7
236.0923	0.4
238.1067	0.8
248.0911	0.5
250.1075	0.7
250.1434	0.8
252.0880	0.4
254.1038	0.4
255.0862	0.5
256.1277	0.5
262.1074	0.8
264.0849	0.8
264.1201	0.5
265.1202	1.1
265.1551	5.5
265.1914	0.4
266.1030	6.7
266.1395	1.4
266.1782	1.3
267.1051	1.4
267.1366	1.4
267.1714	1.7
268.1190	2.0
268.1636	0.4
269.1174	0.6
269.1516	1.1
270.0952	1.5
270.1349	1.1
271.1041	0.5
271.1366	0.7
271.1661	0.5
272.0925	0.9
272.1252	3.9
273.1242	1.1
273.2183	0.8
274.1079	2.9
274.1400	7.0
275.1098	0.5
275.1407	2.2
276.1221	2.9
276.1475	0.5
277.0902	0.7
277.1296	2.5
277.1547	100.0
277.2040	0.4
277.2182	0.6
278.0989	0.9
278.1587	15.8
279.0938	5.2
279.1341	1.3
279.1647	2.2
280.0901	0.5
280.1192	1.7
280.1569	0.6
281.1165	1.0
281.1506	1.4
281.1865	0.7
282.0994	0.7
282.1351	1.4
282.1812	0.8
283.1076	2.2
283.1676	0.5
284.1130	0.9
284.1561	0.8
284.1959	1.2
285.1174	0.4
285.1490	0.8
286.1039	1.0
286.1357	0.8

Name: 4'-Hydroxy-2',4,6'-trimethoxychalcone
PrecursorMZ: 315.11982
RT: 1.1416
ExactMass: 314.11542367
Spectrum_type: 2
charge: 1
Formula: C18H18O5
SMILES: COC1=CC=C(C=C1)/C=C/C(=O)C2=C(C=C(C=C2OC)O)OC
Method: HCD
Collision_energy: [28.333334]
Isolation_window: 4.0
Ion_mode: P
Num Peaks: 6
112.8957	100.0
114.8929	23.1
139.9144	40.7
213.8468	9.3
227.0675	8.0
315.1197	18.7

Name: 4'-Methoxyacetophenone
PrecursorMZ: 173.05929
RT: 0.774
ExactMass: 150.068079557
Spectrum_type: 2
charge: 1
Formula: C9H10O2
SMILES: CC(=O)C1=CC=C(C=C1)OC
Method: HCD
Collision_energy: [28.333334]
Isolation_window: 4.0
Ion_mode: P
Num Peaks: 4
115.0540	64.6
143.0487	71.4
173.0592	100.0
174.0627	10.8

Name: 4(1H)-Quinazolinone
PrecursorMZ: 147.0553
RT: 4.204
ExactMass: 146.048012819
Spectrum_type: 2
charge: 1
Formula: C8H6N2O
SMILES: C1=CC=C2C(=C1)C(=O)NC=N2
Method: HCD
Collision_energy: [28.333334]
Isolation_window: 4.0
Ion_mode: P
Num Peaks: 10
117.0575	25.4
123.9645	19.8
130.0525	3.2
130.0864	3.9
146.0601	3.8
147.0554	100.0
147.0918	7.5
148.0586	8.0
148.0869	4.4
149.0712	5.0

Name: 4,6-Dihydroxy-3-methyl-2,3-dihydroisoindol-1-one
PrecursorMZ: 180.06523
RT: 5.1671
ExactMass: 179.058243149
Spectrum_type: 2
charge: 1
Formula: C9H9NO3
SMILES: CC1C2=C(C=C(C=C2O)O)C(=O)N1
Method: HCD
Collision_energy: [28.333334]
Isolation_window: 4.0
Ion_mode: P
Num Peaks: 38
70.0652	2.2
91.0542	34.5
96.9952	3.1
107.0490	4.1
111.0438	2.0
122.0597	2.9
134.0597	21.4
135.0437	4.5
136.0753	31.4
137.0596	2.7
151.0616	4.5
152.0703	2.5
162.0546	24.9
163.0386	100.0
163.0610	2.0
164.0419	8.3
164.0702	35.3
167.0560	1.9
178.0719	23.4
178.0849	4.2
178.8729	5.5
179.0561	4.8
179.0750	3.4
179.0815	8.8
180.0514	1.9
180.0652	19.0
180.0802	54.4
180.0876	61.9
180.1048	20.2
181.0603	3.3
181.0713	10.0
181.0838	8.8
181.0906	2.1
181.0971	8.7
181.1329	2.7
182.0441	4.2
182.0807	20.5
182.1171	6.4

Name: 4-(Phenylsulfonyl)-3-(pyrrolidin-1-ylmethyl)-1,4-thiazepane
PrecursorMZ: 341.13555
RT: 4.1307
ExactMass: 340.12792036
Spectrum_type: 2
charge: 1
Formula: C16H24N2O2S2
SMILES: C1CCN(C1)CC2CSCCCN2S(=O)(=O)C3=CC=CC=C3
Method: HCD
Collision_energy: [28.333334]
Isolation_window: 4.0
Ion_mode: P
Num Peaks: 25
70.0656	0.7
84.0811	0.9
101.0600	0.8
251.1395	1.0
296.1122	0.8
298.1297	1.6
324.1099	1.1
340.1793	1.2
341.0506	0.7
341.1359	100.0
341.1681	4.3
342.1386	19.5
342.2015	2.3
343.1404	2.8
343.1872	0.9
346.1677	0.8
348.1455	0.8
350.1719	0.9
351.1556	1.4
352.1852	0.8
353.1718	5.6
354.2010	0.8
355.1855	2.7
356.2234	1.1
357.2024	0.9

Name: 4-(ethylthio)-N-(4-(pyridin-3-yl)thiazol-2-yl)benzamide
PrecursorMZ: 342.07365
RT: 4.5451
ExactMass: 341.06565446
Spectrum_type: 2
charge: 1
Formula: C17H15N3OS2
SMILES: CCSC1=CC=C(C=C1)C(=O)NC2=NC(=CS2)C3=CN=CC=C3
Method: HCD
Collision_energy: [28.333334]
Isolation_window: 4.0
Ion_mode: P
Num Peaks: 9
83.0858	13.6
97.4326	9.1
126.0913	46.8
139.9148	10.5
341.0898	9.4
341.1504	9.7
341.1719	11.9
342.0734	100.0
343.0777	15.2

Name: 4-Hydroxy-3,5,6-trimethyl-2H-pyran-2-one
PrecursorMZ: 155.07026
RT: 1.9384
ExactMass: 154.062994177
Spectrum_type: 2
charge: 1
Formula: C8H10O3
SMILES: CC1=C(OC(=O)C(=C1O)C)C
Method: HCD
Collision_energy: [28.333334]
Isolation_window: 4.0
Ion_mode: P
Num Peaks: 16
58.0655	9.9
67.0546	12.4
71.0494	8.1
71.0606	6.9
81.0450	5.9
95.0492	100.0
96.0526	5.8
97.0648	10.0
98.0602	5.5
125.0597	11.5
127.0752	21.2
155.0701	27.4
155.0924	14.0
155.1175	10.1
156.0419	10.4
156.1017	15.8

Name: 4-Hydroxy-3,6-dimethyl-2H-pyran-2-one
PrecursorMZ: 141.05456
RT: 9.133
ExactMass: 140.047344113
Spectrum_type: 2
charge: 1
Formula: C7H8O3
SMILES: CC1=CC(=C(C(=O)O1)C)O
Method: HCD
Collision_energy: [28.333334]
Isolation_window: 4.0
Ion_mode: P
Num Peaks: 18
53.0390	10.7
71.0495	12.9
80.0497	13.3
81.0337	48.8
82.0654	16.5
85.0651	18.7
108.0445	20.9
109.0284	71.1
112.0758	12.0
113.0597	19.1
122.0600	41.4
125.0471	11.5
140.0704	100.0
141.0545	83.3
141.0658	9.5
141.0736	8.3
142.0861	63.1
142.1225	23.4

Name: 4-Hydroxybenzaldehyde
PrecursorMZ: 123.044
RT: 8.0298
ExactMass: 122.03677943
Spectrum_type: 2
charge: 1
Formula: C7H6O2
SMILES: C1=CC(=CC=C1C=O)O
Method: HCD
Collision_energy: [28.333334]
Isolation_window: 4.0
Ion_mode: P
Num Peaks: 33
53.0390	5.1
56.0499	9.5
57.0339	3.5
67.0546	2.0
69.3627	3.0
69.5216	2.6
70.0074	1.4
80.0497	1.4
82.0139	2.6
95.0492	100.0
96.0444	2.2
96.0526	5.3
97.4564	2.0
100.0244	19.3
101.0084	2.3
101.0251	3.3
104.0577	2.3
104.0706	13.5
105.0700	16.1
118.0348	8.2
119.0188	8.3
121.0648	1.4
121.0840	4.9
122.0600	1.9
122.0715	2.0
122.0811	9.7
122.0963	7.4
123.0440	32.3
123.0552	3.6
123.0804	9.6
124.0392	21.7
124.0470	2.0
124.0756	6.7

Name: 4-Nitrosodiphenylamine
PrecursorMZ: 199.08642
RT: 2.4377
ExactMass: 198.079312947
Spectrum_type: 2
charge: 1
Formula: C12H10N2O
SMILES: C1=CC=C(C=C1)NC2=CC=C(C=C2)N=O
Method: HCD
Collision_energy: [28.333334]
Isolation_window: 4.0
Ion_mode: P
Num Peaks: 7
69.8488	2.2
156.1017	7.3
181.0757	100.0
182.0792	12.7
198.0756	2.7
199.0862	92.6
200.0896	12.8

Name: 4-cyano-2-fluoro-N'-(4-(1-pyrrolidinyl)benzylidene)benzohydrazide
PrecursorMZ: 337.14615
RT: 6.6374
ExactMass: 336.13863934
Spectrum_type: 2
charge: 1
Formula: C19H17FN4O
SMILES: C1CCN(C1)C2=CC=C(C=C2)/C=N/NC(=O)C3=C(C=C(C=C3)C#N)F
Method: HCD
Collision_energy: [28.333334]
Isolation_window: 4.0
Ion_mode: P
Num Peaks: 42
69.0701	0.5
69.3880	0.6
70.0654	0.5
81.0337	3.0
83.0856	0.8
84.0809	0.8
95.0855	0.4
96.0443	0.4
97.0284	0.7
97.1012	0.5
110.0599	0.5
111.0440	0.6
112.0505	1.7
113.0595	0.4
126.0548	0.6
130.0859	0.6
174.0757	1.4
202.0707	0.4
224.1019	0.8
244.1173	1.4
247.0242	0.4
270.0964	1.0
288.1072	0.7
300.1069	0.4
318.1175	1.2
320.1697	2.2
321.3141	0.4
336.1275	0.7
336.1449	0.6
336.1653	0.7
336.2887	0.6
337.1041	0.7
337.1458	100.0
337.1793	0.4
337.1883	0.7
338.1231	0.6
338.1490	13.4
338.1682	0.6
338.1796	0.6
338.3406	1.7
339.1510	2.1
339.1900	0.4

Name: 4-cyano-2-fluoro-N'-)4-(1-pyrrolidinyl)benzylidene(benzohydrazide
PrecursorMZ: 337.14622
RT: 10.6588
ExactMass: 336.13863934
Spectrum_type: 2
charge: 1
Formula: C19H17FN4O
SMILES: C1CCN(C1)C2=CC=C(C=C2)/C=N/NC(=O)C3=C(C=C(C=C3)C#N)F
Method: HCD
Collision_energy: [28.333334]
Isolation_window: 4.0
Ion_mode: P
Num Peaks: 37
86.0966	3.5
89.0600	12.7
90.0551	4.4
114.0914	3.3
132.0443	36.3
133.0476	3.0
133.0858	8.0
150.0549	4.1
163.0753	3.0
178.0861	5.0
209.1642	5.4
251.0817	5.2
297.1229	16.2
298.3098	2.8
322.2485	10.3
327.2019	8.2
337.1465	100.0
337.1899	3.1
338.1498	15.6
339.1321	4.8
340.2600	15.5
341.1484	4.5
341.2632	3.2
342.1295	6.0
342.3356	5.2
343.1662	5.7
344.1501	6.1
346.1621	2.8
346.3306	18.3
347.3347	4.4
349.0742	2.9
353.1193	4.5
353.1522	2.9
354.1309	8.1
355.1316	3.8
356.1490	4.0
356.3507	4.3

Name: 4H-1-Benzopyran-4-one, 7-(beta-D-glucopyranosyloxy)-3-(4-hydroxyphenyl)-
PrecursorMZ: 417.11736
RT: 5.207
ExactMass: 416.11073221
Spectrum_type: 2
charge: 1
Formula: C21H20O9
SMILES: C1=CC(=CC=C1C2=COC3=C(C2=O)C=CC(=C3)OC4C(C(C(C(O4)CO)O)O)O)O
Method: HCD
Collision_energy: [28.333334]
Isolation_window: 4.0
Ion_mode: P
Num Peaks: 5
176.8750	7.0
178.8732	2.2
255.0646	100.0
256.0680	13.9
417.1172	3.0

Name: 5-Epi-citreoviridin
PrecursorMZ: 425.19159
RT: 5.2423
ExactMass: 402.20423867
Spectrum_type: 2
charge: 1
Formula: C23H30O6
SMILES: C[C@@H]1[C@]([C@H]([C@@](O1)(C)/C=C(\C)/C=C/C=C/C=C/C2=C(C(=CC(=O)O2)OC)C)O)(C)O
Method: HCD
Collision_energy: [28.333334]
Isolation_window: 4.0
Ion_mode: P
Num Peaks: 39
70.0654	20.3
72.0811	7.2
81.0337	6.9
84.0809	4.6
86.0966	10.9
91.0544	6.7
110.0713	8.0
116.0706	38.7
120.0807	24.1
136.0754	7.1
144.0806	5.5
150.0912	6.0
162.0914	5.8
171.0803	5.8
198.0912	26.4
228.1015	8.5
242.1018	5.9
244.0965	10.4
246.1120	11.8
247.1190	4.8
263.1385	21.9
264.1224	44.4
265.1258	6.2
267.1333	11.0
341.1488	76.8
342.1523	14.9
371.1596	6.5
389.1698	100.0
390.1729	23.8
407.1806	38.0
408.1849	6.8
424.1837	8.4
424.2228	14.8
424.2838	10.8
425.1909	37.4
425.2843	4.9
426.1966	10.5
426.2389	9.2
426.3018	6.5

Name: 5-Hydroxy-3'-methoxyflavone
PrecursorMZ: 286.10711
RT: 2.7333
ExactMass: 268.07355886
Spectrum_type: 2
charge: 1
Formula: C16H12O4
SMILES: COC1=CC=CC(=C1)C2=CC(=O)C3=C(C=CC=C3O2)O
Method: HCD
Collision_energy: [28.333334]
Isolation_window: 4.0
Ion_mode: P
Num Peaks: 94
68.0499	1.8
69.0339	2.7
70.0656	12.7
72.0812	1.5
81.0339	3.3
83.0496	1.4
84.0449	1.4
84.0812	6.0
86.0604	1.8
87.0444	1.6
96.0812	1.7
98.0603	1.6
100.0760	7.8
101.0600	4.1
111.0443	2.9
112.0761	2.4
114.0551	1.7
116.0710	3.0
126.0549	1.8
126.0915	2.6
128.0709	2.6
130.0865	4.4
132.0654	1.5
140.0709	2.1
144.1017	1.6
150.0553	1.4
158.0926	5.3
168.0660	1.7
190.0862	5.2
198.0876	2.5
200.1285	1.9
212.1043	1.9
216.1227	1.3
217.0500	1.5
219.0288	1.3
229.0499	2.6
231.0641	1.6
238.1054	1.5
241.0493	4.2
245.0448	2.9
247.0601	2.6
257.0442	4.4
258.1109	2.6
259.0598	3.2
267.1426	2.2
270.1062	2.4
270.1340	3.2
271.1310	1.7
274.0705	1.4
275.0549	11.4
276.0607	1.7
276.1250	3.5
284.0913	9.6
284.1226	2.6
285.1207	1.4
285.1537	5.3
286.1070	100.0
286.1359	5.3
287.0552	20.4
287.1079	15.7
287.1348	2.6
288.0571	3.3
288.0875	1.5
288.1175	10.1
288.1483	4.4
289.1399	8.2
290.1342	6.3
290.1587	5.6
291.0933	1.7
291.1339	1.8
291.1687	1.9
292.1423	2.1
293.1130	9.1
293.1496	1.8
294.1307	5.5
294.1569	2.2
295.1332	3.8
295.1665	3.0
296.1091	1.9
296.1741	2.7
297.1467	4.2
297.1844	1.8
298.1458	3.0
299.1357	4.3
299.1696	7.2
300.1205	4.6
300.1526	1.8
301.1514	3.1
302.1019	26.6
302.1359	11.3
303.1045	4.7
303.1406	5.1
304.0821	1.4
304.1395	5.6

Name: 6,7-dimethoxy-1-(2-nitrophenyl)-3,4-dihydro-1H-isochromene
PrecursorMZ: 298.10707
RT: 7.04635
ExactMass: 315.11067264
Spectrum_type: 2
charge: 1
Formula: C17H17NO5
SMILES: COC1=C(C=C2C(OCCC2=C1)C3=CC=CC=C3[N+](=O)[O-])OC
Method: HCD
Collision_energy: [28.333334]
Isolation_window: 4.0
Ion_mode: P
Num Peaks: 16
136.0754	2.5
254.1170	3.0
266.0806	2.3
278.1495	2.1
280.1174	2.8
296.1483	5.1
297.1234	6.9
297.1596	2.3
298.1067	100.0
298.1270	14.7
298.1424	3.9
299.1104	16.4
299.1377	7.5
299.1739	2.7
300.1223	8.2
300.1423	2.7

Name: 6,7-dimethoxy-8-oxo-8H-benzo(c)indolo(3,2,1-ij)(1,5)naphthyridin-12-yl acetate
PrecursorMZ: 389.11085
RT: 6.4378
ExactMass: 388.10592162
Spectrum_type: 2
charge: 1
Formula: C22H16N2O5
SMILES: CC(=O)OC1=CC2=C(C=C1)N3C4=C2C=CN=C4C5=C(C3=O)C(=C(C=C5)OC)OC
Method: HCD
Collision_energy: [28.333334]
Isolation_window: 4.0
Ion_mode: P
Num Peaks: 11
89.0600	11.0
114.0916	18.7
149.0235	17.6
292.1367	18.9
344.2217	22.7
357.0847	12.0
388.1748	15.0
389.1111	100.0
389.1752	11.3
390.1156	24.4
390.2272	34.8

Name: 6-Amino-2-(butanoylamino)hexanoic acid
PrecursorMZ: 217.15444
RT: 8.4034
ExactMass: 216.1473925
Spectrum_type: 2
charge: 1
Formula: C10H20N2O3
SMILES: CCCC(=O)NC(CCCCN)C(=O)O
Method: HCD
Collision_energy: [28.333334]
Isolation_window: 4.0
Ion_mode: P
Num Peaks: 56
56.0499	2.2
70.0655	2.0
71.0494	8.2
74.0604	2.2
84.0810	69.9
85.0844	3.7
86.0602	1.5
87.0443	2.3
88.0760	1.8
90.0553	2.0
101.1074	2.9
102.0550	2.8
112.0756	2.1
114.0914	48.0
115.0947	3.0
116.0707	3.0
125.1071	1.8
126.0912	5.1
128.0705	8.7
129.1021	100.0
130.0499	2.0
130.0861	41.9
130.1054	6.8
131.0893	2.5
147.1127	36.4
148.1159	1.7
154.0862	3.9
154.1225	19.5
157.0493	4.7
158.0812	2.0
171.0761	1.7
172.0870	1.4
172.0966	26.4
172.1329	13.5
173.0918	2.0
181.1333	8.0
198.1122	2.7
199.1073	2.9
199.1437	6.6
200.0915	6.2
200.1278	7.3
216.0765	14.7
216.0861	2.2
216.1061	6.2
216.1229	12.5
216.1340	3.7
216.1592	2.6
217.0812	2.0
217.0966	2.3
217.1178	12.9
217.1543	56.5
218.0811	1.6
218.1021	47.7
218.1133	7.0
218.1382	7.8
218.1578	5.8

Name: 6-Amino-2-(octadec-9-enoylamino)hexanoic acid
PrecursorMZ: 411.35755
RT: 5.0714
ExactMass: 410.35084333
Spectrum_type: 2
charge: 1
Formula: C24H46N2O3
SMILES: CCCCCCCCC=CCCCCCCCC(=O)NC(CCCCN)C(=O)O
Method: HCD
Collision_energy: [28.333334]
Isolation_window: 4.0
Ion_mode: P
Num Peaks: 41
56.0498	0.5
62.0605	0.6
67.0545	0.6
69.0338	0.6
69.0702	0.7
70.0654	0.7
81.0702	0.9
83.0859	0.7
84.0757	0.7
84.0810	100.0
85.0844	4.8
86.0967	0.6
89.0599	2.6
95.0857	1.0
97.3979	0.6
109.1012	0.6
116.0707	1.1
129.1022	2.7
130.0862	12.2
131.0896	0.7
133.0859	1.2
147.1126	6.4
155.0104	0.6
170.1171	0.7
238.2526	4.4
239.2563	0.8
256.2630	1.5
271.2264	1.5
348.3256	3.0
349.3292	0.6
357.2783	0.7
392.2560	0.6
409.3416	0.8
410.2665	3.5
410.3445	3.3
411.2356	1.2
411.2710	0.7
411.3577	34.2
412.2871	0.6
412.3609	8.5
413.3734	5.9

Name: 6-Ethyl-4-((4-(2-furylcarbonyl)piperazinyl)methyl)chromen-2-one
PrecursorMZ: 389.14711
RT: 4.6753
ExactMass: 366.15795719
Spectrum_type: 2
charge: 1
Formula: C21H22N2O4
SMILES: CCC1=CC2=C(C=C1)OC(=O)C=C2CN3CCN(CC3)C(=O)C4=CC=CO4
Method: HCD
Collision_energy: [28.333334]
Isolation_window: 4.0
Ion_mode: P
Num Peaks: 104
57.0704	1.4
67.0546	1.3
69.0703	1.7
70.0656	1.5
72.0811	1.3
81.0338	2.3
81.0702	2.1
83.0859	1.5
85.0651	1.5
86.0967	2.2
89.0600	3.4
93.0701	2.0
95.0494	1.3
95.0858	2.6
97.0651	1.3
97.3993	1.5
99.0443	1.2
105.0701	1.3
107.0493	1.5
107.0858	2.0
111.0443	2.8
116.0708	1.3
121.1013	1.7
126.0914	2.0
131.0858	1.3
133.0859	1.6
133.1016	1.3
138.1279	1.6
145.0495	2.9
145.1013	1.3
149.0234	2.5
160.0757	1.5
164.0707	2.2
166.0864	1.3
176.8751	2.0
180.1019	2.6
180.1386	1.4
182.1176	1.7
183.1134	1.5
188.0708	2.3
201.1023	3.1
201.1121	1.3
204.1020	1.5
206.0420	1.9
208.0966	2.9
226.0860	2.6
232.0946	4.3
234.0746	1.3
234.1124	3.1
244.0968	1.4
246.1125	2.2
248.0917	6.3
253.0861	1.7
263.1018	1.6
264.1230	4.5
269.0807	1.6
276.1229	1.3
285.1125	1.5
292.1308	1.5
311.0912	6.3
322.1277	1.4
329.1018	42.0
330.1050	8.6
343.1533	1.7
353.2479	1.7
357.1783	1.6
370.1642	1.4
371.1120	5.2
371.2262	1.6
371.2587	2.3
373.0450	4.0
373.1639	2.8
387.1916	2.0
387.2523	2.0
387.2723	4.6
388.1373	3.4
388.1753	2.9
388.2217	1.3
388.3928	1.7
389.0212	1.4
389.0961	2.8
389.1248	1.6
389.1475	100.0
389.1711	4.4
389.2290	1.8
389.2495	1.9
389.2692	6.3
390.0966	1.7
390.1511	20.4
390.1878	1.6
390.2015	1.5
390.2282	2.1
390.2702	1.9
390.2846	2.1
390.3203	1.4
391.0555	13.4
391.1054	20.8
391.1481	5.1
391.1515	2.1
391.1758	1.4
391.1855	5.3
391.1895	1.9
391.2477	2.3
391.2849	2.2

Name: 6beta-Hydroxycortisol
PrecursorMZ: 379.21124
RT: 0.6195
ExactMass: 378.20423867
Spectrum_type: 2
charge: 1
Formula: C21H30O6
SMILES: C[C@]12CCC(=O)C=C1[C@@H](C[C@@H]3[C@@H]2[C@H](C[C@]4([C@H]3CC[C@@]4(C(=O)CO)O)C)O)O
Method: HCD
Collision_energy: [28.333334]
Isolation_window: 4.0
Ion_mode: P
Num Peaks: 207
57.0704	37.5
58.0657	53.9
59.0496	13.1
59.0608	9.7
67.0547	43.5
69.0340	13.8
69.0703	64.2
70.0656	48.4
71.0496	31.9
71.0860	24.9
72.0812	62.6
73.0288	9.5
79.0547	23.7
81.0339	40.7
81.0703	84.2
83.0496	46.0
83.0859	43.1
84.0812	32.1
85.0288	22.5
85.0652	58.5
86.0605	14.5
86.0968	100.0
87.0444	20.8
89.0601	73.9
91.0544	19.5
93.0702	45.1
95.0495	35.3
95.0858	81.0
97.0651	34.8
97.1015	18.5
98.0602	9.5
98.0968	13.7
99.0444	19.2
99.0807	24.4
101.0599	18.3
103.0393	9.3
105.0701	32.9
107.0494	13.7
107.0858	56.2
109.0650	32.8
109.1014	53.1
110.0607	11.0
111.0444	25.1
111.0806	19.6
112.0761	16.6
112.1124	11.9
113.0600	20.8
116.0709	37.8
117.0697	12.3
118.0502	16.9
119.0858	36.5
120.0811	27.1
121.0650	23.7
121.1014	48.5
123.0442	9.6
123.0806	21.6
123.1171	28.1
124.0756	12.9
125.0600	17.8
125.0965	25.2
126.0915	78.2
127.0755	18.1
127.1119	9.8
128.1071	10.8
129.0553	12.2
130.0865	11.6
131.0857	27.4
132.0659	13.9
132.1024	9.4
133.0649	12.6
133.0862	46.9
133.1012	41.1
135.0806	26.6
135.1170	38.0
136.0757	17.2
137.0600	24.8
137.0962	18.7
137.1329	9.2
138.0912	17.1
139.0759	15.2
139.1119	9.3
140.1073	15.3
143.0856	12.4
145.1012	37.2
146.1175	17.5
147.0805	13.0
147.1168	35.0
149.0236	19.6
149.0964	25.5
149.1326	22.7
150.0914	10.7
151.0757	19.6
151.1119	16.0
152.0707	9.9
152.1075	10.1
153.0912	13.0
155.0105	11.6
155.0704	25.5
157.1013	21.6
159.0805	12.1
159.1169	34.6
161.0962	17.2
161.1325	22.4
163.0754	14.5
163.1116	14.9
164.0697	13.0
165.0908	17.4
166.0859	24.9
169.1008	11.1
170.1175	16.6
171.1171	19.0
173.0953	14.2
173.1320	18.4
175.0756	10.5
175.1107	18.7
175.1482	13.0
177.1121	9.8
177.1274	10.4
179.0694	10.8
179.1067	10.4
180.0678	11.0
182.0810	9.4
183.1168	13.0
185.0966	9.5
185.1321	15.7
187.1117	13.1
187.1483	14.5
189.0911	9.8
189.1272	13.1
189.1634	10.8
191.0704	10.5
191.1068	9.3
191.1432	10.2
194.1180	10.4
195.1159	9.7
197.1324	12.6
199.1118	9.5
199.1484	15.8
201.1266	12.9
203.0700	11.3
203.1072	11.2
203.1429	12.1
205.1215	14.3
207.1386	10.5
208.0965	29.1
209.0806	10.3
209.1317	11.4
211.1484	13.6
213.1278	12.0
213.1628	9.6
215.1073	11.6
215.1429	11.2
217.1219	11.2
223.1459	11.3
225.1633	12.8
227.1788	11.4
229.1213	12.9
229.1582	12.4
237.1636	13.3
240.1223	18.4
241.1226	10.1
245.1183	9.4
247.1367	10.7
249.1604	9.2
259.1322	20.3
273.1137	9.7
273.1517	9.9
275.1287	15.3
276.1289	9.2
277.1470	25.9
277.2160	9.8
289.1467	11.2
291.1590	47.5
292.1621	11.3
293.1386	10.0
309.2571	10.1
331.1915	18.9
343.1902	16.7
347.1848	15.9
355.2629	13.7
359.1865	13.8
360.1858	9.6
361.2015	59.6
362.2111	13.4
363.1793	11.6
365.1980	14.0
371.2254	19.5
373.2746	12.2
377.1974	17.9
378.1982	13.4
379.2127	52.9
379.2953	22.0
380.2125	16.1
381.3123	10.4
382.2283	15.3
383.2189	9.5
384.1840	9.4
385.1774	9.7
386.1583	12.5
388.1782	10.2
389.2675	9.4
390.1994	11.9
394.2343	11.8
395.2038	13.5
395.2929	12.5
396.2474	12.0
397.1795	9.5

Name: 7-hydroxy-3-phenyl-8-(piperidin-1-ylmethyl)-4H-chromen-4-one
PrecursorMZ: 336.15898
RT: 7.6397
ExactMass: 335.15214353
Spectrum_type: 2
charge: 1
Formula: C21H21NO3
SMILES: C1CCN(CC1)CC2=C(C=CC3=C2OC=C(C3=O)C4=CC=CC=C4)O
Method: HCD
Collision_energy: [28.333334]
Isolation_window: 4.0
Ion_mode: P
Num Peaks: 9
93.0700	3.6
121.0648	60.4
122.0679	3.8
216.1016	37.6
217.1050	6.2
335.0738	9.0
336.1588	100.0
336.1917	4.0
337.1621	20.9

Name: 7alpha,12alpha-Dihydroxy-3-oxo-5alpha-cholan-24-oic Acid
PrecursorMZ: 389.26757
RT: 1.4674
ExactMass: 406.27192431
Spectrum_type: 2
charge: 1
Formula: C24H38O5
SMILES: C[C@H](CCC(=O)O)[C@H]1CC[C@@H]2[C@@]1([C@H](C[C@H]3[C@H]2[C@@H](C[C@@H]4[C@@]3(CCC(=O)C4)C)O)O)C
Method: HCD
Collision_energy: [28.333334]
Isolation_window: 4.0
Ion_mode: P
Num Peaks: 85
67.0545	6.7
70.0653	17.5
81.0336	6.2
81.0700	12.1
85.0648	4.9
86.0965	11.9
93.0699	10.1
95.0855	13.9
96.0443	4.5
98.0599	7.5
105.0698	14.0
107.0853	12.6
109.1010	7.1
116.0704	15.8
119.0853	9.2
120.0805	4.4
121.1010	8.9
123.0801	9.3
126.0547	8.0
131.0853	8.7
133.1009	9.4
135.0800	5.4
135.1165	4.7
137.0592	8.0
137.0958	4.8
143.0850	4.7
145.1006	12.1
146.0596	4.9
147.1163	9.7
150.0910	8.7
157.1008	12.9
159.1165	15.3
161.1320	8.2
164.1065	6.1
166.0858	8.5
171.1164	6.9
173.1321	6.1
175.1115	5.6
177.0542	9.6
185.1317	6.8
187.1476	4.6
189.1268	4.9
197.1322	8.7
199.1476	13.8
209.1318	5.1
211.1474	13.3
212.0908	4.4
213.1632	4.4
217.1578	4.4
223.1470	5.5
225.1630	8.2
227.1424	8.7
229.1578	11.9
237.1631	4.4
241.1583	4.9
245.1274	5.7
245.1524	8.4
259.1683	4.3
261.1840	4.7
307.2403	6.2
317.2249	8.6
323.1951	12.5
325.2514	12.9
335.2357	25.9
336.2372	6.1
342.2048	10.3
343.1634	8.7
344.2206	11.2
353.2462	100.0
354.2486	22.2
371.2174	4.4
371.2567	74.3
372.2597	20.6
388.1351	6.2
388.1849	5.1
388.2106	14.2
389.1688	10.6
389.2670	90.7
390.1519	6.1
390.2272	17.7
390.2700	24.6
391.1048	8.4
391.1664	11.2
391.1866	4.9
391.2268	4.4

Name: 8-(1-(acetyloxy)-4-oxo-5-((3E)-2-oxopent-3-en-1-yl)cyclopent-2-en-1-yl)octanoic acid
PrecursorMZ: 347.18508
RT: 2.9887
Spectrum_type: 2
charge: 1
SMILES: C/C=C/C(CC(C(CCCCCCCC(O)=O)(C=C1)OC(C)=O)C1=O)=O
Method: HCD
Collision_energy: [28.333334]
Isolation_window: 4.0
Ion_mode: P
Num Peaks: 8
161.0597	100.0
162.0629	10.3
311.1639	12.0
346.1265	9.6
346.1634	8.4
347.1848	26.4
348.1430	9.7
348.1883	7.7

Name: 8S-HETrE
PrecursorMZ: 305.24697
RT: 1.0393
ExactMass: 322.25079494
Spectrum_type: 2
charge: 1
Formula: C20H34O3
SMILES: CCCCC/C=C\C/C=C\C=C\[C@H](CCCCCCC(=O)O)O
Method: HCD
Collision_energy: [28.333334]
Isolation_window: 4.0
Ion_mode: P
Num Peaks: 118
55.0546	2.7
57.0703	3.6
67.0546	10.2
69.0702	19.4
69.5221	2.3
71.0858	3.1
79.0544	3.8
81.0701	43.5
82.0734	3.2
83.0858	15.4
85.0650	2.7
91.0543	3.4
93.0700	22.4
95.0857	51.7
96.0890	4.2
97.0649	2.0
97.1013	11.9
97.3988	3.4
99.0441	3.1
105.0700	10.9
107.0856	47.1
108.0889	5.2
109.1012	49.8
110.1046	4.3
111.1169	4.6
119.0856	18.5
120.0888	3.2
121.1012	61.8
122.1045	7.9
123.0803	4.2
123.1168	37.8
124.1201	5.0
125.0959	3.0
131.0852	2.1
133.1010	17.8
134.1043	2.9
135.1167	36.1
136.1200	5.0
137.0961	2.1
137.1323	10.0
141.0910	2.3
145.1011	5.5
147.1167	18.1
148.1202	3.0
149.0958	4.0
149.1323	33.0
150.1356	4.8
151.0753	6.0
151.1117	3.6
155.1065	2.0
157.1011	3.9
159.1168	8.4
160.1200	2.1
161.0959	2.5
161.1324	23.7
162.1358	4.1
163.1116	9.7
163.1480	33.2
164.1513	3.9
165.1275	2.4
167.1065	6.9
171.1166	2.4
173.1322	7.0
174.1356	2.0
175.1116	2.4
175.1480	11.4
176.1513	3.3
177.1271	9.0
177.1637	11.6
179.1064	2.4
181.1221	11.5
182.1254	2.3
185.1324	2.0
187.1480	3.0
189.1272	3.7
189.1635	9.5
190.1670	4.0
191.1428	4.2
191.1792	4.5
193.1221	4.0
195.1377	16.1
196.1412	2.1
199.1478	3.2
201.1637	2.4
203.1429	2.9
203.1794	2.2
207.1375	3.2
209.1534	9.0
213.1636	5.3
215.1792	2.3
217.1585	6.4
221.1531	4.4
223.1690	2.0
227.1787	4.1
229.1947	13.3
230.1982	5.5
231.1743	2.4
231.2104	16.0
232.2140	2.4
235.1688	11.9
236.1724	2.6
249.1846	8.6
259.2419	2.3
269.2260	16.2
270.2294	2.5
275.2000	2.4
285.2203	4.0
287.2364	31.3
288.2398	7.0
303.2314	17.9
304.2348	18.3
304.2982	3.7
305.2115	3.6
305.2470	100.0
306.2512	18.6
306.2774	6.4
307.2259	3.2
307.2416	2.7

Name: 9,12-Octadecadienamide,N-(2-(3,4-dihydroxyphenyl)ethyl)-, (9Z,12Z)-
PrecursorMZ: 416.31539
RT: 4.8959
ExactMass: 415.30864417
Spectrum_type: 2
charge: 1
Formula: C26H41NO3
SMILES: CCCCCC=CCC=CCCCCCCCC(=O)NCCC1=CC(=C(C=C1)O)O
Method: HCD
Collision_energy: [28.333334]
Isolation_window: 4.0
Ion_mode: P
Num Peaks: 24
70.0654	2.5
72.0811	1.1
86.0966	1.6
89.0599	2.4
98.0964	0.9
106.0651	0.7
110.0713	0.8
120.0807	0.8
132.0442	2.8
133.0857	1.7
136.0756	1.8
177.1118	0.8
183.1487	0.7
207.1123	2.2
221.1385	0.7
223.1070	0.8
235.1078	0.8
415.1461	0.7
415.2065	2.0
415.2327	1.1
416.3149	100.0
417.1631	2.3
417.3183	27.2
418.3212	2.1

Name: 9-oxo-N-(2,2,6,6-tetramethyl-4-piperidinyl)bicyclo(3.3.1)nonane-3-carboxamide
PrecursorMZ: 321.25339
RT: 5.8779
ExactMass: 320.246378268
Spectrum_type: 2
charge: 1
Formula: C19H32N2O2
SMILES: CC1(CC(CC(N1)(C)C)NC(=O)C2CC3CCCC(C2)C3=O)C
Method: HCD
Collision_energy: [28.333334]
Isolation_window: 4.0
Ion_mode: P
Num Peaks: 14
96.0811	10.3
100.1123	38.4
113.1075	11.4
114.0916	23.3
117.1388	16.2
160.9015	9.2
163.1118	6.1
176.8753	7.6
209.1649	25.3
248.1649	7.7
265.1911	11.5
321.2531	100.0
322.2475	35.5
323.2511	6.8

Name: Ac-Lys-OH pyruvate (known isomers: 0; isobaric peaks in run: 1)
PrecursorMZ: 261.1441
RT: 7.9195
Spectrum_type: 2
charge: 1
SMILES: CC(=O)N[C@@H](CCCCNC(C)C(=O)O)C(=O)O
Method: HCD
Collision_energy: [28.333334]
Isolation_window: 4.0
Ion_mode: P
Num Peaks: 42
70.0654	8.9
84.0445	4.6
84.0810	36.7
85.0286	7.0
85.0843	6.3
86.0603	4.9
86.0966	55.4
110.0964	15.3
116.0706	6.8
126.0911	6.1
127.1229	5.8
128.0704	4.8
130.0497	8.5
130.0861	21.7
144.0765	5.9
144.1017	15.8
156.1017	12.9
173.1281	6.3
184.1329	15.5
196.0961	4.9
197.1283	8.9
198.1123	5.3
202.1435	7.0
214.1069	11.7
214.1429	5.5
215.1386	71.4
216.1233	7.7
216.1421	8.4
219.1335	9.0
226.1437	5.2
243.1333	9.4
244.1174	20.1
260.1118	11.8
260.1237	35.3
260.1487	16.6
261.1075	5.1
261.1227	6.4
261.1438	100.0
262.1051	4.6
262.1282	41.1
262.1476	6.5
262.1642	24.7

Name: Acetyl Tributyl Citrate
PrecursorMZ: 403.23238
RT: 1.0079333333333333
ExactMass: 402.22536804
Spectrum_type: 2
charge: 1
Formula: C20H34O8
SMILES: CCCCOC(=O)CC(CC(=O)OCCCC)(C(=O)OCCCC)OC(=O)C
Method: HCD
Collision_energy: [28.333334]
Isolation_window: 4.0
Ion_mode: P
Num Peaks: 36
57.0703	4.0
61.0289	5.2
68.9974	1.0
71.0859	1.3
97.3993	1.2
111.0078	2.9
129.0182	100.0
130.0216	5.3
139.0026	19.5
140.0059	1.0
149.0234	1.3
157.0132	45.7
158.0166	2.9
171.1380	0.8
175.0238	1.0
185.0808	47.8
186.0841	4.6
213.0756	11.5
217.0342	15.3
218.0376	1.5
259.1538	19.2
260.1571	2.4
269.1380	2.2
273.0967	9.0
274.0999	1.5
329.1591	4.0
361.2219	3.6
362.2257	0.9
384.1865	0.8
402.1383	0.8
402.1959	1.5
403.1104	14.3
403.1521	2.0
403.2829	1.0
404.1137	3.1
405.1083	2.1

Name: Ala-Val
PrecursorMZ: 189.12307
RT: 5.771625
ExactMass: 188.11609238
Spectrum_type: 2
charge: 1
Formula: C8H16N2O3
SMILES: C[C@@H](C(=O)N[C@@H](C(C)C)C(=O)O)N
Method: HCD
Collision_energy: [28.333334]
Isolation_window: 4.0
Ion_mode: P
Num Peaks: 24
56.0498	1.3
72.0810	26.6
74.0603	10.9
86.0966	6.1
116.0704	3.1
118.0861	34.6
119.0894	1.6
132.1017	3.7
142.0860	2.4
143.1176	13.5
144.1016	5.3
144.1380	3.7
146.0598	3.3
162.0545	1.4
165.0212	1.8
188.0702	1.9
188.0910	1.5
189.1229	2.7
190.0497	1.6
190.0858	100.0
190.1070	2.2
190.1430	1.4
191.0809	7.3
191.0892	7.0

Name: Alanine + DCA
PrecursorMZ: 446.32653
RT: 5.4135
ExactMass: 463.32977354
Spectrum_type: 2
charge: 1
Formula: C27H45NO5
SMILES: C[C@H](CCC(=O)N[C@@H](C)C(=O)O)[C@H]1CC[C@@H]2[C@@]1([C@H](C[C@H]3[C@H]2CC[C@H]4[C@@]3(CC[C@H](C4)O)C)O)C
Method: HCD
Collision_energy: [28.333334]
Isolation_window: 4.0
Ion_mode: P
Num Peaks: 64
70.0656	1.2
72.0812	2.8
73.0289	2.3
80.0548	1.8
81.0339	2.4
83.0495	0.8
84.0812	2.7
86.0968	2.5
87.0444	2.2
89.0601	18.7
95.0495	0.7
100.0760	4.3
102.0679	1.5
110.0603	0.8
111.0444	1.6
112.8959	1.1
114.0915	0.9
116.0709	0.9
124.0809	0.8
128.0707	20.6
129.0742	1.0
130.0865	0.8
133.0860	10.3
136.0619	0.9
140.1070	1.8
155.0991	0.9
156.1021	1.3
157.1339	0.8
161.1327	3.2
162.0763	1.8
173.0922	0.8
176.8753	1.5
177.1122	3.1
199.1253	1.1
201.0865	0.9
205.1335	1.1
221.1387	2.0
237.1237	0.8
243.1517	1.2
255.2104	1.3
261.1445	1.2
271.2057	4.0
273.2213	2.1
428.2645	2.4
428.3160	100.0
428.7637	1.4
429.1671	0.8
429.3194	29.2
430.3317	34.8
436.7751	1.1
445.1653	1.4
445.1969	2.3
446.1427	0.9
446.1809	1.5
446.2279	1.5
446.2602	1.2
446.3263	5.2
447.1715	1.0
447.2029	1.7
447.2302	1.7
447.3306	1.1
448.1588	2.1
448.2017	1.4
448.3424	9.2

Name: Alanine conjugated chenodeoxycholic acid
PrecursorMZ: 428.31487
RT: 4.6875
ExactMass: 463.32977354
Spectrum_type: 2
charge: 1
Formula: C27H45NO5
SMILES: C[C@H](CCC(=O)NC(C)C(=O)O)[C@H]1CC[C@@H]2[C@@]1(CC[C@H]3[C@H]2[C@@H](C[C@H]4[C@@]3(CC[C@H](C4)O)C)O)C
Method: HCD
Collision_energy: [28.333334]
Isolation_window: 4.0
Ion_mode: P
Num Peaks: 56
73.0288	0.4
81.0338	0.6
81.0702	0.4
83.0494	0.3
85.0287	3.4
89.0600	0.8
95.0857	0.7
97.3993	0.3
100.0759	5.6
101.0792	0.3
107.0857	0.3
109.1013	0.3
112.0759	0.5
114.0914	0.4
121.0649	0.3
121.1012	0.4
123.0804	0.4
126.0551	0.6
128.0706	8.5
129.0739	0.4
130.0862	0.4
133.0858	0.5
135.0803	0.5
140.1070	1.3
147.1168	0.3
149.1327	0.3
156.1019	0.8
158.1176	0.6
161.0961	0.3
161.1325	2.7
165.0910	1.2
213.1632	0.4
253.1947	0.5
271.2054	4.3
272.2087	0.8
273.2212	0.3
301.1909	0.4
302.1936	0.4
324.3254	0.4
381.2778	0.9
410.3043	0.9
412.3207	2.8
426.3579	1.1
427.1035	0.5
427.2777	1.0
427.3045	0.3
427.3607	1.0
428.2549	0.6
428.2670	0.3
428.3155	100.0
428.3651	0.9
428.3736	0.9
428.4259	0.3
429.2401	0.3
429.3188	27.4
430.3239	3.3

Name: Alpha-Methylstyrene
PrecursorMZ: 119.0856
RT: 6.2502
ExactMass: 118.078250319
Spectrum_type: 2
charge: 1
Formula: C9H10
SMILES: CC(=C)C1=CC=CC=C1
Method: HCD
Collision_energy: [28.333334]
Isolation_window: 4.0
Ion_mode: P
Num Peaks: 15
55.0182	26.6
58.0655	5.5
59.0733	8.3
72.0810	5.2
74.0603	15.4
91.0544	100.0
92.0577	6.8
117.0699	7.4
118.0650	5.8
118.0862	77.9
119.0855	76.1
119.0894	5.3
120.0555	5.6
120.0807	13.4
120.0888	7.3

Name: Asterina
PrecursorMZ: 289.13889
RT: 8.8404
ExactMass: 288.13213636
Spectrum_type: 2
charge: 1
Formula: C12H20N2O6
SMILES: COC1=C(CC(CC1=NCC(=O)O)(CO)O)NCCO
Method: HCD
Collision_energy: [28.333334]
Isolation_window: 4.0
Ion_mode: P
Num Peaks: 48
70.0655	0.5
84.0810	0.5
116.0706	0.2
130.0861	0.3
137.0706	0.3
158.0926	0.2
175.1189	0.3
181.0969	0.3
185.0917	0.7
186.0996	9.9
187.0836	2.2
187.1027	0.7
197.0917	2.3
198.0953	0.2
199.1074	2.3
200.1158	0.9
201.0991	0.2
212.1151	2.7
213.1185	0.3
221.0917	1.2
228.1100	0.4
229.1177	0.3
230.0892	1.8
230.1257	17.7
231.0734	0.7
231.1292	1.8
241.0811	0.4
241.1175	0.4
243.0969	1.0
243.1327	0.4
256.1047	0.6
271.1277	0.4
273.1440	0.2
274.1154	13.7
275.1189	1.6
288.1070	0.3
288.1223	1.3
288.1657	0.4
288.2035	0.4
288.9743	0.2
289.1047	0.6
289.1119	0.4
289.1388	100.0
289.1645	0.5
289.1725	0.7
290.1046	0.2
290.1422	13.0
291.1437	1.4

Name: Benproperine Phosphate
PrecursorMZ: 310.21629
RT: 6.1172
ExactMass: 407.18616006
Spectrum_type: 2
charge: 1
Formula: C21H30NO5P
SMILES: CC(COC1=CC=CC=C1CC2=CC=CC=C2)N3CCCCC3.OP(=O)(O)O
Method: HCD
Collision_energy: [28.333334]
Isolation_window: 4.0
Ion_mode: P
Num Peaks: 38
70.0655	2.1
86.0967	16.0
100.1123	58.5
101.1157	3.9
101.1200	1.9
105.0337	14.2
118.0414	3.0
126.0913	2.6
166.0783	1.8
166.0861	2.1
167.0861	4.5
181.1012	45.0
182.1044	6.8
209.0960	33.6
210.0994	4.7
222.1123	2.8
227.1068	1.8
235.1072	1.9
291.1342	1.6
292.1163	2.6
293.1135	1.7
294.1332	1.7
309.1036	2.6
309.1069	3.7
309.1437	4.3
309.1801	3.5
309.2174	2.4
310.1081	1.5
310.1279	5.1
310.2163	100.0
311.1230	3.7
311.1601	5.8
311.1968	1.5
311.2194	22.7
312.1070	2.5
312.1436	4.0
312.1945	2.3
312.2223	2.0

Name: Benzyloxycarbonylglycine
PrecursorMZ: 210.07592
RT: 5.135
ExactMass: 209.06880783
Spectrum_type: 2
charge: 1
Formula: C10H11NO4
SMILES: C1=CC=C(C=C1)COC(=O)NCC(=O)O
Method: HCD
Collision_energy: [28.333334]
Isolation_window: 4.0
Ion_mode: P
Num Peaks: 107
67.0546	0.7
69.0702	0.6
70.0654	0.5
71.0494	0.4
79.0544	0.5
81.0337	1.6
81.0701	1.1
82.0653	1.0
83.0243	1.4
83.0494	0.6
91.0543	0.7
93.0701	0.9
95.0492	0.9
95.0857	1.1
97.0650	0.5
101.0598	0.8
105.0699	1.2
107.0855	1.2
108.0444	0.5
108.0808	0.7
109.0648	0.8
110.0601	1.0
111.0553	0.9
112.0393	1.2
119.0855	0.6
120.0807	1.7
121.1011	0.7
122.0599	1.1
123.0677	0.9
124.0392	0.5
124.0756	0.6
126.0661	0.7
131.0854	1.1
132.0807	0.5
133.1010	0.5
134.0599	1.0
134.0963	1.5
136.0755	8.1
137.0788	0.6
138.0548	0.7
138.0911	1.6
139.0976	0.4
145.1009	0.8
147.1167	0.7
148.0755	2.2
149.0835	2.1
149.0959	3.2
150.0548	57.5
150.0913	2.7
151.0580	5.1
151.0862	0.6
151.0991	1.3
151.1113	0.8
152.0373	0.5
152.0704	2.1
153.0531	0.7
154.0609	2.7
162.0912	3.2
163.0864	0.9
163.1118	1.0
164.0704	1.5
164.1068	4.2
165.0771	2.9
165.0908	0.4
165.1023	1.4
166.0861	5.1
166.0973	0.5
167.0894	0.5
167.1064	0.5
167.1176	1.4
176.0705	0.6
178.0861	1.4
180.0652	2.1
180.1016	2.4
190.0860	1.5
191.0813	0.6
191.1068	0.8
191.1170	0.6
192.0652	24.2
192.1017	2.1
193.0681	2.5
193.0968	1.2
193.1220	0.5
194.0808	2.4
194.1172	0.7
195.0887	2.8
208.0966	20.9
208.1327	2.4
209.0666	1.6
209.0917	4.6
209.1021	9.1
209.1193	1.0
209.1281	35.0
210.0592	0.5
210.0757	55.9
210.0917	0.9
210.1121	100.0
210.1203	1.9
210.1308	3.9
210.1484	0.9
211.0815	13.1
211.1070	5.6
211.1160	11.4
211.1332	0.6
211.1446	0.7
212.0913	13.8
212.1276	2.4

Name: Benzyltrimethylammonium
PrecursorMZ: 150.12776
RT: 5.8083
ExactMass: 150.128274515
Spectrum_type: 2
charge: 1
Formula: C10H16N+
SMILES: C[N+](C)(C)CC1=CC=CC=C1
Method: HCD
Collision_energy: [28.333334]
Isolation_window: 4.0
Ion_mode: P
Num Peaks: 11
58.0656	12.2
91.0545	100.0
92.0578	7.5
96.9954	2.9
108.0810	4.8
134.0633	7.8
149.0233	5.2
149.1075	2.4
150.1277	62.3
151.0866	3.8
151.1311	6.1

Name: Bicuculline
PrecursorMZ: 390.09484
RT: 2.1076
ExactMass: 367.10558726
Spectrum_type: 2
charge: 1
Formula: C20H17NO6
SMILES: CN1CCC2=CC3=C(C=C2[C@H]1[C@H]4C5=C(C6=C(C=C5)OCO6)C(=O)O4)OCO3
Method: HCD
Collision_energy: [28.333334]
Isolation_window: 4.0
Ion_mode: P
Num Peaks: 6
149.0234	3.8
389.0939	3.0
390.0948	100.0
391.0982	16.9
391.1501	3.8
392.0930	6.0

Name: Bis(2-ethylhexyl) adipate
PrecursorMZ: 371.3151
RT: 0.99785
ExactMass: 370.30830982
Spectrum_type: 2
charge: 1
Formula: C22H42O4
SMILES: CCCCC(CC)COC(=O)CCCCC(=O)OCC(CC)CCCC
Method: HCD
Collision_energy: [28.333334]
Isolation_window: 4.0
Ion_mode: P
Num Peaks: 11
57.0703	21.5
71.0858	28.6
73.0470	18.8
91.0574	54.1
101.0597	50.9
111.0440	50.3
129.0544	90.7
147.0650	100.0
285.0088	19.9
355.0689	38.3
356.0704	9.9

Name: Bucetin
PrecursorMZ: 224.12813
RT: 5.3872
ExactMass: 223.1208434
Spectrum_type: 2
charge: 1
Formula: C12H17NO3
SMILES: CCOC1=CC=C(C=C1)NC(=O)CC(C)O
Method: HCD
Collision_energy: [28.333334]
Isolation_window: 4.0
Ion_mode: P
Num Peaks: 94
55.0547	8.4
59.0496	2.3
69.0703	1.2
73.0652	24.8
74.0685	1.2
83.0495	4.4
87.0444	1.1
95.0606	1.6
96.0446	0.8
100.0760	0.8
101.0599	12.7
108.0445	1.3
108.0809	1.5
110.0602	4.5
110.0716	1.1
111.0443	1.2
112.0507	16.0
114.0664	1.4
115.0755	100.0
116.0789	5.9
120.0809	26.9
121.0842	2.1
122.0600	1.5
122.0966	1.0
123.0555	1.8
123.0917	0.8
124.0758	1.0
125.0710	10.7
126.0551	0.9
134.0603	1.0
136.0392	1.2
136.0757	1.3
138.0553	0.9
139.0867	1.6
140.0819	0.9
150.0549	1.7
152.0707	0.8
161.1074	6.4
162.0661	1.7
162.0915	1.2
163.0869	0.8
164.0709	1.4
164.0820	4.1
164.1070	1.4
166.0500	3.4
166.0863	1.1
177.1022	0.7
178.0863	4.8
178.0974	0.7
179.1180	1.7
180.1020	2.3
180.1134	0.9
188.0818	1.4
190.0862	0.7
190.0974	1.0
194.0813	1.8
204.0767	1.2
205.0802	0.7
205.0971	1.6
206.0814	4.6
206.0923	32.0
206.1176	1.0
207.0765	0.9
207.0847	0.7
207.0965	3.7
207.1128	24.3
208.0969	3.1
208.1080	9.1
208.1165	1.3
222.0761	3.1
222.0872	0.8
222.1126	4.2
222.1240	0.8
222.1489	6.1
223.0800	3.3
223.1076	12.1
223.1180	3.1
223.1438	4.8
223.1530	1.5
224.0560	1.0
224.0918	36.6
224.1034	6.0
224.1101	0.8
224.1281	76.2
224.1381	1.8
225.0866	0.8
225.0954	3.9
225.1230	24.4
225.1319	8.2
225.1594	4.0
226.0723	0.9
226.1073	12.6
226.1186	10.8
226.1429	1.3

Name: Butanal
PrecursorMZ: 73.06515
RT: 13.0976
ExactMass: 72.057514874
Spectrum_type: 2
charge: 1
Formula: C4H8O
SMILES: CCCC=O
Method: HCD
Collision_energy: [28.333334]
Isolation_window: 4.0
Ion_mode: P
Num Peaks: 8
55.0547	51.8
57.0452	69.0
72.0811	100.0
73.0652	14.5
73.0845	6.0
74.0604	5.4
74.0716	31.6
74.0968	84.6

Name: Butylamine
PrecursorMZ: 74.09668
RT: 9.4087
ExactMass: 73.089149355
Spectrum_type: 2
charge: 1
Formula: C4H11N
SMILES: CCCCN
Method: HCD
Collision_energy: [28.333334]
Isolation_window: 4.0
Ion_mode: P
Num Peaks: 6
56.0498	14.5
57.0702	47.4
69.9198	8.3
72.0811	16.2
74.0603	8.7
74.0967	100.0

Name: Butyrylglycine
PrecursorMZ: 146.08121
RT: 7.5596
ExactMass: 145.07389321
Spectrum_type: 2
charge: 1
Formula: C6H11NO3
SMILES: CCCC(=O)NCC(=O)O
Method: HCD
Collision_energy: [28.333334]
Isolation_window: 4.0
Ion_mode: P
Num Peaks: 13
62.9295	9.4
64.9277	7.5
84.0447	5.4
86.0967	33.1
100.0759	30.8
103.9558	9.3
105.9540	6.8
121.9663	100.0
123.9644	57.4
144.9821	6.2
146.0812	22.7
146.1177	14.5
146.9804	5.2

Name: C2-Ceramide
PrecursorMZ: 324.28882
RT: 1.3316666666666668
ExactMass: 341.29299411
Spectrum_type: 2
charge: 1
Formula: C20H39NO3
SMILES: CCCCCCCCCCCCC/C=C/[C@H]([C@H](CO)NC(=O)C)O
Method: HCD
Collision_energy: [28.333334]
Isolation_window: 4.0
Ion_mode: P
Num Peaks: 13
60.0447	10.8
67.0544	8.8
69.1081	17.7
69.1101	6.6
79.0544	6.4
87.0441	6.3
93.0700	8.9
97.4557	9.7
252.2680	9.5
264.2676	100.0
265.2712	16.4
306.2783	19.0
324.2889	21.5

PrecursorMZ: 515.23375
RT: 0.9078
Spectrum_type: 2
charge: 1
SMILES: CCCc1nc2c(C)cc(cc2n1Cc3ccc(cc3)c4ccccc4C(=O)O)c5nc6ccccc6n5C
Method: HCD
Collision_energy: [28.333334]
Isolation_window: 4.0
Ion_mode: P
Num Peaks: 144
52.5765	1.4
55.0545	1.6
57.0703	2.5
57.2485	2.1
60.0448	2.1
67.0546	5.6
69.0702	5.8
71.0494	1.4
71.0858	3.0
79.0545	2.3
81.0338	2.1
81.0701	9.4
82.0654	3.2
83.0494	3.8
83.0858	4.0
84.0810	2.3
85.0650	1.8
91.0544	4.5
93.0700	4.1
94.0652	2.6
95.0857	9.8
97.0649	2.4
97.1013	3.4
99.0804	2.1
100.0758	30.1
101.0598	6.3
101.0791	1.4
105.0335	2.3
105.0700	4.0
107.0856	4.5
109.0448	3.1
109.1012	7.2
111.0806	1.6
112.0757	1.6
119.0855	3.8
120.0444	7.3
121.1012	5.8
123.0240	5.8
123.0803	2.0
123.1167	4.1
125.0962	1.5
131.0852	2.3
133.1011	3.2
135.0801	2.1
135.1167	3.5
137.0959	1.7
142.0262	2.5
144.0844	1.9
145.1011	3.3
147.1167	3.1
149.0958	1.9
149.1324	2.7
157.1012	1.6
159.1170	2.3
161.1323	2.0
163.1477	1.8
165.0907	1.5
173.1322	1.9
176.1069	7.8
197.0806	2.0
209.0757	2.7
229.1011	1.9
231.1163	4.4
234.0836	3.3
236.0991	5.2
237.0707	2.0
249.1070	23.3
250.1112	3.1
251.1227	48.3
252.0818	1.7
252.1261	10.8
277.1018	51.4
278.1056	9.0
279.1177	22.5
280.0763	11.2
280.1210	3.9
281.0801	1.9
292.0763	9.8
292.1490	4.5
293.0799	1.9
294.1284	23.1
295.1315	3.5
297.0789	3.4
306.0919	2.3
306.1282	5.2
306.1642	1.6
308.1441	4.8
318.0920	9.5
318.1283	7.6
319.0949	2.2
319.1125	2.1
320.1438	1.9
332.1438	12.0
333.1468	3.1
333.1651	1.7
334.1233	10.0
334.1590	5.1
335.1264	2.5
336.1390	6.4
337.1422	1.6
348.1752	14.6
349.1789	4.1
350.1909	12.1
351.1949	1.9
352.1342	4.4
362.1181	43.6
363.1214	10.5
376.1701	31.5
377.1734	7.1
378.1858	46.2
379.1206	4.5
379.1892	11.1
380.1282	13.8
381.1318	3.2
393.1739	1.5
394.1806	100.0
395.1840	25.1
396.1962	6.7
397.1313	14.8
398.1348	2.7
422.1390	2.4
422.1756	3.0
455.1753	4.7
469.2279	24.8
470.2312	7.4
472.1784	2.2
473.1864	27.4
474.1895	8.6
495.4962	3.7
496.4693	2.0
497.2227	20.4
497.3620	1.5
498.2264	8.5
499.3764	1.5
513.5056	2.0
515.1984	2.4
515.2332	40.4
515.3379	1.4
515.3721	3.3
515.4816	1.8
516.2364	13.9
516.3721	2.2
517.2392	1.8
517.3892	4.1

Name: Carveol
PrecursorMZ: 135.11698
RT: 0.574
ExactMass: 152.12011513
Spectrum_type: 2
charge: 1
Formula: C10H16O
SMILES: CC1=CCC(CC1O)C(=C)C
Method: HCD
Collision_energy: [28.333334]
Isolation_window: 4.0
Ion_mode: P
Num Peaks: 42
57.0704	1.7
58.0657	0.8
59.0497	1.8
67.0548	1.5
69.0704	1.7
79.0547	1.6
81.0703	0.9
83.0859	0.6
89.0602	0.6
91.0546	2.6
93.0703	5.2
95.0859	9.5
96.0891	0.7
97.0651	2.6
105.0338	53.4
105.0699	1.7
106.0371	3.6
107.0858	11.1
108.0890	1.1
109.1015	4.6
111.0808	1.3
117.0701	0.6
119.0858	9.0
120.0944	1.7
121.0287	0.6
121.1016	4.6
121.9664	0.9
133.1014	2.2
135.1170	19.1
136.1204	2.6
137.0964	1.0
138.1278	0.6
142.1591	0.7
149.0242	4.1
149.0599	100.0
149.0848	0.7
149.1327	6.4
150.0633	10.1
150.1363	0.8
151.0653	0.6
151.1484	1.3
153.1275	5.0

Name: Carviolin
PrecursorMZ: 318.09689
RT: 2.4674
ExactMass: 300.0633881
Spectrum_type: 2
charge: 1
Formula: C16H12O6
SMILES: COC1=CC(=CC2=C1C(=O)C3=C(C2=O)C=C(C=C3O)O)CO
Method: HCD
Collision_energy: [28.333334]
Isolation_window: 4.0
Ion_mode: P
Num Peaks: 174
69.0340	11.8
70.0656	41.0
71.0493	6.1
72.0813	11.5
80.0498	6.9
81.0339	25.7
83.0495	9.5
84.0448	21.4
84.0812	27.0
85.0288	14.0
85.0652	7.2
86.0605	10.2
87.0445	12.0
90.0551	6.4
94.0656	7.4
96.0447	8.6
97.0288	10.5
98.0603	13.2
98.0964	6.0
99.0445	18.1
100.0760	16.3
101.0600	24.0
102.0553	10.9
107.0495	41.4
110.0604	7.9
110.0715	12.7
111.0443	14.7
112.0397	8.2
112.0760	14.1
114.0551	11.0
116.0709	20.5
117.0548	8.2
122.0603	6.9
123.0439	6.8
124.0762	8.0
125.0235	12.9
125.0595	6.8
126.0546	11.5
126.0917	13.6
127.0387	11.5
128.0708	12.7
130.0501	17.3
130.0865	18.2
134.0597	6.1
136.0757	12.2
137.0231	6.5
138.0553	19.7
139.0399	7.3
140.0707	11.7
142.0500	9.9
142.0863	12.4
144.0650	6.4
144.1022	21.0
145.0497	15.8
148.0602	6.1
149.0594	6.0
150.0547	8.7
150.0914	9.2
152.0702	12.8
153.0556	8.0
154.0499	10.1
154.0863	11.7
156.0650	9.0
156.0766	6.4
156.1023	9.8
158.0830	9.1
158.0928	10.3
158.1174	8.1
160.0752	6.5
160.0970	10.1
163.0864	9.2
164.0704	15.1
165.0540	6.3
166.0502	8.3
166.0859	12.1
168.0657	11.1
168.1013	8.7
170.0805	6.0
174.0760	8.4
176.0701	8.4
177.0543	7.3
177.1031	7.1
178.0860	10.0
180.0648	7.8
180.1008	7.3
181.0974	93.6
182.0804	6.6
182.0992	8.1
184.0961	8.3
185.0928	7.9
188.0924	9.9
194.0807	8.3
195.1131	45.9
197.0593	7.3
199.0751	16.7
202.0701	17.1
202.0853	6.2
206.1034	38.1
207.1129	8.8
208.0606	6.9
208.0958	7.8
211.0753	15.1
223.1075	7.0
225.1232	9.9
226.1071	6.5
230.0816	20.8
239.0708	28.7
241.0852	12.2
242.0810	6.8
253.1188	6.0
255.0652	11.7
257.0785	6.5
260.0565	8.4
261.1221	6.5
267.0632	6.9
272.0901	9.3
284.1168	12.8
285.0757	35.3
286.0730	12.9
300.0847	14.1
300.1085	11.6
300.1429	6.4
301.0696	19.9
302.1010	6.1
302.1210	8.8
303.0857	17.0
304.1397	32.4
314.0999	8.4
315.0852	13.0
316.0779	9.0
316.1143	11.5
316.1462	15.4
317.1098	15.6
317.1499	18.7
318.0957	100.0
318.1286	9.5
318.1555	6.8
319.0967	13.5
319.1322	8.3
320.1365	71.1
320.1990	40.9
321.1099	7.0
321.1438	16.8
322.1506	37.4
323.1220	13.4
323.1567	13.3
324.1122	16.9
324.1555	7.1
325.1045	6.5
325.1442	18.2
325.1766	28.8
326.1260	10.8
326.1626	27.3
327.1216	15.3
327.1623	21.9
328.1492	30.1
329.1449	25.7
330.1276	25.3
330.1667	8.6
331.0907	7.4
331.1256	8.6
331.1542	14.7
332.0751	6.0
332.1113	15.5
332.1486	13.5
333.1279	23.8
333.1757	10.7
334.1478	22.3
335.1227	7.0
335.1563	15.9
336.1228	9.9
336.1610	8.7
337.1057	7.6
337.1378	11.8

Name: Cholesterol
PrecursorMZ: 369.351
RT: 0.7732181818181818
ExactMass: 386.354866087
Spectrum_type: 2
charge: 1
Formula: C27H46O
SMILES: C[C@H](CCCC(C)C)[C@H]1CC[C@@H]2[C@@]1(CC[C@H]3[C@H]2CC=C4[C@@]3(CC[C@@H](C4)O)C)C
Method: HCD
Collision_energy: [28.333334]
Isolation_window: 4.0
Ion_mode: P
Num Peaks: 42
57.0703	5.0
67.0546	3.8
69.0702	5.2
71.0858	5.3
81.0701	13.1
83.0858	7.1
85.1014	2.5
93.0699	4.9
95.0856	17.5
97.1013	6.3
105.0700	3.7
107.0856	6.8
109.1012	22.5
111.1168	4.3
119.0854	4.3
121.1012	6.8
123.1168	8.0
133.1010	6.1
135.1166	20.3
137.1323	2.9
147.1166	30.6
148.1200	2.7
149.1324	10.5
151.1478	2.5
159.1165	2.3
161.1323	21.1
163.1481	3.4
175.1479	7.9
189.1635	4.3
203.1793	4.1
215.1788	4.7
217.1950	3.3
229.1946	2.3
233.2261	4.4
243.2103	5.0
247.2413	2.9
259.2413	5.3
273.2575	2.3
287.2726	3.0
368.4246	5.0
369.3508	100.0
370.3541	26.2

Name: Cis-4-Hydroxy-D-Proline
PrecursorMZ: 132.06568
RT: 8.4408
ExactMass: 131.058243149
Spectrum_type: 2
charge: 1
Formula: C5H9NO3
SMILES: C1[C@H](CN[C@H]1C(=O)O)O
Method: HCD
Collision_energy: [28.333334]
Isolation_window: 4.0
Ion_mode: P
Num Peaks: 11
56.0499	8.4
58.0655	8.4
60.0449	16.6
68.0499	12.5
72.0448	100.0
114.0915	14.3
130.1590	24.9
132.0656	12.4
132.1021	19.0
133.0760	16.4
134.0965	63.0

Name: Coproporphyrin III
PrecursorMZ: 655.27588
RT: 0.5338
ExactMass: 654.26896418
Spectrum_type: 2
charge: 1
Formula: C36H38N4O8
SMILES: CC1=C(C2=CC3=C(C(=C(N3)C=C4C(=C(C(=N4)C=C5C(=C(C(=N5)C=C1N2)C)CCC(=O)O)C)CCC(=O)O)C)CCC(=O)O)CCC(=O)O
Method: HCD
Collision_energy: [28.333334]
Isolation_window: 4.0
Ion_mode: P
Num Peaks: 9
72.8067	2.0
72.8090	5.1
72.9205	1.9
523.2330	1.8
596.2624	9.2
597.2653	3.8
655.2758	100.0
656.2790	40.3
657.2820	7.7

Name: Coronaric acid
PrecursorMZ: 297.24234
RT: 0.5529
ExactMass: 296.23514488
Spectrum_type: 2
charge: 1
Formula: C18H32O3
SMILES: CCCCC/C=C\CC1C(O1)CCCCCCCC(=O)O
Method: HCD
Collision_energy: [28.333334]
Isolation_window: 4.0
Ion_mode: P
Num Peaks: 296
55.0549	1.1
57.0340	26.0
57.0704	45.6
58.0375	1.5
58.0656	4.0
58.0738	2.3
59.0497	100.0
59.0609	1.2
60.0450	6.1
60.0530	3.1
62.0605	1.6
67.0547	11.2
69.0340	1.5
69.0704	12.7
70.0656	1.4
71.0496	4.3
71.0860	39.2
72.0448	2.0
72.0812	2.4
72.0894	1.9
73.0289	1.6
73.0653	3.4
74.0605	3.0
75.0446	1.0
79.0546	3.7
81.0339	9.7
81.0703	18.7
83.0497	4.6
83.0860	14.0
84.0811	1.1
84.0894	1.1
85.0289	1.3
85.0652	8.3
85.1016	28.8
86.0606	1.7
86.0968	4.4
86.1050	1.5
87.0444	15.1
87.0809	1.7
88.0763	1.0
89.0601	38.2
90.0189	1.1
90.0635	1.4
91.0542	5.3
93.0702	8.7
95.0494	4.0
95.0859	21.6
96.0893	1.9
97.0651	7.7
97.1015	10.0
98.0603	1.3
98.9845	9.8
99.0444	3.7
99.0808	12.3
99.1173	2.0
100.0762	1.5
100.0841	1.1
101.0600	28.6
101.0964	3.9
102.0634	1.2
102.0920	2.5
103.0756	2.0
104.0710	4.4
105.0700	3.8
107.0495	1.1
107.0706	3.7
107.0858	13.7
108.0891	1.4
109.0651	4.5
109.1015	17.0
110.1050	1.6
111.0444	3.9
111.0808	5.8
111.1171	3.6
112.0760	1.1
113.0600	12.7
113.0964	2.6
113.1329	1.3
115.0756	10.1
115.0871	1.9
115.1123	1.6
116.0708	2.2
117.0550	1.4
117.0913	27.0
118.0944	2.2
119.0858	5.9
121.0650	2.0
121.1014	13.8
122.1050	1.6
123.0807	6.9
123.1170	9.8
124.1207	1.2
125.0600	2.6
125.0963	6.1
126.0917	1.3
127.0757	2.9
127.1120	2.0
129.0548	2.8
129.0912	4.6
131.0705	3.1
131.0855	2.7
132.0446	7.7
133.0651	1.0
133.0860	10.5
133.1012	5.1
135.0809	2.6
135.1170	21.6
136.0760	1.1
136.1206	2.6
137.0598	1.8
137.0964	4.9
137.1327	4.1
139.0756	2.3
139.1117	4.0
141.0912	3.7
141.1277	2.1
142.1592	7.8
143.0706	1.1
143.0856	1.2
143.1071	2.9
145.1015	3.2
145.1225	1.1
147.0808	1.5
147.1169	4.1
149.0239	1.2
149.0600	3.1
149.0961	3.8
149.1327	6.1
151.0760	1.8
151.0968	19.9
151.1116	3.2
151.1478	1.8
153.0549	3.1
153.0910	2.4
153.1276	4.6
154.1228	1.0
155.0474	1.8
155.1068	2.3
155.1430	1.2
156.1747	2.2
157.0497	1.2
157.1016	1.5
157.1225	14.8
159.1021	1.2
159.1174	3.3
161.0964	2.1
161.1325	2.9
163.0756	1.0
163.1126	2.6
163.1485	2.6
165.0910	2.3
165.1277	1.9
167.1068	1.5
167.1432	2.0
169.0865	1.5
169.1221	1.7
171.1170	1.2
173.0965	1.4
173.1327	2.8
173.1542	1.5
175.1125	1.1
175.1332	7.3
175.1485	1.8
177.0909	1.1
177.1280	1.3
177.1641	1.2
179.1064	1.9
179.1433	1.3
180.1025	1.2
181.0504	1.0
181.1226	1.4
181.1595	1.0
185.1318	1.4
185.1534	1.1
187.1116	1.0
187.1483	1.4
189.1646	1.2
191.1073	1.7
191.1433	1.0
191.1795	8.8
192.1831	1.4
193.1229	2.1
193.1432	1.0
195.1363	1.6
197.1174	1.0
199.1478	1.6
201.1640	1.1
207.1017	1.2
207.1382	1.0
209.1173	16.9
209.1899	7.2
210.1214	2.7
210.1930	1.0
211.1108	1.2
212.2378	1.2
213.1620	1.2
221.1162	1.9
226.2168	1.4
227.1787	1.0
229.1601	1.6
235.1701	1.0
237.1122	12.1
238.1155	2.4
240.2326	1.3
241.2294	1.0
243.2111	1.2
253.1946	1.0
254.2481	2.7
255.1228	4.2
258.2435	2.4
261.2212	1.1
262.1441	4.1
263.1660	1.9
263.2015	1.5
265.1806	1.5
266.9992	1.8
267.1723	1.3
268.9781	3.1
270.2797	1.6
275.2009	1.9
277.2172	2.3
279.2328	5.2
280.2354	1.0
281.0506	3.9
282.0507	1.3
282.2790	1.2
283.0297	9.3
284.0317	2.8
284.2945	1.6
285.0088	12.2
285.2077	1.0
286.0081	2.1
287.0078	2.1
287.2020	1.1
289.2156	1.0
291.1603	1.3
291.2168	17.1
291.2532	11.9
292.2220	3.4
292.2572	2.0
293.1752	2.1
293.2024	1.0
295.1547	1.1
295.2269	1.4
296.2587	1.4
296.2939	6.4
297.1236	1.0
297.2161	2.7
297.2452	4.9
299.0619	32.7
299.1096	1.6
299.2581	1.4
300.0620	8.4
300.2901	17.0
301.0598	5.8
301.1556	1.4
301.2154	2.3
301.2496	2.7
301.2920	3.3
302.0604	1.1
302.1962	1.3
302.3058	3.6
303.0210	1.5
303.1693	1.0
303.1968	1.1
303.2319	2.0
304.1559	1.0
304.2292	1.3
304.2997	3.3
305.2124	1.8
305.2478	1.9
306.1341	1.0
306.1711	1.0
306.2101	1.5
306.2468	1.0
307.1914	1.0
308.1860	1.3
308.2229	1.7
308.2957	1.1
309.1786	1.1
309.2234	3.0
310.1303	1.0
310.2354	1.3
310.3061	1.7
311.1863	3.3
311.2351	1.0
312.1849	1.6
312.2543	1.0
312.2898	2.1
312.3268	3.1
313.1971	3.1
313.2740	1.3
314.3053	1.1
314.3415	1.6
316.1186	1.0
316.3162	1.7

Name: Corticosterone
PrecursorMZ: 347.22183
RT: 0.5757
ExactMass: 346.21440943
Spectrum_type: 2
charge: 1
Formula: C21H30O4
SMILES: C[C@]12CCC(=O)C=C1CC[C@@H]3[C@@H]2[C@H](C[C@]4([C@H]3CC[C@@H]4C(=O)CO)C)O
Method: HCD
Collision_energy: [28.333334]
Isolation_window: 4.0
Ion_mode: P
Num Peaks: 313
55.0546	2.5
57.0340	5.1
57.0704	15.1
59.0497	6.9
59.0610	3.5
60.0450	4.2
62.0606	5.6
67.0547	53.5
68.0580	2.8
69.0340	4.0
69.0704	34.1
70.0655	2.0
70.0736	2.1
71.0496	12.3
71.0860	16.8
72.0813	2.7
73.0288	1.9
73.0474	2.5
79.0547	18.5
81.0340	4.3
81.0703	96.8
82.0737	6.1
83.0495	7.9
83.0860	26.7
84.0812	2.4
85.0289	7.5
85.0652	13.9
85.1016	10.0
86.0605	3.5
86.0969	6.5
87.0445	9.1
89.0601	12.9
91.0541	12.3
93.0703	44.5
94.0738	2.9
95.0495	6.7
95.0859	100.0
96.0892	6.6
97.0651	17.3
97.1015	20.0
99.0444	9.7
99.0808	14.3
101.0601	8.8
103.0394	4.6
105.0702	24.7
107.0496	4.1
107.0859	46.2
108.0892	4.7
109.0651	12.8
109.1015	63.4
110.1048	5.3
111.0446	4.3
111.0808	12.7
111.1171	7.2
112.0760	1.9
113.0601	5.9
113.0964	7.6
115.0758	5.1
117.0701	7.5
119.0858	32.0
120.0812	2.2
120.0892	3.2
121.0653	7.3
121.1014	53.7
122.0603	2.2
122.1046	4.5
123.0441	2.0
123.0807	12.8
123.1171	32.3
124.0758	2.3
124.1203	3.7
125.0603	4.0
125.0963	11.6
125.1327	2.2
127.0756	7.0
127.1119	5.6
129.0185	2.1
129.0548	2.2
129.0698	3.1
131.0858	19.5
133.0657	2.6
133.0869	4.3
133.1014	37.6
134.1048	4.7
135.0444	3.8
135.0807	11.0
135.1170	50.3
136.1203	4.4
137.0600	15.5
137.0964	12.1
137.1326	15.3
138.0911	4.8
139.0759	4.4
139.1119	9.1
140.1064	2.3
141.0914	3.5
141.1277	2.2
143.0858	5.5
143.1071	2.1
145.1013	24.4
146.1047	3.1
147.0807	8.5
147.1171	40.4
148.1206	5.0
149.0964	16.2
149.1327	33.2
150.0552	5.9
150.1362	3.9
151.0758	8.9
151.0967	3.2
151.1120	11.3
151.1486	4.9
152.0705	1.9
153.0551	2.4
153.0914	6.3
153.1275	5.8
154.1595	5.3
155.0859	1.8
155.1069	4.3
156.1750	8.4
157.0864	1.9
157.1014	8.9
159.0811	2.7
159.1171	25.5
160.1207	3.6
161.0965	7.4
161.1327	36.8
162.1367	3.9
163.0757	5.9
163.1121	10.0
163.1483	16.4
164.0709	11.1
164.0839	2.6
164.1517	2.2
165.0548	2.4
165.0769	2.7
165.0912	43.5
165.1275	9.0
165.1643	2.4
166.0965	3.6
167.0704	7.1
167.1070	5.7
167.1430	2.4
169.0861	2.5
169.1015	3.2
171.1026	1.9
171.1171	9.8
173.0968	3.1
173.1181	2.3
173.1325	16.9
174.1362	2.7
175.0755	2.2
175.1121	10.0
175.1484	15.2
176.1526	2.5
177.0913	8.1
177.1274	11.4
177.1637	6.6
179.0706	2.5
179.1069	6.2
179.1434	6.4
181.0869	4.0
181.1224	5.2
183.1172	4.4
185.0811	2.0
185.1328	7.7
187.1121	4.5
187.1482	11.7
188.1520	1.9
189.0914	5.8
189.1276	6.9
189.1639	6.5
191.0708	1.8
191.1062	6.9
191.1430	5.9
192.1029	2.1
193.0865	1.8
193.1216	6.5
193.1592	1.9
195.1193	2.4
195.1384	6.1
196.0969	5.9
197.1329	4.3
199.1116	3.9
199.1487	5.3
201.1286	2.9
201.1638	8.4
203.1071	17.7
203.1432	4.0
203.1795	3.2
204.1113	2.3
205.0862	5.9
205.1226	10.6
205.1590	3.6
207.1380	4.2
209.1331	2.3
209.1541	4.6
211.1495	4.0
213.1286	3.4
213.1639	4.5
215.1067	2.1
215.1455	3.0
215.1798	6.0
217.1227	5.0
217.1586	3.3
217.1952	2.9
219.1387	2.8
219.1749	2.4
221.1165	5.7
221.1526	3.7
223.1695	3.1
225.1643	2.2
227.1797	3.0
229.1226	1.9
229.1604	3.0
229.1950	2.9
231.1382	4.3
231.1754	2.5
231.2112	2.2
233.1522	2.4
233.2274	2.3
235.1692	3.1
241.1954	5.3
243.1746	1.8
243.2111	15.0
244.2145	2.6
247.1704	3.9
249.1848	2.7
255.0768	2.2
255.1752	1.9
257.1285	3.5
257.1901	2.0
259.2060	16.0
260.2092	2.4
261.1870	1.9
261.2215	42.2
262.2249	7.3
272.1287	2.0
273.1854	2.8
275.2009	6.0
277.1815	2.8
277.2168	4.8
279.2322	29.6
280.2360	6.2
283.2058	2.7
285.0100	2.0
285.1236	3.8
289.1552	13.8
290.1574	3.1
297.2429	6.0
299.2015	1.9
301.2171	5.1
303.2684	4.4
311.2018	4.6
314.2697	2.1
315.1965	2.3
317.1490	2.7
317.2123	1.8
319.2274	2.5
319.2644	2.5
321.1829	4.9
327.2323	2.1
329.2116	14.2
329.2491	4.0
330.2138	4.3
331.0410	4.1
331.1904	2.9
331.2629	18.2
332.2665	4.8
333.2426	1.9
334.2419	2.0
335.2574	3.5
336.2564	2.7
343.2278	5.3
345.2096	2.1
345.2462	4.2
346.0648	10.4
346.2104	5.8
346.3318	3.3
347.0665	2.2
347.2228	28.0
347.2631	4.2
348.2228	6.8
349.2017	2.6
349.2405	2.5
349.2767	2.6
350.2353	2.0
350.2740	2.0
351.2194	5.2
351.2542	29.4
352.2555	7.9
352.3081	4.7
353.2089	4.9
353.2701	27.7
354.1419	2.3
354.2720	7.6
355.0758	2.4
355.2613	5.7
356.2803	22.1
357.1742	2.2
357.2785	43.7
358.2824	11.6
359.0758	2.8
359.2284	2.9
359.2932	1.9
360.2211	2.1
361.1773	2.5
361.2412	20.9
362.2391	4.2
362.3290	1.8
363.2584	4.1
364.2538	2.3
365.2397	1.9

Name: Cyclizine
PrecursorMZ: 167.08548
RT: 1.5024
ExactMass: 266.17829871
Spectrum_type: 2
charge: 1
Formula: C18H22N2
SMILES: CN1CCN(CC1)C(C2=CC=CC=C2)C3=CC=CC=C3
Method: HCD
Collision_energy: [28.333334]
Isolation_window: 4.0
Ion_mode: P
Num Peaks: 37
69.0450	1.4
74.0239	0.8
83.0242	5.5
89.0599	0.8
97.4569	1.4
110.0349	7.1
120.0807	15.3
121.0759	12.7
122.0793	0.9
125.0708	0.8
128.0454	1.5
148.0392	0.9
149.0709	1.0
150.0550	1.4
152.0619	11.0
153.0652	1.4
165.0698	11.5
165.1023	0.9
166.0319	2.7
166.0497	14.9
166.0777	4.1
166.0862	13.6
166.1224	1.9
167.0563	45.8
167.0813	61.3
167.0854	100.0
167.1179	0.8
167.1543	2.1
168.0404	3.1
168.0595	2.9
168.0684	3.3
168.0838	3.7
168.0891	14.6
168.1011	2.0
169.0700	0.9
169.0757	54.1
169.0967	3.8

Name: Cyclopamine
PrecursorMZ: 412.32071
RT: 5.0979
ExactMass: 411.313729551
Spectrum_type: 2
charge: 1
Formula: C27H41NO2
SMILES: C[C@H]1C[C@@H]2[C@H]([C@H]([C@]3(O2)CC[C@H]4[C@@H]5CC=C6C[C@H](CC[C@@]6([C@H]5CC4=C3C)C)O)C)NC1
Method: HCD
Collision_energy: [28.333334]
Isolation_window: 4.0
Ion_mode: P
Num Peaks: 86
67.0547	0.5
69.0340	0.6
69.0703	0.4
70.0655	0.8
71.0495	0.4
72.0811	0.4
81.0339	1.4
81.0702	1.1
83.0495	0.5
84.0447	0.4
85.0287	0.4
86.0968	1.0
87.0444	1.2
89.0600	9.1
90.0633	0.4
93.0702	0.7
95.0494	0.7
95.0858	1.2
99.0443	0.5
100.0759	3.1
100.1123	0.7
105.0701	0.7
107.0859	0.8
109.0650	0.4
109.1014	0.8
110.0604	0.7
111.0443	0.4
116.0708	1.0
117.0701	0.4
119.0856	0.8
121.0650	0.4
121.1014	0.7
123.1170	0.5
128.0707	21.5
129.0741	1.1
130.0862	0.6
131.0703	0.4
131.0855	0.6
133.0860	5.2
133.1011	0.7
135.0806	0.4
135.1169	0.7
140.1070	1.6
143.0858	0.4
145.1012	1.1
147.1170	0.7
149.1326	0.5
156.1021	1.2
157.1013	0.4
159.1168	0.8
161.1326	1.1
164.0707	1.0
173.1327	0.7
177.1122	1.8
218.1032	0.7
221.1390	0.5
240.1162	1.0
253.1948	0.6
255.2107	4.3
256.2139	0.6
262.1295	0.7
283.2418	0.4
353.2164	0.4
365.2841	0.4
377.2841	0.5
394.3100	0.6
395.2941	0.9
396.1917	1.4
403.2133	2.0
403.7156	0.6
410.3048	0.6
411.1802	0.5
411.2889	0.6
411.3127	0.7
412.1587	0.9
412.1959	0.4
412.2646	0.5
412.2752	0.5
412.3209	100.0
412.3653	0.5
412.3784	0.7
413.3247	27.4
414.1388	0.4
414.1765	0.4
414.2028	0.7
414.3283	3.0

Name: Cyclopentanone
PrecursorMZ: 102.09153
RT: 6.9923
ExactMass: 84.057514874
Spectrum_type: 2
charge: 1
Formula: C5H8O
SMILES: C1CCC(=O)C1
Method: HCD
Collision_energy: [28.333334]
Isolation_window: 4.0
Ion_mode: P
Num Peaks: 45
56.0500	1.8
57.0340	0.7
58.0656	10.3
59.0735	3.5
67.0548	0.5
70.0656	2.5
72.0812	0.7
74.0606	0.6
82.0141	0.4
82.0654	0.9
83.0607	0.5
84.0812	24.6
85.0765	0.5
85.0844	1.4
86.0604	0.7
86.0968	0.9
87.0445	0.5
95.0607	3.6
99.0809	0.7
100.0246	2.0
100.0760	0.9
101.0602	0.7
102.0916	23.6
103.0872	0.6
103.0950	1.7
104.0709	9.3
104.1073	0.7
110.0602	0.9
111.0559	0.6
112.0871	1.7
114.0917	0.7
115.0871	1.0
116.0709	0.8
116.1071	0.7
118.0352	0.6
118.0692	0.6
118.0865	100.0
118.1045	0.7
119.0898	5.8
120.0476	1.5
120.0556	0.4
120.0909	0.5
122.0813	8.9
123.0554	1.1
124.0759	0.6

Name: D-Pantolactone
PrecursorMZ: 131.07016
RT: 6.3346
ExactMass: 130.062994177
Spectrum_type: 2
charge: 1
Formula: C6H10O3
SMILES: CC1(COC(=O)[C@@H]1O)C
Method: HCD
Collision_energy: [28.333334]
Isolation_window: 4.0
Ion_mode: P
Num Peaks: 17
57.0339	33.2
57.0702	26.6
69.0338	9.3
74.0967	32.6
75.0443	12.6
84.0445	19.4
84.0809	9.0
86.0602	27.9
86.0965	17.7
87.0441	12.3
129.1384	21.5
130.0496	8.3
130.0860	10.2
130.1588	100.0
131.0700	17.0
131.1619	11.7
132.0652	8.7

Name: D7-Mesembrenone
PrecursorMZ: 305.18552
RT: 1.4414
ExactMass: 287.15214353
Spectrum_type: 2
charge: 1
Formula: C17H21NO3
SMILES: CN1CCC2(C1=CC(=O)CC2)C3=CC(=C(C=C3)OC)OC
Method: HCD
Collision_energy: [28.333334]
Isolation_window: 4.0
Ion_mode: P
Num Peaks: 220
55.0545	4.2
56.0499	3.2
58.0657	3.2
69.0341	6.3
70.0656	30.0
71.0496	6.7
72.0813	8.6
74.0605	3.7
81.0340	16.2
82.0655	3.6
83.0496	13.3
83.0860	3.5
84.0448	8.1
84.0812	18.0
85.0289	7.5
85.0652	3.7
86.0606	5.5
86.0968	5.8
87.0445	6.9
93.0703	3.1
94.0655	3.4
95.0494	4.1
95.0605	4.1
96.0448	5.7
96.0811	3.3
97.0288	5.4
98.0605	6.8
99.0444	9.9
100.0760	10.1
101.0601	28.4
102.0552	3.6
103.0392	3.5
107.0495	4.2
108.0810	3.5
109.0765	5.1
110.0603	5.5
110.0719	3.6
111.0444	23.1
112.0760	9.1
114.0553	6.5
114.0665	24.9
116.0709	26.0
117.0549	5.1
118.0866	3.7
120.0811	4.6
121.0651	4.6
122.0605	5.1
123.0443	6.2
124.0397	4.1
124.0762	6.8
125.0236	11.3
125.0599	4.3
126.0552	6.1
126.0916	15.4
127.0393	4.6
128.0708	10.5
129.0552	3.3
130.0503	6.4
130.0865	18.3
134.0601	5.4
135.0442	3.3
136.0760	6.9
137.0600	3.9
138.0550	3.3
138.0916	4.9
139.0395	4.0
140.0713	7.3
141.0662	3.1
142.0865	4.2
144.0659	3.4
144.1020	5.1
145.0497	4.9
146.0600	3.9
148.0759	5.2
149.0599	3.2
150.0552	9.4
150.0917	6.1
151.0397	4.0
152.0706	6.6
153.0549	4.6
154.0865	8.6
156.0657	3.1
156.1018	3.5
158.0814	3.1
160.0758	16.0
162.0916	8.6
163.0395	5.0
164.0709	8.7
165.0546	4.4
166.0866	8.5
167.0825	4.5
168.0658	5.9
168.1016	4.8
170.0810	4.1
171.1128	11.3
172.0974	4.8
173.0928	4.3
174.0903	4.2
174.1130	4.8
177.0545	6.8
177.1020	3.3
178.0491	3.5
178.0860	7.4
180.0663	4.4
180.1021	71.4
181.0481	7.0
181.0978	7.4
181.1071	4.1
182.0813	11.1
183.0919	8.1
184.0958	4.0
186.0764	3.8
188.0724	7.9
190.0865	7.2
192.0651	3.8
192.1020	25.9
194.0796	3.7
194.1182	5.8
195.1132	10.2
196.0949	3.9
197.1293	3.7
199.1080	6.9
202.1072	3.6
204.1019	3.9
204.1392	4.3
207.1130	6.4
208.0969	38.3
209.1011	3.8
209.1290	20.4
210.0747	4.1
210.1124	7.1
211.1099	3.5
213.1242	3.3
216.1020	5.0
217.0978	12.1
218.0812	22.8
219.1501	5.4
220.0973	3.3
222.1489	4.4
223.1095	4.9
224.0928	3.7
227.1030	3.9
232.0966	9.0
234.1128	4.9
235.1081	26.5
236.0919	100.0
237.0946	11.4
242.0814	3.7
250.1070	21.1
253.1187	43.5
254.1232	5.8
260.0918	61.5
261.0951	10.0
267.1708	3.9
270.1338	3.6
277.1184	12.5
278.1022	76.8
279.1061	10.7
286.0739	5.0
287.1362	5.6
288.1464	15.1
289.1535	5.0
291.1334	3.4
292.1191	4.1
293.1129	3.2
294.1039	3.4
295.1302	6.1
296.1152	13.4
297.1474	4.9
298.1308	3.8
299.1602	20.3
300.1425	8.2
303.1336	3.9
304.0836	4.1
304.1153	4.7
304.1385	6.5
304.1752	4.6
305.1160	8.6
305.1489	13.5
305.1824	3.6
306.1515	13.6
307.1305	15.4
307.1644	10.2
308.1168	8.5
309.1071	3.7
309.1464	16.5
309.1816	12.2
310.1317	15.4
311.1040	7.5
311.1298	10.0
311.1621	16.0
311.1968	20.3
312.1112	9.8
312.1520	11.9
313.1412	30.3
313.1760	20.6
314.1334	11.1
314.1664	9.2
315.0850	16.1
315.1618	19.9
316.1450	11.0
316.1870	5.7
317.1732	26.8
318.1546	13.9
319.1301	10.2
319.1644	9.0
320.1114	9.9
320.1692	5.1
320.2001	4.5
321.1135	4.5
321.1450	13.6
321.1807	5.2
322.1415	12.7
322.2009	24.5
323.1257	8.4
323.1599	14.9
323.1982	18.5
324.1096	3.9
324.1500	13.0
324.1959	4.4

Name: DG(18:1/0:0/18:1)
PrecursorMZ: 638.5714
RT: 0.9661
Spectrum_type: 2
charge: 1
SMILES: CCCCCCCC/C=C\CCCCCCCC(=O)OCC(O)COC(=O)CCCCCCC/C=C\CCCCCCCC
Method: HCD
Collision_energy: [28.333334]
Isolation_window: 4.0
Ion_mode: P
Num Peaks: 8
83.0858	18.8
95.0857	22.5
339.2890	87.1
340.2920	22.9
603.5326	35.5
637.4764	26.9
639.4952	100.0
640.5005	26.1

Name: Daniellic acid
PrecursorMZ: 339.19093
RT: 6.6735
ExactMass: 316.20384475
Spectrum_type: 2
charge: 1
Formula: C20H28O3
SMILES: C[C@@]12CCC[C@@]([C@H]1CCC(=C)[C@H]2CCC3=COC=C3)(C)C(=O)O
Method: HCD
Collision_energy: [28.333334]
Isolation_window: 4.0
Ion_mode: P
Num Peaks: 39
55.0546	5.4
57.0703	4.0
69.0702	6.3
71.0858	2.9
81.0701	3.5
83.0494	2.9
83.0858	6.3
95.0856	3.3
97.1013	5.3
100.0757	4.1
101.0598	10.1
109.1012	3.5
135.1167	3.0
175.1227	10.1
181.0968	7.5
193.1330	4.1
195.1123	2.9
221.1280	45.2
222.1318	4.2
239.1386	6.6
303.3038	2.7
321.3147	4.0
337.1749	2.9
338.1193	4.8
338.1831	3.7
338.2077	4.4
338.3409	26.0
339.1523	5.6
339.1581	6.1
339.1726	3.2
339.1906	100.0
339.2245	13.3
339.3439	4.6
340.1532	5.1
340.1939	15.6
341.1505	6.0
341.1699	5.7
341.2060	4.3
341.2424	2.6

Name: Desmethylsertraline
PrecursorMZ: 292.06489
RT: 2.4412
ExactMass: 291.0581549
Spectrum_type: 2
charge: 1
Formula: C16H15Cl2N
SMILES: C1C[C@@H](C2=CC=CC=C2[C@@H]1C3=CC(=C(C=C3)Cl)Cl)N
Method: HCD
Collision_energy: [28.333334]
Isolation_window: 4.0
Ion_mode: P
Num Peaks: 5
158.9762	100.0
160.9732	54.4
275.0386	79.6
292.0465	94.2
293.2103	46.4

Name: Desmetramadol
PrecursorMZ: 250.18007
RT: 1.0107
ExactMass: 249.172878976
Spectrum_type: 2
charge: 1
Formula: C15H23NO2
SMILES: CN(C)C[C@H]1CCCC[C@@]1(C2=CC(=CC=C2)O)O
Method: HCD
Collision_energy: [28.333334]
Isolation_window: 4.0
Ion_mode: P
Num Peaks: 6
89.0600	1.8
249.1574	13.0
250.1593	1.5
250.1800	100.0
251.0466	5.6
251.1835	15.7

Name: Dictamnine
PrecursorMZ: 200.07052
RT: 8.647
ExactMass: 199.06332853
Spectrum_type: 2
charge: 1
Formula: C12H9NO2
SMILES: COC1=C2C=COC2=NC3=CC=CC=C31
Method: HCD
Collision_energy: [28.333334]
Isolation_window: 4.0
Ion_mode: P
Num Peaks: 19
97.3985	2.7
156.0809	3.0
182.0923	6.2
183.0919	2.8
198.0760	4.0
199.0866	4.7
199.1075	2.9
199.1192	3.8
199.1439	10.1
200.0705	100.0
200.0913	6.2
200.1029	8.7
200.1181	10.1
200.1279	48.9
201.0738	11.7
201.0872	2.9
201.1022	7.7
201.1314	4.5
202.0861	3.9

Name: Dideacetyldelphisine
PrecursorMZ: 438.28446
RT: 5.531
ExactMass: 437.27773796
Spectrum_type: 2
charge: 1
Formula: C24H39NO6
SMILES: CCN1CC2(CCC(C34C2C(C(C31)C5(CC(C6CC4C5C6O)OC)O)OC)O)COC
Method: HCD
Collision_energy: [28.333334]
Isolation_window: 4.0
Ion_mode: P
Num Peaks: 26
67.0546	3.7
69.0702	3.2
70.0655	4.1
71.0494	2.3
72.0810	1.8
81.0337	1.9
81.0701	4.9
83.0493	2.5
84.0810	3.9
93.0699	2.1
95.0856	5.0
98.9843	2.7
107.0856	1.9
109.1011	3.5
116.0704	2.0
121.1009	2.8
123.1167	2.0
124.0392	100.0
125.0424	4.9
202.9574	4.8
303.0093	3.7
437.2095	3.3
438.1944	2.3
438.2841	67.6
439.2299	2.3
439.2875	17.5

Name: Dihydroferulic Acid
PrecursorMZ: 179.07025
RT: 2.0154
ExactMass: 196.07355886
Spectrum_type: 2
charge: 1
Formula: C10H12O4
SMILES: COC1=C(C=CC(=C1)CCC(=O)O)O
Method: HCD
Collision_energy: [28.333334]
Isolation_window: 4.0
Ion_mode: P
Num Peaks: 9
91.0544	2.4
119.0492	17.3
120.0808	2.4
137.0597	100.0
138.0629	6.8
147.0440	12.6
151.0753	3.4
178.0862	4.3
178.8735	2.9

Name: Dihydropalmatine
PrecursorMZ: 354.16986
RT: 4.6167
ExactMass: 353.16270821
Spectrum_type: 2
charge: 1
Formula: C21H23NO4
SMILES: COC1=C(C2=C(C=C1)C=C3C4=CC(=C(C=C4CCN3C2)OC)OC)OC
Method: HCD
Collision_energy: [28.333334]
Isolation_window: 4.0
Ion_mode: P
Num Peaks: 60
55.0550	1.1
70.0656	1.2
73.0656	1.6
81.0342	1.3
84.0811	0.9
98.0970	4.5
101.0608	1.1
107.0496	1.9
110.0713	0.9
111.0442	0.8
114.0663	1.0
115.0761	7.2
117.0547	0.8
120.0815	1.2
121.0653	2.1
122.0605	7.3
126.0915	1.4
130.0661	2.1
144.0810	0.9
144.1384	1.9
150.0551	2.9
152.0707	3.5
159.0917	1.5
160.0758	3.0
163.0869	1.2
177.0547	1.9
177.1022	2.7
178.0499	11.9
179.0530	1.0
192.0655	2.9
196.0968	11.0
197.1005	0.9
225.0871	1.6
239.1392	0.8
275.1182	1.0
281.0808	6.6
281.1284	2.0
282.0847	1.1
293.1286	1.1
298.1073	100.0
299.1107	17.7
300.1132	1.7
310.1565	1.0
352.2262	1.0
353.1484	1.3
353.1702	8.5
353.2064	20.8
354.1340	1.4
354.1699	96.0
354.2072	4.7
354.2410	1.5
354.3003	1.0
355.1283	0.9
355.1730	20.1
355.1957	1.0
356.1483	1.3
356.1697	0.9
356.1744	2.7
356.1796	1.1
356.2211	0.9

Name: Dihydrothymine
PrecursorMZ: 129.06565
RT: 6.8888
ExactMass: 128.058577502
Spectrum_type: 2
charge: 1
Formula: C5H8N2O2
SMILES: CC1CNC(=O)NC1=O
Method: HCD
Collision_energy: [28.333334]
Isolation_window: 4.0
Ion_mode: P
Num Peaks: 10
57.0702	20.4
69.0337	26.0
74.0966	31.3
84.0445	7.4
85.0397	7.0
86.0601	80.8
88.1122	9.8
129.1383	18.1
130.0496	18.5
130.1587	100.0

Name: Dulcin
PrecursorMZ: 181.09705
RT: 4.2681
ExactMass: 180.08987763
Spectrum_type: 2
charge: 1
Formula: C9H12N2O2
SMILES: CCOC1=CC=C(C=C1)NC(=O)N
Method: HCD
Collision_energy: [28.333334]
Isolation_window: 4.0
Ion_mode: P
Num Peaks: 97
57.0451	1.2
67.0545	1.1
69.0338	1.1
69.0702	1.3
69.5585	1.4
70.0654	1.5
71.0607	1.2
81.0337	1.3
81.0701	1.9
83.0494	1.1
83.0606	1.0
88.0395	5.3
91.0543	14.9
93.0700	5.6
94.0652	1.2
95.0492	1.6
95.0605	1.3
95.0856	2.4
97.0649	0.9
105.0697	1.4
106.0652	1.1
107.0856	1.4
108.0444	1.2
108.0808	1.8
109.0648	1.1
109.0760	3.5
110.0601	1.8
110.0965	14.2
111.0553	2.2
111.0998	1.1
112.0505	3.2
116.0706	0.9
119.0855	1.1
120.0807	2.3
121.0647	2.0
121.1010	1.5
122.0600	2.6
123.0440	1.0
123.0804	1.5
124.0756	2.1
125.0597	1.1
126.0661	4.9
131.0602	4.2
134.0599	4.1
135.0803	1.2
136.0755	7.4
137.0595	1.1
137.0708	0.9
137.0787	1.9
138.0548	4.3
138.0912	100.0
139.0500	1.6
139.0864	3.1
139.0944	8.5
140.0341	2.0
140.0453	11.2
140.0704	1.3
140.1068	1.3
150.0548	2.7
152.0704	3.3
153.1021	1.1
154.0609	2.0
155.0926	9.9
155.1177	1.2
161.0707	1.5
161.1071	3.0
162.0548	2.4
162.0912	0.9
163.0751	0.9
163.0863	1.7
163.1116	1.3
164.0704	21.0
164.1067	1.8
165.0545	2.5
165.0738	2.0
165.1021	1.2
166.0862	1.7
179.0813	2.9
179.1176	11.7
180.0653	10.1
180.0807	33.0
180.1016	9.6
180.1131	1.3
180.1207	2.5
181.0714	1.7
181.0847	4.5
181.0968	15.5
181.1062	0.9
181.1222	1.0
181.1333	2.9
182.0809	11.6
182.0924	0.9
182.1000	1.6
182.1173	9.0
182.1285	1.2
183.0914	60.3
183.1122	3.9

Name: E-64c
PrecursorMZ: 315.19101
RT: 5.84255
ExactMass: 314.18417193
Spectrum_type: 2
charge: 1
Formula: C15H26N2O5
SMILES: CC(C)CCNC(=O)[C@H](CC(C)C)NC(=O)[C@@H]1[C@H](O1)C(=O)O
Method: HCD
Collision_energy: [28.333334]
Isolation_window: 4.0
Ion_mode: P
Num Peaks: 13
70.0654	11.5
87.0442	5.1
96.0444	6.6
156.1018	100.0
157.1051	7.7
176.8751	9.7
314.1375	4.3
315.1327	11.9
315.1551	3.7
315.1908	65.4
316.1168	5.6
316.1513	8.0
316.1932	9.2

Name: Einecs 240-466-4
PrecursorMZ: 344.2792
RT: 1.9854
ExactMass: 343.27225866
Spectrum_type: 2
charge: 1
Formula: C19H37NO4
SMILES: CCCCCCCCCCCCCCCC(=O)NC(CO)C(=O)O
Method: HCD
Collision_energy: [28.333334]
Isolation_window: 4.0
Ion_mode: P
Num Peaks: 9
76.0396	100.0
83.0859	12.2
86.0967	20.5
94.9298	13.9
135.1167	10.8
146.1174	10.5
173.1288	12.8
326.2686	40.4
344.2789	27.5

Name: Elaidic Acid
PrecursorMZ: 283.26294
RT: 0.9614
ExactMass: 282.255880323
Spectrum_type: 2
charge: 1
Formula: C18H34O2
SMILES: CCCCCCCC/C=C/CCCCCCCC(=O)O
Method: HCD
Collision_energy: [28.333334]
Isolation_window: 4.0
Ion_mode: P
Num Peaks: 31
55.0547	27.3
57.0703	100.0
67.0546	23.0
69.0703	97.9
71.0859	81.8
81.0702	60.2
83.0858	96.1
85.1015	57.2
93.0700	32.1
95.0857	69.9
97.0650	40.8
97.1014	83.9
107.0858	35.8
109.1013	45.2
111.0807	32.0
111.1171	32.5
115.0756	21.6
121.1013	56.0
123.1170	27.3
125.0963	32.7
135.1169	64.2
139.1121	28.6
149.1325	50.8
163.1482	35.6
167.1434	21.8
177.1637	29.1
247.2420	78.2
265.2525	64.3
283.1655	30.7
284.3311	26.1
285.1229	21.4

Name: Erianin
PrecursorMZ: 319.14945
RT: 1.4176
ExactMass: 318.1467238
Spectrum_type: 2
charge: 1
Formula: C18H22O5
SMILES: COC1=C(C=C(C=C1)CCC2=CC(=C(C(=C2)OC)OC)OC)O
Method: HCD
Collision_energy: [28.333334]
Isolation_window: 4.0
Ion_mode: P
Num Peaks: 77
70.0656	95.9
72.0812	27.0
81.0339	31.9
83.0496	18.0
84.0448	31.3
84.0813	49.9
85.0653	19.5
86.0605	19.3
86.0967	18.2
100.0759	21.6
101.0599	28.8
102.0556	18.6
104.0710	51.2
110.0603	20.6
111.0445	30.5
112.0759	18.4
114.0552	24.6
116.0709	76.5
124.0760	17.6
126.0916	29.9
128.0708	27.4
130.0501	26.6
130.0865	33.9
136.0759	20.8
137.0601	21.3
142.0501	30.3
142.0866	17.6
150.0913	20.2
152.0709	43.6
153.0550	26.1
154.0863	22.2
164.0707	38.4
166.0866	21.8
170.0813	18.5
178.0864	21.5
181.0971	56.3
182.0806	31.1
186.0891	24.4
188.0920	35.3
194.0803	26.6
195.1132	46.7
196.0975	17.3
204.1021	39.0
210.1113	17.7
227.1040	20.7
301.1440	21.9
319.1547	77.5
320.1166	22.7
320.1557	23.6
320.1976	36.0
321.1113	26.3
321.1459	100.0
323.1288	23.4
323.1595	19.9
324.1064	20.2
324.1455	30.6
325.1431	39.6
325.1790	42.0
326.1254	22.7
326.1670	19.9
327.1268	88.7
327.1605	37.0
328.1473	40.0
329.1399	24.2
330.1263	27.3
330.1686	24.1
331.1576	46.6
332.1140	23.2
333.1762	33.3
334.1391	18.5
335.1216	27.2
335.1621	21.8
336.1058	19.4
336.1626	20.6
337.1414	44.0
337.1749	17.7
338.1266	19.1

Name: Ethyl 3-alpha,7-alpha,12-alpha-trihydroxy-5-beta-cholan-24-oate
PrecursorMZ: 419.31537
RT: 4.9672
ExactMass: 436.3188745
Spectrum_type: 2
charge: 1
Formula: C26H44O5
SMILES: CCOC(=O)CCC(C)C1CCC2C1(C(CC3C2C(CC4C3(CCC(C4)O)C)O)O)C
Method: HCD
Collision_energy: [28.333334]
Isolation_window: 4.0
Ion_mode: P
Num Peaks: 147
57.0339	1.3
67.0549	5.9
69.0339	2.9
69.0703	3.2
71.0496	4.3
73.0287	1.3
79.0548	2.6
81.0339	2.6
81.0702	14.3
83.0495	2.3
83.0859	6.1
85.0287	9.7
85.0651	9.1
87.0444	1.9
89.0600	2.8
91.0545	3.3
93.0701	11.7
95.0493	1.5
95.0858	15.3
97.0650	1.9
97.1016	1.9
97.4000	1.7
99.0807	2.1
101.0599	4.7
105.0700	8.0
107.0857	12.0
109.0650	3.4
109.1013	9.3
111.0443	1.6
111.0806	4.1
113.0962	2.7
114.1278	1.8
119.0856	9.4
121.1013	9.6
123.0805	1.4
123.1168	3.8
127.0754	4.7
129.0910	5.8
131.0856	6.3
133.0858	2.0
133.1012	9.4
135.1168	11.5
143.0856	6.1
145.0859	18.3
145.1012	16.2
146.1045	2.3
147.1168	10.9
149.1325	6.2
155.0861	1.6
157.1012	7.8
159.1169	14.5
160.0757	1.3
160.1203	2.2
161.1325	9.8
163.1116	1.5
163.1482	3.5
169.1012	2.4
171.1169	9.5
173.1325	8.7
175.1481	4.4
183.1169	3.5
185.1324	6.8
187.1480	6.7
189.1637	3.6
195.1168	1.6
197.1326	4.5
199.1481	9.3
200.1515	1.9
200.9895	3.1
201.1637	7.5
202.9867	1.8
203.1794	2.7
209.1326	1.7
211.1479	5.0
213.1636	15.0
214.1671	2.4
215.1794	7.2
221.0186	6.8
223.1483	1.8
225.1637	4.6
227.1794	11.5
228.1829	1.8
229.1589	1.9
229.1950	3.0
231.1748	1.7
237.1639	3.7
238.9847	5.7
239.1792	4.4
240.9818	2.3
241.1950	7.9
242.1990	1.7
245.1902	1.8
251.1794	4.3
252.1836	1.7
253.1950	27.1
254.1984	5.4
255.1743	4.0
255.2107	8.9
256.2131	2.1
265.1950	1.9
267.2102	1.9
269.1901	2.5
271.2053	3.0
273.1848	4.8
273.2210	1.7
281.2263	9.4
282.2289	1.8
283.2418	6.7
295.2417	2.4
299.2369	1.4
301.2523	1.6
305.2270	1.7
307.2420	2.7
309.2577	1.6
321.2571	3.1
323.2733	2.6
339.2683	1.8
347.2732	6.7
348.2761	1.7
363.2684	1.2
364.2722	1.4
365.2836	13.9
366.2865	4.3
371.3304	2.9
381.2771	2.4
382.2811	1.8
383.2943	26.2
384.2976	6.9
399.2894	3.1
400.2911	2.2
401.3048	100.0
402.3080	28.0
403.3104	3.8
404.2322	2.0
417.2998	5.2
418.3015	6.2
418.3687	1.7
419.0035	33.0
419.3153	63.7
420.0068	4.2
420.1633	1.4
420.3176	16.5
420.3465	2.5
421.0005	30.7
421.1975	1.6
421.3134	2.4
421.3201	1.9

Name: Ethyl 3-aminobenzoate
PrecursorMZ: 166.08622
RT: 8.9812
ExactMass: 165.078978594
Spectrum_type: 2
charge: 1
Formula: C9H11NO2
SMILES: CCOC(=O)C1=CC(=CC=C1)N
Method: HCD
Collision_energy: [28.333334]
Isolation_window: 4.0
Ion_mode: P
Num Peaks: 9
96.9953	14.8
123.0110	8.0
148.0788	27.8
166.0866	93.2
166.0889	57.9
167.0814	10.0
167.0895	10.8
167.1541	26.1
168.0687	100.0

Name: Fenuron
PrecursorMZ: 182.12847
RT: 2.4688
ExactMass: 164.094963011
Spectrum_type: 2
charge: 1
Formula: C9H12N2O
SMILES: CN(C)C(=O)NC1=CC=CC=C1
Method: HCD
Collision_energy: [28.333334]
Isolation_window: 4.0
Ion_mode: P
Num Peaks: 65
56.0497	0.7
69.7572	0.8
70.0653	0.8
71.0494	3.0
83.0604	0.8
91.0543	12.7
92.0577	1.0
93.0699	1.5
95.0540	0.7
95.0604	100.0
96.0573	0.7
96.0637	5.4
96.0808	1.5
97.0757	0.9
97.4554	0.8
99.0551	1.2
108.0569	2.8
109.0758	1.2
110.0600	4.0
110.0710	0.7
110.0963	2.4
112.0868	54.7
113.0901	3.1
122.0598	1.3
122.0962	1.1
123.0804	0.8
124.0755	57.5
125.0788	1.8
136.0753	37.0
137.0708	1.0
137.0786	2.8
137.0832	6.8
138.0909	23.4
139.0862	1.4
139.0943	1.7
139.0976	0.7
140.0702	1.0
150.0546	1.4
155.0853	1.0
164.0702	54.5
164.1179	21.0
165.0694	2.0
165.0740	5.0
165.1018	1.2
165.1211	1.7
166.0493	0.7
166.0859	22.5
167.0894	0.8
180.1240	0.8
181.0715	2.1
181.0839	1.2
181.0966	2.0
181.1080	1.0
181.1331	0.9
182.0807	5.2
182.1173	2.4
182.1283	55.9
183.0799	19.9
183.0911	6.8
183.1122	12.4
183.1316	5.3
183.1484	0.9
184.0837	1.4
184.0962	14.5
184.1145	0.8

Name: Fluorene
PrecursorMZ: 167.0815
RT: 1.2702
ExactMass: 166.078250319
Spectrum_type: 2
charge: 1
Formula: C13H10
SMILES: C1C2=CC=CC=C2C3=CC=CC=C31
Method: HCD
Collision_energy: [28.333334]
Isolation_window: 4.0
Ion_mode: P
Num Peaks: 72
69.0340	0.5
70.0656	1.0
81.0451	1.0
87.0335	0.5
87.0358	0.6
87.0444	86.8
87.0556	0.6
88.0477	3.6
94.0653	0.5
95.0607	0.5
96.0320	0.5
96.0346	0.6
96.0447	100.0
96.0578	0.7
97.0418	0.5
97.0479	4.9
109.0763	1.1
119.0605	0.8
121.0761	1.8
122.0603	1.3
122.0714	2.5
123.0918	1.0
124.0760	0.6
125.0710	1.3
136.0760	0.7
139.0390	0.6
139.0867	0.5
139.0977	4.0
140.0818	0.8
142.0975	2.5
148.0758	1.3
149.0708	0.8
149.1076	1.2
150.0551	13.3
151.0592	1.0
151.0867	4.9
152.0711	0.6
153.1023	1.1
161.1073	0.5
164.0706	4.8
164.0824	1.3
165.0219	0.9
165.1019	0.7
166.0863	12.0
166.0974	0.7
167.0814	15.6
167.0931	8.4
167.1176	6.4
168.0660	4.8
168.0846	1.3
168.0970	0.6
169.0973	5.9
171.1129	6.1
174.1125	0.9
176.1277	0.5
177.0659	2.5
178.0850	1.5
179.0813	2.8
180.0653	0.8
180.0811	2.9
180.1047	3.6
181.0969	2.9
182.0479	0.5
182.0547	0.6
182.0812	94.1
182.1152	0.7
183.0851	9.9
183.1125	11.6
184.0962	20.7
185.1000	1.7
185.1283	18.3
186.1313	1.3

Name: Foliosidine
PrecursorMZ: 308.14876
RT: 7.4758
ExactMass: 307.14197277
Spectrum_type: 2
charge: 1
Formula: C16H21NO5
SMILES: CC(C)(C(COC1=CC=CC2=C1N(C(=O)C=C2OC)C)O)O
Method: HCD
Collision_energy: [28.333334]
Isolation_window: 4.0
Ion_mode: P
Num Peaks: 45
70.0654	2.9
72.0811	1.7
81.0338	2.2
94.0652	3.2
111.0441	1.8
112.0870	1.0
120.0807	2.6
134.0963	1.0
148.0753	1.3
154.0857	1.2
165.0541	1.2
192.1016	1.5
197.1281	1.0
235.1433	0.9
236.1274	3.4
263.1381	1.2
264.1229	1.5
272.1131	1.1
288.1441	1.0
290.1233	4.8
290.1381	0.9
290.1599	1.2
292.1401	1.1
306.1334	1.1
306.1528	1.2
306.1687	2.9
307.1357	1.6
307.1641	29.2
307.1993	4.2
308.1112	2.3
308.1483	100.0
308.1674	8.2
308.1851	2.4
308.1976	3.0
308.2309	1.3
309.1251	1.0
309.1511	16.5
309.1793	14.4
309.1925	4.2
309.2145	1.1
310.1269	1.1
310.1490	1.5
310.1635	2.6
310.1838	1.6
310.2093	1.2

Name: Gamabufotalin
PrecursorMZ: 425.22919
RT: 1.2551
ExactMass: 402.24062418
Spectrum_type: 2
charge: 1
Formula: C24H34O5
SMILES: C[C@]12CC[C@@H](C[C@H]1CC[C@@H]3[C@@H]2[C@@H](C[C@]4([C@@]3(CC[C@@H]4C5=COC(=O)C=C5)O)C)O)O
Method: HCD
Collision_energy: [28.333334]
Isolation_window: 4.0
Ion_mode: P
Num Peaks: 37
69.0702	5.1
81.0701	10.3
93.0700	4.8
95.0857	10.3
107.0856	5.7
109.1012	11.2
119.0855	4.4
121.1011	5.2
123.1168	7.5
133.1010	3.6
135.1165	5.7
149.0960	31.0
149.1320	4.7
151.0753	8.3
159.1168	3.7
165.0908	21.8
175.1115	3.8
189.1269	6.6
191.1065	3.8
271.0940	6.0
296.1385	6.0
297.1091	12.1
337.1404	12.2
423.3238	8.1
423.3593	4.2
424.2183	6.3
424.2814	4.3
424.3268	5.8
425.2295	100.0
425.2861	6.9
425.3041	5.0
425.3400	13.1
426.2333	18.8
426.3007	4.3
426.3401	4.3
427.2466	11.5
427.3562	6.4

Name: Gamma-Carboline
PrecursorMZ: 169.07603
RT: 4.4514499999999995
ExactMass: 168.068748264
Spectrum_type: 2
charge: 1
Formula: C11H8N2
SMILES: C1=CC=C2C(=C1)C3=C(N2)C=CN=C3
Method: HCD
Collision_energy: [28.333334]
Isolation_window: 4.0
Ion_mode: P
Num Peaks: 50
72.0812	0.5
81.0703	0.5
94.9298	0.6
98.0603	0.4
100.0759	0.4
107.0858	0.8
108.0444	0.4
109.0760	0.4
110.0603	0.6
118.0653	0.5
122.0601	2.2
123.0111	0.4
124.0758	3.3
126.0915	0.3
140.0933	0.6
144.0809	0.8
150.0549	19.5
151.0326	0.5
151.0583	1.9
151.0868	0.5
152.0343	0.6
152.0708	1.3
154.0651	1.1
167.0816	0.4
167.1543	1.4
168.0656	15.9
168.0686	2.1
168.0881	0.5
168.1020	1.6
168.1132	0.9
169.0433	1.9
169.0610	0.8
169.0640	0.5
169.0704	0.8
169.0760	100.0
169.0821	1.2
169.0879	0.8
169.0909	0.7
169.0964	1.2
169.1336	0.8
170.0725	0.7
170.0793	11.2
170.0921	2.3
170.1175	1.0
170.1289	0.5
171.0765	0.4
171.0828	0.4
171.0916	53.7
171.1069	0.4
171.1490	0.4

Name: Gamma-Glutamylalanine
PrecursorMZ: 219.09747
RT: 8.7334
ExactMass: 218.09027155
Spectrum_type: 2
charge: 1
Formula: C8H14N2O5
SMILES: C[C@@H](C(=O)O)NC(=O)CC[C@@H](C(=O)O)N
Method: HCD
Collision_energy: [28.333334]
Isolation_window: 4.0
Ion_mode: P
Num Peaks: 14
84.0448	16.1
90.0552	25.5
102.0552	17.1
112.0759	40.0
130.0499	26.2
148.0605	100.0
156.0656	19.5
172.0968	17.7
202.0708	13.0
218.1023	21.1
218.1137	16.2
219.0973	20.3
220.0819	10.3
220.1182	27.4

Name: Garcinone C
PrecursorMZ: 415.17058
RT: 9.8557
ExactMass: 414.16785316
Spectrum_type: 2
charge: 1
Formula: C23H26O7
SMILES: CC(=CCC1=C(C2=C(C=C1O)OC3=C(C2=O)C(=C(C(=C3)O)O)CCC(C)(C)O)O)C
Method: HCD
Collision_energy: [28.333334]
Isolation_window: 4.0
Ion_mode: P
Num Peaks: 16
70.0653	0.8
72.0811	0.9
89.0601	1.1
175.0867	1.5
217.0970	1.8
235.1078	5.8
236.1107	0.7
253.1183	29.6
254.1218	3.8
325.1397	2.3
355.1501	0.8
415.1713	100.0
416.1747	22.1
417.1781	5.1
418.1765	1.3
419.2114	0.8

Name: Genkwanin
PrecursorMZ: 307.06096
RT: 6.3179
ExactMass: 284.06847348
Spectrum_type: 2
charge: 1
Formula: C16H12O5
SMILES: COC1=CC(=C2C(=C1)OC(=CC2=O)C3=CC=C(C=C3)O)O
Method: HCD
Collision_energy: [28.333334]
Isolation_window: 4.0
Ion_mode: P
Num Peaks: 23
70.0655	13.5
98.0603	13.6
116.0708	10.6
148.0756	19.1
150.0554	13.1
186.0582	11.2
226.1185	12.1
261.1228	13.7
262.1074	11.4
263.1024	75.3
289.1544	17.4
291.0984	14.5
306.0973	22.4
306.1313	11.8
307.0611	100.0
307.0935	12.5
307.1137	26.5
307.1290	32.4
307.1649	36.1
308.0643	11.7
308.1132	25.1
309.0909	12.6
309.1085	22.0

Name: GlyTouCan:G86640EE
PrecursorMZ: 684.25496
RT: 10.6588
ExactMass: 666.22185834
Spectrum_type: 2
charge: 1
Formula: C24H42O21
SMILES: C([C@@H]1[C@H]([C@@H]([C@H]([C@H](O1)OC[C@@H]2[C@H]([C@@H]([C@H]([C@H](O2)OC[C@@H]3[C@H]([C@@H]([C@H]([C@H](O3)OC[C@@H]4[C@H]([C@@H]([C@H](C(O4)O)O)O)O)O)O)O)O)O)O)O)O)O)O
Method: HCD
Collision_energy: [28.333334]
Isolation_window: 4.0
Ion_mode: P
Num Peaks: 6
85.0286	46.6
97.0285	24.4
127.0389	100.0
145.0494	60.4
163.0598	36.0
325.1125	38.2

Name: Glyasperin C
PrecursorMZ: 379.14953
RT: 4.313
ExactMass: 356.16237386
Spectrum_type: 2
charge: 1
Formula: C21H24O5
SMILES: CC(=CCC1=C(C2=C(C=C1O)OC[C@H](C2)C3=C(C=C(C=C3)O)O)OC)C
Method: HCD
Collision_energy: [28.333334]
Isolation_window: 4.0
Ion_mode: P
Num Peaks: 102
55.0549	1.3
70.0656	6.2
81.0340	1.3
83.0497	1.4
84.0447	1.8
84.0812	6.8
86.0606	1.4
86.0967	2.6
87.0445	1.8
98.0603	1.6
99.0446	1.6
100.0759	2.1
101.0600	7.7
102.0552	1.5
112.0761	1.4
114.0662	1.8
116.0709	4.5
117.0546	2.3
118.0864	4.3
128.0709	1.6
129.1021	4.0
130.0864	5.1
132.1022	1.4
134.0809	2.2
141.0659	4.6
149.0233	2.9
175.1194	3.5
188.0918	1.7
216.1232	2.8
218.1386	1.4
251.1027	8.8
253.0869	2.9
253.1184	2.3
261.0871	1.6
262.1291	4.5
265.1184	2.5
269.0807	1.8
271.0964	8.9
272.0992	1.9
279.0976	35.3
280.1008	6.1
281.0805	12.8
282.0855	3.2
283.0974	3.8
285.1121	4.9
295.0962	2.5
298.0833	2.0
298.1214	3.2
301.1081	1.5
308.1033	1.5
311.0922	6.5
313.1069	75.8
314.1102	14.3
315.1121	1.8
317.1497	4.7
327.1224	3.2
329.1019	35.8
330.1052	6.5
337.1077	2.3
343.1248	2.7
344.1321	2.0
355.1177	100.0
356.1207	22.5
357.1244	3.5
361.1385	7.7
362.1418	2.8
371.1121	6.0
372.1188	2.4
373.1279	19.2
374.1307	5.4
376.1585	1.5
377.1541	1.3
377.1925	4.8
378.1256	1.7
378.1761	7.3
379.1497	51.2
380.1504	16.7
381.1647	4.2
382.1621	7.4
383.1795	8.5
384.1288	1.8
384.1840	4.4
385.1632	5.8
386.1509	9.9
387.1223	4.7
387.1774	7.9
388.1204	1.7
388.1795	6.3
389.1220	1.7
389.1501	2.1
389.1921	4.6
390.1308	7.2
390.1911	6.0
391.1807	6.7
392.1572	6.3
393.1854	2.1
394.1076	5.4
394.1648	10.3
395.1557	3.2
395.2107	3.3
396.1859	7.4
397.1648	2.6

Name: Glycochenodeoxycholic Acid
PrecursorMZ: 414.30007
RT: 5.0759
ExactMass: 449.31412347
Spectrum_type: 2
charge: 1
Formula: C26H43NO5
SMILES: C[C@H](CCC(=O)NCC(=O)O)[C@H]1CC[C@@H]2[C@@]1(CC[C@H]3[C@H]2[C@@H](C[C@H]4[C@@]3(CC[C@H](C4)O)C)O)C
Method: HCD
Collision_energy: [28.333334]
Isolation_window: 4.0
Ion_mode: P
Num Peaks: 197
55.0547	1.3
67.0547	3.5
69.0703	3.1
71.0495	1.1
73.0289	2.7
76.0397	29.0
79.0545	3.0
80.0548	1.4
81.0338	0.9
81.0702	9.7
83.0494	1.2
83.0859	3.1
85.0651	4.9
87.0444	1.7
89.0600	11.4
91.0544	1.9
93.0701	6.2
95.0858	8.9
97.0649	1.3
97.1014	1.8
97.3997	1.2
99.0807	1.0
101.0599	1.1
105.0700	5.8
107.0857	10.0
108.0890	0.9
109.1014	7.8
111.0442	1.8
111.0806	1.0
112.0760	2.0
116.0707	1.0
117.0700	1.4
119.0857	7.1
121.0285	0.9
121.0648	1.1
121.1013	8.2
123.0806	2.1
123.1169	2.6
125.0598	1.0
125.0962	2.5
126.0914	1.3
128.0706	0.9
129.0546	1.0
131.0856	3.5
133.0859	5.9
133.1012	8.9
135.0805	1.4
135.1169	10.1
136.1203	1.1
137.0962	2.1
143.0856	1.2
145.1013	6.7
147.0804	1.2
147.1169	10.1
148.1203	0.9
149.0960	2.9
149.1326	8.2
151.1118	2.3
155.0857	0.9
156.0657	1.9
157.1013	2.3
158.0813	11.5
159.0845	1.0
159.1170	6.9
161.0963	1.0
161.1326	10.6
162.1358	1.2
163.1118	4.2
163.1481	3.2
169.1013	1.7
171.1169	3.1
172.0970	1.7
173.1325	3.5
175.1118	2.9
175.1482	8.6
176.1514	1.1
177.1121	3.1
177.1274	5.2
178.1309	0.9
183.1169	2.3
185.1326	4.9
186.1125	0.9
187.1113	1.4
187.1482	5.1
189.1275	2.7
189.1638	4.9
190.1673	1.0
191.1430	1.9
193.1223	1.1
197.1325	2.1
198.1126	1.3
199.1253	0.9
199.1480	4.0
201.1274	1.2
201.1637	12.1
202.1670	2.3
203.1432	3.0
203.1795	2.7
209.1327	0.9
210.1125	0.9
211.1481	5.6
212.1280	1.3
212.1517	1.0
213.1277	1.1
213.1637	4.4
215.1064	0.9
215.1428	1.4
215.1794	12.5
216.1826	1.5
217.1587	1.6
217.1951	1.1
219.1381	0.9
221.1385	1.8
223.1483	1.2
224.1282	1.1
225.1273	0.9
225.1637	4.1
226.1437	1.6
227.1792	2.9
229.1588	5.2
229.1950	3.3
230.1209	1.2
230.1620	0.9
231.1381	1.0
231.1746	2.0
233.1533	0.8
237.1637	0.9
238.1436	3.2
239.1796	2.9
241.1952	2.7
243.1743	3.3
243.2108	3.2
245.1901	1.4
247.1693	1.9
249.1851	1.5
250.1440	0.8
252.1595	2.1
253.1950	1.0
255.2104	1.5
257.1901	2.6
264.1596	1.0
265.1800	1.1
265.1950	2.0
266.1749	0.9
278.1746	1.2
283.2050	0.8
290.1021	1.1
291.0983	1.8
292.1906	1.0
295.2421	1.1
297.2579	1.9
299.2002	1.5
304.1906	1.5
306.2066	1.1
313.2159	0.8
318.2053	1.4
321.2576	14.9
322.2606	3.2
323.2002	0.9
327.1958	1.2
332.2214	1.5
339.2681	22.1
340.2718	5.1
341.2112	1.5
345.2056	1.5
359.2210	3.1
360.2251	1.0
361.2006	1.3
363.2159	1.2
377.2314	4.5
378.2332	1.3
379.2104	1.3
379.2481	0.9
395.2391	1.9
395.2582	0.9
397.2727	0.9
412.3214	2.4
413.1699	1.4
413.1930	8.8
413.2709	4.5
413.3267	1.8
414.1569	1.2
414.1960	2.5
414.2006	1.4
414.2759	2.1
414.3001	100.0
414.3328	2.1
414.3431	1.3
415.1022	1.2
415.1509	1.8
415.1864	1.1
415.2480	1.3
415.2828	1.8
415.3044	24.7
416.1711	0.9
416.2453	1.1
416.3073	2.3

Name: Glycohyocholic acid
PrecursorMZ: 430.29493
RT: 5.8837
ExactMass: 465.30903809
Spectrum_type: 2
charge: 1
Formula: C26H43NO6
SMILES: C[C@H](CCC(=O)NCC(=O)O)[C@H]1CC[C@@H]2[C@@]1(CC[C@H]3[C@H]2[C@@H]([C@@H]([C@H]4[C@@]3(CC[C@H](C4)O)C)O)O)C
Method: HCD
Collision_energy: [28.333334]
Isolation_window: 4.0
Ion_mode: P
Num Peaks: 104
67.0546	3.5
69.0703	3.1
76.0397	26.3
79.0546	3.0
81.0702	8.3
83.0860	2.4
85.0651	6.6
91.0543	2.3
93.0701	4.6
95.0857	7.4
97.0650	2.1
99.0807	2.5
100.0759	3.1
105.0700	5.9
107.0857	9.4
109.1014	5.2
112.0759	2.0
116.0708	2.4
119.0856	7.1
121.1013	6.6
123.0804	2.5
123.1168	2.4
128.0707	14.2
131.0855	6.1
133.1012	7.2
135.1168	4.3
143.0856	3.8
145.1011	6.1
147.1168	6.5
149.0961	2.1
149.1331	2.0
155.0853	2.5
157.1013	5.7
158.0813	17.5
159.1169	9.6
161.1324	6.9
169.1012	3.0
171.1168	5.0
173.1325	4.8
175.1117	2.6
175.1482	3.2
183.1168	5.8
185.0960	2.1
185.1324	6.3
187.1481	3.6
189.1274	2.4
195.1174	2.0
197.1323	4.4
198.1124	2.3
199.1481	11.1
200.1515	2.2
201.1635	3.5
209.1324	20.8
210.1274	2.6
210.1361	3.3
211.1481	7.3
213.1636	14.7
214.1672	2.3
215.1790	2.8
223.1479	4.4
225.1635	5.8
227.1429	15.2
227.1792	8.6
228.1462	2.5
229.1587	4.1
237.1637	4.0
239.1794	2.9
241.1587	4.0
241.1948	6.1
243.1744	4.3
253.1948	2.8
255.1743	2.4
255.2110	2.4
263.1790	2.6
273.2214	2.2
277.1943	2.1
293.2258	3.0
295.2055	3.5
295.2419	4.2
309.2575	7.3
319.2416	27.2
320.2454	5.6
337.2523	50.4
338.2557	13.0
355.2627	5.6
395.2603	2.5
411.2522	2.0
412.2844	100.0
413.2673	2.7
413.2883	26.4
414.2911	2.0
428.3158	2.0
429.2631	4.5
429.3210	2.5
430.2678	2.1
430.2951	52.0
430.3310	72.4
431.1821	2.6
431.2773	9.3
431.2988	10.3
431.3345	24.5
432.2391	4.6
432.2773	2.6
432.3372	2.1

Name: Guvacine
PrecursorMZ: 128.07066
RT: 5.7691
ExactMass: 127.06332853
Spectrum_type: 2
charge: 1
Formula: C6H9NO2
SMILES: C1CNCC(=C1)C(=O)O
Method: HCD
Collision_energy: [28.333334]
Isolation_window: 4.0
Ion_mode: P
Num Peaks: 17
55.0547	2.6
56.0499	10.1
58.0655	1.7
81.0450	1.7
82.0654	24.4
83.0686	2.0
84.0446	3.2
84.0811	2.3
100.0758	100.0
101.0792	6.2
110.0601	2.2
127.0502	1.8
128.0705	17.5
128.0815	2.8
128.9534	3.7
129.0738	1.9
130.0649	2.0

Name: HDCA chenodeoxycholic acid (CCS=276.92938232421875)
PrecursorMZ: 767.58116
RT: 2.3376
Spectrum_type: 2
charge: 1
SMILES: C[C@H](CCC(=O)O[C@@H]1CC[C@@]2(C)C(C1)C[C@@H](O)[C@H]1[C@@H]3CC[C@H]([C@H](C)CCC(=O)O)[C@@]3(C)CC[C@@H]12)[C@H]1CC[C@H]2[C@@H]3C[C@H](O)C4C[C@H](O)CC[C@]4(C)[C@H]3CC[C@]12C
Method: HCD
Collision_energy: [28.333334]
Isolation_window: 4.0
Ion_mode: P
Num Peaks: 35
81.0702	5.1
95.0857	4.1
107.0857	4.2
109.1012	4.3
121.1012	3.1
133.1010	2.6
135.1167	7.3
147.1167	4.1
149.1325	4.8
161.1324	5.3
163.1481	3.1
175.1480	3.6
189.1636	2.7
195.1378	3.8
201.1634	2.5
203.1791	2.5
211.1479	2.2
215.1792	6.9
221.1533	6.3
229.1946	2.6
235.1690	2.4
243.2105	2.9
247.1689	6.0
261.1846	4.4
275.2001	4.9
321.2576	4.4
339.2676	7.9
355.2630	2.3
357.2783	100.0
358.2817	21.1
375.2894	5.0
713.5495	3.8
715.5630	2.3
731.5612	3.8
749.5704	2.3

Name: Heptelidic Acid Chlorohydrin
PrecursorMZ: 339.09511
RT: 7.2378
ExactMass: 316.1077515
Spectrum_type: 2
charge: 1
Formula: C15H21ClO5
SMILES: CC(C)[C@H]1CC[C@]([C@@H]2[C@@H]1C=C(COC2=O)C(=O)O)(CCl)O
Method: HCD
Collision_energy: [28.333334]
Isolation_window: 4.0
Ion_mode: P
Num Peaks: 78
69.0703	0.5
70.0656	0.6
81.0338	0.3
81.0703	0.5
83.0858	0.2
84.0811	0.3
93.0702	0.3
95.0859	0.4
96.0447	0.3
96.0811	1.7
97.0651	0.3
97.3994	0.3
101.0599	0.3
107.0858	0.3
110.0603	0.3
113.1075	0.8
114.0552	1.3
114.0915	2.0
116.0707	0.4
122.0601	0.3
126.0549	0.4
130.0499	0.4
133.1013	0.2
134.0966	1.8
140.0707	0.3
150.0550	0.3
152.0708	0.3
160.0759	0.4
163.1120	0.3
164.0708	0.8
166.0976	0.6
176.0706	0.4
177.1026	0.5
180.0656	0.3
181.0973	0.2
182.0813	0.9
209.1649	4.3
226.1914	0.6
227.1755	1.8
242.0426	0.3
275.1639	0.3
294.0850	0.3
295.1446	0.3
303.1591	0.3
303.1955	0.4
305.1752	0.3
321.1447	0.4
321.1694	0.4
322.2488	6.9
323.2520	0.6
337.1404	0.2
337.1757	0.9
337.2007	0.3
337.2107	0.5
338.1097	3.2
338.1599	0.3
338.1764	0.4
338.1974	0.4
338.3419	0.3
339.0525	0.6
339.0614	0.5
339.0952	100.0
339.1299	0.7
339.1367	0.6
339.1548	1.6
339.1671	0.5
339.1772	0.4
339.1909	1.7
339.2164	0.4
340.0986	14.3
340.1170	0.4
340.1389	0.9
340.1879	0.8
340.2593	10.1
341.0933	5.0
341.1124	0.4
341.1501	3.0
341.2628	0.9

Name: Hydrocortisone Valerate
PrecursorMZ: 447.27361
RT: 5.7383
ExactMass: 446.26683893
Spectrum_type: 2
charge: 1
Formula: C26H38O6
SMILES: CCCCC(=O)O[C@@]1(CC[C@@H]2[C@@]1(C[C@@H]([C@H]3[C@H]2CCC4=CC(=O)CC[C@]34C)O)C)C(=O)CO
Method: HCD
Collision_energy: [28.333334]
Isolation_window: 4.0
Ion_mode: P
Num Peaks: 106
69.0338	8.2
69.0702	10.9
69.2150	6.8
69.2170	6.8
81.0702	6.5
83.0858	12.6
85.0650	7.3
93.0699	6.4
95.0857	12.6
97.0649	7.2
97.1013	12.6
97.4571	7.7
99.0441	18.4
101.0598	10.2
107.0855	17.1
109.1013	9.9
115.0752	7.4
119.0855	13.0
121.1012	16.7
123.0803	6.6
133.1010	20.7
135.0804	8.9
135.1167	12.8
142.0861	9.1
143.1065	6.4
145.1010	10.9
147.1168	13.4
149.0959	11.4
159.1168	12.3
160.0967	27.8
161.0953	8.3
161.1323	7.3
167.1064	7.6
171.1169	9.4
173.0964	11.8
173.1325	14.0
175.0747	6.9
175.1115	9.5
177.0907	9.8
179.1063	8.4
185.1321	11.1
187.1481	13.5
189.0906	6.7
191.1064	11.4
191.1426	10.4
193.1223	6.4
199.1114	6.7
209.1533	11.6
211.1477	7.8
213.1272	13.8
215.1427	6.7
217.1222	8.1
223.1478	6.4
227.1430	10.9
229.1582	11.8
231.1373	8.3
233.1533	15.1
235.1689	12.0
239.1423	12.2
241.1582	10.5
245.1533	16.0
247.1688	19.3
249.1632	7.3
253.1581	13.0
259.1690	10.4
263.1790	6.4
265.1582	7.7
267.1736	9.3
269.1527	7.8
269.1905	6.6
271.1687	7.5
281.1526	7.4
281.1892	7.0
283.1685	7.5
287.1640	6.5
291.1735	8.9
295.1685	13.7
305.1742	7.5
309.1841	18.3
323.1998	11.8
323.2360	7.7
327.1947	11.9
351.1958	11.3
351.2309	34.1
352.2339	8.3
365.2470	19.6
369.2061	12.0
369.2416	43.1
370.2448	14.1
375.2311	7.6
383.2572	37.1
384.2600	8.2
387.2521	44.2
388.2549	10.1
393.2417	42.8
394.2455	9.8
401.2671	18.1
411.2521	100.0
412.2555	25.0
429.2628	81.6
430.2660	23.4
446.2033	24.2
446.3073	17.3
447.2051	7.3
447.2732	77.9
448.2760	15.8

Name: Hydroxyatenolol
PrecursorMZ: 283.16518
RT: 0.6254
ExactMass: 282.15795719
Spectrum_type: 2
charge: 1
Formula: C14H22N2O4
SMILES: CC(C)NCC(COC1=CC=C(C=C1)C(C(=O)N)O)O
Method: HCD
Collision_energy: [28.333334]
Isolation_window: 4.0
Ion_mode: P
Num Peaks: 40
55.0546	0.8
59.0497	0.6
83.0498	1.5
83.0608	10.9
84.0641	0.4
89.0601	1.2
101.0600	6.5
102.0632	0.4
133.0858	0.7
165.1020	0.3
168.1022	0.4
179.0817	0.6
180.1023	0.6
183.1130	18.6
184.1164	1.6
273.1233	0.9
274.1460	0.4
281.1506	0.6
283.0997	0.6
283.1147	0.3
283.1653	100.0
283.2303	0.6
284.1686	16.3
285.1807	5.9
286.1083	0.3
286.1826	0.8
290.1375	0.4
291.1340	3.2
292.1567	1.6
293.1515	1.2
294.1703	0.7
295.1653	1.7
296.1663	0.4
297.1812	0.7
298.1755	0.4
299.1972	0.6
301.2120	2.1
302.1368	0.4
302.2153	0.3
303.1353	0.4

Name: Hyodeoxycholic Acid
PrecursorMZ: 357.27828
RT: 1.6745
ExactMass: 392.29265975
Spectrum_type: 2
charge: 1
Formula: C24H40O4
SMILES: C[C@H](CCC(=O)O)[C@H]1CC[C@@H]2[C@@]1(CC[C@H]3[C@H]2C[C@@H]([C@H]4[C@@]3(CC[C@H](C4)O)C)O)C
Method: HCD
Collision_energy: [28.333334]
Isolation_window: 4.0
Ion_mode: P
Num Peaks: 57
67.0546	3.7
69.0703	2.9
81.0702	10.8
83.0858	5.5
88.0759	3.2
93.0700	5.7
95.0857	11.8
97.3989	4.2
99.0440	2.3
101.0599	3.0
105.0700	3.4
106.0863	2.5
107.0857	8.9
109.1013	13.1
119.0856	5.6
121.1012	8.5
123.1168	2.5
133.1011	6.9
135.1168	13.7
145.1010	2.1
147.1167	8.7
149.1325	8.8
153.0912	2.4
159.1169	2.7
161.1324	9.1
163.1480	4.8
167.1065	2.6
175.1479	7.5
177.1637	2.1
181.1220	3.4
187.1478	2.8
189.1636	3.5
195.1376	4.6
201.1636	4.7
203.1792	2.4
207.1379	2.0
211.1481	2.5
215.1791	8.6
221.1535	7.0
229.1950	3.6
235.1691	4.2
243.2102	3.4
247.1688	8.7
249.1848	2.7
261.1847	5.6
275.2001	4.8
321.2573	2.0
339.2679	5.0
340.3567	2.7
356.2661	2.4
357.2783	100.0
357.3252	1.9
358.2818	27.3
358.3675	53.4
359.1953	2.4
359.2952	3.9
359.3709	6.5

Name: IM-156 free base
PrecursorMZ: 316.13844
RT: 7.6427
ExactMass: 315.13069464
Spectrum_type: 2
charge: 1
Formula: C13H16F3N5O
SMILES: C1CCN(C1)/C(=N/C(=NC2=CC=C(C=C2)OC(F)(F)F)N)/N
Method: HCD
Collision_energy: [28.333334]
Isolation_window: 4.0
Ion_mode: P
Num Peaks: 8
87.0443	9.1
152.0705	5.7
153.0406	7.3
230.1019	12.8
314.1226	7.2
315.1259	5.4
316.1383	100.0
317.1418	14.0

Name: Ile-Leu
PrecursorMZ: 245.1856
RT: 3.0875
ExactMass: 244.17869263
Spectrum_type: 2
charge: 1
Formula: C12H24N2O3
SMILES: CC[C@H](C)[C@@H](C(=O)N[C@@H](CC(C)C)C(=O)O)N
Method: HCD
Collision_energy: [28.333334]
Isolation_window: 4.0
Ion_mode: P
Num Peaks: 19
69.0703	1.9
69.1473	1.1
70.0655	1.1
74.0604	2.3
86.0604	0.9
86.0967	100.0
87.1000	5.4
97.3988	1.2
98.0966	0.8
132.0655	0.8
132.1018	5.7
144.1018	1.2
199.1802	2.2
245.1152	1.1
245.1503	0.8
245.1856	5.5
246.1121	1.1
246.1277	2.0
247.1427	1.3

Name: Ile-Pro-Lys
PrecursorMZ: 357.24957
RT: 14.9708
ExactMass: 356.24235551
Spectrum_type: 2
charge: 1
Formula: C17H32N4O4
SMILES: CC[C@H](C)[C@@H](C(=O)N1CCC[C@H]1C(=O)N[C@@H](CCCCN)C(=O)O)N
Method: HCD
Collision_energy: [28.333334]
Isolation_window: 4.0
Ion_mode: P
Num Peaks: 9
84.0813	12.4
132.0446	10.5
142.0863	10.6
229.1549	11.1
356.3529	11.7
357.2500	100.0
358.2526	20.1
358.3686	13.1
374.3621	10.7

Name: Isobutyrylcarnitine
PrecursorMZ: 232.15406
RT: 8.9745
ExactMass: 231.14705815
Spectrum_type: 2
charge: 1
Formula: C11H21NO4
SMILES: CC(C)C(=O)O[C@H](CC(=O)[O-])C[N+](C)(C)C
Method: HCD
Collision_energy: [28.333334]
Isolation_window: 4.0
Ion_mode: P
Num Peaks: 12
70.0654	20.4
88.0758	10.4
101.0598	7.6
114.0913	11.5
132.1017	5.5
186.0760	4.6
214.1434	13.7
231.0968	5.2
231.1335	6.8
232.1539	100.0
233.1575	10.9
234.1344	20.5

Name: Isocholic acid
PrecursorMZ: 373.27323
RT: 5.1282
ExactMass: 408.28757437
Spectrum_type: 2
charge: 1
Formula: C24H40O5
SMILES: C[C@H](CCC(=O)O)[C@H]1CC[C@@H]2[C@@]1([C@H](C[C@H]3[C@H]2[C@@H](C[C@H]4[C@@]3(CC[C@@H](C4)O)C)O)O)C
Method: HCD
Collision_energy: [28.333334]
Isolation_window: 4.0
Ion_mode: P
Num Peaks: 161
67.0546	2.7
69.0700	2.3
70.0651	3.6
70.0667	2.2
72.0809	7.3
79.0545	2.6
81.0334	3.4
81.0699	11.7
83.0494	1.6
83.0857	2.2
84.0446	2.4
84.0810	2.1
85.0648	3.8
86.0963	12.7
91.0543	2.2
93.0697	7.0
95.0854	9.2
97.0281	2.1
97.0649	2.2
98.0601	1.6
98.0962	5.2
99.0439	4.4
101.0595	6.7
105.0697	8.0
107.0853	14.2
107.0885	1.5
109.1009	6.8
110.0597	5.2
111.0441	1.5
114.0543	1.6
116.0702	3.8
117.0697	1.2
118.0862	1.2
119.0852	11.8
120.0800	2.5
121.0644	2.5
121.1008	9.3
123.0803	2.3
123.1168	1.9
125.0960	1.3
126.0549	1.4
130.0493	1.7
131.0851	5.9
132.1013	2.3
133.1007	10.2
135.1163	7.0
137.0960	1.5
142.0855	2.3
143.0850	2.4
145.1006	11.9
146.1041	1.2
147.0756	3.4
147.1163	13.1
148.1199	1.3
149.0958	2.0
149.1320	3.4
151.1115	1.8
152.0697	2.0
157.1008	4.1
159.1163	15.2
160.1197	2.4
161.1320	9.4
162.0548	1.2
162.1356	1.4
163.1113	1.8
164.0696	2.2
166.0853	2.1
167.1064	1.8
169.1008	3.0
171.1164	3.3
173.1319	5.3
175.1477	3.2
177.1274	1.8
181.1216	2.3
183.0862	1.7
183.1163	1.8
185.1323	5.8
187.1478	5.5
189.1269	1.3
191.1062	1.2
192.0646	2.1
193.1219	2.9
195.1379	2.4
197.1330	1.8
199.1474	10.9
201.1226	1.8
201.1633	3.3
203.1426	1.3
207.1376	2.4
209.1317	2.9
209.1533	1.4
211.1478	11.9
212.1510	2.3
213.1634	11.5
214.1669	1.8
215.1790	3.0
217.1584	1.4
221.1530	3.3
225.1633	2.9
227.1392	2.7
227.1426	4.2
227.1789	6.3
229.1175	3.0
229.1582	5.3
230.1374	1.8
231.1740	2.5
233.1532	1.7
235.1689	3.0
237.1636	1.5
239.1788	1.9
241.1581	1.8
241.1944	3.5
243.1740	2.2
245.1531	5.6
247.1687	16.3
248.1718	3.0
249.1845	1.4
254.2023	2.8
255.2101	2.4
259.1686	5.0
261.1842	9.8
262.1876	1.3
273.1841	2.9
313.2157	2.8
314.1505	2.3
319.2414	5.3
336.2395	1.5
337.2518	13.1
338.2548	3.1
353.2469	5.5
354.1335	3.0
354.2494	7.0
355.1498	1.2
355.1681	1.8
355.2623	100.0
356.1486	1.9
356.2656	23.9
357.1446	1.4
357.2692	1.7
371.2572	11.6
372.1424	17.2
372.1785	3.2
372.1983	2.0
372.2191	2.9
372.2595	13.6
373.1392	7.5
373.1751	9.6
373.1961	6.0
373.2728	82.3
374.1221	3.8
374.1414	2.3
374.1589	9.8
374.2034	2.0
374.2310	9.9
374.2355	1.7
374.2759	19.9
375.1304	10.9
375.1550	5.8
375.1910	2.0
375.2334	1.2
375.2797	1.6

Name: Isoguvacine
PrecursorMZ: 128.07066
RT: 5.7108
ExactMass: 127.06332853
Spectrum_type: 2
charge: 1
Formula: C6H9NO2
SMILES: C1CNCC=C1C(=O)O
Method: HCD
Collision_energy: [28.333334]
Isolation_window: 4.0
Ion_mode: P
Num Peaks: 14
81.0337	15.9
81.0450	68.5
82.0654	30.3
84.0446	71.8
86.0602	59.3
95.0493	35.9
100.0757	48.3
126.0912	100.0
127.0389	20.9
127.0501	18.7
127.0754	93.7
127.0944	16.5
128.0705	23.0
130.1589	19.0

Name: Isopetasol
PrecursorMZ: 235.169
RT: 4.6015
ExactMass: 234.16197994
Spectrum_type: 2
charge: 1
Formula: C15H22O2
SMILES: C[C@H]1[C@@H](CCC2=CC(=O)C(=C(C)C)C[C@]12C)O
Method: HCD
Collision_energy: [28.333334]
Isolation_window: 4.0
Ion_mode: P
Num Peaks: 36
67.0546	32.6
69.0702	13.9
69.5249	8.7
72.0810	9.3
74.0602	10.6
79.0545	46.3
81.0701	39.0
83.0857	8.3
86.0966	16.0
91.0543	26.9
93.0700	83.3
95.0856	34.8
105.0698	17.9
107.0856	61.6
109.1012	15.7
117.0700	8.3
119.0855	28.1
121.1011	85.9
123.0803	8.1
131.0855	19.7
133.1011	29.3
135.0802	12.4
135.1167	22.1
137.0958	8.5
157.1009	8.1
173.1322	12.4
175.1478	19.3
189.1268	9.3
189.1632	12.0
199.1477	19.0
217.1582	18.8
235.1072	9.1
235.1185	18.3
235.1688	100.0
236.0920	11.0
236.1728	14.7

Name: Kdm5-IN-1
PrecursorMZ: 325.17721
RT: 1.0058
ExactMass: 324.16985928
Spectrum_type: 2
charge: 1
Formula: C17H20N6O
SMILES: CC(C)C1=C(N=C2C(=CNN2C1=O)C#N)C3=CN(N=C3)C(C)(C)C
Method: HCD
Collision_energy: [28.333334]
Isolation_window: 4.0
Ion_mode: P
Num Peaks: 4
139.9145	37.5
325.1040	52.0
325.1762	24.7
325.2707	100.0

Name: Ketohexokinase inhibitor 1
PrecursorMZ: 356.14493
RT: 8.576
ExactMass: 356.14601035
Spectrum_type: 2
charge: 1
Formula: C16H19F3N4O2
SMILES: C[C@H]1CCN1C2=NC(=CC(=N2)N3C[C@@H]4[C@H](C3)C4CC(=O)O)C(F)(F)F
Method: HCD
Collision_energy: [28.333334]
Isolation_window: 4.0
Ion_mode: P
Num Peaks: 13
70.0656	5.8
114.0916	18.6
135.0916	3.6
181.0972	46.1
182.1008	4.2
227.1029	7.5
310.1396	18.4
338.1355	5.8
338.2435	3.5
355.1508	3.5
356.1454	100.0
356.2541	3.8
357.1481	14.5

Name: Kynurenine
PrecursorMZ: 209.09184
RT: 9.0285
ExactMass: 208.08479225
Spectrum_type: 2
charge: 1
Formula: C10H12N2O3
SMILES: C1=CC=C(C(=C1)C(=O)C[C@@H](C(=O)O)N)N
Method: HCD
Collision_energy: [28.333334]
Isolation_window: 4.0
Ion_mode: P
Num Peaks: 64
55.0546	2.1
62.0604	1.8
70.0655	1.9
72.0447	2.0
74.0239	2.7
80.0497	55.2
81.0531	2.5
83.0493	3.1
84.0446	1.3
84.0810	4.4
87.0442	6.2
94.0653	1.3
96.0445	1.7
98.0602	1.7
101.0597	10.7
102.0550	5.9
108.0808	2.5
109.0760	7.9
110.0601	2.7
118.0497	2.4
120.0806	1.4
121.0885	3.1
123.0916	8.7
124.0756	5.5
130.0497	1.1
130.0860	1.9
136.0390	1.8
137.0833	1.2
138.0911	5.1
147.0551	3.1
162.0911	1.7
162.1122	1.7
163.0864	22.5
164.0228	9.3
164.0706	1.5
164.0899	1.7
164.1068	8.6
165.0656	7.0
165.1018	1.6
182.0333	4.3
187.0386	1.2
190.1072	1.2
192.1016	2.0
193.0606	3.6
193.0969	1.9
207.1125	5.4
208.0965	46.0
208.1066	2.6
208.1170	7.9
208.1327	19.1
209.0837	1.1
209.0916	100.0
209.0998	5.7
209.1280	72.7
210.0759	1.8
210.0869	7.1
210.0953	11.1
210.1120	67.3
210.1220	2.9
210.1315	8.3
210.1482	1.3
211.1072	5.4
211.1158	3.3
211.1434	2.1

Name: L-alanyl-L-phenylalanine
PrecursorMZ: 237.12331
RT: 3.8014
ExactMass: 236.11609238
Spectrum_type: 2
charge: 1
Formula: C12H16N2O3
SMILES: C[C@@H](C(=O)N[C@@H](CC1=CC=CC=C1)C(=O)O)N
Method: HCD
Collision_energy: [28.333334]
Isolation_window: 4.0
Ion_mode: P
Num Peaks: 21
89.0602	1.0
120.0810	1.3
121.0889	5.2
148.0758	2.0
165.1025	1.0
166.0866	12.6
167.0902	1.2
191.1180	12.2
192.1216	1.4
193.1341	1.2
210.0798	2.7
237.1236	100.0
238.1272	12.8
239.1058	1.2
239.1302	0.9
241.1191	0.9
241.1542	2.0
248.0352	1.4
249.1238	1.5
252.1240	0.9
254.1400	0.9

Name: Lauramidopropylbetaine
PrecursorMZ: 343.29517
RT: 4.785966666666667
ExactMass: 342.28824308
Spectrum_type: 2
charge: 1
Formula: C19H38N2O3
SMILES: CCCCCCCCCCCC(=O)NCCC[N+](C)(C)CC(=O)[O-]
Method: HCD
Collision_energy: [28.333334]
Isolation_window: 4.0
Ion_mode: P
Num Peaks: 29
57.0702	0.8
58.0656	0.5
70.0655	0.2
71.0858	0.6
77.0059	0.3
81.0701	0.2
83.0858	0.4
85.1014	0.5
86.0967	0.5
94.0323	0.2
95.0857	1.0
109.1013	0.8
116.0707	0.6
183.1742	1.9
240.1115	0.2
240.1989	0.3
240.2065	0.8
240.2116	0.6
240.2319	100.0
240.2522	0.4
240.2575	0.6
240.3574	0.2
241.2352	15.0
242.2385	0.4
343.1303	0.3
343.1630	1.9
343.2950	6.9
344.1673	0.4
344.2984	1.4

Name: Lauric acid monoethanolamide
PrecursorMZ: 244.22683
RT: 1.2168
ExactMass: 243.219829168
Spectrum_type: 2
charge: 1
Formula: C14H29NO2
SMILES: CCCCCCCCCCCC(=O)NCCO
Method: HCD
Collision_energy: [28.333334]
Isolation_window: 4.0
Ion_mode: P
Num Peaks: 10
57.0702	8.1
62.0604	100.0
71.0858	5.2
85.1014	5.1
95.0856	5.1
109.1012	3.9
226.2160	6.9
227.2000	14.5
244.2265	18.3
245.1145	10.4

Name: Lauryldimethylamine
PrecursorMZ: 214.25281
RT: 3.4601
ExactMass: 213.245649993
Spectrum_type: 2
charge: 1
Formula: C14H31N
SMILES: CCCCCCCCCCCCN(C)C
Method: HCD
Collision_energy: [28.333334]
Isolation_window: 4.0
Ion_mode: P
Num Peaks: 7
112.8958	12.6
114.0914	16.0
214.0497	29.5
214.2527	100.0
215.0530	4.9
215.1255	4.6
215.2563	13.7

Name: Leu-Val
PrecursorMZ: 231.17023
RT: 4.8865
ExactMass: 230.16304257
Spectrum_type: 2
charge: 1
Formula: C11H22N2O3
SMILES: CC(C)C[C@@H](C(=O)N[C@@H](C(C)C)C(=O)O)N
Method: HCD
Collision_energy: [28.333334]
Isolation_window: 4.0
Ion_mode: P
Num Peaks: 36
55.0547	0.7
67.0547	0.9
69.0703	1.5
72.0812	20.0
73.0845	0.9
81.0338	1.0
86.0967	100.0
87.1001	5.5
97.3988	0.8
105.0701	0.8
114.0915	2.1
116.0707	1.0
118.0864	3.3
119.0858	1.6
131.0855	1.2
132.1018	1.3
145.1012	1.5
147.1170	0.7
152.0708	1.0
167.0704	0.7
171.1170	0.9
176.8755	1.1
185.1648	2.8
201.1596	0.8
229.1816	1.8
230.0814	0.8
230.1023	0.8
231.1114	0.9
231.1383	1.2
231.1702	6.6
232.0604	0.8
232.0971	1.4
232.1740	0.8
232.1908	1.4
233.0917	1.3
233.1535	2.4

Name: Leu-Val-Lys
PrecursorMZ: 359.26471
RT: 7.9891
ExactMass: 358.25800558
Spectrum_type: 2
charge: 1
Formula: C17H34N4O4
SMILES: CC(C)C[C@@H](C(=O)N[C@@H](C(C)C)C(=O)N[C@@H](CCCCN)C(=O)O)N
Method: HCD
Collision_energy: [28.333334]
Isolation_window: 4.0
Ion_mode: P
Num Peaks: 47
70.0654	15.1
72.0811	17.2
81.0338	3.8
84.0810	67.8
86.0966	25.2
100.0757	6.2
101.1074	7.7
111.0440	7.6
129.1021	100.0
130.0861	11.8
130.1055	5.5
147.1126	19.6
154.0860	27.8
162.0912	5.4
171.1125	9.9
172.0966	9.2
180.1017	5.0
183.1488	8.3
185.1645	12.6
196.0966	3.2
197.1280	7.1
197.1645	3.3
199.1070	3.3
210.1596	3.4
228.1704	7.7
231.1699	2.9
246.1806	3.4
260.1960	4.4
342.1539	3.1
343.1494	5.0
358.1112	5.1
358.1465	12.6
358.1662	4.1
359.1436	4.6
359.1586	3.7
359.1793	6.4
359.1955	29.3
359.2402	10.9
359.2641	87.1
360.1057	7.2
360.1435	4.1
360.1626	44.6
360.1979	5.4
360.2674	15.4
361.1572	16.8
361.2199	14.2
361.2436	7.7

Name: Lidocaine
PrecursorMZ: 235.18022
RT: 8.2282
ExactMass: 234.17321333
Spectrum_type: 2
charge: 1
Formula: C14H22N2O
SMILES: CCN(CC)CC(=O)NC1=C(C=CC=C1C)C
Method: HCD
Collision_energy: [28.333334]
Isolation_window: 4.0
Ion_mode: P
Num Peaks: 7
86.0966	61.4
105.0699	15.1
133.0647	10.8
218.1536	23.9
235.1800	100.0
236.1276	10.2
236.1841	12.5

Name: Ligustilide
PrecursorMZ: 191.10658
RT: 6.3901
ExactMass: 190.099379685
Spectrum_type: 2
charge: 1
Formula: C12H14O2
SMILES: CCC/C=C\1/C2=C(C=CCC2)C(=O)O1
Method: HCD
Collision_energy: [28.333334]
Isolation_window: 4.0
Ion_mode: P
Num Peaks: 50
55.0183	4.4
67.0546	8.3
79.0545	7.6
81.0702	9.2
83.0494	3.4
91.0545	8.6
93.0701	13.2
95.0494	3.5
97.0650	6.9
105.0700	6.1
107.0494	4.5
107.0857	16.8
116.0707	5.0
117.0701	5.7
119.0856	13.1
121.0649	4.5
121.1012	18.9
129.0700	5.6
131.0855	22.1
135.1168	19.8
144.0113	3.3
145.0648	3.7
145.1011	39.6
146.1044	3.3
147.1168	11.2
149.0961	15.4
154.0862	4.4
155.0704	4.3
155.0855	5.6
162.0550	44.7
162.0652	6.4
163.0509	4.0
163.0580	4.4
163.1117	100.0
164.1152	10.8
172.0969	3.4
173.0961	35.4
174.0994	4.0
181.1220	5.2
190.0501	6.5
190.0609	29.8
190.1071	3.8
191.0450	16.3
191.0705	5.9
191.1065	91.4
192.0289	6.4
192.0654	4.6
192.1015	3.8
192.1100	12.9
193.0494	4.1

Name: Linseed Acid
PrecursorMZ: 279.23147
RT: 1.52785
ExactMass: 278.224580195
Spectrum_type: 2
charge: 1
Formula: C18H30O2
SMILES: CCC=CCC=CCC=CCCCCCCCC(=O)O
Method: HCD
Collision_energy: [28.333334]
Isolation_window: 4.0
Ion_mode: P
Num Peaks: 79
55.0182	8.8
55.0546	10.2
57.0703	22.2
67.0546	60.0
68.0579	3.2
69.0702	56.2
71.0495	4.2
71.0858	33.1
79.0545	20.1
81.0701	100.0
82.0735	4.4
83.0494	7.1
83.0858	34.9
85.0650	8.0
85.1013	5.6
91.0543	11.1
93.0700	33.0
94.0733	4.7
95.0856	83.9
96.0890	5.6
97.0649	10.0
97.1012	20.8
99.0806	7.3
105.0699	6.5
107.0856	36.1
108.0889	3.7
109.1012	46.0
110.1045	4.5
111.0804	9.5
111.1169	7.3
113.0961	4.7
119.0854	10.3
121.1011	32.2
122.1045	4.2
123.1167	29.3
125.0960	5.4
131.0853	6.9
133.1010	14.7
135.0802	4.3
135.1166	27.3
136.1200	5.5
137.0958	4.0
137.1323	10.3
139.1116	6.1
141.1272	19.0
145.1010	5.7
147.1167	12.2
149.0960	7.4
149.1323	11.9
150.1358	3.0
151.1116	7.6
151.1480	6.1
153.1272	26.9
159.1169	4.8
161.1322	8.2
163.1114	5.4
163.1479	7.4
165.1274	4.5
167.1065	3.4
173.1326	5.1
175.1478	4.6
177.1272	3.3
179.1426	9.2
180.1462	3.2
181.1583	3.7
183.1378	3.0
187.1479	3.1
219.2104	3.3
233.2258	5.9
243.2108	6.2
245.2259	5.0
251.2362	5.3
261.2206	16.4
277.2153	7.6
278.1017	5.3
278.2189	14.4
279.2314	58.1
280.2347	11.6
281.2471	2.9

Name: Lupinine
PrecursorMZ: 170.15403
RT: 1.183
ExactMass: 169.14666423
Spectrum_type: 2
charge: 1
Formula: C10H19NO
SMILES: C1CCN2CCC[C@H]([C@H]2C1)CO
Method: HCD
Collision_energy: [28.333334]
Isolation_window: 4.0
Ion_mode: P
Num Peaks: 15
74.0605	4.7
81.0338	2.1
100.0759	15.7
110.0967	2.5
111.0443	2.4
142.1227	3.9
152.1071	2.5
170.0577	3.1
170.0969	2.6
170.1177	7.3
170.1540	100.0
171.1572	11.4
172.0757	9.4
172.1121	2.8
172.1695	4.7

Name: Melanostatin
PrecursorMZ: 285.19184
RT: 9.5546
ExactMass: 284.18484064
Spectrum_type: 2
charge: 1
Formula: C13H24N4O3
SMILES: CC(C)C[C@@H](C(=O)NCC(=O)N)NC(=O)[C@@H]1CCCN1
Method: HCD
Collision_energy: [28.333334]
Isolation_window: 4.0
Ion_mode: P
Num Peaks: 26
58.0657	30.5
70.0656	19.5
89.0600	18.1
112.0873	21.3
114.1029	35.7
122.0814	18.9
132.0445	55.0
158.0925	16.4
168.0686	14.5
182.1539	32.0
275.1146	19.9
284.1462	30.7
285.1927	68.9
286.1057	19.2
286.3111	22.1
287.1714	18.0
288.1230	23.0
290.1386	82.8
290.2687	18.6
291.1409	19.1
292.1543	100.0
293.1527	19.9
300.1188	13.5
302.1043	13.7
304.1177	37.9
304.2996	12.8

Name: Methyl 10-methoxy-2,2,8,8-tetramethyl-3,4,6,7-tetrahydropyrano(3,2-g)chromene-5-carboxylate
PrecursorMZ: 335.18513
RT: 0.7956
ExactMass: 334.17802393
Spectrum_type: 2
charge: 1
Formula: C19H26O5
SMILES: CC1(CCC2=C(C3=C(C(=C2O1)OC)OC(CC3)(C)C)C(=O)OC)C
Method: HCD
Collision_energy: [28.333334]
Isolation_window: 4.0
Ion_mode: P
Num Peaks: 27
55.0546	14.3
57.0703	16.3
69.0703	25.5
71.0495	13.2
83.0495	100.0
97.3992	17.1
115.0390	18.0
127.0389	19.4
177.0544	24.5
177.0910	16.4
179.0339	58.4
191.0338	42.8
191.0700	14.9
211.0599	71.6
223.0964	20.9
243.1016	22.2
261.1116	39.3
261.1483	15.8
267.1230	29.4
279.1220	19.8
299.1642	22.3
305.0652	74.0
317.1746	80.0
318.1783	15.1
319.2841	19.0
335.1851	31.7
335.2211	17.2

Name: Methyl 11-hydroxy-10-methyl-4-oxododecanoate
PrecursorMZ: 276.21657
RT: 0.5628
ExactMass: 258.18310931
Spectrum_type: 2
charge: 1
Formula: C14H26O4
SMILES: CC(CCCCCC(=O)CCC(=O)OC)C(C)O
Method: HCD
Collision_energy: [28.333334]
Isolation_window: 4.0
Ion_mode: P
Num Peaks: 153
57.0340	16.6
57.0703	16.9
58.0655	2.6
59.0496	22.8
59.0609	4.4
60.0449	4.2
67.0546	15.0
69.0703	8.7
70.0655	1.9
71.0496	3.2
71.0859	31.5
72.0893	1.9
73.0288	3.2
73.0653	2.7
74.0604	2.1
79.0546	3.3
81.0702	17.8
83.0497	1.9
83.0859	8.0
85.0651	10.3
85.1015	23.0
86.0603	1.6
86.0967	1.5
87.0443	5.8
87.0807	1.6
88.0760	5.9
89.0600	100.0
90.0633	4.3
91.0543	2.4
93.0701	7.7
95.0492	3.8
95.0858	16.2
97.0650	4.6
97.1015	4.4
99.0439	2.6
99.0807	12.5
99.1170	1.5
101.0599	56.6
101.0964	2.3
102.0632	2.4
105.0184	1.7
105.0701	3.5
106.0864	6.9
107.0705	10.9
107.0855	8.8
109.0650	2.7
109.1013	13.9
111.0807	2.9
113.0598	4.9
115.0395	1.9
115.0755	8.0
116.0706	4.8
117.0913	4.7
119.0854	3.9
120.0809	2.8
121.0285	1.5
121.1013	7.2
122.0810	2.1
123.0806	3.8
123.1168	6.6
125.0961	3.6
127.1120	1.8
129.0182	3.2
129.0913	2.6
131.0857	2.5
133.0497	5.0
133.0860	25.2
133.1009	5.4
135.0810	2.1
135.1171	7.2
137.0960	3.5
137.1327	1.9
139.0752	1.7
139.1114	2.1
143.1067	5.2
145.1011	2.9
147.1168	4.4
149.0233	9.7
149.0956	3.0
149.1326	4.2
151.0965	66.3
151.1109	4.0
152.0992	4.0
153.0907	2.1
153.1274	1.7
157.0496	42.1
157.1010	1.7
157.1224	13.6
158.0523	3.1
159.1165	3.1
161.1322	3.8
163.1116	2.4
163.1479	2.8
164.0706	2.8
165.1274	1.7
170.1173	3.8
171.1163	1.5
171.1379	15.8
172.1410	1.8
173.1319	2.8
175.1118	1.5
175.1484	2.4
177.1272	2.0
179.1430	2.8
185.1534	1.5
190.0861	5.0
193.1224	1.6
199.1327	1.5
201.0547	1.8
203.0912	4.5
224.1857	2.1
226.2162	2.4
232.0965	4.2
234.1845	2.0
242.2476	8.6
254.2469	2.2
259.2066	3.0
270.2788	4.3
274.2163	7.8
274.2739	16.9
274.7347	1.6
275.2003	2.1
275.2781	4.9
276.1975	2.2
276.2316	1.7
277.2145	8.5
278.2167	2.5
279.2326	3.2
280.2490	19.6
281.2513	3.9
282.2793	4.4
284.2397	3.1
284.2946	5.0
285.1220	1.8
286.1433	1.5
286.2168	1.7
286.2740	3.3
287.1391	2.5
288.1219	1.8
288.2531	11.4
288.2889	3.7
289.2181	1.8
289.2559	2.1
290.2687	20.4
291.2153	2.0
291.2485	2.5
291.2721	2.6
292.2264	8.0
293.2086	3.5
294.2417	2.7
295.2605	4.7
296.2574	1.6
299.0611	1.8

Name: Methyl 12-hydroxystearate
PrecursorMZ: 315.28893
RT: 1.8086666666666666
ExactMass: 314.28209507
Spectrum_type: 2
charge: 1
Formula: C19H38O3
SMILES: CCCCCCC(CCCCCCCCCCC(=O)OC)O
Method: HCD
Collision_energy: [28.333334]
Isolation_window: 4.0
Ion_mode: P
Num Peaks: 5
57.0339	53.3
69.0702	20.9
75.0443	100.0
83.0857	19.0
97.1012	19.2

Name: Methyl 2-)(4-hydroxy-3-methoxyphenyl)methylidene(-3-oxo-1-benzofuran-5-carboxylate
PrecursorMZ: 327.08581
RT: 3.2401
ExactMass: 326.07903816
Spectrum_type: 2
charge: 1
Formula: C18H14O6
SMILES: COC1=C(C=CC(=C1)C=C2C(=O)C3=C(O2)C=CC(=C3)C(=O)OC)O
Method: HCD
Collision_energy: [28.333334]
Isolation_window: 4.0
Ion_mode: P
Num Peaks: 100
69.0340	2.0
70.0656	7.3
72.0812	2.1
81.0339	6.8
84.0450	2.7
84.0811	7.2
85.0287	2.5
97.0287	1.8
99.0444	2.8
100.0760	1.9
101.0599	2.9
102.0551	2.7
107.0495	9.2
111.0444	3.7
114.0552	2.4
114.0665	5.4
116.0709	3.4
117.0549	2.3
121.0286	11.5
123.0442	1.8
125.0235	6.1
126.0552	1.7
128.0709	2.3
130.0500	4.3
130.0863	4.0
147.0445	2.9
152.0704	2.0
156.1019	1.7
164.0702	2.0
165.0550	2.4
205.0492	2.3
207.1129	2.4
211.0753	8.9
220.1193	51.1
221.1225	6.1
223.0767	2.1
225.0901	2.3
225.1238	1.9
237.0891	2.5
239.0702	4.5
241.0907	1.8
241.1313	2.1
249.0915	5.6
251.0703	1.8
253.0860	31.7
254.0890	5.1
265.0850	1.8
267.0654	8.0
267.1015	10.3
268.0715	1.8
269.0815	2.5
271.0965	2.6
277.0860	48.3
278.0891	8.9
279.0948	2.3
281.0808	3.3
283.0945	2.4
285.1118	1.9
295.0965	100.0
296.0997	19.3
297.1050	3.2
308.0778	2.4
311.0899	2.3
312.1167	1.8
313.1073	4.8
318.1554	2.8
325.1047	1.8
325.1761	10.9
326.1823	3.4
327.0862	21.8
327.1212	3.3
327.1617	2.1
328.0908	10.8
329.0984	2.3
329.1420	2.9
329.1794	2.0
330.1316	2.9
330.1680	2.0
331.1223	6.5
331.1602	12.8
332.1478	2.7
332.1742	2.1
333.1445	3.0
333.1803	2.8
334.1272	2.9
334.1645	2.2
335.1611	3.6
336.1669	25.4
337.1744	5.3
339.1214	2.0
339.1976	2.9
341.1340	3.8
341.1741	3.5
342.1227	2.2
343.1140	4.1
343.1581	2.8
344.1486	3.4
345.1401	9.6
345.1791	1.9
346.1660	4.6

Name: Methyl 2-)(4-methoxyphenyl)methylidene(-3-oxo-1-benzofuran-5-carboxylate
PrecursorMZ: 311.09109
RT: 3.1823
ExactMass: 310.08412354
Spectrum_type: 2
charge: 1
Formula: C18H14O5
SMILES: COC1=CC=C(C=C1)C=C2C(=O)C3=C(O2)C=CC(=C3)C(=O)OC
Method: HCD
Collision_energy: [28.333334]
Isolation_window: 4.0
Ion_mode: P
Num Peaks: 139
69.0341	1.4
70.0656	4.7
72.0814	1.2
81.0339	3.2
82.0655	1.0
83.0497	1.5
84.0448	2.6
84.0812	4.2
85.0288	3.1
86.0605	1.6
87.0444	1.7
97.0287	1.4
98.0603	1.1
99.0444	2.2
100.0760	2.2
101.0601	3.6
102.0555	2.1
107.0494	100.0
108.0526	5.9
110.0716	1.1
111.0443	1.8
112.0761	1.1
112.0871	1.1
114.0551	1.1
114.0665	2.2
116.0709	2.6
117.0549	1.5
121.0286	4.6
123.0443	1.3
125.0236	3.7
125.0713	1.1
126.0549	1.4
127.0392	1.3
128.0707	2.0
130.0502	3.4
130.0865	2.3
136.0760	1.6
138.0551	1.2
140.0713	1.2
142.0503	1.1
142.0865	2.2
144.0659	1.1
144.1022	4.5
145.0496	1.8
147.0443	3.4
148.0608	1.1
149.0599	1.2
152.0709	1.1
156.0660	1.2
158.0930	3.1
160.0969	1.4
163.0391	2.8
165.0552	1.6
168.0651	1.5
177.0548	3.8
181.0975	1.7
189.0545	4.0
195.0808	1.1
204.0660	2.0
205.0497	73.2
206.0531	8.6
207.1132	2.5
211.0756	3.5
211.1082	1.7
221.0973	1.8
222.0760	1.7
223.0603	2.9
223.0756	2.9
225.0907	1.8
225.1232	2.8
227.1144	3.7
237.0917	2.5
239.0695	1.1
241.0862	6.1
249.0916	4.4
251.0704	2.6
253.0860	12.6
254.0874	1.8
257.0815	3.8
263.0727	1.8
265.0860	5.7
266.0792	1.1
267.0658	1.4
267.1015	9.7
268.1048	1.4
269.0818	3.6
271.0960	1.7
277.0861	20.2
278.0894	3.6
281.0804	2.5
282.1124	1.7
283.0964	35.4
284.0998	5.7
285.0758	2.0
293.0807	13.3
294.0840	2.6
295.0966	49.0
296.0997	9.9
297.1078	1.0
299.0935	2.0
300.0885	1.6
304.1393	5.4
309.1811	3.3
311.0913	25.4
311.1249	1.5
311.1608	6.1
312.0894	3.8
313.1062	3.9
313.1481	1.5
314.1378	1.4
315.0942	2.6
315.1302	2.2
315.1670	2.7
316.1092	2.6
316.1539	1.7
317.1137	1.7
317.1458	13.9
318.0967	3.0
318.1328	3.0
319.1674	4.6
320.1391	2.4
320.1799	1.2
321.1401	1.5
321.1812	2.3
322.1482	8.2
323.1544	2.6
324.1216	2.7
325.1047	1.3
325.1432	1.3
325.1764	12.5
326.1820	1.8
327.0858	4.2
327.1225	1.7
327.1604	1.1
328.1057	1.1
328.1551	1.4
329.1437	1.7
329.1793	1.1
330.1261	1.6

Name: Methyl 3-(3,4-dihydroxy-5-phenyloxolan-2-yl)-3-hydroxypropanoate
PrecursorMZ: 321.07331
RT: 7.1284
ExactMass: 282.11033829
Spectrum_type: 2
charge: 1
Formula: C14H18O6
SMILES: COC(=O)CC(C1C(C(C(O1)C2=CC=CC=C2)O)O)O
Method: HCD
Collision_energy: [28.333334]
Isolation_window: 4.0
Ion_mode: P
Num Peaks: 6
136.0756	45.0
150.0551	43.8
321.0728	100.0
321.1432	33.5
322.1282	27.4
322.2488	45.1

Name: Methyl 4-(diaminomethylideneamino)butanoate
PrecursorMZ: 160.10792
RT: 7.3933
ExactMass: 159.100776666
Spectrum_type: 2
charge: 1
Formula: C6H13N3O2
SMILES: COC(=O)CCCN=C(N)N
Method: HCD
Collision_energy: [28.333334]
Isolation_window: 4.0
Ion_mode: P
Num Peaks: 18
59.0495	7.8
70.0654	9.5
86.0602	8.9
101.0597	100.0
118.0863	6.3
144.0805	23.8
158.1003	6.7
158.1539	6.5
159.0914	17.0
160.0615	9.4
160.0756	10.2
160.0962	6.4
160.1077	55.8
160.9012	5.8
161.0707	6.5
162.0542	6.1
162.0762	6.9
162.1122	10.8

Name: Methyl Ricinoleate
PrecursorMZ: 295.26289
RT: 4.3341
ExactMass: 312.26644501
Spectrum_type: 2
charge: 1
Formula: C19H36O3
SMILES: CCCCCC[C@H](C/C=C\CCCCCCCC(=O)OC)O
Method: HCD
Collision_energy: [28.333334]
Isolation_window: 4.0
Ion_mode: P
Num Peaks: 95
55.0547	5.9
57.0703	9.7
67.0546	19.2
69.0339	6.3
69.0703	24.3
70.0656	4.9
71.0859	8.8
79.0545	4.3
81.0702	33.1
82.0735	3.9
83.0858	28.1
85.1015	4.3
86.0967	3.7
91.0545	5.2
93.0701	11.2
95.0857	35.1
96.0891	3.4
97.0650	7.6
97.1014	21.8
99.0443	10.5
99.0806	3.4
100.1123	100.0
101.1156	7.6
105.0700	5.9
107.0857	12.2
109.1013	24.2
110.1045	4.0
111.0806	5.6
111.1170	10.3
116.0707	4.1
119.0856	7.1
120.0807	4.1
121.1013	17.3
123.1169	13.6
124.0758	6.3
125.0961	5.2
133.1012	11.7
134.0813	4.2
135.1168	16.1
136.0617	11.6
136.0756	4.7
137.0596	5.3
137.0960	3.6
137.1325	6.2
139.1117	4.6
147.1169	8.9
149.1325	13.6
151.1118	6.3
151.1485	4.2
153.1275	4.4
154.0863	8.7
161.1326	8.7
162.0411	5.8
163.1482	8.4
165.1274	3.7
165.1637	4.5
166.0863	4.9
175.1479	5.6
179.0703	5.7
179.1430	3.5
189.1637	3.6
196.0968	9.0
197.0669	8.6
202.0497	6.8
207.0648	5.3
245.2263	26.2
246.2298	3.5
247.2420	12.2
259.0965	6.1
263.2368	29.2
264.2405	6.2
265.2525	12.0
276.1227	4.4
277.1059	4.8
277.2159	5.6
278.1010	4.7
278.1381	4.7
279.2317	8.4
294.0964	4.2
294.1331	12.9
294.1682	4.7
294.2053	5.6
294.2516	4.0
295.0946	4.1
295.1157	6.1
295.1297	6.8
295.1650	12.2
295.2261	4.8
295.2626	9.8
296.1126	8.4
296.1465	5.9
296.1632	5.1
297.1443	11.2
297.1806	4.0
297.2782	6.0

Name: Miglustat
PrecursorMZ: 220.15434
RT: 9.2841
ExactMass: 219.14705815
Spectrum_type: 2
charge: 1
Formula: C10H21NO4
SMILES: CCCCN1C[C@@H]([C@H]([C@@H]([C@H]1CO)O)O)O
Method: HCD
Collision_energy: [28.333334]
Isolation_window: 4.0
Ion_mode: P
Num Peaks: 13
85.0652	26.0
100.0759	18.1
101.0600	14.3
118.0865	6.9
184.1333	13.4
202.1438	20.0
218.1387	8.4
219.1339	18.2
220.1543	100.0
221.1032	13.5
221.1576	11.6
222.0996	8.6
222.1116	8.4

Name: Morphine
PrecursorMZ: 286.14367
RT: 7.399875
ExactMass: 285.13649347
Spectrum_type: 2
charge: 1
Formula: C17H19NO3
SMILES: CN1CC[C@]23[C@@H]4[C@H]1CC5=C2C(=C(C=C5)O)O[C@H]3[C@H](C=C4)O
Method: HCD
Collision_energy: [28.333334]
Isolation_window: 4.0
Ion_mode: P
Num Peaks: 8
55.0548	6.5
101.0599	11.1
114.0916	17.8
186.0914	38.8
286.1436	100.0
287.1486	12.3
288.0859	5.3
288.1219	5.9

Name: N,N'-Disalicylidene-1,2-propanediamine
PrecursorMZ: 283.14351
RT: 6.7125
ExactMass: 282.136827821
Spectrum_type: 2
charge: 1
Formula: C17H18N2O2
SMILES: CC(CN=CC1=CC=CC=C1O)N=CC2=CC=CC=C2O
Method: HCD
Collision_energy: [28.333334]
Isolation_window: 4.0
Ion_mode: P
Num Peaks: 21
105.0698	1.4
207.1122	2.1
225.0751	16.1
239.1172	8.3
249.1226	1.8
265.1173	1.6
266.1379	3.7
267.1327	5.3
281.1486	3.2
282.1107	2.3
282.1471	1.7
282.1546	3.2
283.1286	7.0
283.1432	100.0
283.1630	3.8
284.1272	13.7
284.1467	21.4
284.1621	3.6
285.1239	1.4
285.1438	8.4
285.1587	2.2

Name: N-((4-methoxyphenoxy)acetyl)tryptophan
PrecursorMZ: 369.14417
RT: 1.4204
ExactMass: 368.13722174
Spectrum_type: 2
charge: 1
Formula: C20H20N2O5
SMILES: COC1=CC=C(C=C1)OCC(=O)NC(CC2=CNC3=CC=CC=C32)C(=O)O
Method: HCD
Collision_energy: [28.333334]
Isolation_window: 4.0
Ion_mode: P
Num Peaks: 57
69.7334	1.0
70.0655	1.7
72.0811	1.6
81.0337	1.0
86.0966	3.4
116.0706	2.4
123.0440	28.9
124.0474	2.4
130.0650	9.7
131.0684	0.9
132.0807	3.7
136.0758	0.9
137.0595	2.1
138.0912	2.4
140.1068	1.3
144.0805	2.8
146.0599	13.7
147.0633	1.4
159.0915	47.5
160.0949	4.5
163.0388	2.6
164.0420	1.0
164.0702	1.3
165.0545	2.4
166.0862	1.4
170.0600	2.2
179.1174	2.5
182.0809	0.9
185.0710	1.0
186.0745	0.8
187.0864	3.0
188.0703	100.0
189.0737	10.4
194.0809	1.7
205.0968	42.0
206.1004	5.1
207.1126	1.7
208.0966	1.0
209.1277	1.4
210.1122	1.0
212.0914	1.8
226.1067	1.5
231.0761	0.8
235.1073	5.2
237.1229	1.0
311.0901	1.6
323.1386	15.3
323.1587	0.9
324.1419	2.5
351.1343	3.9
368.1327	2.7
368.1493	0.9
368.1828	0.9
369.1445	15.5
369.1652	1.9
369.2004	1.2
370.1441	2.8

Name: N-((4-methylphenyl)methyl)-2-(2-(morpholine-4-carbonyl)morpholin-4-yl)acetamide
PrecursorMZ: 362.20686
RT: 8.6602
ExactMass: 361.20015635
Spectrum_type: 2
charge: 1
Formula: C19H27N3O4
SMILES: CC1=CC=C(C=C1)CNC(=O)CN2CCOC(C2)C(=O)N3CCOCC3
Method: HCD
Collision_energy: [28.333334]
Isolation_window: 4.0
Ion_mode: P
Num Peaks: 42
70.0654	4.6
84.0810	6.9
86.0966	1.5
97.4574	1.3
116.0704	1.4
121.0883	1.4
128.0706	1.7
129.1021	3.8
130.0861	2.1
134.0597	2.3
142.0859	1.4
147.1127	2.2
148.0754	3.1
154.0860	2.2
165.1021	2.0
172.0964	2.0
187.1438	3.3
219.1487	86.5
220.1523	9.3
247.1436	7.4
265.1540	10.4
266.1574	1.3
360.2240	1.3
361.0708	2.4
361.1402	2.7
361.1750	5.0
361.1949	2.1
361.2450	5.0
362.0645	7.2
362.0840	1.3
362.1243	2.0
362.1584	2.2
362.1720	2.4
362.1775	2.0
362.2066	100.0
362.2249	2.2
363.0679	9.3
363.1516	4.5
363.2104	18.7
364.1369	3.2
364.1860	4.4
364.2134	1.5

Name: N-(2,3-Dihydrobenzo(b)(1,4)dioxin-6-yl)-2-((4-oxo-3,4-dihydroquinazolin-2-yl)thio)acetamide
PrecursorMZ: 392.06901
RT: 1.1351
ExactMass: 369.07832714
Spectrum_type: 2
charge: 1
Formula: C18H15N3O4S
SMILES: C1COC2=C(O1)C=CC(=C2)NC(=O)CSC3=NC4=CC=CC=C4C(=O)N3
Method: HCD
Collision_energy: [28.333334]
Isolation_window: 4.0
Ion_mode: P
Num Peaks: 5
149.0233	15.0
392.0691	100.0
393.0727	15.2
394.0619	7.6
394.0888	10.4

Name: N-(2-(1H-imidazol-2-yl)ethyl)hexanamide
PrecursorMZ: 210.15999
RT: 2.6891
ExactMass: 209.152812238
Spectrum_type: 2
charge: 1
Formula: C11H19N3O
SMILES: CCCCCC(=O)NCCC1=NC=CN1
Method: HCD
Collision_energy: [28.333334]
Isolation_window: 4.0
Ion_mode: P
Num Peaks: 33
71.0859	3.5
83.0607	0.7
95.0542	0.8
95.0605	100.0
95.0668	0.7
96.0576	0.7
96.0639	4.9
99.0806	2.3
109.0762	3.8
112.0788	0.6
112.0839	1.2
112.0870	72.6
113.0844	0.7
113.0903	3.6
126.0914	0.5
126.1026	1.9
133.0497	0.4
138.0548	0.8
147.1169	0.5
150.0549	2.7
152.0706	0.5
165.1020	0.5
180.0653	3.2
192.0652	1.2
192.1493	16.0
193.1525	1.6
209.1270	0.8
210.0759	2.5
210.1388	0.5
210.1598	83.4
210.1808	0.4
211.1071	0.8
211.1632	9.2

Name: N-(2-(3,4-dihydroxyphenyl)ethyl)icosa-11,14-dienamide
PrecursorMZ: 444.34663
RT: 4.3485
ExactMass: 443.3399443
Spectrum_type: 2
charge: 1
Formula: C28H45NO3
SMILES: CCCCCC=CCC=CCCCCCCCCCC(=O)NCCC1=CC(=C(C=C1)O)O
Method: HCD
Collision_energy: [28.333334]
Isolation_window: 4.0
Ion_mode: P
Num Peaks: 13
89.0600	3.3
93.0700	6.4
124.1120	34.5
125.1154	2.0
125.1199	1.7
133.0859	1.4
142.1225	35.3
143.1260	2.8
238.1435	7.2
239.1514	3.7
444.3467	100.0
445.3501	30.6
446.3528	3.1

Name: N-(3-(Dimethylamino)propyl)methacrylamide
PrecursorMZ: 171.14907
RT: 0.5514
ExactMass: 170.141913202
Spectrum_type: 2
charge: 1
Formula: C9H18N2O
SMILES: CC(=C)C(=O)NCCCN(C)C
Method: HCD
Collision_energy: [28.333334]
Isolation_window: 4.0
Ion_mode: P
Num Peaks: 16
58.0655	2.3
69.0338	4.7
72.0447	2.5
86.0602	3.3
86.0967	2.7
89.0711	2.7
98.0602	4.3
100.1121	6.7
125.0068	14.4
126.0913	73.8
127.0946	5.2
169.1698	3.7
170.0646	100.0
170.0729	14.6
171.0678	6.1
171.1490	19.4

Name: N-(3-Hydroxybutanoyl)homoserine lactone
PrecursorMZ: 188.0916
RT: 7.3652
ExactMass: 187.0844579
Spectrum_type: 2
charge: 1
Formula: C8H13NO4
SMILES: CC(CC(=O)NC1CCOC1=O)O
Method: HCD
Collision_energy: [28.333334]
Isolation_window: 4.0
Ion_mode: P
Num Peaks: 49
55.0546	4.4
70.0654	6.9
71.0858	3.1
72.0811	7.4
82.0653	2.1
83.0493	3.7
84.0446	2.4
84.0810	2.1
86.0602	1.6
86.0966	2.5
88.1123	10.8
97.4307	1.7
100.0758	17.2
101.0598	27.3
102.0630	1.3
114.0549	1.7
116.0706	31.8
117.0740	2.4
118.0862	2.6
124.0756	2.8
124.1121	4.5
128.0705	62.9
129.0738	6.7
130.0498	3.1
142.0861	41.2
142.1225	12.6
143.0814	3.5
143.0892	2.7
143.1175	2.3
157.0606	2.6
165.0212	2.5
170.0811	1.7
170.1173	5.0
170.1536	4.4
187.0860	1.6
187.1075	7.8
187.1438	7.0
188.0703	5.5
188.0821	1.6
188.0915	37.6
188.1028	2.3
188.1278	34.7
188.1642	100.0
189.0657	2.6
189.0867	5.5
189.0948	3.0
189.1242	2.7
189.1310	3.0
189.1675	9.7

Name: N-(4-ethylphenyl)-2H-chromene-3-carboxamide
PrecursorMZ: 302.11513
RT: 7.8022
ExactMass: 279.125928785
Spectrum_type: 2
charge: 1
Formula: C18H17NO2
SMILES: CCC1=CC=C(C=C1)NC(=O)C2=CC3=CC=CC=C3OC2
Method: HCD
Collision_energy: [28.333334]
Isolation_window: 4.0
Ion_mode: P
Num Peaks: 40
74.0970	1.2
87.0554	1.2
101.0600	1.5
113.0407	1.2
114.0663	4.0
142.0669	1.1
144.1019	4.5
160.0778	1.5
170.0553	1.3
208.0886	1.2
222.0677	1.6
222.0868	1.1
235.0872	5.0
236.0834	22.2
237.0874	1.6
238.0990	3.6
248.0835	1.1
255.1128	1.2
256.1097	6.7
265.0975	2.6
266.0938	11.1
267.0972	1.3
283.1082	10.6
284.1044	46.2
285.1081	4.9
300.1452	1.5
300.1746	5.9
301.1186	22.3
301.1510	7.8
301.1759	1.6
302.1151	100.0
302.1384	4.5
302.1517	2.2
302.1705	6.3
303.1189	10.5
303.1343	1.4
303.1701	5.3
303.1913	3.4
304.1182	5.7
304.1522	2.1

Name: N-(pyridin-2-yl)-2-((3,4,8,8-tetramethyl-2-oxo-2,8,9,10-tetrahydropyrano)2,3-f(chromen-5-yl)oxy)acetamide
PrecursorMZ: 409.18098
RT: 3.2203
ExactMass: 408.16852187
Spectrum_type: 2
charge: 1
Formula: C23H24N2O5
SMILES: CC1=C(C(=O)OC2=C3CCC(OC3=CC(=C12)OCC(=O)NC4=CC=CC=N4)(C)C)C
Method: HCD
Collision_energy: [28.333334]
Isolation_window: 4.0
Ion_mode: P
Num Peaks: 100
69.0338	8.9
69.0704	5.7
70.0656	23.0
72.0811	16.2
81.0338	15.2
84.0447	12.9
84.0811	21.1
85.0287	9.7
86.0606	6.0
86.0967	63.5
88.0397	5.1
96.0446	21.0
97.0286	12.2
98.0602	5.0
98.0967	5.4
99.0442	6.8
102.0553	9.2
110.0602	5.8
110.0716	5.3
111.0442	5.7
114.0553	5.4
116.0707	17.5
126.0550	11.8
127.0392	8.0
128.0707	10.4
128.1068	6.3
130.0499	12.5
130.0866	7.9
132.1021	6.3
136.0759	9.4
138.0548	5.9
141.0662	5.6
144.0656	7.9
148.0606	11.5
150.0915	11.2
156.0658	5.9
164.1071	59.0
165.1119	7.2
166.0523	7.8
166.0864	5.0
168.0654	5.7
168.1020	5.5
176.0918	12.6
180.0649	6.7
182.0797	6.8
192.0654	6.0
194.1172	11.5
196.1334	11.7
197.1267	6.9
210.1115	6.3
212.0552	13.8
212.1278	18.2
216.0866	5.5
216.1220	5.7
226.0702	9.2
229.1188	5.2
230.1382	36.7
231.1419	5.0
243.1331	9.5
244.1175	6.9
247.1285	14.6
261.1462	7.0
321.1440	5.5
325.1393	100.0
326.1418	21.6
337.1404	7.0
339.1550	66.2
340.1575	11.9
351.1567	5.7
355.1504	13.8
369.1664	14.5
373.1603	74.1
374.1653	13.1
387.1762	47.5
388.1809	8.7
391.1715	38.9
392.1779	9.8
405.1866	26.4
408.1356	6.2
409.1824	36.6
410.1527	5.4
410.1852	9.6
411.1961	6.0
412.1670	7.1
413.1570	5.4
414.1843	6.3
415.1789	8.5
416.1586	5.6
417.1924	5.0
418.1524	8.2
419.1611	11.2
420.1696	5.5
421.1645	10.7
422.1458	6.9
423.1984	33.7
424.1666	6.5
424.1923	6.1
425.1596	5.3
426.1932	8.6
427.1744	5.7

Name: N-(tetracosanoyl)-sphing-4-enine-1-phosphocholine
PrecursorMZ: 815.69918
RT: 4.7318
ExactMass: 814.69277575
Spectrum_type: 2
charge: 1
Formula: C47H95N2O6P
SMILES: CCCCCCCCCCCCCCCCCCCCCCCC(=O)N[C@@H](COP(=O)([O-])OCC[N+](C)(C)C)[C@@H](/C=C/CCCCCCCCCCCCC)O
Method: HCD
Collision_energy: [28.333334]
Isolation_window: 4.0
Ion_mode: P
Num Peaks: 47
58.0653	0.3
60.0448	0.8
60.0812	2.4
67.0546	0.5
69.0702	0.4
71.0732	0.6
81.0701	0.6
83.0857	0.3
84.0446	0.2
86.0966	10.0
87.1000	0.5
95.0856	0.7
97.1012	0.3
97.4568	0.5
98.9841	0.3
104.1070	1.3
109.1013	0.3
124.9997	5.0
162.9554	0.3
176.8751	0.3
184.0513	0.3
184.0561	0.8
184.0597	0.7
184.0730	100.0
184.0868	0.3
184.0903	0.6
184.1560	0.2
185.0764	5.3
186.0771	0.6
264.2680	0.7
266.2845	0.3
267.2871	0.2
284.2945	0.2
326.3051	0.3
327.3078	0.4
535.5262	0.3
536.5306	0.3
552.5344	1.3
553.5375	2.6
554.5406	3.5
555.5429	0.6
654.5924	0.3
813.6829	0.3
814.6862	0.7
815.6978	3.4
816.7029	1.7
817.7104	0.6

Name: N-))3,4-dihydroxy-5-(hydroxymethyl)oxolan-2-yl(amino(3-methoxyphenyl)carboxamide
PrecursorMZ: 299.12344
RT: 2.439
ExactMass: 298.1164863
Spectrum_type: 2
charge: 1
Formula: C13H18N2O6
SMILES: COC1=CC=CC(=C1)C(=O)NNC2C(C(C(O2)CO)O)O
Method: HCD
Collision_energy: [28.333334]
Isolation_window: 4.0
Ion_mode: P
Num Peaks: 273
55.0184	0.5
56.0500	0.7
57.0340	48.5
57.0363	1.1
57.0399	0.4
58.0374	1.8
59.0497	4.0
59.0610	0.8
61.0289	0.4
67.0548	1.3
69.0339	1.6
69.0704	0.6
70.0657	2.2
71.0496	2.3
72.0813	1.4
73.0289	2.1
75.0228	0.4
75.0357	0.6
75.0374	0.5
75.0445	100.0
75.0516	0.8
75.0534	0.8
76.0479	3.1
79.0546	0.4
81.0340	2.2
81.0704	0.5
83.0495	4.4
84.0448	1.7
84.0813	1.4
85.0289	2.1
85.0652	2.0
86.0606	1.0
86.0968	2.4
87.0445	16.3
88.0396	0.7
88.0478	0.5
89.0601	1.5
93.0550	15.1
94.0583	0.4
95.0495	1.5
95.0860	0.8
96.0447	0.7
97.0288	2.4
97.0652	1.1
98.0604	3.7
99.0444	3.4
100.0761	0.7
101.0601	12.2
102.0553	0.9
102.0634	0.6
103.0394	1.5
105.0550	1.9
107.0495	0.5
108.0448	0.5
109.0291	0.6
109.0652	0.5
110.0605	1.0
111.0445	2.7
112.0397	0.5
112.0761	0.7
112.1122	0.4
113.0600	5.7
114.0553	1.3
115.0391	0.6
115.0757	0.8
115.0869	0.6
116.0709	6.6
117.0549	1.0
118.0866	1.1
119.0705	17.4
120.0739	0.7
120.0819	0.8
121.0651	0.6
122.0600	0.6
123.0443	0.9
123.0805	0.5
124.0394	0.5
124.0757	0.7
125.0238	0.8
125.0600	0.4
126.0552	1.2
126.0914	0.7
127.0392	1.4
128.0710	1.8
129.0549	12.7
130.0500	2.0
130.0580	0.7
130.0865	1.2
131.0503	0.5
131.0705	61.9
131.0913	0.4
132.0737	4.2
132.1019	2.7
133.0756	0.5
133.0861	0.5
134.0601	0.4
135.0443	0.5
136.0759	1.5
137.0599	0.7
138.0551	1.2
139.0395	0.7
140.0344	0.5
140.0707	1.2
141.0661	0.5
142.0500	0.9
142.0865	1.2
143.0705	0.9
144.0655	1.2
144.1020	0.5
145.0495	0.4
146.0815	0.7
147.0771	0.4
148.0609	0.4
148.0761	0.9
149.0811	51.8
150.0553	0.9
150.0837	3.0
151.0864	0.8
152.0705	1.7
153.0547	0.6
154.0865	0.8
155.0819	0.4
156.0657	1.6
157.0860	1.2
158.0807	0.7
158.0926	4.5
158.1176	1.6
159.0771	0.5
160.0759	0.9
162.0553	0.6
162.0765	0.4
163.0395	0.6
164.0708	0.6
165.0544	1.1
166.0509	1.0
166.0864	1.7
167.0916	30.3
168.0662	0.9
168.0940	1.6
169.0981	0.6
170.0813	1.0
172.0971	0.7
175.0504	0.5
176.0709	1.3
178.0864	2.0
180.0655	1.1
181.0492	1.8
182.0810	0.7
184.0603	0.9
184.0972	0.4
186.0760	4.6
187.0968	1.5
188.0915	0.7
190.0859	0.6
192.0638	0.6
192.1024	0.5
193.0614	0.7
193.0977	0.5
194.0813	2.9
194.1042	1.0
195.0654	0.5
195.1131	0.5
196.0590	0.6
196.0964	0.7
198.0761	0.5
198.1126	0.4
204.0667	0.6
205.1073	6.7
206.0809	0.7
206.1109	0.6
208.0604	0.5
208.0971	0.8
209.0915	0.8
210.0760	0.7
211.1081	0.9
212.0917	0.5
216.0862	0.4
218.0814	0.9
220.0961	0.5
221.0571	1.0
221.0917	2.2
222.0762	3.8
223.0780	0.5
223.1179	14.7
224.0917	0.6
224.1214	1.5
225.0869	0.5
225.1234	0.9
226.0707	0.5
235.1087	1.5
236.0913	1.9
238.1053	0.7
239.1026	2.8
241.1286	4.9
242.1313	0.6
244.0626	0.9
246.0761	1.5
248.0915	0.4
250.1073	1.1
251.1041	0.4
252.0879	0.4
252.1233	0.4
253.1179	0.7
254.1028	0.6
255.0987	0.5
257.1130	0.7
260.0903	0.4
263.1032	0.7
264.0866	4.3
264.1236	0.8
265.0879	0.6
266.1027	0.4
267.0999	0.9
267.1331	0.7
269.1134	1.0
270.0986	0.5
273.1068	0.4
278.1032	0.5
279.1436	0.7
280.0815	0.5
280.1194	0.6
281.1124	0.6
282.1025	0.8
282.1355	0.4
283.1307	0.4
285.0554	0.7
285.1085	0.7
285.1444	1.0
286.1286	0.9
287.1248	0.4
288.1074	0.6
290.1254	0.4
292.1019	1.1
293.1131	0.4
296.1128	0.7
297.1097	0.4
297.1540	4.1
298.0947	0.4
298.1300	1.6
299.1245	2.6
299.1602	0.7
300.1169	2.7
300.1480	0.8
301.1441	0.8
302.1288	2.0
303.1221	2.0
303.1553	11.1
304.1387	0.5
304.1574	0.9
305.1338	2.3
305.1691	0.7
306.1206	0.8
307.1274	0.8
308.1071	1.0
308.1386	0.4
309.1076	1.2
309.1433	1.1
310.1300	1.6
311.1243	1.3
312.1113	0.8
312.1454	0.9
313.1397	1.5
314.1273	1.2
315.0878	0.7
315.1649	62.9
315.1940	1.2
315.2418	0.5
316.1410	1.1
316.1696	8.4
317.1352	1.3
317.1697	2.3
318.1301	1.7
318.1750	0.7

Name: N-)1-hydroxy-4-(methylsulfanyl)butan-2-yl(-3-(pyridin-2-yl)-1H-pyrazole-5-carboxamide
PrecursorMZ: 307.12216
RT: 3.7585
ExactMass: 306.115047
Spectrum_type: 2
charge: 1
Formula: C14H18N4O2S
SMILES: CSCCC(CO)NC(=O)C1=CC(=NN1)C2=CC=CC=N2
Method: HCD
Collision_energy: [28.333334]
Isolation_window: 4.0
Ion_mode: P
Num Peaks: 93
55.0547	0.8
59.0497	0.2
70.0657	0.4
72.0813	0.2
81.0340	0.2
83.0496	1.0
84.0812	0.3
94.0652	0.1
95.0606	0.1
96.0809	0.1
98.0602	0.1
99.0444	0.1
101.0601	3.0
102.0634	0.1
111.0446	0.2
112.0872	0.1
116.0709	0.2
119.0606	1.4
120.0641	0.1
120.0811	0.2
121.0761	0.1
122.0716	1.5
144.0480	1.2
150.0915	0.1
154.0864	0.1
164.0822	3.1
165.0865	0.2
174.0664	0.1
178.0863	0.2
195.1128	0.1
201.1022	0.1
202.0856	0.2
207.1134	0.2
209.1286	0.1
219.0695	0.1
219.1131	17.7
220.1162	2.4
220.1341	0.3
221.1289	1.8
222.1318	0.2
225.1237	0.1
249.1591	0.2
251.1386	0.3
273.1610	0.1
275.1759	0.1
292.2027	0.2
303.1140	0.1
305.1529	0.6
305.1882	0.1
306.1344	0.3
306.1782	0.4
307.1248	0.6
307.1665	2.2
308.1508	1.3
308.1959	0.3
309.1506	0.3
309.1823	1.5
310.1881	0.6
311.1360	0.5
311.1656	0.1
311.1965	1.8
312.2022	0.3
313.1558	0.2
313.2132	0.1
314.1374	0.5
315.1362	0.4
315.1923	0.2
316.1555	0.5
317.1519	0.7
317.1863	0.1
318.1310	0.4
318.1760	0.4
318.9833	0.2
319.0649	0.2
319.0877	0.7
319.1036	0.6
319.1657	100.0
319.2260	0.5
319.2439	0.6
319.2662	0.3
319.2884	0.1
319.3680	0.1
320.1678	18.5
321.1807	14.5
322.1847	2.9
323.1625	0.4
323.1979	0.5
324.1452	0.2
324.1981	0.5
325.1801	0.4
325.2131	0.1
326.1455	0.1
326.2078	0.2

Name: N-Acetyl-D-Galactosamine
PrecursorMZ: 186.07593
RT: 6.6309
ExactMass: 221.0899372
Spectrum_type: 2
charge: 1
Formula: C8H15NO6
SMILES: CC(=O)N[C@@H]1[C@H]([C@H]([C@H](OC1O)CO)O)O
Method: HCD
Collision_energy: [28.333334]
Isolation_window: 4.0
Ion_mode: P
Num Peaks: 22
60.0448	15.1
83.0857	10.3
96.0445	19.0
97.0284	9.7
98.0600	20.4
114.0662	21.3
118.0650	16.3
126.0548	37.6
126.0912	78.2
138.0547	64.9
139.0864	10.7
144.0653	49.0
144.0806	20.3
146.0599	100.0
167.0812	20.6
168.0652	15.2
168.0759	9.4
185.0914	10.8
186.0757	21.1
186.1121	26.7
188.0702	38.7
188.0915	21.7

Name: N-Acetyl-DL-tyrosine
PrecursorMZ: 224.0915
RT: 4.8028
ExactMass: 223.0844579
Spectrum_type: 2
charge: 1
Formula: C11H13NO4
SMILES: CC(=O)NC(CC1=CC=C(C=C1)O)C(=O)O
Method: HCD
Collision_energy: [28.333334]
Isolation_window: 4.0
Ion_mode: P
Num Peaks: 179
67.0545	0.9
68.0498	0.6
69.0338	0.8
69.1842	0.8
69.6210	0.7
69.6379	0.7
70.0655	1.1
70.0722	0.5
80.0497	3.2
81.0338	0.6
81.0701	1.9
83.0858	0.8
84.0446	1.5
86.0603	1.1
86.0966	1.0
87.0442	0.8
89.0599	1.7
90.0551	1.4
91.0544	0.6
92.0593	0.6
93.0701	0.9
94.0288	1.3
94.0653	0.8
95.0491	0.5
95.0604	0.7
95.0856	2.6
96.0445	0.8
97.0761	1.5
97.4569	0.8
99.0442	0.5
100.0757	0.6
101.0597	1.3
105.0700	0.9
106.0652	0.6
107.0491	2.1
107.0855	1.0
108.0444	2.6
108.0808	0.9
109.0521	1.2
109.1012	1.4
110.0601	1.5
116.0705	0.5
119.0489	0.7
120.0807	4.3
121.0647	2.7
121.0843	0.6
121.1009	0.8
122.0598	1.2
123.0438	1.0
124.0756	1.1
125.0232	0.7
125.0708	3.4
125.0960	0.6
126.0549	1.4
132.0805	0.7
133.0858	0.9
136.0390	0.9
136.0755	17.4
136.1119	8.9
137.0708	0.8
137.0787	1.4
138.0549	0.6
139.0502	0.5
141.0655	0.8
144.0805	0.8
146.0598	1.5
147.0438	0.5
147.1168	1.3
148.0391	0.4
148.0756	0.9
149.0708	2.7
149.1072	0.5
150.0548	1.0
150.0911	2.7
151.0865	0.6
151.0963	0.7
152.0339	1.0
152.0704	8.8
154.0496	3.8
160.0753	0.9
161.0960	0.5
161.1072	0.5
162.0547	1.3
162.0911	2.9
163.0864	0.4
163.0945	1.0
164.0704	86.0
164.1065	0.9
165.0544	5.1
165.0656	1.0
165.0737	7.9
166.0497	0.5
166.0860	1.6
176.0704	0.6
177.0656	28.7
177.0720	0.7
177.1020	1.1
177.1382	0.7
178.0496	1.3
178.0690	3.1
178.0859	100.0
178.0975	1.4
178.1023	0.6
179.0699	1.1
179.0813	3.9
179.0892	10.0
179.1065	0.6
179.1176	1.2
180.0652	3.2
180.0770	0.7
180.1015	4.7
181.0759	0.7
182.0808	5.0
182.1173	13.0
183.0761	2.7
183.0842	0.8
187.1477	0.9
188.0703	1.3
190.0496	0.6
190.0859	0.5
194.0810	1.1
195.0761	0.9
195.1125	1.0
196.0964	1.7
196.1077	0.9
197.0917	1.1
204.1016	0.7
204.1381	0.5
205.0966	2.3
205.1588	0.7
206.0442	1.2
206.0807	34.9
206.0910	1.3
206.1171	0.7
207.0647	1.9
207.0759	2.6
207.0843	3.7
207.1013	0.9
207.1122	2.6
207.1485	0.5
207.1590	0.6
208.0600	1.7
208.0965	3.2
208.1075	0.8
209.0916	1.0
222.0760	0.7
222.1119	0.9
222.1227	0.5
222.1488	0.6
222.1596	4.7
223.0707	15.0
223.0795	1.3
223.0963	0.7
223.1070	7.2
223.1433	2.5
223.1625	1.2
223.1695	1.1
224.0380	0.8
224.0552	3.2
224.0682	0.5
224.0745	1.3
224.0913	66.4
224.1021	6.7
224.1095	0.8
224.1275	4.2
224.1386	0.7
225.0754	1.1
225.0862	2.6
225.0948	7.4
225.1052	0.6
225.1226	5.5
225.1383	1.1
225.1592	0.7
226.0708	1.4
226.0822	0.8
226.0863	1.5
226.0967	0.8
226.1068	2.9
226.1181	1.7

Name: N-Glycyl-L-isoleucine
PrecursorMZ: 189.12328
RT: 1.1021
ExactMass: 188.11609238
Spectrum_type: 2
charge: 1
Formula: C8H16N2O3
SMILES: CC[C@H](C)[C@@H](C(=O)O)NC(=O)CN
Method: HCD
Collision_energy: [28.333334]
Isolation_window: 4.0
Ion_mode: P
Num Peaks: 185
55.0546	1.4
56.0498	2.7
58.0656	1.1
59.0495	2.3
60.0448	3.3
60.0812	1.2
67.0546	2.2
69.0338	3.7
69.0702	4.2
69.4917	1.8
70.0654	10.3
71.0494	1.5
72.0447	4.5
72.0811	62.6
73.0844	2.5
74.0603	11.8
75.0556	8.5
79.0545	2.1
81.0701	3.1
82.0654	1.6
83.0494	2.4
83.0858	1.7
84.0446	43.5
84.0810	4.9
85.0287	1.2
85.0399	2.6
85.0480	1.6
85.0650	3.1
86.0602	4.7
86.0966	100.0
87.0442	2.8
87.0555	1.2
87.1000	4.8
88.0395	1.8
90.0551	4.7
91.0544	2.9
93.0700	3.3
95.0856	3.9
96.0446	1.8
96.0809	3.2
97.0650	1.1
98.0601	3.5
98.0965	4.8
100.0394	2.9
100.0758	29.8
101.0598	20.9
101.0710	1.7
101.0792	1.8
102.0550	20.2
102.0914	3.4
105.0699	4.3
107.0491	1.3
107.0856	5.0
109.1012	1.8
110.0601	3.9
110.0965	8.3
111.0439	1.5
112.0394	3.7
112.0757	7.9
113.0348	1.1
113.0427	1.6
114.0550	3.1
114.0913	1.0
116.0536	1.0
116.0706	18.4
117.0699	2.8
117.0739	2.8
118.0650	1.9
118.0862	17.5
119.0162	1.6
119.0855	5.4
120.0655	2.6
120.0807	2.8
121.1011	3.5
123.0790	1.6
124.0756	5.5
126.0548	1.5
126.0913	19.9
127.0500	4.2
127.0946	4.4
128.0705	22.3
129.0657	1.4
129.0737	1.0
129.9955	1.4
130.0498	100.0
130.0651	2.0
130.0860	4.0
131.0530	3.9
131.0854	8.8
132.1018	41.8
133.0644	1.2
133.1009	4.9
133.1051	2.4
135.0802	2.0
135.1167	5.5
138.0912	20.1
139.0944	1.8
140.0704	2.3
140.1067	2.1
141.0850	1.4
142.0320	1.6
142.0496	1.5
142.0689	1.4
142.0861	30.3
142.1225	9.4
143.0813	1.1
143.0851	1.5
143.0897	2.1
143.1177	43.0
143.1263	1.4
144.0111	2.5
144.0653	4.4
144.0806	2.8
144.1018	28.6
144.1210	3.6
145.0394	1.5
145.0759	1.6
145.1009	8.7
145.1054	1.0
146.0598	10.1
146.0810	20.4
147.0760	2.0
147.0799	1.9
147.1166	3.1
148.0603	18.4
148.0754	1.4
148.0965	1.4
149.0958	2.8
152.0703	2.2
154.0862	2.1
156.0402	1.2
156.1018	8.9
157.0970	13.4
159.0762	8.2
160.0756	2.5
161.0960	5.2
161.1321	1.8
162.0548	47.5
162.0911	1.7
163.0581	2.9
163.1116	8.7
165.0213	1.5
167.0553	1.7
170.0555	3.7
170.0810	33.9
170.1174	10.6
171.0844	3.3
171.1207	1.1
172.0060	1.1
172.0601	3.6
172.0966	5.0
173.0707	4.6
173.0959	3.5
173.1323	1.6
176.0704	3.7
187.0907	10.2
187.1071	2.2
187.1146	1.2
187.1477	2.7
188.0371	1.5
188.0704	6.1
188.0915	24.4
188.1056	1.5
188.1279	2.0
189.0872	1.7
189.0907	6.2
189.0947	1.4
189.1021	2.4
189.1228	13.5
189.1264	3.8
189.1634	7.3
190.0163	2.0
190.0496	54.9
190.0857	4.4
190.0975	1.4
190.1070	16.2
191.0446	5.2
191.0528	4.2
191.0696	1.6
191.0812	60.5
191.1024	3.4
191.1068	11.2
191.1178	1.4
191.1428	2.9
191.1790	3.2

Name: N-Heptadecanoylsphingosine
PrecursorMZ: 534.52407
RT: 1.5099
ExactMass: 551.52774506
Spectrum_type: 2
charge: 1
Formula: C35H69NO3
SMILES: CCCCCCCCCCCCCCCCC(=O)N[C@@H](CO)[C@@H](/C=C/CCCCCCCCCCCCC)O
Method: HCD
Collision_energy: [28.333334]
Isolation_window: 4.0
Ion_mode: P
Num Peaks: 38
55.0546	2.2
57.0703	4.1
59.3919	4.9
59.5034	1.9
60.0448	2.3
67.0546	6.7
69.0702	6.7
70.0655	2.1
71.0858	3.0
81.0701	11.1
83.0858	7.0
85.1014	1.9
91.0575	2.0
95.0857	10.4
96.0446	2.5
97.1013	5.5
109.1012	4.7
111.1170	1.9
121.1014	1.8
123.1168	3.0
142.0264	2.3
167.0553	3.4
254.2472	2.4
264.2682	2.6
266.2837	6.4
268.2628	9.3
269.2665	2.0
284.2942	4.8
299.0609	7.1
503.1054	1.8
516.5127	6.2
517.5165	2.6
533.2541	3.2
534.5236	100.0
535.2694	19.7
535.5272	37.8
536.2719	6.0
536.5368	9.7

Name: N-Myristoylethanolamine
PrecursorMZ: 272.25799
RT: 0.56
ExactMass: 271.251129295
Spectrum_type: 2
charge: 1
Formula: C16H33NO2
SMILES: CCCCCCCCCCCCCC(=O)NCCO
Method: HCD
Collision_energy: [28.333334]
Isolation_window: 4.0
Ion_mode: P
Num Peaks: 146
57.0338	1.8
57.0703	28.3
58.0656	1.8
59.0497	2.1
62.0605	6.0
67.0546	10.1
69.0703	6.6
70.0655	3.4
71.0496	2.5
71.0859	26.2
72.0448	2.8
73.0288	5.0
74.0603	1.8
79.0545	1.9
81.0702	11.1
83.0858	6.4
85.0651	10.0
85.1015	18.2
86.0603	4.0
87.0444	7.7
88.0760	13.7
89.0600	47.5
93.0701	3.8
95.0493	2.6
95.0858	12.9
97.0651	2.0
97.1013	4.4
97.3296	1.8
98.9843	3.4
99.0443	2.8
99.0807	2.7
100.0759	1.9
101.0600	3.4
102.0916	1.8
105.0183	3.2
105.0703	2.2
106.0864	19.2
107.0704	8.2
107.0851	4.0
109.0649	1.6
109.1013	9.3
111.0807	1.6
111.1169	1.6
113.0598	7.1
113.0960	1.7
115.0391	2.1
115.0755	2.3
116.0707	7.5
119.0858	2.5
121.1013	6.0
122.0811	2.9
123.0803	1.9
123.1169	4.9
125.0962	1.5
129.0183	4.5
131.0704	2.3
131.0852	1.7
133.0495	8.0
133.0859	11.0
133.1009	3.5
135.1168	4.3
137.0960	2.2
137.1323	2.0
145.1011	2.4
147.1170	3.3
149.0234	30.4
149.1324	3.0
150.0270	2.7
151.0965	20.2
156.1749	3.2
157.0134	1.5
157.0496	55.2
157.1008	1.6
158.0530	4.5
159.1166	2.1
161.1328	2.0
163.1479	2.1
168.0685	2.3
171.1378	6.7
173.1319	1.8
174.1851	8.0
175.1472	1.8
184.2061	2.1
185.1534	2.7
201.0548	2.1
202.2166	5.2
203.0915	3.9
212.2011	11.0
212.2368	10.3
213.2047	1.7
224.1872	1.6
226.2163	4.4
227.2005	3.4
230.2140	7.9
230.2476	75.2
231.2148	2.0
231.2508	11.5
242.2476	9.3
243.2512	1.8
244.2270	1.7
251.0466	3.9
254.2474	17.3
255.2124	2.2
255.2516	2.9
256.2280	2.1
256.2635	4.1
258.2790	8.6
266.9993	1.8
268.2631	4.0
270.2432	2.0
270.2788	6.8
271.2824	2.0
272.0875	1.7
272.2582	42.3
273.1854	2.0
273.2212	2.8
273.2581	11.0
274.1073	27.4
274.2159	16.2
274.2739	100.0
275.0490	2.5
275.1114	4.4
275.2213	1.8
275.2772	17.5
277.1798	1.7
277.2150	2.9
279.0931	2.2
280.2487	20.6
281.2502	3.7
282.2786	5.4
283.0299	1.8
284.2944	9.0
284.3298	1.6
285.1230	1.6
285.2984	2.0
286.1430	3.6
286.2129	1.7
286.2736	14.2
286.3096	5.6
287.1389	2.5
287.2764	2.4
288.1239	2.4
288.2539	20.7
289.2552	4.3
290.2701	1.8
292.2273	2.3

Name: N-Nitrosomethylethylamine
PrecursorMZ: 89.0712
RT: 2.6624
ExactMass: 88.063662883
Spectrum_type: 2
charge: 1
Formula: C3H8N2O
SMILES: CCN(C)N=O
Method: HCD
Collision_energy: [28.333334]
Isolation_window: 4.0
Ion_mode: P
Num Peaks: 5
58.0291	5.5
70.0654	11.3
72.0447	100.0
88.0759	7.1
89.0710	14.6

Name: N-vinyl-2-pyrrolidone
PrecursorMZ: 112.07584
RT: 4.9776
ExactMass: 111.068413911
Spectrum_type: 2
charge: 1
Formula: C6H9NO
SMILES: C=CN1CCCC1=O
Method: HCD
Collision_energy: [28.333334]
Isolation_window: 4.0
Ion_mode: P
Num Peaks: 22
53.0026	1.7
56.0498	2.6
67.0546	2.7
68.0498	2.3
69.0338	100.0
69.0702	5.3
70.0371	4.8
71.0494	2.3
82.0527	3.5
82.0653	3.6
83.0493	2.4
83.0606	7.0
84.0810	28.9
85.0842	1.9
110.0601	1.8
111.0441	10.1
111.0553	12.1
112.0756	68.6
113.0596	3.9
113.0706	1.8
113.0790	5.6
114.0913	5.7

Name: Nalbuphine
PrecursorMZ: 358.20786
RT: 6.1711
ExactMass: 357.19400834
Spectrum_type: 2
charge: 1
Formula: C21H27NO4
SMILES: C1CC(C1)CN2CC[C@]34[C@@H]5[C@H](CC[C@]3([C@H]2CC6=C4C(=C(C=C6)O)O5)O)O
Method: HCD
Collision_energy: [28.333334]
Isolation_window: 4.0
Ion_mode: P
Num Peaks: 115
55.0548	1.1
59.0609	0.7
60.0561	1.2
70.0657	5.8
72.0813	1.3
82.0658	1.0
83.0496	1.5
84.0813	10.2
86.0970	1.0
87.0445	4.2
98.0966	0.7
100.0762	1.2
101.0601	10.9
109.0764	3.0
110.0604	0.7
111.0446	0.7
112.0760	3.1
112.0874	1.5
114.1030	1.9
116.0711	1.5
118.0866	0.8
128.0713	1.1
129.0549	0.7
129.1027	0.9
130.0866	18.5
131.0904	1.1
132.0773	1.0
142.0866	1.5
146.0929	1.8
147.1132	0.7
149.0709	0.7
151.0868	1.4
161.0710	0.8
169.0976	0.7
175.0867	1.0
175.1193	1.0
179.0817	1.2
185.0924	0.8
191.0814	1.0
193.0960	0.8
197.0918	2.1
199.1074	1.2
204.1234	1.7
209.0910	1.1
210.1132	1.2
211.1080	0.8
212.1043	0.8
217.0994	0.8
221.0918	1.1
223.0598	1.0
225.1236	1.4
227.1019	1.0
228.0988	1.4
235.1081	1.0
239.1027	1.6
240.1091	0.8
241.1171	1.1
243.1451	0.8
245.1257	1.3
253.1162	0.8
257.1134	1.7
259.1291	1.1
264.0985	0.9
269.1494	1.0
271.1288	2.0
275.1240	5.6
276.1267	0.7
283.1287	1.5
284.1377	0.9
285.1447	8.6
286.1502	1.6
287.1507	6.0
288.1547	1.1
289.1394	2.9
295.1759	1.0
305.1614	2.0
310.1023	1.4
313.1863	1.2
315.1556	3.6
323.1719	3.5
324.1755	0.7
327.1943	0.7
329.1600	3.0
330.1547	1.9
331.1722	1.0
341.1842	1.1
348.1654	3.0
349.1728	0.8
357.1680	7.6
358.1705	1.7
358.2105	7.6
359.1854	9.5
360.1862	2.4
361.1686	5.3
362.1727	2.2
363.1754	1.4
364.1554	2.0
364.2001	0.7
365.1823	5.2
366.1759	19.0
367.1794	3.8
368.1869	1.9
369.1533	4.0
369.2095	0.9
370.1547	1.4
370.2011	3.2
371.1820	6.3
372.1790	2.0
372.2166	2.9
373.1602	5.2
374.1444	0.8
374.1845	2.4
375.1765	100.0
376.1790	19.9
377.1861	0.9

Name: Neoandrographolide
PrecursorMZ: 519.23517
RT: 5.2945
ExactMass: 480.27231823
Spectrum_type: 2
charge: 1
Formula: C26H40O8
SMILES: C[C@]1(CCC[C@@]2([C@@H]1CCC(=C)[C@H]2CCC3=CCOC3=O)C)CO[C@H]4[C@@H]([C@H]([C@@H]([C@H](O4)CO)O)O)O
Method: HCD
Collision_energy: [28.333334]
Isolation_window: 4.0
Ion_mode: P
Num Peaks: 6
57.6931	5.1
69.8126	3.9
519.2346	100.0
520.2378	27.2
520.5088	12.6
521.2368	4.8

Name: Neolloydosin
PrecursorMZ: 483.14666
RT: 8.40905
ExactMass: 460.15807632
Spectrum_type: 2
charge: 1
Formula: C20H28O12
SMILES: CC(=O)C1=CC(=C(C=C1)O[C@H]2[C@@H]([C@H]([C@@H]([C@H](O2)CO[C@H]3[C@@H]([C@H]([C@@H](CO3)O)O)O)O)O)O)OC
Method: HCD
Collision_energy: [28.333334]
Isolation_window: 4.0
Ion_mode: P
Num Peaks: 9
53.6832	5.5
69.7453	1.4
70.0654	2.1
81.0337	1.4
398.1549	4.4
464.1866	2.6
483.1461	100.0
484.1497	18.2
485.1480	4.7

Name: Npc151250
PrecursorMZ: 283.26278
RT: 0.9466333333333333
ExactMass: 282.255880323
Spectrum_type: 2
charge: 1
Formula: C18H34O2
SMILES: CCCCCCC=CCCCCCCCCCC(=O)O
Method: HCD
Collision_energy: [28.333334]
Isolation_window: 4.0
Ion_mode: P
Num Peaks: 22
57.0703	29.4
69.0702	23.5
69.0935	9.2
71.0858	24.2
81.0701	17.7
83.0858	23.6
85.1014	18.0
95.0856	16.0
97.1013	19.4
107.0857	10.2
109.1012	11.9
111.1170	9.6
121.1011	13.5
135.1166	12.2
139.1114	10.9
149.1324	13.7
153.1272	8.9
163.1480	8.9
247.2413	23.6
265.2519	20.7
282.2786	100.0
283.2819	16.4

Name: Npc209773
PrecursorMZ: 307.20117
RT: 7.3354
ExactMass: 289.1677936
Spectrum_type: 2
charge: 1
Formula: C17H23NO3
SMILES: CN1[C@@H]2CC[C@H]1CC(C2)OC(=O)C(CO)C3=CC=CC=C3
Method: HCD
Collision_energy: [28.333334]
Isolation_window: 4.0
Ion_mode: P
Num Peaks: 27
72.0811	5.8
84.0810	26.6
86.0967	7.9
96.0445	3.8
108.0808	7.8
127.0865	20.3
130.0862	17.9
176.8750	3.3
183.1490	14.5
211.1438	52.2
212.1471	6.9
236.0773	5.0
237.1592	3.7
306.1320	6.9
306.1553	6.4
306.1807	100.0
306.2044	5.0
307.1271	5.3
307.1653	8.5
307.1836	17.5
307.2007	91.1
308.1346	45.6
308.1490	4.3
308.1968	9.5
308.2031	15.3
309.1438	8.2
309.1798	5.2

Name: Npc317970
PrecursorMZ: 295.12878
RT: 7.5016
ExactMass: 294.12157168
Spectrum_type: 2
charge: 1
Formula: C14H18N2O5
SMILES: C1=CC=C(C=C1)CC(C(=O)O)NC(=O)CCC(C(=O)O)N
Method: HCD
Collision_energy: [28.333334]
Isolation_window: 4.0
Ion_mode: P
Num Peaks: 65
55.0547	1.2
59.0496	0.8
70.0655	0.6
83.0495	1.6
84.0447	0.4
84.0812	0.6
86.0604	0.8
87.0443	0.4
96.0447	0.7
96.0811	0.8
101.0599	4.9
106.0653	0.5
114.0551	1.1
114.0917	0.4
116.0708	0.5
123.0442	1.5
130.0500	0.5
131.0606	0.5
133.0761	4.4
134.0793	0.4
136.0393	0.4
136.0756	1.6
142.0499	1.4
144.1018	0.4
149.0711	0.7
149.1075	0.6
150.0550	0.7
168.1019	0.5
177.0659	4.5
180.1020	0.4
191.0703	0.7
195.0764	4.7
195.1128	2.5
196.0603	1.1
196.0969	0.4
197.0919	0.4
198.1123	0.9
207.1127	0.8
233.1285	1.8
277.1183	5.4
277.1547	0.7
278.1009	0.7
278.1214	0.6
278.1393	0.7
279.1338	1.0
293.1136	1.0
293.1494	5.0
294.0968	1.2
294.1160	1.5
294.1333	2.0
294.1523	2.4
294.1699	2.2
295.0942	0.7
295.1287	100.0
295.1648	14.7
296.1126	4.8
296.1317	15.3
296.1488	2.4
296.1624	0.5
296.1677	2.2
296.1852	0.4
297.0895	0.5
297.1073	0.9
297.1443	12.5
297.1802	2.8

Name: Phendimetrazine
PrecursorMZ: 192.13817
RT: 6.0191
ExactMass: 191.131014166
Spectrum_type: 2
charge: 1
Formula: C12H17NO
SMILES: C[C@H]1[C@@H](OCCN1C)C2=CC=CC=C2
Method: HCD
Collision_energy: [28.333334]
Isolation_window: 4.0
Ion_mode: P
Num Peaks: 7
58.0656	16.0
59.0496	7.7
133.0648	54.4
191.1178	6.7
192.1381	100.0
193.1415	10.2
194.1176	13.5

Name: Pseudolycorine
PrecursorMZ: 290.19581
RT: 5.4706
ExactMass: 289.13140809
Spectrum_type: 2
charge: 1
Formula: C16H19NO4
SMILES: COC1=C(C=C2[C@@H]3[C@@H]([C@H](C=C4[C@H]3N(CC4)CC2=C1)O)O)O
Method: HCD
Collision_energy: [28.333334]
Isolation_window: 4.0
Ion_mode: P
Num Peaks: 36
62.0604	41.1
81.0700	3.8
83.0858	3.6
91.0543	2.5
97.0650	2.8
105.0700	2.5
109.0648	3.2
119.0856	3.2
126.0912	4.4
133.1010	4.0
138.0912	3.4
147.1167	11.5
157.1011	3.8
164.0706	3.7
166.0861	5.1
175.1117	5.2
193.1220	4.4
229.1426	3.1
236.1641	29.6
237.1674	4.5
254.1746	100.0
255.1781	15.7
271.1724	2.9
272.1851	74.2
273.1880	12.1
289.1174	5.4
289.1543	6.0
289.1793	4.2
290.1012	5.3
290.1364	3.8
290.1957	18.0
291.1322	4.0
291.1714	3.3
291.1952	10.1
291.2429	4.5
292.1167	5.0

