Name: (+)-Betulonic acid
PrecursorMZ: 453.3369
RT: 1.0856999999999999
ExactMass: 454.34469533
Spectrum_type: 2
charge: -1
Formula: C30H46O3
SMILES: CC(=C)[C@@H]1CC[C@]2([C@H]1[C@H]3CC[C@@H]4[C@]5(CCC(=O)C([C@@H]5CC[C@]4([C@@]3(CC2)C)C)(C)C)C)C(=O)O
Method: HCD
Collision_energy: [28.333334]
Isolation_window: 4.0
Ion_mode: N
Num Peaks: 40
50.3694	1.9
50.3721	4.7
50.4809	0.6
50.4836	1.5
59.0130	0.4
79.9565	0.5
83.0494	0.5
96.9591	1.3
121.0649	1.0
139.0756	1.6
149.0599	0.7
151.0755	0.4
162.0678	1.5
163.0753	0.5
171.1381	0.6
175.0758	0.6
177.0915	1.5
375.3267	0.8
407.3318	0.7
407.3534	2.1
408.3568	3.0
409.3507	1.8
410.3510	0.5
413.3057	1.2
451.3424	0.5
451.4175	0.7
451.4561	0.6
452.2455	1.7
452.3467	1.1
453.1309	0.5
453.2054	0.7
453.2327	0.5
453.2718	1.7
453.3375	100.0
453.4421	0.6
453.4688	0.6
454.3410	31.7
455.2839	2.0
455.3091	0.9
455.3504	7.6

Name: (+)-D-threo-Isocitric acid
PrecursorMZ: 191.01925
RT: 6.3095
ExactMass: 192.02700259
Spectrum_type: 2
charge: -1
Formula: C6H8O7
SMILES: C([C@@H]([C@H](C(=O)O)O)C(=O)O)C(=O)O
Method: HCD
Collision_energy: [28.333334]
Isolation_window: 4.0
Ion_mode: N
Num Peaks: 22
72.9922	6.3
73.0285	2.8
85.0286	17.1
101.0236	3.5
111.0079	46.3
112.0111	2.8
117.0184	10.4
119.0494	2.9
129.0185	19.2
146.0239	2.5
147.0295	4.8
147.0436	3.2
154.9980	9.3
173.0085	20.8
174.9002	17.9
189.0381	2.4
191.0191	22.3
191.0359	12.8
191.0556	11.6
192.0312	21.7
192.9108	100.0
193.0516	2.7

Name: (+)-Genipin
PrecursorMZ: 225.07647
RT: 1.5922
ExactMass: 226.08412354
Spectrum_type: 2
charge: -1
Formula: C11H14O5
SMILES: COC(=O)C1=CO[C@H]([C@H]2[C@@H]1CC=C2CO)O
Method: HCD
Collision_energy: [28.333334]
Isolation_window: 4.0
Ion_mode: N
Num Peaks: 30
72.9922	6.0
80.9643	43.0
97.0284	6.7
109.0650	7.2
113.0234	6.0
125.0602	6.7
127.0390	7.7
137.0600	7.3
137.0966	9.3
139.0393	7.8
139.0755	7.9
151.0393	8.5
151.0757	8.8
165.0548	14.1
179.0706	6.3
180.0647	7.0
181.0862	12.0
182.1174	7.7
183.0655	8.3
223.0618	6.6
225.0072	100.0
225.0429	6.5
225.0766	49.9
225.1096	8.0
226.0103	9.7
226.0711	10.8
226.1057	7.7
227.0570	24.9
227.0909	12.5
227.2017	12.1

Name: (+)-Gibberellic Acid
PrecursorMZ: 347.14977
RT: 4.0968
ExactMass: 346.14163842
Spectrum_type: 2
charge: -1
Formula: C19H22O6
SMILES: C[C@@]12[C@H](C=C[C@@]3([C@@H]1[C@@H]([C@]45[C@H]3CC[C@](C4)(C(=C)C5)O)C(=O)O)OC2=O)O
Method: HCD
Collision_energy: [28.333334]
Isolation_window: 4.0
Ion_mode: N
Num Peaks: 2
271.1336	84.6
301.1448	100.0

Name: (+)-Isoalantolactone
PrecursorMZ: 291.15996
RT: 1.3517
ExactMass: 232.146329876
Spectrum_type: 2
charge: -1
Formula: C15H20O2
SMILES: C[C@]12CCCC(=C)[C@@H]1C[C@H]3[C@@H](C2)OC(=O)C3=C
Method: HCD
Collision_energy: [28.333334]
Isolation_window: 4.0
Ion_mode: N
Num Peaks: 31
71.0129	8.2
127.0754	1.1
136.0885	1.8
151.0756	0.9
190.0992	3.4
191.1038	0.5
192.1149	4.8
193.1590	12.7
207.1384	1.9
218.0943	1.1
220.1464	33.7
221.1097	0.7
221.1183	0.6
221.1541	89.5
221.1899	0.5
221.1990	0.6
233.1056	0.8
235.1335	2.1
236.0556	0.8
236.0658	0.6
236.1049	100.0
236.1444	0.6
236.1542	0.7
237.1125	1.0
247.1698	5.0
248.1740	0.9
249.1857	4.8
253.1448	0.5
290.1758	2.8
293.1756	27.8
293.2025	0.6

Name: (+)-Melezitose
PrecursorMZ: 503.16208
RT: 9.6744
ExactMass: 504.16903493
Spectrum_type: 2
charge: -1
Formula: C18H32O16
SMILES: C([C@@H]1[C@H]([C@@H]([C@H]([C@H](O1)O[C@H]2[C@@H]([C@H](O[C@@]2(CO)O[C@@H]3[C@@H]([C@H]([C@@H]([C@H](O3)CO)O)O)O)CO)O)O)O)O)O
Method: HCD
Collision_energy: [28.333334]
Isolation_window: 4.0
Ion_mode: N
Num Peaks: 43
55.9053	2.0
55.9085	4.2
59.0130	22.3
71.0130	29.1
72.0163	0.9
72.9922	1.5
73.0286	7.1
83.0129	7.2
85.0285	4.4
87.0079	7.6
89.0235	57.0
90.0269	1.7
95.0128	2.4
97.0286	5.1
99.0078	1.3
101.0235	33.5
102.0269	1.9
113.0236	25.4
114.0270	1.4
115.0392	2.7
119.0341	18.8
125.0234	2.5
129.0183	1.0
131.0342	4.3
143.0343	10.6
149.0449	2.6
161.0449	24.1
162.0483	1.4
179.0555	26.2
180.0585	1.6
221.0664	29.8
222.0699	2.4
263.0774	4.4
281.0879	2.4
323.0983	8.8
324.1019	1.0
341.1089	3.6
383.1203	1.5
503.1622	100.0
503.3165	1.1
504.1658	18.5
505.1710	4.0
505.3365	1.5

Name: (+)-Nootkatone
PrecursorMZ: 244.0937
RT: 7.221500000000001
ExactMass: 218.167065321
Spectrum_type: 2
charge: -1
Formula: C15H22O
SMILES: C[C@@H]1CC(=O)C=C2[C@]1(C[C@@H](CC2)C(=C)C)C
Method: HCD
Collision_energy: [28.333334]
Isolation_window: 4.0
Ion_mode: N
Num Peaks: 40
71.0130	10.3
73.0286	9.1
74.0239	4.3
78.9581	8.2
88.0395	22.5
115.0028	41.3
123.0555	6.8
128.0343	4.7
129.0663	5.5
129.1025	96.7
130.0865	40.7
130.1064	4.2
140.0821	27.7
145.0976	5.3
152.9951	28.5
153.0298	15.2
153.0662	26.3
157.1341	7.4
163.1121	2.9
171.0057	13.3
183.1130	4.5
184.0724	6.1
198.0881	8.6
200.1036	100.0
201.1065	9.4
201.1240	59.6
202.0830	8.0
202.1271	3.4
226.0837	6.4
227.1035	9.5
243.0611	3.5
243.0984	5.3
243.1233	15.1
244.0948	22.9
244.1529	4.5
245.0434	36.4
245.0462	4.0
245.1144	98.4
246.1123	4.4
246.1156	9.2

Name: (+)-Ursolic Acid
PrecursorMZ: 455.35314
RT: 1.231125
ExactMass: 456.36034539
Spectrum_type: 2
charge: -1
Formula: C30H48O3
SMILES: C[C@@H]1CC[C@@]2(CC[C@@]3(C(=CC[C@H]4[C@]3(CC[C@@H]5[C@@]4(CC[C@@H](C5(C)C)O)C)C)[C@@H]2[C@H]1C)C)C(=O)O
Method: HCD
Collision_energy: [28.333334]
Isolation_window: 4.0
Ion_mode: N
Num Peaks: 10
50.5934	2.0
50.5961	4.4
96.9593	6.4
453.3383	5.9
454.3417	9.6
455.2179	1.3
455.3535	100.0
456.3568	28.6
457.1191	3.6
457.3620	4.1

Name: (+-)-3,4-Dihydroxymandelic acid
PrecursorMZ: 243.0506
RT: 7.377
ExactMass: 184.03717335
Spectrum_type: 2
charge: -1
Formula: C8H8O5
SMILES: C1=CC(=C(C=C1C(C(=O)O)O)O)O
Method: HCD
Collision_energy: [28.333334]
Isolation_window: 4.0
Ion_mode: N
Num Peaks: 139
58.0289	3.7
59.0129	26.7
69.0336	4.0
70.0289	3.9
71.0129	17.5
72.9922	11.6
73.0285	13.1
74.0238	14.0
78.9580	7.7
79.9562	5.1
80.9641	7.5
82.0288	7.9
83.0127	4.9
83.0493	10.5
84.0080	4.5
84.0445	23.4
85.0285	27.3
86.0236	3.9
87.0078	41.1
88.0394	18.6
94.0288	8.9
95.0321	4.6
95.0492	8.4
96.0082	5.3
96.0447	6.3
96.9591	7.7
97.0285	10.5
97.0648	4.9
98.0239	10.5
99.0077	6.7
99.0442	26.0
100.0394	5.9
101.0235	6.4
109.0286	5.9
109.0649	5.4
110.0238	20.8
110.0601	3.6
111.0078	5.3
111.0441	10.1
111.0806	3.4
112.0395	13.5
113.0234	9.2
113.0348	16.9
113.0599	4.3
114.0187	5.2
114.0551	23.9
115.0028	13.1
115.0391	7.6
115.9278	4.2
116.0062	3.8
116.0167	3.7
116.0344	4.0
116.0707	20.0
121.0287	6.1
123.0443	4.3
124.0395	39.7
125.0236	20.9
125.0429	36.4
125.0601	4.1
126.0444	4.9
126.0551	6.9
127.0392	13.6
127.0503	17.8
128.0344	47.2
129.0184	33.6
129.1023	5.2
130.0864	8.1
131.0345	5.3
135.0442	7.0
136.0756	5.2
137.0241	4.5
137.0600	40.0
137.0707	4.0
138.0551	10.1
139.0393	53.2
143.0341	6.8
143.0457	3.4
151.0505	3.5
152.0710	3.4
152.9952	26.0
153.0298	24.7
153.0548	5.3
153.0663	5.2
154.0140	4.8
154.0497	5.5
154.0863	5.3
155.0342	10.5
155.0705	6.3
155.0819	9.0
156.0652	5.5
162.0221	4.4
163.0389	6.1
163.1117	4.7
165.0202	3.3
167.0452	9.3
168.0294	21.4
171.0057	11.6
171.0409	5.3
171.0770	10.3
173.0925	9.1
180.0651	7.1
181.0496	24.0
181.0617	16.9
181.0856	29.4
181.1224	12.5
182.0437	9.6
182.0814	4.2
183.0291	4.0
183.0651	3.5
183.1136	3.9
197.1167	10.2
198.0755	12.8
199.0573	16.8
199.0743	7.0
200.0549	4.9
200.0916	20.8
201.0900	3.8
224.0557	4.8
225.0526	21.6
225.1134	5.6
226.0722	4.3
227.0689	14.1
227.1029	6.3
241.0495	3.3
241.1059	15.3
241.2171	17.0
242.0661	23.7
242.1093	7.8
242.2199	4.0
243.0187	9.3
243.0490	100.0
243.0891	4.9
243.1230	48.5
244.0532	10.1
244.0826	34.8
244.1221	7.1
245.0427	30.2
245.0668	23.3
245.1141	8.5

Name: (+-)-3-(4-Hydroxyphenyl)lactic acid
PrecursorMZ: 181.05
RT: 4.7874
ExactMass: 182.0579088
Spectrum_type: 2
charge: -1
Formula: C9H10O4
SMILES: C1=CC(=CC=C1CC(C(=O)O)O)O
Method: HCD
Collision_energy: [28.333334]
Isolation_window: 4.0
Ion_mode: N
Num Peaks: 5
87.0442	33.1
107.0495	66.9
137.0600	100.0
180.0322	33.2
181.0503	64.0

Name: (+-)-3-Hydroxydodecanoic acid
PrecursorMZ: 215.16456
RT: 1.7257
ExactMass: 216.17254462
Spectrum_type: 2
charge: -1
Formula: C12H24O3
SMILES: CCCCCCCCCC(CC(=O)O)O
Method: HCD
Collision_energy: [28.333334]
Isolation_window: 4.0
Ion_mode: N
Num Peaks: 14
59.0129	100.0
66.0340	21.5
79.9562	8.4
80.9642	44.2
104.0166	8.5
108.0445	41.2
170.1177	35.7
213.9613	6.8
214.0175	6.1
214.0709	21.2
215.0552	10.1
215.1646	30.9
216.0329	69.0
217.0162	6.8

Name: (+-)-3-Methyladipic acid
PrecursorMZ: 159.06555
RT: 7.2328
ExactMass: 160.07355886
Spectrum_type: 2
charge: -1
Formula: C7H12O4
SMILES: CC(CCC(=O)O)CC(=O)O
Method: HCD
Collision_energy: [28.333334]
Isolation_window: 4.0
Ion_mode: N
Num Peaks: 8
95.0494	5.1
97.0650	100.0
98.0684	5.3
115.0756	81.7
116.0790	5.5
141.0551	5.9
159.0657	56.8
160.0691	3.9

Name: (+-)-4-Hydroxymandelic acid
PrecursorMZ: 167.03423
RT: 1.098
ExactMass: 168.04225873
Spectrum_type: 2
charge: -1
Formula: C8H8O4
SMILES: C1=CC(=CC=C1C(C(=O)O)O)O
Method: HCD
Collision_energy: [28.333334]
Isolation_window: 4.0
Ion_mode: N
Num Peaks: 8
79.0544	44.2
79.9564	19.0
95.0494	86.3
121.0286	34.1
123.0443	100.0
149.0088	54.6
166.0536	56.9
167.0341	24.3

Name: (+-)-Citramalic acid
PrecursorMZ: 149.04476
RT: 6.9598
ExactMass: 148.03717335
Spectrum_type: 2
charge: -1
Formula: C5H8O5
SMILES: CC(CC(=O)O)(C(=O)O)O
Method: HCD
Collision_energy: [28.333334]
Isolation_window: 4.0
Ion_mode: N
Num Peaks: 6
59.0130	100.0
71.0130	21.4
101.0235	47.8
108.0197	22.8
149.0451	20.9
151.0255	50.6

Name: (+-)-Dihydrodaidzein
PrecursorMZ: 257.08178
RT: 2.5188333333333333
ExactMass: 256.07355886
Spectrum_type: 2
charge: -1
Formula: C15H12O4
SMILES: C1C(C(=O)C2=C(O1)C=C(C=C2)O)C3=CC=C(C=C3)O
Method: HCD
Collision_energy: [28.333334]
Isolation_window: 4.0
Ion_mode: N
Num Peaks: 24
59.0130	11.4
93.0337	6.1
96.9592	15.2
106.0415	15.0
107.0494	36.9
108.0208	6.3
108.0529	3.1
121.0287	5.9
138.0314	4.5
205.0882	13.8
205.5900	6.1
213.0917	86.3
214.0952	12.4
255.0803	6.3
255.1336	3.5
255.2329	69.3
255.5816	4.7
255.6345	3.3
256.0759	3.0
256.2364	18.6
257.0819	100.0
257.2120	6.8
258.0012	4.0
258.0857	15.1

Name: (-)-Mandelic acid
PrecursorMZ: 151.03938
RT: 1.8931
ExactMass: 152.047344113
Spectrum_type: 2
charge: -1
Formula: C8H8O3
SMILES: C1=CC=C(C=C1)[C@H](C(=O)O)O
Method: HCD
Collision_energy: [28.333334]
Isolation_window: 4.0
Ion_mode: N
Num Peaks: 18
66.0340	9.2
80.9643	15.3
81.0335	8.0
94.0290	7.1
107.0493	12.2
108.0209	16.6
108.0447	30.0
109.0286	18.7
121.0288	13.3
123.0444	11.1
149.0237	22.5
150.0550	15.4
151.0395	100.0
151.0757	14.4
152.0108	8.6
152.0334	23.6
152.0711	14.8
153.0554	9.9

Name: (-)-Secoisolariciresinol
PrecursorMZ: 363.18136
RT: 1.1432
ExactMass: 362.17293854
Spectrum_type: 2
charge: -1
Formula: C20H26O6
SMILES: COC1=C(C=CC(=C1)C[C@@H](CO)[C@@H](CC2=CC(=C(C=C2)O)OC)CO)O
Method: HCD
Collision_energy: [28.333334]
Isolation_window: 4.0
Ion_mode: N
Num Peaks: 4
363.1817	100.0
363.3279	7.6
364.1852	20.8
365.3427	55.2

Name: (10)-Shogaol
PrecursorMZ: 315.23284
RT: 1.2297
ExactMass: 332.23514488
Spectrum_type: 2
charge: -1
Formula: C21H32O3
SMILES: CCCCCCCCC/C=C/C(=O)CCC1=CC(=C(C=C1)O)OC
Method: HCD
Collision_energy: [28.333334]
Isolation_window: 4.0
Ion_mode: N
Num Peaks: 6
237.0770	26.1
314.2201	12.4
315.2329	100.0
316.2369	23.2
317.0337	43.5
317.2493	17.0

Name: (2-Hydroxyphenyl)acetic acid
PrecursorMZ: 151.03935
RT: 1.7474
ExactMass: 152.047344113
Spectrum_type: 2
charge: -1
Formula: C8H8O3
SMILES: C1=CC=C(C(=C1)CC(=O)O)O
Method: HCD
Collision_energy: [28.333334]
Isolation_window: 4.0
Ion_mode: N
Num Peaks: 2
107.0494	100.0
108.0530	7.0

Name: (2S,4R)-Pentane-1,2,3,4,5-Pentol
PrecursorMZ: 135.0655
RT: 6.6838
ExactMass: 152.06847348
Spectrum_type: 2
charge: -1
Formula: C5H12O5
SMILES: C([C@H](C([C@H](CO)O)O)O)O
Method: HCD
Collision_energy: [28.333334]
Isolation_window: 4.0
Ion_mode: N
Num Peaks: 19
57.0337	2.5
59.0129	2.9
71.0130	2.6
73.0286	9.2
75.0079	2.3
79.9564	7.1
85.0286	2.5
87.0443	4.4
92.0245	10.8
103.0392	2.2
134.0464	6.9
134.8650	7.4
134.8939	100.0
135.0303	15.2
135.0442	2.1
135.8940	13.2
135.9706	2.0
136.8622	1.8
136.8909	25.3

Name: (3,4-Dimethoxyphenyl)acetic acid
PrecursorMZ: 195.06577
RT: 1.5561
ExactMass: 196.07355886
Spectrum_type: 2
charge: -1
Formula: C10H12O4
SMILES: COC1=C(C=C(C=C1)CC(=O)O)OC
Method: HCD
Collision_energy: [28.333334]
Isolation_window: 4.0
Ion_mode: N
Num Peaks: 111
57.0337	3.3
59.0129	1.5
66.0340	25.5
67.0180	1.4
67.0374	1.1
69.0338	0.9
71.0494	1.3
72.9922	5.4
73.0286	6.5
81.0336	1.6
83.0493	1.5
84.0446	1.2
91.0180	1.7
93.0338	3.5
94.0290	4.3
95.0493	4.0
96.0447	1.0
97.0286	1.7
97.0651	1.2
99.0441	1.4
107.0495	3.2
107.0858	1.3
108.0446	6.6
109.0164	1.7
109.0286	4.9
109.0650	9.6
110.0241	2.2
110.0363	1.2
110.0605	2.1
111.0079	4.1
111.0443	3.2
112.0401	1.1
119.0494	1.9
120.0446	1.2
121.0287	9.2
121.0651	5.0
122.0371	1.0
122.0604	2.0
123.0318	2.8
123.0444	10.1
123.0553	1.1
123.0807	5.7
124.0398	3.5
124.0760	1.1
125.0236	3.0
125.0600	4.2
133.0651	2.0
134.0605	1.5
135.0445	4.2
135.0807	2.3
136.0523	3.4
137.0238	4.1
137.0476	3.4
137.0599	2.5
138.0318	2.0
139.0395	2.4
149.0601	4.1
149.0965	1.6
150.0547	5.9
150.0642	1.5
150.0911	2.4
151.0399	4.5
151.0758	65.4
151.0871	15.2
151.1118	4.9
152.0346	2.7
152.0464	1.1
152.0701	7.1
152.0797	4.1
152.1069	2.7
153.0551	11.1
153.0661	1.1
153.0914	16.2
162.0552	1.5
163.0393	2.4
164.0340	1.0
165.0187	8.9
165.0550	5.4
165.1028	1.0
167.0346	1.3
167.0707	1.4
168.1022	1.4
177.0550	6.8
177.1035	1.5
179.0711	2.8
180.0282	2.5
193.0507	1.6
193.0840	1.1
193.0860	1.8
193.1003	4.6
193.1349	7.4
194.0442	3.5
194.0807	4.6
194.1007	1.1
194.1187	1.9
194.1374	2.0
195.0291	3.0
195.0516	3.8
195.0659	100.0
195.0998	1.1
195.1025	3.3
195.1147	1.0
195.1383	4.0
196.0596	5.0
196.0621	4.1
196.0687	10.0
196.0963	4.9
197.0450	9.3
197.0625	1.0
197.0816	17.3
197.1161	1.4

Name: (3alpha,5beta,12beta)-3,12-Dihydroxycholan-24-oic acid
PrecursorMZ: 391.28564
RT: 2.7507
ExactMass: 392.29265975
Spectrum_type: 2
charge: -1
Formula: C24H40O4
SMILES: C[C@H](CCC(=O)O)[C@H]1CC[C@@H]2[C@@]1([C@@H](C[C@H]3[C@H]2CC[C@H]4[C@@]3(CC[C@H](C4)O)C)O)C
Method: HCD
Collision_energy: [28.333334]
Isolation_window: 4.0
Ion_mode: N
Num Peaks: 21
59.0130	16.0
79.9565	7.3
80.9643	15.8
96.9592	21.0
171.1022	2.9
209.1186	3.4
291.1972	3.1
293.2123	3.3
311.2231	8.4
345.2796	2.9
347.2950	6.1
389.2702	5.6
390.1645	6.0
390.2317	3.1
390.2747	9.8
391.1784	32.8
391.2860	100.0
392.1793	4.8
392.2895	27.5
393.1393	3.9
393.1941	11.2

Name: (6)-Gingerol
PrecursorMZ: 293.17576
RT: 1.3642
ExactMass: 294.18310931
Spectrum_type: 2
charge: -1
Formula: C17H26O4
SMILES: CCCCC[C@@H](CC(=O)CCC1=CC(=C(C=C1)O)OC)O
Method: HCD
Collision_energy: [28.333334]
Isolation_window: 4.0
Ion_mode: N
Num Peaks: 21
71.0130	10.1
96.9592	2.5
97.4635	1.8
113.0963	3.4
155.1433	2.7
192.1153	2.4
207.1384	2.5
220.1467	33.7
221.1543	90.0
222.1578	13.9
235.1338	1.9
236.1052	100.0
237.1089	13.8
251.2379	2.3
293.1764	21.5
293.2123	38.7
294.1796	3.5
294.2155	8.0
295.0818	2.0
295.2279	98.3
295.2588	3.2

Name: (R)-2-Benzylsuccinate
PrecursorMZ: 226.10798
RT: 2.7213
Spectrum_type: 2
charge: -1
SMILES: O=C(O)CC(C(=O)O)CC=1C=CC=CC1
Method: HCD
Collision_energy: [28.333334]
Isolation_window: 4.0
Ion_mode: N
Num Peaks: 21
58.0290	12.8
59.0131	2.0
79.9564	2.0
96.9592	16.5
140.1076	2.3
165.1277	4.3
182.1181	17.7
183.1216	2.1
183.1386	4.9
184.0973	100.0
185.1008	10.2
209.1181	3.5
225.1044	1.9
226.0394	4.0
226.1117	23.9
226.6136	6.5
227.0358	2.3
227.1194	52.4
227.6214	14.5
228.1166	1.9
355.2632	1.7

Name: 1,2,3-Propanetricarboxylic acid
PrecursorMZ: 175.02398
RT: 9.3875
ExactMass: 176.03208797
Spectrum_type: 2
charge: -1
Formula: C6H8O6
SMILES: C(C(CC(=O)O)C(=O)O)C(=O)O
Method: HCD
Collision_energy: [28.333334]
Isolation_window: 4.0
Ion_mode: N
Num Peaks: 20
58.0289	7.6
69.0336	11.7
71.0129	2.0
72.9920	1.7
85.0284	4.1
87.0442	14.8
112.0759	3.6
113.0234	10.7
129.1024	10.7
131.0342	5.9
131.0817	100.0
132.0854	9.3
134.0349	1.5
157.0134	67.2
158.0169	4.4
173.0925	18.4
174.0961	2.6
174.1127	6.7
175.0243	8.1
175.0610	4.4

Name: 1,3,7-Trimethyluric acid
PrecursorMZ: 209.0675
RT: 2.6595
ExactMass: 210.07529019
Spectrum_type: 2
charge: -1
Formula: C8H10N4O3
SMILES: CN1C2=C(NC1=O)N(C(=O)N(C2=O)C)C
Method: HCD
Collision_energy: [28.333334]
Isolation_window: 4.0
Ion_mode: N
Num Peaks: 4
194.0441	20.3
209.0677	100.0
210.0704	7.5
211.0279	24.1

Name: 1,3-Dimethyluric acid
PrecursorMZ: 195.05188
RT: 1.3147
ExactMass: 196.05964013
Spectrum_type: 2
charge: -1
Formula: C7H8N4O3
SMILES: CN1C2=C(C(=O)N(C1=O)C)NC(=O)N2
Method: HCD
Collision_energy: [28.333334]
Isolation_window: 4.0
Ion_mode: N
Num Peaks: 22
65.0136	7.6
126.0087	3.1
150.0917	9.5
152.0246	2.1
167.0349	2.7
168.0199	4.0
169.0145	7.0
176.8947	13.2
177.8944	2.2
178.9829	2.9
180.0283	26.4
193.0516	2.2
194.0346	2.9
194.0502	3.1
194.0816	6.2
194.9053	53.1
195.0317	6.8
195.0518	100.0
195.9054	8.1
196.0135	16.2
196.0546	6.3
196.9026	2.8

Name: 1,5-Anhydroglucitol
PrecursorMZ: 163.06052
RT: 7.008
ExactMass: 164.06847348
Spectrum_type: 2
charge: -1
Formula: C6H12O5
SMILES: C1[C@@H]([C@H]([C@@H]([C@H](O1)CO)O)O)O
Method: HCD
Collision_energy: [28.333334]
Isolation_window: 4.0
Ion_mode: N
Num Peaks: 47
57.0336	1.5
59.0130	13.7
61.0286	6.9
71.0130	5.0
71.0493	1.5
72.0082	20.6
72.9922	3.0
73.0286	7.9
74.0238	2.7
75.0079	20.9
75.0272	1.2
75.0443	6.9
85.0286	3.0
87.0079	9.4
87.0443	1.6
89.0235	2.7
89.0599	3.2
99.0442	3.7
101.0235	5.5
105.0184	3.0
115.0392	9.9
117.0550	1.4
119.0494	5.4
120.0448	1.5
121.0651	5.3
122.0603	11.3
131.0342	1.8
133.0498	91.2
134.0526	4.7
145.0499	13.5
147.0340	1.8
147.0444	62.5
148.0479	3.1
160.0398	16.7
161.0447	6.9
161.0815	4.3
162.0556	18.4
163.0387	2.3
163.0502	1.9
163.0606	100.0
164.0348	2.0
164.0717	37.5
164.1072	3.4
165.0407	1.4
165.0548	2.3
165.0654	1.1
165.0768	2.8

Name: 1,5-Dihydro-1-beta-D-ribofuranosyl-4H-pyrazolo(3,4-d)pyrimidin-4-one
PrecursorMZ: 267.07352
RT: 5.7978
ExactMass: 268.0807695
Spectrum_type: 2
charge: -1
Formula: C10H12N4O5
SMILES: C1=NN(C2=C1C(=O)NC=N2)[C@H]3[C@@H]([C@@H]([C@H](O3)CO)O)O
Method: HCD
Collision_energy: [28.333334]
Isolation_window: 4.0
Ion_mode: N
Num Peaks: 8
108.0194	1.1
151.0255	100.0
151.0509	1.3
152.0297	4.9
177.0411	4.2
267.0735	42.2
267.1330	3.0
268.0759	4.6

Name: 1,5-Isoquinolinediol
PrecursorMZ: 160.03967
RT: 2.6197333333333335
ExactMass: 161.047678466
Spectrum_type: 2
charge: -1
Formula: C9H7NO2
SMILES: C1=CC2=C(C=CNC2=O)C(=C1)O
Method: HCD
Collision_energy: [28.333334]
Isolation_window: 4.0
Ion_mode: N
Num Peaks: 38
57.0337	1.0
59.0131	1.0
69.1060	0.7
79.9564	0.9
85.0286	1.1
87.0079	1.5
96.9592	1.0
97.0286	1.1
97.0650	1.2
101.0237	0.9
104.0497	1.0
113.0238	0.9
113.0964	0.7
114.0552	1.0
115.0393	1.1
115.0756	40.0
115.9198	0.9
116.0789	2.3
117.0338	4.3
131.0366	1.8
132.0447	9.1
133.0482	1.0
141.0550	3.4
158.9111	0.9
159.0317	11.2
159.0444	1.0
159.0658	16.6
159.1010	0.8
160.0122	0.6
160.0178	0.6
160.0397	100.0
160.0672	1.1
160.9109	0.8
161.0248	0.8
161.0438	9.4
161.0601	1.7
161.0963	0.9
162.0557	3.3

Name: 1-Methylxanthine
PrecursorMZ: 165.04093
RT: 4.7336
ExactMass: 166.04907545
Spectrum_type: 2
charge: -1
Formula: C6H6N4O2
SMILES: CN1C(=O)C2=C(NC1=O)N=CN2
Method: HCD
Collision_energy: [28.333334]
Isolation_window: 4.0
Ion_mode: N
Num Peaks: 37
59.0129	1.9
79.9563	4.1
92.0495	3.1
93.0334	2.6
94.0287	3.7
106.9177	1.8
108.0193	8.9
119.0493	15.8
120.0446	4.6
120.0529	1.8
120.0810	2.2
121.0285	6.3
121.0649	31.7
122.0602	3.0
122.0688	2.1
126.0300	5.7
134.0605	2.4
137.0599	1.7
147.0448	2.4
148.9724	3.9
149.0238	1.6
163.1127	3.6
164.0340	5.4
164.0709	4.5
164.1125	10.0
164.6141	2.2
164.8947	9.1
165.0188	2.2
165.0210	4.3
165.0411	100.0
165.0547	14.3
166.0150	2.3
166.0427	3.0
166.0547	14.3
166.9827	5.6
167.0333	2.6
167.0597	3.3

Name: 1-Naphthol
PrecursorMZ: 143.04924
RT: 1.3013
ExactMass: 144.057514874
Spectrum_type: 2
charge: -1
Formula: C10H8O
SMILES: C1=CC=C2C(=C1)C=CC=C2O
Method: HCD
Collision_energy: [28.333334]
Isolation_window: 4.0
Ion_mode: N
Num Peaks: 5
99.9248	5.7
143.0261	3.6
143.0493	100.0
143.1070	4.5
144.0527	11.6

Name: 11beta-Hydroxyandrostenedione
PrecursorMZ: 361.20161
RT: 1.1464
ExactMass: 302.18819469
Spectrum_type: 2
charge: -1
Formula: C19H26O3
SMILES: C[C@]12CCC(=O)C=C1CC[C@@H]3[C@@H]2[C@H](C[C@]4([C@H]3CCC4=O)C)O
Method: HCD
Collision_energy: [28.333334]
Isolation_window: 4.0
Ion_mode: N
Num Peaks: 8
69.1850	5.6
97.4654	5.4
302.1885	100.0
303.1916	21.3
317.2118	82.6
318.2151	18.6
361.2020	80.1
362.2051	19.9

Name: 12-Hydroxydodecanoic Acid
PrecursorMZ: 215.16489
RT: 1.4874
ExactMass: 216.17254462
Spectrum_type: 2
charge: -1
Formula: C12H24O3
SMILES: C(CCCCCC(=O)O)CCCCCO
Method: HCD
Collision_energy: [28.333334]
Isolation_window: 4.0
Ion_mode: N
Num Peaks: 14
59.0130	100.0
60.0164	2.6
79.9566	3.7
80.9643	56.3
108.0447	14.5
147.0682	2.4
169.1595	3.1
171.1378	3.3
214.0169	3.0
215.1648	33.3
216.0332	23.2
216.1396	8.6
216.1684	4.1
217.0166	3.5

Name: 12-Hydroxyoctadec-9-enoic acid
PrecursorMZ: 297.24301
RT: 1.4982
ExactMass: 298.25079494
Spectrum_type: 2
charge: -1
Formula: C18H34O3
SMILES: CCCCCCC(CC=CCCCCCCCC(=O)O)O
Method: HCD
Collision_energy: [28.333334]
Isolation_window: 4.0
Ion_mode: N
Num Peaks: 26
59.0129	5.0
97.4091	0.2
139.1120	1.2
155.1433	0.7
177.1276	0.8
183.0114	0.4
221.1179	0.6
251.2376	0.3
253.1452	0.4
253.2534	2.2
254.2575	0.4
295.2637	1.0
296.2310	0.4
296.2680	1.0
297.1134	0.5
297.1532	8.4
297.1880	1.2
297.2149	1.4
297.2433	100.0
297.2728	1.2
297.3139	0.4
298.1566	1.5
298.2466	19.6
299.2499	1.5
299.2544	0.8
299.2582	16.6

Name: 12-Hydroxystearic acid
PrecursorMZ: 299.25918
RT: 1.3599
ExactMass: 300.26644501
Spectrum_type: 2
charge: -1
Formula: C18H36O3
SMILES: CCCCCCC(CCCCCCCCCCC(=O)O)O
Method: HCD
Collision_energy: [28.333334]
Isolation_window: 4.0
Ion_mode: N
Num Peaks: 107
59.0130	8.9
69.0338	1.4
71.0130	2.4
71.0494	1.1
72.9923	1.6
73.0287	1.3
73.0399	1.3
74.0238	5.8
78.9581	12.4
79.9564	1.3
83.0493	3.8
85.0652	1.1
87.0081	1.0
87.0443	1.1
88.0395	6.2
89.0238	1.0
96.9592	1.3
97.0650	1.8
98.0238	2.5
99.0445	1.1
109.0286	2.0
111.0442	1.2
111.0809	1.2
112.0393	1.2
113.0235	1.1
114.0552	23.7
114.0915	2.6
115.0586	1.3
115.0868	4.9
116.0708	7.2
122.0606	1.2
124.0759	2.9
125.0965	2.0
126.0917	1.0
127.0505	1.2
128.0344	1.3
128.0709	1.5
129.0546	1.2
129.1025	2.7
130.0866	35.8
131.0904	1.4
134.0969	1.2
136.0761	3.3
139.0870	1.0
139.1120	1.7
141.1023	1.9
141.1278	1.3
143.1182	8.2
145.1227	2.3
152.0714	1.4
155.0819	6.5
155.1182	1.3
157.1341	1.6
164.0706	1.3
168.0657	1.1
168.1022	3.2
169.0975	14.1
171.1023	1.6
176.1074	1.8
183.1140	3.9
183.1384	2.1
184.1170	1.6
184.1698	2.5
199.1813	2.8
201.1247	9.7
224.1766	2.2
227.1035	1.4
229.1340	1.4
241.0974	1.5
253.2535	1.8
254.0791	1.2
254.1874	1.6
255.1131	1.9
255.1505	18.6
256.0950	2.8
256.1551	2.3
256.2029	11.0
257.1292	3.7
257.2259	3.1
268.1655	1.4
269.1510	10.6
281.2490	1.5
282.9954	2.5
297.2437	6.3
298.1084	2.9
298.1393	2.8
298.1571	1.7
298.1760	16.6
298.1862	1.2
298.2471	6.8
299.0263	2.6
299.1004	2.3
299.1528	2.5
299.1871	7.8
299.2323	1.9
299.2591	100.0
299.2905	1.3
299.3119	1.1
299.6854	1.5
300.0915	10.1
300.1931	42.4
300.2625	18.4
300.6928	1.3
301.0893	1.5
301.1192	10.4
301.2153	27.7
301.2657	1.5

Name: 12-Ketolithocholic acid
PrecursorMZ: 389.26985
RT: 2.6883
ExactMass: 390.27700969
Spectrum_type: 2
charge: -1
Formula: C24H38O4
SMILES: C[C@H](CCC(=O)O)[C@H]1CC[C@@H]2[C@@]1(C(=O)C[C@H]3[C@H]2CC[C@H]4[C@@]3(CC[C@H](C4)O)C)C
Method: HCD
Collision_energy: [28.333334]
Isolation_window: 4.0
Ion_mode: N
Num Peaks: 8
69.2496	1.6
87.0079	1.6
315.1719	2.1
389.2701	100.0
390.2736	25.4
391.1802	1.4
391.1874	4.3
391.2787	3.6

Name: 2'-Hydroxyacetophenone
PrecursorMZ: 299.25855
RT: 1.3858
ExactMass: 136.052429494
Spectrum_type: 2
charge: -1
Formula: C8H8O2
SMILES: CC(=O)C1=CC=CC=C1O
Method: HCD
Collision_energy: [28.333334]
Isolation_window: 4.0
Ion_mode: N
Num Peaks: 41
69.3861	0.3
74.0238	1.4
79.9563	0.9
95.9513	0.4
96.9591	5.7
141.1275	1.8
145.1225	0.5
183.1382	0.8
184.1413	0.4
192.1102	0.4
253.2531	1.4
255.1135	1.2
281.2484	1.9
282.2521	0.4
282.9949	0.4
297.2436	3.0
297.6476	1.9
298.1157	0.3
298.1456	0.6
298.1547	1.0
298.1569	0.3
298.2425	1.4
298.2462	2.0
299.1096	0.5
299.1334	0.7
299.1482	0.2
299.1876	0.6
299.2038	0.4
299.2588	100.0
299.3149	0.5
299.3297	0.6
299.6131	0.3
300.1178	0.7
300.1210	6.4
300.1417	3.5
300.2622	18.9
300.6223	2.2
300.6437	1.3
301.1298	6.8
301.2651	1.4
301.6313	0.3

Name: 2,2-Bis(hydroxymethyl)-1-azabicyclo(2,2,2,)octan-3-one
PrecursorMZ: 184.09733
RT: 4.6397
ExactMass: 185.10519334
Spectrum_type: 2
charge: -1
Formula: C9H15NO3
SMILES: C1CN2CCC1C(=O)C2(CO)CO
Method: HCD
Collision_energy: [28.333334]
Isolation_window: 4.0
Ion_mode: N
Num Peaks: 107
57.0337	0.6
58.0051	1.5
59.0130	4.9
66.0340	0.6
69.0339	1.3
71.0130	1.6
71.0494	2.1
72.9923	1.5
73.0286	6.6
79.9565	4.5
80.9643	1.9
81.0336	1.4
82.0290	0.9
83.0494	1.4
84.0209	1.1
84.0447	0.7
85.0286	7.1
85.0651	1.1
86.0241	0.9
87.0078	1.6
93.0337	0.7
94.0288	1.4
95.0494	2.0
96.0447	3.2
97.0286	2.5
97.0650	2.2
98.0239	2.1
98.0602	2.1
99.0442	2.3
107.0495	0.6
108.0447	69.7
109.0286	0.7
109.0480	11.8
109.0645	2.0
110.0239	1.2
110.0495	0.6
111.0444	2.5
111.0808	1.1
112.0396	1.3
112.0760	1.4
113.0239	1.0
113.0598	1.6
113.0714	1.8
113.0962	1.2
114.0010	1.3
120.0448	0.8
121.0651	2.9
122.9751	0.6
123.0444	3.0
123.0555	1.2
123.0810	1.9
124.0221	2.6
124.0397	3.6
124.0762	1.1
125.0240	3.5
125.0600	1.0
127.0757	0.6
127.1120	4.1
128.0346	17.0
129.0186	1.7
129.0383	1.1
137.0967	0.7
138.0553	4.2
139.0395	2.3
139.0505	0.6
139.0589	0.6
139.0758	3.4
139.1117	1.0
140.0344	0.6
140.0708	1.0
140.1073	8.2
141.0550	1.8
141.0664	1.0
141.0914	2.7
141.1105	0.7
142.0324	6.2
142.0864	1.5
149.0967	0.6
152.0346	23.4
153.0381	4.2
154.0137	0.7
155.1071	2.8
156.0476	0.9
157.1227	7.6
162.4917	1.5
165.0556	0.9
165.0919	0.8
167.0343	4.3
167.1070	1.1
168.0296	0.6
168.0660	0.6
182.0276	2.7
182.0456	1.8
183.0306	1.2
183.0667	2.8
183.1030	2.6
184.0230	2.0
184.0432	2.5
184.0621	2.0
184.0974	100.0
184.1319	0.8
185.0445	7.2
185.0568	0.9
185.0817	3.3
185.1007	9.3
185.1178	3.8
186.0230	1.4

Name: 2,2-Dimethylsuccinic acid
PrecursorMZ: 145.0504
RT: 2.6265
ExactMass: 146.0579088
Spectrum_type: 2
charge: -1
Formula: C6H10O4
SMILES: CC(C)(CC(=O)O)C(=O)O
Method: HCD
Collision_energy: [28.333334]
Isolation_window: 4.0
Ion_mode: N
Num Peaks: 20
74.0238	2.8
83.0494	2.8
99.0444	2.7
101.0600	100.0
101.0711	6.5
102.0552	27.3
102.0631	6.3
116.0247	3.3
127.0393	8.0
143.0350	14.8
144.0197	4.9
144.0299	2.5
144.0461	6.4
144.0658	4.0
145.0409	2.8
145.0501	83.2
145.0612	9.7
146.0243	11.4
146.0525	4.1
147.0656	4.7

Name: 2,3,4-Trihydroxybenzoic Acid
PrecursorMZ: 153.01855
RT: 2.9879
ExactMass: 170.02152329
Spectrum_type: 2
charge: -1
Formula: C7H6O5
SMILES: C1=CC(=C(C(=C1C(=O)O)O)O)O
Method: HCD
Collision_energy: [28.333334]
Isolation_window: 4.0
Ion_mode: N
Num Peaks: 24
65.9976	19.4
66.0341	6.5
80.0497	4.4
82.0290	6.5
84.0083	11.1
85.0286	9.6
93.0336	5.2
95.0130	8.8
108.0208	30.1
108.0447	9.1
109.0287	100.0
109.0397	4.4
109.0650	7.7
110.0239	61.3
110.0319	7.8
123.0080	8.2
124.0763	4.8
151.0656	3.7
151.1124	4.3
152.0019	6.8
152.0347	42.2
153.0187	65.0
154.0219	5.5
154.0866	9.3

Name: 2,3-Dihydroxybenzoic Acid
PrecursorMZ: 153.01861
RT: 4.7035
ExactMass: 154.02660867
Spectrum_type: 2
charge: -1
Formula: C7H6O4
SMILES: C1=CC(=C(C(=C1)O)O)C(=O)O
Method: HCD
Collision_energy: [28.333334]
Isolation_window: 4.0
Ion_mode: N
Num Peaks: 149
57.0338	0.4
58.9952	10.1
59.0130	0.4
60.9911	0.6
63.9616	0.4
64.0184	0.7
65.0388	1.5
65.9978	0.4
66.0340	20.8
67.0181	1.4
67.0374	0.8
68.0132	0.6
68.9973	1.7
69.0337	3.4
69.3279	0.5
71.0130	2.1
71.0493	0.7
78.9582	5.1
78.9850	1.7
79.0180	0.7
79.9565	4.6
80.0497	7.3
80.9643	2.8
81.0211	0.7
81.0337	9.1
81.0529	0.9
82.0289	12.6
82.0370	0.6
83.0130	1.4
83.0493	4.1
84.0447	0.4
84.9744	6.1
85.0286	10.2
91.0215	0.4
92.0497	4.5
93.0337	3.1
94.0289	2.8
95.0129	10.7
95.0242	1.1
95.0494	3.4
95.9336	4.6
96.0083	1.4
96.0164	0.5
96.0446	1.0
96.9415	1.7
96.9592	4.1
96.9922	0.5
97.0286	2.2
97.0650	2.7
97.4637	0.4
98.0240	0.7
99.0078	1.4
99.0442	1.3
106.0653	0.8
107.0374	1.5
107.0494	3.5
108.0208	22.1
108.0325	1.0
108.0446	63.4
108.0506	0.8
109.0135	0.4
109.0163	1.3
109.0286	100.0
109.0402	5.0
109.0479	4.2
109.0649	6.9
110.0239	17.7
110.0319	5.9
110.0603	5.7
110.0682	0.7
110.9902	0.4
111.0080	1.4
111.0195	2.2
111.0271	0.6
111.0442	12.5
111.0806	2.0
112.0398	0.7
113.0234	1.2
120.9593	2.3
121.0288	1.6
122.0237	0.4
122.0366	3.5
122.0603	0.8
122.9753	0.4
123.0079	9.3
123.0325	0.8
123.0444	15.4
123.0547	0.7
123.0804	1.9
124.0123	0.4
124.0395	2.8
124.0479	1.8
124.0761	0.8
124.9999	5.0
125.0236	1.9
125.0346	0.5
125.0600	4.2
125.0963	0.4
126.0015	0.7
126.0189	2.4
126.0552	4.5
127.0216	0.4
127.0392	1.0
133.0653	0.5
134.0602	0.8
135.0444	7.1
136.0160	0.6
136.0395	2.2
136.0507	0.8
137.0237	2.5
137.0472	1.4
137.0599	1.2
138.0315	4.5
138.9906	0.8
151.0042	0.4
151.0240	0.6
151.0392	9.9
151.0507	5.4
151.0654	6.1
151.0757	3.5
151.0871	3.4
152.0015	3.9
152.0166	5.4
152.0345	21.5
152.0440	0.9
152.0548	0.5
152.0705	7.1
152.0907	0.6
152.1071	0.5
152.9851	0.6
153.0187	77.0
153.0291	2.0
153.0388	1.2
153.0549	15.7
153.0663	5.7
153.0911	10.8
153.9808	1.1
154.0128	15.2
154.0231	2.1
154.0328	5.1
154.0500	8.5
154.0861	0.9
154.0949	0.8
154.9834	9.9
155.0009	3.9
155.0165	1.2
155.0343	7.7
155.0704	1.2
155.1070	2.8

Name: 2,6-Dihydroxybenzoic Acid
PrecursorMZ: 153.01869
RT: 0.6148
ExactMass: 154.02660867
Spectrum_type: 2
charge: -1
Formula: C7H6O4
SMILES: C1=CC(=C(C(=C1)O)C(=O)O)O
Method: HCD
Collision_energy: [28.333334]
Isolation_window: 4.0
Ion_mode: N
Num Peaks: 12
65.0388	1.8
109.0286	47.2
110.0319	2.6
135.0080	15.1
136.0111	1.1
152.9929	0.6
152.9981	0.6
153.0186	100.0
153.0393	0.7
153.0442	0.8
154.0220	7.7
155.0232	0.6

Name: 2,6-Dimethoxybenzoic Acid
PrecursorMZ: 181.04999
RT: 1.6135
ExactMass: 182.0579088
Spectrum_type: 2
charge: -1
Formula: C9H10O4
SMILES: COC1=C(C(=CC=C1)OC)C(=O)O
Method: HCD
Collision_energy: [28.333334]
Isolation_window: 4.0
Ion_mode: N
Num Peaks: 14
79.9565	1.1
80.9643	4.6
82.9601	1.1
108.0445	1.2
119.0495	1.1
122.0365	100.0
123.0398	7.0
135.0444	3.0
137.0600	8.4
158.1016	2.0
181.0165	2.6
181.0500	2.9
181.0983	2.8
181.1591	3.2

Name: 2-(4-Hydroxyphenyl)propionic acid
PrecursorMZ: 165.05512
RT: 5.093771428571428
ExactMass: 166.062994177
Spectrum_type: 2
charge: -1
Formula: C9H10O3
SMILES: CC(C1=CC=C(C=C1)O)C(=O)O
Method: HCD
Collision_energy: [28.333334]
Isolation_window: 4.0
Ion_mode: N
Num Peaks: 41
66.0340	1.9
71.0131	1.8
73.0287	1.8
75.0079	4.5
79.9563	2.8
80.0497	1.9
92.0496	7.3
93.0338	2.0
94.0290	12.4
107.0495	2.0
108.0447	4.5
119.0494	53.3
120.0446	16.2
120.0528	4.1
121.0288	13.5
121.0651	100.0
121.0756	6.1
122.0245	1.7
122.0603	19.0
122.0686	7.4
123.0443	4.7
123.0555	3.5
135.0446	1.9
136.0396	2.7
137.0349	2.6
137.0821	2.2
138.0552	7.2
147.0449	2.0
148.9728	2.6
149.0090	2.9
163.1123	6.9
164.0346	5.8
164.0709	5.4
164.8949	4.7
165.0202	1.9
165.0409	10.6
165.0550	28.7
165.0667	6.3
166.0502	9.5
166.9831	3.5
167.0341	4.0

Name: 2-(Hydroxymethyl)-2-(methoxymethyl)-1-azabicyclo(2.2.2)octan-3-one
PrecursorMZ: 433.21237
RT: 6.2545
ExactMass: 199.1208434
Spectrum_type: 2
charge: -1
Formula: C10H17NO3
SMILES: COCC1(C(=O)C2CCN1CC2)CO
Method: HCD
Collision_energy: [28.333334]
Isolation_window: 4.0
Ion_mode: N
Num Peaks: 6
127.0865	13.1
164.0379	23.2
325.2248	29.5
341.1849	8.7
433.2127	100.0
434.2139	19.4

Name: 2-Amino-3-hydroxybutanoic acid
PrecursorMZ: 118.04993
RT: 8.972
ExactMass: 119.058243149
Spectrum_type: 2
charge: -1
Formula: C4H9NO3
SMILES: CC(C(C(=O)O)N)O
Method: HCD
Collision_energy: [28.333334]
Isolation_window: 4.0
Ion_mode: N
Num Peaks: 34
59.0129	3.8
60.9921	3.6
64.0183	3.5
65.0135	2.3
72.0081	75.9
72.9921	18.5
73.0285	57.3
74.0237	100.0
74.0320	2.2
75.0078	5.5
76.9690	17.7
90.0089	3.6
91.0291	2.6
94.9796	11.3
98.0238	2.7
99.0077	6.0
99.9248	10.5
116.0245	3.6
116.0707	84.9
116.9275	56.7
117.0185	11.1
117.0447	3.4
117.0741	9.5
117.9279	8.2
118.0290	4.8
118.0402	6.8
118.0500	27.5
118.9408	5.1
119.0161	41.4
119.0241	4.5
119.0342	3.4
119.0492	49.5
119.0604	3.3
120.0558	6.0

Name: 2-Aminobenzenesulfonic acid
PrecursorMZ: 156.01177
RT: 2.7759
ExactMass: 173.01466426
Spectrum_type: 2
charge: -1
Formula: C6H7NO3S
SMILES: C1=CC=C(C(=C1)N)S(=O)(=O)O
Method: HCD
Collision_energy: [28.333334]
Isolation_window: 4.0
Ion_mode: N
Num Peaks: 13
59.0129	2.9
78.9724	2.0
79.9804	2.8
84.0082	5.3
92.0497	43.4
93.0529	2.8
113.0600	4.0
114.0554	2.6
154.0865	3.7
156.0119	100.0
157.0153	7.0
157.0500	6.8
158.0076	2.8

Name: 2-Furancarboxylic acid
PrecursorMZ: 130.05018
RT: 5.816
ExactMass: 112.016043985
Spectrum_type: 2
charge: -1
Formula: C5H4O3
SMILES: C1=COC(=C1)C(=O)O
Method: HCD
Collision_energy: [28.333334]
Isolation_window: 4.0
Ion_mode: N
Num Peaks: 4
58.0290	100.0
88.0395	82.8
112.0396	65.6
130.0866	74.4

Name: 2-Hydroxybutyric Acid
PrecursorMZ: 103.03917
RT: 5.4409
ExactMass: 104.047344113
Spectrum_type: 2
charge: -1
Formula: C4H8O3
SMILES: CCC(C(=O)O)O
Method: HCD
Collision_energy: [28.333334]
Isolation_window: 4.0
Ion_mode: N
Num Peaks: 8
57.0337	82.0
58.0370	3.4
59.0130	9.9
85.0286	3.9
101.0236	3.9
103.0392	100.0
104.0426	3.5
105.0186	4.6

Name: 2-Hydroxyisobutyric acid
PrecursorMZ: 103.03916
RT: 5.8412
ExactMass: 104.047344113
Spectrum_type: 2
charge: -1
Formula: C4H8O3
SMILES: CC(C)(C(=O)O)O
Method: HCD
Collision_energy: [28.333334]
Isolation_window: 4.0
Ion_mode: N
Num Peaks: 4
57.0337	100.0
85.0285	45.5
101.0236	28.6
103.0392	57.1

Name: 2-Hydroxytetradecanoic acid
PrecursorMZ: 227.20097
RT: 1.2038
ExactMass: 244.20384475
Spectrum_type: 2
charge: -1
Formula: C14H28O3
SMILES: CCCCCCCCCCCCC(C(=O)O)O
Method: HCD
Collision_energy: [28.333334]
Isolation_window: 4.0
Ion_mode: N
Num Peaks: 23
69.2593	0.5
71.0129	0.5
89.0234	2.3
96.9591	0.6
101.0600	0.4
157.1225	3.8
183.1383	3.0
184.1335	2.7
184.1418	0.4
225.1856	0.6
226.0258	0.6
226.1442	1.0
226.1817	0.4
227.0382	0.4
227.1284	0.9
227.1540	0.6
227.1647	0.6
227.1677	0.4
227.2011	100.0
227.2476	0.7
228.2045	14.4
229.1804	0.6
229.2069	0.6

Name: 2-Isopropylmalic acid
PrecursorMZ: 159.06555
RT: 3.0263
ExactMass: 176.06847348
Spectrum_type: 2
charge: -1
Formula: C7H12O5
SMILES: CC(C)C(CC(=O)O)(C(=O)O)O
Method: HCD
Collision_energy: [28.333334]
Isolation_window: 4.0
Ion_mode: N
Num Peaks: 21
57.0336	1.7
59.0130	1.0
73.0286	2.3
85.0285	3.6
87.0078	0.9
88.0395	2.3
97.0285	2.2
97.0651	1.2
114.0553	1.7
115.0756	100.0
116.0790	6.3
132.0449	1.8
141.0550	8.2
158.0817	4.9
158.9112	5.8
159.0292	1.1
159.0314	2.6
159.0656	42.7
160.0398	20.1
160.0688	3.3
160.9108	3.9

Name: 2-Methoxy-12-methyloctadec-17-en-5-ynoyl anhydride
PrecursorMZ: 159.10206
RT: 0.7049
ExactMass: 626.4910252
Spectrum_type: 2
charge: -1
Formula: C40H66O5
SMILES: CC(CCCCCC#CCCC(C(=O)OC(=O)C(CCC#CCCCCCC(C)CCCCC=C)OC)OC)CCCCC=C
Method: HCD
Collision_energy: [28.333334]
Isolation_window: 4.0
Ion_mode: N
Num Peaks: 30
59.0130	5.7
60.9922	2.5
65.0136	1.3
65.9976	1.2
83.0493	5.4
97.0650	2.1
99.0807	1.5
102.0088	1.2
113.0963	15.3
114.0914	1.3
114.0996	1.3
116.0246	7.5
116.0708	1.9
139.0757	2.0
141.0916	1.7
157.0512	3.3
157.0864	10.9
157.1227	5.1
158.0242	1.5
158.0351	2.8
158.0467	6.8
158.0814	1.6
158.0905	1.3
159.0190	1.2
159.0304	5.8
159.0434	1.2
159.0673	1.7
159.1019	100.0
160.0390	1.1
160.1054	8.5

Name: 2-Methylacetoacetate
PrecursorMZ: 117.05478
RT: 2.6312
ExactMass: 115.039519081
Spectrum_type: 2
charge: -1
Formula: C5H7O3-
SMILES: CC(C(=O)C)C(=O)[O-]
Method: HCD
Collision_energy: [28.333334]
Isolation_window: 4.0
Ion_mode: N
Num Peaks: 6
59.0129	1.6
99.9249	16.5
100.9251	1.7
116.9277	100.0
117.9278	12.5
118.9255	1.9

Name: 2-Methylbenzoic acid
PrecursorMZ: 181.05061
RT: 5.4471
ExactMass: 136.052429494
Spectrum_type: 2
charge: -1
Formula: C8H8O2
SMILES: CC1=CC=CC=C1C(=O)O
Method: HCD
Collision_energy: [28.333334]
Isolation_window: 4.0
Ion_mode: N
Num Peaks: 63
59.0129	11.4
71.0129	1.0
72.9921	2.4
79.9563	1.5
82.0400	1.3
83.0240	2.8
90.0085	0.8
93.0335	0.9
94.0289	1.3
95.0492	0.9
96.0446	1.1
96.9590	1.4
107.0494	0.9
108.0209	1.0
108.0444	2.5
109.0285	2.6
109.0393	0.8
109.0649	1.3
110.0350	6.8
112.0392	0.8
119.0492	5.9
121.0285	8.2
121.0647	0.9
122.0240	0.8
122.0373	1.2
122.0601	2.7
123.0442	2.5
130.0401	1.2
135.0443	8.8
135.0807	1.2
136.0511	1.8
136.0758	2.8
137.0232	2.8
137.0599	48.7
137.0697	2.1
137.0819	1.2
138.0300	20.9
138.0550	6.8
138.0640	3.5
138.0915	8.6
139.0317	0.7
151.0393	1.3
155.0354	3.0
156.0407	4.9
156.0556	1.6
163.0391	14.8
164.0436	1.3
166.0124	8.3
179.0331	0.8
179.0564	0.8
180.0294	4.5
180.0662	2.8
181.0021	0.8
181.0180	0.8
181.0232	1.1
181.0359	100.0
181.0504	23.8
181.0971	2.2
181.9911	2.9
182.0400	4.1
182.0816	2.7
183.0303	1.3
183.0661	3.0

Name: 2-Methylcitric acid
PrecursorMZ: 189.03985
RT: 8.2251
ExactMass: 206.04265265
Spectrum_type: 2
charge: -1
Formula: C7H10O7
SMILES: CC(C(=O)O)C(CC(=O)O)(C(=O)O)O
Method: HCD
Collision_energy: [28.333334]
Isolation_window: 4.0
Ion_mode: N
Num Peaks: 16
59.0130	12.8
72.9922	6.1
85.0285	18.0
87.0079	5.7
102.0552	11.9
116.0710	8.2
128.0345	18.3
129.0186	17.6
144.0660	7.4
145.0501	38.9
173.0452	10.5
188.0561	12.1
188.0919	6.7
189.0403	23.9
189.0762	11.8
191.0556	100.0

Name: 2-Methylglutaric Acid
PrecursorMZ: 129.05485
RT: 4.1772
ExactMass: 146.0579088
Spectrum_type: 2
charge: -1
Formula: C6H10O4
SMILES: CC(CCC(=O)O)C(=O)O
Method: HCD
Collision_energy: [28.333334]
Isolation_window: 4.0
Ion_mode: N
Num Peaks: 11
69.0337	2.9
85.0286	31.2
85.0650	100.0
101.0235	13.1
113.0598	2.6
128.0345	7.9
129.0186	12.8
129.0549	5.1
130.0868	2.1
130.9304	5.3
131.0706	80.4

Name: 2-Methylhippuric Acid
PrecursorMZ: 192.06603
RT: 3.0654
ExactMass: 193.07389321
Spectrum_type: 2
charge: -1
Formula: C10H11NO3
SMILES: CC1=CC=CC=C1C(=O)NCC(=O)O
Method: HCD
Collision_energy: [28.333334]
Isolation_window: 4.0
Ion_mode: N
Num Peaks: 73
79.9565	33.0
80.0496	1.3
80.9643	100.0
81.9522	1.4
82.9600	2.8
89.0235	1.9
91.0544	4.1
93.0338	1.2
94.0290	1.1
96.9594	1.3
106.9798	1.9
107.0494	1.4
108.0447	2.5
109.0286	19.8
110.0319	1.3
112.0507	1.2
119.0495	2.6
120.0448	2.4
121.0652	2.0
122.0604	1.6
131.0496	1.0
132.9959	1.2
135.0083	1.2
135.0448	2.0
137.0347	0.9
137.0710	1.6
145.0399	3.1
146.0437	13.2
146.0602	1.4
147.0446	15.6
147.0558	3.0
147.0810	2.5
148.0388	2.1
148.0486	1.0
148.0760	16.5
149.0236	4.0
149.0350	3.0
149.0604	4.5
149.0806	1.1
149.0962	1.0
150.0224	2.0
150.0551	3.9
150.0917	2.8
162.0557	1.4
164.0711	1.5
165.0549	1.3
165.1032	1.2
175.0394	1.8
190.0176	1.3
190.0871	1.5
191.0014	24.8
191.0345	2.2
191.0699	4.4
191.0833	2.9
191.1058	1.3
191.1196	1.6
192.0048	1.6
192.0307	1.1
192.0331	22.2
192.0660	29.6
192.1016	2.1
192.9969	1.2
193.0171	31.6
193.0353	4.3
193.0501	12.2
193.0692	3.3
193.0863	2.0
193.1226	3.4
194.0129	1.4
194.0267	1.0
194.0445	3.7
194.0460	3.2
194.0815	3.7

Name: 2-Octenoic acid
PrecursorMZ: 125.09634
RT: 6.3747
ExactMass: 142.099379685
Spectrum_type: 2
charge: -1
Formula: C8H14O2
SMILES: CCCCC/C=C\C(=O)O
Method: HCD
Collision_energy: [28.333334]
Isolation_window: 4.0
Ion_mode: N
Num Peaks: 6
79.9565	88.3
97.0649	41.5
123.0808	40.7
123.9013	100.0
125.0965	71.9
125.8991	88.1

Name: 2-Phenylethanol
PrecursorMZ: 367.22562
RT: 4.5922
ExactMass: 122.073164938
Spectrum_type: 2
charge: -1
Formula: C8H10O
SMILES: C1=CC=C(C=C1)CCO
Method: HCD
Collision_energy: [28.333334]
Isolation_window: 4.0
Ion_mode: N
Num Peaks: 9
96.9593	11.2
329.2330	4.9
331.2492	100.0
332.2526	15.8
367.0335	5.8
367.1775	9.7
367.2132	11.7
369.1372	4.9
369.2281	7.0

Name: 2-Phenylglycine
PrecursorMZ: 196.06143
RT: 7.40505
ExactMass: 151.06332853
Spectrum_type: 2
charge: -1
Formula: C8H9NO2
SMILES: C1=CC=C(C=C1)C(C(=O)O)N
Method: HCD
Collision_energy: [28.333334]
Isolation_window: 4.0
Ion_mode: N
Num Peaks: 93
55.0180	0.7
59.0129	2.7
66.0340	1.8
71.0128	1.3
72.9921	0.6
73.0286	0.9
74.0238	0.7
75.0078	1.1
78.9580	0.6
79.9563	1.8
80.9641	1.9
82.0289	1.1
84.0446	0.8
85.0285	1.0
87.0078	1.0
89.0233	0.5
91.0391	1.0
93.0335	0.6
94.0289	2.8
95.0492	0.5
95.9750	3.2
96.0079	1.0
96.9591	4.3
97.0285	0.6
98.0238	0.8
101.0234	0.7
107.0493	3.0
108.0445	3.6
109.0160	0.6
109.0288	1.1
109.0399	2.6
109.0649	3.0
110.0080	0.6
110.0115	0.5
110.0238	100.0
110.0362	0.7
110.0398	0.5
110.0597	0.7
111.0077	1.9
111.0270	4.9
111.0440	2.9
112.0030	2.0
112.0395	1.4
114.0551	0.9
116.0706	2.7
121.0496	1.0
122.0602	0.7
123.0445	0.9
123.0554	0.5
124.0393	1.2
125.0235	0.8
125.0595	0.8
126.0554	0.5
127.0503	1.7
129.0185	0.6
134.0603	0.7
135.0445	1.8
135.0807	1.3
136.0520	1.2
137.0230	0.5
140.0461	0.7
150.0549	1.6
151.0393	4.4
151.0756	2.2
151.0870	0.7
152.0344	4.9
152.0703	2.1
153.0186	0.6
153.0397	0.6
153.0549	4.5
153.0661	1.7
153.0913	6.0
154.0501	1.0
154.0612	0.7
154.0862	0.5
165.0186	0.5
179.0704	2.4
180.0280	0.8
182.0217	0.7
194.0634	3.1
195.0309	1.9
195.0507	2.9
195.0657	2.8
196.0272	3.8
196.0602	2.4
197.0111	0.7
197.0240	0.5
197.0449	2.9
197.0658	0.7
197.0813	4.0
197.1153	0.9
198.0404	1.6
198.0751	0.8

Name: 2-Phosphoglyceric acid
PrecursorMZ: 184.98491
RT: 5.5086
ExactMass: 185.99293956
Spectrum_type: 2
charge: -1
Formula: C3H7O7P
SMILES: C(C(C(=O)O)OP(=O)(O)O)O
Method: HCD
Collision_energy: [28.333334]
Isolation_window: 4.0
Ion_mode: N
Num Peaks: 14
65.0135	3.4
78.9580	100.0
88.9870	31.4
96.9686	41.9
125.0961	4.3
125.9359	4.0
137.9044	4.6
166.9728	2.9
166.9829	4.6
184.9845	25.5
185.1173	5.7
185.1533	4.3
186.0299	8.5
186.1120	6.7

Name: 25-Hydroxycholesterol
PrecursorMZ: 403.35811
RT: 1.146
ExactMass: 402.349780706
Spectrum_type: 2
charge: -1
Formula: C27H46O2
SMILES: C[C@H](CCCC(C)(C)O)[C@H]1CC[C@@H]2[C@@]1(CC[C@H]3[C@H]2CC=C4[C@@]3(CC[C@@H](C4)O)C)C
Method: HCD
Collision_energy: [28.333334]
Isolation_window: 4.0
Ion_mode: N
Num Peaks: 5
401.3431	1.8
402.3474	2.9
403.3586	100.0
404.3619	27.7
405.3655	2.4

Name: 3'-Hydroxyphenylacetic acid
PrecursorMZ: 151.03936
RT: 5.0799
ExactMass: 152.047344113
Spectrum_type: 2
charge: -1
Formula: C8H8O3
SMILES: C1=CC(=CC(=C1)O)CC(=O)O
Method: HCD
Collision_energy: [28.333334]
Isolation_window: 4.0
Ion_mode: N
Num Peaks: 13
107.0493	100.0
108.0445	11.3
108.0527	7.3
109.0285	4.2
118.8989	15.1
123.0441	4.6
150.0555	4.9
151.0255	12.3
151.0392	60.2
151.0507	6.8
151.0756	6.2
152.0334	7.5
152.0706	5.5

Name: 3,4',7-Trihydroxyflavone
PrecursorMZ: 269.04551
RT: 2.7102000000000004
ExactMass: 270.05282342
Spectrum_type: 2
charge: -1
Formula: C15H10O5
SMILES: C1=CC(=CC=C1C2=C(C(=O)C3=C(O2)C=C(C=C3)O)O)O
Method: HCD
Collision_energy: [28.333334]
Isolation_window: 4.0
Ion_mode: N
Num Peaks: 20
79.9564	2.1
96.9592	13.0
117.0332	2.3
149.0238	3.1
151.0032	3.3
225.0557	2.6
267.1333	41.4
267.1934	2.0
267.6348	18.9
268.1410	49.6
268.1999	2.1
268.6429	16.1
269.0455	100.0
269.0956	3.4
269.1420	4.4
269.1450	4.8
269.2119	4.1
269.2480	5.4
270.0488	16.1
271.0826	2.6

Name: 3,4,5-Trimethoxycinnamic acid
PrecursorMZ: 237.07604
RT: 1.6065
ExactMass: 238.08412354
Spectrum_type: 2
charge: -1
Formula: C12H14O5
SMILES: COC1=CC(=CC(=C1OC)OC)/C=C/C(=O)O
Method: HCD
Collision_energy: [28.333334]
Isolation_window: 4.0
Ion_mode: N
Num Peaks: 43
59.0130	3.3
66.0340	2.7
79.0544	4.1
79.9564	3.7
80.9643	2.9
87.0079	27.9
94.0289	22.0
95.0494	2.3
97.0287	2.5
112.0394	5.5
113.0236	3.3
121.0653	3.2
123.0442	2.9
135.0809	7.4
137.0601	4.7
148.0520	4.4
149.0601	100.0
149.0956	3.4
150.0315	6.6
150.0639	8.6
151.0759	4.9
162.0553	5.3
163.0754	3.5
164.1075	7.1
165.0552	6.7
175.0760	9.1
179.0708	7.5
180.0421	3.3
191.0718	3.7
192.0649	3.1
193.0501	3.5
193.0859	8.3
193.1224	5.8
208.0975	5.1
209.0451	12.3
236.0955	2.8
237.0415	6.4
237.0769	38.8
237.1137	21.7
238.0750	8.0
238.1116	3.0
239.0560	18.8
239.0927	8.9

Name: 3,4-Dimethoxycinnamic acid
PrecursorMZ: 207.06557
RT: 2.5938
ExactMass: 208.07355886
Spectrum_type: 2
charge: -1
Formula: C11H12O4
SMILES: COC1=C(C=C(C=C1)/C=C/C(=O)O)OC
Method: HCD
Collision_energy: [28.333334]
Isolation_window: 4.0
Ion_mode: N
Num Peaks: 32
79.0543	1.2
79.9563	4.3
80.9642	3.6
81.0336	0.9
96.9591	3.1
97.0285	1.6
98.0238	1.0
119.0857	3.5
121.0649	9.5
122.0363	4.7
122.0685	0.6
123.0442	21.3
124.0475	1.5
135.0806	1.4
145.0650	4.2
163.0756	30.5
164.0694	1.2
164.0793	2.6
165.0548	1.6
180.0328	0.6
189.0548	1.6
206.0121	2.7
206.0781	8.5
206.5795	2.2
207.0126	0.8
207.0337	1.1
207.0656	100.0
207.1063	0.7
208.0283	1.8
208.0693	12.2
209.0454	1.1
209.0694	1.2

Name: 3,5-Dihydroxybenzoic Acid
PrecursorMZ: 153.01862
RT: 6.2453
ExactMass: 154.02660867
Spectrum_type: 2
charge: -1
Formula: C7H6O4
SMILES: C1=C(C=C(C=C1O)O)C(=O)O
Method: HCD
Collision_energy: [28.333334]
Isolation_window: 4.0
Ion_mode: N
Num Peaks: 9
84.0082	3.5
108.0447	20.9
109.0286	100.0
110.0319	5.7
124.0396	1.9
152.0345	5.6
153.0187	20.1
154.0499	2.4
154.0869	2.4

Name: 3,7-Dimethyluric Acid
PrecursorMZ: 197.06751
RT: 4.90225
ExactMass: 196.05964013
Spectrum_type: 2
charge: -1
Formula: C7H8N4O3
SMILES: CN1C2=C(NC1=O)N(C(=O)NC2=O)C
Method: HCD
Collision_energy: [28.333334]
Isolation_window: 4.0
Ion_mode: N
Num Peaks: 48
59.0129	1.8
72.9922	1.5
79.9564	4.6
80.9643	30.1
83.0240	1.6
85.0286	3.6
87.0079	2.5
88.0396	1.6
94.0289	1.9
96.0448	1.6
97.0288	2.6
97.0398	8.4
106.9800	5.9
109.0649	1.8
110.0352	1.6
110.0603	12.0
121.0287	1.5
122.0604	4.1
123.0445	1.4
124.0396	7.6
125.0601	1.5
135.0446	2.6
137.0606	1.8
138.0549	2.7
140.0458	7.2
152.0707	2.8
153.0550	3.6
153.0667	2.2
153.1026	3.8
154.0500	8.3
154.0616	1.7
169.0726	3.3
179.0015	3.3
180.0281	2.3
181.0498	2.1
195.0519	3.9
196.0105	1.5
196.0280	25.3
196.0548	3.7
197.0123	38.6
197.0289	1.9
197.0486	7.7
197.0674	100.0
198.0158	1.5
198.0400	2.2
198.0709	7.1
199.0596	4.5
199.0970	2.5

Name: 3-(3'-Hydroxyphenyl)propionic acid
PrecursorMZ: 165.05502
RT: 4.8911
ExactMass: 166.062994177
Spectrum_type: 2
charge: -1
Formula: C9H10O3
SMILES: C1=CC(=CC(=C1)O)CCC(=O)O
Method: HCD
Collision_energy: [28.333334]
Isolation_window: 4.0
Ion_mode: N
Num Peaks: 19
59.0130	1.0
79.9564	1.4
91.0391	0.7
93.0335	0.9
106.0415	0.8
107.0496	1.2
119.0494	53.3
120.0527	4.5
121.0287	10.5
121.0651	100.0
121.0834	0.8
122.0684	8.0
148.9723	0.8
164.8949	1.3
165.0191	1.0
165.0431	0.8
165.0550	22.8
166.0538	5.5
166.9829	0.9

Name: 3-Hydroxyacetaminophen
PrecursorMZ: 393.12998
RT: 5.029
ExactMass: 167.058243149
Spectrum_type: 2
charge: -1
Formula: C8H9NO3
SMILES: CC(=O)NC1=CC(=C(C=C1)O)O
Method: HCD
Collision_energy: [28.333334]
Isolation_window: 4.0
Ion_mode: N
Num Peaks: 141
59.0129	4.6
61.9874	0.9
69.0336	0.9
71.0128	2.6
72.9922	3.0
73.0285	2.0
74.0237	2.8
75.0078	1.6
78.9581	4.7
79.9564	13.0
80.9642	4.5
83.0128	0.8
83.0492	0.8
84.0445	0.8
85.0285	2.6
86.0238	0.9
87.0078	6.5
88.0394	2.9
89.0234	1.7
93.0337	2.1
94.0288	2.5
94.9799	10.7
96.0081	1.1
96.9591	10.5
96.9689	0.9
97.0287	1.3
98.0238	1.8
99.0079	0.8
99.0442	1.7
100.0392	1.0
101.0235	1.8
106.0403	1.7
107.0492	2.2
108.0445	1.0
109.0164	1.0
109.0285	1.6
110.0239	1.3
111.0192	1.5
111.0442	1.8
112.0397	1.8
113.0234	1.9
113.0347	2.5
114.0186	1.3
114.0551	4.9
115.0024	1.0
115.0389	1.1
116.0708	3.0
119.0493	20.5
120.0524	1.5
121.0288	0.9
121.0649	16.8
122.0682	1.5
123.0443	1.7
124.0395	2.3
125.0235	1.1
125.0597	1.0
126.0551	0.9
127.0503	1.6
128.0344	4.6
129.0187	1.1
130.0864	6.0
135.0444	2.2
136.0396	1.6
136.0757	1.0
137.0233	1.1
137.0598	1.3
138.0550	1.3
139.0061	3.2
139.0392	1.0
140.0711	1.0
141.0661	0.8
142.0500	1.6
145.0606	1.7
147.0445	1.5
149.0597	1.3
151.0255	1.3
151.0391	1.6
151.0505	1.7
151.0872	0.9
153.0547	1.2
155.0344	0.9
155.0819	0.9
156.0654	1.0
161.0449	0.8
161.0598	1.3
163.0392	1.7
164.0705	3.7
165.0549	100.0
166.0586	8.7
166.0860	1.0
167.0341	0.8
173.0452	2.0
177.0915	0.9
179.0346	0.8
180.0649	2.5
181.0501	1.5
184.0608	10.9
187.1082	1.1
189.0550	0.8
190.0868	0.8
191.0553	0.9
191.0730	1.0
193.0976	0.9
195.0501	1.2
195.0658	0.8
201.0888	0.9
210.0761	1.0
216.0659	1.8
227.0669	43.7
227.1272	4.4
228.0699	4.0
229.0841	0.8
232.0591	2.0
234.0872	1.5
260.0938	1.0
263.0966	0.9
301.1089	1.3
348.1148	0.8
348.1530	0.9
350.1289	0.9
350.1687	0.9
357.1456	0.9
359.0289	1.1
391.1364	1.0
391.1868	5.1
391.2829	1.6
392.1397	8.3
392.1809	4.7
392.6524	0.8
393.1257	9.2
393.1937	17.1
394.1146	1.8
394.1186	5.1
394.1586	5.4
394.1983	5.2
395.0088	5.2
395.1022	2.7
395.1438	0.9
395.1518	4.2
395.1908	2.3
395.2011	2.1

Name: 3-Hydroxyanthranilic Acid
PrecursorMZ: 152.03462
RT: 2.0346
ExactMass: 153.042593085
Spectrum_type: 2
charge: -1
Formula: C7H7NO3
SMILES: C1=CC(=C(C(=C1)O)N)C(=O)O
Method: HCD
Collision_energy: [28.333334]
Isolation_window: 4.0
Ion_mode: N
Num Peaks: 5
108.0446	100.0
109.0479	5.9
126.0553	3.0
152.0346	39.1
153.0380	2.1

Name: 3-Hydroxybenzaldehyde
PrecursorMZ: 121.02847
RT: 3.0381
ExactMass: 122.03677943
Spectrum_type: 2
charge: -1
Formula: C7H6O2
SMILES: C1=CC(=CC(=C1)O)C=O
Method: HCD
Collision_energy: [28.333334]
Isolation_window: 4.0
Ion_mode: N
Num Peaks: 51
65.0135	0.8
65.9975	0.4
69.1555	0.3
69.2305	0.3
69.2328	0.3
69.2503	0.3
69.2980	0.2
69.3346	0.3
69.3653	0.3
69.4701	0.3
69.4847	0.2
69.4903	0.2
69.5202	0.3
76.9690	0.7
79.0292	0.9
79.9564	2.8
82.0161	0.4
91.0178	0.4
92.0244	0.3
93.0336	2.4
94.0290	0.3
94.9796	0.7
95.0129	0.4
97.4627	0.2
97.4659	0.4
107.0113	0.3
108.0207	1.4
108.9952	0.9
118.9252	0.8
118.9323	0.2
119.0160	1.0
119.0488	0.4
119.0606	0.4
120.0197	0.9
120.0448	0.4
120.0557	9.8
120.9954	2.1
121.0102	0.5
121.0142	0.5
121.0285	100.0
121.0428	0.5
121.0469	0.7
121.0511	2.4
121.0593	0.7
121.0651	0.3
122.0238	0.4
122.0318	8.2
122.0350	1.0
122.0602	0.8
123.0113	0.4
123.0442	0.3

Name: 3-Hydroxybenzoic Acid
PrecursorMZ: 137.02362
RT: 5.0354
ExactMass: 138.031694049
Spectrum_type: 2
charge: -1
Formula: C7H6O3
SMILES: C1=CC(=CC(=C1)O)C(=O)O
Method: HCD
Collision_energy: [28.333334]
Isolation_window: 4.0
Ion_mode: N
Num Peaks: 8
93.0336	17.7
109.9413	4.5
135.8940	28.2
135.9443	2.9
135.9704	3.4
136.8910	100.0
137.0238	4.8
137.8910	10.2

Name: 3-Hydroxydecanoic acid
PrecursorMZ: 187.1334
RT: 1.8778
ExactMass: 188.1412445
Spectrum_type: 2
charge: -1
Formula: C10H20O3
SMILES: CCCCCCCC(CC(=O)O)O
Method: HCD
Collision_energy: [28.333334]
Isolation_window: 4.0
Ion_mode: N
Num Peaks: 9
59.0130	100.0
79.9564	6.6
80.9643	33.5
97.0285	10.5
125.0236	24.3
187.1335	23.8
188.0018	19.3
188.0349	7.1
188.9858	17.6

Name: 3-Hydroxyhippuric Acid
PrecursorMZ: 213.08768
RT: 5.0205
ExactMass: 195.05315777
Spectrum_type: 2
charge: -1
Formula: C9H9NO4
SMILES: C1=CC(=CC(=C1)O)C(=O)NCC(=O)O
Method: HCD
Collision_energy: [28.333334]
Isolation_window: 4.0
Ion_mode: N
Num Peaks: 26
84.0446	11.1
94.0290	12.2
97.0398	16.6
98.0238	11.4
112.0508	8.1
114.0552	22.7
114.9356	7.7
116.0709	16.6
124.0757	7.1
128.0346	59.3
129.1025	18.4
150.0551	7.5
168.0659	9.5
168.1137	31.9
169.0977	100.0
170.1018	8.4
171.0768	12.3
171.1498	9.0
212.0554	8.4
212.1069	21.6
213.0890	53.2
213.1241	9.8
214.0724	11.7
215.0095	7.0
215.0558	10.1
215.1402	31.3

Name: 3-Hydroxypyridine
PrecursorMZ: 94.02879
RT: 2.4219
ExactMass: 95.037113783
Spectrum_type: 2
charge: -1
Formula: C5H5NO
SMILES: C1=CC(=CN=C1)O
Method: HCD
Collision_energy: [28.333334]
Isolation_window: 4.0
Ion_mode: N
Num Peaks: 15
65.0136	0.8
66.0340	1.6
76.9610	0.8
76.9691	100.0
76.9784	0.6
76.9910	0.4
77.9686	1.3
93.0085	2.2
93.0335	0.5
94.0288	27.1
94.9670	0.5
94.9697	0.5
94.9796	78.3
95.0320	1.5
95.9792	0.9

Name: 3-Hydroxyvaleric acid
PrecursorMZ: 117.0548
RT: 4.607799999999999
ExactMass: 118.062994177
Spectrum_type: 2
charge: -1
Formula: C5H10O3
SMILES: CCC(CC(=O)O)O
Method: HCD
Collision_energy: [28.333334]
Isolation_window: 4.0
Ion_mode: N
Num Peaks: 11
59.0129	1.1
71.0493	3.8
99.9249	16.8
100.9250	1.8
115.9199	1.3
116.0247	1.1
116.9277	100.0
116.9449	0.8
117.0548	3.6
117.9278	11.9
118.9255	2.1

Name: 3-Indoleacrylic acid
PrecursorMZ: 246.07696
RT: 2.6398
ExactMass: 187.06332853
Spectrum_type: 2
charge: -1
Formula: C11H9NO2
SMILES: C1=CC=C2C(=C1)C(=CN2)/C=C/C(=O)O
Method: HCD
Collision_energy: [28.333334]
Isolation_window: 4.0
Ion_mode: N
Num Peaks: 14
80.9644	19.9
98.0239	80.6
111.0318	85.7
116.0710	23.5
130.0864	26.5
147.0445	16.3
164.0708	17.9
184.0763	100.0
202.0871	75.3
246.0776	30.4
247.0613	17.9
247.1191	16.8
248.0787	21.1
248.1282	20.7

Name: 3-Methoxy-dl-tyrosine
PrecursorMZ: 210.0767
RT: 8.1639
ExactMass: 211.0844579
Spectrum_type: 2
charge: -1
Formula: C10H13NO4
SMILES: COC1=C(C=CC(=C1)CC(C(=O)O)N)O
Method: HCD
Collision_energy: [28.333334]
Isolation_window: 4.0
Ion_mode: N
Num Peaks: 92
59.0130	4.0
66.0340	49.7
67.0374	1.8
69.0337	0.9
71.0130	2.1
72.9923	1.4
79.9565	61.9
80.0497	1.2
80.9643	20.4
81.0449	3.1
81.9523	4.3
82.0289	2.1
82.9601	3.2
83.0494	3.5
84.0446	1.0
85.0286	6.3
87.0080	1.4
88.0395	0.8
93.0449	2.0
94.0289	7.6
96.0446	3.6
96.9592	7.6
97.0034	1.2
97.0287	1.2
99.0443	2.7
108.0447	14.6
109.0287	1.7
109.0400	2.7
109.0481	1.4
109.0650	1.4
109.0761	0.9
110.0239	100.0
110.0602	1.7
111.0196	1.2
111.0272	4.8
111.0441	1.8
112.0396	4.5
114.0553	1.7
116.0708	1.2
121.0651	1.9
122.0604	4.6
122.0969	1.1
123.0443	3.3
123.0554	1.4
124.0397	44.7
124.0504	5.2
124.0758	4.2
125.0348	4.6
125.0433	2.5
126.0664	0.9
127.0392	1.9
128.0345	1.8
129.0549	3.4
132.0656	2.4
137.0601	1.6
137.0714	1.2
138.0552	1.4
147.0115	20.2
148.0145	1.0
149.0070	0.9
150.0554	1.6
164.0709	1.4
165.0223	1.3
165.0546	2.3
165.0668	2.0
166.0500	3.6
166.0855	2.0
166.0987	2.2
167.0342	2.9
167.0704	1.4
167.0823	1.6
167.1066	1.4
168.0658	10.0
191.0015	11.2
192.0781	2.4
208.0194	1.4
208.0977	1.1
208.5207	2.5
209.0122	47.6
209.0448	1.6
210.0152	3.4
210.0415	0.8
210.0752	15.5
211.0085	1.8
211.0276	2.3
211.0606	1.2
211.0763	1.6
211.0796	1.2
211.1338	1.1
212.0231	4.7
212.0554	3.2
212.0896	1.7

Name: 3-Methyl-2-butenoic acid
PrecursorMZ: 101.05986
RT: 4.0247
ExactMass: 100.052429494
Spectrum_type: 2
charge: -1
Formula: C5H8O2
SMILES: CC(=CC(=O)O)C
Method: HCD
Collision_energy: [28.333334]
Isolation_window: 4.0
Ion_mode: N
Num Peaks: 3
99.9249	8.4
101.0599	100.0
102.0632	6.5

Name: 3-Methylbutanal
PrecursorMZ: 131.07052
RT: 0.9982
ExactMass: 86.073164938
Spectrum_type: 2
charge: -1
Formula: C5H10O
SMILES: CC(C)CC=O
Method: HCD
Collision_energy: [28.333334]
Isolation_window: 4.0
Ion_mode: N
Num Peaks: 16
59.0130	16.9
73.0287	3.9
85.0650	100.0
86.0683	6.5
87.0442	10.7
97.4382	3.3
97.4413	3.6
99.0079	22.4
115.9199	20.4
130.0867	3.6
130.9304	12.1
131.0706	70.2
132.0740	5.7
132.8672	3.7
132.9289	3.1
133.0501	3.2

Name: 3-Methylglutaric acid
PrecursorMZ: 145.051
RT: 7.249
ExactMass: 146.0579088
Spectrum_type: 2
charge: -1
Formula: C6H10O4
SMILES: CC(CC(=O)O)CC(=O)O
Method: HCD
Collision_energy: [28.333334]
Isolation_window: 4.0
Ion_mode: N
Num Peaks: 5
83.0493	12.2
101.0599	100.0
102.0631	8.3
127.0389	8.0
145.0499	21.3

Name: 3-Methylxanthine
PrecursorMZ: 165.04128
RT: 4.7497375
ExactMass: 166.04907545
Spectrum_type: 2
charge: -1
Formula: C6H6N4O2
SMILES: CN1C2=C(C(=O)NC1=O)NC=N2
Method: HCD
Collision_energy: [28.333334]
Isolation_window: 4.0
Ion_mode: N
Num Peaks: 19
108.0197	1.0
119.0492	1.2
120.0445	0.8
121.0287	1.3
121.0647	0.9
122.0352	2.9
122.0604	0.9
140.0457	1.0
147.0444	1.5
150.0179	2.2
164.0016	4.9
164.0338	1.1
164.0712	0.9
165.0185	1.4
165.0411	100.0
165.0645	1.0
166.0153	1.0
166.0442	4.7
167.0350	4.9

Name: 3-Oxochola-4,6-dien-24-oic Acid
PrecursorMZ: 369.24308
RT: 1.9644
ExactMass: 370.25079494
Spectrum_type: 2
charge: -1
Formula: C24H34O3
SMILES: C[C@H](CCC(=O)O)[C@H]1CC[C@@H]2[C@@]1(CC[C@H]3[C@H]2C=CC4=CC(=O)CC[C@]34C)C
Method: HCD
Collision_energy: [28.333334]
Isolation_window: 4.0
Ion_mode: N
Num Peaks: 5
367.3586	2.9
369.2430	100.0
370.2465	25.5
371.2588	77.9
371.3137	5.8

Name: 3-Oxocholic acid
PrecursorMZ: 405.2653
RT: 1.3782
ExactMass: 406.27192431
Spectrum_type: 2
charge: -1
Formula: C24H38O5
SMILES: C[C@H](CCC(=O)O)[C@H]1CC[C@@H]2[C@@]1([C@H](C[C@H]3[C@H]2[C@@H](C[C@H]4[C@@]3(CCC(=O)C4)C)O)O)C
Method: HCD
Collision_energy: [28.333334]
Isolation_window: 4.0
Ion_mode: N
Num Peaks: 124
57.0338	0.4
59.0130	3.5
61.9875	5.4
69.0337	0.6
71.0130	0.8
71.0494	0.5
72.9923	0.3
73.0286	0.4
74.0238	0.9
79.9564	0.3
80.9642	0.3
83.0494	0.6
84.0445	0.3
85.0285	0.4
87.0079	0.6
88.0395	0.7
89.0235	0.2
94.0290	0.2
96.0082	0.4
97.0284	0.3
97.0650	0.3
99.0442	0.5
101.0235	0.3
108.0447	0.3
109.0284	0.3
109.0398	0.3
109.0650	0.4
110.0238	0.3
111.0443	0.3
112.0396	0.3
112.0509	0.2
113.0235	0.3
113.0349	0.6
114.0552	2.8
115.0394	0.3
116.0709	0.8
119.0495	0.3
122.0603	0.3
123.0443	0.3
124.0397	0.3
124.0763	0.3
127.0395	0.3
127.0504	1.8
128.0345	1.4
129.1025	0.5
130.0866	4.4
134.0968	0.5
135.0445	0.4
136.0759	0.2
139.0871	0.3
145.0612	1.6
146.0608	0.3
147.0447	0.5
154.0613	0.4
162.0917	1.4
164.0710	1.9
167.0822	0.5
169.0981	0.3
173.0452	0.2
177.1032	0.3
180.0646	0.3
186.1242	0.4
195.0650	0.3
196.1453	0.2
199.1818	0.4
217.1601	0.2
222.0880	0.3
231.1144	0.3
232.1348	0.3
236.0692	1.6
240.1353	0.3
243.1718	0.4
256.2030	0.9
257.1645	0.3
259.1479	0.4
259.1823	0.7
275.1405	0.6
287.1758	0.4
294.1110	0.7
315.1952	0.3
317.2490	0.3
319.1916	0.2
325.2527	0.7
338.1010	0.6
341.2485	0.8
342.2500	0.5
343.2259	0.5
343.2645	2.7
344.2658	0.6
345.2434	0.7
345.2801	0.3
357.2438	0.4
359.2597	3.4
360.2627	0.9
361.2362	0.7
361.2756	4.4
362.2413	0.3
362.2792	1.1
363.2544	0.8
369.2446	1.0
379.2857	0.3
385.2396	0.4
387.2147	0.3
387.2550	1.5
388.2624	0.4
389.2308	0.6
403.2101	0.3
403.2487	5.6
404.1400	0.2
404.1714	0.5
404.1873	1.0
404.1967	1.0
404.2105	0.3
404.2536	3.2
405.0933	1.2
405.1724	2.3
405.2221	5.0
405.2652	100.0
406.1504	0.7
406.2708	24.0
406.3102	0.3
407.1703	2.4
407.2831	25.6
425.2917	0.4

Name: 3-Phenoxypropionic acid
PrecursorMZ: 315.12389
RT: 4.9635
ExactMass: 166.062994177
Spectrum_type: 2
charge: -1
Formula: C9H10O3
SMILES: C1=CC=C(C=C1)OCCC(=O)O
Method: HCD
Collision_energy: [28.333334]
Isolation_window: 4.0
Ion_mode: N
Num Peaks: 66
59.0130	0.9
72.9923	0.5
74.0238	0.5
75.0079	4.8
87.0442	0.3
93.0336	0.5
95.0493	0.4
106.0420	0.7
107.0495	0.3
116.0708	0.8
121.0287	3.2
130.0865	0.8
135.0809	0.4
145.0652	1.2
147.0444	1.2
147.0806	0.4
148.0759	0.4
149.0601	2.5
153.0912	0.4
192.0417	0.4
199.1122	0.4
225.0919	0.5
228.1722	0.4
241.0727	0.7
241.0827	0.7
241.1233	96.8
241.1642	0.5
241.1747	0.7
242.1267	15.7
243.1292	1.1
243.1715	0.9
255.1023	0.6
255.1160	0.4
267.1028	15.0
268.1061	2.7
271.1339	2.4
272.1372	0.3
272.1618	1.3
273.1249	0.3
281.0904	0.4
285.1134	15.1
286.1167	2.5
286.1758	0.3
297.1132	6.4
298.1166	1.2
313.1289	0.3
313.1664	0.3
314.1320	0.5
314.1692	0.3
314.2044	0.4
315.0485	0.7
315.1198	9.5
315.1240	100.0
315.1826	2.2
315.2022	0.6
315.2187	0.8
316.1231	1.6
316.1272	18.8
316.1869	1.4
317.1241	0.3
317.1300	1.4
317.1334	0.5
317.1498	1.3
317.1696	0.4
317.1753	0.5
317.1969	1.1

Name: 3-Phenylbutyric acid
PrecursorMZ: 182.11806
RT: 2.6655
ExactMass: 164.083729621
Spectrum_type: 2
charge: -1
Formula: C10H12O2
SMILES: CC(CC(=O)O)C1=CC=CC=C1
Method: HCD
Collision_energy: [28.333334]
Isolation_window: 4.0
Ion_mode: N
Num Peaks: 4
58.0290	43.2
140.1073	6.9
182.1180	10.5
184.0973	100.0

Name: 3-Phosphoglyceraldehyde
PrecursorMZ: 152.9951
RT: 6.1966
ExactMass: 169.99802494
Spectrum_type: 2
charge: -1
Formula: C3H7O6P
SMILES: C(C(C=O)O)OP(=O)(O)O
Method: HCD
Collision_energy: [28.333334]
Isolation_window: 4.0
Ion_mode: N
Num Peaks: 10
78.9581	37.1
96.9687	6.7
108.0195	4.4
108.0445	2.3
111.0194	1.6
150.9795	2.8
151.0255	15.0
152.0281	1.7
152.9951	100.0
153.9985	3.2

Name: 3-Pyridineacetic acid
PrecursorMZ: 136.03962
RT: 5.5552
ExactMass: 137.047678466
Spectrum_type: 2
charge: -1
Formula: C7H7NO2
SMILES: C1=CC(=CN=C1)CC(=O)O
Method: HCD
Collision_energy: [28.333334]
Isolation_window: 4.0
Ion_mode: N
Num Peaks: 8
92.0498	4.2
99.9247	1.8
134.8654	3.9
134.8939	100.0
135.8940	13.3
136.0397	2.2
136.8909	42.4
137.8910	3.1

Name: 3-coumaric acid, (E)-
PrecursorMZ: 163.03943
RT: 5.0261
ExactMass: 164.047344113
Spectrum_type: 2
charge: -1
Formula: C9H8O3
SMILES: C1=CC(=CC(=C1)O)/C=C/C(=O)O
Method: HCD
Collision_energy: [28.333334]
Isolation_window: 4.0
Ion_mode: N
Num Peaks: 12
59.0130	27.7
93.0337	17.9
119.0494	95.9
120.0525	8.2
121.0287	5.1
121.0651	25.3
161.8935	6.0
162.8927	17.0
163.0393	17.1
163.1121	15.2
164.8946	5.4
165.0550	100.0

Name: 4-Aminosalicylic Acid
PrecursorMZ: 152.0346
RT: 3.1809
ExactMass: 153.042593085
Spectrum_type: 2
charge: -1
Formula: C7H7NO3
SMILES: C1=CC(=C(C=C1N)O)C(=O)O
Method: HCD
Collision_energy: [28.333334]
Isolation_window: 4.0
Ion_mode: N
Num Peaks: 29
66.0340	3.4
78.9582	100.0
83.0242	3.2
84.0082	8.3
94.0289	34.1
95.0322	2.5
107.0494	3.4
107.0607	4.4
108.0446	28.0
109.0287	5.3
109.0536	2.6
109.0647	2.5
110.0605	3.5
124.0399	3.7
124.0760	3.5
125.0001	99.2
135.0443	3.9
150.0554	3.1
151.0390	3.3
151.0504	17.0
151.0756	4.2
151.0870	4.1
152.0347	6.7
152.0706	6.0
153.0195	2.5
153.0314	27.7
153.0546	5.0
154.0499	3.0
154.0866	3.4

Name: 4-Coumaric acid
PrecursorMZ: 163.03945
RT: 5.0018
ExactMass: 164.047344113
Spectrum_type: 2
charge: -1
Formula: C9H8O3
SMILES: C1=CC(=CC=C1C=CC(=O)O)O
Method: HCD
Collision_energy: [28.333334]
Isolation_window: 4.0
Ion_mode: N
Num Peaks: 16
59.0130	1.6
69.1546	1.5
93.0338	1.2
115.9199	2.4
119.0494	100.0
120.0527	8.0
121.0287	11.6
121.0650	4.2
161.8934	2.3
162.8928	7.4
163.0394	17.1
163.1124	4.8
164.0325	1.9
164.8950	1.9
165.0194	2.3
165.0549	5.1

Name: 4-Deoxythreonic acid
PrecursorMZ: 179.05573
RT: 7.0215
ExactMass: 120.04225873
Spectrum_type: 2
charge: -1
Formula: C4H8O4
SMILES: C[C@H]([C@@H](C(=O)O)O)O
Method: HCD
Collision_energy: [28.333334]
Isolation_window: 4.0
Ion_mode: N
Num Peaks: 41
59.0129	24.2
71.0129	15.0
72.0082	5.2
72.9922	4.8
73.0285	4.5
75.0078	4.3
78.9850	2.3
81.0337	4.7
83.0129	6.9
85.0285	31.8
87.0078	5.0
89.0234	45.2
92.0495	3.0
93.0337	12.2
94.0288	2.6
97.0285	9.8
99.0441	2.9
101.0235	5.9
107.0491	2.2
109.0398	4.1
115.0394	2.4
116.0166	4.1
119.0494	8.2
131.0341	25.8
134.0606	4.4
135.0444	19.1
136.0394	2.9
136.0759	10.3
137.0236	5.9
137.0599	5.0
161.0447	58.6
162.0473	4.2
163.0392	17.2
177.0395	3.7
177.0774	2.8
178.0503	3.0
179.0348	7.0
179.0555	100.0
180.0667	27.6
181.0152	5.2
181.0480	3.7

Name: 4-Heptanone
PrecursorMZ: 325.31106
RT: 1.0421
ExactMass: 114.104465066
Spectrum_type: 2
charge: -1
Formula: C7H14O
SMILES: CCCC(=O)CCC
Method: HCD
Collision_energy: [28.333334]
Isolation_window: 4.0
Ion_mode: N
Num Peaks: 6
293.6131	5.7
325.1842	31.0
325.3112	100.0
326.1875	6.4
326.3146	22.9
327.2898	7.2

Name: 4-Hydroxybenzoic Acid
PrecursorMZ: 121.02859
RT: 3.0164
ExactMass: 138.031694049
Spectrum_type: 2
charge: -1
Formula: C7H6O3
SMILES: C1=CC(=CC=C1C(=O)O)O
Method: HCD
Collision_energy: [28.333334]
Isolation_window: 4.0
Ion_mode: N
Num Peaks: 10
79.9565	6.6
93.0337	11.0
94.9800	3.0
119.0243	11.3
120.0278	2.8
120.0446	10.4
121.0287	100.0
122.0241	4.0
122.0318	10.0
122.9749	3.6

Name: 4-Hydroxyhippuric acid
PrecursorMZ: 194.04537
RT: 5.5234
ExactMass: 195.05315777
Spectrum_type: 2
charge: -1
Formula: C9H9NO4
SMILES: C1=CC(=CC=C1C(=O)NCC(=O)O)O
Method: HCD
Collision_energy: [28.333334]
Isolation_window: 4.0
Ion_mode: N
Num Peaks: 27
68.9973	2.1
79.9564	14.2
80.0496	6.0
80.9642	5.7
81.0337	4.6
94.0288	3.0
108.0446	37.6
109.0480	2.9
122.0603	4.5
132.0447	18.9
134.0353	1.8
150.0553	50.9
151.0594	3.6
151.0761	1.7
152.0346	100.0
153.0388	6.5
176.8944	3.8
193.0499	2.2
194.0008	18.2
194.0453	31.2
194.0807	3.1
194.9054	18.0
195.0327	47.9
195.0478	3.2
195.9050	2.1
195.9978	3.6
196.0363	2.3

Name: 4-Hydroxynonenal
PrecursorMZ: 139.11206
RT: 2.6396
ExactMass: 156.115029749
Spectrum_type: 2
charge: -1
Formula: C9H16O2
SMILES: CCCCCC(/C=C/C=O)O
Method: HCD
Collision_energy: [28.333334]
Isolation_window: 4.0
Ion_mode: N
Num Peaks: 3
111.9367	51.5
139.1122	100.0
141.0201	90.5

Name: 4-Methoxybenzaldehyde
PrecursorMZ: 135.04416
RT: 4.4905
ExactMass: 136.052429494
Spectrum_type: 2
charge: -1
Formula: C8H8O2
SMILES: COC1=CC=C(C=C1)C=O
Method: HCD
Collision_energy: [28.333334]
Isolation_window: 4.0
Ion_mode: N
Num Peaks: 27
66.0340	9.2
71.0128	5.5
72.9921	21.5
75.0078	48.1
79.9562	6.2
80.9642	24.6
91.0544	5.5
92.0495	100.0
93.0334	8.5
93.0527	5.9
94.0290	8.4
107.0493	35.2
108.0446	6.3
109.9411	10.1
115.9197	8.2
116.9198	11.4
133.0497	37.6
134.0364	12.2
134.0607	22.1
134.8939	5.5
135.0298	6.1
135.0443	88.9
135.0549	6.0
136.0386	12.5
136.0488	6.7
136.0756	8.5
137.0710	23.7

Name: 4-Methyl-5-(2-hydroxyethyl)thiazole
PrecursorMZ: 321.05054
RT: 1.874525
ExactMass: 143.04048508
Spectrum_type: 2
charge: -1
Formula: C6H9NOS
SMILES: CC1=C(SC=N1)CCO
Method: HCD
Collision_energy: [28.333334]
Isolation_window: 4.0
Ion_mode: N
Num Peaks: 34
59.0129	6.6
71.0128	3.8
79.9563	2.0
80.9642	1.9
85.0286	3.2
87.0078	6.0
89.0235	2.0
96.9590	3.7
101.0235	1.9
109.0160	1.7
110.0238	1.7
113.0234	2.0
128.0343	2.7
130.0861	1.9
135.0440	3.0
136.0758	2.1
137.9855	4.9
139.0062	100.0
140.0094	2.9
141.0018	2.6
164.0702	1.9
181.0358	4.3
191.0821	6.1
241.1074	2.1
258.0765	2.4
277.1458	1.7
303.0985	4.9
303.1355	1.8
319.1894	2.9
321.0663	2.0
321.1095	10.1
321.1884	3.3
322.0913	4.0
323.0801	2.2

Name: 4-Methylcinnamic Acid
PrecursorMZ: 163.07572
RT: 2.9806
ExactMass: 162.068079557
Spectrum_type: 2
charge: -1
Formula: C10H10O2
SMILES: CC1=CC=C(C=C1)/C=C/C(=O)O
Method: HCD
Collision_energy: [28.333334]
Isolation_window: 4.0
Ion_mode: N
Num Peaks: 9
59.0130	16.9
61.9875	7.9
91.0544	12.0
119.0494	26.8
121.0289	6.5
121.0649	16.1
162.0553	9.0
163.0758	100.0
164.0798	9.5

Name: 4-Methylesculetin
PrecursorMZ: 367.08153
RT: 7.4615
ExactMass: 192.04225873
Spectrum_type: 2
charge: -1
Formula: C10H8O4
SMILES: CC1=CC(=O)OC2=CC(=C(C=C12)O)O
Method: HCD
Collision_energy: [28.333334]
Isolation_window: 4.0
Ion_mode: N
Num Peaks: 15
80.9643	35.2
101.0235	9.6
113.0235	7.7
165.0661	29.5
194.9962	10.4
195.0773	11.7
221.0661	12.9
237.0881	9.5
255.0990	14.9
267.0990	6.8
285.1089	27.6
323.0987	29.2
367.0819	100.0
368.0823	13.5
369.1918	14.0

Name: 4-Morpholineethanesulfonic acid
PrecursorMZ: 194.04857
RT: 2.6615
ExactMass: 195.05652907
Spectrum_type: 2
charge: -1
Formula: C6H13NO4S
SMILES: C1COCCN1CCS(=O)(=O)O
Method: HCD
Collision_energy: [28.333334]
Isolation_window: 4.0
Ion_mode: N
Num Peaks: 24
79.9563	11.1
80.9642	10.0
92.0495	1.6
96.9590	1.6
106.9798	5.9
123.0066	1.1
124.0064	2.8
128.0711	0.9
130.0864	2.4
149.0964	1.8
150.0552	16.0
151.0593	1.2
151.0869	2.2
153.0046	9.5
162.0555	1.6
193.1221	2.5
194.0114	1.3
194.0485	100.0
194.0782	1.0
194.9961	3.2
195.0314	0.9
195.0515	7.3
196.0105	41.5
196.0447	2.5

Name: 4-O-Feruloylquinic acid
PrecursorMZ: 367.10382
RT: 4.5878
ExactMass: 368.11073221
Spectrum_type: 2
charge: -1
Formula: C17H20O9
SMILES: COC1=C(C=CC(=C1)/C=C/C(=O)OC2[C@@H](CC(C[C@H]2O)(C(=O)O)O)O)O
Method: HCD
Collision_energy: [28.333334]
Isolation_window: 4.0
Ion_mode: N
Num Peaks: 42
59.0130	1.8
71.0132	1.4
72.9923	4.3
73.0289	1.3
75.0079	1.9
85.0289	1.3
87.0079	3.5
93.0338	2.1
96.9592	1.6
97.0289	1.3
111.0443	2.5
130.0868	1.4
134.0366	32.6
135.0410	1.8
136.0760	1.9
137.0239	1.9
137.0602	2.7
139.0394	1.6
149.0601	7.8
155.0346	4.0
157.0618	1.4
157.0770	1.3
164.0711	1.5
173.0452	10.5
178.0269	4.8
193.0502	100.0
194.0538	9.6
219.0771	1.3
323.0917	2.6
365.1207	1.3
365.1944	5.7
365.2342	10.0
366.1206	2.0
366.1979	1.8
366.2372	3.5
367.1023	19.8
367.1458	1.7
367.2106	11.5
367.2490	1.8
368.1070	3.8
368.2144	2.6
369.2283	3.2

Name: 4-Pyridoxic Acid
PrecursorMZ: 182.04523
RT: 1.3636
ExactMass: 183.05315777
Spectrum_type: 2
charge: -1
Formula: C8H9NO4
SMILES: CC1=NC=C(C(=C1O)C(=O)O)CO
Method: HCD
Collision_energy: [28.333334]
Isolation_window: 4.0
Ion_mode: N
Num Peaks: 3
113.0347	24.2
138.0552	35.7
182.0452	100.0

Name: 5,6,7,4'-Tetramethoxyflavone
PrecursorMZ: 387.10838
RT: 5.864
ExactMass: 342.11033829
Spectrum_type: 2
charge: -1
Formula: C19H18O6
SMILES: COC1=CC=C(C=C1)C2=CC(=O)C3=C(C(=C(C=C3O2)OC)OC)OC
Method: HCD
Collision_energy: [28.333334]
Isolation_window: 4.0
Ion_mode: N
Num Peaks: 58
59.0129	12.4
71.0128	3.1
74.0237	3.8
87.0078	3.0
88.0394	3.7
101.0233	2.8
114.0550	8.2
116.0707	3.0
123.0441	2.6
127.0502	2.6
128.0344	5.8
130.0863	5.6
135.0443	6.1
136.0523	4.2
139.0061	7.5
148.0157	3.6
149.0236	3.2
150.0315	6.7
151.0384	2.2
151.0756	3.1
153.0549	3.9
156.0658	3.6
162.0556	2.8
163.0393	15.8
181.0978	2.2
182.0451	5.3
195.0656	100.0
196.0692	10.7
199.0753	2.3
206.0450	3.4
225.0882	2.4
227.1039	3.4
229.0860	2.3
268.1705	3.6
271.0973	6.3
297.1079	2.8
299.1275	2.3
311.0922	4.1
312.1587	5.6
313.1080	3.3
342.1707	2.2
343.1189	10.1
345.1343	7.1
345.1689	2.4
385.1711	2.1
385.2224	8.6
386.1539	3.7
386.1605	9.9
386.1921	4.7
386.2315	2.8
387.1089	8.3
387.1469	4.6
387.1904	5.7
387.2389	14.2
388.1110	2.3
388.1525	2.7
388.2422	2.4
389.1221	5.0

Name: 5,7-Dihydroxy-4-methylcoumarin
PrecursorMZ: 193.05007
RT: 6.754
ExactMass: 192.04225873
Spectrum_type: 2
charge: -1
Formula: C10H8O4
SMILES: CC1=CC(=O)OC2=CC(=CC(=C12)O)O
Method: HCD
Collision_energy: [28.333334]
Isolation_window: 4.0
Ion_mode: N
Num Peaks: 21
59.0129	4.0
71.0129	4.6
73.0286	3.3
79.9564	18.4
80.9643	100.0
89.0237	3.3
101.0235	7.3
111.0443	4.3
126.0303	3.6
131.0493	3.6
147.0444	4.7
149.0271	36.3
149.0602	27.7
151.0396	3.6
191.0560	4.9
192.0787	6.8
193.0172	30.9
193.0501	76.6
193.0697	3.4
194.0542	7.9
195.0319	3.1

Name: 5,8,11-Eicosatriynoic acid
PrecursorMZ: 299.20109
RT: 1.1749
ExactMass: 300.208930132
Spectrum_type: 2
charge: -1
Formula: C20H28O2
SMILES: CCCCCCCCC#CCC#CCC#CCCCC(=O)O
Method: HCD
Collision_energy: [28.333334]
Isolation_window: 4.0
Ion_mode: N
Num Peaks: 24
149.0084	1.5
253.2528	2.0
282.9944	4.7
283.9950	1.2
297.1539	1.3
297.2434	72.8
297.2684	2.0
297.2784	1.6
298.0477	4.2
298.1562	1.6
298.2467	30.4
299.0208	2.6
299.0247	4.9
299.0478	1.5
299.2013	100.0
299.2497	3.2
299.2555	1.8
300.0251	1.9
300.2047	20.7
301.1656	1.5
301.2119	1.4
301.2164	8.4
316.0586	1.5
317.0563	1.3

Name: 5-Aminovaleric acid
PrecursorMZ: 116.07084
RT: 9.74584375
ExactMass: 117.078978594
Spectrum_type: 2
charge: -1
Formula: C5H11NO2
SMILES: C(CCN)CC(=O)O
Method: HCD
Collision_energy: [28.333334]
Isolation_window: 4.0
Ion_mode: N
Num Peaks: 15
60.9922	38.7
72.0082	2.4
72.9688	15.8
73.0286	7.4
74.0238	3.6
89.0136	4.0
99.9249	11.0
114.9333	3.8
116.0246	9.0
116.0708	100.0
116.9277	77.2
117.0190	2.8
117.0743	6.3
117.9278	5.8
118.0402	2.9

Name: 5-Demethylnobiletin
PrecursorMZ: 267.07355
RT: 6.2884
ExactMass: 388.11581759
Spectrum_type: 2
charge: -1
Formula: C20H20O8
SMILES: COC1=C(C=C(C=C1)C2=CC(=O)C3=C(C(=C(C(=C3O2)OC)OC)OC)O)OC
Method: HCD
Collision_energy: [28.333334]
Isolation_window: 4.0
Ion_mode: N
Num Peaks: 7
151.0255	100.0
151.0503	15.6
267.0315	11.1
267.0750	12.4
267.1232	12.7
269.1172	49.5
269.1410	9.2

Name: 5-Hydroxyferulic acid
PrecursorMZ: 211.06065
RT: 2.6348
ExactMass: 210.05282342
Spectrum_type: 2
charge: -1
Formula: C10H10O5
SMILES: COC1=CC(=CC(=C1O)O)/C=C/C(=O)O
Method: HCD
Collision_energy: [28.333334]
Isolation_window: 4.0
Ion_mode: N
Num Peaks: 38
72.9923	11.1
80.9643	20.3
87.0079	6.7
98.0240	12.1
99.0441	6.7
107.0493	8.4
111.0443	11.4
111.0806	8.4
112.0397	7.3
113.0598	13.4
123.0444	8.3
123.0807	17.6
124.0508	8.6
125.0603	9.6
125.0964	6.0
136.0066	6.2
139.0394	73.3
139.1122	43.7
140.0455	28.1
140.0707	14.2
149.0600	14.6
151.0392	6.2
151.1122	7.7
153.0300	7.3
153.0549	13.8
167.0569	7.8
167.0707	19.6
168.1024	24.4
169.0502	6.4
169.1231	7.2
211.0273	20.1
211.0356	7.7
211.0609	90.2
212.0649	8.8
212.0919	9.2
213.0415	22.9
213.0772	31.7
213.1127	100.0

Name: 5-Hydroxymethyl-2-furoic acid
PrecursorMZ: 141.01986
RT: 5.5055
ExactMass: 142.02660867
Spectrum_type: 2
charge: -1
Formula: C6H6O4
SMILES: C1=C(OC(=C1)C(=O)O)CO
Method: HCD
Collision_energy: [28.333334]
Isolation_window: 4.0
Ion_mode: N
Num Peaks: 7
69.0336	11.7
97.0285	20.6
97.0649	41.1
141.0197	34.2
141.0552	8.3
143.0706	100.0
158.0604	10.2

Name: 5-Methylcytidine
PrecursorMZ: 256.09346
RT: 7.1193
ExactMass: 257.10117059
Spectrum_type: 2
charge: -1
Formula: C10H15N3O5
SMILES: CC1=CN(C(=O)N=C1N)[C@H]2[C@@H]([C@@H]([C@H](O2)CO)O)O
Method: HCD
Collision_energy: [28.333334]
Isolation_window: 4.0
Ion_mode: N
Num Peaks: 18
94.0289	1.7
110.0238	3.9
114.0551	2.3
124.0394	4.3
125.0428	2.6
128.0346	1.8
152.0821	14.8
156.0657	1.7
196.0607	2.1
212.1040	1.9
254.1223	4.6
255.0849	1.4
255.1260	1.6
255.2326	100.0
256.0957	2.4
256.2360	19.4
257.0671	2.1
257.2386	1.1

Name: 5-Methyluridine
PrecursorMZ: 257.07746
RT: 5.512
ExactMass: 258.08518617
Spectrum_type: 2
charge: -1
Formula: C10H14N2O6
SMILES: CC1=CN(C(=O)NC1=O)[C@H]2[C@@H]([C@@H]([C@H](O2)CO)O)O
Method: HCD
Collision_energy: [28.333334]
Isolation_window: 4.0
Ion_mode: N
Num Peaks: 23
59.0128	2.1
75.0077	1.4
83.0127	1.8
110.0237	1.5
124.0394	2.4
125.0346	1.8
128.0709	1.8
136.0760	3.8
167.0455	2.9
214.0712	2.6
214.1074	2.4
255.2326	100.0
256.0832	1.5
256.1196	1.2
256.2360	28.2
257.0756	4.6
257.1309	2.3
257.2385	3.4
258.0587	1.8
258.1567	1.6
259.0820	2.9
259.1190	5.7
259.1554	2.0

Name: 6-Acetylaminocaproic acid
PrecursorMZ: 172.09728
RT: 5.1591
ExactMass: 173.10519334
Spectrum_type: 2
charge: -1
Formula: C8H15NO3
SMILES: CC(=O)NCCCCCC(=O)O
Method: HCD
Collision_energy: [28.333334]
Isolation_window: 4.0
Ion_mode: N
Num Peaks: 20
83.0241	2.0
88.0395	87.3
89.0428	3.3
111.0444	2.9
113.0964	2.7
127.0755	1.7
127.1120	7.1
129.0549	1.7
130.0323	4.0
155.0343	4.1
155.1075	1.7
171.0659	2.7
171.1022	5.9
171.1381	2.2
172.0971	15.5
173.0452	11.1
173.0825	1.7
173.1049	2.6
173.1177	100.0
174.1210	6.4

Name: 6-Hydroxynicotinic acid
PrecursorMZ: 138.01887
RT: 6.0639
ExactMass: 139.026943022
Spectrum_type: 2
charge: -1
Formula: C6H5NO3
SMILES: C1=CC(=O)NC=C1C(=O)O
Method: HCD
Collision_energy: [28.333334]
Isolation_window: 4.0
Ion_mode: N
Num Peaks: 8
94.0289	100.0
95.0323	6.9
123.0319	2.1
136.0395	3.3
136.8910	22.6
137.8909	2.6
138.0189	8.2
138.0548	2.4

Name: 6-O-palmitoylascorbic acid
PrecursorMZ: 397.25969
RT: 4.8691
ExactMass: 414.26175355
Spectrum_type: 2
charge: -1
Formula: C22H38O7
SMILES: CCCCCCCCCCCCCCCC(=O)OCC(C1C(=C(C(=O)O1)O)O)O
Method: HCD
Collision_energy: [28.333334]
Isolation_window: 4.0
Ion_mode: N
Num Peaks: 17
81.9522	5.8
96.9591	7.0
101.0237	6.1
335.2588	4.8
351.2532	3.9
352.2576	4.5
353.2701	39.0
354.2740	8.0
379.2505	10.7
381.2673	5.7
395.2454	7.5
396.1984	15.0
396.2492	14.5
397.2608	100.0
398.2643	22.0
399.1459	5.6
399.2791	29.7

Name: 7-Ketolithocholic acid
PrecursorMZ: 389.26918
RT: 0.5994
ExactMass: 390.27700969
Spectrum_type: 2
charge: -1
Formula: C24H38O4
SMILES: C[C@H](CCC(=O)O)[C@H]1CC[C@@H]2[C@@]1(CC[C@H]3[C@H]2C(=O)C[C@H]4[C@@]3(CC[C@H](C4)O)C)C
Method: HCD
Collision_energy: [28.333334]
Isolation_window: 4.0
Ion_mode: N
Num Peaks: 37
73.0284	0.4
75.0077	0.4
79.9563	0.6
96.9590	3.2
99.0441	0.5
121.0646	0.3
130.0865	0.3
158.0361	0.4
173.0598	0.5
203.1071	1.0
247.0968	0.5
291.0868	1.2
327.2689	1.3
328.2719	0.3
343.2634	2.4
344.2669	0.6
345.2790	3.1
346.2825	0.6
353.2477	0.5
363.2910	0.3
371.2598	0.4
387.1800	0.2
387.2535	13.4
388.1897	0.4
388.2570	8.6
389.1302	0.3
389.1666	0.6
389.1884	0.5
389.2692	100.0
389.3487	0.6
389.3733	0.6
389.4070	0.2
390.2726	23.4
391.1404	0.6
391.1781	2.2
391.2825	5.0
407.2783	0.4

Name: 7-Methylguanine
PrecursorMZ: 164.05715
RT: 6.006031578947368
ExactMass: 165.06505986
Spectrum_type: 2
charge: -1
Formula: C6H7N5O
SMILES: CN1C=NC2=C1C(=O)NC(=N2)N
Method: HCD
Collision_energy: [28.333334]
Isolation_window: 4.0
Ion_mode: N
Num Peaks: 28
94.0287	0.7
106.0276	3.5
108.0446	1.1
119.0237	0.7
120.0448	0.6
121.0287	1.9
121.0511	10.7
122.0243	0.7
138.0553	2.3
140.0458	1.0
146.0462	0.8
147.0306	6.5
149.0088	2.4
149.0336	5.7
162.8928	1.9
163.0138	0.8
163.0506	1.8
164.0346	1.1
164.0370	1.1
164.0571	100.0
164.0704	0.9
164.0800	0.7
164.8950	0.8
165.0188	0.8
165.0410	0.9
165.0605	6.1
165.0668	2.7
166.0524	1.3

Name: 7-Methylxanthine
PrecursorMZ: 165.04109
RT: 4.7721
ExactMass: 166.04907545
Spectrum_type: 2
charge: -1
Formula: C6H6N4O2
SMILES: CN1C=NC2=C1C(=O)NC(=O)N2
Method: HCD
Collision_energy: [28.333334]
Isolation_window: 4.0
Ion_mode: N
Num Peaks: 7
108.0194	9.3
121.0286	39.7
126.0300	5.7
165.0187	5.1
165.0411	100.0
166.0427	3.1
166.0556	7.8

Name: 7alpha-Hydroxy-3-oxo-4-cholen-24-oic acid
PrecursorMZ: 387.25403
RT: 3.0080999999999998
ExactMass: 388.26135963
Spectrum_type: 2
charge: -1
Formula: C24H36O4
SMILES: C[C@H](CCC(=O)O)[C@H]1CC[C@@H]2[C@@]1(CC[C@H]3[C@H]2[C@@H](CC4=CC(=O)CC[C@]34C)O)C
Method: HCD
Collision_energy: [28.333334]
Isolation_window: 4.0
Ion_mode: N
Num Peaks: 15
325.2541	0.7
343.2643	1.5
344.2661	0.3
345.2791	0.8
369.2435	1.0
370.2488	0.4
371.2593	0.5
385.2766	0.8
386.2324	0.8
386.2845	0.9
387.2534	65.3
387.3599	0.5
388.2563	17.1
389.2699	100.0
389.3746	0.7

Name: 7alpha-Hydroxy-3-oxo-5beta-cholan-24-oic acid
PrecursorMZ: 389.26993
RT: 1.6068
ExactMass: 390.27700969
Spectrum_type: 2
charge: -1
Formula: C24H38O4
SMILES: C[C@H](CCC(=O)O)[C@H]1CC[C@@H]2[C@@]1(CC[C@H]3[C@H]2[C@@H](C[C@H]4[C@@]3(CCC(=O)C4)C)O)C
Method: HCD
Collision_energy: [28.333334]
Isolation_window: 4.0
Ion_mode: N
Num Peaks: 18
69.3855	0.4
327.2688	1.7
343.2640	2.6
344.2675	0.8
345.2798	3.6
346.2833	0.9
353.2480	0.9
363.2900	0.5
371.2599	0.5
387.2527	3.4
388.2505	0.7
388.2559	3.5
389.1648	0.6
389.2699	100.0
389.3760	0.6
390.2733	26.4
391.2799	5.6
407.2795	0.5

Name: 7beta-Hydroxylathyrol
PrecursorMZ: 349.20237
RT: 1.3815
ExactMass: 350.20932405
Spectrum_type: 2
charge: -1
Formula: C20H30O5
SMILES: C[C@H]1C[C@]2([C@H]([C@H]1O)[C@H](C(=C)[C@@H](C[C@H]3[C@H](C3(C)C)/C=C(\C2=O)/C)O)O)O
Method: HCD
Collision_energy: [28.333334]
Isolation_window: 4.0
Ion_mode: N
Num Peaks: 189
57.0337	0.4
58.0051	0.8
59.0130	1.5
69.0337	0.2
71.0130	0.3
71.0493	0.3
72.9922	0.3
73.0285	1.2
74.0238	0.3
83.0493	0.4
84.0445	0.1
85.0285	0.1
87.0079	0.2
87.0443	0.3
87.3004	0.1
88.0394	0.2
93.0335	0.2
94.0653	0.2
95.0490	0.2
96.9592	0.3
97.0287	0.2
97.0650	0.2
99.0443	0.2
101.0236	0.1
109.0649	0.4
111.0442	0.4
112.0396	0.1
113.0234	0.2
114.0552	0.8
115.0391	0.2
116.0710	0.2
120.0810	4.7
121.0844	0.4
122.0601	0.3
123.0807	0.2
124.0759	1.4
128.0346	0.2
130.0865	0.5
132.0810	0.1
134.0603	0.4
136.0759	0.4
137.0239	0.3
137.0715	0.2
137.0962	0.2
138.0551	0.2
138.0916	0.6
148.0761	3.0
149.0600	0.2
149.0796	0.3
149.0966	0.2
150.0557	0.1
150.0915	0.5
152.0710	1.1
157.0864	0.2
162.0919	0.1
163.0873	0.3
164.0709	1.3
165.0750	0.1
165.0914	0.2
166.0868	0.2
167.1073	0.3
180.0656	0.3
181.0501	0.4
182.0820	0.3
187.1086	0.3
193.0736	0.9
194.0805	0.3
201.1152	0.1
217.1347	0.2
217.1595	0.5
225.0644	0.5
228.1381	0.2
229.1185	0.2
229.1348	0.2
229.1597	0.2
230.1547	1.5
231.1583	0.2
231.1764	0.1
235.1701	1.1
243.1752	0.2
245.1308	0.3
245.1658	1.2
245.1913	0.4
246.1498	0.2
247.0727	0.2
247.2061	0.3
255.1504	0.3
255.1758	0.2
256.1340	2.3
257.1360	0.4
257.1660	0.8
257.1909	3.1
258.1946	0.5
259.1284	0.2
259.1726	0.2
259.2057	0.3
261.1841	0.2
263.2011	0.2
269.1920	0.2
271.1453	0.4
271.1758	0.2
272.1490	0.1
273.1609	11.4
273.1866	1.3
274.1643	1.9
274.1903	0.2
275.1673	0.4
275.2018	2.5
276.2048	0.4
277.1811	0.6
277.2169	0.5
278.1845	0.1
280.0951	0.5
282.1108	0.9
285.1862	1.9
286.1893	0.5
287.1360	0.1
287.1741	0.2
287.2017	6.5
288.2053	1.2
289.1553	0.5
289.1817	0.3
289.2162	0.2
290.1585	0.1
291.1238	0.2
291.1699	0.1
301.1813	0.6
302.1834	0.2
303.1685	0.2
303.1966	8.5
304.1643	0.1
304.2001	2.0
305.1764	0.3
305.1802	0.6
305.2121	16.5
306.2153	3.1
307.1920	0.4
307.2271	0.8
315.1360	0.5
316.1404	0.3
317.1502	4.7
318.1475	0.9
318.1532	0.9
319.1575	0.1
319.1613	0.5
319.1916	0.7
319.1950	0.3
321.2077	0.3
329.1755	0.3
331.1921	0.7
332.1945	0.2
333.1716	0.2
333.2075	0.2
337.2025	1.4
338.2055	0.3
347.1505	0.2
347.1872	3.4
347.2242	0.2
347.2351	0.3
348.1103	0.6
348.1487	0.5
348.1536	0.4
348.1856	0.8
348.1906	1.6
349.0627	0.2
349.0874	0.3
349.0976	0.6
349.1108	0.5
349.1306	0.4
349.1334	0.2
349.1643	3.1
349.1682	1.0
349.2036	100.0
349.2344	1.5
349.2736	0.5
349.2915	0.7
349.3176	0.3
349.4097	0.2
350.1157	0.2
350.1272	0.6
350.1334	0.3
350.1677	0.7
350.2069	21.8
350.2394	0.3
351.1427	0.4
351.1809	4.4
351.2143	0.3
351.2181	5.8
351.2552	0.4

Name: 8-(5-Hexylfuran-2-yl)octanoic acid
PrecursorMZ: 277.21678
RT: 1.1455
ExactMass: 294.21949481
Spectrum_type: 2
charge: -1
Formula: C18H30O3
SMILES: CCCCCCC1=CC=C(O1)CCCCCCCC(=O)O
Method: HCD
Collision_energy: [28.333334]
Isolation_window: 4.0
Ion_mode: N
Num Peaks: 48
59.0129	1.4
69.1050	0.5
79.9564	10.9
80.9642	0.4
81.9521	0.5
96.9591	0.6
121.0285	1.6
127.1119	1.0
134.0364	2.1
139.1119	1.0
140.1153	0.6
141.1275	2.0
152.9855	0.4
163.0755	2.4
175.0756	0.8
232.1338	1.0
232.1700	0.6
233.2265	0.4
243.0331	0.3
259.2066	0.4
261.2214	0.5
275.1484	0.5
275.2010	0.4
275.6502	2.9
276.0854	1.0
276.1107	0.6
276.1500	0.5
276.1525	0.9
276.1602	1.7
276.5862	0.4
277.0146	0.7
277.1470	14.9
277.1523	1.8
277.1559	0.4
277.1674	0.7
277.1852	0.7
277.1887	1.3
277.1920	1.0
277.2169	76.5
277.2803	0.6
277.6477	4.3
278.1483	1.7
278.2203	14.5
278.6472	0.3
279.1607	0.6
279.1664	0.7
279.2326	100.0
279.2967	0.6

Name: 9-Methyluric acid
PrecursorMZ: 181.03613
RT: 5.6052
ExactMass: 182.04399007
Spectrum_type: 2
charge: -1
Formula: C6H6N4O3
SMILES: CN1C2=C(C(=O)NC(=O)N2)NC1=O
Method: HCD
Collision_energy: [28.333334]
Isolation_window: 4.0
Ion_mode: N
Num Peaks: 29
59.0130	5.5
72.9922	10.4
80.9643	8.2
83.0241	5.6
108.9010	5.6
119.0494	23.7
122.0603	3.9
123.0555	7.8
135.0445	31.8
136.0481	3.0
136.0759	3.4
137.0600	3.4
137.0712	3.6
138.0302	36.4
138.0550	9.5
138.0917	6.3
150.0190	7.3
163.0394	46.4
164.0433	4.0
180.0298	13.0
180.0661	5.3
180.8587	5.4
181.0183	4.8
181.0361	100.0
181.0504	36.2
181.1227	5.9
182.0394	6.0
182.0543	3.0
182.0800	3.1

Name: 9-beta-D-Ribofuranosylxanthine
PrecursorMZ: 283.06837
RT: 6.0845
ExactMass: 284.07568412
Spectrum_type: 2
charge: -1
Formula: C10H12N4O6
SMILES: C1=NC2=C(N1C3C(C(C(O3)CO)O)O)NC(=O)NC2=O
Method: HCD
Collision_energy: [28.333334]
Isolation_window: 4.0
Ion_mode: N
Num Peaks: 7
151.0256	51.7
281.2489	13.4
283.0684	39.8
283.2644	100.0
284.0737	4.5
284.2678	17.3
285.1712	4.2

Name: Abietic Acid
PrecursorMZ: 301.21711
RT: 1.181
ExactMass: 302.224580195
Spectrum_type: 2
charge: -1
Formula: C20H30O2
SMILES: CC(C)C1=CC2=CC[C@@H]3[C@@]([C@H]2CC1)(CCC[C@@]3(C)C(=O)O)C
Method: HCD
Collision_energy: [28.333334]
Isolation_window: 4.0
Ion_mode: N
Num Peaks: 15
59.0129	2.7
283.2066	3.8
283.9949	3.7
284.9928	1.8
299.2017	17.4
299.2555	1.4
299.2593	3.2
300.0263	4.9
300.2051	7.6
301.0242	3.3
301.1688	2.5
301.2172	100.0
302.2207	20.2
303.2274	1.7
303.2331	21.3

Name: Aceglutamide
PrecursorMZ: 187.07209
RT: 6.427
ExactMass: 188.07970687
Spectrum_type: 2
charge: -1
Formula: C7H12N2O4
SMILES: CC(=O)N[C@@H](CCC(=O)N)C(=O)O
Method: HCD
Collision_energy: [28.333334]
Isolation_window: 4.0
Ion_mode: N
Num Peaks: 18
57.0337	1.5
84.0446	3.1
85.0286	1.4
88.0396	1.2
97.0650	6.7
110.0235	1.1
116.0705	1.3
123.0807	1.9
125.0964	100.0
126.0997	9.4
128.0346	1.0
142.0865	1.1
143.1070	1.9
145.0609	2.0
169.0863	4.5
186.0767	1.0
187.0970	55.7
188.1004	5.3

Name: Acetylhistamine
PrecursorMZ: 152.0823
RT: 5.59425
ExactMass: 153.090211983
Spectrum_type: 2
charge: -1
Formula: C7H11N3O
SMILES: CC(=O)NCCC1=CN=CN1
Method: HCD
Collision_energy: [28.333334]
Isolation_window: 4.0
Ion_mode: N
Num Peaks: 42
58.0290	1.9
68.0133	1.0
81.0337	0.6
81.0449	2.5
83.0354	0.9
93.0336	0.6
93.0450	1.1
94.0288	0.7
106.0415	0.6
107.0494	15.8
107.0602	2.1
108.0198	1.9
108.0447	30.3
108.0525	1.3
109.0288	1.1
109.0400	1.8
109.0481	1.8
110.0352	1.3
110.0594	1.0
110.0715	100.0
110.0870	0.7
111.0191	3.0
111.0683	0.8
111.0749	5.1
122.0605	0.8
123.0444	1.8
124.0759	1.0
136.0158	0.8
150.0552	1.2
150.0915	0.5
151.0255	6.2
151.0393	7.5
151.0507	1.8
151.0860	0.9
152.0169	1.6
152.0346	5.4
152.0710	10.0
152.0824	10.3
153.0411	5.4
153.0664	1.4
153.0860	0.7
154.0503	0.9

Name: Acetylpyrazine
PrecursorMZ: 349.14075
RT: 6.6648
ExactMass: 122.048012819
Spectrum_type: 2
charge: -1
Formula: C6H6N2O
SMILES: CC(=O)C1=NC=CN=C1
Method: HCD
Collision_energy: [28.333334]
Isolation_window: 4.0
Ion_mode: N
Num Peaks: 5
87.0078	18.5
136.0760	57.6
138.0917	26.7
349.1389	100.0
350.1418	19.6

Name: Acridone
PrecursorMZ: 194.06119
RT: 1.3344
ExactMass: 195.068413911
Spectrum_type: 2
charge: -1
Formula: C13H9NO
SMILES: C1=CC=C2C(=C1)C(=O)C3=CC=CC=C3N2
Method: HCD
Collision_energy: [28.333334]
Isolation_window: 4.0
Ion_mode: N
Num Peaks: 13
69.1252	1.0
79.9564	2.2
96.9461	0.8
96.9592	100.0
98.9550	4.0
98.9633	0.7
151.0395	1.7
193.0509	1.6
193.0899	1.8
194.0614	38.4
194.5629	6.3
195.0302	1.1
195.0606	4.4

Name: Acrylamide
PrecursorMZ: 196.10858
RT: 1.5234
ExactMass: 71.037113783
Spectrum_type: 2
charge: -1
Formula: C3H5NO
SMILES: C=CC(=O)N
Method: HCD
Collision_energy: [28.333334]
Isolation_window: 4.0
Ion_mode: N
Num Peaks: 8
80.9643	41.2
111.0919	23.5
153.0550	17.3
155.0344	22.1
194.9964	37.6
195.0658	13.9
196.1087	100.0
197.0445	20.5

Name: Adenine
PrecursorMZ: 134.04644
RT: 5.686452173913043
ExactMass: 135.05449518
Spectrum_type: 2
charge: -1
Formula: C5H5N5
SMILES: C1=NC2=NC=NC(=C2N1)N
Method: HCD
Collision_energy: [28.333334]
Isolation_window: 4.0
Ion_mode: N
Num Peaks: 10
75.0079	1.3
92.0245	4.2
107.0354	20.1
132.8995	3.1
134.0465	100.0
134.8658	1.9
134.8939	60.2
135.0424	1.4
135.0499	4.2
135.8940	5.0

Name: Adenosine
PrecursorMZ: 266.08951
RT: 5.8502
ExactMass: 267.09675391
Spectrum_type: 2
charge: -1
Formula: C10H13N5O4
SMILES: C1=NC(=C2C(=N1)N(C=N2)[C@H]3[C@@H]([C@@H]([C@H](O3)CO)O)O)N
Method: HCD
Collision_energy: [28.333334]
Isolation_window: 4.0
Ion_mode: N
Num Peaks: 27
59.0129	11.1
94.0289	6.7
114.0551	4.3
134.0464	100.0
135.0513	3.9
151.0504	3.9
152.0823	9.0
156.0812	24.7
178.0501	4.1
195.0886	7.1
220.1336	6.9
222.0990	14.7
255.1597	7.8
264.1112	5.1
264.1652	20.0
264.6675	10.3
265.0016	5.0
265.1051	27.8
266.0854	6.0
266.1077	4.9
266.1104	5.9
267.0525	40.2
267.0601	8.7
267.1076	4.4
268.0563	4.6
268.0819	3.9
268.0890	5.3

Name: Adenosine 2',3'-cyclic phosphate
PrecursorMZ: 328.04541
RT: 5.41185
ExactMass: 329.05252012
Spectrum_type: 2
charge: -1
Formula: C10H12N5O6P
SMILES: C1=NC(=C2C(=N1)N(C=N2)C3C4C(C(O3)CO)OP(=O)(O4)O)N
Method: HCD
Collision_energy: [28.333334]
Isolation_window: 4.0
Ion_mode: N
Num Peaks: 15
59.0130	5.3
71.0129	2.5
72.9922	2.4
87.0079	3.5
134.0465	100.0
135.0511	4.7
171.1022	2.4
311.1869	2.9
326.1905	3.2
327.1241	3.0
327.1838	10.1
328.0460	9.1
328.1845	3.3
329.1590	6.0
329.1974	13.0

Name: Adipic Acid
PrecursorMZ: 145.05012
RT: 7.5047
ExactMass: 146.0579088
Spectrum_type: 2
charge: -1
Formula: C6H10O4
SMILES: C(CCC(=O)O)CC(=O)O
Method: HCD
Collision_energy: [28.333334]
Isolation_window: 4.0
Ion_mode: N
Num Peaks: 40
57.0337	4.6
58.0289	6.5
59.0130	7.5
65.0388	28.7
70.0290	16.1
71.0130	4.8
71.0494	12.6
72.0446	7.4
72.9923	2.8
73.0286	3.9
74.0238	84.5
81.0336	5.5
82.0289	10.0
83.0493	16.9
84.0446	37.0
85.0286	13.8
87.0079	6.9
97.0652	2.8
98.0238	27.3
99.0442	8.1
100.0395	15.9
100.0758	12.2
101.0599	57.4
102.0552	23.5
103.0505	7.7
104.0345	9.7
116.0345	34.5
117.0549	8.6
127.0392	12.5
128.0345	13.5
129.0549	3.8
143.0706	6.3
144.0294	6.5
144.0449	12.4
144.0652	6.6
145.0499	100.0
145.0599	3.2
146.0442	17.8
146.0554	4.9
147.0655	13.1

Name: Adrenosterone
PrecursorMZ: 345.17054
RT: 5.3642
ExactMass: 300.17254462
Spectrum_type: 2
charge: -1
Formula: C19H24O3
SMILES: C[C@]12CCC(=O)C=C1CC[C@@H]3[C@@H]2C(=O)C[C@]4([C@H]3CCC4=O)C
Method: HCD
Collision_energy: [28.333334]
Isolation_window: 4.0
Ion_mode: N
Num Peaks: 24
139.1119	0.9
247.2063	7.1
248.2108	1.1
265.2170	6.0
266.2204	1.2
281.2119	0.6
283.2273	1.1
291.1965	3.8
292.1996	0.8
301.1815	0.8
301.2363	0.9
309.2068	12.4
310.2104	2.2
327.2174	22.9
328.2207	4.1
343.2127	2.6
344.2146	0.9
345.1599	0.9
345.1798	0.8
345.2279	100.0
345.3161	0.7
346.2313	19.5
347.1851	0.6
347.2337	1.3

Name: Afalanine
PrecursorMZ: 206.0818
RT: 2.5859
ExactMass: 207.08954328
Spectrum_type: 2
charge: -1
Formula: C11H13NO3
SMILES: CC(=O)NC(CC1=CC=CC=C1)C(=O)O
Method: HCD
Collision_energy: [28.333334]
Isolation_window: 4.0
Ion_mode: N
Num Peaks: 56
58.0290	19.6
59.0130	19.4
70.0290	12.5
72.0082	2.1
73.0110	1.9
78.9673	5.2
79.0181	7.4
80.0497	2.1
84.0445	4.0
85.0286	3.1
88.0395	22.0
91.0544	6.0
94.0289	2.2
97.0286	22.3
99.0442	1.8
107.0494	2.2
108.0446	84.2
110.0241	2.2
119.0494	3.4
121.0652	3.1
133.0652	10.1
134.0240	2.5
134.0601	2.8
135.0446	4.4
136.0760	2.6
145.0652	4.3
147.0445	25.4
148.0483	2.8
149.0600	2.7
161.0602	10.2
161.0964	2.8
162.0549	6.7
162.0917	10.0
163.0394	6.5
163.0756	12.8
163.1124	1.9
164.0169	2.2
164.0711	100.0
164.1078	2.1
165.0750	10.0
177.0550	3.2
204.0662	2.2
205.0502	6.9
205.0691	3.9
205.0842	6.5
205.0871	4.4
206.0457	3.8
206.0819	42.8
207.0127	12.7
207.0290	2.4
207.0514	25.4
207.0664	28.1
207.0844	3.7
207.1028	3.8
208.0610	28.0
208.0965	8.1

Name: Allothreonine, L-
PrecursorMZ: 118.05005
RT: 9.6709
ExactMass: 119.058243149
Spectrum_type: 2
charge: -1
Formula: C4H9NO3
SMILES: C[C@@H]([C@@H](C(=O)O)N)O
Method: HCD
Collision_energy: [28.333334]
Isolation_window: 4.0
Ion_mode: N
Num Peaks: 22
60.9922	46.0
64.0184	7.6
72.0082	43.2
72.9688	19.1
73.0286	38.5
74.0238	52.7
77.0137	5.7
90.0088	10.7
91.0294	10.0
99.9249	17.4
116.0244	11.4
116.0709	16.5
116.9277	100.0
117.0190	8.7
117.9279	13.4
118.0403	14.5
118.0500	17.5
118.9414	9.9
119.0161	5.9
119.0242	9.9
119.0606	7.8
120.0559	15.0

Name: Alpha-D-Glucose
PrecursorMZ: 179.05547
RT: 8.623442857142857
ExactMass: 180.0633881
Spectrum_type: 2
charge: -1
Formula: C6H12O6
SMILES: C([C@@H]1[C@H]([C@@H]([C@H]([C@H](O1)O)O)O)O)O
Method: HCD
Collision_energy: [28.333334]
Isolation_window: 4.0
Ion_mode: N
Num Peaks: 5
59.0129	85.2
71.0129	100.0
89.0234	74.0
108.9332	51.9
135.0444	42.9

Name: Alpha-Hydroxyhippuric acid
PrecursorMZ: 194.04542
RT: 5.9411
ExactMass: 195.05315777
Spectrum_type: 2
charge: -1
Formula: C9H9NO4
SMILES: C1=CC=C(C=C1)C(=O)NC(C(=O)O)O
Method: HCD
Collision_energy: [28.333334]
Isolation_window: 4.0
Ion_mode: N
Num Peaks: 54
59.0130	11.4
73.0285	5.8
87.0078	5.0
93.0337	30.1
107.0492	3.3
108.0447	11.1
109.0399	7.4
119.0494	4.1
121.0286	8.8
121.0652	3.5
122.0604	4.8
123.0443	18.5
123.0554	4.3
124.0400	3.6
125.0234	2.8
131.0495	3.0
133.0652	14.1
134.0366	17.4
135.0448	12.7
136.0395	6.6
136.0521	11.7
137.0237	8.3
147.0442	3.3
148.0396	6.3
149.0239	3.4
149.0601	41.8
149.0713	8.0
149.0964	8.4
150.0553	100.0
151.0392	5.0
151.0501	3.4
151.0611	6.6
151.0757	14.8
151.0871	4.8
152.0346	15.3
152.0707	6.0
161.0239	3.0
165.0552	4.6
175.0759	20.3
176.0794	2.8
177.0542	7.6
178.0267	10.5
180.0283	41.5
191.0346	12.3
192.0664	5.3
193.0359	3.9
193.0502	35.2
193.0864	72.7
194.0447	46.1
194.0901	8.4
195.0515	92.8
195.0663	30.8
195.1382	5.3
196.0602	5.1

Name: An inositol
PrecursorMZ: 179.05541
RT: 9.4267
ExactMass: 180.0633881
Spectrum_type: 2
charge: -1
Formula: C6H12O6
SMILES: C1(C(C(C(C(C1O)O)O)O)O)O
Method: HCD
Collision_energy: [28.333334]
Isolation_window: 4.0
Ion_mode: N
Num Peaks: 9
59.0130	87.7
69.3443	21.5
71.0129	100.0
89.0236	75.7
90.9226	44.9
108.9333	82.4
135.0445	29.8
159.0180	28.3
180.0657	23.0

Name: Anacardic Acid
PrecursorMZ: 347.25871
RT: 0.7601
ExactMass: 348.26644501
Spectrum_type: 2
charge: -1
Formula: C22H36O3
SMILES: CCCCCCCCCCCCCCCC1=C(C(=CC=C1)O)C(=O)O
Method: HCD
Collision_energy: [28.333334]
Isolation_window: 4.0
Ion_mode: N
Num Peaks: 14
119.0489	1.2
121.0287	1.1
301.2535	59.5
302.1855	0.7
302.2569	100.0
302.3281	0.7
303.2686	73.2
304.2724	15.7
305.2764	1.1
345.2434	37.1
346.2467	84.3
347.2581	70.2
348.2621	14.7
349.2654	1.2

Name: Anthranilic Acid
PrecursorMZ: 138.05525
RT: 4.7422
ExactMass: 137.047678466
Spectrum_type: 2
charge: -1
Formula: C7H7NO2
SMILES: C1=CC=C(C(=C1)C(=O)O)N
Method: HCD
Collision_energy: [28.333334]
Isolation_window: 4.0
Ion_mode: N
Num Peaks: 8
79.9564	32.4
80.9643	49.4
111.9367	100.0
123.0319	58.8
136.8910	62.1
137.9398	63.2
138.0553	54.8
139.0062	80.0

Name: Arachidonic Acid
PrecursorMZ: 303.23276
RT: 1.167457142857143
ExactMass: 304.240230259
Spectrum_type: 2
charge: -1
Formula: C20H32O2
SMILES: CCCCC/C=C\C/C=C\C/C=C\C/C=C\CCCC(=O)O
Method: HCD
Collision_energy: [28.333334]
Isolation_window: 4.0
Ion_mode: N
Num Peaks: 4
301.2175	23.7
302.2208	20.2
303.2330	100.0
304.2362	20.0

Name: Artemisinin
PrecursorMZ: 341.16001
RT: 1.1605
ExactMass: 282.1467238
Spectrum_type: 2
charge: -1
Formula: C15H22O5
SMILES: C[C@@H]1CC[C@H]2[C@H](C(=O)O[C@H]3[C@@]24[C@H]1CC[C@](O3)(OO4)C)C
Method: HCD
Collision_energy: [28.333334]
Isolation_window: 4.0
Ion_mode: N
Num Peaks: 6
113.0234	100.0
183.1382	19.5
235.1701	6.9
339.1998	52.0
340.2028	18.3
341.1599	30.4

Name: Asp-Lys
PrecursorMZ: 260.12505
RT: 9.8871
ExactMass: 261.13247072
Spectrum_type: 2
charge: -1
Formula: C10H19N3O5
SMILES: C(CCN)C[C@@H](C(=O)O)NC(=O)[C@H](CC(=O)O)N
Method: HCD
Collision_energy: [28.333334]
Isolation_window: 4.0
Ion_mode: N
Num Peaks: 6
88.0394	14.5
115.0028	43.6
144.1135	91.6
145.0975	51.8
216.1347	55.1
260.1251	100.0

Name: Aspartame
PrecursorMZ: 293.1141
RT: 4.8081
ExactMass: 294.12157168
Spectrum_type: 2
charge: -1
Formula: C14H18N2O5
SMILES: COC(=O)[C@H](CC1=CC=CC=C1)NC(=O)[C@H](CC(=O)O)N
Method: HCD
Collision_energy: [28.333334]
Isolation_window: 4.0
Ion_mode: N
Num Peaks: 58
59.0129	3.2
71.0130	3.9
72.9921	3.0
73.0285	2.5
73.0397	11.6
74.0238	2.3
78.9849	4.2
79.9562	8.1
80.9642	4.2
84.0444	2.6
85.0284	2.3
87.0077	2.7
88.0395	2.8
96.9591	11.8
101.0345	4.7
110.0241	2.5
114.0550	6.1
124.0397	2.3
127.0503	7.2
128.0343	5.4
130.0862	2.1
145.0610	17.7
147.0444	4.0
152.9849	2.4
158.0602	4.6
164.0708	14.9
177.1028	15.0
190.0866	4.9
191.0822	4.7
214.0874	4.8
215.0830	6.2
234.0761	3.0
237.0096	17.3
238.0162	4.0
249.0665	4.7
249.1237	3.0
249.9734	2.8
250.9699	18.2
276.0333	20.0
277.9572	3.3
278.9650	39.4
279.9687	4.4
291.1367	2.8
292.0509	2.1
292.0817	16.5
292.1219	5.5
292.5825	4.2
292.9809	23.1
293.1136	39.8
293.1490	5.8
293.1791	10.9
293.9872	4.1
294.0440	100.0
294.0991	3.1
294.1179	3.7
295.0471	11.5
295.0834	6.2
295.1241	4.8

Name: Aspirin
PrecursorMZ: 179.03439
RT: 2.2466
ExactMass: 180.04225873
Spectrum_type: 2
charge: -1
Formula: C9H8O4
SMILES: CC(=O)OC1=CC=CC=C1C(=O)O
Method: HCD
Collision_energy: [28.333334]
Isolation_window: 4.0
Ion_mode: N
Num Peaks: 9
79.9564	20.9
80.9643	24.7
124.0507	7.5
135.0444	41.1
177.0556	6.1
179.0376	100.0
180.0426	6.5
181.0164	7.6
181.0730	5.9

Name: Atrolactic acid
PrecursorMZ: 165.05499
RT: 4.46565
ExactMass: 166.062994177
Spectrum_type: 2
charge: -1
Formula: C9H10O3
SMILES: CC(C1=CC=CC=C1)(C(=O)O)O
Method: HCD
Collision_energy: [28.333334]
Isolation_window: 4.0
Ion_mode: N
Num Peaks: 53
66.0341	2.0
72.9922	16.5
78.9853	1.7
79.9564	12.4
80.9643	52.6
86.0238	6.8
88.0031	4.9
93.0337	3.4
94.0289	2.5
94.9799	3.9
95.0130	4.0
96.9592	6.7
97.4398	2.5
102.0188	2.8
102.0553	2.9
106.9799	9.1
108.0207	2.2
116.4830	2.6
119.0494	24.7
120.0445	2.2
120.0530	1.7
121.0287	70.6
121.0403	2.3
121.0651	9.5
121.9910	10.8
122.0319	4.9
122.0602	3.2
122.9749	4.8
123.0444	5.8
124.0066	3.8
124.0397	2.6
147.0445	95.9
148.0480	8.1
151.0630	3.4
164.0018	2.8
164.0142	13.0
164.5163	2.1
164.9974	4.6
165.0192	9.7
165.0221	39.0
165.0422	2.2
165.0550	43.3
165.0647	2.0
165.9810	45.9
166.0134	2.7
166.0172	100.0
166.0504	1.8
166.0533	3.8
166.0587	3.1
167.0012	5.3
167.0192	3.4
167.0364	2.0
167.0606	8.9

Name: Auraptene
PrecursorMZ: 343.15479
RT: 2.2774
ExactMass: 298.15689456
Spectrum_type: 2
charge: -1
Formula: C19H22O3
SMILES: CC(=CCC/C(=C/COC1=CC2=C(C=C1)C=CC(=O)O2)/C)C
Method: HCD
Collision_energy: [28.333334]
Isolation_window: 4.0
Ion_mode: N
Num Peaks: 22
151.0026	1.8
255.0296	2.2
271.0244	6.3
283.0245	11.4
283.1336	2.4
284.0283	1.7
299.0196	15.6
299.1653	5.9
300.0256	6.4
327.0143	4.7
327.1593	4.7
328.0222	100.0
329.0255	15.6
330.0269	2.2
341.2329	1.6
343.0456	75.7
343.1550	35.2
343.2071	1.6
343.2497	2.0
344.0490	14.6
344.1563	7.7
345.1695	5.2

Name: Bempedoic Acid
PrecursorMZ: 403.26988
RT: 4.6812
ExactMass: 344.25627424
Spectrum_type: 2
charge: -1
Formula: C19H36O5
SMILES: CC(C)(CCCCCC(CCCCCC(C)(C)C(=O)O)O)C(=O)O
Method: HCD
Collision_energy: [28.333334]
Isolation_window: 4.0
Ion_mode: N
Num Peaks: 50
59.0130	5.1
69.5725	1.4
71.0129	1.9
74.0237	3.1
87.0077	1.4
89.0234	4.0
91.0391	7.9
99.0805	2.6
99.9249	1.8
114.0551	4.6
116.0708	1.3
127.1119	3.3
130.0864	2.8
139.1120	17.3
140.1153	1.4
157.1226	17.4
158.1259	2.1
171.1019	34.0
172.1053	3.0
201.1125	2.9
211.1334	13.7
212.1367	1.9
229.1441	13.8
230.1478	1.8
293.2119	9.8
294.2159	2.1
295.2272	1.7
297.2433	2.3
303.1812	7.9
304.1850	1.2
311.2226	8.3
312.2274	1.6
313.2380	1.8
319.1913	2.7
329.2332	20.3
330.2365	4.3
361.2388	1.3
385.2624	2.1
401.2513	2.8
402.1629	3.0
402.2598	2.7
403.1559	1.3
403.1844	1.8
403.2704	100.0
404.1364	1.2
404.2070	4.0
404.2733	21.3
405.1747	1.7
405.2210	1.8
405.2661	24.2

Name: Benzaldehyde
PrecursorMZ: 107.04921
RT: 0.8538
ExactMass: 106.041864811
Spectrum_type: 2
charge: -1
Formula: C7H6O
SMILES: C1=CC=C(C=C1)C=O
Method: HCD
Collision_energy: [28.333334]
Isolation_window: 4.0
Ion_mode: N
Num Peaks: 3
59.9956	6.7
107.0494	100.0
108.0526	7.8

Name: Benzenepentanoic acid
PrecursorMZ: 177.09142
RT: 2.0234
ExactMass: 178.099379685
Spectrum_type: 2
charge: -1
Formula: C11H14O2
SMILES: C1=CC=C(C=C1)CCCCC(=O)O
Method: HCD
Collision_energy: [28.333334]
Isolation_window: 4.0
Ion_mode: N
Num Peaks: 7
79.9564	9.1
80.9643	16.7
134.0602	22.7
177.0182	9.7
177.0914	100.0
178.0953	11.6
179.0009	14.2

Name: Benzenepropanoic acid
PrecursorMZ: 149.06013
RT: 0.6980500000000001
ExactMass: 150.068079557
Spectrum_type: 2
charge: -1
Formula: C9H10O2
SMILES: C1=CC=C(C=C1)CCC(=O)O
Method: HCD
Collision_energy: [28.333334]
Isolation_window: 4.0
Ion_mode: N
Num Peaks: 16
77.0386	1.8
79.9564	3.4
107.0492	3.2
108.0198	2.3
121.0287	2.5
136.0159	10.0
147.0196	2.3
148.0397	6.1
149.0241	5.8
149.0601	100.0
150.0189	3.9
150.0549	7.1
150.0639	7.7
151.0242	14.0
151.0395	10.7
151.0870	6.6

Name: Benzoic Acid
PrecursorMZ: 123.04429
RT: 2.7475
ExactMass: 122.03677943
Spectrum_type: 2
charge: -1
Formula: C7H6O2
SMILES: C1=CC=C(C=C1)C(=O)O
Method: HCD
Collision_energy: [28.333334]
Isolation_window: 4.0
Ion_mode: N
Num Peaks: 18
59.0130	10.4
67.0180	4.3
79.9565	7.7
81.0337	100.0
82.0369	5.5
94.0287	6.4
94.9799	6.1
95.0494	8.6
97.0286	3.7
98.9901	6.9
122.0238	4.3
122.9748	8.6
123.0444	55.9
123.9014	4.6
124.0393	5.9
124.0479	4.9
125.0059	6.9
125.0237	18.3

Name: Benzophenone
PrecursorMZ: 277.18038
RT: 1.2904
ExactMass: 182.073164938
Spectrum_type: 2
charge: -1
Formula: C13H10O
SMILES: C1=CC=C(C=C1)C(=O)C2=CC=CC=C2
Method: HCD
Collision_energy: [28.333334]
Isolation_window: 4.0
Ion_mode: N
Num Peaks: 134
59.0104	0.7
59.0129	28.0
59.0152	0.5
60.0163	0.6
69.1207	0.5
69.9451	0.3
71.0129	0.5
73.0286	0.6
79.9564	12.6
80.9642	1.9
81.9521	0.6
83.0128	0.9
87.0078	2.3
91.0543	1.1
95.9512	0.5
96.9591	10.6
98.9549	0.6
106.0400	0.6
112.9363	2.2
128.0708	3.4
129.1024	16.5
130.0864	1.2
130.1061	0.9
133.0284	0.8
139.0392	0.4
141.1027	0.7
146.0966	0.4
147.0444	3.9
147.0654	2.1
149.0599	0.7
152.9855	2.7
153.0546	0.4
163.0755	2.4
164.0709	4.0
165.0664	1.0
165.0745	0.4
175.1119	0.7
177.0548	2.8
177.1278	0.7
179.0709	0.4
189.0551	0.6
189.0913	0.7
190.0861	0.6
191.0709	0.6
195.1387	0.3
197.0395	0.5
198.0794	0.5
198.5818	0.7
199.0540	1.0
199.0888	1.7
205.0499	0.4
205.1591	7.5
206.1626	1.1
215.0714	0.6
216.0645	0.4
217.0501	1.5
218.0815	0.5
219.0664	0.5
219.0897	0.4
221.1177	0.8
231.1749	1.3
232.0998	0.6
232.1338	9.5
232.1786	0.6
233.0813	1.7
233.1377	1.5
233.1652	1.3
233.1906	5.9
234.0768	0.6
234.1938	1.1
235.0603	0.4
235.0966	1.0
243.0323	0.6
259.0603	0.6
259.1697	0.5
262.9894	0.6
275.0764	0.5
275.1128	1.4
275.1445	1.5
275.1472	10.3
275.1657	1.4
275.1699	0.6
275.2015	0.6
275.5785	2.4
275.5837	0.7
275.6143	2.4
275.6501	10.9
276.0306	1.0
276.0853	6.9
276.1115	1.1
276.1192	0.8
276.1535	5.4
276.1570	0.5
276.1615	0.5
276.1642	0.4
276.1666	0.7
276.1705	0.7
276.5877	1.7
276.6132	0.4
276.6560	0.9
276.6596	0.7
277.0377	0.7
277.0720	9.0
277.1070	1.7
277.1166	0.6
277.1206	0.3
277.1469	18.0
277.1522	0.4
277.1552	14.6
277.1806	100.0
277.2054	1.4
277.2083	2.0
277.2151	3.0
277.2297	0.5
277.2443	0.7
277.6475	5.6
278.0121	0.6
278.0721	1.6
278.1064	2.3
278.1482	1.7
278.1517	0.6
278.1584	2.3
278.1840	17.3
278.2136	0.4
278.2182	0.6
278.6089	0.4
278.6479	0.3
279.0109	4.2
279.0531	1.4
279.0868	6.0
279.1166	3.0
279.1597	0.6
279.1868	1.2
279.2324	1.0

Name: Betulin
PrecursorMZ: 263.10626
RT: 5.8633
ExactMass: 442.381080833
Spectrum_type: 2
charge: -1
Formula: C30H50O2
SMILES: CC(=C)[C@@H]1CC[C@]2([C@H]1[C@H]3CC[C@@H]4[C@]5(CC[C@@H](C([C@@H]5CC[C@]4([C@@]3(CC2)C)C)(C)C)O)C)CO
Method: HCD
Collision_energy: [28.333334]
Isolation_window: 4.0
Ion_mode: N
Num Peaks: 16
143.0816	11.8
155.1181	21.9
199.1083	10.2
244.9941	26.1
248.0839	7.3
254.1517	4.8
255.1598	5.7
262.1491	9.5
263.0048	100.0
263.1069	37.5
263.1567	15.5
263.6594	5.3
264.0066	13.1
264.1636	13.8
265.0022	6.3
265.1476	4.9

Name: Bicine
PrecursorMZ: 222.09766
RT: 9.0438
ExactMass: 163.0844579
Spectrum_type: 2
charge: -1
Formula: C6H13NO4
SMILES: C(CO)N(CCO)CC(=O)O
Method: HCD
Collision_energy: [28.333334]
Isolation_window: 4.0
Ion_mode: N
Num Peaks: 1
101.0234	100.0

Name: Biotin
PrecursorMZ: 243.08088
RT: 5.7566
ExactMass: 244.08816355
Spectrum_type: 2
charge: -1
Formula: C10H16N2O3S
SMILES: C1[C@H]2[C@@H]([C@@H](S1)CCCCC(=O)O)NC(=O)N2
Method: HCD
Collision_energy: [28.333334]
Isolation_window: 4.0
Ion_mode: N
Num Peaks: 44
59.0133	3.4
71.0129	2.7
72.9923	2.4
74.0061	2.3
74.0239	1.8
99.0079	15.2
111.0446	1.8
113.0348	6.0
114.0551	3.6
116.0708	2.8
122.0968	4.1
125.0965	2.5
128.0344	3.3
130.0866	5.6
156.0847	5.2
157.0612	28.6
163.1124	3.2
165.1028	3.3
166.0867	23.7
167.0917	1.8
181.1228	12.4
198.1122	3.0
199.0915	4.1
199.1336	11.7
200.0746	33.3
200.1383	2.2
201.0767	3.8
207.1023	20.2
208.1061	2.5
209.0925	3.1
225.1130	67.6
226.1165	8.7
241.0702	2.4
241.1070	2.5
241.1432	2.1
241.2172	10.6
242.1032	4.5
242.2197	2.5
243.0811	100.0
243.1231	87.1
244.0840	15.2
244.1276	12.3
245.0774	5.7
245.1031	5.7

Name: Bis(2-ethylhexyl) phthalate
PrecursorMZ: 389.2697
RT: 5.6344
ExactMass: 390.27700969
Spectrum_type: 2
charge: -1
Formula: C24H38O4
SMILES: CCCCC(CC)COC(=O)C1=CC=CC=C1C(=O)OCC(CC)CCCC
Method: HCD
Collision_energy: [28.333334]
Isolation_window: 4.0
Ion_mode: N
Num Peaks: 6
345.2797	3.1
387.2542	5.4
388.2577	3.7
389.2697	90.5
390.2731	24.8
391.2852	100.0

Name: Bortezomib
PrecursorMZ: 385.20544
RT: 0.8942
ExactMass: 384.1968855
Spectrum_type: 2
charge: -1
Formula: C19H25BN4O4
SMILES: B([C@H](CC(C)C)NC(=O)[C@H](CC1=CC=CC=C1)NC(=O)C2=NC=CN=C2)(O)O
Method: HCD
Collision_energy: [28.333334]
Isolation_window: 4.0
Ion_mode: N
Num Peaks: 22
58.0289	1.4
79.9565	11.6
80.9643	3.5
95.9512	2.5
96.9592	14.4
98.9551	1.2
168.1387	23.2
169.1426	2.8
170.1546	1.3
212.1287	1.4
271.1017	1.4
337.3485	1.6
383.1522	7.8
383.1918	28.7
383.3532	3.6
384.1530	39.5
384.1957	26.2
385.1581	10.7
385.2062	100.0
386.1580	1.7
386.2094	21.2
387.2221	28.1

Name: C2-Ceramide
PrecursorMZ: 340.28567
RT: 1.3316666666666668
ExactMass: 341.29299411
Spectrum_type: 2
charge: -1
Formula: C20H39NO3
SMILES: CCCCCCCCCCCCC/C=C/[C@H]([C@H](CO)NC(=O)C)O
Method: HCD
Collision_energy: [28.333334]
Isolation_window: 4.0
Ion_mode: N
Num Peaks: 15
57.0337	1.7
74.0239	100.0
75.0078	2.1
75.0271	2.3
87.0080	1.7
177.0223	2.6
296.2957	5.3
338.2706	14.7
339.1096	3.7
339.2015	16.4
339.2570	27.0
340.2028	3.7
340.2874	51.5
341.2034	2.0
341.2921	10.7

Name: Caffeic Acid
PrecursorMZ: 163.03933
RT: 4.1383
ExactMass: 180.04225873
Spectrum_type: 2
charge: -1
Formula: C9H8O4
SMILES: C1=CC(=C(C=C1/C=C/C(=O)O)O)O
Method: HCD
Collision_energy: [28.333334]
Isolation_window: 4.0
Ion_mode: N
Num Peaks: 11
61.9875	25.0
80.9642	27.2
91.0544	100.0
119.0491	19.6
121.0286	41.8
135.0445	40.8
147.0444	70.1
161.0446	30.9
163.0389	19.7
165.0218	30.6
165.0549	30.7

Name: Carbidopa
PrecursorMZ: 225.08808
RT: 5.5164
ExactMass: 226.09535693
Spectrum_type: 2
charge: -1
Formula: C10H14N2O4
SMILES: C[C@](CC1=CC(=C(C=C1)O)O)(C(=O)O)NN
Method: HCD
Collision_energy: [28.333334]
Isolation_window: 4.0
Ion_mode: N
Num Peaks: 30
65.0136	45.4
66.0089	30.7
82.0400	19.0
89.0133	22.7
90.0089	18.3
106.0401	64.5
116.0242	19.9
130.0401	36.9
131.0353	20.2
132.0559	22.2
144.0558	20.7
145.0507	20.6
156.0558	48.3
157.0508	44.1
159.0666	34.1
171.0666	50.8
181.0512	24.4
182.0452	20.1
183.0671	40.1
185.0688	38.1
196.0621	30.2
197.0827	40.4
198.0780	100.0
199.0613	23.4
206.0924	28.6
223.0735	19.0
224.0938	29.5
225.0895	66.6
226.1098	18.9
227.2011	47.8

Name: Carnosine
PrecursorMZ: 225.09868
RT: 10.068
ExactMass: 226.10659032
Spectrum_type: 2
charge: -1
Formula: C9H14N4O3
SMILES: C1=C(NC=N1)C[C@@H](C(=O)O)NC(=O)CCN
Method: HCD
Collision_energy: [28.333334]
Isolation_window: 4.0
Ion_mode: N
Num Peaks: 9
110.0713	56.8
154.0613	68.9
207.1494	9.5
225.0632	11.3
225.0988	49.3
225.1603	100.0
226.0721	13.1
226.1637	13.5
227.2010	12.6

Name: Caryophyllene oxide
PrecursorMZ: 219.1747
RT: 1.0173
ExactMass: 220.182715385
Spectrum_type: 2
charge: -1
Formula: C15H24O
SMILES: C[C@@]12CC[C@@H]3[C@H](CC3(C)C)C(=C)CC[C@H]1O2
Method: HCD
Collision_energy: [28.333334]
Isolation_window: 4.0
Ion_mode: N
Num Peaks: 7
80.9641	4.8
219.1748	100.0
220.0609	3.7
220.1461	9.7
220.1783	16.3
221.0817	2.7
221.1527	2.9

Name: Castanospermine
PrecursorMZ: 188.0922
RT: 7.3772
ExactMass: 189.10010796
Spectrum_type: 2
charge: -1
Formula: C8H15NO4
SMILES: C1CN2C[C@@H]([C@H]([C@@H]([C@H]2[C@H]1O)O)O)O
Method: HCD
Collision_energy: [28.333334]
Isolation_window: 4.0
Ion_mode: N
Num Peaks: 12
88.0395	100.0
94.0289	18.5
116.0707	71.9
125.0963	63.0
142.0864	25.5
144.0448	21.0
144.1020	40.6
170.0816	85.8
187.0946	29.5
187.1119	22.4
188.0714	18.3
188.0923	98.6

Name: Catechol
PrecursorMZ: 331.11768
RT: 5.5044
ExactMass: 110.03677943
Spectrum_type: 2
charge: -1
Formula: C6H6O2
SMILES: C1=CC=C(C(=C1)O)O
Method: HCD
Collision_energy: [28.333334]
Isolation_window: 4.0
Ion_mode: N
Num Peaks: 3
108.9012	31.9
331.1561	100.0
332.1586	22.8

Name: Chlorogenic Acid
PrecursorMZ: 353.0891
RT: 8.342733333333333
ExactMass: 354.09508215
Spectrum_type: 2
charge: -1
Formula: C16H18O9
SMILES: C1[C@H]([C@H]([C@@H](C[C@@]1(C(=O)O)O)OC(=O)/C=C/C2=CC(=C(C=C2)O)O)O)O
Method: HCD
Collision_energy: [28.333334]
Isolation_window: 4.0
Ion_mode: N
Num Peaks: 56
59.0129	3.4
71.0129	3.7
72.9921	4.1
75.0078	2.8
80.9641	1.1
85.0092	2.9
85.0285	4.3
87.0078	3.5
89.0234	3.9
93.0336	1.5
99.0078	1.2
99.0444	1.2
101.0234	3.9
110.0237	1.7
111.0077	1.5
111.0443	1.8
113.0234	6.9
115.0027	1.1
115.0198	1.4
119.0341	1.2
125.0235	1.4
128.0343	1.5
129.0184	9.3
143.0154	1.5
143.0342	1.9
145.0305	2.8
147.0291	1.6
157.0302	1.2
161.0452	1.2
165.0397	11.6
173.0258	2.5
173.0443	4.4
175.0240	1.1
175.0506	1.4
177.0386	1.1
179.0348	1.3
179.0553	1.4
181.0498	2.4
182.0448	1.7
187.0410	1.2
190.0396	1.9
191.0356	8.0
191.0548	6.1
232.0500	1.7
233.0466	7.5
262.0616	1.0
263.0574	4.2
292.0716	1.9
293.0680	7.0
351.0715	2.8
352.0931	23.9
353.0884	100.0
354.0902	11.3
355.0847	4.5
355.0931	6.2
355.1022	3.8

Name: Cholic Acid
PrecursorMZ: 407.28051
RT: 4.9029
ExactMass: 408.28757437
Spectrum_type: 2
charge: -1
Formula: C24H40O5
SMILES: C[C@H](CCC(=O)O)[C@H]1CC[C@@H]2[C@@]1([C@H](C[C@H]3[C@H]2[C@@H](C[C@H]4[C@@]3(CC[C@H](C4)O)C)O)O)C
Method: HCD
Collision_energy: [28.333334]
Isolation_window: 4.0
Ion_mode: N
Num Peaks: 18
289.2168	0.6
343.2640	2.3
344.2666	0.6
345.2797	0.5
361.2755	0.5
363.2903	1.9
364.2918	0.6
389.2717	1.0
405.2641	1.9
406.2687	2.9
407.1696	0.8
407.1907	0.6
407.2807	100.0
407.3703	0.5
407.3929	0.7
408.2840	25.3
409.2915	2.7
425.2932	0.5

Name: Cinnamic Acid
PrecursorMZ: 147.04443
RT: 1.6322
ExactMass: 148.052429494
Spectrum_type: 2
charge: -1
Formula: C9H8O2
SMILES: C1=CC=C(C=C1)/C=C/C(=O)O
Method: HCD
Collision_energy: [28.333334]
Isolation_window: 4.0
Ion_mode: N
Num Peaks: 11
59.0129	10.4
101.0600	13.3
105.0337	26.9
119.0496	11.7
120.0447	42.8
121.0287	87.6
123.0442	13.4
147.0445	100.0
148.0392	62.9
149.0239	29.4
149.0601	84.6

Name: Citraconic acid
PrecursorMZ: 129.01847
RT: 1.3058
ExactMass: 130.02660867
Spectrum_type: 2
charge: -1
Formula: C5H6O4
SMILES: C/C(=C/C(=O)O)/C(=O)O
Method: HCD
Collision_energy: [28.333334]
Isolation_window: 4.0
Ion_mode: N
Num Peaks: 8
80.9160	4.8
85.0286	100.0
86.0320	6.3
127.0029	11.8
127.0141	9.5
128.0063	4.1
129.0185	9.1
130.9304	8.1

Name: Citrulline
PrecursorMZ: 174.08776
RT: 9.5903
ExactMass: 175.09569129
Spectrum_type: 2
charge: -1
Formula: C6H13N3O3
SMILES: C(C[C@@H](C(=O)O)N)CNC(=O)N
Method: HCD
Collision_energy: [28.333334]
Isolation_window: 4.0
Ion_mode: N
Num Peaks: 43
58.0290	0.7
59.0130	0.8
69.0337	4.9
71.0129	0.7
73.0285	0.4
83.0493	0.4
85.0286	0.6
87.0442	5.8
88.0395	5.5
90.9705	0.5
111.0079	0.9
111.0443	0.4
111.0807	5.9
112.0841	0.5
113.0236	3.9
114.0188	0.4
115.0028	0.6
129.0921	0.6
129.1026	0.6
130.0502	0.6
131.0344	2.1
131.0613	0.8
131.0655	0.4
131.0818	100.0
131.0981	0.7
131.1022	0.7
132.0855	5.1
133.0866	0.4
154.9467	2.6
155.9466	0.3
157.0136	23.7
157.0613	0.3
158.0170	1.0
172.9573	0.7
173.0454	0.7
173.0811	3.9
173.0933	1.2
173.1173	0.3
174.0405	0.7
174.0879	1.4
174.1124	1.4
175.0243	2.9
175.0609	0.4

Name: Corosolic Acid
PrecursorMZ: 471.34748
RT: 1.6285666666666667
ExactMass: 472.35526001
Spectrum_type: 2
charge: -1
Formula: C30H48O4
SMILES: C[C@@H]1CC[C@@]2(CC[C@@]3(C(=CC[C@H]4[C@]3(CC[C@@H]5[C@@]4(C[C@H]([C@@H](C5(C)C)O)O)C)C)[C@@H]2[C@H]1C)C)C(=O)O
Method: HCD
Collision_energy: [28.333334]
Isolation_window: 4.0
Ion_mode: N
Num Peaks: 23
52.3705	2.0
52.3733	4.8
52.4820	0.6
52.4848	1.5
59.0129	0.4
73.0287	0.4
79.9563	0.3
96.9590	0.7
317.2114	1.8
319.2272	0.7
391.3198	0.4
423.3255	0.4
470.3342	0.9
471.2074	2.8
471.2340	0.3
471.3477	100.0
471.4593	0.6
471.4875	0.8
472.2124	0.8
472.2992	0.9
472.3510	31.4
473.2192	1.0
473.3566	4.9

Name: Cortisol
PrecursorMZ: 361.2022
RT: 1.4028749999999999
ExactMass: 362.20932405
Spectrum_type: 2
charge: -1
Formula: C21H30O5
SMILES: C[C@]12CCC(=O)C=C1CC[C@@H]3[C@@H]2[C@H](C[C@]4([C@H]3CC[C@@]4(C(=O)CO)O)C)O
Method: HCD
Collision_energy: [28.333334]
Isolation_window: 4.0
Ion_mode: N
Num Peaks: 8
273.2226	10.0
299.2018	63.0
300.2054	12.7
317.2120	31.6
318.2151	7.7
361.0968	5.6
361.2026	100.0
362.2051	24.2

Name: Coumarin
PrecursorMZ: 147.04437
RT: 4.4656
ExactMass: 146.03677943
Spectrum_type: 2
charge: -1
Formula: C9H6O2
SMILES: C1=CC=C2C(=C1)C=CC(=O)O2
Method: HCD
Collision_energy: [28.333334]
Isolation_window: 4.0
Ion_mode: N
Num Peaks: 8
72.9923	19.2
99.0807	49.9
119.0494	44.1
145.0397	73.7
145.0862	20.3
146.0438	31.6
147.0445	100.0
147.0644	19.1

Name: Cryptotanshinone
PrecursorMZ: 341.13903
RT: 2.1018
ExactMass: 296.1412445
Spectrum_type: 2
charge: -1
Formula: C19H20O3
SMILES: C[C@H]1COC2=C1C(=O)C(=O)C3=C2C=CC4=C3CCCC4(C)C
Method: HCD
Collision_energy: [28.333334]
Isolation_window: 4.0
Ion_mode: N
Num Peaks: 19
69.2053	3.2
116.0707	7.0
121.0648	9.3
130.0864	8.0
185.1656	3.0
255.1380	3.0
279.1387	3.5
297.1492	43.2
298.1522	9.4
309.1451	3.2
326.1714	4.3
328.0221	17.8
339.1994	19.1
340.2027	6.4
341.1394	100.0
342.1422	22.4
343.0456	13.2
343.1508	3.1
343.1983	19.8

Name: Curcumenol
PrecursorMZ: 279.15964
RT: 1.0913666666666666
ExactMass: 234.16197994
Spectrum_type: 2
charge: -1
Formula: C15H22O2
SMILES: C[C@H]1CC[C@@H]2[C@]13CC(=C(C)C)[C@](O3)(C=C2C)O
Method: HCD
Collision_energy: [28.333334]
Isolation_window: 4.0
Ion_mode: N
Num Peaks: 10
207.1383	14.4
235.1696	4.1
277.1842	3.6
277.2168	100.0
278.2203	35.6
279.1600	49.1
279.2324	73.5
280.1632	7.6
280.2360	13.8
281.2479	6.1

Name: D-Allose
PrecursorMZ: 179.05545
RT: 9.4365
ExactMass: 180.0633881
Spectrum_type: 2
charge: -1
Formula: C6H12O6
SMILES: C([C@@H]1[C@H]([C@H]([C@H](C(O1)O)O)O)O)O
Method: HCD
Collision_energy: [28.333334]
Isolation_window: 4.0
Ion_mode: N
Num Peaks: 71
58.0051	4.4
59.0130	71.3
60.0162	3.9
67.0292	3.8
71.0130	68.5
72.9922	9.6
73.0286	6.9
75.0079	5.1
79.9565	14.1
80.0497	3.8
80.9643	12.8
81.0450	3.9
83.0131	4.1
85.0285	13.6
86.0238	4.2
87.0079	12.8
88.0395	38.7
88.9872	5.4
89.0235	63.5
90.9227	8.7
93.0336	6.6
94.0290	4.9
94.0402	100.0
95.0481	34.6
99.0079	4.4
101.0235	15.3
102.0553	3.7
107.0492	8.5
108.0447	4.1
108.9332	17.4
109.0280	12.5
113.0237	11.6
115.0393	4.8
119.0342	11.4
119.0494	7.3
121.0289	3.9
122.0362	5.2
123.0441	5.0
130.0505	3.6
134.0604	7.3
135.0445	61.7
135.0549	4.2
135.0807	6.0
136.0396	13.4
136.0489	4.5
136.0761	9.6
136.0871	54.3
137.0238	10.4
137.0602	15.8
137.0714	4.1
149.0602	11.3
159.0180	11.5
159.0291	3.8
160.0609	8.0
161.0085	4.6
161.0451	7.1
163.0394	9.9
177.0185	5.4
177.0406	6.6
177.0552	4.0
178.0488	7.4
178.0717	16.7
178.0869	6.4
179.0346	35.7
179.0559	16.0
179.0710	14.1
180.0649	15.2
180.0776	39.2
180.0803	8.4
180.1142	4.1
181.0495	9.0

Name: D-Arabitol
PrecursorMZ: 151.06056
RT: 2.9342
ExactMass: 152.06847348
Spectrum_type: 2
charge: -1
Formula: C5H12O5
SMILES: C([C@H](C([C@@H](CO)O)O)O)O
Method: HCD
Collision_energy: [28.333334]
Isolation_window: 4.0
Ion_mode: N
Num Peaks: 57
58.0052	5.6
59.0130	82.4
60.0163	2.5
63.9616	1.6
71.0130	87.8
72.0164	3.6
72.9923	9.9
73.0286	7.4
75.0079	4.3
78.9851	8.8
79.9565	2.0
80.0497	1.5
80.9643	3.2
83.0130	3.7
85.0286	10.2
87.0078	5.9
89.0235	100.0
90.0268	4.0
93.0338	2.3
94.0290	1.5
101.0235	58.4
102.0269	2.7
103.0392	1.8
106.0417	2.3
107.0494	40.9
108.0199	10.1
108.0447	52.9
108.0520	2.4
108.9884	1.7
109.0400	2.8
109.0479	1.6
113.0235	6.0
119.0341	11.0
121.0288	4.3
123.0444	3.0
126.0089	2.1
131.0342	6.3
133.0151	2.9
133.0496	4.4
134.0355	1.9
136.0160	4.3
148.9517	1.6
149.0449	7.5
149.0599	1.4
149.9788	2.2
150.0415	3.1
150.0553	6.9
151.0254	56.7
151.0393	28.8
151.0605	76.5
151.0866	1.5
152.0019	3.3
152.0348	22.0
152.0633	2.3
152.0718	2.1
152.9856	3.6
153.0298	1.8

Name: D-Fructose
PrecursorMZ: 179.05525
RT: 8.10215
ExactMass: 180.0633881
Spectrum_type: 2
charge: -1
Formula: C6H12O6
SMILES: C1[C@H]([C@H]([C@@H](C(O1)(CO)O)O)O)O
Method: HCD
Collision_energy: [28.333334]
Isolation_window: 4.0
Ion_mode: N
Num Peaks: 25
59.0129	3.1
71.0129	3.6
72.0082	19.4
74.0238	1.9
75.0078	4.0
85.0285	3.1
87.0079	1.8
89.0234	6.9
93.0336	15.5
94.0289	5.9
101.0234	2.9
108.9332	2.2
119.0493	31.6
131.0342	1.8
134.0602	2.0
135.0443	2.2
136.0396	7.0
160.0605	2.0
161.0447	4.4
163.0393	67.1
164.0427	3.4
179.0555	7.4
180.0319	1.6
180.0659	100.0
181.0702	7.6

Name: D-Galactose
PrecursorMZ: 179.05546
RT: 9.2664
ExactMass: 180.0633881
Spectrum_type: 2
charge: -1
Formula: C6H12O6
SMILES: C([C@@H]1[C@@H]([C@@H]([C@H](C(O1)O)O)O)O)O
Method: HCD
Collision_energy: [28.333334]
Isolation_window: 4.0
Ion_mode: N
Num Peaks: 50
59.0130	100.0
71.0130	95.7
72.9922	13.9
73.0286	9.4
75.0079	10.8
79.9565	12.7
80.9643	19.7
85.0286	19.0
87.0079	17.6
88.0395	12.7
89.0235	87.7
93.0337	7.1
94.0289	8.2
96.9592	30.5
98.9550	20.7
99.0442	18.6
101.0235	27.6
107.0494	7.7
108.9332	8.5
109.0287	7.4
113.0237	18.1
115.0391	6.8
119.0342	14.7
119.0494	7.9
134.0605	9.4
135.0445	92.5
135.0808	9.5
136.0395	25.3
136.0487	7.4
136.0761	12.5
136.0873	14.2
136.9393	8.0
137.0237	6.7
137.0600	11.6
161.0449	7.8
163.0394	14.2
176.9859	7.3
177.0188	8.1
177.0401	7.1
177.0551	7.0
178.0496	11.5
178.0858	21.6
179.0345	55.5
179.0560	22.8
179.0708	17.6
179.8819	15.0
180.0645	27.0
180.0780	9.0
181.0497	7.0
181.0727	8.0

Name: D-Glucose
PrecursorMZ: 179.05645
RT: 9.6712
ExactMass: 180.0633881
Spectrum_type: 2
charge: -1
Formula: C6H12O6
SMILES: C([C@@H]1[C@H]([C@@H]([C@H](C(O1)O)O)O)O)O
Method: HCD
Collision_energy: [28.333334]
Isolation_window: 4.0
Ion_mode: N
Num Peaks: 29
59.0129	46.8
71.0129	35.8
85.0285	18.5
87.0077	69.7
88.0394	17.1
89.0234	51.5
90.9225	22.3
96.9590	30.7
98.9548	16.0
99.0077	17.9
101.0234	14.8
108.9331	60.1
117.0184	20.2
134.9125	13.5
135.0445	56.9
136.0393	23.1
137.0600	18.9
159.0176	15.6
160.0606	28.8
161.0086	13.5
161.0447	50.4
163.0393	26.7
177.0408	22.2
178.0714	16.3
179.0335	27.3
179.0558	100.0
179.8817	18.0
180.0658	35.3
181.0496	14.6

Name: D-Glucuronic Acid
PrecursorMZ: 193.03479
RT: 8.7281
ExactMass: 194.04265265
Spectrum_type: 2
charge: -1
Formula: C6H10O7
SMILES: [C@@H]1([C@@H]([C@H](OC([C@@H]1O)O)C(=O)O)O)O
Method: HCD
Collision_energy: [28.333334]
Isolation_window: 4.0
Ion_mode: N
Num Peaks: 87
57.0336	3.4
59.0130	19.8
69.0337	10.7
69.2369	2.8
69.8545	2.0
71.0130	22.6
72.9922	48.7
73.0286	21.6
75.0079	16.4
79.9563	10.3
80.9643	29.2
83.0130	3.2
85.0286	40.5
86.0320	1.8
87.0079	56.7
87.0443	8.6
89.0235	14.6
93.0449	9.8
94.0289	27.2
95.0129	4.0
97.0285	2.2
97.4669	2.1
99.0079	22.5
99.0445	1.8
101.0235	20.8
103.0028	13.2
103.0393	3.7
105.0185	71.9
106.0218	2.2
107.0605	3.6
108.0447	2.6
108.0558	4.8
110.0239	2.6
111.0443	1.9
113.0236	78.4
114.0270	4.2
115.0028	2.5
117.0185	25.2
119.0342	30.5
119.0608	3.6
120.9956	100.0
122.0602	4.0
123.0437	3.5
129.0186	22.9
129.0550	1.9
131.0342	89.3
132.0374	5.5
132.9960	2.3
133.0135	13.6
134.0368	2.6
135.0292	4.8
145.0136	8.3
147.0293	8.9
148.0762	2.5
149.0449	21.1
149.0601	4.6
149.0965	1.8
149.1077	9.8
150.0555	4.3
150.0915	2.0
150.1030	5.7
151.0064	91.0
151.0393	3.5
151.0506	4.9
151.0759	2.9
157.0135	6.7
163.0243	10.3
164.0710	4.5
173.0450	3.6
175.0242	98.7
175.0749	4.7
176.0277	7.0
176.0821	2.2
178.0265	1.7
191.0558	22.2
192.0627	3.0
192.0652	4.2
193.0349	96.8
193.0497	6.1
193.0713	2.8
193.0841	13.9
193.1004	12.4
194.0382	6.9
194.0823	5.1
194.9964	62.4
195.0246	4.5
195.0503	3.0

Name: D-Glutamic Acid
PrecursorMZ: 146.0451
RT: 8.61
ExactMass: 147.05315777
Spectrum_type: 2
charge: -1
Formula: C5H9NO4
SMILES: C(CC(=O)O)[C@H](C(=O)O)N
Method: HCD
Collision_energy: [28.333334]
Isolation_window: 4.0
Ion_mode: N
Num Peaks: 12
85.0285	6.8
101.0235	4.7
102.0552	100.0
103.0392	3.8
103.0584	5.1
118.0404	6.7
128.0345	46.7
129.0186	14.8
129.0379	3.7
145.9396	4.1
146.0452	26.1
147.0296	3.4

Name: D-Pyroglutamic acid
PrecursorMZ: 128.03449
RT: 5.7995
ExactMass: 129.042593085
Spectrum_type: 2
charge: -1
Formula: C5H7NO3
SMILES: C1CC(=O)N[C@H]1C(=O)O
Method: HCD
Collision_energy: [28.333334]
Isolation_window: 4.0
Ion_mode: N
Num Peaks: 9
82.0289	3.4
84.0446	0.9
127.9863	0.3
128.0147	0.8
128.0186	0.5
128.0345	100.0
128.0502	0.7
128.0541	0.7
129.0379	6.2

Name: D-Ribulose 5-phosphate
PrecursorMZ: 229.01156
RT: 8.6588
ExactMass: 230.0191543
Spectrum_type: 2
charge: -1
Formula: C5H11O8P
SMILES: C([C@H]([C@H](C(=O)CO)O)O)OP(=O)(O)O
Method: HCD
Collision_energy: [28.333334]
Isolation_window: 4.0
Ion_mode: N
Num Peaks: 16
78.9581	100.0
81.0449	2.8
96.9687	26.5
99.0190	2.1
114.0553	2.3
115.9280	2.8
128.0709	2.6
131.0811	1.8
138.9795	18.0
187.1083	3.5
189.0875	3.1
211.0010	28.5
227.2014	9.5
228.2043	1.9
229.0118	10.7
231.0987	6.2

Name: Decanal
PrecursorMZ: 311.29511
RT: 1.074525
ExactMass: 156.151415257
Spectrum_type: 2
charge: -1
Formula: C10H20O
SMILES: CCCCCCCCCC=O
Method: HCD
Collision_energy: [28.333334]
Isolation_window: 4.0
Ion_mode: N
Num Peaks: 18
96.9591	1.7
183.0109	0.4
309.2797	5.4
309.6245	4.0
309.6484	3.0
310.1302	1.9
310.1362	0.6
310.1466	1.5
310.2831	14.3
310.6274	0.6
311.1693	7.3
311.2212	0.5
311.2953	100.0
311.3535	0.5
311.3710	0.6
312.1726	1.7
312.2987	20.6
313.3023	1.7

Name: Deferiprone
PrecursorMZ: 184.06154
RT: 5.5019
ExactMass: 139.06332853
Spectrum_type: 2
charge: -1
Formula: C7H9NO2
SMILES: CC1=C(C(=O)C=CN1C)O
Method: HCD
Collision_energy: [28.333334]
Isolation_window: 4.0
Ion_mode: N
Num Peaks: 50
65.0135	62.8
66.0088	24.0
89.0135	14.2
90.0087	26.6
91.0292	13.5
92.0243	9.3
102.0087	9.2
105.0447	7.3
106.0401	13.5
115.0290	10.3
116.0244	22.3
117.0197	10.6
117.0448	4.9
118.0400	10.2
120.0557	9.0
121.0510	50.7
130.0402	25.6
131.0353	15.3
132.0558	21.6
140.0245	8.7
141.0198	11.3
142.0401	20.2
143.0353	20.8
143.0478	18.2
144.0432	20.1
144.0557	31.5
145.0390	4.2
145.0507	7.1
155.0352	27.7
156.0306	9.2
156.0557	43.0
157.0509	100.0
158.0348	13.3
158.0467	9.8
158.0711	18.0
159.0667	31.4
164.9672	4.5
166.9830	11.5
170.0594	4.7
175.0378	11.0
182.0463	34.1
183.0416	22.7
183.0664	44.9
183.1384	6.4
184.0260	9.8
184.0618	36.5
185.0454	9.0
185.0828	36.8
185.1539	8.8
186.0780	27.8

Name: Dehydroabietic Acid
PrecursorMZ: 299.20113
RT: 1.1718
ExactMass: 300.208930132
Spectrum_type: 2
charge: -1
Formula: C20H28O2
SMILES: CC(C)C1=CC2=C(C=C1)[C@]3(CCC[C@@]([C@@H]3CC2)(C)C(=O)O)C
Method: HCD
Collision_energy: [28.333334]
Isolation_window: 4.0
Ion_mode: N
Num Peaks: 18
59.0129	0.6
139.1119	1.2
155.1435	1.2
253.2531	5.1
254.2568	1.2
297.1735	0.7
297.2432	100.0
297.2765	0.6
297.3129	0.8
298.1567	0.8
298.2466	41.4
299.2013	34.6
299.2508	3.3
299.2557	10.5
300.2047	7.1
300.2606	1.5
301.2123	0.8
301.2162	1.0

Name: Dehydroascorbic Acid
PrecursorMZ: 157.01352
RT: 9.3681
ExactMass: 174.01643791
Spectrum_type: 2
charge: -1
Formula: C6H6O6
SMILES: C([C@@H]([C@@H]1C(=O)C(=O)C(=O)O1)O)O
Method: HCD
Collision_energy: [28.333334]
Isolation_window: 4.0
Ion_mode: N
Num Peaks: 13
69.0337	100.0
70.0371	4.9
71.0130	14.1
74.9929	9.9
85.0286	6.3
113.0235	20.7
113.0599	4.9
130.0403	11.8
157.0135	26.1
157.0509	12.8
157.1227	8.1
158.0821	9.0
159.0656	36.5

Name: Dehydroepiandrosterone Sulfate
PrecursorMZ: 367.15795
RT: 0.8637
ExactMass: 368.16574516
Spectrum_type: 2
charge: -1
Formula: C19H28O5S
SMILES: C[C@]12CC[C@H]3[C@H]([C@@H]1CCC2=O)CC=C4[C@@]3(CC[C@@H](C4)OS(=O)(=O)O)C
Method: HCD
Collision_energy: [28.333334]
Isolation_window: 4.0
Ion_mode: N
Num Peaks: 7
80.9641	4.1
96.9591	59.0
367.1582	100.0
367.3586	2.8
368.1614	22.3
369.1566	4.1
369.1606	5.4

Name: Deoxyadenosine
PrecursorMZ: 250.09459
RT: 5.299433333333333
ExactMass: 251.10183929
Spectrum_type: 2
charge: -1
Formula: C10H13N5O3
SMILES: C1[C@@H]([C@H](O[C@H]1N2C=NC3=C(N=CN=C32)N)CO)O
Method: HCD
Collision_energy: [28.333334]
Isolation_window: 4.0
Ion_mode: N
Num Peaks: 59
59.0129	2.6
71.0129	1.1
94.0289	1.9
108.0448	1.5
120.0447	20.8
134.0255	1.1
134.0464	100.0
135.0508	4.4
136.0508	4.8
137.0239	1.2
147.0320	2.3
148.0397	1.5
148.0511	1.3
151.0505	2.1
152.0708	4.3
160.0399	1.9
160.0622	7.1
162.0554	75.7
162.0656	1.1
162.1281	3.8
166.0616	17.7
168.0770	1.3
176.9932	1.1
184.0012	13.3
184.5030	4.5
184.9995	2.3
189.0669	1.0
190.0867	1.2
190.0997	2.8
200.4999	1.2
204.0657	2.4
206.1031	1.7
206.1183	4.5
206.1210	1.7
208.0959	1.2
208.1097	4.1
216.0779	3.8
222.0770	0.9
234.0884	43.1
248.0796	21.1
248.1515	1.5
248.5816	13.5
249.0659	2.4
249.0805	5.6
249.0841	3.7
249.0893	1.8
249.1484	3.2
249.5805	1.6
250.0601	1.7
250.0718	2.2
250.0942	37.2
250.1446	3.7
251.0990	4.3
251.1035	2.3
252.0862	6.5
252.0898	5.9
252.0961	5.4
252.0998	30.3
252.1322	1.5

Name: Deoxyandrographolide
PrecursorMZ: 393.22785
RT: 1.2016
ExactMass: 334.21440943
Spectrum_type: 2
charge: -1
Formula: C20H30O4
SMILES: C[C@@]12CC[C@H]([C@@]([C@H]1CCC(=C)[C@H]2CCC3=CCOC3=O)(C)CO)O
Method: HCD
Collision_energy: [28.333334]
Isolation_window: 4.0
Ion_mode: N
Num Peaks: 1
60.9922	100.0

Name: Deoxycholic Acid
PrecursorMZ: 391.28552
RT: 4.6003
ExactMass: 392.29265975
Spectrum_type: 2
charge: -1
Formula: C24H40O4
SMILES: C[C@H](CCC(=O)O)[C@H]1CC[C@@H]2[C@@]1([C@H](C[C@H]3[C@H]2CC[C@H]4[C@@]3(CC[C@H](C4)O)C)O)C
Method: HCD
Collision_energy: [28.333334]
Isolation_window: 4.0
Ion_mode: N
Num Peaks: 18
79.9565	1.6
80.9642	1.0
327.2683	1.0
329.2853	0.5
343.2640	0.6
345.2801	4.0
346.2837	0.8
347.2950	1.4
355.2647	0.9
365.3065	1.8
389.2701	0.5
391.1798	2.4
391.2009	0.6
391.2858	100.0
391.3925	0.7
392.2892	24.5
393.1949	2.1
393.2921	2.7

Name: Deoxycytidine
PrecursorMZ: 226.08308
RT: 6.631118181818182
ExactMass: 227.0906059
Spectrum_type: 2
charge: -1
Formula: C9H13N3O4
SMILES: C1[C@@H]([C@H](O[C@H]1N2C=CC(=NC2=O)N)CO)O
Method: HCD
Collision_energy: [28.333334]
Isolation_window: 4.0
Ion_mode: N
Num Peaks: 17
59.0128	4.2
66.0341	4.1
80.9641	4.4
93.0449	100.0
94.0479	4.7
96.9592	4.1
135.0555	11.9
165.0549	7.1
181.0765	78.0
182.0803	11.4
183.0650	4.7
209.0447	3.6
225.0664	19.8
226.0738	10.8
227.0558	16.8
227.1288	3.3
227.2013	23.1

Name: Deoxyinosine
PrecursorMZ: 251.07846
RT: 6.0091
ExactMass: 252.08585488
Spectrum_type: 2
charge: -1
Formula: C10H12N4O4
SMILES: C1[C@@H]([C@H](O[C@H]1N2C=NC3=C2N=CNC3=O)CO)O
Method: HCD
Collision_energy: [28.333334]
Isolation_window: 4.0
Ion_mode: N
Num Peaks: 15
96.9592	1.2
135.0304	100.0
136.0343	4.7
151.0255	2.2
161.0462	10.4
207.0646	1.4
222.0231	0.8
250.0721	0.8
250.9509	1.5
251.0587	1.0
251.0785	95.7
251.1021	0.9
252.0819	11.4
253.0815	0.9
253.1204	1.2

Name: Desthiobiotin
PrecursorMZ: 213.12415
RT: 5.4009
ExactMass: 214.13174244
Spectrum_type: 2
charge: -1
Formula: C10H18N2O3
SMILES: C[C@H]1[C@H](NC(=O)N1)CCCCCC(=O)O
Method: HCD
Collision_energy: [28.333334]
Isolation_window: 4.0
Ion_mode: N
Num Peaks: 36
59.0130	3.9
86.0239	5.0
96.0446	8.0
98.0240	4.7
98.0602	8.1
112.0397	3.8
114.0552	58.5
116.0709	29.7
124.0397	4.4
125.0714	6.6
128.0345	35.9
129.0383	7.1
129.1026	8.9
130.0866	7.8
137.0710	7.0
154.0866	3.9
169.0973	4.3
169.1342	5.7
171.1499	4.4
181.0619	3.9
186.0764	6.6
212.0916	7.8
213.0749	5.5
213.0897	7.4
213.1244	100.0
213.1848	6.7
213.6187	4.5
214.0704	4.3
214.1085	18.9
214.1277	10.6
214.1554	6.9
215.0499	8.4
215.0542	6.6
215.0927	13.0
215.1262	7.4
215.1406	9.3

Name: Dibutyl Sebacate
PrecursorMZ: 313.23844
RT: 0.9627
ExactMass: 314.24570956
Spectrum_type: 2
charge: -1
Formula: C18H34O4
SMILES: CCCCOC(=O)CCCCCCCCC(=O)OCCCC
Method: HCD
Collision_energy: [28.333334]
Isolation_window: 4.0
Ion_mode: N
Num Peaks: 11
75.0078	55.1
89.0235	34.9
91.0211	100.0
241.2174	42.1
242.2206	7.5
255.2325	12.6
311.1689	12.3
312.1720	73.1
313.1733	17.1
313.2383	16.0
313.2752	8.9

Name: Dihydroactinidiolide, (+-)-
PrecursorMZ: 239.12825
RT: 0.9291
ExactMass: 180.115029749
Spectrum_type: 2
charge: -1
Formula: C11H16O2
SMILES: CC1(CCCC2(C1=CC(=O)O2)C)C
Method: HCD
Collision_energy: [28.333334]
Isolation_window: 4.0
Ion_mode: N
Num Peaks: 63
69.1370	0.7
69.1624	0.9
69.2237	0.9
74.9895	0.9
79.9563	3.1
91.0210	7.5
96.9460	0.6
96.9591	84.6
96.9720	0.7
97.4651	0.6
97.9584	0.7
98.9548	3.5
101.0599	1.0
106.0399	0.8
109.0649	3.4
111.0806	2.3
125.0962	0.8
135.1172	0.7
149.0085	1.2
149.0600	1.1
154.0625	4.1
167.1433	6.5
168.1466	0.7
177.0909	0.9
179.1070	4.1
180.1127	0.9
195.1014	0.6
195.1383	79.3
195.1517	0.7
195.1755	0.6
196.1417	9.5
197.1442	0.5
197.1541	2.6
207.0394	0.8
222.9828	0.8
222.9913	0.6
223.0278	100.0
223.0637	0.7
223.0735	0.7
224.0281	18.1
225.0247	7.1
229.0170	1.0
237.1164	0.7
238.0770	61.4
238.5786	16.6
239.0594	1.2
239.0667	31.2
239.0856	17.4
239.1254	1.6
239.1276	5.5
239.5868	4.0
240.0699	3.6
240.0816	0.5
240.0844	1.9
240.1316	0.9
241.0380	2.2
241.0529	10.6
241.0725	0.8
241.0910	0.9
241.1173	6.6
241.1437	0.8
241.2168	2.2
253.2167	1.6

Name: Dihydrocaffeic Acid
PrecursorMZ: 181.04999
RT: 6.1036
ExactMass: 182.0579088
Spectrum_type: 2
charge: -1
Formula: C9H10O4
SMILES: C1=CC(=C(C=C1CCC(=O)O)O)O
Method: HCD
Collision_energy: [28.333334]
Isolation_window: 4.0
Ion_mode: N
Num Peaks: 115
58.0290	2.5
59.0130	18.6
66.0340	15.9
69.0337	2.1
70.0289	2.1
71.0129	7.8
72.9922	21.4
73.0287	2.7
78.9850	6.7
79.9564	11.0
80.9642	5.9
81.0336	3.8
82.0290	5.6
83.0242	3.8
83.0493	11.9
84.0446	2.6
85.0287	3.9
87.0080	2.9
92.0497	2.5
93.0337	5.2
94.0289	8.8
95.0130	4.1
95.0370	3.2
95.0493	7.7
96.0082	9.1
96.0193	3.3
96.0446	15.0
96.9592	3.3
97.0287	3.2
97.0398	2.8
98.0239	8.7
107.0494	6.3
108.0446	26.4
109.0289	17.9
109.0400	18.9
109.0649	10.5
110.0240	6.8
110.0603	4.8
111.0443	6.3
111.0553	2.0
114.0186	2.6
119.0494	37.9
119.0604	2.3
120.0448	4.1
120.0531	2.8
121.0286	13.7
121.0651	8.2
122.0242	3.2
122.0603	3.6
123.0078	2.5
123.0319	29.8
123.0445	10.2
123.0557	3.8
124.0402	3.6
125.0239	2.8
125.0601	2.6
134.0601	2.2
135.0445	96.7
135.0554	10.7
135.0803	4.6
136.0395	6.8
136.0484	8.2
136.0759	12.1
137.0238	7.1
137.0353	2.1
137.0601	54.9
137.0714	47.9
137.0948	2.6
138.0552	70.6
138.0630	3.7
138.0747	2.6
138.0914	7.9
139.0257	3.2
139.0393	9.6
139.0499	13.6
139.0758	7.7
139.0871	4.3
140.0459	4.6
149.0599	2.1
150.0192	3.3
151.0394	4.0
151.0508	3.3
152.0344	6.5
152.0708	2.5
153.0548	3.7
154.0727	23.7
162.0554	2.7
163.0393	96.7
163.0507	5.8
164.0439	8.7
165.0183	2.8
165.0551	3.3
166.0086	3.5
179.0358	12.7
179.0705	4.2
179.0836	3.0
180.0314	20.6
180.0656	16.8
181.0172	35.0
181.0328	2.3
181.0364	3.1
181.0493	100.0
181.0610	9.4
181.0847	15.5
181.0987	2.4
182.0120	4.0
182.0278	5.4
182.0461	12.3
182.0676	12.4
182.0792	8.4
182.0819	7.1
183.0320	32.5
183.0643	11.4
183.0776	2.8
183.1013	3.2

Name: Dihydroferulic Acid
PrecursorMZ: 195.06567
RT: 4.6923
ExactMass: 196.07355886
Spectrum_type: 2
charge: -1
Formula: C10H12O4
SMILES: COC1=C(C=CC(=C1)CCC(=O)O)O
Method: HCD
Collision_energy: [28.333334]
Isolation_window: 4.0
Ion_mode: N
Num Peaks: 59
57.0337	0.7
66.0341	1.3
72.9921	1.0
79.9563	2.2
80.9543	0.9
80.9643	100.0
93.0336	4.9
95.0494	0.6
96.9592	2.1
107.0493	1.3
108.0209	1.1
108.0447	1.2
109.0288	1.3
109.0650	1.2
110.0603	0.7
119.0493	0.6
120.0446	0.7
121.0583	0.6
121.0650	34.6
122.0602	1.5
122.0685	2.7
123.0443	1.4
124.0067	1.6
124.0395	2.2
125.0599	0.7
133.0649	1.7
135.0443	3.0
137.0475	2.4
149.0598	0.8
149.0965	1.8
150.0550	1.9
150.0918	0.7
151.0396	7.2
151.0758	37.3
152.0702	0.9
152.0806	2.9
153.0552	1.2
154.0087	7.4
162.0554	1.9
165.0553	1.5
165.1027	0.9
172.0991	1.4
193.0179	1.5
193.0504	1.2
193.1343	3.3
194.0116	5.3
194.0816	0.8
194.1182	2.0
194.1372	0.7
194.9963	1.5
195.0148	0.8
195.0298	6.9
195.0658	84.0
195.1386	0.6
196.0432	4.0
196.0692	8.0
197.0120	18.3
197.0423	2.1
197.0843	1.1

Name: Dihydrokaempferol
PrecursorMZ: 271.05905
RT: 5.6327
ExactMass: 288.0633881
Spectrum_type: 2
charge: -1
Formula: C15H12O6
SMILES: C1=CC(=CC=C1[C@@H]2[C@H](C(=O)C3=C(C=C(C=C3O2)O)O)O)O
Method: HCD
Collision_energy: [28.333334]
Isolation_window: 4.0
Ion_mode: N
Num Peaks: 5
253.1458	21.3
269.1760	31.4
271.1553	100.0
271.1910	28.7
271.2253	29.6

Name: Dihydrouridine
PrecursorMZ: 245.07767
RT: 6.1164
Spectrum_type: 2
charge: -1
Method: HCD
Collision_energy: [28.333334]
Isolation_window: 4.0
Ion_mode: N
Num Peaks: 138
57.0337	1.7
59.0130	8.3
69.0337	1.7
70.0289	2.3
71.0130	5.2
71.0494	3.0
72.9922	4.0
73.0286	9.9
74.0238	1.7
75.0080	2.7
79.9564	2.2
80.9643	60.7
81.0337	1.1
82.0289	1.3
83.0130	1.1
83.0494	5.3
84.0082	32.7
84.0446	4.2
85.0286	4.7
85.0650	4.7
86.0238	0.9
87.0078	2.4
87.0442	3.4
88.0396	1.0
89.0235	2.7
94.0290	1.3
95.0494	2.0
96.0447	1.1
96.9593	1.2
97.0286	2.5
97.0399	1.0
97.0650	6.8
98.0239	1.0
98.0351	6.1
98.0602	3.1
99.0079	2.3
99.0442	2.9
100.0395	1.5
100.0762	1.7
101.0237	2.3
101.0600	1.5
102.0550	1.7
108.0447	2.0
109.0285	1.1
109.0650	1.8
110.0239	7.9
110.0603	2.3
111.0443	4.9
111.0806	1.9
112.0396	13.1
113.0236	1.3
113.0348	13.3
113.0598	3.3
114.0188	1.6
114.0554	1.4
115.0392	1.2
115.0756	10.7
116.0709	1.4
116.0790	1.3
120.0811	1.2
123.0444	1.2
123.0808	1.4
124.0396	1.1
125.0600	3.3
125.0966	1.0
126.0551	1.7
127.0396	1.7
127.0758	1.9
128.0348	1.5
129.0189	2.6
129.0661	3.2
129.0915	2.0
130.0865	1.9
135.0557	1.3
139.0395	6.1
139.0757	1.3
141.0914	1.3
142.0500	1.3
144.0659	5.3
144.1025	1.2
145.0863	9.8
153.0549	1.3
153.1282	1.2
155.0347	1.6
155.0455	34.7
155.1436	1.4
156.0490	1.9
157.0248	1.5
158.0818	1.0
162.0765	1.0
163.1120	1.0
165.1278	16.6
166.1310	1.7
171.0772	1.4
173.0716	1.6
174.0403	5.5
181.1228	1.1
181.1592	6.9
182.1624	1.6
183.1385	19.8
184.1421	1.8
199.1341	1.4
201.1246	3.4
201.1491	10.4
202.0709	1.4
209.1180	14.1
210.1216	1.5
225.1128	3.2
225.1492	1.1
227.0559	1.6
227.1286	67.0
228.1320	7.7
243.0868	2.6
243.0882	2.8
243.1240	7.2
243.1606	10.4
244.0819	5.9
244.1186	2.0
244.1209	2.4
244.1602	2.8
244.1627	2.7
245.0266	3.3
245.0634	7.5
245.0773	11.2
245.1024	1.7
245.1393	100.0
245.1655	1.9
246.0764	1.2
246.0780	1.8
246.0968	1.4
246.1375	4.2
246.1428	13.5
247.0395	39.7
247.0605	1.0
247.0777	2.7
247.0805	4.6
247.1164	1.2
247.1553	4.4

Name: Dimethyl Phthalate
PrecursorMZ: 193.05004
RT: 1.3381
ExactMass: 194.0579088
Spectrum_type: 2
charge: -1
Formula: C10H10O4
SMILES: COC(=O)C1=CC=CC=C1C(=O)OC
Method: HCD
Collision_energy: [28.333334]
Isolation_window: 4.0
Ion_mode: N
Num Peaks: 39
66.0340	0.7
69.2237	0.8
79.9564	4.3
80.9643	5.6
83.0128	2.8
97.0286	0.7
108.0446	0.9
121.0651	0.8
122.0602	0.7
123.0443	6.2
134.9747	0.8
137.0599	1.6
147.0445	1.1
148.0760	1.5
149.0241	1.6
149.0601	4.4
150.0549	3.3
150.0914	0.6
151.0394	23.4
151.0505	0.8
151.0755	2.2
151.0870	0.8
163.0063	1.4
165.0549	2.0
175.0394	4.6
191.0686	1.1
191.0714	1.1
192.0658	7.8
193.0164	3.3
193.0501	100.0
193.0643	0.9
193.0869	1.5
193.0987	0.7
193.1339	0.7
194.0540	10.6
194.0798	1.2
194.9970	0.7
195.0302	15.5
195.0682	7.3

Name: Dimethylmalonic acid
PrecursorMZ: 115.03918
RT: 4.4574
ExactMass: 132.04225873
Spectrum_type: 2
charge: -1
Formula: C5H8O4
SMILES: CC(C)(C(=O)O)C(=O)O
Method: HCD
Collision_energy: [28.333334]
Isolation_window: 4.0
Ion_mode: N
Num Peaks: 6
59.0128	1.5
97.9303	1.9
99.9249	15.5
114.9333	9.9
115.9200	1.6
116.9277	100.0

Name: Docosanoic Acid
PrecursorMZ: 339.32624
RT: 1.0344272727272728
ExactMass: 340.334130642
Spectrum_type: 2
charge: -1
Formula: C22H44O2
SMILES: CCCCCCCCCCCCCCCCCCCCCC(=O)O
Method: HCD
Collision_energy: [28.333334]
Isolation_window: 4.0
Ion_mode: N
Num Peaks: 9
337.3121	0.4
338.3144	1.2
339.2413	0.7
339.2585	0.6
339.3265	100.0
339.3936	0.4
339.4117	0.7
340.3298	23.1
341.3327	2.4

Name: Dodecanedioic Acid
PrecursorMZ: 229.14426
RT: 5.2512
ExactMass: 230.15180918
Spectrum_type: 2
charge: -1
Formula: C12H22O4
SMILES: C(CCCCCC(=O)O)CCCCC(=O)O
Method: HCD
Collision_energy: [28.333334]
Isolation_window: 4.0
Ion_mode: N
Num Peaks: 87
57.0338	1.5
59.0130	3.9
69.0336	0.9
69.3572	1.0
71.0129	1.8
71.0493	1.7
72.9922	1.5
73.0286	1.8
74.0238	1.0
80.9643	4.2
82.9600	2.3
83.0129	0.9
83.0492	1.1
84.0446	1.8
85.0286	5.1
86.0238	1.5
87.0079	1.7
87.0442	1.2
88.0394	0.9
89.0234	1.2
97.0288	1.6
97.0650	1.9
99.0443	3.6
102.0553	1.0
110.0603	1.1
111.0443	1.0
112.0393	1.0
113.0349	4.4
113.0599	1.0
114.0552	13.1
115.0394	1.4
115.0586	0.8
116.0709	1.8
123.0807	1.0
124.0757	0.7
125.0599	0.8
125.0964	29.4
126.0552	1.7
126.0997	1.5
128.0349	0.9
128.0710	11.7
130.0865	2.0
138.0553	2.7
139.1120	1.4
141.1278	0.8
153.0663	2.7
166.0864	1.1
167.0713	0.9
167.1190	0.8
167.1435	34.9
168.1469	3.6
169.0863	1.7
183.1386	3.0
184.0973	4.6
184.1333	2.4
185.1174	0.9
185.1541	1.0
187.1084	2.2
197.0567	1.9
210.0766	2.3
211.1336	38.0
212.1287	3.0
212.1371	5.2
227.1285	2.3
227.2013	5.3
228.0263	4.6
228.0880	13.2
228.1228	14.5
228.1320	0.9
228.2043	1.6
228.6222	1.0
229.0182	2.7
229.0694	4.8
229.1073	1.6
229.1443	100.0
230.0680	1.2
230.1055	1.5
230.1393	67.4
230.1420	18.1
230.1452	9.6
230.1478	10.2
231.0469	2.6
231.0502	2.7
231.0871	3.2
231.1235	1.0
231.1431	5.4
231.1467	1.6

Name: Elaidic Acid
PrecursorMZ: 281.24811
RT: 0.9627
ExactMass: 282.255880323
Spectrum_type: 2
charge: -1
Formula: C18H34O2
SMILES: CCCCCCCC/C=C/CCCCCCCC(=O)O
Method: HCD
Collision_energy: [28.333334]
Isolation_window: 4.0
Ion_mode: N
Num Peaks: 14
69.1194	0.3
69.1409	0.3
97.4075	0.4
279.2328	13.0
280.2362	13.8
281.1433	0.5
281.1836	0.7
281.1978	0.4
281.2483	100.0
281.2996	0.5
281.3125	0.7
281.3321	0.3
282.2517	19.1
283.2638	9.0

Name: Embelin
PrecursorMZ: 293.17584
RT: 1.3987
ExactMass: 294.18310931
Spectrum_type: 2
charge: -1
Formula: C17H26O4
SMILES: CCCCCCCCCCCC1=C(C(=O)C=C(C1=O)O)O
Method: HCD
Collision_energy: [28.333334]
Isolation_window: 4.0
Ion_mode: N
Num Peaks: 28
71.0130	7.2
96.9592	20.1
113.0964	5.0
185.1176	4.2
192.0668	2.4
220.1465	27.6
221.1542	70.6
222.1579	10.2
232.0607	2.3
236.1052	77.5
237.1087	11.8
291.1970	2.9
292.0832	8.6
292.1203	2.7
292.1241	17.4
292.1992	2.2
292.6260	6.0
293.1357	15.9
293.1773	21.5
293.2123	100.0
293.6348	6.5
294.1351	8.2
294.1809	3.4
294.2154	17.2
294.6210	3.3
295.1112	6.5
295.1340	4.3
295.2278	44.1

Name: Emodin
PrecursorMZ: 253.05044
RT: 3.05835
ExactMass: 270.05282342
Spectrum_type: 2
charge: -1
Formula: C15H10O5
SMILES: CC1=CC2=C(C(=C1)O)C(=O)C3=C(C2=O)C=C(C=C3O)O
Method: HCD
Collision_energy: [28.333334]
Isolation_window: 4.0
Ion_mode: N
Num Peaks: 8
252.9957	0.5
253.0507	100.0
253.1063	0.7
254.0540	15.4
254.1251	1.3
254.6276	0.5
255.0569	1.3
255.2327	1.3

Name: Erucic Acid
PrecursorMZ: 337.31074
RT: 1.035588888888889
ExactMass: 338.318480578
Spectrum_type: 2
charge: -1
Formula: C22H42O2
SMILES: CCCCCCCC/C=C\CCCCCCCCCCCC(=O)O
Method: HCD
Collision_energy: [28.333334]
Isolation_window: 4.0
Ion_mode: N
Num Peaks: 28
58.0289	0.1
84.8315	0.2
183.0111	0.6
319.3000	0.1
321.3145	0.1
335.2955	1.5
336.2976	0.7
336.3262	2.4
337.1835	0.1
337.3108	10.4
338.3141	2.4
339.0987	0.1
339.1161	0.1
339.1301	0.1
339.1435	0.2
339.1666	0.1
339.1962	0.3
339.1999	15.3
339.2131	0.3
339.2363	0.5
339.2410	0.7
339.2588	0.5
339.3262	100.0
339.3944	0.5
339.4118	0.7
339.4361	0.2
339.4617	0.1
339.5314	0.2

Name: Erythrose, 4-phosphate
PrecursorMZ: 183.00603
RT: 5.4422
ExactMass: 200.00858962
Spectrum_type: 2
charge: -1
Formula: C4H9O7P
SMILES: C([C@H]([C@H](C=O)O)O)OP(=O)(O)O
Method: HCD
Collision_energy: [28.333334]
Isolation_window: 4.0
Ion_mode: N
Num Peaks: 3
108.9011	100.0
110.8983	37.9
182.8595	19.3

Name: Estragole
PrecursorMZ: 193.08624
RT: 4.6727
ExactMass: 148.088815002
Spectrum_type: 2
charge: -1
Formula: C10H12O
SMILES: COC1=CC=C(C=C1)CC=C
Method: HCD
Collision_energy: [28.333334]
Isolation_window: 4.0
Ion_mode: N
Num Peaks: 52
59.0130	0.9
63.9615	1.0
69.0335	1.2
75.0078	1.8
79.9564	3.3
80.9642	6.7
90.0089	0.9
91.0543	4.3
119.0493	1.0
121.0285	1.1
122.0238	2.4
123.0319	1.8
133.0652	0.9
134.0365	3.5
135.0443	2.8
136.0520	1.2
137.0224	0.9
147.0444	7.4
147.0642	1.4
147.0802	0.9
148.0421	1.1
148.0758	3.0
149.0602	2.9
149.0963	11.8
150.0550	1.9
150.1007	1.0
151.0411	1.1
151.0488	1.0
151.0870	1.4
157.0650	0.8
165.0200	1.5
166.0151	1.1
167.0357	2.4
168.0300	0.8
175.0757	36.5
176.0792	4.0
180.0282	14.3
191.0548	0.9
191.9966	1.9
192.0312	2.8
192.0659	49.5
193.0362	2.0
193.0388	2.1
193.0497	2.0
193.0700	8.8
193.0865	100.0
194.0100	1.2
194.0462	2.7
194.0903	11.5
194.9965	1.7
195.0324	1.3
195.0515	40.8

Name: Estriol
PrecursorMZ: 289.18093
RT: 0.94
ExactMass: 288.17254462
Spectrum_type: 2
charge: -1
Formula: C18H24O3
SMILES: C[C@]12CC[C@H]3[C@H]([C@@H]1C[C@H]([C@@H]2O)O)CCC4=C3C=CC(=C4)O
Method: HCD
Collision_energy: [28.333334]
Isolation_window: 4.0
Ion_mode: N
Num Peaks: 7
97.4403	12.3
135.0807	21.1
245.1910	100.0
246.1935	16.4
289.1809	82.3
290.1840	14.2
291.0835	10.0

Name: Ethopabate
PrecursorMZ: 236.09301
RT: 1.4002
ExactMass: 237.10010796
Spectrum_type: 2
charge: -1
Formula: C12H15NO4
SMILES: CCOC1=C(C=CC(=C1)NC(=O)C)C(=O)OC
Method: HCD
Collision_energy: [28.333334]
Isolation_window: 4.0
Ion_mode: N
Num Peaks: 61
59.0130	1.0
71.0131	0.3
74.0238	0.3
83.0494	0.4
85.0649	2.7
88.0394	0.7
94.0289	6.9
97.0650	4.9
108.0449	0.5
108.0558	1.4
111.0443	3.7
114.0553	0.7
115.0393	1.6
120.0445	0.7
122.0602	0.5
129.0349	0.6
129.0549	100.0
129.0705	0.5
129.0751	0.7
130.0582	6.5
130.0858	0.6
131.0592	0.4
135.0556	0.4
136.0400	0.4
136.0757	0.4
137.0350	0.7
138.0553	0.5
141.0550	6.1
142.0583	0.4
150.0665	2.1
150.1029	1.1
151.0740	0.3
152.0822	2.9
154.0613	0.3
164.0708	0.3
165.1025	1.2
174.0920	0.6
180.5875	0.3
182.0534	0.4
190.0867	0.3
191.0827	0.3
192.0654	0.4
192.0988	0.6
192.1155	1.2
193.1343	0.4
194.1296	0.5
218.0947	1.0
220.1091	1.5
234.1546	1.2
234.6563	0.4
235.0719	0.4
235.1126	1.0
235.1647	0.5
236.0924	3.7
236.1044	0.5
236.1068	3.1
237.1126	0.3
237.1251	1.1
237.1506	0.6
238.1202	3.7
238.1226	0.4

Name: Ethosuximide
PrecursorMZ: 124.07599
RT: 2.234
ExactMass: 141.078978594
Spectrum_type: 2
charge: -1
Formula: C7H11NO2
SMILES: CCC1(CC(=O)NC1=O)C
Method: HCD
Collision_energy: [28.333334]
Isolation_window: 4.0
Ion_mode: N
Num Peaks: 3
96.0810	81.4
123.9015	100.0
124.0760	90.0

Name: Ethyl Lactate
PrecursorMZ: 219.12339
RT: 6.0234
ExactMass: 118.062994177
Spectrum_type: 2
charge: -1
Formula: C5H10O3
SMILES: CCOC(=O)C(C)O
Method: HCD
Collision_energy: [28.333334]
Isolation_window: 4.0
Ion_mode: N
Num Peaks: 19
59.0129	3.0
71.0130	3.8
73.0286	3.9
87.0078	3.2
88.0394	7.0
115.0755	1.9
129.0915	2.1
133.1013	2.0
141.0911	2.0
146.0812	3.5
157.0862	4.1
158.0451	2.2
201.1128	6.8
217.0764	2.8
218.1040	1.9
219.0506	3.4
219.0896	3.3
219.1234	100.0
220.1259	9.6

Name: Ethyl palmitate
PrecursorMZ: 283.26405
RT: 1.0794
ExactMass: 284.271530387
Spectrum_type: 2
charge: -1
Formula: C18H36O2
SMILES: CCCCCCCCCCCCCCCC(=O)OCC
Method: HCD
Collision_energy: [28.333334]
Isolation_window: 4.0
Ion_mode: N
Num Peaks: 4
281.2488	37.7
282.2521	38.0
283.2643	100.0
284.2679	19.0

Name: Ferulic Acid
PrecursorMZ: 193.04969
RT: 1.1259
ExactMass: 194.0579088
Spectrum_type: 2
charge: -1
Formula: C10H10O4
SMILES: COC1=C(C=CC(=C1)/C=C/C(=O)O)O
Method: HCD
Collision_energy: [28.333334]
Isolation_window: 4.0
Ion_mode: N
Num Peaks: 22
65.0135	4.2
109.0395	3.8
134.0362	51.0
135.0390	3.9
137.0235	6.8
149.0598	21.8
150.0546	13.2
165.0201	3.1
176.8942	18.9
178.0262	37.5
179.0307	4.1
180.0277	5.6
191.0355	4.3
191.0550	5.6
192.0303	17.4
192.9104	6.9
193.0127	3.1
193.0497	35.1
194.0500	4.3
194.9049	100.0
195.0307	4.2
195.0510	28.2

Name: Feruloyltyramine
PrecursorMZ: 296.12905
RT: 2.0801
ExactMass: 313.13140809
Spectrum_type: 2
charge: -1
Formula: C18H19NO4
SMILES: COC1=C(C=CC(=C1)/C=C/C(=O)NCCC2=CC=C(C=C2)O)O
Method: HCD
Collision_energy: [28.333334]
Isolation_window: 4.0
Ion_mode: N
Num Peaks: 10
147.0446	22.4
148.0762	16.8
164.0711	100.0
252.1393	13.0
295.0815	14.2
295.1190	10.8
296.1292	72.2
297.0630	22.7
297.1309	13.7
297.2434	20.7

Name: Fisetin
PrecursorMZ: 269.04528
RT: 2.4473
ExactMass: 286.04773803
Spectrum_type: 2
charge: -1
Formula: C15H10O6
SMILES: C1=CC(=C(C=C1C2=C(C(=O)C3=C(O2)C=C(C=C3)O)O)O)O
Method: HCD
Collision_energy: [28.333334]
Isolation_window: 4.0
Ion_mode: N
Num Peaks: 9
96.9591	7.1
165.0188	13.6
267.0298	18.2
268.0317	9.0
268.1409	37.5
268.6421	11.4
269.0457	100.0
270.0484	30.9
271.0616	18.4

Name: Flavan-3,3',4',5,5',7-hexol
PrecursorMZ: 307.08227
RT: 5.099
ExactMass: 306.07395278
Spectrum_type: 2
charge: -1
Formula: C15H14O7
SMILES: C1C(C(OC2=CC(=CC(=C21)O)O)C3=CC(=C(C(=C3)O)O)O)O
Method: HCD
Collision_energy: [28.333334]
Isolation_window: 4.0
Ion_mode: N
Num Peaks: 23
59.0131	6.8
79.9563	5.7
96.9593	7.0
136.0761	11.9
137.0600	7.8
138.0912	6.7
147.0810	8.7
149.0602	4.9
159.1021	4.4
175.0757	12.8
182.0817	13.4
188.1078	6.1
205.0870	7.8
215.0710	4.2
235.0972	15.6
261.1610	27.0
262.1646	10.5
263.0926	24.6
263.1780	5.3
307.0827	100.0
307.1615	13.2
308.0861	16.3
309.1709	4.4

Name: Galacturonic Acid
PrecursorMZ: 193.03486
RT: 4.780966666666666
ExactMass: 194.04265265
Spectrum_type: 2
charge: -1
Formula: C6H10O7
SMILES: C(=O)[C@@H]([C@H]([C@H]([C@@H](C(=O)O)O)O)O)O
Method: HCD
Collision_energy: [28.333334]
Isolation_window: 4.0
Ion_mode: N
Num Peaks: 13
73.0288	0.7
116.9275	1.8
131.0342	1.6
174.9001	2.3
175.0244	0.7
176.8947	32.1
192.0309	1.2
192.9109	7.7
193.0353	2.3
194.8689	0.7
194.8755	0.7
194.9053	100.0
194.9426	0.7

Name: Gallic Acid
PrecursorMZ: 171.02922
RT: 6.9373
ExactMass: 170.02152329
Spectrum_type: 2
charge: -1
Formula: C7H6O5
SMILES: C1=C(C=C(C(=C1O)O)O)C(=O)O
Method: HCD
Collision_energy: [28.333334]
Isolation_window: 4.0
Ion_mode: N
Num Peaks: 9
79.9565	28.2
80.9643	16.7
83.0493	100.0
111.0808	37.9
127.0393	52.7
171.0307	30.8
171.1381	20.7
173.0453	18.8
173.0817	26.3

Name: Gamma-Butyrolactone
PrecursorMZ: 173.08125
RT: 2.7412
ExactMass: 86.03677943
Spectrum_type: 2
charge: -1
Formula: C4H6O2
SMILES: C1CC(=O)OC1
Method: HCD
Collision_energy: [28.333334]
Isolation_window: 4.0
Ion_mode: N
Num Peaks: 19
79.9565	12.6
83.0493	3.7
85.0285	5.6
99.0079	3.7
99.0441	4.3
111.0443	27.2
113.0237	7.6
127.9970	5.8
129.0188	4.5
129.0549	12.2
129.0913	100.0
130.0948	7.4
155.0708	11.9
171.1022	9.8
172.0069	3.6
173.0019	16.1
173.0454	24.1
173.0814	47.9
174.0844	5.2

Name: Gamma-Linolenic acid
PrecursorMZ: 277.21741
RT: 0.9888
ExactMass: 278.224580195
Spectrum_type: 2
charge: -1
Formula: C18H30O2
SMILES: CCCCC/C=C\C/C=C\C/C=C\CCCCC(=O)O
Method: HCD
Collision_energy: [28.333334]
Isolation_window: 4.0
Ion_mode: N
Num Peaks: 6
79.9564	6.6
277.1119	6.8
277.1848	2.7
277.2172	37.6
278.2208	6.6
279.2330	100.0

Name: Gemfibrozil
PrecursorMZ: 309.1702
RT: 1.2833
ExactMass: 250.15689456
Spectrum_type: 2
charge: -1
Formula: C15H22O3
SMILES: CC1=CC(=C(C=C1)C)OCCCC(C)(C)C(=O)O
Method: HCD
Collision_energy: [28.333334]
Isolation_window: 4.0
Ion_mode: N
Num Peaks: 66
59.0129	2.4
69.2434	2.0
73.0285	5.0
74.0238	2.6
75.0441	4.6
95.0126	1.9
96.9591	8.7
97.4652	1.7
99.0077	100.0
99.0805	1.6
100.0111	3.7
101.0598	2.7
115.0754	2.2
117.0183	4.7
151.0756	7.8
152.0834	7.7
161.0963	2.6
162.1042	7.6
163.1107	1.8
167.1069	9.8
179.1070	13.3
179.1435	2.2
180.0785	2.1
180.1106	1.9
183.1383	5.2
184.0735	2.3
190.0991	3.4
193.0863	1.5
207.1384	4.0
208.1098	9.8
209.1540	41.7
210.1575	5.5
219.1748	9.4
220.1777	1.3
221.1904	5.3
223.0972	2.9
223.1332	2.5
247.1699	5.9
265.1807	12.5
266.1840	2.4
277.2169	27.0
278.2204	4.2
281.1755	4.8
307.6309	2.9
308.1376	42.5
308.6391	15.0
308.6425	5.4
309.1279	5.2
309.1321	4.8
309.1386	7.8
309.1452	2.3
309.1713	34.0
309.2067	2.0
309.2430	22.4
309.6311	1.7
309.6401	2.3
310.1344	6.2
310.1744	6.4
310.2368	1.9
310.2466	4.3
310.6386	2.3
311.1295	2.4
311.1335	2.8
311.1684	31.6
311.2220	7.9
311.2937	2.3

Name: Gentiopicroside
PrecursorMZ: 355.10448
RT: 4.6286
ExactMass: 356.11073221
Spectrum_type: 2
charge: -1
Formula: C16H20O9
SMILES: C=C[C@H]1[C@@H](OC=C2C1=CCOC2=O)O[C@H]3[C@@H]([C@H]([C@@H]([C@H](O3)CO)O)O)O
Method: HCD
Collision_energy: [28.333334]
Isolation_window: 4.0
Ion_mode: N
Num Peaks: 57
59.0129	1.7
71.0129	0.7
72.9922	1.0
73.0286	0.7
74.0238	0.8
75.0078	1.2
79.9564	1.3
80.9641	1.2
85.0285	1.2
87.0078	1.4
93.0214	0.8
93.0292	2.1
93.0336	100.0
94.0369	6.1
96.9591	2.8
113.0233	0.8
114.0551	2.5
115.0391	0.8
119.0494	1.6
127.0504	0.9
128.0345	1.2
130.0865	10.7
131.0902	0.7
180.1023	1.0
183.1012	0.7
193.0724	1.8
197.1293	0.7
202.0488	0.8
217.0725	12.9
218.0763	1.3
223.1085	3.8
269.1038	1.4
275.0924	2.0
296.0914	4.3
310.2131	1.7
311.1148	20.0
312.1175	4.1
353.2348	4.9
354.1237	0.8
354.1642	1.2
354.2026	10.8
354.2374	1.2
355.0524	2.2
355.0562	0.7
355.1042	35.6
355.1464	0.9
355.1545	1.6
355.2057	2.7
355.2491	6.1
356.1075	7.5
356.1751	2.8
356.2488	1.5
356.6770	0.9
357.1030	1.0
357.1074	1.1
357.1399	0.8
357.2644	6.0

Name: Ginkgolic acid
PrecursorMZ: 345.24339
RT: 0.740588888888889
ExactMass: 346.25079494
Spectrum_type: 2
charge: -1
Formula: C22H34O3
SMILES: CCCCCC/C=C\CCCCCCCC1=C(C(=CC=C1)O)C(=O)O
Method: HCD
Collision_energy: [28.333334]
Isolation_window: 4.0
Ion_mode: N
Num Peaks: 11
299.2383	3.7
300.2419	5.6
301.2537	100.0
301.3242	0.8
302.2572	19.8
303.2691	7.1
343.2278	2.3
344.2314	5.8
345.2437	89.3
346.2469	21.4
347.2583	7.8

Name: Ginkgolic acid II
PrecursorMZ: 373.2743
RT: 0.7408
ExactMass: 374.28209507
Spectrum_type: 2
charge: -1
Formula: C24H38O3
SMILES: CCCCCC/C=C\CCCCCCCCCC1=C(C(=CC=C1)O)C(=O)O
Method: HCD
Collision_energy: [28.333334]
Isolation_window: 4.0
Ion_mode: N
Num Peaks: 11
97.4062	1.4
327.2692	2.6
328.2725	12.3
329.2846	98.0
330.2880	23.4
331.2960	3.5
371.2584	1.4
372.2623	11.4
373.2745	100.0
374.2780	24.9
375.2850	4.8

Name: Glucose 6-phosphate
PrecursorMZ: 259.02209
RT: 9.267566666666667
ExactMass: 260.02971899
Spectrum_type: 2
charge: -1
Formula: C6H13O9P
SMILES: C([C@@H]1[C@H]([C@@H]([C@H](C(O1)O)O)O)O)OP(=O)(O)O
Method: HCD
Collision_energy: [28.333334]
Isolation_window: 4.0
Ion_mode: N
Num Peaks: 4
78.9580	20.9
96.9686	100.0
128.0345	21.3
259.0212	10.4

Name: Glycerophosphoric acid
PrecursorMZ: 171.00557
RT: 4.6178
ExactMass: 172.013675
Spectrum_type: 2
charge: -1
Formula: C3H9O6P
SMILES: C(C(COP(=O)(O)O)O)O
Method: HCD
Collision_energy: [28.333334]
Isolation_window: 4.0
Ion_mode: N
Num Peaks: 24
65.0136	2.4
65.9976	3.2
78.9580	100.0
96.9686	5.7
99.9248	2.7
115.9197	5.4
126.0087	2.7
127.0756	1.9
142.0046	2.3
144.0194	3.3
154.9465	26.0
169.0145	5.4
169.0380	2.0
170.0342	5.9
170.0813	1.8
171.0055	36.1
171.0193	43.9
171.1017	4.8
171.1382	2.7
172.0102	2.8
172.0235	3.4
172.9572	6.3
173.0217	2.0
173.0473	2.1

Name: Glyceryl 1-phosphate
PrecursorMZ: 171.0057
RT: 8.4879
ExactMass: 172.013675
Spectrum_type: 2
charge: -1
Formula: C3H9O6P
SMILES: C(C(COP(=O)(O)O)O)O
Method: HCD
Collision_energy: [28.333334]
Isolation_window: 4.0
Ion_mode: N
Num Peaks: 10
78.9581	100.0
127.0756	6.7
128.0708	7.0
169.0978	6.4
170.0817	14.9
171.0057	19.7
171.0662	10.5
171.1018	29.9
171.1391	8.2
172.0615	10.4

Name: Glycolic Acid
PrecursorMZ: 135.02898
RT: 8.1139
ExactMass: 76.016043985
Spectrum_type: 2
charge: -1
Formula: C2H4O3
SMILES: C(C(=O)O)O
Method: HCD
Collision_energy: [28.333334]
Isolation_window: 4.0
Ion_mode: N
Num Peaks: 12
59.0129	4.2
72.9922	14.8
75.0079	91.6
117.0185	7.3
134.8648	17.9
134.8939	100.0
135.0292	42.5
135.0444	5.1
135.8941	12.2
135.9703	5.3
136.8619	5.4
136.8910	27.0

Name: Glycyl-L-leucine
PrecursorMZ: 187.10804
RT: 5.9899
ExactMass: 188.11609238
Spectrum_type: 2
charge: -1
Formula: C8H16N2O3
SMILES: CC(C)C[C@@H](C(=O)O)NC(=O)CN
Method: HCD
Collision_energy: [28.333334]
Isolation_window: 4.0
Ion_mode: N
Num Peaks: 49
58.0289	13.0
59.0129	1.6
69.0788	1.6
71.0129	1.5
72.0081	3.7
72.0445	8.2
73.0399	1.7
74.0238	32.4
83.0492	1.6
84.0445	5.0
85.0397	1.5
87.0078	4.0
88.0394	28.1
94.0290	2.0
98.0236	1.6
98.0601	12.2
99.0443	2.0
102.0551	2.6
114.0550	1.9
114.0914	2.2
115.0866	4.2
116.0706	2.8
125.0599	1.9
125.0964	1.6
126.0915	5.7
130.0866	4.9
142.0864	4.7
143.1181	46.4
144.0447	3.3
144.1023	5.1
144.1217	3.5
146.0814	100.0
147.0850	3.5
150.0174	2.5
169.0854	1.7
170.0817	2.0
186.0767	8.0
187.0412	5.1
187.0613	4.9
187.0734	3.6
187.0960	12.6
187.1082	74.6
188.0922	43.2
188.1112	6.9
188.1139	2.5
189.0403	2.8
189.0771	1.8
189.0955	2.6
189.1126	10.2

Name: Glycyl-L-proline
PrecursorMZ: 171.07686
RT: 9.073485714285715
ExactMass: 172.08479225
Spectrum_type: 2
charge: -1
Formula: C7H12N2O3
SMILES: C1C[C@H](N(C1)C(=O)CN)C(=O)O
Method: HCD
Collision_energy: [28.333334]
Isolation_window: 4.0
Ion_mode: N
Num Peaks: 44
59.0130	4.2
65.0136	7.8
65.9976	4.7
96.0447	2.9
98.0602	7.1
99.0078	4.9
101.0137	4.0
102.0088	2.6
112.0395	7.0
113.0347	2.7
114.0552	4.5
117.0661	22.1
125.0963	2.9
126.0092	2.9
127.0756	3.2
127.0867	11.0
127.1120	3.0
128.0246	3.5
129.1026	6.6
130.0866	3.2
141.9994	3.7
142.0403	2.9
143.0355	3.7
144.0197	5.9
154.9467	54.5
169.0145	6.5
169.0392	3.3
170.0340	12.1
170.0463	4.1
170.0811	5.2
171.0192	100.0
171.0438	6.4
171.0769	93.3
171.1016	10.4
171.1382	5.1
172.0137	7.4
172.0241	4.8
172.0396	5.6
172.0801	6.2
172.0972	25.9
172.9573	14.8
173.0228	5.1
173.0471	4.9
173.0924	18.6

Name: Glycyl-L-tyrosine
PrecursorMZ: 237.08784
RT: 6.8711
ExactMass: 238.09535693
Spectrum_type: 2
charge: -1
Formula: C11H14N2O4
SMILES: C1=CC(=CC=C1C[C@@H](C(=O)O)NC(=O)CN)O
Method: HCD
Collision_energy: [28.333334]
Isolation_window: 4.0
Ion_mode: N
Num Peaks: 15
59.0130	12.2
71.0130	11.3
73.0399	100.0
119.0494	21.6
122.0241	13.8
123.0557	24.6
180.0664	36.1
189.0667	21.3
193.0982	16.1
194.0807	15.3
235.0824	12.7
235.1196	13.9
236.1061	16.0
237.0876	81.9
238.0710	25.6

Name: Guanidinosuccinic acid
PrecursorMZ: 174.05137
RT: 8.8161
ExactMass: 175.05930578
Spectrum_type: 2
charge: -1
Formula: C5H9N3O4
SMILES: C([C@@H](C(=O)O)N=C(N)N)C(=O)O
Method: HCD
Collision_energy: [28.333334]
Isolation_window: 4.0
Ion_mode: N
Num Peaks: 30
58.0290	5.4
71.0130	2.2
88.0395	27.5
93.0336	2.0
102.0551	1.7
112.0758	1.8
113.0713	1.6
114.0188	6.5
114.0552	1.9
115.0028	3.4
127.0870	3.7
128.0709	5.2
129.1025	9.0
130.0866	6.9
131.0818	37.1
132.0295	32.2
132.0558	1.6
132.0855	2.1
133.0330	1.3
146.0604	1.3
154.9467	4.3
155.0818	1.4
156.0407	3.1
172.0612	2.0
173.0477	1.4
173.0926	100.0
174.0527	7.5
174.0767	6.9
174.0958	7.9
174.1128	1.6

Name: Heneicosanoic Acid
PrecursorMZ: 325.31115
RT: 1.0636545454545454
ExactMass: 326.318480578
Spectrum_type: 2
charge: -1
Formula: C21H42O2
SMILES: CCCCCCCCCCCCCCCCCCCCC(=O)O
Method: HCD
Collision_energy: [28.333334]
Isolation_window: 4.0
Ion_mode: N
Num Peaks: 19
69.2062	0.6
183.0112	4.2
261.0877	0.7
268.0951	0.7
323.2110	1.2
323.2957	3.1
324.2093	1.9
324.2987	1.4
325.0794	0.8
325.1851	100.0
325.2685	0.8
325.3112	36.4
325.6679	2.7
326.1878	19.8
326.1907	4.0
326.3144	8.7
327.1611	15.4
327.1682	0.7
327.2914	1.3

Name: Heptadecanoic Acid
PrecursorMZ: 269.2486
RT: 1.2629
ExactMass: 270.255880323
Spectrum_type: 2
charge: -1
Formula: C17H34O2
SMILES: CCCCCCCCCCCCCCCCC(=O)O
Method: HCD
Collision_energy: [28.333334]
Isolation_window: 4.0
Ion_mode: N
Num Peaks: 5
267.6532	13.5
268.1530	4.7
268.2363	2.3
269.2486	100.0
270.2521	19.1

Name: Hesperidin
PrecursorMZ: 609.18316
RT: 5.3194
ExactMass: 610.18977037
Spectrum_type: 2
charge: -1
Formula: C28H34O15
SMILES: C[C@H]1[C@@H]([C@H]([C@H]([C@@H](O1)OC[C@@H]2[C@H]([C@@H]([C@H]([C@@H](O2)OC3=CC(=C4C(=O)C[C@H](OC4=C3)C5=CC(=C(C=C5)OC)O)O)O)O)O)O)O)O
Method: HCD
Collision_energy: [28.333334]
Isolation_window: 4.0
Ion_mode: N
Num Peaks: 7
242.0578	4.1
286.0482	6.7
301.0719	100.0
302.0753	14.7
325.0727	2.8
609.1835	17.5
610.1860	5.2

Name: Hexylresorcinol
PrecursorMZ: 193.12282
RT: 1.3292
ExactMass: 194.130679813
Spectrum_type: 2
charge: -1
Formula: C12H18O2
SMILES: CCCCCCC1=C(C=C(C=C1)O)O
Method: HCD
Collision_energy: [28.333334]
Isolation_window: 4.0
Ion_mode: N
Num Peaks: 15
57.0337	26.7
79.0543	26.2
80.9643	19.9
107.0494	18.5
107.0858	12.1
121.0651	96.1
123.0807	25.8
135.0807	24.0
136.0157	17.9
149.0964	87.0
151.0393	73.0
175.1121	11.7
193.0497	51.3
193.1229	100.0
195.0293	74.0

Name: Hippuric Acid
PrecursorMZ: 178.05011
RT: 1.6944666666666668
ExactMass: 179.058243149
Spectrum_type: 2
charge: -1
Formula: C9H9NO3
SMILES: C1=CC=C(C=C1)C(=O)NCC(=O)O
Method: HCD
Collision_energy: [28.333334]
Isolation_window: 4.0
Ion_mode: N
Num Peaks: 28
79.9564	20.2
80.9642	100.0
82.9599	4.6
91.0543	3.8
92.0496	54.4
93.0529	3.5
107.0492	7.2
108.0445	4.4
108.9330	4.1
116.0708	4.5
119.9751	7.1
134.0602	79.4
135.0443	54.3
135.0630	6.7
136.0394	40.1
137.9854	3.8
152.0346	3.8
176.9856	3.0
177.0213	14.7
177.0534	3.5
178.0502	43.5
178.0529	55.9
179.0010	11.5
179.0344	30.2
179.0552	9.1
179.0824	6.4
179.9963	5.9
180.0323	8.4

Name: Homocitrulline
PrecursorMZ: 188.10339
RT: 9.374
ExactMass: 189.11134135
Spectrum_type: 2
charge: -1
Formula: C7H15N3O3
SMILES: C(CCNC(=O)N)C[C@@H](C(=O)O)N
Method: HCD
Collision_energy: [28.333334]
Isolation_window: 4.0
Ion_mode: N
Num Peaks: 25
58.0289	2.5
88.0394	1.1
94.0289	3.5
101.0600	0.9
116.0708	5.2
121.0510	1.3
125.0235	1.1
125.0963	2.1
126.0916	1.1
127.0394	1.2
127.0870	3.0
128.0710	1.8
143.1183	9.3
144.1022	4.6
145.0975	100.0
146.1013	6.5
171.0294	1.6
171.0770	4.6
186.1127	2.0
187.1086	19.0
188.0920	3.8
188.1066	2.5
188.1108	1.7
188.1280	4.4
189.0410	0.9

Name: Homocysteic acid
PrecursorMZ: 182.01228
RT: 4.7975
ExactMass: 183.02014356
Spectrum_type: 2
charge: -1
Formula: C4H9NO5S
SMILES: C(CS(=O)(=O)O)C(C(=O)O)N
Method: HCD
Collision_energy: [28.333334]
Isolation_window: 4.0
Ion_mode: N
Num Peaks: 14
68.9948	7.9
79.9564	20.1
109.0400	7.1
112.9846	33.3
120.9956	14.8
137.9046	9.1
138.0552	7.7
164.9857	51.1
180.8396	19.1
181.0496	6.4
182.0122	100.0
182.0473	15.6
183.0161	5.3
183.0306	11.5

Name: Homogentisic Acid
PrecursorMZ: 167.03432
RT: 4.4333
ExactMass: 168.04225873
Spectrum_type: 2
charge: -1
Formula: C8H8O4
SMILES: C1=CC(=C(C=C1O)CC(=O)O)O
Method: HCD
Collision_energy: [28.333334]
Isolation_window: 4.0
Ion_mode: N
Num Peaks: 33
78.9850	10.0
79.9565	5.0
80.9642	4.1
81.0336	3.0
94.0292	2.9
95.0493	6.1
96.0446	3.6
97.0288	2.3
107.0494	4.1
121.0286	5.1
121.0649	3.4
122.0241	2.4
122.0604	5.2
123.0444	100.0
123.0806	3.0
124.0394	8.1
124.0479	7.6
124.0760	4.6
125.0599	5.8
135.0444	4.0
137.0241	2.3
148.9908	4.7
149.0240	3.1
165.0194	5.3
165.0553	2.6
166.0164	11.0
166.0528	11.2
167.0345	62.9
167.0607	6.1
167.1067	2.9
168.0401	4.8
168.0667	6.7
169.0525	2.5

Name: Homovanillic Acid
PrecursorMZ: 181.04992
RT: 5.2115
ExactMass: 182.0579088
Spectrum_type: 2
charge: -1
Formula: C9H10O4
SMILES: COC1=C(C=CC(=C1)CC(=O)O)O
Method: HCD
Collision_energy: [28.333334]
Isolation_window: 4.0
Ion_mode: N
Num Peaks: 10
71.0129	13.2
108.0205	9.3
109.0287	29.9
137.0348	10.0
137.0600	100.0
138.0549	14.7
163.0392	16.4
180.0308	12.1
180.0659	15.0
181.0497	31.6

Name: Hydroxycaprylic Acid
PrecursorMZ: 159.10188
RT: 4.1739
ExactMass: 160.109944368
Spectrum_type: 2
charge: -1
Formula: C8H16O3
SMILES: CCCCCCC(C(=O)O)O
Method: HCD
Collision_energy: [28.333334]
Isolation_window: 4.0
Ion_mode: N
Num Peaks: 14
97.0650	1.3
113.0964	2.9
115.0756	100.0
116.0790	6.5
132.0447	2.2
141.0550	9.7
158.9112	2.0
159.0320	3.5
159.0656	36.0
159.1016	3.1
160.0397	28.1
160.0682	2.7
160.9104	1.5
161.0436	2.0

Name: Hydroxyphenylacetic acid
PrecursorMZ: 151.03941
RT: 5.4778
ExactMass: 152.047344113
Spectrum_type: 2
charge: -1
Formula: C8H8O3
SMILES: C1=CC(=CC=C1CC(=O)O)O
Method: HCD
Collision_energy: [28.333334]
Isolation_window: 4.0
Ion_mode: N
Num Peaks: 34
59.0129	1.2
66.0341	19.9
80.0259	1.2
95.0494	1.8
96.9592	3.4
107.0494	83.4
108.0207	12.1
108.0447	100.0
108.0522	7.2
109.0289	2.6
109.0400	1.4
109.0480	2.6
109.0649	1.0
121.0288	1.2
122.0605	1.5
123.0444	1.7
125.0601	1.9
126.0555	2.1
134.0363	1.6
136.0159	17.0
137.0186	1.2
149.0600	1.6
150.0551	3.1
150.0970	1.8
151.0256	8.1
151.0393	42.4
151.0502	2.2
151.0758	5.8
151.0871	1.1
152.0109	8.3
152.0342	20.3
152.0703	3.2
153.0180	1.0
153.0551	1.0

Name: Hyodeoxycholic Acid
PrecursorMZ: 437.29108
RT: 0.6377
ExactMass: 392.29265975
Spectrum_type: 2
charge: -1
Formula: C24H40O4
SMILES: C[C@H](CCC(=O)O)[C@H]1CC[C@@H]2[C@@]1(CC[C@H]3[C@H]2C[C@@H]([C@H]4[C@@]3(CC[C@H](C4)O)C)O)C
Method: HCD
Collision_energy: [28.333334]
Isolation_window: 4.0
Ion_mode: N
Num Peaks: 11
79.9564	3.5
96.9592	7.6
241.2172	12.1
391.2856	100.0
392.2891	64.1
393.2919	16.5
394.2965	2.5
437.0543	4.4
437.2874	2.8
438.2607	5.5
439.0710	8.7

Name: Hypoxanthine
PrecursorMZ: 135.03043
RT: 5.9062
Spectrum_type: 2
charge: -1
SMILES: OC1=NC=NC=2N=CNC12
Method: HCD
Collision_energy: [28.333334]
Isolation_window: 4.0
Ion_mode: N
Num Peaks: 18
65.0137	1.9
92.0245	80.9
93.0216	1.0
93.0279	3.4
99.9248	0.6
107.0354	2.8
133.0148	1.3
134.0465	7.8
134.8652	2.5
134.8939	35.5
135.0091	0.9
135.0305	100.0
135.0474	0.9
135.8939	4.5
135.9703	0.8
136.0344	5.1
136.8622	0.8
136.8909	8.8

Name: Icosapent Ethyl
PrecursorMZ: 389.26937
RT: 3.0004
ExactMass: 330.255880323
Spectrum_type: 2
charge: -1
Formula: C22H34O2
SMILES: CC/C=C\C/C=C\C/C=C\C/C=C\C/C=C\CCCC(=O)OCC
Method: HCD
Collision_energy: [28.333334]
Isolation_window: 4.0
Ion_mode: N
Num Peaks: 6
227.1396	2.7
389.1877	1.8
389.2696	100.0
390.2730	26.7
391.2843	19.9
407.2824	2.5

Name: Iloprost
PrecursorMZ: 343.22772
RT: 0.7367
ExactMass: 360.2300595
Spectrum_type: 2
charge: -1
Formula: C22H32O4
SMILES: CC#CCC(C)[C@@H](/C=C/[C@H]1[C@@H](C[C@H]2[C@@H]1C/C(=C/CCCC(=O)O)/C2)O)O
Method: HCD
Collision_energy: [28.333334]
Isolation_window: 4.0
Ion_mode: N
Num Peaks: 10
297.2228	12.3
298.2255	16.1
299.2382	100.0
300.2417	21.4
301.2536	95.8
341.2127	17.7
342.2156	22.5
343.2279	81.0
344.2315	20.1
345.2437	86.3

Name: Imidazole
PrecursorMZ: 187.10824
RT: 5.6282
ExactMass: 68.037448136
Spectrum_type: 2
charge: -1
Formula: C3H4N2
SMILES: C1=CN=CN1
Method: HCD
Collision_energy: [28.333334]
Isolation_window: 4.0
Ion_mode: N
Num Peaks: 30
58.0289	17.4
59.0129	1.7
72.0082	3.0
72.0446	3.7
74.0238	42.0
82.0289	2.7
83.0130	1.6
84.0445	6.0
88.0395	13.8
98.0602	3.1
100.0396	1.7
101.0711	2.0
102.0552	15.6
114.0914	3.8
116.0709	3.6
126.0554	2.0
126.0916	3.8
130.0865	4.7
142.0865	3.0
143.1182	58.8
144.0658	1.7
144.1217	4.8
145.0610	4.5
170.0452	1.7
186.0767	11.8
187.0610	1.6
187.0734	6.4
187.1085	100.0
188.0924	6.8
188.1118	8.3

Name: Indole-2-carboxylic acid
PrecursorMZ: 160.03968
RT: 1.5718
ExactMass: 161.047678466
Spectrum_type: 2
charge: -1
Formula: C9H7NO2
SMILES: C1=CC=C2C(=C1)C=C(N2)C(=O)O
Method: HCD
Collision_energy: [28.333334]
Isolation_window: 4.0
Ion_mode: N
Num Peaks: 15
59.0129	1.4
71.0129	1.8
74.0239	1.6
85.0285	1.5
97.0650	3.4
115.0756	100.0
116.0708	1.3
116.0787	6.7
141.0550	9.2
159.0315	1.4
159.0657	50.3
160.0397	76.0
160.0679	4.0
161.0441	9.3
162.0559	1.3

Name: Indole-3-Acetic Acid
PrecursorMZ: 174.05529
RT: 5.4275
ExactMass: 175.06332853
Spectrum_type: 2
charge: -1
Formula: C10H9NO2
SMILES: C1=CC=C2C(=C1)C(=CN2)CC(=O)O
Method: HCD
Collision_energy: [28.333334]
Isolation_window: 4.0
Ion_mode: N
Num Peaks: 25
59.0129	14.3
67.0180	3.2
71.0129	5.3
72.0444	3.9
73.0285	4.1
87.0441	2.6
93.0336	13.0
100.0394	2.9
111.0442	8.2
111.0805	2.6
116.0707	8.7
128.0496	5.3
128.1072	9.8
130.0653	100.0
130.0859	12.4
131.0688	8.8
155.0341	3.8
172.0067	5.6
172.0969	9.1
173.0106	3.8
173.0448	47.4
173.0814	4.6
174.0554	5.1
175.0631	2.9
175.0970	4.6

Name: Indole-3-Carboxaldehyde
PrecursorMZ: 144.04443
RT: 1.4618538461538462
ExactMass: 145.052763847
Spectrum_type: 2
charge: -1
Formula: C9H7NO
SMILES: C1=CC=C2C(=C1)C(=CN2)C=O
Method: HCD
Collision_energy: [28.333334]
Isolation_window: 4.0
Ion_mode: N
Num Peaks: 4
118.0289	6.8
144.0446	100.0
145.0482	11.5
146.0238	4.3

Name: Indole-3-Carboxylic Acid
PrecursorMZ: 160.03976
RT: 5.301
ExactMass: 161.047678466
Spectrum_type: 2
charge: -1
Formula: C9H7NO2
SMILES: C1=CC=C2C(=C1)C(=CN2)C(=O)O
Method: HCD
Collision_energy: [28.333334]
Isolation_window: 4.0
Ion_mode: N
Num Peaks: 35
59.0130	2.6
69.0337	1.2
69.9528	1.4
71.0130	1.8
71.0493	1.7
79.9564	1.6
85.0286	1.7
85.0649	1.3
87.0440	1.5
97.0287	4.2
97.0650	4.1
101.0235	1.8
114.0914	1.7
115.0391	4.6
115.0756	25.4
116.0791	1.5
131.0349	1.7
132.0449	3.2
140.0710	4.9
141.0549	2.8
158.0817	1.3
158.8923	2.8
158.9113	1.5
159.0316	15.0
159.0658	14.5
159.1019	2.0
159.8934	4.4
160.0398	100.0
160.0614	1.7
160.8919	4.5
160.9111	1.4
161.0440	9.4
161.0599	1.3
161.8930	1.8
162.0560	2.1

Name: Indole-3-lactic acid
PrecursorMZ: 250.07176
RT: 5.2469
ExactMass: 205.07389321
Spectrum_type: 2
charge: -1
Formula: C11H11NO3
SMILES: C1=CC=C2C(=C1)C(=CN2)CC(C(=O)O)O
Method: HCD
Collision_energy: [28.333334]
Isolation_window: 4.0
Ion_mode: N
Num Peaks: 9
94.0288	14.5
174.0552	11.0
184.0010	12.0
184.0396	15.2
202.0503	100.0
203.0535	14.0
248.0796	21.9
248.5809	15.8
249.1508	7.6

Name: Indole-3-pyruvic acid
PrecursorMZ: 202.05008
RT: 1.1372
ExactMass: 203.058243149
Spectrum_type: 2
charge: -1
Formula: C11H9NO3
SMILES: C1=CC=C2C(=C1)C(=CN2)CC(=O)C(=O)O
Method: HCD
Collision_energy: [28.333334]
Isolation_window: 4.0
Ion_mode: N
Num Peaks: 17
58.9951	4.8
61.9874	3.0
98.0058	6.0
116.9274	2.8
140.0164	6.0
140.0704	2.3
158.0491	2.8
158.0600	100.0
159.0634	10.6
159.0765	3.8
160.0393	2.3
201.0762	2.5
202.0156	3.7
202.0503	84.1
202.0702	10.4
203.0542	13.9
204.0293	3.9

Name: Ingenol
PrecursorMZ: 347.18651
RT: 1.616
ExactMass: 348.19367399
Spectrum_type: 2
charge: -1
Formula: C20H28O5
SMILES: C[C@@H]1C[C@@H]2[C@@H](C2(C)C)[C@@H]3C=C([C@H]([C@]4([C@@]1(C3=O)C=C([C@@H]4O)C)O)O)CO
Method: HCD
Collision_energy: [28.333334]
Isolation_window: 4.0
Ion_mode: N
Num Peaks: 33
58.0051	0.9
59.0129	0.8
73.0286	1.6
220.0376	1.1
245.1909	0.7
255.1769	1.4
257.1912	2.1
273.1600	1.6
273.1864	1.8
275.2019	2.0
277.1810	0.7
285.1860	7.6
286.1892	1.5
287.2012	4.4
301.1811	5.3
302.1837	1.1
303.1965	22.3
304.1998	3.6
305.2121	11.9
317.1495	0.7
319.1920	1.4
329.1768	0.6
337.2019	2.0
345.1786	0.9
345.2270	0.8
346.1360	1.4
346.1731	1.2
347.1180	0.9
347.1866	37.5
348.1109	0.8
348.1495	1.0
348.1895	7.4
349.2023	100.0

Name: Inosine
PrecursorMZ: 267.07341
RT: 6.742413636363636
ExactMass: 268.0807695
Spectrum_type: 2
charge: -1
Formula: C10H12N4O5
SMILES: C1=NC2=C(C(=O)N1)N=CN2[C@H]3[C@@H]([C@@H]([C@H](O3)CO)O)O
Method: HCD
Collision_energy: [28.333334]
Isolation_window: 4.0
Ion_mode: N
Num Peaks: 122
59.0130	6.3
66.0341	0.4
69.0216	0.6
69.8273	0.3
71.0129	1.5
71.0494	0.5
72.9922	1.1
73.0286	1.9
75.0079	0.5
78.9582	0.6
79.9564	0.6
80.9643	1.9
85.0287	0.8
87.0079	1.2
88.0396	0.5
89.0235	0.4
92.0245	0.5
94.0289	1.3
96.0446	0.3
96.9592	0.8
96.9687	0.4
97.0286	0.5
98.0238	0.4
99.0443	0.5
101.0234	0.5
108.0446	0.7
109.0288	0.4
110.0240	1.1
111.0438	0.4
113.0236	0.5
114.0552	1.0
115.0393	0.4
116.0169	0.5
116.0708	0.8
118.0126	0.4
122.0605	0.3
123.0443	0.4
124.0066	0.5
124.0396	3.3
128.0343	0.5
130.0866	0.4
134.0466	1.6
135.0091	0.7
135.0134	0.6
135.0305	100.0
135.0472	0.8
135.0523	0.6
136.0345	3.9
136.0763	0.5
136.1123	1.4
137.0235	0.3
137.0348	0.6
138.0555	0.8
139.0391	0.3
148.0397	1.0
149.0603	0.4
150.0550	0.6
151.0754	0.3
163.0871	1.6
164.0715	0.4
165.1122	0.5
166.0502	1.3
167.0822	0.6
169.0619	0.4
175.0876	0.7
177.0413	0.7
177.0908	0.5
178.0500	0.6
178.0870	0.3
180.1023	2.5
190.0507	0.4
191.0827	1.0
206.0816	0.5
221.0800	0.5
221.0842	0.4
221.1542	0.7
222.1146	0.3
223.1309	0.8
223.1343	0.6
224.0917	1.5
225.1494	0.9
234.1447	0.4
235.1087	3.9
236.1123	0.9
237.0881	2.2
243.1493	0.7
243.6516	0.3
246.1727	0.4
249.1476	0.5
251.1284	0.7
259.1631	0.6
260.1703	0.5
265.0750	0.4
265.1155	0.4
265.1450	4.4
265.1476	0.4
265.6465	2.1
266.0421	0.5
266.0453	1.2
266.1017	1.0
266.1042	1.4
266.1486	1.2
267.0325	1.0
267.0735	64.0
267.1337	3.1
267.1608	3.4
267.1967	1.4
267.2331	1.3
268.0489	0.6
268.0774	8.6
268.1214	0.8
268.1674	3.0
268.6695	0.8
269.0428	0.7
269.0693	1.1
269.0749	0.5
269.1075	0.5
269.1117	0.5
269.1156	0.4
269.1401	1.2
269.1757	3.0
269.2478	0.6

Name: Isatin
PrecursorMZ: 146.02411
RT: 1.4233
ExactMass: 147.032028402
Spectrum_type: 2
charge: -1
Formula: C8H5NO2
SMILES: C1=CC=C2C(=C1)C(=O)C(=O)N2
Method: HCD
Collision_energy: [28.333334]
Isolation_window: 4.0
Ion_mode: N
Num Peaks: 4
61.9875	17.6
118.0290	100.0
119.0322	9.0
146.0241	80.7

Name: Isoallolithocholic Acid
PrecursorMZ: 375.29049
RT: 2.0567
ExactMass: 376.29774513
Spectrum_type: 2
charge: -1
Formula: C24H40O3
SMILES: C[C@H](CCC(=O)O)[C@H]1CC[C@@H]2[C@@]1(CC[C@H]3[C@H]2CC[C@@H]4[C@@]3(CC[C@@H](C4)O)C)C
Method: HCD
Collision_energy: [28.333334]
Isolation_window: 4.0
Ion_mode: N
Num Peaks: 4
69.5176	2.5
375.2908	100.0
376.2941	27.8
377.2967	2.6

Name: Isobutyrylglycine
PrecursorMZ: 144.06585
RT: 4.7597
ExactMass: 145.07389321
Spectrum_type: 2
charge: -1
Formula: C6H11NO3
SMILES: CC(C)C(=O)NCC(=O)O
Method: HCD
Collision_energy: [28.333334]
Isolation_window: 4.0
Ion_mode: N
Num Peaks: 12
74.0238	47.9
79.9565	8.7
88.0395	100.0
97.4411	7.8
99.0445	7.2
100.0031	13.0
100.0759	13.8
101.0599	24.2
144.0450	22.3
144.0658	49.0
145.0399	15.6
145.0499	7.8

Name: Isoferulic Acid
PrecursorMZ: 193.05014
RT: 4.8136
ExactMass: 194.0579088
Spectrum_type: 2
charge: -1
Formula: C10H10O4
SMILES: COC1=C(C=C(C=C1)/C=C/C(=O)O)O
Method: HCD
Collision_energy: [28.333334]
Isolation_window: 4.0
Ion_mode: N
Num Peaks: 27
79.9564	1.3
80.9643	2.6
89.0388	0.7
117.0337	8.8
118.0372	0.7
119.0495	0.7
121.0286	1.8
123.0441	0.8
134.0366	100.0
134.0576	0.9
135.0397	8.6
136.0520	1.9
137.0237	4.4
139.0397	1.3
149.0601	14.2
150.0650	1.1
151.0395	2.1
163.0508	2.2
165.0550	0.9
178.0266	17.4
179.0309	1.4
192.0305	1.0
193.0501	22.6
194.0509	3.4
194.9060	0.7
195.0514	0.8
195.0659	2.6

Name: Isoimperatorin
PrecursorMZ: 329.1025
RT: 3.0459
ExactMass: 270.08920892
Spectrum_type: 2
charge: -1
Formula: C16H14O4
SMILES: CC(=CCOC1=C2C=CC(=O)OC2=CC3=C1C=CO3)C
Method: HCD
Collision_energy: [28.333334]
Isolation_window: 4.0
Ion_mode: N
Num Peaks: 93
59.0130	4.0
71.0129	2.5
72.9922	2.6
73.0285	1.5
74.0238	5.5
75.0077	1.2
79.9563	4.5
80.9642	3.5
81.0336	5.8
82.0288	1.5
85.0286	2.5
86.0237	1.3
87.0078	8.0
88.0394	5.8
89.0235	3.6
93.0335	1.8
95.0493	1.9
96.9591	16.5
97.0285	1.4
98.0235	1.2
99.0443	1.8
101.0234	1.2
109.0286	2.0
110.0239	2.0
111.0444	1.6
112.0395	1.3
113.0346	1.9
114.0551	1.7
116.0707	4.9
119.0493	7.0
121.0650	4.5
123.0442	100.0
124.0475	7.7
125.0236	1.2
127.0504	1.8
128.0345	1.9
130.0864	7.9
135.0444	3.3
137.0239	2.3
137.0600	11.2
139.0393	2.2
140.0708	1.5
142.0501	1.2
147.0443	5.6
149.0599	5.0
155.0817	7.7
156.0411	1.2
156.0659	1.5
159.0446	1.3
161.0599	10.0
162.0223	1.6
163.0388	2.2
164.0707	2.8
165.0549	27.8
165.0663	1.7
180.0326	7.6
180.0658	5.4
181.0494	4.0
183.1131	2.8
195.0516	16.3
200.1396	1.6
201.1242	2.8
205.0500	23.2
206.0538	2.6
208.0281	1.4
221.0930	8.2
227.0707	1.4
227.1034	14.4
228.1063	1.7
232.0590	19.9
232.5603	4.3
233.0603	1.3
243.1019	3.6
284.1280	1.6
285.1128	14.3
286.1148	2.3
286.1418	3.0
286.1778	1.3
300.1570	1.2
310.1413	4.6
311.0914	1.5
327.1050	3.2
327.2155	1.8
327.2192	1.3
328.1137	6.6
328.1497	3.5
329.1024	95.0
329.1408	6.2
330.1060	19.2
330.1672	6.2
330.2046	2.8
331.0858	1.9
331.1254	3.8

Name: Isomaltose
PrecursorMZ: 341.10887
RT: 4.3513
ExactMass: 342.11621151
Spectrum_type: 2
charge: -1
Formula: C12H22O11
SMILES: C([C@@H]1[C@H]([C@@H]([C@H]([C@H](O1)OC[C@@H]2[C@H]([C@@H]([C@H](C(O2)O)O)O)O)O)O)O)O
Method: HCD
Collision_energy: [28.333334]
Isolation_window: 4.0
Ion_mode: N
Num Peaks: 17
59.0130	30.7
61.9875	4.3
71.0129	32.7
87.0078	3.2
89.0234	79.5
101.0235	24.4
113.0235	22.6
119.0341	34.0
131.0341	4.0
143.0341	5.6
149.0443	3.2
161.0448	6.3
179.0555	30.5
339.2008	8.1
341.1090	100.0
342.1121	12.0
343.1144	3.2

Name: Isopentenyladenine
PrecursorMZ: 405.22617
RT: 2.0748
ExactMass: 203.11709544
Spectrum_type: 2
charge: -1
Formula: C10H13N5
SMILES: CC(=CCNC1=NC=NC2=C1NC=N2)C
Method: HCD
Collision_energy: [28.333334]
Isolation_window: 4.0
Ion_mode: N
Num Peaks: 16
69.0336	0.6
243.1711	1.0
251.2011	0.8
289.2171	3.0
290.2202	0.6
315.1919	0.9
343.2638	2.4
361.2745	1.1
369.2434	0.9
387.2538	1.8
405.1525	0.6
405.1783	0.6
405.2644	100.0
405.3759	0.7
406.2679	25.6
407.2795	35.0

Name: Itaconic acid
PrecursorMZ: 131.03417
RT: 4.6747
ExactMass: 130.02660867
Spectrum_type: 2
charge: -1
Formula: C5H6O4
SMILES: C=C(CC(=O)O)C(=O)O
Method: HCD
Collision_energy: [28.333334]
Isolation_window: 4.0
Ion_mode: N
Num Peaks: 8
55.0181	6.4
73.0285	9.2
85.0650	100.0
87.0442	25.4
99.0079	77.0
115.9199	24.0
130.9305	12.7
131.0706	62.1

Name: Kynurenic Acid
PrecursorMZ: 188.03468
RT: 3.0781
ExactMass: 189.042593085
Spectrum_type: 2
charge: -1
Formula: C10H7NO3
SMILES: C1=CC=C2C(=C1)C(=O)C=C(N2)C(=O)O
Method: HCD
Collision_energy: [28.333334]
Isolation_window: 4.0
Ion_mode: N
Num Peaks: 6
142.0865	10.6
144.0448	100.0
145.0392	22.4
145.0489	5.9
187.0609	8.5
189.0323	8.8

Name: L-(+)-Cysteine
PrecursorMZ: 180.03273
RT: 1.1777
ExactMass: 121.01974964
Spectrum_type: 2
charge: -1
Formula: C3H7NO2S
SMILES: C([C@@H](C(=O)O)N)S
Method: HCD
Collision_energy: [28.333334]
Isolation_window: 4.0
Ion_mode: N
Num Peaks: 5
79.9564	48.4
108.9332	12.6
116.0708	30.7
180.0327	53.1
181.9910	100.0

Name: L-Alanine
PrecursorMZ: 134.04626
RT: 4.9239
ExactMass: 89.047678466
Spectrum_type: 2
charge: -1
Formula: C3H7NO2
SMILES: C[C@@H](C(=O)O)N
Method: HCD
Collision_energy: [28.333334]
Isolation_window: 4.0
Ion_mode: N
Num Peaks: 14
69.0192	1.9
69.0621	1.7
69.3734	1.5
90.9226	4.5
92.0244	4.6
107.0353	21.6
109.9411	11.6
115.9197	18.7
116.9199	2.7
134.0463	100.0
134.8937	16.2
135.0428	1.7
135.0497	4.1
135.9442	7.0

Name: L-Alanyl-L-leucine
PrecursorMZ: 201.12394
RT: 5.289
ExactMass: 202.13174244
Spectrum_type: 2
charge: -1
Formula: C9H18N2O3
SMILES: C[C@@H](C(=O)N[C@@H](CC(C)C)C(=O)O)N
Method: HCD
Collision_energy: [28.333334]
Isolation_window: 4.0
Ion_mode: N
Num Peaks: 20
87.0554	7.3
88.0395	1.5
112.0506	1.8
113.0540	1.5
116.0708	1.3
130.0865	21.4
131.0899	1.4
138.0551	1.5
139.0588	2.9
140.1074	3.0
156.1024	1.4
157.1339	42.4
158.1374	3.6
170.0614	1.2
181.0823	1.5
199.1698	3.5
200.0705	4.8
201.1241	100.0
202.0725	1.3
202.1275	9.7

Name: L-Aspartic Acid
PrecursorMZ: 132.02925
RT: 8.9988
ExactMass: 133.0375077
Spectrum_type: 2
charge: -1
Formula: C4H7NO4
SMILES: C([C@@H](C(=O)O)N)C(=O)O
Method: HCD
Collision_energy: [28.333334]
Isolation_window: 4.0
Ion_mode: N
Num Peaks: 31
59.0129	1.7
65.0136	4.3
67.0292	2.9
71.0129	53.8
72.9921	11.4
81.0448	1.2
85.0285	1.3
87.0078	3.6
87.0441	13.4
88.0394	47.3
89.0136	3.5
89.0233	6.8
89.0425	1.8
91.0291	4.7
105.0448	1.7
106.0400	1.5
114.0187	3.6
115.0027	100.0
116.0061	1.9
130.0403	1.9
130.0864	24.4
131.0352	9.4
131.0816	45.2
131.0899	3.6
132.0293	15.5
132.0447	2.2
132.0558	4.0
132.0853	2.7
133.0133	28.5
133.0399	1.7
133.0505	2.1

Name: L-Histidine
PrecursorMZ: 483.24227
RT: 4.543
ExactMass: 155.069476538
Spectrum_type: 2
charge: -1
Formula: C6H9N3O2
SMILES: C1=C(NC=N1)C[C@@H](C(=O)O)N
Method: HCD
Collision_energy: [28.333334]
Isolation_window: 4.0
Ion_mode: N
Num Peaks: 15
53.6922	2.6
53.6951	4.5
79.9566	3.2
80.9641	2.3
96.9592	31.7
331.1915	36.1
481.2262	2.8
481.3552	7.8
482.2341	10.7
482.3595	4.0
483.2469	100.0
484.2500	25.3
485.1855	13.0
485.2231	33.4
485.3291	7.7

Name: L-Hydroxylysine
PrecursorMZ: 145.09745
RT: 9.5038
ExactMass: 162.10044231
Spectrum_type: 2
charge: -1
Formula: C6H14N2O3
SMILES: C(C[C@@H](C(=O)O)N)[C@H](CN)O
Method: HCD
Collision_energy: [28.333334]
Isolation_window: 4.0
Ion_mode: N
Num Peaks: 3
102.0555	40.0
118.0401	85.7
145.0976	100.0

Name: L-Isoleucine
PrecursorMZ: 130.08636
RT: 7.5259
ExactMass: 131.094628657
Spectrum_type: 2
charge: -1
Formula: C6H13NO2
SMILES: CC[C@H](C)[C@@H](C(=O)O)N
Method: HCD
Collision_energy: [28.333334]
Isolation_window: 4.0
Ion_mode: N
Num Peaks: 9
65.0136	2.2
89.0135	2.5
91.0292	1.3
128.0708	16.5
129.0744	3.1
130.0404	3.6
130.0864	100.0
131.0353	5.8
131.0899	8.0

Name: L-Phenylalanine
PrecursorMZ: 164.07101
RT: 6.4402
ExactMass: 165.078978594
Spectrum_type: 2
charge: -1
Formula: C9H11NO2
SMILES: C1=CC=C(C=C1)C[C@@H](C(=O)O)N
Method: HCD
Collision_energy: [28.333334]
Isolation_window: 4.0
Ion_mode: N
Num Peaks: 20
57.0337	7.8
82.0401	9.8
94.0289	48.4
107.0367	12.5
108.0447	60.5
119.0243	7.3
121.0286	12.7
121.0511	22.4
122.0604	100.0
123.0316	5.9
123.0639	7.3
146.0605	13.5
149.0089	20.3
149.0474	5.9
162.8928	16.8
163.0140	6.1
164.0710	46.5
164.8949	7.8
165.0407	6.9
166.0530	8.9

Name: L-Proline
PrecursorMZ: 174.07673
RT: 8.4153
ExactMass: 115.06332853
Spectrum_type: 2
charge: -1
Formula: C5H9NO2
SMILES: C1C[C@H](NC1)C(=O)O
Method: HCD
Collision_energy: [28.333334]
Isolation_window: 4.0
Ion_mode: N
Num Peaks: 50
58.0289	2.9
59.0129	5.1
71.0129	7.2
73.0286	2.4
74.0238	4.9
84.0445	13.0
85.0285	3.9
87.0079	2.2
88.0394	10.4
90.9703	1.6
93.0336	3.1
102.0550	100.0
103.0585	4.1
104.0343	3.3
106.0401	1.3
111.0078	1.8
111.0442	2.7
111.0557	2.3
111.0806	4.3
112.0397	1.9
113.0234	3.3
114.0186	2.7
114.0551	9.2
115.0028	4.5
117.0660	1.7
128.0343	4.9
128.0708	5.9
129.1022	2.5
130.0500	2.2
130.0864	12.6
131.0345	2.1
131.0816	12.8
132.0292	11.3
132.0558	3.4
132.0656	1.6
134.0350	1.4
146.0450	2.1
154.9466	7.8
156.0658	13.6
157.0690	1.3
158.0451	6.3
172.0607	5.0
173.0449	9.0
173.0806	3.8
173.0928	26.4
174.0767	20.6
175.0250	2.8
175.0614	5.7
176.0343	3.6
176.0559	4.3

Name: L-Serine
PrecursorMZ: 150.04124
RT: 6.9302
ExactMass: 105.042593085
Spectrum_type: 2
charge: -1
Formula: C3H7NO3
SMILES: C([C@@H](C(=O)O)N)O
Method: HCD
Collision_energy: [28.333334]
Isolation_window: 4.0
Ion_mode: N
Num Peaks: 4
108.0194	12.2
126.0300	22.0
133.0147	100.0
150.0413	43.5

Name: L-Sorbose
PrecursorMZ: 179.05548
RT: 8.3952
ExactMass: 180.0633881
Spectrum_type: 2
charge: -1
Formula: C6H12O6
SMILES: C1[C@@H]([C@H]([C@@H](C(O1)(CO)O)O)O)O
Method: HCD
Collision_energy: [28.333334]
Isolation_window: 4.0
Ion_mode: N
Num Peaks: 81
57.0337	5.8
58.0052	5.0
58.9951	4.9
59.0130	75.4
63.9616	9.7
71.0130	89.4
71.0492	4.1
72.0082	7.4
72.9922	18.9
73.0286	13.5
75.0079	15.1
76.9694	8.0
79.9565	39.7
80.9643	41.2
81.0449	13.5
83.0130	7.8
85.0286	29.3
87.0079	20.7
89.0235	89.5
92.0497	15.0
93.0337	9.7
94.0289	16.2
95.0130	4.7
97.0286	16.8
99.0080	7.6
101.0235	58.0
107.0164	5.2
107.0371	4.3
107.0494	9.9
108.0447	9.2
109.0285	7.1
113.0236	22.6
115.0029	5.0
115.0393	19.2
119.0342	16.1
119.0493	14.6
120.0448	5.1
121.0286	6.4
122.0240	11.3
131.0342	14.7
133.0500	5.7
134.0237	4.4
134.0605	23.3
135.0114	7.5
135.0307	5.0
135.0445	87.3
135.0549	6.5
135.0805	6.4
136.0396	100.0
136.0482	5.5
136.0760	15.3
136.0868	4.5
137.0249	4.4
137.0597	8.2
137.0710	7.7
141.0185	7.1
145.0133	4.1
149.0235	5.2
150.0553	4.5
159.0293	53.7
160.0324	8.1
161.0452	19.1
162.0555	29.6
163.0394	21.2
163.0603	9.5
164.0471	7.4
177.0198	4.3
177.0401	32.0
177.0781	12.3
178.0365	10.0
178.0509	6.4
178.0855	4.6
179.0014	11.9
179.0341	36.3
179.0554	34.2
179.0705	11.8
180.0298	4.7
180.0656	44.1
181.0480	4.9
181.0717	49.7
181.0954	5.4

Name: L-Tartaric acid
PrecursorMZ: 149.00861
RT: 1.2895
ExactMass: 150.01643791
Spectrum_type: 2
charge: -1
Formula: C4H6O6
SMILES: [C@@H]([C@H](C(=O)O)O)(C(=O)O)O
Method: HCD
Collision_energy: [28.333334]
Isolation_window: 4.0
Ion_mode: N
Num Peaks: 7
74.9897	6.7
93.0003	5.3
97.4628	0.8
149.0087	100.0
150.0084	10.5
150.9880	1.7
151.0052	3.3

Name: L-Threonine
PrecursorMZ: 102.0551
RT: 3.8458
ExactMass: 119.058243149
Spectrum_type: 2
charge: -1
Formula: C4H9NO3
SMILES: C[C@H]([C@@H](C(=O)O)N)O
Method: HCD
Collision_energy: [28.333334]
Isolation_window: 4.0
Ion_mode: N
Num Peaks: 3
100.0397	4.3
101.0599	100.0
102.0632	6.2

Name: L-Tryptophan
PrecursorMZ: 203.08208
RT: 7.2964
ExactMass: 204.08987763
Spectrum_type: 2
charge: -1
Formula: C11H12N2O2
SMILES: C1=CC=C2C(=C1)C(=CN2)C[C@@H](C(=O)O)N
Method: HCD
Collision_energy: [28.333334]
Isolation_window: 4.0
Ion_mode: N
Num Peaks: 107
58.0290	4.3
59.0130	9.6
69.0338	1.6
71.0130	8.2
72.0082	35.2
72.0446	2.0
72.9922	3.6
73.0286	7.4
74.0239	35.6
79.9565	4.2
80.9642	2.0
81.0336	1.7
82.0290	1.5
83.0129	4.8
83.0493	2.0
84.0446	6.7
85.0286	7.6
87.0079	3.5
87.0443	3.1
88.0395	6.4
89.0236	1.8
97.0287	1.7
97.0650	2.4
98.0239	3.5
98.0603	2.6
99.0443	9.1
100.0030	1.8
100.0395	13.7
100.0475	1.7
101.0238	2.0
101.0428	7.1
102.0441	1.4
102.0551	2.2
110.0239	2.1
111.0442	2.2
111.0805	1.7
112.0396	2.3
113.0236	6.5
113.0349	3.2
113.0598	1.5
114.0552	1.3
115.0394	1.5
116.0497	100.0
116.0709	10.1
117.0533	8.5
117.0661	15.0
117.0743	1.4
125.0349	6.3
126.0554	1.7
127.0395	1.3
128.0346	32.8
129.0382	2.0
129.0553	2.1
129.1026	1.7
130.0502	4.7
130.0661	3.5
130.0866	57.3
131.0704	2.0
131.0901	4.0
132.0658	7.7
132.0813	1.3
139.0393	1.5
139.1120	1.5
140.0708	2.6
141.0550	1.3
141.0913	2.1
142.0503	4.2
142.0655	28.1
142.0859	2.6
143.0343	18.3
143.0694	3.6
144.0295	20.9
157.0761	1.7
157.1224	1.5
157.1337	2.1
158.0455	1.6
158.0605	2.9
159.0921	28.9
160.0400	5.1
160.0610	4.8
160.0961	2.8
160.9914	2.0
161.0471	1.7
170.0453	2.1
173.0926	7.8
185.0823	2.0
186.0555	6.7
187.0609	1.5
187.0979	1.6
201.0756	4.8
201.0951	17.8
201.1127	30.3
202.0713	14.8
202.0958	1.8
202.1133	4.7
202.1159	5.1
203.0552	12.2
203.0818	99.3
203.1277	7.8
203.9974	1.8
204.0504	2.8
204.0657	4.9
204.0857	14.9
204.9809	3.4
205.0714	10.8
205.1075	6.8
205.1594	2.7

Name: L-Tyrosine
PrecursorMZ: 180.06593
RT: 8.0359
ExactMass: 181.07389321
Spectrum_type: 2
charge: -1
Formula: C9H11NO3
SMILES: C1=CC(=CC=C1C[C@@H](C(=O)O)N)O
Method: HCD
Collision_energy: [28.333334]
Isolation_window: 4.0
Ion_mode: N
Num Peaks: 112
59.0130	14.2
63.9615	1.1
66.0341	4.7
71.0129	7.0
72.0082	18.4
72.9921	1.7
73.0285	2.0
74.0238	2.2
75.0079	6.3
76.0113	1.8
76.9694	1.1
79.9564	12.6
80.0371	3.2
80.0496	2.0
80.9643	11.0
81.0449	9.2
83.0131	1.7
85.0286	3.7
87.0078	2.6
89.0235	8.3
90.9227	1.8
92.0496	10.9
93.0337	21.7
94.0289	91.5
94.0369	1.4
94.0402	1.5
95.0322	4.3
95.0493	1.4
97.0286	1.4
99.0442	1.3
101.0235	5.9
106.0416	1.7
107.0370	2.5
107.0491	3.7
108.0207	1.2
108.0446	21.8
108.9333	3.6
108.9956	15.3
109.0158	1.2
109.0287	3.8
109.0398	1.3
109.0480	1.3
109.0651	2.0
110.0240	8.2
112.0395	1.4
115.0392	1.3
116.0345	1.8
119.0352	1.5
119.0494	31.9
120.0447	2.3
120.0527	2.3
121.0287	3.7
122.0239	4.4
122.0365	2.2
122.0603	4.8
123.0444	1.6
130.0502	1.2
131.0342	2.8
134.0240	3.5
134.0604	12.6
135.0118	1.3
135.0445	30.9
135.0551	2.5
135.0807	1.1
136.0396	100.0
136.0480	2.3
136.0759	3.8
136.0872	41.4
137.0238	5.9
137.0435	6.9
137.0600	15.4
137.0710	2.2
137.0908	2.8
138.0186	2.6
138.0222	5.8
138.0552	3.7
138.0663	7.4
140.0346	1.9
147.0319	2.7
149.0599	2.0
151.0392	1.2
152.0346	3.6
160.0609	1.8
161.0450	6.3
161.0471	1.3
162.0555	22.6
163.0394	61.5
163.0591	2.7
164.0432	5.9
166.0627	1.7
170.0762	1.1
178.0498	3.0
179.0343	12.2
179.0561	11.1
179.0579	1.6
179.0704	1.7
179.0820	1.4
180.0321	4.5
180.0394	1.3
180.0659	93.0
180.0784	2.1
180.9802	1.9
181.0134	1.1
181.0160	9.0
181.0498	10.1
181.0616	4.9
181.0699	9.0
181.0736	2.4
181.0756	3.9
182.0122	5.1
182.0437	1.9
182.0585	2.2

Name: L-leucyl-L-leucine
PrecursorMZ: 243.17118
RT: 2.7205
ExactMass: 244.17869263
Spectrum_type: 2
charge: -1
Formula: C12H24N2O3
SMILES: CC(C)C[C@@H](C(=O)N[C@@H](CC(C)C)C(=O)O)N
Method: HCD
Collision_energy: [28.333334]
Isolation_window: 4.0
Ion_mode: N
Num Peaks: 24
82.0653	1.5
87.0079	1.3
128.0709	1.3
129.1023	2.0
130.0866	32.3
131.0902	1.6
137.0351	2.0
155.1182	1.0
181.1591	6.3
182.1545	2.0
184.5022	1.1
199.1087	3.7
199.1812	34.8
200.1845	4.0
224.1651	1.7
225.1493	9.4
226.1525	1.4
241.5743	3.3
242.0700	1.9
242.1761	27.2
243.1324	2.0
243.1714	100.0
244.1749	13.1
245.0239	2.2

Name: L-valyl-L-phenylalanine
PrecursorMZ: 263.13972
RT: 2.4798
ExactMass: 264.1473925
Spectrum_type: 2
charge: -1
Formula: C14H20N2O3
SMILES: CC(C)[C@@H](C(=O)N[C@@H](CC1=CC=CC=C1)C(=O)O)N
Method: HCD
Collision_energy: [28.333334]
Isolation_window: 4.0
Ion_mode: N
Num Peaks: 11
96.9589	7.9
115.0867	75.1
116.0707	25.5
127.0867	18.2
136.0759	4.9
147.0444	23.4
164.0709	14.6
219.1496	9.2
263.1399	100.0
264.1424	13.3
265.1468	16.8

Name: Lactulose
PrecursorMZ: 341.10885
RT: 9.077063636363636
ExactMass: 342.11621151
Spectrum_type: 2
charge: -1
Formula: C12H22O11
SMILES: C([C@@H]1[C@@H]([C@@H]([C@H]([C@@H](O1)O[C@@H]2[C@H](O[C@@]([C@H]2O)(CO)O)CO)O)O)O)O
Method: HCD
Collision_energy: [28.333334]
Isolation_window: 4.0
Ion_mode: N
Num Peaks: 84
58.0051	1.3
59.0130	41.2
69.4186	1.2
71.0130	42.1
72.0162	1.1
72.9922	5.6
73.0286	2.4
75.0079	1.3
79.9565	1.9
80.9643	3.6
81.0450	2.2
83.0128	1.3
85.0286	5.9
87.0079	8.5
88.0396	1.0
89.0235	100.0
90.0268	2.9
95.0130	1.6
96.9592	8.3
97.0287	1.2
97.4647	0.9
98.0603	1.9
99.0079	2.1
99.0442	1.3
101.0235	31.2
102.0270	1.5
102.0554	1.5
109.0286	2.1
113.0236	26.2
114.0271	1.7
114.0553	1.8
115.0029	3.3
116.0708	4.6
119.0341	37.3
120.0374	1.4
125.0238	2.1
125.0351	1.2
128.0345	3.6
129.0186	3.0
131.0342	5.5
133.0136	1.0
135.0445	5.5
137.0603	1.1
143.0342	7.0
146.0453	1.7
149.0450	3.5
149.0598	1.3
152.0710	1.2
159.0296	1.8
161.0450	9.6
161.0606	1.1
167.0828	1.2
177.0403	1.6
178.0848	1.5
178.0874	2.3
179.0556	36.2
180.0585	2.6
191.0716	1.0
207.0667	1.2
211.0719	1.5
212.0567	1.0
235.0629	1.1
255.1037	1.4
261.1350	3.3
278.0712	1.4
295.1692	1.2
309.0625	1.4
322.0937	1.3
339.0777	1.1
339.1569	3.0
339.2006	0.9
339.3270	16.6
340.0684	6.5
340.0737	6.9
340.1100	2.3
340.1619	1.7
340.3302	5.3
341.1097	70.5
342.1138	9.4
342.1165	8.5
343.0781	2.4
343.0825	2.3
343.1129	1.3
343.1212	3.8

Name: Lauric Acid
PrecursorMZ: 199.16979
RT: 1.1907
ExactMass: 200.177630004
Spectrum_type: 2
charge: -1
Formula: C12H24O2
SMILES: CCCCCCCCCCCC(=O)O
Method: HCD
Collision_energy: [28.333334]
Isolation_window: 4.0
Ion_mode: N
Num Peaks: 13
79.9560	1.7
135.0444	18.5
198.0807	2.4
198.1481	2.0
199.0066	100.0
199.0216	3.0
199.0441	2.2
199.1334	1.8
199.1699	32.2
200.0100	9.0
200.1732	4.8
201.0023	2.3
201.1492	1.9

Name: Leu-Leu
PrecursorMZ: 243.17085
RT: 2.4709
ExactMass: 244.17869263
Spectrum_type: 2
charge: -1
Formula: C12H24N2O3
SMILES: CC(C)C[C@@H](C(=O)N[C@@H](CC(C)C)C(=O)O)N
Method: HCD
Collision_energy: [28.333334]
Isolation_window: 4.0
Ion_mode: N
Num Peaks: 17
69.2628	4.4
82.0401	5.0
97.4626	3.5
106.0399	5.0
130.0864	29.3
181.1592	3.9
199.1080	4.7
199.1809	31.1
200.0709	3.6
200.1844	3.9
225.1492	6.7
241.1556	8.9
241.2170	6.5
242.1764	20.8
243.1150	7.1
243.1711	100.0
244.1744	14.4

Name: Levoglucosan
PrecursorMZ: 145.04986
RT: 2.7149
ExactMass: 162.05282342
Spectrum_type: 2
charge: -1
Formula: C6H10O5
SMILES: C1[C@@H]2[C@H]([C@@H]([C@H]([C@H](O1)O2)O)O)O
Method: HCD
Collision_energy: [28.333334]
Isolation_window: 4.0
Ion_mode: N
Num Peaks: 2
101.0599	100.0
145.0499	30.2

Name: Linderalactone
PrecursorMZ: 262.14479
RT: 2.0119
ExactMass: 244.109944368
Spectrum_type: 2
charge: -1
Formula: C15H16O3
SMILES: C/C/1=C\CCC2=C[C@H](C3=C(C1)OC=C3C)OC2=O
Method: HCD
Collision_energy: [28.333334]
Isolation_window: 4.0
Ion_mode: N
Num Peaks: 16
80.9642	23.8
83.0242	26.3
96.9592	10.1
114.0915	23.3
126.0917	11.7
139.0395	10.2
147.0445	24.3
155.0819	35.7
164.0711	100.0
165.0746	8.9
168.0407	12.5
181.0726	26.7
225.0628	23.5
262.1451	76.3
263.0707	43.4
263.1489	11.4

Name: Linoleic Acid
PrecursorMZ: 279.23307
RT: 1.2687
ExactMass: 280.240230259
Spectrum_type: 2
charge: -1
Formula: C18H32O2
SMILES: CCCCC/C=C\C/C=C\CCCCCCCC(=O)O
Method: HCD
Collision_energy: [28.333334]
Isolation_window: 4.0
Ion_mode: N
Num Peaks: 20
59.0130	0.1
70.3120	0.2
263.2391	0.2
279.2331	8.0
279.2972	0.0
280.2363	1.5
281.0734	0.1
281.1085	0.1
281.1299	0.1
281.1469	0.1
281.1653	0.3
281.1843	0.7
281.1979	0.6
281.2486	100.0
281.2989	0.4
281.3136	0.6
281.3323	0.2
281.3503	0.1
281.3681	0.1
281.4074	0.2

Name: Linolenic Acid
PrecursorMZ: 277.21717
RT: 1.1495
ExactMass: 278.224580195
Spectrum_type: 2
charge: -1
Formula: C18H30O2
SMILES: CC/C=C\C/C=C\C/C=C\CCCCCCCC(=O)O
Method: HCD
Collision_energy: [28.333334]
Isolation_window: 4.0
Ion_mode: N
Num Peaks: 12
59.0129	0.6
96.9592	5.4
277.0938	9.4
277.2174	25.3
277.5949	2.6
278.0935	1.2
278.2208	5.2
279.0904	0.4
279.1682	0.6
279.2330	100.0
279.2825	0.5
279.2967	0.6

Name: Lithocholic Acid
PrecursorMZ: 375.29083
RT: 0.5934
ExactMass: 376.29774513
Spectrum_type: 2
charge: -1
Formula: C24H40O3
SMILES: C[C@H](CCC(=O)O)[C@H]1CC[C@@H]2[C@@]1(CC[C@H]3[C@H]2CC[C@H]4[C@@]3(CC[C@H](C4)O)C)C
Method: HCD
Collision_energy: [28.333334]
Isolation_window: 4.0
Ion_mode: N
Num Peaks: 15
96.9592	0.4
373.2751	4.1
374.2787	2.3
375.1635	0.2
375.1898	0.8
375.2119	0.5
375.2908	100.0
375.3684	0.6
375.3904	0.5
375.4199	0.2
376.2942	24.9
377.0651	0.3
377.2972	2.0
393.3013	1.1
394.3048	0.2

Name: Luteolin
PrecursorMZ: 287.05613
RT: 4.9115
ExactMass: 286.04773803
Spectrum_type: 2
charge: -1
Formula: C15H10O6
SMILES: C1=CC(=C(C=C1C2=CC(=O)C3=C(C=C(C=C3O2)O)O)O)O
Method: HCD
Collision_energy: [28.333334]
Isolation_window: 4.0
Ion_mode: N
Num Peaks: 9
109.0287	75.6
149.0236	12.6
151.0395	27.0
177.0189	30.5
229.0498	22.9
257.0455	74.9
258.0488	11.7
287.0561	100.0
288.0595	17.9

Name: Madecassic Acid
PrecursorMZ: 503.33834
RT: 4.5885
ExactMass: 504.34508925
Spectrum_type: 2
charge: -1
Formula: C30H48O6
SMILES: C[C@@H]1CC[C@@]2(CC[C@@]3(C(=CC[C@H]4[C@]3(C[C@H]([C@@H]5[C@@]4(C[C@H]([C@@H]([C@@]5(C)CO)O)O)C)O)C)[C@@H]2[C@H]1C)C)C(=O)O
Method: HCD
Collision_energy: [28.333334]
Isolation_window: 4.0
Ion_mode: N
Num Peaks: 10
69.2106	5.8
69.3928	4.6
69.4056	4.5
455.3170	6.3
485.3271	8.7
501.3253	6.2
502.3292	17.9
503.3386	100.0
504.3421	30.1
505.3549	37.6

Name: Maleic Acid
PrecursorMZ: 117.01826
RT: 9.4801
ExactMass: 116.0109586
Spectrum_type: 2
charge: -1
Formula: C4H4O4
SMILES: C(=C\C(=O)O)\C(=O)O
Method: HCD
Collision_energy: [28.333334]
Isolation_window: 4.0
Ion_mode: N
Num Peaks: 17
60.9922	51.6
64.0184	8.6
65.0137	7.2
72.0081	8.6
72.9688	18.3
73.0286	36.8
74.0239	11.8
89.0136	15.8
90.0088	12.7
91.0294	8.7
99.9250	13.6
116.0247	26.3
116.0709	23.9
116.9277	100.0
117.0191	12.1
117.9278	10.5
118.0402	14.9

Name: Malic Acid
PrecursorMZ: 133.01326
RT: 8.6902
ExactMass: 134.02152329
Spectrum_type: 2
charge: -1
Formula: C4H6O5
SMILES: C(C(C(=O)O)O)C(=O)O
Method: HCD
Collision_energy: [28.333334]
Isolation_window: 4.0
Ion_mode: N
Num Peaks: 42
59.0130	2.2
65.0136	5.3
67.0292	3.8
69.0336	5.4
69.4442	1.9
71.0129	57.3
72.0161	2.3
72.9921	12.5
75.0078	41.0
81.0449	1.9
87.0078	3.0
87.0441	45.2
88.0394	34.3
88.0475	5.4
89.0135	2.2
89.0234	16.0
91.0291	7.7
92.0245	2.0
105.0448	1.9
106.0402	2.1
107.0491	2.1
113.0233	3.6
114.0186	2.1
115.0027	100.0
115.9197	1.8
116.0060	5.4
131.0351	8.8
131.0816	11.1
131.0900	4.8
132.0293	10.7
132.0447	3.7
132.0557	4.9
133.0133	28.5
133.0398	1.8
133.0505	2.4
134.0168	1.5
134.0352	4.5
134.0604	2.4
134.8937	19.5
134.9150	3.7
135.0290	8.1
135.0442	7.4

Name: Mandelic Acid
PrecursorMZ: 151.03936
RT: 1.647
ExactMass: 152.047344113
Spectrum_type: 2
charge: -1
Formula: C8H8O3
SMILES: C1=CC=C(C=C1)C(C(=O)O)O
Method: HCD
Collision_energy: [28.333334]
Isolation_window: 4.0
Ion_mode: N
Num Peaks: 4
107.0494	100.0
108.0527	8.6
151.0394	6.7
153.0216	1.8

Name: Maslinic Acid
PrecursorMZ: 471.34789
RT: 1.7058
ExactMass: 472.35526001
Spectrum_type: 2
charge: -1
Formula: C30H48O4
SMILES: C[C@@]12CC[C@@H]3[C@@]([C@H]1CC=C4[C@]2(CC[C@@]5([C@H]4CC(CC5)(C)C)C(=O)O)C)(C[C@H]([C@@H](C3(C)C)O)O)C
Method: HCD
Collision_energy: [28.333334]
Isolation_window: 4.0
Ion_mode: N
Num Peaks: 7
52.3734	4.4
453.3376	7.2
470.3364	2.6
471.3491	100.0
472.3523	32.0
473.3590	5.5
473.3641	2.7

Name: Medicagenic acid
PrecursorMZ: 501.32187
RT: 4.68905
ExactMass: 502.32943918
Spectrum_type: 2
charge: -1
Formula: C30H46O6
SMILES: C[C@@]12CC[C@@H]3[C@@]([C@H]1CC=C4[C@]2(CC[C@@]5([C@H]4CC(CC5)(C)C)C(=O)O)C)(C[C@@H]([C@@H]([C@@]3(C)C(=O)O)O)O)C
Method: HCD
Collision_energy: [28.333334]
Isolation_window: 4.0
Ion_mode: N
Num Peaks: 53
55.7008	2.0
55.7039	4.5
55.8123	0.7
55.8154	1.3
69.0430	1.3
69.0645	0.9
69.1835	0.8
69.1888	0.9
69.1926	0.8
69.1988	1.0
69.2053	0.9
69.2123	1.0
69.2263	0.9
69.2358	1.0
69.2404	1.0
69.2463	0.8
69.3041	0.8
69.3069	1.0
69.3139	0.9
69.3538	0.9
75.0077	1.7
97.4654	0.8
114.0549	0.8
255.1505	0.9
380.2336	1.3
407.2806	0.9
421.3113	1.8
421.3153	0.8
425.3062	3.5
426.3094	1.0
437.3058	5.5
438.3095	1.8
439.3218	4.9
440.3250	1.5
453.3019	1.1
455.3166	1.0
457.3326	4.2
458.3360	1.4
459.2884	0.7
483.3113	13.2
484.3145	4.3
499.3656	0.8
499.3708	0.8
500.2387	0.8
500.2452	1.9
500.3079	1.1
501.2192	0.8
501.2570	0.8
501.3220	100.0
501.4737	0.7
502.3256	30.1
503.3265	1.2
503.3337	5.7

Name: Megestrol
PrecursorMZ: 341.21209
RT: 1.27
ExactMass: 342.21949481
Spectrum_type: 2
charge: -1
Formula: C22H30O3
SMILES: CC1=C[C@@H]2[C@H](CC[C@]3([C@H]2CC[C@@]3(C(=O)C)O)C)[C@@]4(C1=CC(=O)CC4)C
Method: HCD
Collision_energy: [28.333334]
Isolation_window: 4.0
Ion_mode: N
Num Peaks: 40
69.5124	1.1
73.0285	1.5
79.9563	2.6
80.9642	2.9
95.9511	1.2
96.9592	75.4
98.9549	1.7
107.0494	3.4
119.0493	7.7
121.0286	3.1
133.0649	1.6
175.1124	1.1
183.0114	5.4
184.0183	1.2
203.1437	1.4
217.1229	1.3
261.1131	5.7
262.1162	0.9
281.1908	2.6
295.2066	7.5
296.2107	1.8
297.0801	2.5
297.2224	74.1
298.2258	16.1
299.2380	92.6
339.1657	2.3
339.2001	63.6
339.3238	2.0
340.1672	2.8
340.2033	41.0
341.0701	88.7
341.1408	1.3
341.2124	100.0
341.3024	1.3
342.0717	13.6
342.2157	22.9
343.0864	14.6
343.1201	1.3
343.1589	1.9
343.2277	62.9

Name: Melibiose
PrecursorMZ: 341.10888
RT: 9.8028
ExactMass: 342.11621151
Spectrum_type: 2
charge: -1
Formula: C12H22O11
SMILES: C([C@@H]1[C@@H]([C@@H]([C@H]([C@H](O1)OC[C@@H]2[C@H]([C@@H]([C@H](C(O2)O)O)O)O)O)O)O)O
Method: HCD
Collision_energy: [28.333334]
Isolation_window: 4.0
Ion_mode: N
Num Peaks: 42
59.0130	33.2
69.7955	3.2
71.0130	47.7
72.9922	4.8
73.0286	13.2
74.0237	2.9
80.9643	6.5
83.0128	4.7
85.0287	6.0
87.0079	14.0
89.0235	74.8
94.0289	11.2
95.0129	3.3
96.0447	8.6
97.0287	13.7
101.0235	50.6
109.0287	3.3
113.0236	27.2
115.0392	4.2
119.0342	28.5
124.0396	24.6
125.0234	4.5
131.0344	5.1
135.0446	4.5
143.0343	9.5
149.0449	3.8
161.0450	28.1
179.0556	37.8
180.0594	2.9
189.0549	2.8
219.1246	3.3
221.0664	11.9
237.1350	4.8
339.3269	100.0
340.3303	34.1
341.1097	56.4
341.1472	6.4
341.3351	2.9
342.1105	4.7
342.1158	7.5
343.0834	4.7
343.1199	3.3

Name: Mercaptopyruvic acid
PrecursorMZ: 120.99561
RT: 2.0364
ExactMass: 119.98811516
Spectrum_type: 2
charge: -1
Formula: C3H4O3S
SMILES: C(C(=O)C(=O)O)S
Method: HCD
Collision_energy: [28.333334]
Isolation_window: 4.0
Ion_mode: N
Num Peaks: 5
79.9565	47.5
120.9957	100.0
121.0288	5.3
121.9993	3.7
122.9748	1.9

Name: Mesaconic acid
PrecursorMZ: 175.02405
RT: 4.2758
ExactMass: 130.02660867
Spectrum_type: 2
charge: -1
Formula: C5H6O4
SMILES: C/C(=C\C(=O)O)/C(=O)O
Method: HCD
Collision_energy: [28.333334]
Isolation_window: 4.0
Ion_mode: N
Num Peaks: 25
71.0128	6.8
75.0078	9.3
85.0284	6.2
87.0076	5.7
87.0441	76.2
113.0233	11.1
128.9384	15.6
130.9374	5.1
131.0340	100.0
131.0818	4.8
132.0367	5.3
146.0240	11.1
154.9465	58.7
155.9460	16.3
156.9425	11.9
157.0133	12.8
172.9572	15.0
173.0224	5.6
174.0185	26.3
175.0238	8.7
176.8423	10.0
176.8943	6.0
177.0197	14.1
177.0398	11.3
194.9053	13.4

Name: Methionine Sulfoxide
PrecursorMZ: 164.03794
RT: 9.0244
ExactMass: 165.04596439
Spectrum_type: 2
charge: -1
Formula: C5H11NO3S
SMILES: CS(=O)CC[C@@H](C(=O)O)N
Method: HCD
Collision_energy: [28.333334]
Isolation_window: 4.0
Ion_mode: N
Num Peaks: 25
60.9744	1.8
63.9616	12.0
72.0082	8.7
75.0079	6.1
76.9693	9.5
79.9565	11.5
82.0402	5.0
100.0395	16.1
119.0494	4.8
121.0286	100.0
121.0512	12.5
121.0647	5.9
122.0319	4.0
136.0509	2.0
147.0444	19.1
148.0482	2.2
151.0378	3.3
163.0623	2.3
164.0370	11.1
164.0709	13.6
165.0188	11.0
165.0406	9.7
165.0548	2.4
165.0665	2.0
166.0500	2.2

Name: Methyl Laurate
PrecursorMZ: 213.18552
RT: 1.2851625
ExactMass: 214.193280068
Spectrum_type: 2
charge: -1
Formula: C13H26O2
SMILES: CCCCCCCCCCCC(=O)OC
Method: HCD
Collision_energy: [28.333334]
Isolation_window: 4.0
Ion_mode: N
Num Peaks: 12
80.9644	0.7
96.9591	0.6
107.0495	0.6
127.0216	1.0
211.1698	0.7
213.0401	0.6
213.0933	1.2
213.1856	100.0
213.2281	0.6
214.0507	1.8
214.1890	14.4
215.1918	0.6

Name: Methyl Nicotinate
PrecursorMZ: 138.05521
RT: 1.2257
ExactMass: 137.047678466
Spectrum_type: 2
charge: -1
Formula: C7H7NO2
SMILES: COC(=O)C1=CN=CC=C1
Method: HCD
Collision_energy: [28.333334]
Isolation_window: 4.0
Ion_mode: N
Num Peaks: 11
79.9566	18.6
92.0498	11.4
93.0337	41.9
108.0447	40.1
111.0078	15.9
111.9366	24.9
136.8910	23.0
137.0236	16.0
137.9400	15.4
138.0553	100.0
139.0030	11.7

Name: Methyl Palmitate
PrecursorMZ: 269.24823
RT: 1.1815888888888888
ExactMass: 270.255880323
Spectrum_type: 2
charge: -1
Formula: C17H34O2
SMILES: CCCCCCCCCCCCCCCC(=O)OC
Method: HCD
Collision_energy: [28.333334]
Isolation_window: 4.0
Ion_mode: N
Num Peaks: 7
269.1874	0.6
269.2483	100.0
269.2952	0.5
269.3085	0.6
270.2516	18.2
271.2276	0.5
271.2540	1.2

Name: Methyl Vanillate
PrecursorMZ: 181.05005
RT: 4.50245
ExactMass: 182.0579088
Spectrum_type: 2
charge: -1
Formula: C9H10O4
SMILES: COC1=C(C=CC(=C1)C(=O)OC)O
Method: HCD
Collision_energy: [28.333334]
Isolation_window: 4.0
Ion_mode: N
Num Peaks: 67
59.0129	1.8
66.0341	12.1
67.0180	3.7
79.9565	4.1
81.0336	3.0
82.0289	2.3
83.0495	2.1
92.0497	2.5
93.0339	2.2
94.0290	2.8
95.0242	2.1
95.0494	5.7
96.0446	7.6
97.0287	1.9
107.0492	4.0
108.0446	9.6
109.0287	6.3
109.0399	11.0
109.0650	6.3
110.0240	4.5
110.0604	8.9
111.0445	3.3
111.0806	1.8
116.0711	2.2
118.0287	2.9
119.0492	2.1
121.0288	3.2
121.0653	5.3
122.0242	7.6
122.0365	6.1
123.0321	9.0
123.0445	4.6
124.0401	5.0
125.0236	2.4
135.0444	3.6
135.0809	2.8
136.0397	34.0
136.0760	17.3
137.0247	4.3
137.0480	7.5
137.0601	100.0
137.0712	63.0
137.0791	2.1
137.0959	14.9
138.0550	10.4
138.0638	7.2
138.0747	4.7
138.0916	5.8
139.0399	6.0
139.0757	26.9
151.0395	7.4
163.0391	2.2
165.0550	2.9
179.0349	3.6
179.0705	4.1
179.0845	5.1
179.1197	4.6
180.0296	12.9
180.0655	11.3
181.0364	4.1
181.0501	76.1
181.0853	12.8
182.0276	10.0
182.0454	9.5
182.0801	6.2
183.0308	2.9
183.0658	22.0

Name: Methyl indole-3-acetate
PrecursorMZ: 190.08674
RT: 1.5611
ExactMass: 189.078978594
Spectrum_type: 2
charge: -1
Formula: C11H11NO2
SMILES: COC(=O)CC1=CNC2=CC=CC=C21
Method: HCD
Collision_energy: [28.333334]
Isolation_window: 4.0
Ion_mode: N
Num Peaks: 7
59.0131	16.6
86.0238	100.0
129.0549	61.0
147.0656	90.6
190.0506	15.2
190.0866	67.5
191.0713	43.6

Name: Methyl indole-3-carboxylate
PrecursorMZ: 174.05537
RT: 1.4018666666666666
ExactMass: 175.06332853
Spectrum_type: 2
charge: -1
Formula: C10H9NO2
SMILES: COC(=O)C1=CNC2=CC=CC=C21
Method: HCD
Collision_energy: [28.333334]
Isolation_window: 4.0
Ion_mode: N
Num Peaks: 6
131.0367	1.5
154.9466	1.4
159.0319	100.0
160.0354	9.8
174.0555	35.7
175.0589	3.8

Name: Methylparaben
PrecursorMZ: 151.03932
RT: 1.3266
ExactMass: 152.047344113
Spectrum_type: 2
charge: -1
Formula: C8H8O3
SMILES: COC(=O)C1=CC=C(C=C1)O
Method: HCD
Collision_energy: [28.333334]
Isolation_window: 4.0
Ion_mode: N
Num Peaks: 15
79.9564	2.1
80.9643	1.0
95.0129	4.1
107.0493	1.1
108.0208	4.0
136.0158	48.1
137.0192	3.5
149.0089	5.9
150.0089	1.7
150.0553	2.4
151.0065	3.3
151.0394	100.0
152.0340	3.1
152.0441	7.7
152.0702	1.1

Name: Methylsuccinic acid
PrecursorMZ: 131.03509
RT: 6.9045
ExactMass: 132.04225873
Spectrum_type: 2
charge: -1
Formula: C5H8O4
SMILES: CC(CC(=O)O)C(=O)O
Method: HCD
Collision_energy: [28.333334]
Isolation_window: 4.0
Ion_mode: N
Num Peaks: 11
65.0136	10.8
85.0651	8.0
87.0443	100.0
91.0293	8.0
113.0237	8.1
115.9199	11.0
130.0406	6.5
130.0865	15.1
131.0347	30.3
131.0703	6.7
132.0558	8.5

Name: Mono(2-ethylhexyl) phthalate
PrecursorMZ: 277.14444
RT: 1.029153846153846
ExactMass: 278.15180918
Spectrum_type: 2
charge: -1
Formula: C16H22O4
SMILES: CCCCC(CC)COC(=O)C1=CC=CC=C1C(=O)O
Method: HCD
Collision_energy: [28.333334]
Isolation_window: 4.0
Ion_mode: N
Num Peaks: 26
59.0130	2.8
69.1168	2.1
79.9562	1.6
80.9642	2.3
107.0494	1.9
121.0287	100.0
122.0320	6.8
127.1121	7.3
134.0366	15.1
199.0271	6.4
214.0505	6.9
216.0666	1.5
232.1339	1.7
233.0824	1.6
233.1543	1.8
262.9895	24.4
263.9928	2.5
276.0887	1.7
277.0653	5.2
277.1097	5.3
277.1444	47.3
278.0130	38.6
278.0668	1.4
278.1487	8.1
279.0168	3.8
279.0878	4.4

Name: Monocrotaline
PrecursorMZ: 324.1452
RT: 5.1131
ExactMass: 325.15253745
Spectrum_type: 2
charge: -1
Formula: C16H23NO6
SMILES: C[C@H]1C(=O)O[C@@H]2CCN3[C@@H]2C(=CC3)COC(=O)[C@]([C@]1(C)O)(C)O
Method: HCD
Collision_energy: [28.333334]
Isolation_window: 4.0
Ion_mode: N
Num Peaks: 100
57.0336	1.5
59.0130	1.8
69.4248	0.8
71.0126	0.7
71.0490	0.6
72.9923	1.2
73.0285	0.8
74.0235	0.7
79.9565	1.2
80.9643	1.3
83.0493	0.8
85.0287	1.2
87.0079	7.0
88.0394	0.9
95.0493	0.7
96.0808	1.1
96.9592	9.1
97.0284	0.6
97.0648	0.7
101.0235	0.6
101.0599	2.7
109.0286	0.7
109.0649	0.8
111.0447	0.9
111.0807	100.0
111.0868	1.1
111.0967	0.8
112.0840	7.1
113.0235	0.6
114.0552	2.2
116.0709	0.9
123.0442	0.7
124.0397	0.7
124.0760	55.2
125.0237	0.7
125.0794	4.1
128.0346	0.7
130.0866	1.2
134.0466	2.6
137.0380	1.0
137.0436	0.8
137.0516	1.5
137.0601	95.1
138.0635	7.7
139.0395	0.7
142.0659	0.8
148.0759	1.2
151.0399	0.6
152.9958	0.6
155.0707	7.2
165.0665	2.5
177.0548	1.0
189.0551	1.4
192.0658	1.2
209.0943	0.6
218.1546	1.5
221.0456	1.0
226.0873	3.7
235.0743	1.6
236.1654	5.8
237.0885	0.6
237.0919	0.7
237.1672	0.8
243.1966	0.9
251.1049	0.8
262.1449	10.0
263.1501	1.4
263.9768	0.7
263.9826	0.7
279.2333	1.0
279.2362	0.9
280.1263	0.7
280.1555	18.0
281.1583	3.0
289.1814	1.4
305.1795	0.7
306.1361	1.2
307.1947	1.9
308.1045	0.7
323.0460	1.4
323.0828	3.0
323.1258	19.0
323.1574	3.9
323.1902	1.1
323.2268	1.6
323.6274	5.6
324.1487	22.3
324.6349	3.0
325.0082	4.2
325.0962	4.9
325.1306	2.6
325.1340	3.3
325.1507	3.8
325.2059	10.7
325.2410	1.7
325.6300	0.9
326.0140	0.6
326.0934	0.8
326.1313	1.5
326.2054	1.3

Name: Monoethyl malonate
PrecursorMZ: 131.03508
RT: 1.0806
ExactMass: 132.04225873
Spectrum_type: 2
charge: -1
Formula: C5H8O4
SMILES: CCOC(=O)CC(=O)O
Method: HCD
Collision_energy: [28.333334]
Isolation_window: 4.0
Ion_mode: N
Num Peaks: 17
57.0337	6.5
59.0130	8.3
85.0650	17.6
87.0443	13.0
91.0292	7.4
99.0079	100.0
129.0547	12.6
130.0404	27.5
130.0865	23.4
130.9301	30.2
131.0353	33.9
131.0703	16.3
132.0558	25.4
132.8669	23.6
132.8992	19.5
132.9286	10.3
133.0501	14.3

Name: Monomethyl glutarate
PrecursorMZ: 145.04993
RT: 4.7732
ExactMass: 146.0579088
Spectrum_type: 2
charge: -1
Formula: C6H10O4
SMILES: COC(=O)CCCC(=O)O
Method: HCD
Collision_energy: [28.333334]
Isolation_window: 4.0
Ion_mode: N
Num Peaks: 14
69.0337	8.2
71.0130	6.7
83.0493	3.1
99.0807	13.1
101.0600	100.0
102.0634	5.8
105.0337	2.6
113.0237	3.8
127.0394	5.7
144.0450	6.9
144.0653	3.2
145.0500	31.3
145.0864	7.6
147.0445	2.5

Name: Monomethyl phthalate
PrecursorMZ: 179.03414
RT: 1.843
ExactMass: 180.04225873
Spectrum_type: 2
charge: -1
Formula: C9H8O4
SMILES: COC(=O)C1=CC=CC=C1C(=O)O
Method: HCD
Collision_energy: [28.333334]
Isolation_window: 4.0
Ion_mode: N
Num Peaks: 14
79.9564	18.5
80.9642	49.2
91.0543	7.4
99.0443	4.7
108.0447	4.4
108.9332	5.4
116.0707	8.2
135.0443	100.0
136.0477	7.7
152.0342	4.4
179.0013	5.0
179.0343	13.6
180.0326	29.7
181.0166	17.8

Name: N-((2R,3R,4R,5R)-3,4,5,6-Tetrahydroxy-1-oxohexan-2-yl)acetamide
PrecursorMZ: 280.10336
RT: 7.8431
ExactMass: 221.0899372
Spectrum_type: 2
charge: -1
Formula: C8H15NO6
SMILES: CC(=O)N[C@@H](C=O)[C@H]([C@H]([C@@H](CO)O)O)O
Method: HCD
Collision_energy: [28.333334]
Isolation_window: 4.0
Ion_mode: N
Num Peaks: 40
59.0129	33.1
71.0129	18.1
72.9922	8.3
73.0286	7.4
74.0239	8.3
75.0077	5.9
80.9642	9.4
85.0287	12.8
87.0077	13.7
89.0234	29.0
98.0602	34.5
100.0394	39.5
101.0234	49.8
113.0235	10.0
116.0708	27.3
117.0549	10.4
118.0500	68.5
119.0341	35.4
124.0393	7.3
128.0342	8.9
129.0182	11.0
131.0340	7.9
142.0502	26.2
145.0497	7.9
148.0759	12.5
160.0607	6.6
190.0716	14.2
193.0981	18.8
220.0607	6.2
237.0870	10.0
263.0674	6.3
279.0471	23.4
279.0526	8.3
279.0764	6.0
279.2308	5.9
280.1036	32.5
281.0787	100.0
281.0869	18.3
281.2484	21.3
282.0805	7.6

Name: N-((2S,3R,4S,5R)-3,4,5,6-Tetrahydroxy-1-oxohexan-2-yl)acetamide
PrecursorMZ: 204.08727
RT: 7.7243
ExactMass: 221.0899372
Spectrum_type: 2
charge: -1
Formula: C8H15NO6
SMILES: CC(=O)N[C@H](C=O)[C@H]([C@@H]([C@@H](CO)O)O)O
Method: HCD
Collision_energy: [28.333334]
Isolation_window: 4.0
Ion_mode: N
Num Peaks: 2
60.9923	100.0
205.1592	26.8

Name: N-(2-Furoyl)Glycine
PrecursorMZ: 168.0295
RT: 1.4472833333333335
ExactMass: 169.0375077
Spectrum_type: 2
charge: -1
Formula: C7H7NO4
SMILES: C1=COC(=C1)C(=O)NCC(=O)O
Method: HCD
Collision_energy: [28.333334]
Isolation_window: 4.0
Ion_mode: N
Num Peaks: 8
80.0497	100.0
81.0528	4.8
124.0396	49.7
150.0084	4.3
151.0053	5.4
166.0537	10.5
167.0347	4.5
168.0295	19.8

Name: N-ACETYL-beta-D-GLUCOSAMINE
PrecursorMZ: 220.0822
RT: 7.424142857142857
ExactMass: 221.0899372
Spectrum_type: 2
charge: -1
Formula: C8H15NO6
SMILES: CC(=O)N[C@@H]1[C@H]([C@@H]([C@H](O[C@H]1O)CO)O)O
Method: HCD
Collision_energy: [28.333334]
Isolation_window: 4.0
Ion_mode: N
Num Peaks: 68
58.0289	2.8
59.0130	54.2
71.0130	62.5
72.9922	11.9
73.0286	10.5
75.0079	8.2
79.9564	6.3
80.9643	20.8
83.0129	6.2
83.0493	5.1
85.0286	18.6
87.0079	42.0
87.0443	4.1
88.0395	12.9
89.0235	37.2
91.0391	3.1
97.0285	7.5
99.0078	8.5
99.0442	4.6
100.0395	24.7
101.0235	35.7
101.0599	10.2
105.0185	5.0
106.9801	2.6
110.0239	3.2
111.0443	5.0
113.0235	14.6
114.0555	2.6
115.0393	6.0
117.0182	3.8
118.0500	2.5
119.0341	15.1
124.0397	4.6
125.0237	2.6
127.0394	5.1
128.0343	5.4
129.0186	7.7
130.0502	9.2
131.0342	6.2
132.0658	11.7
139.0395	3.5
142.0502	3.6
143.0344	3.8
146.0816	5.7
147.0290	5.0
159.0291	3.8
160.0607	2.7
161.0448	3.8
175.0758	4.1
177.0549	4.6
178.0489	2.6
201.0401	4.0
203.0555	2.6
218.1028	6.0
219.0300	2.5
219.0502	23.4
219.0868	19.1
219.1230	12.1
219.1747	5.6
220.0388	6.8
220.0606	8.6
220.0827	10.9
221.0140	2.7
221.0469	6.8
221.0662	100.0
221.0833	3.8
221.1020	3.1
222.0719	6.2

Name: N-Acetyl-D-Glucosamine
PrecursorMZ: 256.05898
RT: 7.4068
Spectrum_type: 2
charge: -1
SMILES: CC(=O)N[C@@H]1[C@H]([C@@H]([C@H](OC1O)CO)O)O
Method: HCD
Collision_energy: [28.333334]
Isolation_window: 4.0
Ion_mode: N
Num Peaks: 13
98.0238	1.3
119.0340	1.2
167.0457	0.8
240.0995	1.0
255.0860	1.5
255.0894	1.3
255.2327	100.0
256.0244	1.1
256.2361	16.4
257.0639	1.3
257.0659	1.0
257.2387	1.8
258.1465	0.9

Name: N-Acetyl-D-Mannosamine
PrecursorMZ: 256.05892
RT: 7.4215
ExactMass: 221.0899372
Spectrum_type: 2
charge: -1
Formula: C8H15NO6
SMILES: CC(=O)N[C@H]1[C@H]([C@@H]([C@H](OC1O)CO)O)O
Method: HCD
Collision_energy: [28.333334]
Isolation_window: 4.0
Ion_mode: N
Num Peaks: 6
128.0345	2.9
255.2326	100.0
256.2359	17.8
257.0672	2.2
257.2382	1.6
258.0607	1.5

Name: N-Acetyl-L-Aspartic Acid
PrecursorMZ: 174.04011
RT: 7.7747
ExactMass: 175.04807239
Spectrum_type: 2
charge: -1
Formula: C6H9NO5
SMILES: CC(=O)N[C@@H](CC(=O)O)C(=O)O
Method: HCD
Collision_energy: [28.333334]
Isolation_window: 4.0
Ion_mode: N
Num Peaks: 38
58.0290	24.2
59.0130	18.8
70.0287	2.6
71.0130	6.8
74.0239	3.6
85.0650	11.5
86.0603	5.9
87.0079	10.8
88.0395	100.0
89.0428	3.1
96.9922	4.0
101.0711	9.4
111.0443	13.1
111.0806	2.2
112.0396	7.6
112.0508	2.4
113.0600	14.8
113.0712	9.4
114.0188	22.9
115.0028	16.9
128.0346	19.1
129.0549	10.9
130.0502	32.6
131.0456	2.5
131.0707	9.4
132.0657	5.7
137.0237	4.4
145.0612	38.4
154.9466	2.4
155.0342	4.9
156.0295	7.9
157.0500	3.8
173.0451	8.3
174.0402	33.5
174.0767	2.5
175.0252	3.5
175.0604	15.3
175.0728	9.8

Name: N-Acetyl-L-Lysine
PrecursorMZ: 187.10825
RT: 9.5022
ExactMass: 188.11609238
Spectrum_type: 2
charge: -1
Formula: C8H16N2O3
SMILES: CC(=O)N[C@@H](CCCCN)C(=O)O
Method: HCD
Collision_energy: [28.333334]
Isolation_window: 4.0
Ion_mode: N
Num Peaks: 7
58.0290	3.4
121.0512	9.4
143.1182	11.9
145.0975	100.0
146.1011	6.0
187.1085	24.7
188.1114	2.4

Name: N-Acetyl-L-alanine
PrecursorMZ: 130.05019
RT: 5.4209
ExactMass: 131.058243149
Spectrum_type: 2
charge: -1
Formula: C5H9NO3
SMILES: C[C@@H](C(=O)O)NC(=O)C
Method: HCD
Collision_energy: [28.333334]
Isolation_window: 4.0
Ion_mode: N
Num Peaks: 4
85.0650	100.0
88.0394	93.6
130.9304	20.7
131.0705	76.4

Name: N-Acetyl-L-ornithine
PrecursorMZ: 173.0925
RT: 9.511277272727273
ExactMass: 174.10044231
Spectrum_type: 2
charge: -1
Formula: C7H14N2O3
SMILES: CC(=O)N[C@@H](CCCN)C(=O)O
Method: HCD
Collision_energy: [28.333334]
Isolation_window: 4.0
Ion_mode: N
Num Peaks: 20
58.0290	5.4
69.0337	9.5
87.0443	9.2
90.9705	4.2
111.0808	3.4
112.0763	2.9
113.0237	7.3
129.1025	10.7
131.0344	4.0
131.0818	100.0
132.0856	5.0
154.9467	22.4
157.0136	44.2
171.1022	3.9
171.1386	5.3
172.9572	4.9
173.0808	2.8
173.0930	17.9
174.1125	4.5
175.0245	6.1

Name: N-Acetyl-L-phenylalanine
PrecursorMZ: 206.08189
RT: 1.5941
ExactMass: 207.08954328
Spectrum_type: 2
charge: -1
Formula: C11H13NO3
SMILES: CC(=O)N[C@@H](CC1=CC=CC=C1)C(=O)O
Method: HCD
Collision_energy: [28.333334]
Isolation_window: 4.0
Ion_mode: N
Num Peaks: 24
80.9643	49.8
94.0289	7.4
108.0446	15.3
120.0445	5.0
122.0239	16.2
125.0232	5.3
132.0446	9.2
150.0554	11.0
162.0918	50.6
163.0951	4.5
164.0708	8.8
174.0557	9.6
175.0585	4.3
188.0711	9.3
204.0663	10.8
205.0697	4.6
205.1593	50.3
206.0817	100.0
206.1628	7.7
206.9964	6.2
207.0829	5.5
207.0863	12.5
208.0609	9.4
224.0924	4.2

Name: N-Acetyl-L-tyrosine
PrecursorMZ: 222.07696
RT: 5.254
ExactMass: 223.0844579
Spectrum_type: 2
charge: -1
Formula: C11H13NO4
SMILES: CC(=O)N[C@@H](CC1=CC=C(C=C1)O)C(=O)O
Method: HCD
Collision_energy: [28.333334]
Isolation_window: 4.0
Ion_mode: N
Num Peaks: 29
59.0130	24.2
73.0398	36.4
112.0505	17.3
122.0602	14.0
124.0398	18.8
133.0764	36.3
134.0605	13.5
144.0448	25.1
147.0319	42.2
162.0553	56.1
164.0707	18.6
176.0704	17.9
177.0660	34.2
178.0845	16.3
180.0658	13.9
180.1143	15.9
220.1387	65.8
220.1770	14.1
220.6403	31.1
221.0574	26.3
221.0919	25.6
221.1476	43.8
221.6484	15.3
222.0759	100.0
223.0279	13.7
223.0804	15.7
223.1313	14.1
224.0933	19.8
224.1029	16.9

Name: N-Acetyl-L-valine
PrecursorMZ: 158.08158
RT: 4.7011
ExactMass: 159.08954328
Spectrum_type: 2
charge: -1
Formula: C7H13NO3
SMILES: CC(C)[C@@H](C(=O)O)NC(=O)C
Method: HCD
Collision_energy: [28.333334]
Isolation_window: 4.0
Ion_mode: N
Num Peaks: 26
69.0337	0.9
71.0130	6.9
83.0129	2.2
85.0287	2.0
86.0238	3.3
86.0602	2.4
97.0286	6.2
114.0553	3.8
114.0917	7.8
115.0395	1.8
115.0756	48.4
116.0168	20.3
116.0709	100.0
116.0781	2.2
117.0743	5.0
141.0551	4.5
156.0659	2.0
156.8944	0.9
158.0455	1.3
158.0817	24.6
158.9112	3.9
159.0298	2.7
159.0657	21.7
159.0849	1.5
160.0068	3.7
160.0399	4.9

Name: N-Acetyl-Neuraminic Acid
PrecursorMZ: 308.09872
RT: 7.7411
ExactMass: 309.10598118
Spectrum_type: 2
charge: -1
Formula: C11H19NO9
SMILES: CC(=O)N[C@@H]1[C@H](CC(O[C@H]1[C@@H]([C@@H](CO)O)O)(C(=O)O)O)O
Method: HCD
Collision_energy: [28.333334]
Isolation_window: 4.0
Ion_mode: N
Num Peaks: 13
59.0129	3.0
87.0078	100.0
88.0112	3.0
98.0603	9.3
119.0340	4.3
128.0345	2.9
170.0453	13.8
180.0660	4.3
289.1297	3.3
307.1018	3.7
308.0983	7.3
309.1099	7.0
309.2813	4.3

Name: N-Acetyldopamine
PrecursorMZ: 194.08173
RT: 4.8818
ExactMass: 195.08954328
Spectrum_type: 2
charge: -1
Formula: C10H13NO3
SMILES: CC(=O)NCCC1=CC(=C(C=C1)O)O
Method: HCD
Collision_energy: [28.333334]
Isolation_window: 4.0
Ion_mode: N
Num Peaks: 36
59.0130	63.5
80.9643	7.8
87.0079	13.9
94.0653	8.4
96.0082	16.0
108.0447	14.2
119.0495	8.0
122.0603	83.7
122.0967	14.5
123.0555	9.2
124.0396	16.6
132.0447	9.4
133.0648	8.3
135.0444	25.9
149.0599	10.1
149.0713	8.2
150.0552	12.8
150.0918	73.4
151.0392	8.5
151.0508	7.4
152.0711	18.6
164.0344	11.0
166.0868	98.4
167.0586	8.4
167.0907	8.8
176.8947	14.6
192.9894	8.7
193.0359	13.8
193.0502	17.7
194.0452	7.8
194.0817	100.0
194.9054	75.5
195.0649	9.8
195.0874	8.7
195.9058	7.5
196.0610	21.0

Name: N-Acetylmannosamine
PrecursorMZ: 256.05867
RT: 2.6144
ExactMass: 221.0899372
Spectrum_type: 2
charge: -1
Formula: C8H15NO6
SMILES: CC(=O)N[C@H](C=O)[C@H]([C@@H]([C@@H](CO)O)O)O
Method: HCD
Collision_energy: [28.333334]
Isolation_window: 4.0
Ion_mode: N
Num Peaks: 19
59.0128	7.8
61.9873	34.0
71.0127	4.7
89.0234	3.6
101.0233	5.3
113.0345	3.0
119.0341	5.7
131.0816	6.1
143.0452	3.6
165.0658	3.6
166.0612	3.3
180.0663	3.1
254.0948	3.5
255.1047	4.9
255.1354	2.8
255.2323	100.0
256.0587	9.3
256.2358	20.3
258.1042	4.1

Name: N-Acetyltryptophan
PrecursorMZ: 245.09292
RT: 4.8248
ExactMass: 246.10044231
Spectrum_type: 2
charge: -1
Formula: C13H14N2O3
SMILES: CC(=O)NC(CC1=CNC2=CC=CC=C21)C(=O)O
Method: HCD
Collision_energy: [28.333334]
Isolation_window: 4.0
Ion_mode: N
Num Peaks: 58
58.0290	11.4
59.0130	13.1
70.0289	19.3
71.0130	4.7
71.0493	3.7
72.9922	6.9
73.0286	5.5
74.0238	79.2
75.0078	8.9
79.9564	8.6
80.9643	17.8
84.0081	4.2
85.0286	8.1
87.0079	7.3
87.0441	3.9
88.0396	9.1
96.0445	5.7
98.0239	13.6
99.0442	4.3
111.0442	3.8
112.0394	3.8
113.0237	3.8
114.0916	3.7
116.0345	44.3
116.0496	16.7
126.0552	4.3
129.1024	8.3
130.0865	27.5
138.0192	6.5
138.0553	4.2
140.0710	5.8
142.0864	9.4
143.1182	36.9
155.1183	4.8
156.0660	8.6
171.1137	8.8
175.0873	4.1
183.1141	6.5
186.0761	8.4
201.0874	7.6
201.1033	10.2
202.0871	11.9
203.0822	100.0
204.0857	13.0
215.1034	69.0
216.1065	7.0
228.0511	8.5
243.1236	9.1
244.0853	12.3
244.1258	8.5
245.0664	15.7
245.0933	78.0
245.1141	16.9
245.1396	16.1
246.0755	5.8
246.0969	10.2
246.1349	7.2
247.0404	10.1

Name: N-Ethyl-o-crotonotoluidide
PrecursorMZ: 202.12293
RT: 1.13165
ExactMass: 203.131014166
Spectrum_type: 2
charge: -1
Formula: C13H17NO
SMILES: CCN(C1=CC=CC=C1C)C(=O)/C=C/C
Method: HCD
Collision_energy: [28.333334]
Isolation_window: 4.0
Ion_mode: N
Num Peaks: 11
69.2299	4.1
69.2448	6.3
135.0442	24.4
136.0477	4.4
155.1432	9.8
200.0099	12.8
201.0006	100.0
201.1490	14.3
202.0047	7.1
202.1231	89.4
203.1267	13.9

Name: N-Isovaleroylglycine
PrecursorMZ: 158.08149
RT: 0.6519
ExactMass: 159.08954328
Spectrum_type: 2
charge: -1
Formula: C7H13NO3
SMILES: CC(C)CC(=O)NCC(=O)O
Method: HCD
Collision_energy: [28.333334]
Isolation_window: 4.0
Ion_mode: N
Num Peaks: 25
58.0289	10.7
59.0129	1.4
68.0495	2.9
83.0491	1.6
84.0444	3.5
85.0649	1.7
97.0649	2.1
98.0601	1.3
99.0440	2.0
99.0805	2.2
113.0598	2.5
113.0961	5.1
114.0914	62.4
115.0947	4.3
116.0707	89.0
117.0741	4.5
140.0708	7.8
156.0657	1.4
157.0863	7.2
157.1223	1.7
158.0814	100.0
159.0663	4.7
159.0852	6.8
159.1017	50.9
160.1056	2.8

Name: N-Methyl-L-proline
PrecursorMZ: 128.07073
RT: 7.65154
ExactMass: 129.078978594
Spectrum_type: 2
charge: -1
Formula: C6H11NO2
SMILES: CN1CCC[C@H]1C(=O)O
Method: HCD
Collision_energy: [28.333334]
Isolation_window: 4.0
Ion_mode: N
Num Peaks: 8
85.0285	16.2
101.0235	6.1
128.0344	6.4
128.0708	26.0
129.0185	5.7
129.0746	2.0
130.0403	1.5
130.0864	100.0

Name: N-Oleoylglycine
PrecursorMZ: 338.26993
RT: 1.2732555555555556
ExactMass: 339.27734404
Spectrum_type: 2
charge: -1
Formula: C20H37NO3
SMILES: CCCCCCCC/C=C\CCCCCCCC(=O)NCC(=O)O
Method: HCD
Collision_energy: [28.333334]
Isolation_window: 4.0
Ion_mode: N
Num Peaks: 3
74.0238	100.0
338.2699	83.3
339.1992	27.7

Name: N-Palmitoylglycine
PrecursorMZ: 312.25446
RT: 1.3639
ExactMass: 313.26169398
Spectrum_type: 2
charge: -1
Formula: C18H35NO3
SMILES: CCCCCCCCCCCCCCCC(=O)NCC(=O)O
Method: HCD
Collision_energy: [28.333334]
Isolation_window: 4.0
Ion_mode: N
Num Peaks: 29
59.0130	2.6
72.9923	0.9
74.0239	100.0
75.0273	2.3
84.0447	0.7
87.0079	2.0
88.0395	2.2
111.0444	1.0
130.0866	3.1
182.0820	1.6
183.0120	0.7
224.1287	1.9
268.2647	6.9
269.0457	2.4
269.2688	1.2
295.0241	1.1
311.0767	2.4
311.1134	2.6
311.1692	15.8
311.2205	2.5
312.1160	1.0
312.1781	3.3
312.2547	68.7
313.0364	1.6
313.0965	1.5
313.1782	7.6
313.2619	11.3
314.1801	0.9
314.2607	0.8

Name: N-Stearoylethanolamine
PrecursorMZ: 151.0391
RT: 1.3391
ExactMass: 327.313729551
Spectrum_type: 2
charge: -1
Formula: C20H41NO2
SMILES: CCCCCCCCCCCCCCCCCC(=O)NCCO
Method: HCD
Collision_energy: [28.333334]
Isolation_window: 4.0
Ion_mode: N
Num Peaks: 18
69.2906	1.7
69.4736	1.7
79.9561	1.7
95.0128	5.0
108.0206	4.7
118.8988	4.0
136.0157	48.1
137.0191	3.8
149.0087	6.6
149.0960	2.1
150.0009	10.8
150.0087	2.0
151.0060	2.7
151.0260	3.5
151.0392	100.0
151.1119	14.2
152.0333	3.3
152.0435	8.5

Name: N-acetylglutamic acid
PrecursorMZ: 188.05585
RT: 7.1388
ExactMass: 189.06372245
Spectrum_type: 2
charge: -1
Formula: C7H11NO5
SMILES: CC(=O)NC(CCC(=O)O)C(=O)O
Method: HCD
Collision_energy: [28.333334]
Isolation_window: 4.0
Ion_mode: N
Num Peaks: 31
58.0290	40.9
59.0130	63.5
71.0130	12.0
72.0446	39.3
73.0286	24.4
85.0285	16.2
87.0081	9.0
88.0395	66.4
97.0650	12.0
99.0441	19.2
99.0803	11.4
102.0551	100.0
111.0079	53.9
114.0187	15.3
115.0029	16.8
116.0708	13.9
125.0238	10.7
125.0603	17.3
125.0964	44.2
127.0758	20.9
128.0346	26.5
129.0549	54.1
142.0866	19.6
143.0343	10.4
143.0706	31.8
144.0658	58.0
186.0770	13.0
187.0621	16.0
187.0966	31.4
188.0561	53.2
189.0765	33.7

Name: Neoruscogenin
PrecursorMZ: 483.17335
RT: 4.721299999999999
ExactMass: 428.29265975
Spectrum_type: 2
charge: -1
Formula: C27H40O4
SMILES: C[C@H]1[C@H]2[C@H](C[C@@H]3[C@@]2(CC[C@H]4[C@H]3CC=C5[C@@]4([C@@H](C[C@@H](C5)O)O)C)C)O[C@]16CCC(=C)CO6
Method: HCD
Collision_energy: [28.333334]
Isolation_window: 4.0
Ion_mode: N
Num Peaks: 4
96.9593	5.7
241.0829	100.0
242.0862	8.6
485.2211	9.6

Name: Nervonic Acid
PrecursorMZ: 365.34195
RT: 1.026181818181818
ExactMass: 366.349780706
Spectrum_type: 2
charge: -1
Formula: C24H46O2
SMILES: CCCCCCCC/C=C\CCCCCCCCCCCCCC(=O)O
Method: HCD
Collision_energy: [28.333334]
Isolation_window: 4.0
Ion_mode: N
Num Peaks: 25
69.0598	0.2
69.3382	0.2
96.9590	0.4
349.3461	0.2
363.3272	0.3
364.2530	1.1
364.3252	0.2
364.3301	0.4
365.2014	1.2
365.2465	0.3
365.2660	0.2
365.3422	45.6
365.4164	0.2
365.4381	0.3
366.2148	0.2
366.3456	12.0
367.1319	0.2
367.2165	1.0
367.2333	0.3
367.2611	0.6
367.2817	0.5
367.3577	100.0
367.4330	0.5
367.4542	0.6
367.4824	0.2

Name: Nicotinic Acid
PrecursorMZ: 122.02388
RT: 4.8763
ExactMass: 123.032028402
Spectrum_type: 2
charge: -1
Formula: C6H5NO2
SMILES: C1=CC(=CN=C1)C(=O)O
Method: HCD
Collision_energy: [28.333334]
Isolation_window: 4.0
Ion_mode: N
Num Peaks: 15
78.0340	5.3
79.9563	4.6
81.0212	3.9
94.0290	7.9
94.9799	4.0
95.0368	5.9
121.0287	7.6
121.0764	2.9
122.0240	100.0
122.9751	3.8
123.0273	7.1
123.0445	7.0
123.0555	13.0
123.9012	7.6
124.0396	3.4

Name: Nmda
PrecursorMZ: 130.05013
RT: 7.7529
ExactMass: 147.05315777
Spectrum_type: 2
charge: -1
Formula: C5H9NO4
SMILES: CN[C@H](CC(=O)O)C(=O)O
Method: HCD
Collision_energy: [28.333334]
Isolation_window: 4.0
Ion_mode: N
Num Peaks: 10
69.0337	5.2
87.0442	54.0
88.0395	1.1
88.0475	0.9
113.0235	5.4
128.0343	0.8
128.0709	3.4
130.0865	100.0
131.0343	11.2
131.0901	7.2

Name: Nonadecanoic Acid
PrecursorMZ: 297.27965
RT: 1.0928
ExactMass: 298.287180451
Spectrum_type: 2
charge: -1
Formula: C19H38O2
SMILES: CCCCCCCCCCCCCCCCCCC(=O)O
Method: HCD
Collision_energy: [28.333334]
Isolation_window: 4.0
Ion_mode: N
Num Peaks: 5
253.2533	4.3
297.1533	15.6
297.2797	100.0
298.2831	22.6
299.2597	7.5

Name: Nonanoic Acid
PrecursorMZ: 157.12278
RT: 0.6156
ExactMass: 158.130679813
Spectrum_type: 2
charge: -1
Formula: C9H18O2
SMILES: CCCCCCCCC(=O)O
Method: HCD
Collision_energy: [28.333334]
Isolation_window: 4.0
Ion_mode: N
Num Peaks: 5
157.0963	0.8
157.1014	0.6
157.1227	100.0
157.1499	0.7
158.1260	9.1

Name: Npc125754
PrecursorMZ: 137.03486
RT: 6.4638
ExactMass: 138.042927438
Spectrum_type: 2
charge: -1
Formula: C6H6N2O2
SMILES: C1=C(NC=N1)C=CC(=O)O
Method: HCD
Collision_energy: [28.333334]
Isolation_window: 4.0
Ion_mode: N
Num Peaks: 13
79.9564	6.9
93.0341	10.8
93.0449	100.0
94.0288	4.0
94.0483	5.0
123.0317	5.7
135.8941	12.3
136.8624	3.7
136.8910	40.7
137.0349	11.1
137.8908	4.3
138.0553	7.1
139.0505	3.8

Name: Npc209773
PrecursorMZ: 446.32771
RT: 1.2804
ExactMass: 289.1677936
Spectrum_type: 2
charge: -1
Formula: C17H23NO3
SMILES: CN1[C@@H]2CC[C@H]1CC(C2)OC(=O)C(CO)C3=CC=CC=C3
Method: HCD
Collision_energy: [28.333334]
Isolation_window: 4.0
Ion_mode: N
Num Peaks: 10
147.0445	16.5
164.0711	65.1
165.0747	5.8
278.2490	10.9
279.2323	33.0
445.3296	4.8
446.2624	6.8
446.3276	100.0
447.2521	18.1
447.3304	28.1

Name: O-Coumaric Acid
PrecursorMZ: 165.05498
RT: 2.6162
ExactMass: 164.047344113
Spectrum_type: 2
charge: -1
Formula: C9H8O3
SMILES: C1=CC=C(C(=C1)/C=C/C(=O)O)O
Method: HCD
Collision_energy: [28.333334]
Isolation_window: 4.0
Ion_mode: N
Num Peaks: 13
93.0340	1.0
96.9593	0.9
121.0106	0.7
121.0287	100.0
121.0650	40.3
122.0320	7.7
122.0684	3.0
147.0443	4.2
165.0188	11.3
165.0550	9.1
166.0218	0.7
166.0543	1.0
166.0587	0.9

Name: O-Desmethylangolensin
PrecursorMZ: 257.08181
RT: 1.82765
ExactMass: 258.08920892
Spectrum_type: 2
charge: -1
Formula: C15H14O4
SMILES: CC(C1=CC=C(C=C1)O)C(=O)C2=C(C=C(C=C2)O)O
Method: HCD
Collision_energy: [28.333334]
Isolation_window: 4.0
Ion_mode: N
Num Peaks: 39
80.9643	1.4
91.0181	0.5
93.0336	2.4
96.9591	2.0
107.0130	1.9
108.0208	2.0
109.0286	20.3
110.0319	1.3
119.0490	0.9
123.0079	1.2
135.0079	2.4
136.0157	6.2
137.0229	0.6
147.0445	1.6
148.0161	1.1
151.0393	7.3
153.0186	1.5
163.0393	2.6
213.0916	2.0
224.0478	0.7
239.0709	5.6
240.0741	0.9
242.0579	3.2
243.0202	1.0
255.0801	1.8
255.2329	14.8
255.5787	0.6
255.5821	1.6
256.0799	0.7
256.2363	3.8
257.0817	100.0
257.1025	1.7
257.1251	0.8
257.1375	0.6
257.5636	0.9
258.0447	2.0
258.0852	15.4
258.5727	0.7
259.0879	1.4

Name: O-alpha-D-Glucopyranosyl-(1->4)-O-alpha-D-glucopyranosyl-(1->4)-D-glucopyranose
PrecursorMZ: 503.16127
RT: 9.986728571428571
ExactMass: 504.16903493
Spectrum_type: 2
charge: -1
Formula: C18H32O16
SMILES: C([C@@H]1[C@H]([C@@H]([C@H]([C@H](O1)O[C@@H]2[C@H](O[C@@H]([C@@H]([C@H]2O)O)O[C@@H]3[C@H](OC([C@@H]([C@H]3O)O)O)CO)CO)O)O)O)O
Method: HCD
Collision_energy: [28.333334]
Isolation_window: 4.0
Ion_mode: N
Num Peaks: 4
89.0233	61.4
101.0233	99.4
161.0450	61.6
179.0548	100.0

Name: Octadecanedioic acid
PrecursorMZ: 313.23843
RT: 1.4203
ExactMass: 314.24570956
Spectrum_type: 2
charge: -1
Formula: C18H34O4
SMILES: C(CCCCCCCCC(=O)O)CCCCCCCC(=O)O
Method: HCD
Collision_energy: [28.333334]
Isolation_window: 4.0
Ion_mode: N
Num Peaks: 18
74.0238	47.4
96.9592	13.6
130.0866	34.1
182.0818	27.9
295.2279	100.0
296.2312	18.6
311.1693	44.0
311.2239	14.4
311.2956	47.2
312.1720	44.2
312.2551	34.5
312.2979	16.8
313.0889	20.4
313.1779	70.5
313.2383	21.1
313.2747	79.6
314.2782	24.3
315.1298	73.5

Name: Oleanolic Acid
PrecursorMZ: 455.35314
RT: 0.5396
ExactMass: 456.36034539
Spectrum_type: 2
charge: -1
Formula: C30H48O3
SMILES: C[C@]12CC[C@@H](C([C@@H]1CC[C@@]3([C@@H]2CC=C4[C@]3(CC[C@@]5([C@H]4CC(CC5)(C)C)C(=O)O)C)C)(C)C)O
Method: HCD
Collision_energy: [28.333334]
Isolation_window: 4.0
Ion_mode: N
Num Peaks: 20
50.5934	2.1
50.5960	4.6
50.7049	0.6
50.7075	1.4
78.9580	0.4
96.9590	0.5
135.0306	0.4
152.9952	0.4
453.2679	0.3
453.3361	2.9
454.2675	0.8
454.3408	2.5
455.2196	0.5
455.2471	0.5
455.3530	100.0
455.4558	0.4
455.4867	0.6
456.3070	0.7
456.3562	30.5
457.3601	2.8

Name: Oleic Acid
PrecursorMZ: 281.24848
RT: 0.9677
ExactMass: 282.255880323
Spectrum_type: 2
charge: -1
Formula: C18H34O2
SMILES: CCCCCCCC/C=C\CCCCCCCC(=O)O
Method: HCD
Collision_energy: [28.333334]
Isolation_window: 4.0
Ion_mode: N
Num Peaks: 16
79.9566	0.4
96.9592	3.3
279.2332	10.0
280.2366	8.9
281.0716	0.5
281.1835	0.5
281.2486	100.0
281.3137	0.6
282.1384	19.9
282.2519	19.4
282.6401	5.9
282.9942	1.2
283.1403	2.0
283.2638	5.4
285.1167	0.4
301.0052	0.3

Name: Oxaloacetic Acid
PrecursorMZ: 133.01338
RT: 8.5117
ExactMass: 132.00587322
Spectrum_type: 2
charge: -1
Formula: C4H4O5
SMILES: C(C(=O)C(=O)O)C(=O)O
Method: HCD
Collision_energy: [28.333334]
Isolation_window: 4.0
Ion_mode: N
Num Peaks: 7
75.0079	100.0
89.0234	32.8
132.8671	47.3
133.0134	16.2
134.8645	29.9
134.8938	73.6
135.0292	14.1

Name: Paeonol
PrecursorMZ: 391.13953
RT: 1.0733
ExactMass: 166.062994177
Spectrum_type: 2
charge: -1
Formula: C9H10O3
SMILES: CC(=O)C1=C(C=C(C=C1)OC)O
Method: HCD
Collision_energy: [28.333334]
Isolation_window: 4.0
Ion_mode: N
Num Peaks: 65
69.0337	2.2
69.4508	1.7
73.0285	28.0
75.0078	4.5
78.9581	47.6
81.0338	3.9
93.0337	2.3
95.0493	4.9
96.9591	4.0
96.9687	4.1
99.0442	60.6
100.0476	2.5
107.0494	3.7
110.9847	2.3
119.0492	2.1
121.0649	24.5
135.0807	5.9
137.0599	10.3
137.0965	3.0
139.0391	2.2
139.0757	4.1
147.0807	11.9
158.0365	46.2
159.0400	5.5
159.0807	2.8
161.0963	9.5
163.0757	6.9
165.0913	4.8
173.0600	53.6
174.0668	12.1
175.0763	5.1
175.1120	7.4
177.0917	3.4
181.0499	4.2
181.0864	3.2
185.0965	20.2
187.0760	2.9
188.0837	15.9
189.0884	3.9
201.0910	6.0
203.1071	98.7
204.1104	12.8
217.0502	23.8
218.0534	2.9
229.0866	18.3
230.0906	2.5
247.0973	48.2
248.1007	6.6
255.2330	2.1
265.1079	2.2
273.0766	2.9
285.1494	17.0
286.1533	3.1
291.0872	100.0
292.0908	15.2
329.1391	6.1
373.1287	7.8
389.1934	2.2
389.2103	19.1
389.2533	2.7
390.2145	6.4
391.1397	56.6
391.2146	3.7
392.1432	12.0
393.1737	2.3

Name: Pai-2
PrecursorMZ: 170.0818
RT: 1.3754142857142857
ExactMass: 171.08954328
Spectrum_type: 2
charge: -1
Formula: C8H13NO3
SMILES: CCCC(=O)NC1CCOC1=O
Method: HCD
Collision_energy: [28.333334]
Isolation_window: 4.0
Ion_mode: N
Num Peaks: 120
57.0337	1.2
58.0289	1.7
59.0130	11.2
65.0387	1.1
69.0337	3.6
70.0290	2.5
71.0130	5.6
71.0493	4.3
72.0446	1.8
72.9923	1.4
73.0287	1.9
79.9564	3.1
80.9643	1.2
81.0336	2.3
82.0288	1.5
83.0494	6.3
84.0082	15.0
84.0445	7.6
85.0285	4.4
86.0237	1.0
87.0079	1.5
87.0444	1.4
88.0395	4.1
93.0335	1.3
95.0493	4.4
96.0083	1.9
96.0446	6.3
96.9593	4.2
97.0286	8.7
97.0650	9.7
98.0238	14.0
98.0603	3.1
99.0075	1.4
99.0443	3.1
99.0806	1.7
100.0393	1.4
100.0758	2.4
101.0237	1.2
107.0493	7.2
108.0446	2.6
109.0169	1.5
109.0287	7.8
109.0650	10.9
110.0245	2.3
110.0605	1.4
111.0079	1.2
111.0442	2.2
111.0805	1.4
112.0396	9.0
113.0236	1.9
113.0598	2.0
114.0552	27.4
115.0392	2.4
115.0583	1.2
116.0708	2.8
122.0604	1.0
123.0443	2.3
123.0805	1.7
124.0399	3.7
124.0760	20.3
124.0839	0.9
125.0237	1.1
125.0351	1.3
125.0600	30.5
125.0702	1.1
125.0789	2.2
125.0962	4.7
126.0011	6.3
126.0553	20.9
126.0636	2.2
126.0914	2.6
127.0396	3.0
127.0592	1.4
127.0756	55.7
127.0856	1.7
127.1119	2.5
128.0345	12.6
128.0709	33.6
128.0789	2.1
128.1073	4.0
129.0543	1.5
129.0744	1.9
130.0502	0.9
130.0865	6.5
137.0237	4.1
138.0187	1.0
138.0551	4.1
139.0397	2.3
139.0756	2.2
140.0343	1.1
140.0712	1.7
141.0550	1.6
141.0913	1.2
142.0866	3.0
143.0217	1.2
143.0706	0.9
150.0555	1.0
151.0395	4.6
151.0755	1.5
153.0551	1.4
153.0912	2.0
168.0657	10.7
168.1021	0.9
169.0185	3.7
169.0337	1.1
169.0499	20.9
169.0697	1.3
169.0862	10.4
169.0981	2.0
169.1222	2.8
170.0449	15.6
170.0816	100.0
170.0934	4.2
170.1133	0.9
170.1184	0.9
171.0656	43.8
171.0848	7.9
171.1019	37.1
172.0601	8.1
172.0967	7.0

Name: Palmitoleic Acid
PrecursorMZ: 253.2172
RT: 1.123557142857143
ExactMass: 254.224580195
Spectrum_type: 2
charge: -1
Formula: C16H30O2
SMILES: CCCCCC/C=C\CCCCCCCC(=O)O
Method: HCD
Collision_energy: [28.333334]
Isolation_window: 4.0
Ion_mode: N
Num Peaks: 12
253.0709	0.3
253.2174	9.4
254.2206	1.6
255.0894	0.2
255.1607	0.2
255.1771	0.6
255.1887	0.6
255.2329	100.0
255.2764	0.5
255.2888	0.7
255.3046	0.3
255.3660	0.2

Name: Pantothenic Acid
PrecursorMZ: 218.10278
RT: 5.2997
ExactMass: 219.11067264
Spectrum_type: 2
charge: -1
Formula: C9H17NO5
SMILES: CC(C)(CO)[C@H](C(=O)NCCC(=O)O)O
Method: HCD
Collision_energy: [28.333334]
Isolation_window: 4.0
Ion_mode: N
Num Peaks: 49
59.0129	1.2
71.0129	10.4
71.0492	5.4
72.9921	0.3
73.0284	0.4
73.0397	1.9
83.0492	0.4
87.0442	1.3
88.0280	0.6
88.0306	0.5
88.0393	100.0
88.0507	0.6
89.0426	3.4
99.0441	1.7
109.0397	0.8
112.0507	1.5
116.0345	0.6
116.0707	5.8
116.9275	0.5
117.0747	0.4
129.0548	1.1
129.1023	3.2
130.0864	10.4
131.0901	0.7
141.1023	0.4
143.1180	4.1
146.0577	0.3
146.0813	53.4
146.1056	0.4
147.0849	3.2
155.0602	0.7
173.0923	13.6
174.0962	0.8
187.1080	22.6
188.1117	2.0
199.1080	0.6
199.8504	0.7
216.8525	0.5
217.0277	0.4
217.0727	1.3
217.1068	1.4
217.1189	16.4
218.1027	30.0
218.1224	1.7
219.1055	2.9
219.1244	0.5
219.1746	1.4
220.0392	4.9
220.0598	0.4

Name: Penicillic Acid
PrecursorMZ: 169.04992
RT: 1.7191
ExactMass: 170.0579088
Spectrum_type: 2
charge: -1
Formula: C8H10O4
SMILES: CC(=C)C(=O)/C(=C/C(=O)O)/OC
Method: HCD
Collision_energy: [28.333334]
Isolation_window: 4.0
Ion_mode: N
Num Peaks: 16
97.0650	16.7
98.0238	19.3
99.0081	17.1
109.0287	21.3
123.0445	14.9
124.0401	15.5
125.0601	70.3
125.0963	52.8
127.0392	14.5
137.9822	19.6
139.0394	96.5
169.0278	16.2
169.0501	100.0
170.0092	44.6
171.0296	30.1
171.1386	13.8

Name: Pentacosanoic acid
PrecursorMZ: 381.37391
RT: 1.0120111111111112
ExactMass: 382.381080833
Spectrum_type: 2
charge: -1
Formula: C25H50O2
SMILES: CCCCCCCCCCCCCCCCCCCCCCCCC(=O)O
Method: HCD
Collision_energy: [28.333334]
Isolation_window: 4.0
Ion_mode: N
Num Peaks: 12
116.0710	4.8
335.3315	5.9
379.3589	3.6
380.3184	3.3
380.3638	5.4
381.1919	10.4
381.2353	10.4
381.3365	11.9
381.3756	100.0
382.3378	4.8
382.3790	24.8
383.3464	5.5

Name: Pentadecanoic Acid
PrecursorMZ: 241.21699
RT: 1.5166
ExactMass: 242.224580195
Spectrum_type: 2
charge: -1
Formula: C15H30O2
SMILES: CCCCCCCCCCCCCCC(=O)O
Method: HCD
Collision_energy: [28.333334]
Isolation_window: 4.0
Ion_mode: N
Num Peaks: 31
71.0128	0.6
72.9921	1.0
79.9563	1.0
96.9589	0.9
113.0232	0.7
121.0285	0.6
139.0395	0.7
153.0548	0.6
153.0913	0.9
163.0756	0.8
177.0914	0.8
179.0710	0.7
197.1180	1.3
197.1543	1.5
198.1480	0.7
199.1699	23.7
240.0605	0.9
241.0169	3.1
241.0538	8.1
241.0728	1.6
241.1651	0.6
241.1766	0.6
241.2172	100.0
241.2680	0.6
242.0683	1.1
242.2205	15.8
243.0301	1.6
243.0876	2.0
243.1560	0.8
243.1969	0.8
243.2233	1.1

Name: Perillic Acid
PrecursorMZ: 499.30487
RT: 2.4285
ExactMass: 166.099379685
Spectrum_type: 2
charge: -1
Formula: C10H14O2
SMILES: CC(=C)C1CCC(=CC1)C(=O)O
Method: HCD
Collision_energy: [28.333334]
Isolation_window: 4.0
Ion_mode: N
Num Peaks: 14
55.4798	4.2
78.9581	52.0
134.9841	2.8
152.9952	58.8
171.0059	8.9
269.2488	22.4
270.2520	14.8
407.2572	22.1
408.2615	4.4
425.2668	6.4
497.2900	6.0
498.2864	16.6
499.3044	100.0
500.3079	23.7

Name: Petroselinic Acid
PrecursorMZ: 281.24818
RT: 1.1244
ExactMass: 282.255880323
Spectrum_type: 2
charge: -1
Formula: C18H34O2
SMILES: CCCCCCCCCCC/C=C\CCCCC(=O)O
Method: HCD
Collision_energy: [28.333334]
Isolation_window: 4.0
Ion_mode: N
Num Peaks: 5
279.2329	7.0
280.2362	7.4
281.2483	100.0
282.2517	19.8
283.2638	34.3

Name: Phenacetin
PrecursorMZ: 377.19255
RT: 2.5462
ExactMass: 179.094628657
Spectrum_type: 2
charge: -1
Formula: C10H13NO2
SMILES: CCOC1=CC=C(C=C1)NC(=O)C
Method: HCD
Collision_energy: [28.333334]
Isolation_window: 4.0
Ion_mode: N
Num Peaks: 16
116.0707	15.7
171.1495	8.3
215.1396	100.0
216.1430	10.7
257.1501	6.1
287.1611	63.1
288.1642	8.8
317.1720	4.4
333.2432	8.2
375.2906	21.9
376.2945	10.6
377.1927	20.6
377.2341	14.6
378.1970	5.1
378.2389	3.5
379.2520	4.4

Name: Phenol
PrecursorMZ: 93.03362
RT: 1.2594
ExactMass: 94.041864811
Spectrum_type: 2
charge: -1
Formula: C6H6O
SMILES: C1=CC=C(C=C1)O
Method: HCD
Collision_energy: [28.333334]
Isolation_window: 4.0
Ion_mode: N
Num Peaks: 7
65.0136	35.2
65.9976	10.8
76.9690	4.0
93.0085	100.0
93.0337	28.7
94.0116	4.3
94.9799	7.4

Name: Phenylacetaldehyde
PrecursorMZ: 121.06501
RT: 2.6101
ExactMass: 120.057514874
Spectrum_type: 2
charge: -1
Formula: C8H8O
SMILES: C1=CC=C(C=C1)CC=O
Method: HCD
Collision_energy: [28.333334]
Isolation_window: 4.0
Ion_mode: N
Num Peaks: 3
121.0288	25.4
121.0650	47.7
122.0239	100.0

Name: Phenylacetic Acid
PrecursorMZ: 135.04452
RT: 1.4002
ExactMass: 136.052429494
Spectrum_type: 2
charge: -1
Formula: C8H8O2
SMILES: C1=CC=C(C=C1)CC(=O)O
Method: HCD
Collision_energy: [28.333334]
Isolation_window: 4.0
Ion_mode: N
Num Peaks: 14
91.0544	21.4
93.0337	23.8
107.0494	9.4
121.0524	19.0
134.0605	6.2
135.0444	100.0
135.0813	7.1
136.0394	15.8
136.0483	7.0
136.0759	51.5
136.9908	8.7
137.0237	11.4
137.0599	10.1
137.0713	6.3

Name: Phenylacetylglutamine
PrecursorMZ: 263.10339
RT: 5.0443
ExactMass: 264.111007
Spectrum_type: 2
charge: -1
Formula: C13H16N2O4
SMILES: C1=CC=C(C=C1)CC(=O)N[C@@H](CCC(=O)N)C(=O)O
Method: HCD
Collision_energy: [28.333334]
Isolation_window: 4.0
Ion_mode: N
Num Peaks: 59
59.0129	2.9
60.9922	12.0
67.0292	9.7
74.0238	1.6
79.9563	3.0
80.9642	2.5
84.0443	2.1
85.0287	1.6
86.0599	2.7
91.0544	7.3
95.0242	5.9
96.9591	12.9
97.0397	1.5
103.0214	2.1
109.0398	100.0
110.0432	4.9
114.0550	11.8
116.0707	18.8
124.0396	3.6
128.0343	6.0
132.0810	4.8
135.0444	2.0
136.0759	25.0
137.0795	3.7
146.0600	1.6
147.0443	3.1
160.0759	4.3
164.0715	2.1
172.0760	28.5
173.0807	3.2
174.0918	7.2
175.0870	1.7
178.0860	2.7
185.0713	26.1
186.0749	1.6
187.0868	10.5
189.1030	3.3
199.0872	5.8
201.1030	10.0
218.1191	2.3
218.1545	4.0
219.1141	1.7
221.1175	8.8
233.0927	15.3
234.0958	1.8
261.1600	8.7
262.0496	1.7
262.0738	5.2
262.1154	1.9
262.1649	2.2
263.0582	1.6
263.1035	65.3
263.1270	2.4
264.1017	4.7
264.1256	4.8
264.1623	1.5
265.0765	3.3
265.1083	10.4
265.1463	11.5

Name: Phenylethanolamine
PrecursorMZ: 446.22186
RT: 4.9393
ExactMass: 137.084063974
Spectrum_type: 2
charge: -1
Formula: C8H11NO
SMILES: C1=CC=C(C=C1)C(CN)O
Method: HCD
Collision_energy: [28.333334]
Isolation_window: 4.0
Ion_mode: N
Num Peaks: 23
74.0237	23.9
116.0711	27.4
134.9984	27.3
171.1020	37.9
211.1328	13.1
286.1770	16.9
293.2122	73.9
309.2070	14.9
311.2219	17.1
327.2174	45.3
346.2019	33.1
358.1986	25.2
401.2724	16.5
403.2863	76.8
404.2881	13.4
443.2240	20.8
444.3049	29.5
445.2372	100.0
445.3138	14.9
446.2260	47.8
447.2775	81.6
448.2283	36.2
463.2492	14.6

Name: Phenylglyoxylic Acid
PrecursorMZ: 149.02368
RT: 1.8472
ExactMass: 150.031694049
Spectrum_type: 2
charge: -1
Formula: C8H6O3
SMILES: C1=CC=C(C=C1)C(=O)C(=O)O
Method: HCD
Collision_energy: [28.333334]
Isolation_window: 4.0
Ion_mode: N
Num Peaks: 1
107.0494	100.0

Name: Phloretin
PrecursorMZ: 292.11909
RT: 2.369
ExactMass: 274.08412354
Spectrum_type: 2
charge: -1
Formula: C15H14O5
SMILES: C1=CC(=CC=C1CCC(=O)C2=C(C=C(C=C2O)O)O)O
Method: HCD
Collision_energy: [28.333334]
Isolation_window: 4.0
Ion_mode: N
Num Peaks: 4
128.0710	81.7
232.0243	40.1
248.1293	100.0
292.0476	46.0

Name: Phorbol
PrecursorMZ: 363.18156
RT: 4.971
ExactMass: 364.18858861
Spectrum_type: 2
charge: -1
Formula: C20H28O6
SMILES: C[C@@H]1[C@H]([C@@]2([C@@H](C2(C)C)[C@H]3[C@]1([C@@H]4C=C(C(=O)[C@]4(CC(=C3)CO)O)C)O)O)O
Method: HCD
Collision_energy: [28.333334]
Isolation_window: 4.0
Ion_mode: N
Num Peaks: 12
73.0286	7.9
80.9642	2.7
263.1647	3.6
319.1907	2.9
361.2235	15.0
362.2288	8.6
363.1806	100.0
363.2199	21.5
364.1838	19.5
364.2228	4.5
365.1944	9.9
365.2338	3.7

Name: Phosphocreatine
PrecursorMZ: 212.0438
RT: 9.8479
ExactMass: 211.03580743
Spectrum_type: 2
charge: -1
Formula: C4H10N3O5P
SMILES: CN(CC(=O)O)/C(=N/P(=O)(O)O)/N
Method: HCD
Collision_energy: [28.333334]
Isolation_window: 4.0
Ion_mode: N
Num Peaks: 6
97.4400	19.1
131.0818	55.0
157.0613	47.7
194.0332	100.0
210.9907	23.9
212.0431	43.3

Name: Phosphoenolpyruvate
PrecursorMZ: 168.99017
RT: 7.9486
ExactMass: 167.98237487
Spectrum_type: 2
charge: -1
Formula: C3H5O6P
SMILES: C=C(C(=O)O)OP(=O)(O)O
Method: HCD
Collision_energy: [28.333334]
Isolation_window: 4.0
Ion_mode: N
Num Peaks: 4
128.0346	10.2
148.9724	9.7
166.9834	12.5
168.9904	100.0

Name: Phthalic Acid
PrecursorMZ: 165.01906
RT: 2.064
ExactMass: 166.02660867
Spectrum_type: 2
charge: -1
Formula: C8H6O4
SMILES: C1=CC=C(C(=C1)C(=O)O)C(=O)O
Method: HCD
Collision_energy: [28.333334]
Isolation_window: 4.0
Ion_mode: N
Num Peaks: 17
79.9564	3.2
120.0445	3.3
121.0287	100.0
122.0316	7.1
123.0443	3.6
124.0509	3.9
134.0227	3.4
149.0090	12.2
163.0757	7.9
164.0204	4.0
164.0704	6.9
165.0188	37.0
165.0406	3.0
165.0552	4.5
166.0145	3.7
166.0524	9.3
167.0580	4.6

Name: Picrotin
PrecursorMZ: 293.10323
RT: 2.9121
ExactMass: 310.10525291
Spectrum_type: 2
charge: -1
Formula: C15H18O7
SMILES: C[C@@]12[C@H]3[C@H]4[C@H]([C@@H]([C@@]1(C[C@@H]5[C@]2(O5)C(=O)O3)O)C(=O)O4)C(C)(C)O
Method: HCD
Collision_energy: [28.333334]
Isolation_window: 4.0
Ion_mode: N
Num Peaks: 8
59.0130	8.3
190.0267	30.4
291.1428	19.8
291.6448	14.6
292.1508	11.3
293.1037	100.0
294.1065	14.0
294.2441	13.2

Name: Pimelic Acid
PrecursorMZ: 159.06553
RT: 6.6135
ExactMass: 160.07355886
Spectrum_type: 2
charge: -1
Formula: C7H12O4
SMILES: C(CCC(=O)O)CCC(=O)O
Method: HCD
Collision_energy: [28.333334]
Isolation_window: 4.0
Ion_mode: N
Num Peaks: 42
58.0289	1.3
59.0130	2.9
69.0337	1.9
70.0289	1.4
71.0130	3.1
72.0082	1.4
73.0287	1.8
83.0493	5.2
85.0286	2.5
85.0651	1.8
86.0238	1.4
87.0554	1.8
95.0494	2.7
97.0287	3.5
97.0649	2.0
98.0240	2.1
101.0236	1.8
113.0599	23.4
114.0186	1.4
114.0552	1.4
114.0917	1.7
115.0756	3.5
116.0709	9.6
136.0757	1.6
138.0554	4.6
141.0297	3.9
141.0547	1.9
157.0500	23.6
157.0866	6.9
157.1228	4.5
158.0529	1.9
158.0806	2.4
158.8924	1.3
159.0314	2.1
159.0657	100.0
159.1020	1.4
159.8933	3.6
160.0398	11.5
160.0696	7.1
160.8922	2.6
161.0452	10.9
241.0978	2.0

Name: Piracetam
PrecursorMZ: 187.07215
RT: 5.883
ExactMass: 142.074227566
Spectrum_type: 2
charge: -1
Formula: C6H10N2O2
SMILES: C1CC(=O)N(C1)CC(=O)N
Method: HCD
Collision_energy: [28.333334]
Isolation_window: 4.0
Ion_mode: N
Num Peaks: 96
58.0289	2.5
59.0129	8.0
65.0136	3.6
66.0087	1.7
70.0290	1.6
71.0128	3.2
71.0493	1.4
72.0445	3.6
72.9921	2.0
73.0285	3.9
74.0238	2.8
79.9564	5.2
82.0288	4.0
82.0402	1.6
83.0493	3.3
84.0445	12.8
85.0286	2.6
87.0078	3.0
87.0440	1.8
88.0393	4.8
96.0446	2.0
97.0033	4.1
98.0112	3.4
98.0238	2.4
98.0602	2.8
99.0193	1.7
99.0443	2.3
100.0394	4.2
100.0759	1.8
101.0711	1.9
102.0550	4.2
106.0400	2.7
107.0493	4.5
110.0601	1.9
110.9841	1.7
111.0191	4.2
112.0394	3.2
113.0348	7.0
114.0185	1.9
114.0550	4.6
114.0915	5.1
115.0867	6.5
116.0495	2.3
116.0708	3.2
118.0400	2.0
120.0557	2.1
121.0511	9.1
124.0394	2.4
125.0348	4.2
125.0600	3.1
125.0963	3.2
126.0552	2.9
127.0505	4.4
130.0864	4.4
132.0557	2.5
140.0706	2.1
142.0503	2.1
142.0612	14.9
142.0863	20.0
143.0700	3.0
143.0722	6.0
143.1178	2.8
144.0300	2.1
144.0448	21.4
144.0557	4.3
144.0660	16.5
144.1021	3.8
145.0394	1.6
145.0506	4.5
146.0716	1.9
146.0816	5.7
147.0447	1.7
147.0662	2.2
159.0665	4.4
160.0512	3.5
169.0613	6.6
185.0544	1.7
185.0568	1.7
185.0822	3.6
186.0767	32.4
186.1103	2.1
187.0061	4.4
187.0611	7.3
187.0723	100.0
187.0976	3.2
187.1090	2.7
188.0359	2.0
188.0570	2.2
188.0745	7.7
188.0923	27.2
188.1272	3.3
189.0408	2.9
189.0784	5.7
189.0943	1.6
189.1104	1.8
189.1133	1.5

Name: Pivagabine
PrecursorMZ: 186.11278
RT: 4.544875
ExactMass: 187.1208434
Spectrum_type: 2
charge: -1
Formula: C9H17NO3
SMILES: CC(C)(C)C(=O)NCCCC(=O)O
Method: HCD
Collision_energy: [28.333334]
Isolation_window: 4.0
Ion_mode: N
Num Peaks: 41
59.0129	2.1
79.9564	4.4
96.9590	2.0
97.0649	1.8
98.0601	1.5
99.0441	2.6
100.0396	2.1
111.0077	2.2
111.0190	1.7
113.0233	2.2
116.0708	24.1
125.0246	3.0
125.0341	3.2
125.0598	2.4
125.0961	2.3
130.0865	100.0
131.0898	6.8
141.1276	17.2
142.0865	5.7
142.1227	7.4
144.0447	2.1
144.1022	2.2
159.0319	5.2
160.0398	2.9
167.0343	2.7
169.0498	2.5
170.9987	2.1
184.0008	3.0
184.5026	1.9
185.0120	2.7
185.0439	3.8
185.1176	5.8
185.1540	2.9
186.0226	6.0
186.1128	46.6
187.0610	4.0
187.0973	3.0
187.1160	5.2
187.1331	21.2
188.0346	4.3
188.1107	1.6

Name: Platycodigenin
PrecursorMZ: 519.33279
RT: 4.72
ExactMass: 520.34000387
Spectrum_type: 2
charge: -1
Formula: C30H48O7
SMILES: C[C@@]12CC[C@@H]3[C@@]([C@H]1CC=C4[C@]2(C[C@H]([C@@]5([C@H]4CC(CC5)(C)C)C(=O)O)O)C)(C[C@@H]([C@@H](C3(CO)CO)O)O)C
Method: HCD
Collision_energy: [28.333334]
Isolation_window: 4.0
Ion_mode: N
Num Peaks: 15
57.7020	1.9
57.7053	4.5
375.2700	1.8
379.3009	3.0
391.3015	11.7
392.3016	1.6
392.3066	2.7
407.2960	4.3
409.3113	3.4
457.3332	4.3
458.3324	1.6
518.3271	2.7
519.3331	100.0
520.3364	29.7
521.3469	10.4

Name: Propionic Acid
PrecursorMZ: 149.08121
RT: 6.5061
ExactMass: 74.03677943
Spectrum_type: 2
charge: -1
Formula: C3H6O2
SMILES: CCC(=O)O
Method: HCD
Collision_energy: [28.333334]
Isolation_window: 4.0
Ion_mode: N
Num Peaks: 8
59.0130	20.4
79.9565	10.8
108.0195	37.6
108.0444	15.0
147.0655	12.2
149.0815	8.4
150.0554	10.7
151.0257	100.0

Name: Propylparaben
PrecursorMZ: 239.09184
RT: 1.2156
ExactMass: 180.078644241
Spectrum_type: 2
charge: -1
Formula: C10H12O3
SMILES: CCCOC(=O)C1=CC=C(C=C1)O
Method: HCD
Collision_energy: [28.333334]
Isolation_window: 4.0
Ion_mode: N
Num Peaks: 22
83.0128	79.3
84.0160	3.6
91.0210	7.1
93.0334	4.6
96.9590	5.3
137.0234	4.6
138.0315	8.5
139.0029	6.9
151.1120	98.8
152.1152	9.7
195.1027	5.3
195.1384	4.4
212.0924	5.2
223.0278	100.0
224.0282	16.4
225.0246	5.5
237.1854	4.8
238.0717	11.8
239.0928	4.6
239.2005	8.1
241.0718	20.1
241.2168	64.9

Name: Prosapogenin A
PrecursorMZ: 146.02378
RT: 1.4039
ExactMass: 722.42412741
Spectrum_type: 2
charge: -1
Formula: C39H62O12
SMILES: C[C@@H]1CC[C@@]2([C@H]([C@H]3[C@@H](O2)C[C@@H]4[C@@]3(CC[C@H]5[C@H]4CC=C6[C@@]5(CC[C@@H](C6)O[C@H]7[C@@H]([C@H]([C@@H]([C@H](O7)CO)O)O)O[C@H]8[C@@H]([C@@H]([C@H]([C@@H](O8)C)O)O)O)C)C)C)OC1
Method: HCD
Collision_energy: [28.333334]
Isolation_window: 4.0
Ion_mode: N
Num Peaks: 4
118.0288	100.0
144.0446	92.4
145.0484	20.3
146.0239	63.7

Name: Prostaglandin E2
PrecursorMZ: 353.23336
RT: 3.0125
ExactMass: 352.22497412
Spectrum_type: 2
charge: -1
Formula: C20H32O5
SMILES: CCCCC[C@@H](/C=C/[C@H]1[C@@H](CC(=O)[C@@H]1C/C=C\CCCC(=O)O)O)O
Method: HCD
Collision_energy: [28.333334]
Isolation_window: 4.0
Ion_mode: N
Num Peaks: 19
59.0129	2.3
69.0338	2.4
71.0493	2.8
79.9565	2.3
80.9643	4.9
81.0701	4.1
96.9593	7.1
115.0392	24.2
167.1072	2.8
247.1702	7.0
265.1807	2.4
335.2228	8.6
353.0505	3.4
353.0541	2.6
353.1986	2.0
353.2336	100.0
354.2370	21.3
355.1587	10.7
355.2492	43.3

Name: Pseudouridine
PrecursorMZ: 243.06195
RT: 7.085735714285715
ExactMass: 244.06953611
Spectrum_type: 2
charge: -1
Formula: C9H12N2O6
SMILES: C1=C(C(=O)NC(=O)N1)[C@H]2[C@@H]([C@@H]([C@H](O2)CO)O)O
Method: HCD
Collision_energy: [28.333334]
Isolation_window: 4.0
Ion_mode: N
Num Peaks: 22
80.9643	14.2
87.0078	6.5
99.0441	3.7
110.0239	5.5
111.0192	4.3
113.0236	9.8
137.0601	2.4
139.0392	5.9
140.0345	8.2
143.0342	6.6
153.0299	100.0
154.0336	6.1
181.0504	4.0
183.0409	11.7
225.0069	8.3
241.1233	14.6
241.2172	44.3
242.1272	5.8
242.2207	12.4
243.0181	16.7
243.0598	10.5
243.1233	7.7

Name: Pterin
PrecursorMZ: 162.04145
RT: 6.181075
ExactMass: 163.0494098
Spectrum_type: 2
charge: -1
Formula: C6H5N5O
SMILES: C1=CN=C2C(=N1)C(=O)NC(=N2)N
Method: HCD
Collision_energy: [28.333334]
Isolation_window: 4.0
Ion_mode: N
Num Peaks: 21
59.0130	4.3
71.0130	4.5
79.9565	7.1
80.9645	7.1
87.0078	7.3
115.0756	3.7
115.9199	5.5
119.0355	43.7
119.0495	3.6
160.0402	6.5
160.8923	11.1
161.0452	9.2
161.0818	9.0
161.8932	7.8
162.0191	3.7
162.0416	100.0
162.0545	5.4
162.8928	18.4
163.0448	4.7
163.0756	3.6
163.1122	17.3

Name: Pyridoxal
PrecursorMZ: 166.05034
RT: 4.7553
ExactMass: 167.058243149
Spectrum_type: 2
charge: -1
Formula: C8H9NO3
SMILES: CC1=NC=C(C(=C1O)C=O)CO
Method: HCD
Collision_energy: [28.333334]
Isolation_window: 4.0
Ion_mode: N
Num Peaks: 34
69.0692	6.2
79.9565	8.6
80.9642	7.5
94.0287	7.4
106.9175	9.0
108.0447	15.6
120.0447	10.3
121.0285	9.6
122.0237	5.0
122.0603	100.0
123.0442	7.0
123.0634	6.3
124.0397	4.1
136.0397	13.1
138.0553	32.5
148.0396	15.2
148.9723	10.3
149.0089	8.5
163.9850	4.3
164.0345	4.9
164.0709	6.9
164.8949	11.3
165.0181	4.5
165.0404	6.8
165.0545	7.1
165.0643	5.7
165.0666	5.0
165.0901	8.3
165.1025	9.7
166.0141	6.5
166.0511	63.2
166.0859	9.3
166.9831	14.0
167.0342	7.9

Name: Pyridoxamine
PrecursorMZ: 227.10318
RT: 7.2787
ExactMass: 168.08987763
Spectrum_type: 2
charge: -1
Formula: C8H12N2O2
SMILES: CC1=NC=C(C(=C1O)CN)CO
Method: HCD
Collision_energy: [28.333334]
Isolation_window: 4.0
Ion_mode: N
Num Peaks: 10
94.0289	13.4
98.0238	57.0
113.0346	28.2
114.0549	18.6
116.0707	15.1
128.0342	22.2
183.1132	55.0
227.1032	85.9
227.2010	100.0
228.2049	18.5

Name: Pyridoxine
PrecursorMZ: 168.06595
RT: 6.371
ExactMass: 169.07389321
Spectrum_type: 2
charge: -1
Formula: C8H11NO3
SMILES: CC1=NC=C(C(=C1O)CO)CO
Method: HCD
Collision_energy: [28.333334]
Isolation_window: 4.0
Ion_mode: N
Num Peaks: 95
59.0130	51.0
60.0163	1.1
66.0341	0.8
69.0337	0.6
69.2155	0.9
70.0290	5.8
71.0130	2.7
73.0286	1.8
80.0497	0.8
80.9643	1.3
81.0211	1.3
81.0338	0.8
82.0289	2.4
83.0494	1.0
84.0082	1.4
84.0446	1.8
85.0286	0.5
91.0181	0.7
93.0337	0.5
94.0290	0.8
95.0368	0.9
95.0493	1.5
96.0446	7.2
97.0286	1.0
97.0400	0.7
97.0651	1.4
97.4667	0.6
98.0239	1.7
98.0602	0.8
99.0079	5.6
106.0653	0.7
107.0494	1.9
108.0209	9.0
108.0446	39.3
109.0162	0.7
109.0291	2.4
109.0401	1.3
109.0481	2.4
110.0240	2.9
111.0442	0.8
112.0396	1.0
114.0551	3.9
122.0604	10.9
122.0683	0.6
123.0444	12.9
123.0555	9.5
123.0638	1.8
123.0804	1.3
124.0398	4.6
124.0478	1.0
124.0580	0.6
124.0607	0.7
124.0687	1.3
124.0760	100.0
125.0236	0.9
125.0601	5.3
125.0794	7.2
125.0950	0.8
126.0108	4.3
126.0553	5.9
126.0914	1.0
128.0079	1.0
128.0345	6.5
128.0710	2.5
132.0447	1.1
135.0446	1.4
136.0396	0.9
138.0552	1.4
139.0393	1.5
148.0394	0.4
149.0713	0.6
150.0554	3.6
151.0393	0.9
151.0635	2.2
152.0108	27.1
153.0143	2.0
166.0500	2.7
166.0863	1.4
167.0183	1.2
167.0341	13.2
167.0460	1.6
167.0702	1.3
167.0821	1.5
168.0396	0.8
168.0659	17.8
168.1138	1.5
169.0165	1.0
169.0497	2.2
169.0618	0.7
169.0706	0.8
169.0864	1.2
169.1228	0.8
170.0452	7.3
170.0815	8.9
170.0926	0.4

Name: Pyrogallol
PrecursorMZ: 235.06006
RT: 2.7356
ExactMass: 126.031694049
Spectrum_type: 2
charge: -1
Formula: C6H6O3
SMILES: C1=CC(=C(C(=C1)O)O)O
Method: HCD
Collision_energy: [28.333334]
Isolation_window: 4.0
Ion_mode: N
Num Peaks: 3
96.9591	27.6
233.1196	100.0
233.6215	46.4

Name: Pyropheophorbide a
PrecursorMZ: 533.25611
RT: 1.8568
ExactMass: 534.26309096
Spectrum_type: 2
charge: -1
Formula: C33H34N4O3
SMILES: CCC1=C(C2=NC1=CC3=C(C4=C(CC(=C5[C@H]([C@@H](C(=CC6=NC(=C2)C(=C6C)C=C)N5)C)CCC(=O)O)C4=N3)O)C)C
Method: HCD
Collision_energy: [28.333334]
Isolation_window: 4.0
Ion_mode: N
Num Peaks: 10
69.3441	5.7
474.2428	100.0
475.2462	33.6
476.2568	30.8
489.2664	97.7
490.2695	33.9
491.2799	22.9
531.2960	4.7
533.2510	8.0
535.2714	28.2

Name: Pyruvic Acid
PrecursorMZ: 265.05643
RT: 6.037
ExactMass: 88.016043985
Spectrum_type: 2
charge: -1
Formula: C3H4O3
SMILES: CC(=O)C(=O)O
Method: HCD
Collision_energy: [28.333334]
Isolation_window: 4.0
Ion_mode: N
Num Peaks: 26
59.0130	26.8
68.9973	41.2
71.0130	13.1
72.9922	8.6
73.0286	45.0
75.0080	2.5
80.9643	3.5
84.9922	3.2
85.0286	4.2
87.0079	100.0
88.0113	2.8
91.0391	6.8
101.0235	46.8
103.0027	2.2
112.9872	39.0
129.0186	10.5
151.0255	46.1
161.0451	11.6
173.0086	6.2
177.0409	2.4
187.0243	4.5
205.0352	7.9
219.0775	3.0
220.0800	2.2
265.0552	6.3
267.0736	19.7

Name: Quinaldic Acid
PrecursorMZ: 174.05538
RT: 1.4287
ExactMass: 173.047678466
Spectrum_type: 2
charge: -1
Formula: C10H7NO2
SMILES: C1=CC=C2C(=C1)C=CC(=N2)C(=O)O
Method: HCD
Collision_energy: [28.333334]
Isolation_window: 4.0
Ion_mode: N
Num Peaks: 2
159.0319	100.0
174.0555	35.1

Name: Raffinose
PrecursorMZ: 503.16191
RT: 10.0151
ExactMass: 504.16903493
Spectrum_type: 2
charge: -1
Formula: C18H32O16
SMILES: C([C@@H]1[C@@H]([C@@H]([C@H]([C@H](O1)OC[C@@H]2[C@H]([C@@H]([C@H]([C@H](O2)O[C@]3([C@H]([C@@H]([C@H](O3)CO)O)O)CO)O)O)O)O)O)O)O
Method: HCD
Collision_energy: [28.333334]
Isolation_window: 4.0
Ion_mode: N
Num Peaks: 8
59.0130	31.0
71.0129	46.0
89.0235	92.0
101.0235	37.5
113.0235	35.0
119.0341	28.1
179.0557	36.4
503.1622	100.0

Name: Rhodojaponin III
PrecursorMZ: 351.21773
RT: 4.7242
ExactMass: 368.21988874
Spectrum_type: 2
charge: -1
Formula: C20H32O6
SMILES: C[C@]1(C[C@@]23C[C@H]([C@]4([C@@H]([C@H]5[C@@H](C4(C)C)O5)[C@]([C@@H]2CC[C@@H]1[C@H]3O)(C)O)O)O)O
Method: HCD
Collision_energy: [28.333334]
Isolation_window: 4.0
Ion_mode: N
Num Peaks: 3
351.2178	100.0
352.2205	22.1
353.2338	18.5

Name: Riboflavin
PrecursorMZ: 375.13238
RT: 5.7313
ExactMass: 376.13828437
Spectrum_type: 2
charge: -1
Formula: C17H20N4O6
SMILES: CC1=CC2=C(C=C1C)N(C3=NC(=O)NC(=O)C3=N2)C[C@@H]([C@@H]([C@@H](CO)O)O)O
Method: HCD
Collision_energy: [28.333334]
Isolation_window: 4.0
Ion_mode: N
Num Peaks: 17
59.0129	6.4
71.0128	4.5
112.0394	16.6
122.0601	4.2
124.0394	17.0
135.0443	1.4
138.0553	2.6
140.0708	12.5
152.0708	1.6
166.0496	1.7
184.0608	100.0
185.0642	7.2
321.1454	2.0
339.1564	5.7
374.1303	2.2
375.1318	1.7
376.1079	1.3

Name: Ricinoleic Acid
PrecursorMZ: 297.24305
RT: 1.4967
ExactMass: 298.25079494
Spectrum_type: 2
charge: -1
Formula: C18H34O3
SMILES: CCCCCC[C@H](C/C=C\CCCCCCCC(=O)O)O
Method: HCD
Collision_energy: [28.333334]
Isolation_window: 4.0
Ion_mode: N
Num Peaks: 49
69.2584	0.1
74.3106	0.0
74.8146	0.2
97.4646	0.0
139.1119	0.5
140.1153	0.1
141.1275	2.0
155.1431	0.3
167.1435	0.1
183.1379	0.1
185.1165	0.1
251.2370	0.1
253.2532	1.4
254.2569	0.1
279.2330	0.1
281.2485	2.3
295.2274	0.1
296.2346	0.2
296.7378	0.1
297.1340	0.0
297.1529	0.3
297.1732	0.2
297.1876	0.2
297.2432	33.1
297.2781	0.1
297.2991	0.2
297.3130	0.3
297.3330	0.1
297.4111	0.1
298.1562	0.1
298.2464	6.4
298.3165	0.1
299.0666	0.1
299.0872	0.1
299.1052	0.2
299.1291	0.1
299.1472	0.1
299.1672	0.3
299.1884	0.7
299.2030	0.7
299.2493	0.3
299.2588	100.0
299.3139	0.3
299.3303	0.6
299.3503	0.2
299.3698	0.1
299.3902	0.1
299.4104	0.1
299.4331	0.2

Name: Salicylamide
PrecursorMZ: 136.03977
RT: 1.5001
ExactMass: 137.047678466
Spectrum_type: 2
charge: -1
Formula: C7H7NO2
SMILES: C1=CC=C(C(=C1)C(=O)N)O
Method: HCD
Collision_energy: [28.333334]
Isolation_window: 4.0
Ion_mode: N
Num Peaks: 17
93.0337	2.4
94.0289	11.6
99.9248	2.2
109.9411	18.3
111.9365	5.2
134.8939	100.0
135.0445	15.7
135.8939	11.9
135.9442	10.1
136.0396	47.0
136.8910	46.0
137.0243	3.3
137.0433	3.6
137.8909	3.2
137.9400	3.8
138.0191	2.8
138.0553	3.4

Name: Salicylic Acid
PrecursorMZ: 137.02359
RT: 1.245
ExactMass: 138.031694049
Spectrum_type: 2
charge: -1
Formula: C7H6O3
SMILES: C1=CC=C(C(=C1)C(=O)O)O
Method: HCD
Collision_energy: [28.333334]
Isolation_window: 4.0
Ion_mode: N
Num Peaks: 15
79.9564	1.7
80.9643	1.4
93.0337	100.0
94.0370	6.8
108.0445	1.3
109.9412	4.4
111.9366	2.0
135.9443	2.3
135.9703	2.0
136.8910	1.6
136.9907	1.3
137.0237	32.1
137.9399	1.3
138.0272	2.5
138.0554	3.4

Name: Salicyluric Acid
PrecursorMZ: 194.04531
RT: 2.8205
ExactMass: 195.05315777
Spectrum_type: 2
charge: -1
Formula: C9H9NO4
SMILES: C1=CC=C(C(=C1)C(=O)NCC(=O)O)O
Method: HCD
Collision_energy: [28.333334]
Isolation_window: 4.0
Ion_mode: N
Num Peaks: 60
66.0341	1.4
68.0132	1.0
79.9564	1.2
80.9644	1.6
81.0337	5.4
83.0242	7.9
85.0287	2.6
87.0079	2.8
92.0496	9.5
94.0290	1.6
95.0493	2.2
107.0494	1.2
108.0446	3.2
109.0287	1.1
109.0653	1.2
110.0354	1.0
113.0961	1.1
118.0290	2.9
120.0446	2.3
121.0650	1.6
122.0236	1.0
122.0604	6.2
123.0445	2.1
123.0556	1.9
123.0805	0.9
124.0398	1.2
124.0521	1.7
124.0762	0.9
134.0605	1.1
136.0160	0.9
136.0396	1.7
136.0761	1.6
148.0397	1.7
148.0761	4.2
148.9909	1.0
149.0604	2.1
149.0965	6.6
150.0191	1.0
150.0554	100.0
151.0409	1.3
151.0588	7.8
151.0757	1.7
152.0710	2.7
152.1072	2.5
154.0490	1.4
165.1026	1.0
192.0660	8.5
192.1027	1.4
193.0498	1.8
193.0694	1.8
193.1347	2.1
194.0453	4.8
194.0815	2.6
194.1178	1.6
195.0527	3.1
195.0655	3.2
195.1369	1.0
196.0111	1.7
196.0608	3.5
196.0972	2.6

Name: Sclareol
PrecursorMZ: 307.26382
RT: 1.2355
ExactMass: 308.271530387
Spectrum_type: 2
charge: -1
Formula: C20H36O2
SMILES: C[C@]12CCCC([C@@H]1CC[C@@]([C@@H]2CC[C@](C)(C=C)O)(C)O)(C)C
Method: HCD
Collision_energy: [28.333334]
Isolation_window: 4.0
Ion_mode: N
Num Peaks: 17
59.0129	0.5
79.9560	0.8
96.9591	36.1
305.2173	0.6
305.2482	12.4
306.2189	0.8
306.2513	9.5
307.1596	7.8
307.2640	89.4
307.3379	0.7
308.1634	1.2
308.2674	18.7
309.0981	1.0
309.1747	100.0
309.2020	1.6
309.2792	87.4
309.3537	0.8

Name: Sebacic Acid
PrecursorMZ: 201.11274
RT: 5.8926
ExactMass: 202.12050905
Spectrum_type: 2
charge: -1
Formula: C10H18O4
SMILES: C(CCCCC(=O)O)CCCC(=O)O
Method: HCD
Collision_energy: [28.333334]
Isolation_window: 4.0
Ion_mode: N
Num Peaks: 213
57.0337	8.8
58.0052	0.9
58.0290	1.0
58.0372	0.8
59.0130	17.3
60.9923	1.5
69.0337	4.3
70.0290	1.5
70.0371	1.0
71.0130	7.7
71.0493	9.3
72.0446	1.0
72.9922	5.1
73.0286	7.4
74.0239	1.0
75.0078	1.1
79.9564	4.1
81.0337	1.7
82.0290	1.3
83.0129	1.9
83.0493	7.5
84.0082	1.0
84.0209	1.4
84.0446	10.1
84.0523	1.5
85.0286	10.7
85.0398	2.4
85.0478	3.8
85.0650	6.5
86.0238	8.1
86.0363	1.9
86.0602	1.5
87.0079	6.0
87.0401	1.2
87.0442	68.7
87.0553	1.2
88.0396	2.0
88.0476	3.1
93.0336	1.0
94.0290	1.3
95.0494	7.2
95.9513	1.3
96.0446	8.3
96.9592	1.0
97.0286	4.5
97.0481	1.0
97.0650	9.6
98.0238	6.0
98.0603	9.9
99.0079	1.0
99.0272	0.9
99.0445	5.9
99.0554	12.0
99.0806	2.1
100.0395	2.8
100.0588	1.1
100.0758	1.3
101.0235	2.1
101.0599	8.1
102.9962	1.3
107.0494	0.9
108.0446	1.0
109.0288	1.2
109.0650	2.2
110.0239	0.9
110.0606	2.3
111.0192	5.2
111.0443	5.1
111.0638	1.4
111.0807	7.1
112.0396	5.9
112.0759	1.9
112.0841	1.7
113.0238	2.3
113.0348	0.9
113.0600	38.7
113.0790	1.7
113.0965	0.8
114.0011	1.1
114.0552	1.9
114.0634	2.0
115.0214	1.5
115.0391	2.3
115.0754	1.3
116.0708	3.8
121.0651	1.1
121.1015	13.9
122.1048	1.2
123.0318	2.7
123.0445	2.2
123.0807	0.9
124.0397	2.9
124.0504	3.1
124.0758	0.8
125.0236	2.1
125.0600	2.3
125.0711	0.9
125.0964	2.8
126.0555	7.3
126.0915	1.0
127.0394	4.0
127.0501	1.8
127.0587	2.6
127.0756	5.0
127.1120	1.4
128.0345	3.8
128.0708	2.5
128.1072	1.1
129.0551	1.8
129.0913	4.4
129.1025	4.7
130.0866	4.1
137.0600	2.7
137.0964	9.6
138.0553	24.3
138.1001	1.3
139.0398	2.3
139.0591	3.8
139.0757	5.2
139.1121	17.0
140.0344	1.3
140.0454	1.2
140.0705	1.0
140.1071	1.0
140.1156	1.8
141.0426	0.7
141.0550	8.1
141.0910	1.5
142.0501	3.7
142.0610	2.4
142.0866	0.9
143.0710	1.5
144.0659	0.8
145.0499	1.8
153.0915	1.6
154.0523	1.3
154.0865	9.2
155.0608	1.9
155.0701	1.4
155.0900	31.1
155.1070	21.0
155.1177	1.0
156.0652	3.3
156.0771	4.9
156.0917	4.7
156.1023	2.0
156.1118	1.4
156.1384	2.0
157.0503	2.0
157.0872	3.3
157.1227	5.9
158.0456	0.7
158.0605	1.9
158.0813	2.4
159.0446	2.1
159.0662	1.9
160.0422	0.8
168.0296	6.0
171.0657	1.1
171.1020	5.9
173.1176	1.0
181.0503	1.0
181.0702	4.8
181.0864	0.9
182.0450	3.0
183.0659	2.1
183.1021	11.6
184.0009	0.9
184.0480	1.3
184.1056	1.2
184.5025	0.8
185.0450	2.5
185.1178	1.1
186.0411	2.0
186.0804	14.7
186.5821	3.0
187.0632	1.2
187.0792	0.9
199.0602	2.7
199.0798	25.1
199.0973	7.3
199.1097	0.8
199.1316	1.5
199.1341	0.9
199.1698	5.8
199.5265	1.7
200.0537	2.7
200.0549	4.1
200.0807	4.6
200.0943	3.5
200.0969	1.6
200.1277	3.7
200.1732	1.2
201.0352	2.7
201.0377	3.6
201.0530	2.3
201.0762	17.7
201.1128	100.0
201.1280	1.8
201.1462	1.4
201.1504	1.4
202.0180	2.4
202.0518	1.3
202.0721	2.6
202.0863	1.5
202.1157	10.2
202.1444	9.4
203.0351	1.1
203.0556	29.3
203.0928	5.9
203.1088	0.8
203.1288	7.7
203.1463	0.8

Name: Shikimic Acid
PrecursorMZ: 173.04504
RT: 7.1469
ExactMass: 174.05282342
Spectrum_type: 2
charge: -1
Formula: C7H10O5
SMILES: C1[C@H]([C@@H]([C@@H](C=C1C(=O)O)O)O)O
Method: HCD
Collision_energy: [28.333334]
Isolation_window: 4.0
Ion_mode: N
Num Peaks: 22
69.0337	22.6
71.0129	13.3
73.0286	11.7
83.0494	9.8
85.0286	14.5
87.0079	20.1
93.0337	37.0
99.0444	12.2
111.0444	20.3
111.0807	59.1
113.0236	21.3
127.0757	8.8
129.0552	14.5
154.9466	22.1
157.0498	13.1
171.0664	14.2
171.1023	13.3
171.1386	16.3
172.0616	10.0
173.0452	100.0
173.0814	38.0
175.0611	61.2

Name: Sinapic acid
PrecursorMZ: 207.06577
RT: 1.0855
ExactMass: 224.06847348
Spectrum_type: 2
charge: -1
Formula: C11H12O5
SMILES: COC1=CC(=CC(=C1O)OC)C=CC(=O)O
Method: HCD
Collision_energy: [28.333334]
Isolation_window: 4.0
Ion_mode: N
Num Peaks: 22
79.0544	1.7
79.9564	2.2
81.0337	0.8
96.9593	1.6
119.0858	4.2
121.0651	9.8
122.0364	5.1
122.0684	0.8
123.0444	21.1
124.0477	1.7
135.0807	0.8
145.0652	4.4
163.0758	32.1
164.0791	3.3
165.0549	0.7
189.0551	1.9
206.0778	7.0
206.5797	1.5
207.0659	100.0
207.0808	2.1
207.1061	0.7
208.0692	11.8

Name: Sinapinic acid
PrecursorMZ: 223.06066
RT: 4.6534
ExactMass: 224.06847348
Spectrum_type: 2
charge: -1
Formula: C11H12O5
SMILES: COC1=CC(=CC(=C1O)OC)/C=C\C(=O)O
Method: HCD
Collision_energy: [28.333334]
Isolation_window: 4.0
Ion_mode: N
Num Peaks: 7
149.0599	4.7
161.0600	100.0
162.0634	9.7
163.0392	5.4
179.0704	15.0
221.1542	6.1
223.0605	18.7

Name: Stachyose
PrecursorMZ: 665.21435
RT: 10.550777777777778
ExactMass: 666.22185834
Spectrum_type: 2
charge: -1
Formula: C24H42O21
SMILES: C([C@@H]1[C@@H]([C@@H]([C@H]([C@H](O1)OC[C@@H]2[C@@H]([C@@H]([C@H]([C@H](O2)OC[C@@H]3[C@H]([C@@H]([C@H]([C@H](O3)O[C@]4([C@H]([C@@H]([C@H](O4)CO)O)O)CO)O)O)O)O)O)O)O)O)O)O
Method: HCD
Collision_energy: [28.333334]
Isolation_window: 4.0
Ion_mode: N
Num Peaks: 26
59.0129	16.2
71.0129	19.3
73.9104	2.1
73.9151	4.4
85.0286	2.7
87.0077	8.0
89.0234	48.1
101.0234	25.1
113.0234	14.0
119.0339	12.6
125.0236	2.7
131.0338	3.1
143.0340	7.0
149.0449	2.1
161.0447	9.9
179.0553	34.2
180.0586	2.0
221.0660	27.2
222.0694	2.2
341.1085	3.1
383.1192	15.1
384.1231	2.6
485.1503	2.8
665.2143	100.0
666.2181	25.6
667.2201	5.1

Name: Stearic Acid
PrecursorMZ: 283.26401
RT: 1.0904
ExactMass: 284.271530387
Spectrum_type: 2
charge: -1
Formula: C18H36O2
SMILES: CCCCCCCCCCCCCCCCCC(=O)O
Method: HCD
Collision_energy: [28.333334]
Isolation_window: 4.0
Ion_mode: N
Num Peaks: 12
194.1267	0.5
238.1164	1.0
281.2476	0.7
282.2523	1.7
283.1987	0.7
283.2139	0.5
283.2642	100.0
283.3161	0.6
283.3288	0.7
284.2676	19.6
285.1545	0.7
285.2706	1.3

Name: Steviol
PrecursorMZ: 317.21163
RT: 1.809475
ExactMass: 318.21949481
Spectrum_type: 2
charge: -1
Formula: C20H30O3
SMILES: C[C@@]12CCC[C@@]([C@H]1CC[C@]34[C@H]2CC[C@](C3)(C(=C)C4)O)(C)C(=O)O
Method: HCD
Collision_energy: [28.333334]
Isolation_window: 4.0
Ion_mode: N
Num Peaks: 13
69.1352	2.1
96.9591	6.2
97.4652	1.6
99.0079	2.1
316.1159	19.0
316.1346	24.0
316.6177	5.8
316.6361	7.3
317.1245	12.5
317.2118	100.0
317.6235	2.1
318.2152	21.1
319.2204	2.0

Name: Suberic acid
PrecursorMZ: 173.08127
RT: 6.884
ExactMass: 174.08920892
Spectrum_type: 2
charge: -1
Formula: C8H14O4
SMILES: C(CCCC(=O)O)CCC(=O)O
Method: HCD
Collision_energy: [28.333334]
Isolation_window: 4.0
Ion_mode: N
Num Peaks: 50
57.0337	1.2
59.0130	1.2
69.0337	10.1
71.0129	2.1
71.0242	0.8
73.0286	2.8
83.0493	5.4
85.0286	1.3
87.0078	0.8
93.0337	28.3
94.0369	1.9
95.0605	5.8
96.0638	1.0
98.0238	1.8
99.0443	6.9
109.0650	1.1
111.0084	0.7
111.0444	5.5
111.0647	0.8
111.0807	100.0
111.0967	0.6
112.0396	1.1
112.0840	7.4
113.0236	12.3
114.0269	0.7
117.0184	1.9
123.0555	3.8
124.0594	0.8
127.0758	0.8
129.0550	4.0
129.0913	5.9
132.0658	0.8
137.0238	1.1
143.0343	2.3
153.0659	1.3
154.9467	1.7
155.0707	1.5
171.0771	3.1
171.1023	0.9
171.1385	1.1
172.0616	0.7
172.0807	0.9
173.0450	77.0
173.0470	0.8
173.0813	57.2
174.0402	1.1
174.0485	5.7
174.0850	4.7
174.1123	0.7
175.0611	3.0

Name: Succinate
PrecursorMZ: 177.03964
RT: 7.3929
ExactMass: 116.0109586
Spectrum_type: 2
charge: -1
Formula: C4H4O4-2
SMILES: C(CC(=O)[O-])C(=O)[O-]
Method: HCD
Collision_energy: [28.333334]
Isolation_window: 4.0
Ion_mode: N
Num Peaks: 92
57.0337	1.2
58.0288	1.6
59.0129	7.9
59.0322	0.6
69.0337	0.8
69.9010	0.7
71.0129	6.5
71.0493	3.8
72.9921	2.4
73.0285	5.0
74.0059	0.7
74.0238	0.8
75.0078	53.6
76.0111	1.1
79.9563	1.4
80.9643	0.8
81.0337	1.2
83.0129	1.5
85.0285	10.6
85.0648	1.0
87.0078	38.5
87.0442	1.3
88.0112	1.9
88.0394	4.7
89.0123	0.7
89.0144	0.7
89.0234	100.0
89.0426	2.7
90.0267	2.9
90.0435	0.8
93.0336	1.7
95.0493	1.3
97.0285	2.6
99.0078	0.6
99.0443	0.7
100.0395	0.8
101.0234	10.0
105.0183	8.8
111.0442	1.8
113.0233	0.9
113.0598	2.5
114.0188	0.7
114.0551	0.7
115.0027	0.8
115.0220	0.8
115.0391	13.4
116.0166	1.5
116.0424	0.9
117.0183	0.9
119.0341	3.4
121.0285	1.5
123.0440	1.1
125.0236	0.7
129.0183	0.6
129.0548	1.3
130.0501	0.7
131.0341	7.4
131.0538	1.1
131.0700	1.8
132.0448	5.4
132.0546	0.6
133.0285	2.3
133.0493	1.5
133.0649	1.4
134.0236	0.7
134.0604	2.1
135.0109	0.7
135.0443	4.9
137.0595	0.8
145.0134	0.6
149.0713	0.7
150.0551	0.6
157.0498	2.4
159.0291	7.3
159.0657	0.7
160.0326	0.6
160.0410	0.9
161.0447	9.3
175.0253	1.9
175.0435	1.2
175.0607	13.8
176.0344	10.5
176.0649	2.2
177.0207	1.2
177.0397	32.6
177.0524	1.4
177.0772	2.3
178.0427	1.3
179.0014	1.1
179.0332	1.4
179.0556	13.1
181.0500	0.7

Name: Succinic Acid
PrecursorMZ: 117.01833
RT: 7.569
ExactMass: 118.02660867
Spectrum_type: 2
charge: -1
Formula: C4H6O4
SMILES: C(CC(=O)O)C(=O)O
Method: HCD
Collision_energy: [28.333334]
Isolation_window: 4.0
Ion_mode: N
Num Peaks: 10
60.9922	93.5
72.9688	39.3
73.0286	54.8
89.0135	8.6
99.9249	14.2
116.0246	24.0
116.9277	100.0
117.0188	13.3
117.9277	12.8
118.0402	7.6

Name: Succinic anhydride
PrecursorMZ: 101.02349
RT: 8.6562
ExactMass: 100.016043985
Spectrum_type: 2
charge: -1
Formula: C4H4O3
SMILES: C1CC(=O)OC1=O
Method: HCD
Collision_energy: [28.333334]
Isolation_window: 4.0
Ion_mode: N
Num Peaks: 2
59.0130	22.2
102.0552	100.0

Name: Sucralose
PrecursorMZ: 395.00694
RT: 4.9376
ExactMass: 396.014551
Spectrum_type: 2
charge: -1
Formula: C12H19Cl3O8
SMILES: C([C@@H]1[C@@H]([C@@H]([C@H]([C@H](O1)O[C@]2([C@H]([C@@H]([C@H](O2)CCl)O)O)CCl)O)O)Cl)O
Method: HCD
Collision_energy: [28.333334]
Isolation_window: 4.0
Ion_mode: N
Num Peaks: 3
359.0309	31.2
395.0074	100.0
397.0043	65.3

Name: Sucrose
PrecursorMZ: 341.10902
RT: 4.4287
ExactMass: 342.11621151
Spectrum_type: 2
charge: -1
Formula: C12H22O11
SMILES: C([C@@H]1[C@H]([C@@H]([C@H]([C@H](O1)O[C@]2([C@H]([C@@H]([C@H](O2)CO)O)O)CO)O)O)O)O
Method: HCD
Collision_energy: [28.333334]
Isolation_window: 4.0
Ion_mode: N
Num Peaks: 34
58.0051	1.0
59.0130	30.7
60.0162	0.9
61.9875	2.9
71.0129	35.2
72.0165	1.3
72.9922	1.5
73.0286	1.6
85.0285	3.6
87.0078	5.4
89.0235	79.6
90.0267	2.6
95.0130	1.2
97.0285	0.9
101.0235	29.9
102.0269	1.0
113.0235	25.9
114.0269	1.0
116.0706	0.7
119.0341	31.3
120.0374	1.5
125.0236	1.4
129.0184	0.7
131.0342	4.8
143.0342	8.2
149.0451	3.5
161.0449	10.3
162.0485	0.8
179.0555	31.8
180.0587	1.5
221.0659	1.0
341.1089	100.0
342.1122	13.7
343.1147	2.4

Name: Supiculisporic Acid
PrecursorMZ: 311.18657
RT: 5.2453
ExactMass: 328.18858861
Spectrum_type: 2
charge: -1
Formula: C17H28O6
SMILES: CCCCCCCCCC[C@H](C(=O)O)[C@@]1(CCC(=O)O1)C(=O)O
Method: HCD
Collision_energy: [28.333334]
Isolation_window: 4.0
Ion_mode: N
Num Peaks: 11
96.9592	10.8
239.1078	12.2
249.1858	10.3
267.1966	37.4
269.2119	11.6
293.1769	15.1
295.1933	10.4
311.1904	100.0
312.1922	17.3
313.1658	13.0
313.2021	61.2

Name: Taurocholic Acid
PrecursorMZ: 514.28437
RT: 4.7188875
ExactMass: 515.29167395
Spectrum_type: 2
charge: -1
Formula: C26H45NO7S
SMILES: C[C@H](CCC(=O)NCCS(=O)(=O)O)[C@H]1CC[C@@H]2[C@@]1([C@H](C[C@H]3[C@H]2[C@@H](C[C@H]4[C@@]3(CC[C@H](C4)O)C)O)O)C
Method: HCD
Collision_energy: [28.333334]
Isolation_window: 4.0
Ion_mode: N
Num Peaks: 14
57.1411	2.0
57.1443	4.6
57.2527	0.5
57.2558	1.2
96.9593	0.8
513.2537	1.0
513.3420	1.4
514.1257	0.6
514.1580	0.5
514.2847	100.0
514.4120	0.5
514.4443	0.7
515.2876	28.7
516.2863	5.9

Name: Taurodeoxycholic Acid
PrecursorMZ: 498.28943
RT: 1.5858
ExactMass: 499.29675933
Spectrum_type: 2
charge: -1
Formula: C26H45NO6S
SMILES: C[C@H](CCC(=O)NCCS(=O)(=O)O)[C@H]1CC[C@@H]2[C@@]1([C@H](C[C@H]3[C@H]2CC[C@H]4[C@@]3(CC[C@H](C4)O)C)O)C
Method: HCD
Collision_energy: [28.333334]
Isolation_window: 4.0
Ion_mode: N
Num Peaks: 14
55.3639	2.0
55.3670	4.3
55.4803	1.0
78.9581	1.5
79.9564	1.5
96.9591	2.3
152.9950	2.1
269.2483	1.7
497.2593	2.2
497.2910	9.1
498.2895	100.0
499.2989	42.3
500.2928	2.3
500.2994	7.3

Name: Taxifolin
PrecursorMZ: 287.05401
RT: 7.7016
ExactMass: 304.05830272
Spectrum_type: 2
charge: -1
Formula: C15H12O7
SMILES: C1=CC(=C(C=C1[C@@H]2[C@H](C(=O)C3=C(C=C(C=C3O2)O)O)O)O)O
Method: HCD
Collision_energy: [28.333334]
Isolation_window: 4.0
Ion_mode: N
Num Peaks: 1
251.0770	100.0

Name: Tenofovir
PrecursorMZ: 286.07074
RT: 8.1086
ExactMass: 287.07834094
Spectrum_type: 2
charge: -1
Formula: C9H14N5O4P
SMILES: C[C@H](CN1C=NC2=C(N=CN=C21)N)OCP(=O)(O)O
Method: HCD
Collision_energy: [28.333334]
Isolation_window: 4.0
Ion_mode: N
Num Peaks: 20
62.9631	6.1
78.9579	1.3
80.9737	9.6
85.0285	1.0
88.0394	1.4
110.9842	16.0
116.9274	1.7
134.0462	73.3
135.0505	3.7
151.0157	23.8
172.1084	1.3
198.0875	1.0
243.1347	1.1
284.2673	7.9
285.2706	1.2
286.0707	100.0
286.0946	1.4
287.0738	11.5
287.9822	1.0
288.1195	1.2

Name: Terephthalic Acid
PrecursorMZ: 165.01866
RT: 8.0024
ExactMass: 166.02660867
Spectrum_type: 2
charge: -1
Formula: C8H6O4
SMILES: C1=CC(=CC=C1C(=O)O)C(=O)O
Method: HCD
Collision_energy: [28.333334]
Isolation_window: 4.0
Ion_mode: N
Num Peaks: 15
72.0082	25.6
75.0079	6.2
79.9565	12.6
121.0287	100.0
121.0510	7.2
122.0320	7.7
147.0444	96.9
148.0476	11.6
148.9725	14.2
164.0711	59.4
165.0188	10.6
165.0402	7.4
165.0749	6.3
166.0536	59.9
166.9831	15.7

Name: Tetracosanoic Acid
PrecursorMZ: 367.35771
RT: 1.01525
ExactMass: 368.36543077
Spectrum_type: 2
charge: -1
Formula: C24H48O2
SMILES: CCCCCCCCCCCCCCCCCCCCCCCC(=O)O
Method: HCD
Collision_energy: [28.333334]
Isolation_window: 4.0
Ion_mode: N
Num Peaks: 34
59.0129	0.4
79.9564	0.2
87.0442	1.1
96.9591	1.7
281.2481	0.4
281.2843	0.3
299.2593	0.2
309.2799	0.5
321.3163	0.2
323.3315	0.2
327.2904	1.5
365.3417	0.5
366.3459	2.2
367.1252	0.2
367.1586	2.2
367.2165	2.0
367.2323	0.2
367.2611	0.7
367.2830	0.4
367.3579	100.0
367.4340	0.6
367.4537	0.6
367.4823	0.2
368.1610	0.6
368.2200	0.4
368.2641	0.2
368.3613	25.1
368.4565	0.2
369.1740	5.7
369.3013	0.5
369.3316	0.2
369.3365	0.3
369.3649	2.5
369.3712	0.7

Name: Tetradecanedioic acid
PrecursorMZ: 257.17551
RT: 5.0924
ExactMass: 258.18310931
Spectrum_type: 2
charge: -1
Formula: C14H26O4
SMILES: C(CCCCCCC(=O)O)CCCCCC(=O)O
Method: HCD
Collision_energy: [28.333334]
Isolation_window: 4.0
Ion_mode: N
Num Peaks: 17
114.0552	4.8
124.0756	1.8
135.0443	1.9
136.0757	2.3
195.1749	30.8
196.1779	4.7
216.1392	3.6
239.1650	43.8
240.1682	6.0
255.2327	33.2
256.2363	22.4
257.1313	3.1
257.1756	100.0
257.2367	2.0
258.1369	2.3
258.1791	13.5
259.1456	5.6

Name: Theophylline
PrecursorMZ: 179.05686
RT: 2.1106
ExactMass: 180.06472551
Spectrum_type: 2
charge: -1
Formula: C7H8N4O2
SMILES: CN1C2=C(C(=O)N(C1=O)C)NC=N2
Method: HCD
Collision_energy: [28.333334]
Isolation_window: 4.0
Ion_mode: N
Num Peaks: 5
80.9643	4.5
164.0334	12.6
179.0569	100.0
180.0324	4.3
180.0597	6.7

Name: Thiamine
PrecursorMZ: 283.14623
RT: 4.5527
ExactMass: 265.11230735
Spectrum_type: 2
charge: -1
Formula: C12H17N4OS+
SMILES: CC1=C(SC=[N+]1CC2=CN=C(N=C2N)C)CCO
Method: HCD
Collision_energy: [28.333334]
Isolation_window: 4.0
Ion_mode: N
Num Peaks: 14
252.1272	6.4
281.2489	6.5
282.1390	68.4
282.6411	18.6
283.0781	30.2
283.1475	100.0
283.2642	97.2
283.5787	7.4
283.6494	35.5
284.0772	5.5
284.1509	15.1
284.1544	15.8
284.2676	16.3
284.6557	5.5

Name: Thymidine
PrecursorMZ: 241.08273
RT: 4.7164
ExactMass: 242.09027155
Spectrum_type: 2
charge: -1
Formula: C10H14N2O5
SMILES: CC1=CN(C(=O)NC1=O)[C@H]2C[C@@H]([C@H](O2)CO)O
Method: HCD
Collision_energy: [28.333334]
Isolation_window: 4.0
Ion_mode: N
Num Peaks: 119
57.0337	1.9
59.0130	9.2
69.2630	1.3
71.0130	1.0
72.9923	3.5
73.0286	1.8
75.0078	1.8
79.9564	10.6
80.9643	5.8
81.0338	1.1
83.0494	1.1
84.0443	1.2
85.0287	1.8
87.0078	3.7
94.0289	1.3
95.0493	1.0
95.9513	3.7
96.0445	1.1
96.9592	26.3
97.0286	1.7
97.4641	1.4
97.4667	1.2
98.9550	1.5
99.0080	1.3
99.0443	1.2
100.0394	1.2
107.0494	1.7
108.0446	1.3
109.0652	1.4
111.0080	1.4
111.0443	1.8
113.0236	3.4
123.0443	3.8
123.0805	1.3
124.0066	2.6
124.0397	2.3
125.0236	3.4
125.0348	4.0
125.0601	2.0
126.0552	1.2
127.0394	1.1
134.0601	1.6
135.0444	1.0
135.0807	1.3
137.0602	1.6
137.0964	11.8
138.0552	1.7
138.1002	2.0
139.0394	1.6
139.0757	1.1
143.0343	2.3
149.0476	2.7
150.0555	2.0
151.0506	7.4
151.0757	1.6
151.1122	2.7
153.0549	1.5
153.0920	1.2
161.1332	1.2
164.0709	2.2
164.1076	2.8
165.1027	1.9
166.0326	2.0
167.0344	5.1
168.1026	1.2
177.1278	1.0
179.0709	1.6
179.1071	1.2
180.1022	2.1
181.0503	1.8
181.1223	1.1
184.0013	2.9
195.1382	4.0
196.0427	2.1
196.0963	1.4
196.1321	1.4
196.1350	2.0
197.0804	1.6
198.0565	12.8
199.0596	1.8
199.0759	8.2
221.1181	1.0
223.1339	3.0
239.0659	4.2
239.0688	6.6
239.0915	1.3
239.1288	24.6
239.2376	2.3
239.5687	8.4
240.0749	100.0
240.1096	1.3
240.1291	8.6
240.5765	25.3
241.0022	27.7
241.0386	2.8
241.0798	32.5
241.0846	27.0
241.1083	4.7
241.1162	6.9
241.1444	9.7
241.2172	10.4
241.5729	1.5
241.5754	3.0
241.5803	2.9
241.6195	2.4
242.0040	2.0
242.0486	3.8
242.0870	3.7
242.1079	2.8
242.1456	1.2
242.2206	1.4
242.9972	1.2
243.0292	1.6
243.0489	2.2
243.0691	7.3
243.0873	3.5
243.1026	1.3
243.1231	3.4
243.1605	1.5

Name: Thymine
PrecursorMZ: 253.09311
RT: 7.4183
ExactMass: 126.042927438
Spectrum_type: 2
charge: -1
Formula: C5H6N2O2
SMILES: CC1=CNC(=O)NC1=O
Method: HCD
Collision_energy: [28.333334]
Isolation_window: 4.0
Ion_mode: N
Num Peaks: 15
71.0129	10.8
89.0235	21.7
94.0289	35.8
101.0235	11.9
124.0396	82.9
128.0708	6.8
167.0345	13.8
179.0555	12.5
223.1081	8.3
253.0390	7.7
253.0920	15.0
253.1189	100.0
254.0677	7.0
254.1229	14.5
255.2330	64.9

Name: Thymoquinone
PrecursorMZ: 163.07574
RT: 2.0532
ExactMass: 164.083729621
Spectrum_type: 2
charge: -1
Formula: C10H12O2
SMILES: CC1=CC(=O)C(=CC1=O)C(C)C
Method: HCD
Collision_energy: [28.333334]
Isolation_window: 4.0
Ion_mode: N
Num Peaks: 7
61.9875	5.5
149.0088	7.3
162.0554	100.0
163.0589	10.3
163.0758	30.0
163.1120	3.4
164.0019	7.7

Name: Tiglic acid
PrecursorMZ: 101.05987
RT: 2.6905
ExactMass: 100.052429494
Spectrum_type: 2
charge: -1
Formula: C5H8O2
SMILES: C/C=C(\C)/C(=O)O
Method: HCD
Collision_energy: [28.333334]
Isolation_window: 4.0
Ion_mode: N
Num Peaks: 4
99.9249	9.8
101.0599	100.0
102.0632	6.4
115.9198	4.3

Name: Tormentic Acid
PrecursorMZ: 487.3429
RT: 2.10458
ExactMass: 488.35017463
Spectrum_type: 2
charge: -1
Formula: C30H48O5
SMILES: C[C@@H]1CC[C@@]2(CC[C@@]3(C(=CC[C@H]4[C@]3(CC[C@@H]5[C@@]4(C[C@H]([C@@H](C5(C)C)O)O)C)C)[C@@H]2[C@]1(C)O)C)C(=O)O
Method: HCD
Collision_energy: [28.333334]
Isolation_window: 4.0
Ion_mode: N
Num Peaks: 8
54.1507	4.7
469.3326	13.6
470.3363	4.5
487.2012	4.5
487.3431	100.0
488.3468	29.7
489.3517	4.4
489.3579	4.0

Name: Traumatic Acid
PrecursorMZ: 227.12861
RT: 5.1152
ExactMass: 228.13615911
Spectrum_type: 2
charge: -1
Formula: C12H20O4
SMILES: C(CCCCC(=O)O)CCC/C=C/C(=O)O
Method: HCD
Collision_energy: [28.333334]
Isolation_window: 4.0
Ion_mode: N
Num Peaks: 12
59.0129	5.4
98.0239	4.3
165.1278	3.6
167.1433	5.4
183.0041	5.4
183.1384	7.3
209.1181	3.5
225.1115	3.1
227.1285	49.0
227.2013	20.3
228.1323	6.7
229.1442	100.0

Name: Trehalose
PrecursorMZ: 341.10883
RT: 9.4365
ExactMass: 342.11621151
Spectrum_type: 2
charge: -1
Formula: C12H22O11
SMILES: C([C@@H]1[C@H]([C@@H]([C@H]([C@H](O1)O[C@@H]2[C@@H]([C@H]([C@@H]([C@H](O2)CO)O)O)O)O)O)O)O
Method: HCD
Collision_energy: [28.333334]
Isolation_window: 4.0
Ion_mode: N
Num Peaks: 34
58.0051	1.8
59.0130	45.0
69.2872	1.6
71.0130	42.0
72.9922	4.5
73.0286	6.6
80.9642	2.3
83.0129	2.1
85.0286	5.3
87.0079	7.7
89.0235	100.0
90.0270	2.0
95.0129	1.8
96.9592	2.5
97.0286	5.6
101.0235	41.4
113.0236	31.4
115.0391	1.5
119.0342	45.4
125.0238	2.3
131.0343	6.4
143.0343	9.7
149.0449	3.9
161.0450	16.2
163.0608	1.9
179.0556	54.9
180.0584	2.8
221.0665	2.1
339.3268	34.7
340.3304	12.1
341.1096	48.8
342.1145	6.1
343.0792	2.2
343.1245	30.0

Name: Tricosanoic Acid
PrecursorMZ: 353.34204
RT: 1.0269583333333334
ExactMass: 354.349780706
Spectrum_type: 2
charge: -1
Formula: C23H46O2
SMILES: CCCCCCCCCCCCCCCCCCCCCCC(=O)O
Method: HCD
Collision_energy: [28.333334]
Isolation_window: 4.0
Ion_mode: N
Num Peaks: 57
59.0129	1.7
69.0495	0.6
69.0795	0.7
69.0929	0.7
79.9564	0.7
84.0445	5.0
96.9591	3.5
97.4646	0.5
130.0862	0.7
183.0112	1.3
225.1678	2.0
239.1835	1.3
267.2322	1.1
276.2329	0.7
279.2684	0.9
307.3003	8.3
308.2054	1.6
308.3037	1.8
309.3159	6.6
310.2210	5.8
311.2246	0.9
351.2892	0.6
351.3268	12.7
352.1410	0.4
352.2251	2.8
352.2369	1.1
352.2929	1.2
352.3302	13.6
353.1817	1.8
353.2004	14.1
353.2159	36.0
353.2210	3.0
353.2526	0.4
353.2700	1.6
353.3053	19.7
353.3086	0.8
353.3423	100.0
353.3808	1.6
353.4112	1.2
353.4150	0.5
353.4316	0.8
354.1753	0.8
354.1834	0.5
354.2034	2.5
354.2111	3.0
354.2191	8.5
354.2249	0.7
354.3077	5.0
354.3457	25.0
355.1943	0.5
355.2004	0.5
355.2158	1.6
355.2653	0.4
355.2835	2.0
355.3206	16.6
355.3490	1.9
355.3542	1.1

Name: Tridecanedioic acid
PrecursorMZ: 243.16005
RT: 5.023711111111111
ExactMass: 244.16745924
Spectrum_type: 2
charge: -1
Formula: C13H24O4
SMILES: C(CCCCCC(=O)O)CCCCCC(=O)O
Method: HCD
Collision_energy: [28.333334]
Isolation_window: 4.0
Ion_mode: N
Num Peaks: 90
59.0130	6.6
69.0337	1.2
69.5643	1.1
71.0130	2.7
72.9922	4.7
73.0285	2.1
74.0238	1.6
75.0078	1.9
83.0493	1.2
84.0082	1.2
85.0286	2.6
87.0078	2.8
87.0443	1.6
88.0394	1.3
95.0494	1.8
96.0445	1.1
96.9592	1.6
97.0285	2.2
99.0442	2.2
100.0395	1.0
101.0236	1.0
108.0447	1.5
109.0287	1.1
109.0649	1.2
110.0241	1.2
111.0443	2.3
112.0397	2.2
113.0060	1.6
113.0238	1.1
113.0347	1.3
114.0552	1.2
115.0394	1.3
116.0708	8.6
118.0654	2.0
121.0651	1.3
123.0443	1.4
124.0395	5.1
125.0602	1.4
126.0553	1.3
127.0391	1.1
127.0501	6.5
128.0345	1.6
129.1026	13.3
130.0866	6.1
135.0437	1.0
137.0601	2.0
138.0552	1.3
139.0394	2.1
139.0759	1.2
140.0703	1.0
143.1182	1.5
150.0191	3.3
156.0662	1.3
157.0975	2.1
165.0551	1.1
170.1181	9.2
171.1215	3.5
180.0648	1.4
181.0490	1.3
181.1592	3.6
183.1385	4.7
187.1081	1.5
197.1541	5.6
198.0763	1.1
199.0602	1.4
199.1331	1.0
199.1815	4.2
200.0709	1.0
201.0883	17.5
215.1035	3.1
226.0715	1.6
227.0554	1.0
241.1430	3.1
241.2169	2.4
242.0667	4.1
242.1030	1.8
242.1445	1.1
242.2154	1.1
243.0522	2.0
243.0873	11.0
243.1182	4.0
243.1219	5.1
243.1594	100.0
244.0810	3.7
244.1229	1.7
244.1627	14.3
245.0664	11.0
245.1013	1.7
245.1380	2.1
245.1651	1.9

Name: Triethyl Citrate
PrecursorMZ: 275.11324
RT: 1.06964
ExactMass: 276.12090297
Spectrum_type: 2
charge: -1
Formula: C12H20O7
SMILES: CCOC(=O)CC(CC(=O)OCC)(C(=O)OCC)O
Method: HCD
Collision_energy: [28.333334]
Isolation_window: 4.0
Ion_mode: N
Num Peaks: 175
57.0336	1.2
59.0129	10.8
67.0179	1.7
69.0336	2.1
70.0288	1.3
71.0129	9.7
71.0494	1.7
72.9921	7.2
73.0285	5.4
74.0238	4.7
75.0078	3.6
79.9563	8.9
80.9642	9.2
81.0336	3.9
83.0129	1.5
83.0492	5.0
84.0445	1.9
85.0285	7.9
87.0078	49.4
87.0442	1.9
88.0111	1.7
88.0394	6.0
89.0234	5.0
93.0336	18.7
94.0367	1.2
95.0129	1.2
95.0492	2.1
96.9591	17.6
97.0285	5.4
97.0649	1.6
98.0238	1.5
99.0077	2.5
99.0442	10.0
99.0805	1.2
100.0394	1.1
101.0234	2.8
101.0598	41.1
102.0631	2.2
103.0025	1.5
107.0494	2.0
108.0446	2.2
109.0285	4.8
109.0398	1.6
109.0647	1.4
110.0238	1.5
111.0078	2.7
111.0442	16.7
111.0806	1.2
112.0396	4.1
113.0234	4.5
113.0599	1.9
114.0551	1.8
115.0392	6.9
116.0708	2.6
117.0546	1.4
119.0492	1.6
121.0286	1.6
123.0442	3.1
124.0400	1.8
125.0241	2.3
125.0335	1.8
125.0599	7.0
126.0550	2.3
127.0392	11.4
127.0503	7.3
127.0755	1.3
128.0345	3.6
129.0184	12.7
129.1024	2.5
130.0864	2.8
131.0343	2.4
132.0657	2.9
134.0605	1.6
135.0442	13.7
136.0759	3.5
137.0236	4.5
137.0599	1.9
138.0547	2.0
139.0395	4.1
139.0753	1.2
139.1120	1.3
141.0548	2.6
142.0865	1.5
143.0347	2.2
143.1177	1.2
144.0659	4.6
145.0497	1.3
147.0445	2.1
150.0548	1.3
151.0390	2.4
151.0756	1.2
152.0706	2.1
153.0552	2.3
155.0342	10.6
155.0704	1.8
156.0657	3.8
156.1020	4.5
157.1225	1.7
158.1176	1.6
160.0759	1.2
161.0449	1.6
161.0598	1.2
163.0393	1.4
164.0711	2.1
167.0342	2.5
168.0653	1.5
169.0497	2.0
170.1179	2.6
171.0292	6.2
172.0752	1.2
173.0448	100.0
174.0475	6.5
175.0369	1.2
185.0446	1.8
186.0763	1.8
187.0602	3.7
187.0755	2.6
188.0710	2.6
189.0551	1.6
189.0899	1.4
191.0555	7.1
193.0753	1.5
194.0803	2.0
195.0506	1.2
200.0922	2.1
201.0548	2.0
202.0870	1.1
202.1079	1.2
203.0682	1.9
204.0654	1.5
213.0545	1.3
214.0863	2.1
214.1076	1.7
215.0715	1.2
228.1602	4.8
230.0818	5.3
231.0648	4.8
231.1015	2.2
232.0614	1.9
232.0976	4.5
232.1315	1.3
233.0648	13.1
233.0817	1.5
234.0694	1.5
242.1050	1.6
244.0815	3.9
245.0457	1.4
245.1138	2.3
257.0676	1.4
257.1294	13.6
258.1334	2.1
273.0598	1.2
273.0926	5.3
273.1430	1.5
273.1704	9.9
273.5777	3.8
274.0377	6.3
274.0684	2.0
274.0981	7.1
274.1311	2.6
274.1661	23.7
274.5663	2.5
275.0295	1.2
275.0768	29.9
275.1127	59.0
275.1859	5.6
275.5752	3.1
275.6301	1.3
276.0327	5.5
276.0842	8.5
276.1163	7.0
277.0662	6.1
277.0927	9.2
277.1216	1.8
277.1555	2.3

Name: Tyramine
PrecursorMZ: 136.07574
RT: 9.2253
ExactMass: 137.084063974
Spectrum_type: 2
charge: -1
Formula: C8H11NO
SMILES: C1=CC(=CC=C1CCN)O
Method: HCD
Collision_energy: [28.333334]
Isolation_window: 4.0
Ion_mode: N
Num Peaks: 10
90.9225	100.0
106.0414	29.1
108.0205	18.7
134.8937	74.8
134.9150	19.4
136.0507	15.3
136.0758	81.0
136.8908	34.0
136.9391	11.1
138.0552	19.8

Name: Tyrosine Methyl Ester
PrecursorMZ: 194.08175
RT: 1.7661
ExactMass: 195.08954328
Spectrum_type: 2
charge: -1
Formula: C10H13NO3
SMILES: COC(=O)[C@H](CC1=CC=C(C=C1)O)N
Method: HCD
Collision_energy: [28.333334]
Isolation_window: 4.0
Ion_mode: N
Num Peaks: 28
66.0340	100.0
67.0374	3.8
72.9924	3.6
79.9564	12.2
80.9643	18.1
94.0290	4.3
123.0321	2.7
123.0807	2.1
134.0604	2.7
147.0810	2.3
149.0602	2.8
150.0548	4.3
151.0393	10.1
151.0759	9.1
152.0705	3.5
193.0172	85.3
193.0516	4.3
193.0852	5.4
194.0134	9.5
194.0471	2.5
194.0810	4.4
194.9963	4.3
195.0136	3.3
195.0298	8.1
195.0663	16.9
195.1384	2.4
196.0079	2.1
196.0622	2.1

Name: Ubenimex
PrecursorMZ: 307.16634
RT: 4.5407
ExactMass: 308.17360725
Spectrum_type: 2
charge: -1
Formula: C16H24N2O4
SMILES: CC(C)C[C@@H](C(=O)O)NC(=O)[C@H]([C@@H](CC1=CC=CC=C1)N)O
Method: HCD
Collision_energy: [28.333334]
Isolation_window: 4.0
Ion_mode: N
Num Peaks: 10
59.0130	8.9
91.0392	16.9
216.0663	36.6
261.1606	12.2
305.2154	9.6
306.0992	7.7
307.1664	100.0
308.1149	19.9
308.1694	18.4
309.1452	19.7

Name: Umbelliferone
PrecursorMZ: 161.02374
RT: 1.775625
ExactMass: 162.031694049
Spectrum_type: 2
charge: -1
Formula: C9H6O3
SMILES: C1=CC(=CC2=C1C=CC(=O)O2)O
Method: HCD
Collision_energy: [28.333334]
Isolation_window: 4.0
Ion_mode: N
Num Peaks: 12
79.9564	8.9
97.0650	2.9
115.0756	100.0
116.0789	16.4
117.0337	14.3
141.0550	7.0
159.0656	35.8
160.0689	7.1
160.9109	5.8
160.9905	4.8
161.0237	26.1
162.0222	16.0

Name: Undecanedioic Acid
PrecursorMZ: 215.12847
RT: 5.6972
ExactMass: 216.13615911
Spectrum_type: 2
charge: -1
Formula: C11H20O4
SMILES: C(CCCCC(=O)O)CCCCC(=O)O
Method: HCD
Collision_energy: [28.333334]
Isolation_window: 4.0
Ion_mode: N
Num Peaks: 70
59.0130	2.5
71.0130	2.2
71.0495	1.4
72.9923	2.2
73.0286	3.5
79.9565	1.4
83.0494	1.6
84.0450	1.2
85.0285	2.2
86.0239	1.5
87.0079	1.3
87.0442	2.5
95.0497	1.2
96.0084	1.3
97.0651	2.4
99.0443	3.3
101.0235	2.5
102.0552	13.2
109.0650	1.7
110.0605	1.2
111.0443	1.7
111.0807	3.4
113.0237	1.2
114.0552	14.8
116.0709	4.5
130.0866	1.3
131.0342	2.4
135.0445	2.2
135.0809	1.2
136.0398	1.5
137.0603	1.2
137.0965	3.6
144.0297	5.3
144.0654	1.3
151.1123	1.7
152.0710	5.2
153.0553	2.7
153.1278	36.3
154.1313	3.9
169.1226	4.8
170.0814	1.3
170.1178	1.2
170.1261	1.3
171.1022	4.1
177.9025	1.2
179.0347	3.2
181.0858	1.2
186.0772	1.9
195.1020	1.3
196.0970	1.6
197.0445	1.5
197.1178	30.1
198.1211	3.5
199.0971	6.8
213.1126	4.0
213.1854	1.3
213.6180	4.1
214.0715	2.3
214.1074	20.0
214.1151	1.3
215.0554	2.1
215.0587	1.5
215.0923	7.5
215.1286	100.0
215.1464	1.6
216.0878	6.3
216.1263	8.8
216.1310	12.7
217.0725	4.4
217.1078	9.1

Name: Uracil
PrecursorMZ: 95.02412
RT: 16.3137
ExactMass: 112.027277375
Spectrum_type: 2
charge: -1
Formula: C4H4N2O2
SMILES: C1=CNC(=O)NC1=O
Method: HCD
Collision_energy: [28.333334]
Isolation_window: 4.0
Ion_mode: N
Num Peaks: 16
65.0136	2.4
65.9977	2.1
66.0340	3.0
68.0133	11.3
76.9691	100.0
77.9687	5.6
78.9581	23.6
93.0085	3.7
93.0337	3.9
94.0289	4.9
94.9797	94.0
95.0242	12.6
95.9792	4.8
96.0082	11.7
96.0558	2.6
96.9687	4.6

Name: Ureidosuccinic acid
PrecursorMZ: 175.03521
RT: 8.824985714285715
ExactMass: 176.04332136
Spectrum_type: 2
charge: -1
Formula: C5H8N2O5
SMILES: C(C(C(=O)O)NC(=O)N)C(=O)O
Method: HCD
Collision_energy: [28.333334]
Isolation_window: 4.0
Ion_mode: N
Num Peaks: 4
88.0394	19.5
115.0028	8.3
132.0293	100.0
175.0612	8.8

Name: Uric Acid
PrecursorMZ: 151.02543
RT: 6.2881
ExactMass: 168.02834
Spectrum_type: 2
charge: -1
Formula: C5H4N4O3
SMILES: C12=C(NC(=O)N1)NC(=O)NC2=O
Method: HCD
Collision_energy: [28.333334]
Isolation_window: 4.0
Ion_mode: N
Num Peaks: 11
83.0241	1.7
108.0195	16.7
109.0036	2.4
109.0288	1.3
110.0715	5.6
117.0548	3.2
126.0300	1.4
150.0415	3.1
151.0255	100.0
152.0294	4.7
152.0353	2.7

Name: Uridine
PrecursorMZ: 243.06184
RT: 6.0585
ExactMass: 244.06953611
Spectrum_type: 2
charge: -1
Formula: C9H12N2O6
SMILES: C1=CN(C(=O)NC1=O)[C@H]2[C@@H]([C@@H]([C@H](O2)CO)O)O
Method: HCD
Collision_energy: [28.333334]
Isolation_window: 4.0
Ion_mode: N
Num Peaks: 78
58.0288	3.0
59.0129	4.6
71.0129	4.6
72.0080	2.5
72.9921	2.9
74.0237	2.3
80.9642	16.8
82.0289	4.0
85.0285	5.5
87.0078	8.2
96.0447	3.2
96.9592	4.9
98.0237	11.2
99.0077	3.4
102.0551	67.1
108.0445	4.8
110.0238	36.2
111.0189	2.9
113.0234	12.8
113.0347	13.0
114.0552	4.6
114.0915	9.4
115.0755	67.8
116.0707	5.8
118.0501	7.2
123.0442	4.8
126.0551	7.5
128.0344	100.0
129.0380	3.3
130.0865	42.7
138.0552	6.3
140.0345	5.0
141.1025	8.6
146.0450	15.5
152.0345	10.1
152.9853	18.0
153.0292	4.0
155.0705	10.6
156.0659	5.9
156.1387	18.1
157.0611	42.1
164.0344	3.5
164.0569	4.5
166.0868	4.9
172.0614	3.3
182.1174	4.4
183.1133	5.2
199.1336	3.0
200.0559	18.6
200.0745	8.0
200.0925	6.2
200.1283	31.9
204.0908	7.2
210.0767	2.1
214.1077	3.7
226.1078	23.8
227.1035	8.1
241.2169	38.4
242.0652	3.2
242.1021	5.8
242.2203	10.0
243.0176	84.2
243.0621	9.9
243.0792	16.8
243.0821	16.6
243.0868	4.2
243.0994	6.5
243.1224	12.6
244.0217	5.3
244.0834	5.0
244.1184	77.9
244.1222	7.5
244.1272	11.4
244.1306	23.1
245.0148	2.7
245.0653	3.5
245.1183	5.7
245.1393	10.8

Name: Urocanic Acid
PrecursorMZ: 139.05053
RT: 6.4644
ExactMass: 138.042927438
Spectrum_type: 2
charge: -1
Formula: C6H6N2O2
SMILES: C1=C(NC=N1)/C=C/C(=O)O
Method: HCD
Collision_energy: [28.333334]
Isolation_window: 4.0
Ion_mode: N
Num Peaks: 3
137.8911	76.2
140.0710	69.0
141.0199	100.0

Name: Urolithin C
PrecursorMZ: 262.07086
RT: 1.7444
ExactMass: 244.03717335
Spectrum_type: 2
charge: -1
Formula: C13H8O5
SMILES: C1=CC2=C(C=C1O)OC(=O)C3=CC(=C(C=C23)O)O
Method: HCD
Collision_energy: [28.333334]
Isolation_window: 4.0
Ion_mode: N
Num Peaks: 6
80.9642	12.6
96.9592	42.5
262.0696	100.0
262.5714	22.5
263.0705	14.2
427.1793	13.9

Name: Ursodeoxycholic Acid
PrecursorMZ: 437.29029
RT: 4.6157
ExactMass: 392.29265975
Spectrum_type: 2
charge: -1
Formula: C24H40O4
SMILES: C[C@H](CCC(=O)O)[C@H]1CC[C@@H]2[C@@]1(CC[C@H]3[C@H]2[C@H](C[C@H]4[C@@]3(CC[C@H](C4)O)C)O)C
Method: HCD
Collision_energy: [28.333334]
Isolation_window: 4.0
Ion_mode: N
Num Peaks: 4
96.9591	13.9
391.2857	100.0
392.2884	27.1
393.2944	8.8

Name: Ursonic Acid
PrecursorMZ: 453.33704
RT: 1.094
ExactMass: 454.34469533
Spectrum_type: 2
charge: -1
Formula: C30H46O3
SMILES: C[C@@H]1CC[C@@]2(CC[C@@]3(C(=CC[C@H]4[C@]3(CC[C@@H]5[C@@]4(CCC(=O)C5(C)C)C)C)[C@@H]2[C@H]1C)C)C(=O)O
Method: HCD
Collision_energy: [28.333334]
Isolation_window: 4.0
Ion_mode: N
Num Peaks: 34
50.3694	2.0
50.3720	4.8
50.4809	0.5
50.4836	1.4
59.0129	0.5
73.0286	2.6
87.0442	10.7
88.0476	0.5
101.0598	0.7
171.1383	0.8
337.3471	1.4
363.3266	0.8
364.3310	0.6
365.3422	5.4
366.3452	1.3
369.3367	0.6
379.3593	0.9
381.3371	1.9
382.3415	0.9
383.3532	8.1
384.3563	2.1
397.3679	1.0
407.3329	0.6
451.4523	3.3
452.4570	1.7
453.2048	0.6
453.2327	0.5
453.3375	100.0
453.3922	5.1
453.4703	0.7
454.3407	31.5
454.3946	1.2
455.2817	0.5
455.3456	4.5

Name: Vaccenic Acid
PrecursorMZ: 281.24849
RT: 1.1396
ExactMass: 282.255880323
Spectrum_type: 2
charge: -1
Formula: C18H34O2
SMILES: CCCCCC/C=C/CCCCCCCCCC(=O)O
Method: HCD
Collision_energy: [28.333334]
Isolation_window: 4.0
Ion_mode: N
Num Peaks: 24
69.1196	0.6
69.4237	0.5
79.9564	1.4
96.9591	1.2
97.4665	0.6
237.0762	0.7
279.2332	6.9
280.0906	1.5
280.1293	0.8
280.2365	6.2
281.0668	2.5
281.1021	1.1
281.1053	1.1
281.1430	0.6
281.1840	0.6
281.2487	100.0
281.3139	0.6
282.0700	0.6
282.2520	18.3
283.1037	0.6
283.1063	0.7
283.1984	0.5
283.2643	89.4
283.3302	0.6

Name: Val-Phe
PrecursorMZ: 263.14002
RT: 2.7483
ExactMass: 264.1473925
Spectrum_type: 2
charge: -1
Formula: C14H20N2O3
SMILES: CC(C)[C@@H](C(=O)N[C@@H](CC1=CC=CC=C1)C(=O)O)N
Method: HCD
Collision_energy: [28.333334]
Isolation_window: 4.0
Ion_mode: N
Num Peaks: 6
96.9592	24.4
116.0708	48.0
127.0868	34.4
263.1401	100.0
264.1406	14.6
265.1476	66.6

Name: Val-Tyr
PrecursorMZ: 279.13495
RT: 4.8626
ExactMass: 280.14230712
Spectrum_type: 2
charge: -1
Formula: C14H20N2O4
SMILES: CC(C)[C@@H](C(=O)N[C@@H](CC1=CC=C(C=C1)O)C(=O)O)N
Method: HCD
Collision_energy: [28.333334]
Isolation_window: 4.0
Ion_mode: N
Num Peaks: 45
59.0129	3.4
66.0341	2.5
80.9643	4.1
84.0446	4.2
85.0649	11.8
87.0079	4.2
94.0288	5.3
107.0494	16.8
108.0447	4.0
114.0551	14.7
116.0708	32.3
123.0443	4.8
124.0392	3.4
126.0552	12.6
127.0869	16.3
128.0344	5.5
136.0763	3.0
137.0601	11.8
138.0553	3.0
140.0709	3.9
142.0865	3.8
148.0396	2.8
148.0758	3.3
164.0706	3.1
165.0657	3.3
166.0506	4.3
173.0925	9.0
191.0824	10.9
194.1181	5.8
205.0982	19.4
217.0984	2.5
218.1174	5.7
234.1490	8.5
235.1126	3.1
235.1474	3.3
237.1249	6.0
261.0631	4.1
278.1071	5.2
278.1408	6.4
279.0993	58.9
279.1356	100.0
280.1001	4.9
280.1383	12.9
281.1145	23.0
281.2484	4.1

Name: Vanillic Acid
PrecursorMZ: 167.03427
RT: 5.1478
ExactMass: 168.04225873
Spectrum_type: 2
charge: -1
Formula: C8H8O4
SMILES: COC1=C(C=CC(=C1)C(=O)O)O
Method: HCD
Collision_energy: [28.333334]
Isolation_window: 4.0
Ion_mode: N
Num Peaks: 8
108.0208	23.3
123.0443	100.0
132.8672	52.2
148.9722	20.4
152.0109	74.9
166.0534	58.4
166.9832	31.8
167.0345	57.4

Name: Vanillin
PrecursorMZ: 151.03942
RT: 0.6152
ExactMass: 152.047344113
Spectrum_type: 2
charge: -1
Formula: C8H8O3
SMILES: COC1=C(C=CC(=C1)C=O)O
Method: HCD
Collision_energy: [28.333334]
Isolation_window: 4.0
Ion_mode: N
Num Peaks: 33
92.0257	0.8
95.0128	2.1
107.0491	1.2
108.0207	2.9
108.0446	39.6
108.9885	1.0
109.0286	1.1
109.0400	0.9
109.0480	2.0
121.0288	3.6
122.0603	1.1
123.0443	6.4
123.9443	1.1
124.9834	1.3
126.0090	4.3
136.0158	32.5
137.0190	2.4
149.0241	1.9
149.0599	5.5
149.9789	5.4
150.0011	6.3
150.0297	0.8
150.0550	7.4
151.0267	4.0
151.0393	100.0
151.0593	1.0
151.0756	1.5
151.9765	0.9
152.0339	1.5
152.0441	7.0
152.0705	2.4
153.0191	0.9
153.0550	1.0

Name: Vanillylmandelic Acid
PrecursorMZ: 197.04506
RT: 4.8204
ExactMass: 198.05282342
Spectrum_type: 2
charge: -1
Formula: C9H10O5
SMILES: COC1=C(C=CC(=C1)C(C(=O)O)O)O
Method: HCD
Collision_energy: [28.333334]
Isolation_window: 4.0
Ion_mode: N
Num Peaks: 94
59.0130	3.7
66.0340	2.5
71.0130	2.8
72.9924	3.7
73.0286	1.8
78.9582	2.0
78.9849	2.2
79.9564	18.5
80.9642	4.5
81.0337	2.7
83.0242	10.0
83.0494	1.8
85.0286	2.5
87.0078	7.3
94.0291	2.7
94.9800	38.3
95.0494	1.8
96.0083	1.9
96.9756	2.0
98.0239	6.3
99.0193	2.1
99.0443	4.2
100.0395	2.8
106.0416	2.4
107.0494	22.5
108.0447	2.3
109.0286	2.5
109.0398	1.8
109.0650	3.9
110.0238	6.0
110.0351	13.7
110.0600	1.9
111.0446	2.2
112.0395	2.6
113.0348	3.4
116.0497	5.5
121.0287	64.2
122.0320	4.6
123.0076	3.2
123.0444	4.5
124.0396	26.2
125.0239	2.1
125.0600	4.1
126.0550	1.9
127.0393	2.1
135.0444	76.1
135.0799	1.9
136.0033	4.2
136.0478	6.1
136.0523	8.8
137.0601	6.2
138.0316	9.5
139.0394	4.9
150.0553	2.1
151.0507	3.4
152.0336	1.8
152.0709	4.9
153.0410	14.0
153.0550	68.5
153.0664	2.4
153.0914	2.2
154.0503	5.1
154.0588	6.4
154.0863	2.3
155.0705	2.6
155.0822	2.0
166.9979	6.8
178.0177	3.7
178.9838	1.8
179.0344	22.4
181.0503	4.3
182.0215	30.8
183.0262	2.4
195.0515	11.6
195.0662	7.5
195.9056	4.4
196.0079	6.1
196.0281	100.0
196.0454	3.8
196.0572	1.8
196.0617	2.0
196.0709	1.9
196.9030	1.6
197.0120	3.4
197.0302	4.3
197.0453	46.5
197.0822	3.9
198.0232	6.4
198.0404	2.0
198.0495	4.2
198.0754	4.0
199.0595	9.9
199.0952	2.7
211.1340	2.0

Name: Vesatolimod
PrecursorMZ: 409.23617
RT: 4.938
ExactMass: 410.24302422
Spectrum_type: 2
charge: -1
Formula: C22H30N6O2
SMILES: CCCCOC1=NC(=C2C(=N1)N(CC(=O)N2)CC3=CC=CC(=C3)CN4CCCC4)N
Method: HCD
Collision_energy: [28.333334]
Isolation_window: 4.0
Ion_mode: N
Num Peaks: 16
78.9581	26.2
87.0081	0.5
96.9687	2.5
114.0552	1.1
150.9796	0.6
152.9692	0.7
152.9951	100.0
153.0213	0.5
153.9985	3.5
154.9995	0.5
171.0057	3.2
255.2326	2.2
407.2813	1.1
409.2366	35.0
410.2401	7.0
411.2426	0.9

Name: Vitamin E
PrecursorMZ: 363.18118
RT: 2.061
ExactMass: 430.381080833
Spectrum_type: 2
charge: -1
Formula: C29H50O2
SMILES: CC1=C(C2=C(CC[C@@](O2)(C)CCC[C@H](C)CCC[C@H](C)CCCC(C)C)C(=C1O)C)C
Method: HCD
Collision_energy: [28.333334]
Isolation_window: 4.0
Ion_mode: N
Num Peaks: 7
319.1906	5.0
327.2179	3.7
347.2217	3.0
363.1812	100.0
364.1844	22.2
365.1898	3.7
365.2335	8.1

Name: Xanthine
PrecursorMZ: 151.02542
RT: 6.044
ExactMass: 152.03342538
Spectrum_type: 2
charge: -1
Formula: C5H4N4O2
SMILES: C1=NC2=C(N1)C(=O)NC(=O)N2
Method: HCD
Collision_energy: [28.333334]
Isolation_window: 4.0
Ion_mode: N
Num Peaks: 7
108.0195	23.9
108.0446	17.9
123.0442	5.7
150.0561	5.8
151.0257	100.0
151.0392	17.1
152.0362	7.3

Name: Xanthosine
PrecursorMZ: 283.06845
RT: 6.3564
ExactMass: 284.07568412
Spectrum_type: 2
charge: -1
Formula: C10H12N4O6
SMILES: C1=NC2=C(N1[C@H]3[C@@H]([C@@H]([C@H](O3)CO)O)O)NC(=O)NC2=O
Method: HCD
Collision_energy: [28.333334]
Isolation_window: 4.0
Ion_mode: N
Num Peaks: 14
59.0131	1.3
71.0130	1.5
96.0082	2.7
151.0255	77.5
152.0299	3.6
187.1083	6.3
239.1082	4.4
281.2486	5.2
282.2525	1.5
283.0680	20.1
283.0962	2.9
283.2643	100.0
284.0725	3.2
284.2676	20.4

Name: Xanthurenic Acid
PrecursorMZ: 204.02978
RT: 5.2713
ExactMass: 205.0375077
Spectrum_type: 2
charge: -1
Formula: C10H7NO4
SMILES: C1=CC2=C(C(=C1)O)NC(=CC2=O)C(=O)O
Method: HCD
Collision_energy: [28.333334]
Isolation_window: 4.0
Ion_mode: N
Num Peaks: 33
59.0130	0.9
71.0129	0.9
73.0286	1.6
79.9566	1.2
80.9643	0.5
85.0288	0.6
87.0079	0.5
112.0031	1.8
132.0447	1.7
158.0609	0.5
159.0321	5.4
159.0553	3.7
160.0120	0.8
160.0397	100.0
160.0670	0.6
161.0433	9.5
161.0589	0.5
175.0268	0.9
177.0665	3.4
185.1178	0.5
201.1128	0.5
202.0350	0.6
202.1089	1.2
202.1284	2.4
202.6301	0.7
203.0557	0.9
203.1287	10.3
204.0297	6.5
204.0670	0.8
204.1309	1.3
205.0346	0.6
205.0614	4.8
205.1593	3.4

Name: alpha-Methylene butyrolactone
PrecursorMZ: 99.04421
RT: 2.6661
ExactMass: 98.03677943
Spectrum_type: 2
charge: -1
Formula: C5H6O2
SMILES: C=C1CCOC1=O
Method: HCD
Collision_energy: [28.333334]
Isolation_window: 4.0
Ion_mode: N
Num Peaks: 2
99.0443	57.1
99.9248	100.0

Name: alpha-keto-delta-Guanidinovaleric acid
PrecursorMZ: 174.08774
RT: 9.8565
ExactMass: 173.08004122
Spectrum_type: 2
charge: -1
Formula: C6H11N3O3
SMILES: C(CC(=O)C(=O)O)CN=C(N)N
Method: HCD
Collision_energy: [28.333334]
Isolation_window: 4.0
Ion_mode: N
Num Peaks: 15
87.0441	0.7
129.1028	1.2
131.0609	0.7
131.0818	100.0
131.0978	0.6
131.1022	0.6
132.0560	0.9
132.0856	5.3
134.0351	0.6
154.9469	0.7
157.0136	2.5
173.0458	0.7
173.0933	1.9
174.0880	1.3
175.0614	0.7

Name: cis-11-Eicosenoic acid
PrecursorMZ: 309.27982
RT: 1.0917000000000001
ExactMass: 310.287180451
Spectrum_type: 2
charge: -1
Formula: C20H38O2
SMILES: CCCCCCCC/C=C\CCCCCCCCCC(=O)O
Method: HCD
Collision_energy: [28.333334]
Isolation_window: 4.0
Ion_mode: N
Num Peaks: 20
79.9565	1.0
80.9642	0.6
96.9592	10.9
293.1143	0.6
294.1040	2.8
294.6058	0.9
307.6319	5.3
308.1406	40.4
308.6420	14.2
309.1272	80.3
309.2061	0.7
309.2800	100.0
309.3539	0.8
309.6288	25.7
310.1276	11.0
310.2834	20.9
310.6279	3.2
311.1277	0.6
311.1687	2.1
311.2956	46.9

Name: cis-Aconitic acid
PrecursorMZ: 233.02971
RT: 9.6177
ExactMass: 174.01643791
Spectrum_type: 2
charge: -1
Formula: C6H6O6
SMILES: C(/C(=C/C(=O)O)/C(=O)O)C(=O)O
Method: HCD
Collision_energy: [28.333334]
Isolation_window: 4.0
Ion_mode: N
Num Peaks: 38
71.0129	9.4
72.9921	15.2
83.0492	22.2
85.0286	9.2
87.0078	26.8
88.0393	13.7
90.9325	12.1
98.0239	12.1
99.0075	9.6
99.0440	18.9
101.0236	10.4
106.9271	11.2
115.0026	8.7
125.0235	17.9
127.0391	91.7
128.0425	7.5
129.0184	11.3
131.0818	8.7
132.0293	12.5
142.0500	33.4
143.0342	14.3
145.0131	8.3
145.0494	14.5
145.0976	13.6
154.0501	23.6
160.0607	50.3
171.0289	15.7
186.0398	11.3
189.0874	16.5
214.0342	8.0
215.0180	8.7
217.0343	8.2
232.9772	11.0
233.0292	100.0
233.0623	10.8
233.0665	10.1
233.1543	20.9
235.0449	15.6

Name: delta-Decalactone
PrecursorMZ: 188.03471
RT: 5.2015
ExactMass: 170.130679813
Spectrum_type: 2
charge: -1
Formula: C10H18O2
SMILES: CCCCCC1CCCC(=O)O1
Method: HCD
Collision_energy: [28.333334]
Isolation_window: 4.0
Ion_mode: N
Num Peaks: 37
59.0130	0.9
71.0494	0.5
72.9922	0.3
73.0286	0.3
83.0494	1.1
85.0287	0.3
87.0080	0.9
87.0443	0.3
97.0650	0.3
100.0395	0.5
115.0392	0.6
116.0498	1.1
125.0601	1.1
126.0553	0.4
127.0392	0.6
143.0707	1.0
144.0212	0.8
144.0259	0.5
144.0448	100.0
144.0636	0.8
144.0679	0.6
144.0755	0.3
144.1021	0.3
145.0483	9.1
146.0506	0.3
146.0604	4.6
159.1019	0.5
160.0396	0.3
168.0663	0.5
169.0502	0.6
187.0609	2.4
187.0964	1.6
188.0349	3.6
189.0403	1.1
189.0771	0.7
189.1132	0.8
190.0507	1.2

Name: epsilon-Acetyl-L-lysine
PrecursorMZ: 187.10821
RT: 8.7647
ExactMass: 188.11609238
Spectrum_type: 2
charge: -1
Formula: C8H16N2O3
SMILES: CC(=O)NCCCC[C@@H](C(=O)O)N
Method: HCD
Collision_energy: [28.333334]
Isolation_window: 4.0
Ion_mode: N
Num Peaks: 11
102.0550	9.2
121.0512	24.7
128.0343	13.9
145.0976	36.1
168.0148	21.9
185.9992	82.0
186.0246	36.8
186.0768	20.9
187.1084	100.0
188.0917	10.6
188.1117	9.2

Name: gamma-Hexalactone
PrecursorMZ: 115.07556
RT: 2.625
ExactMass: 114.068079557
Spectrum_type: 2
charge: -1
Formula: C6H10O2
SMILES: CCC1CCC(=O)O1
Method: HCD
Collision_energy: [28.333334]
Isolation_window: 4.0
Ion_mode: N
Num Peaks: 6
99.9249	14.1
114.9333	7.7
115.0756	31.0
115.9198	1.6
116.0790	2.6
116.9277	100.0

Name: m-Tolylacetic acid
PrecursorMZ: 149.06022
RT: 1.3981
ExactMass: 150.068079557
Spectrum_type: 2
charge: -1
Formula: C9H10O2
SMILES: CC1=CC(=CC=C1)CC(=O)O
Method: HCD
Collision_energy: [28.333334]
Isolation_window: 4.0
Ion_mode: N
Num Peaks: 3
149.0601	100.0
149.0887	2.4
150.0640	12.1

Name: p-Aminohippuric acid
PrecursorMZ: 195.07702
RT: 5.7279
ExactMass: 194.06914219
Spectrum_type: 2
charge: -1
Formula: C9H10N2O3
SMILES: C1=CC(=CC=C1C(=O)NCC(=O)O)N
Method: HCD
Collision_energy: [28.333334]
Isolation_window: 4.0
Ion_mode: N
Num Peaks: 12
59.0130	33.9
94.0291	7.8
121.0763	100.0
123.0556	23.7
149.0711	8.7
151.0757	7.9
151.0868	14.5
165.0663	38.0
194.0812	9.8
195.0774	37.1
195.0795	12.5
197.0934	12.1

Name: ((2R)-2-((E,2S,4R)-4,6-dimethyloct-6-en-2-yl)-6-oxo-2,3-dihydropyran-3-yl) (2E,4E,6S)-8-hydroxy-6-(hydroxymethyl)-4-methylocta-2,4-dienoate
PrecursorMZ: 433.25985
RT: 1.1122
ExactMass: 434.26683893
Spectrum_type: 2
charge: -1
Formula: C25H38O6
SMILES: C/C=C(\C)/C[C@H](C)C[C@H](C)[C@@H]1C(C=CC(=O)O1)OC(=O)/C=C/C(=C/[C@H](CCO)CO)/C
Method: HCD
Collision_energy: [28.333334]
Isolation_window: 4.0
Ion_mode: N
Num Peaks: 46
61.9872	10.8
67.0174	4.6
69.0332	2.3
71.0131	2.8
73.0281	5.2
81.0332	8.0
83.0487	5.1
95.0488	3.7
99.0437	6.7
114.0553	18.8
149.0602	25.1
150.0635	4.0
176.0836	2.6
179.0709	3.3
205.0864	1.8
231.1019	2.3
245.1184	5.7
258.0894	2.0
259.1340	1.6
294.2438	1.7
303.1963	2.5
305.1756	6.0
307.1915	3.0
315.2329	2.7
317.1760	2.6
319.1917	3.9
325.2178	2.4
347.2231	3.1
357.2435	4.9
359.2228	3.2
369.2078	8.0
370.2109	1.8
383.2226	1.7
400.2157	2.9
401.2333	55.4
402.2371	16.3
403.2414	1.8
416.3301	2.1
431.3582	9.3
432.2422	10.9
432.3638	4.8
433.2595	100.0
433.3323	2.9
434.2628	26.4
435.2681	4.2
435.2728	3.5

Name: ((2R)-2-hydroxy-3-(hydroxy-((5R)-2,3,4,5,6-pentahydroxycyclohexyl)oxyphosphoryl)oxypropyl) hexadecanoate
PrecursorMZ: 571.29182
RT: 4.8247
ExactMass: 572.29616399
Spectrum_type: 2
charge: -1
Formula: C25H49O12P
SMILES: CCCCCCCCCCCCCCCC(=O)OC[C@H](COP(=O)(O)OC1C([C@@H](C(C(C1O)O)O)O)O)O
Method: HCD
Collision_energy: [28.333334]
Isolation_window: 4.0
Ion_mode: N
Num Peaks: 39
59.0130	1.2
63.4748	2.4
63.4786	4.2
63.5901	1.0
78.9581	19.6
79.9565	0.8
80.9643	1.1
87.0078	0.8
96.9592	2.2
96.9687	4.5
115.0391	0.8
152.9951	98.0
153.0212	1.0
153.9985	2.6
171.0058	3.9
223.0010	12.4
224.0040	0.8
241.0117	31.5
242.0154	1.5
255.2329	82.0
256.2363	12.2
259.0227	2.2
315.0489	18.4
316.0513	1.7
333.0598	1.5
391.2264	2.1
569.3293	1.2
569.4032	1.8
569.4108	5.0
570.3096	7.6
570.3271	0.9
570.4076	3.1
571.2035	2.8
571.2883	100.0
571.4289	1.8
572.2059	0.9
572.2913	25.1
573.2925	3.8
573.3754	1.3

Name: ((2S,3S)-2-((E,3R,4S)-3,4-dihydroxypent-1-enyl)-6-oxo-2,3-dihydropyran-3-yl) (E)-2-methylbut-2-enoate
PrecursorMZ: 295.11848
RT: 0.7713
ExactMass: 296.12598835
Spectrum_type: 2
charge: -1
Formula: C15H20O6
SMILES: C/C=C(\C)/C(=O)O[C@H]1C=CC(=O)O[C@H]1/C=C/[C@H]([C@H](C)O)O
Method: HCD
Collision_energy: [28.333334]
Isolation_window: 4.0
Ion_mode: N
Num Peaks: 55
96.9592	13.3
98.9550	0.9
99.0805	0.6
105.0700	1.2
107.0493	0.5
111.0442	0.7
113.0235	1.0
123.0808	4.2
125.0600	13.0
126.0631	0.6
127.0395	0.6
130.9919	1.5
149.0601	4.9
149.0964	1.1
150.0638	0.5
151.0759	0.5
151.1125	0.8
167.0707	2.9
180.9893	1.4
181.0500	1.5
183.0288	0.7
189.1278	1.4
192.1149	0.7
195.0664	0.6
207.1017	0.4
207.1383	1.2
221.1174	1.4
230.9861	3.3
233.1180	3.0
249.0770	0.5
249.1124	1.0
251.0929	1.3
251.1288	11.0
252.1320	1.4
253.1445	1.5
277.1082	6.4
278.1119	0.9
279.1231	0.4
293.0669	2.4
293.1034	3.9
293.1405	2.9
293.1792	28.5
294.0691	2.0
294.1058	1.7
294.1433	0.9
294.1823	7.1
295.0482	0.6
295.0835	5.8
295.1185	100.0
295.1744	2.2
296.0858	1.0
296.1219	15.5
296.9776	1.9
297.0767	0.5
297.1334	14.9

Name: ((3R,4R,5R,6R)-3-acetamido-4,5-dihydroxy-6-(hydroxymethyl)oxan-2-yl) (((2R,3S,4R,5R)-5-(2,4-dioxopyrimidin-1-yl)-3,4-dihydroxyoxolan-2-yl)methoxy-hydroxyphosphoryl) hydrogen phosphate
PrecursorMZ: 302.53347
RT: 8.0853
ExactMass: 607.0815704
Spectrum_type: 2
charge: -1
Formula: C17H27N3O17P2
SMILES: CC(=O)N[C@@H]1[C@H]([C@H]([C@H](OC1OP(=O)(O)OP(=O)(O)OC[C@@H]2[C@H]([C@H]([C@@H](O2)N3C=CC(=O)NC3=O)O)O)CO)O)O
Method: HCD
Collision_energy: [28.333334]
Isolation_window: 4.0
Ion_mode: N
Num Peaks: 5
78.9581	35.9
96.9689	25.1
111.0192	100.0
282.0381	40.5
301.9634	34.3

Name: ((3S,8S,9S,10R,13R,14S,17R)-10,13-dimethyl-17-((2R)-6-methylheptan-2-yl)-2,3,4,7,8,9,11,12,14,15,16,17-dodecahydro-1H-cyclopenta(a)phenanthren-3-yl) sulfate
PrecursorMZ: 465.30441
RT: 1.01
ExactMass: 465.30385609
Spectrum_type: 2
charge: -1
Formula: C27H45O4S-
SMILES: C[C@H](CCCC(C)C)[C@H]1CC[C@@H]2[C@@]1(CC[C@H]3[C@H]2CC=C4[C@@]3(CC[C@@H](C4)OS(=O)(=O)[O-])C)C
Method: HCD
Collision_energy: [28.333334]
Isolation_window: 4.0
Ion_mode: N
Num Peaks: 20
51.6991	2.1
51.7019	4.6
51.8106	0.6
51.8134	1.3
69.1004	0.6
69.1406	0.7
87.0443	0.5
96.9592	63.7
96.9721	0.5
97.4670	0.5
98.9549	1.5
101.0599	1.2
381.3375	0.6
383.3536	0.5
464.2903	0.5
465.1679	0.5
465.3047	100.0
465.4424	0.7
466.3080	30.0
467.3165	12.1

Name: ((4-Hydroxyphenyl)methyl)propanedioic acid
PrecursorMZ: 209.04512
RT: 5.7801
ExactMass: 210.05282342
Spectrum_type: 2
charge: -1
Formula: C10H10O5
SMILES: C1=CC(=CC=C1CC(C(=O)O)C(=O)O)O
Method: HCD
Collision_energy: [28.333334]
Isolation_window: 4.0
Ion_mode: N
Num Peaks: 15
59.0130	48.5
79.9565	1.9
85.0284	2.7
93.0337	20.5
121.0650	20.9
137.0235	2.1
161.0430	3.6
165.0550	34.8
166.0500	2.1
208.0620	2.9
208.0645	3.4
208.0967	4.3
209.0452	100.0
209.0665	2.8
210.0483	11.7

Name: ((4E)-7-acetyloxy-6-hydroxy-2-methyl-10-oxo-2,3,6,7,8,9-hexahydrooxecin-3-yl) (E)-but-2-enoate
PrecursorMZ: 325.12892
RT: 1.5854
ExactMass: 326.13655304
Spectrum_type: 2
charge: -1
Formula: C16H22O7
SMILES: C/C=C/C(=O)OC1/C=C/C(C(CCC(=O)OC1C)OC(=O)C)O
Method: HCD
Collision_energy: [28.333334]
Isolation_window: 4.0
Ion_mode: N
Num Peaks: 18
96.9591	1.7
151.0756	3.5
178.0626	1.1
183.0110	3.9
193.0864	12.5
194.0904	1.2
207.1020	2.1
239.1289	1.0
263.1292	2.3
281.1390	2.3
324.1118	6.6
324.6122	1.8
325.1291	25.9
325.1842	100.0
325.3113	1.2
326.1328	4.2
326.1875	19.2
327.1833	2.3

Name: (+)-Cycloolivil
PrecursorMZ: 375.14482
RT: 5.9812
ExactMass: 376.1522031
Spectrum_type: 2
charge: -1
Formula: C20H24O7
SMILES: COC1=C(C=C2[C@@H]([C@H]([C@@](CC2=C1)(CO)O)CO)C3=CC(=C(C=C3)O)OC)O
Method: HCD
Collision_energy: [28.333334]
Isolation_window: 4.0
Ion_mode: N
Num Peaks: 14
59.0130	5.2
151.0506	6.8
171.1020	7.6
201.1123	6.8
243.1748	10.8
287.1647	10.7
331.1553	67.8
332.1588	12.5
373.2245	5.1
375.1458	100.0
375.1992	10.5
376.1487	23.9
377.1607	7.0
377.2193	26.8

Name: (+)-Epicatechin
PrecursorMZ: 289.07169
RT: 3.0602
ExactMass: 290.07903816
Spectrum_type: 2
charge: -1
Formula: C15H14O6
SMILES: C1[C@@H]([C@@H](OC2=CC(=CC(=C21)O)O)C3=CC(=C(C=C3)O)O)O
Method: HCD
Collision_energy: [28.333334]
Isolation_window: 4.0
Ion_mode: N
Num Peaks: 47
59.0129	5.8
61.9875	15.9
79.9564	13.8
80.9643	48.1
85.0285	4.5
87.0079	14.0
96.9591	8.9
97.0286	6.6
99.0079	10.1
109.0287	4.7
113.0234	3.3
117.0185	3.3
125.0234	3.1
127.0393	3.4
135.0442	3.2
137.0238	5.2
139.0393	3.9
149.0237	4.5
165.0546	4.4
179.0342	3.2
191.0346	12.4
203.0353	4.5
203.0704	3.2
205.0508	4.2
217.0862	4.3
228.0664	5.2
243.0652	3.6
244.0646	3.5
244.0969	7.0
245.0817	21.5
246.0784	8.5
247.0597	4.4
247.0981	6.3
261.0782	4.2
287.0787	3.3
288.0559	9.8
288.0881	11.9
289.0392	7.5
289.0718	100.0
289.1080	10.7
290.0346	5.6
290.0708	35.0
290.1049	10.5
291.0178	10.1
291.0514	38.2
291.0871	40.1
291.1262	11.9

Name: (+)-Epigallocatechin
PrecursorMZ: 305.06686
RT: 2.1406
ExactMass: 306.07395278
Spectrum_type: 2
charge: -1
Formula: C15H14O7
SMILES: C1[C@@H]([C@@H](OC2=CC(=CC(=C21)O)O)C3=CC(=C(C(=C3)O)O)O)O
Method: HCD
Collision_energy: [28.333334]
Isolation_window: 4.0
Ion_mode: N
Num Peaks: 62
59.0130	21.1
61.9876	8.1
69.0337	4.4
71.0130	28.5
72.9922	7.4
73.0286	6.2
79.9565	7.1
80.9643	4.6
85.0285	13.6
87.0079	12.4
89.0236	16.5
94.0288	5.0
97.0285	5.9
99.0081	5.2
99.0445	5.2
101.0235	10.7
109.0286	18.8
111.0080	4.5
111.0443	7.4
113.0235	35.0
115.0393	5.5
121.0286	4.2
123.0443	5.2
125.0237	13.9
127.0392	6.2
129.0185	13.1
135.0444	20.4
137.0603	6.2
139.0399	4.7
143.0343	45.6
151.0391	4.5
159.0445	4.7
161.0239	34.7
161.0450	24.3
161.0602	17.6
171.0445	7.2
173.0603	10.7
175.0389	5.9
181.0500	21.8
187.0756	7.1
189.0547	5.9
199.0761	33.2
201.0552	30.0
202.0594	4.6
213.0561	6.3
217.0872	8.7
225.0560	6.1
231.0660	18.4
243.0661	33.2
244.0672	5.3
261.0782	11.2
303.1088	6.4
303.1812	4.3
304.0840	5.5
304.1144	6.0
305.0669	100.0
305.0924	52.6
305.1596	12.1
306.0688	19.0
306.0965	13.7
307.0791	17.4
307.1213	8.7

Name: (+)-Pinoresinol
PrecursorMZ: 357.13425
RT: 4.443
ExactMass: 358.14163842
Spectrum_type: 2
charge: -1
Formula: C20H22O6
SMILES: COC1=C(C=CC(=C1)[C@@H]2[C@H]3CO[C@@H]([C@H]3CO2)C4=CC(=C(C=C4)O)OC)O
Method: HCD
Collision_energy: [28.333334]
Isolation_window: 4.0
Ion_mode: N
Num Peaks: 4
61.9874	5.3
311.1282	5.1
357.1350	100.0
358.1335	19.1

Name: (+-)-2-Hydroxyglutaric acid
PrecursorMZ: 147.02919
RT: 4.0834
ExactMass: 148.03717335
Spectrum_type: 2
charge: -1
Formula: C5H8O5
SMILES: C(CC(=O)O)C(C(=O)O)O
Method: HCD
Collision_energy: [28.333334]
Isolation_window: 4.0
Ion_mode: N
Num Peaks: 8
57.0337	4.5
85.0286	16.3
101.0235	11.2
103.0392	15.5
129.0185	100.0
130.0219	6.2
146.0242	3.3
147.0291	28.1

Name: (+-)-2-Hydroxyisocaproic acid
PrecursorMZ: 131.07063
RT: 1.0717
ExactMass: 132.078644241
Spectrum_type: 2
charge: -1
Formula: C6H12O3
SMILES: CC(C)CC(C(=O)O)O
Method: HCD
Collision_energy: [28.333334]
Isolation_window: 4.0
Ion_mode: N
Num Peaks: 11
69.0336	0.7
85.0650	70.6
86.0683	4.0
113.0600	1.6
129.0550	1.6
130.0866	2.5
130.9301	0.9
131.0706	100.0
131.0915	0.7
132.0739	7.2
133.0498	1.1

Name: (+-)-2-Hydroxypentanoic acid
PrecursorMZ: 117.05489
RT: 1.087
ExactMass: 118.062994177
Spectrum_type: 2
charge: -1
Formula: C5H10O3
SMILES: CCCC(C(=O)O)O
Method: HCD
Collision_energy: [28.333334]
Isolation_window: 4.0
Ion_mode: N
Num Peaks: 14
71.0493	58.4
72.0528	2.3
89.0136	22.2
116.0246	48.6
116.9276	15.7
117.0199	3.6
117.0279	3.3
117.0480	2.2
117.0548	100.0
118.0290	7.2
118.0403	2.0
118.0581	5.3
119.0243	2.5
119.0495	11.5

Name: (+-)-3-Hydroxytetradecanoic acid
PrecursorMZ: 243.19633
RT: 2.311
ExactMass: 244.20384475
Spectrum_type: 2
charge: -1
Formula: C14H28O3
SMILES: CCCCCCCCCCCC(CC(=O)O)O
Method: HCD
Collision_energy: [28.333334]
Isolation_window: 4.0
Ion_mode: N
Num Peaks: 28
59.0130	5.0
71.0494	3.1
72.9921	2.0
75.0079	4.8
80.9643	2.8
85.0649	2.0
87.0079	4.7
96.9592	2.5
113.0235	2.1
156.1022	11.2
169.1593	2.6
184.0971	3.9
197.1907	9.9
199.0758	2.0
200.0924	8.1
202.0984	2.0
241.1823	2.1
241.2171	22.4
242.0752	6.2
242.1036	1.9
242.2207	10.1
243.0477	2.7
243.0883	8.2
243.1260	4.2
243.1965	100.0
244.1999	15.8
245.0659	8.2
245.1027	9.0

Name: (+-)-3-Phenyllactic acid
PrecursorMZ: 165.05501
RT: 6.7523
ExactMass: 166.062994177
Spectrum_type: 2
charge: -1
Formula: C9H10O3
SMILES: C1=CC=C(C=C1)CC(C(=O)O)O
Method: HCD
Collision_energy: [28.333334]
Isolation_window: 4.0
Ion_mode: N
Num Peaks: 13
72.0082	32.1
91.0545	1.2
119.0494	8.6
120.0528	0.8
121.0650	5.6
122.0604	0.9
147.0445	100.0
148.0478	10.1
149.0500	0.8
164.0710	61.5
165.0550	1.9
165.0745	6.5
166.9832	0.9

Name: (+-)-5-Hydroxytryptophan
PrecursorMZ: 219.07685
RT: 2.1484
ExactMass: 220.08479225
Spectrum_type: 2
charge: -1
Formula: C11H12N2O3
SMILES: C1=CC2=C(C=C1O)C(=CN2)CC(C(=O)O)N
Method: HCD
Collision_energy: [28.333334]
Isolation_window: 4.0
Ion_mode: N
Num Peaks: 12
69.3654	6.4
74.0236	4.9
147.0919	26.1
157.0762	9.6
173.0713	8.3
175.0869	100.0
176.0902	11.4
219.0769	54.6
219.1747	5.9
220.0609	11.6
220.0800	6.3
221.0928	10.5

Name: (+-)-Dihydroorotic acid
PrecursorMZ: 157.02459
RT: 6.2231
ExactMass: 158.03275668
Spectrum_type: 2
charge: -1
Formula: C5H6N2O4
SMILES: C1C(NC(=O)NC1=O)C(=O)O
Method: HCD
Collision_energy: [28.333334]
Isolation_window: 4.0
Ion_mode: N
Num Peaks: 26
70.0289	25.3
71.0129	1.1
71.0241	4.5
86.0238	1.4
96.0082	1.8
111.0190	21.0
111.0443	1.5
112.0225	3.6
112.0395	1.8
112.0758	1.5
113.0347	100.0
114.0187	18.3
114.0380	3.8
114.0548	2.6
115.0755	9.2
141.0551	1.1
155.1071	11.5
156.0661	1.9
156.1107	1.8
157.0248	10.3
157.0503	1.7
157.0864	4.7
157.1226	3.1
158.0456	1.2
158.1176	3.3
159.0655	5.4

Name: (+-)-Methyl mandelate
PrecursorMZ: 165.05487
RT: 5.0256
ExactMass: 166.062994177
Spectrum_type: 2
charge: -1
Formula: C9H10O3
SMILES: COC(=O)C(C1=CC=CC=C1)O
Method: HCD
Collision_energy: [28.333334]
Isolation_window: 4.0
Ion_mode: N
Num Peaks: 75
59.0129	0.9
69.1396	0.3
72.0444	0.4
72.9921	2.2
78.9850	0.4
79.9563	1.4
80.9542	0.3
80.9642	43.8
81.0448	0.3
81.9637	0.4
82.9600	1.8
91.0544	0.5
93.0336	0.8
93.0699	0.3
102.0550	0.4
106.0413	0.9
106.9798	0.9
107.0495	1.8
108.0203	0.5
109.0285	0.3
110.0238	2.3
110.0714	10.7
119.0316	0.3
119.0493	55.3
119.0632	0.3
119.0672	0.3
120.0526	4.7
121.0210	0.3
121.0286	4.3
121.0467	0.7
121.0505	0.5
121.0649	100.0
121.0794	0.6
121.0831	0.7
122.0318	0.3
122.0373	0.3
122.0601	0.6
122.0683	8.3
123.0443	2.4
123.0553	0.5
124.0063	0.5
134.0603	0.4
135.0446	0.3
136.0396	1.3
136.0520	0.5
137.0235	0.4
137.0824	0.5
147.0443	12.7
148.0479	1.2
151.0271	0.5
151.0631	7.2
152.0662	0.2
163.9856	0.7
164.0014	7.2
164.0706	0.4
165.0043	0.3
165.0189	0.6
165.0220	1.1
165.0411	3.1
165.0434	0.2
165.0548	25.6
165.0664	0.5
165.0905	0.4
165.9970	0.4
166.0138	0.3
166.0171	11.2
166.0495	2.0
166.0520	0.6
166.0584	2.5
166.0864	1.8
166.0978	1.9
166.9833	0.3
167.0203	0.3
167.0344	0.4
167.0372	1.9

Name: (+-)-Pantothenic acid
PrecursorMZ: 218.10307
RT: 4.2302
ExactMass: 219.11067264
Spectrum_type: 2
charge: -1
Formula: C9H17NO5
SMILES: CC(C)(CO)C(C(=O)NCCC(=O)O)O
Method: HCD
Collision_energy: [28.333334]
Isolation_window: 4.0
Ion_mode: N
Num Peaks: 95
59.0129	14.9
71.0130	10.7
71.0494	4.6
72.9922	7.3
73.0286	5.7
75.0079	8.5
83.0495	4.0
84.0448	4.8
85.0286	20.1
87.0079	26.3
87.0444	5.5
88.0395	18.8
89.0235	69.3
95.0493	6.4
97.0287	4.8
98.0238	5.3
98.0602	16.1
99.0080	8.6
99.0443	8.3
100.0397	7.0
100.0760	5.2
101.0235	11.8
102.0550	3.2
111.0076	3.5
111.0444	13.2
111.0803	3.6
113.0236	8.8
113.0600	11.9
114.0189	4.8
114.0552	9.1
115.0392	4.4
116.0708	6.3
118.0501	22.9
125.0233	4.0
126.0549	3.3
127.0390	6.6
128.0347	6.1
129.0186	31.8
129.0550	8.4
130.0500	5.1
131.0344	5.7
137.0602	3.8
138.0550	4.8
140.0347	4.7
142.0865	3.6
143.0345	3.7
145.0500	6.4
146.0451	17.7
146.0815	7.3
154.0504	9.4
155.0344	11.7
155.0535	5.2
155.0707	6.8
156.0657	7.1
156.1022	7.5
157.0503	5.6
158.0453	13.9
159.0292	3.9
172.0616	5.4
172.9571	3.3
173.0446	11.4
173.0803	5.7
174.0227	5.9
174.0555	3.7
174.0761	3.8
174.1129	8.1
175.0602	6.2
176.0556	5.3
176.0708	3.8
198.0402	7.7
199.0239	3.6
199.0432	5.3
199.0608	7.0
200.0562	10.7
200.0924	47.0
201.0408	5.8
201.0761	5.4
201.0956	4.4
216.0507	15.2
216.0856	5.0
216.1231	5.2
217.0340	15.2
217.0530	16.2
217.0713	58.2
217.1045	17.0
218.0133	7.9
218.0456	10.6
218.0675	15.2
218.1028	100.0
218.9974	3.6
219.0310	3.7
219.0506	41.6
219.0863	18.2
219.1065	7.4
220.0604	4.8

Name: (+/-)-strobide B
PrecursorMZ: 253.03503
RT: 2.9931
ExactMass: 254.04265265
Spectrum_type: 2
charge: -1
Formula: C11H10O7
SMILES: CC1=C(C(=C2C(OC(=O)C2=C1OC)O)C(=O)O)O
Method: HCD
Collision_energy: [28.333334]
Isolation_window: 4.0
Ion_mode: N
Num Peaks: 20
72.9921	14.1
129.0339	3.1
135.0442	9.7
137.0599	1.3
147.0443	47.5
148.0477	4.6
163.0392	5.8
165.0549	12.4
173.0237	10.0
179.0342	36.9
180.0379	3.7
191.0342	46.2
192.0375	4.9
207.0289	1.3
209.0449	33.8
210.0483	3.5
235.0244	9.3
252.0546	1.2
253.0350	100.0
254.0382	11.8

Name: (-)-9,10-Dihydrojasmonic acid
PrecursorMZ: 211.13318
RT: 1.0907
ExactMass: 212.1412445
Spectrum_type: 2
charge: -1
Formula: C12H20O3
SMILES: CCCCC[C@@H]1[C@H](CCC1=O)CC(=O)O
Method: HCD
Collision_energy: [28.333334]
Isolation_window: 4.0
Ion_mode: N
Num Peaks: 15
69.2222	3.9
69.2299	4.2
69.6011	3.4
109.0649	17.6
111.0805	17.9
154.0627	73.8
155.0661	5.2
167.1066	3.8
167.1433	100.0
168.1467	11.1
210.0262	5.9
211.1333	44.5
212.1367	6.7
213.0222	15.5
213.1855	4.9

Name: (-)-Asparagine
PrecursorMZ: 131.04544
RT: 4.6831
ExactMass: 132.05349212
Spectrum_type: 2
charge: -1
Formula: C4H8N2O3
SMILES: C([C@@H](C(=O)O)N)C(=O)N
Method: HCD
Collision_energy: [28.333334]
Isolation_window: 4.0
Ion_mode: N
Num Peaks: 21
70.0289	7.1
71.0129	2.3
71.0240	3.0
72.0083	2.7
95.0242	5.9
113.0348	21.2
114.0188	28.3
115.0029	2.9
130.0403	5.6
130.0502	4.2
130.0866	100.0
130.9304	26.6
131.0350	3.7
131.0454	10.9
131.0705	4.6
131.0901	5.7
132.0561	19.3
132.0658	2.9
132.9284	8.2
133.0401	4.1
133.0508	2.2

Name: (-)-Canaliculatol
PrecursorMZ: 679.19762
RT: 4.828
ExactMass: 680.20463259
Spectrum_type: 2
charge: -1
Formula: C42H32O9
SMILES: C1=CC(=CC=C1C2C3C(C(C4=C(C=C(C=C4O)O)C5C(OC6=CC(=CC3=C56)O)C7=CC=C(C=C7)O)C8=CC=C(C=C8)O)C9=C2C(=CC(=C9)O)O)O
Method: HCD
Collision_energy: [28.333334]
Isolation_window: 4.0
Ion_mode: N
Num Peaks: 14
75.4689	4.1
227.0707	5.3
317.0817	3.6
333.0753	5.1
335.0928	6.8
343.0986	7.2
345.0771	13.2
346.0827	4.1
451.1187	8.8
573.1540	8.1
585.1557	3.7
679.1980	100.0
680.2009	42.7
681.2044	6.7

Name: (-)-Fustin
PrecursorMZ: 287.05625
RT: 1.5442
ExactMass: 288.0633881
Spectrum_type: 2
charge: -1
Formula: C15H12O6
SMILES: C1=CC(=C(C=C1[C@H]2[C@@H](C(=O)C3=C(O2)C=C(C=C3)O)O)O)O
Method: HCD
Collision_energy: [28.333334]
Isolation_window: 4.0
Ion_mode: N
Num Peaks: 47
59.0130	11.9
61.9875	6.2
72.9921	6.4
85.0284	5.7
87.0079	19.2
89.0234	4.9
93.0337	8.4
109.0286	79.3
109.0653	6.5
111.0440	6.7
115.0029	10.8
121.0289	6.0
123.0444	7.2
128.0345	7.2
135.0448	5.0
137.0600	29.4
139.0394	8.0
149.0601	5.8
151.0395	9.4
153.0552	6.5
165.0550	7.8
177.0188	100.0
178.0222	8.2
181.0505	7.8
201.0566	6.0
209.0447	6.2
225.0937	18.9
228.0429	4.9
241.0502	4.7
243.0288	4.9
243.0671	27.1
243.1053	15.3
269.0449	51.8
269.0655	4.7
270.0469	7.6
271.0247	4.9
272.0324	7.1
285.0680	7.7
285.0739	8.4
285.1081	21.3
286.0704	14.4
287.0555	82.5
287.0801	42.0
287.1500	5.5
288.0578	9.5
288.0824	8.6
289.0698	10.1

Name: (-)-Terpestacin
PrecursorMZ: 447.27494
RT: 4.7869
ExactMass: 402.27700969
Spectrum_type: 2
charge: -1
Formula: C25H38O4
SMILES: C/C/1=C\CC/C(=C/C[C@]2([C@H](C/C=C(/[C@H](CC1)O)\C)C(=C(C2=O)O)[C@H](C)CO)C)/C
Method: HCD
Collision_energy: [28.333334]
Isolation_window: 4.0
Ion_mode: N
Num Peaks: 55
59.0129	13.6
63.9614	8.1
69.1349	10.2
69.3424	7.7
71.0129	7.7
73.0284	7.9
74.0238	25.3
88.0395	10.0
97.4635	10.0
114.0554	8.7
116.0706	8.2
120.0811	11.0
130.0865	10.2
132.0446	19.3
137.0344	8.8
156.0657	19.8
158.0603	30.7
164.0713	8.0
171.1022	11.5
242.1872	12.4
273.1601	10.5
286.1766	22.1
293.2118	9.2
295.2271	8.2
311.2227	9.4
317.1503	9.3
323.1035	54.9
324.1080	11.0
328.1894	7.6
350.2335	8.4
358.1981	42.8
385.2762	7.4
403.2492	8.5
403.2864	83.1
404.2900	23.1
405.3025	44.8
429.2654	12.6
431.2812	14.3
444.2237	16.2
445.2382	9.5
445.3148	13.5
446.2134	15.9
446.2185	12.5
446.2332	41.0
446.2620	8.3
447.2246	9.0
447.2758	96.7
448.2227	17.9
448.2329	38.8
448.2789	29.5
448.2871	12.8
449.2438	8.0
449.2846	32.1
449.2912	100.0
464.2498	12.5

Name: (1'R,2'R,4'aS,5S,5'R,6'S,8'aS)-Decahydro-6'-hydroxy-5-(2-hydroxyethyl)-2',5',8'a-trimethylspiro(furan-2(3H),1'(2'H)-naphthalene)-5,5'-dimethanol
PrecursorMZ: 355.24895
RT: 4.4139
ExactMass: 356.25627424
Spectrum_type: 2
charge: -1
Formula: C20H36O5
SMILES: C[C@@H]1CC[C@@H]2[C@@]([C@@]13CC[C@](O3)(CCO)CO)(CC[C@@H]([C@@]2(C)CO)O)C
Method: HCD
Collision_energy: [28.333334]
Isolation_window: 4.0
Ion_mode: N
Num Peaks: 48
57.0337	3.9
59.0129	4.9
61.9875	4.1
71.0494	5.1
72.9922	10.0
75.0077	2.5
85.0286	14.4
87.0080	4.4
99.0444	3.5
109.0286	3.3
114.0552	6.0
130.0866	3.4
135.0440	2.8
153.1276	4.9
155.1071	8.8
210.1133	10.5
213.1858	3.4
226.0873	2.8
236.0283	3.5
254.0951	4.4
269.1186	5.8
281.0456	3.7
310.1097	3.7
311.0935	2.9
311.1305	3.5
312.1259	4.1
313.1094	7.9
313.2749	5.4
323.0540	2.7
353.2335	8.0
354.0964	3.5
354.1331	9.0
354.1997	4.8
354.2375	6.4
355.0836	7.7
355.1230	10.3
355.1289	3.1
355.1766	7.5
355.2126	13.1
355.2494	100.0
356.1152	12.7
356.1522	5.4
356.2523	20.7
357.0985	12.6
357.1392	7.2
357.1906	9.1
357.2285	11.0
357.2649	44.9

Name: (1,3-Dihydroxy-1-(7-methoxy-2-oxochromen-6-yl)-3-methylbutan-2-yl) 3-methylbut-2-enoate
PrecursorMZ: 375.14467
RT: 6.5409
ExactMass: 376.1522031
Spectrum_type: 2
charge: -1
Formula: C20H24O7
SMILES: CC(=CC(=O)OC(C(C1=C(C=C2C(=C1)C=CC(=O)O2)OC)O)C(C)(C)O)C
Method: HCD
Collision_energy: [28.333334]
Isolation_window: 4.0
Ion_mode: N
Num Peaks: 10
287.1651	100.0
288.1680	15.6
331.1553	49.2
332.1592	9.5
374.2209	15.9
375.1453	92.5
375.2914	70.6
376.1504	17.8
376.2951	12.7
377.1604	17.0

Name: (1,3-dihydroxy-1-(7-methoxy-2-oxochromen-6-yl)-3-methylbutan-2-yl) (E)-2-methylbut-2-enoate
PrecursorMZ: 375.14505
RT: 1.3529
ExactMass: 376.1522031
Spectrum_type: 2
charge: -1
Formula: C20H24O7
SMILES: C/C=C(\C)/C(=O)OC(C(C1=C(C=C2C(=C1)C=CC(=O)O2)OC)O)C(C)(C)O
Method: HCD
Collision_energy: [28.333334]
Isolation_window: 4.0
Ion_mode: N
Num Peaks: 19
69.2233	8.4
73.0286	27.8
96.9592	6.8
97.4643	4.9
99.0443	43.6
157.0654	5.1
187.1124	100.0
188.1155	12.5
231.1032	9.2
243.1752	6.0
249.1125	11.2
275.0927	96.1
276.0966	16.6
313.2174	19.7
331.1558	20.5
331.2272	9.3
375.1094	5.8
375.2187	32.7
376.2189	14.9

Name: (1,9,9b-trihydroxy-6,6,9a-trimethyl-3,5,5a,7,8,9-hexahydro-1H-benzo(e)(2)benzofuran-5-yl) hexanoate
PrecursorMZ: 427.23393
RT: 1.4171
ExactMass: 382.2355388
Spectrum_type: 2
charge: -1
Formula: C21H34O6
SMILES: CCCCCC(=O)OC1C=C2COC(C2(C3(C1C(CCC3O)(C)C)C)O)O
Method: HCD
Collision_energy: [28.333334]
Isolation_window: 4.0
Ion_mode: N
Num Peaks: 56
57.0337	3.3
59.0130	12.4
71.0130	5.7
71.0493	2.8
73.0286	3.9
83.0493	4.5
85.0287	3.0
87.0442	6.2
88.0394	3.0
96.9592	2.8
97.0648	3.2
101.0237	3.7
109.0285	2.9
109.0650	3.1
113.0600	2.9
114.0551	10.0
115.0392	7.7
127.0760	3.1
128.0344	5.2
129.0550	3.0
135.0447	3.1
143.0705	2.8
145.0500	3.7
175.0968	2.9
179.0463	5.0
181.1228	19.6
183.1021	3.4
201.1126	6.7
209.1542	4.4
225.1136	6.1
243.1242	3.2
312.0967	4.2
365.2325	5.4
381.2676	6.4
382.2720	3.6
383.2383	6.0
383.2876	4.6
407.2495	4.0
408.2483	3.0
409.2162	9.9
409.2636	4.6
411.2381	8.7
425.2619	35.5
426.1612	4.5
426.2152	6.8
426.2585	14.2
427.1339	4.5
427.1844	5.2
427.2338	100.0
427.2721	19.1
428.1332	3.9
428.1821	3.1
428.2300	22.5
428.2806	5.8
429.1580	4.6
429.2487	73.1

Name: (1,9,9b-trihydroxy-6,6,9a-trimethyl-3,5,5a,7,8,9-hexahydro-1H-benzo)e()2(benzofuran-5-yl) hexanoate
PrecursorMZ: 427.23413
RT: 2.8792
ExactMass: 382.2355388
Spectrum_type: 2
charge: -1
Formula: C21H34O6
SMILES: CCCCCC(=O)OC1C=C2COC(C2(C3(C1C(CCC3O)(C)C)C)O)O
Method: HCD
Collision_energy: [28.333334]
Isolation_window: 4.0
Ion_mode: N
Num Peaks: 81
57.0337	1.5
59.0129	2.6
69.0336	0.9
71.0129	1.3
71.0494	1.0
83.0493	1.7
85.0285	0.9
87.0442	4.5
97.0651	1.1
101.0234	1.0
109.0651	0.7
113.0599	3.6
115.0391	1.4
121.1016	1.7
127.0755	1.2
128.0344	1.3
131.0342	1.0
137.0966	1.2
139.1122	1.6
143.0708	1.2
145.0499	1.0
153.0912	1.3
155.1070	2.2
157.0861	1.1
159.1019	0.9
163.1124	1.8
165.1276	0.7
175.0971	2.6
181.1228	24.4
182.1263	2.8
183.1018	1.2
199.0972	0.7
199.1335	2.2
201.1128	8.3
202.1160	1.2
207.1386	0.9
209.1188	1.2
209.1543	3.0
225.1130	6.3
225.1491	1.0
226.1165	0.9
227.1290	2.3
235.1337	1.0
243.1238	5.6
245.1394	2.5
253.1441	2.6
269.1402	1.1
271.1542	1.3
303.2322	0.8
319.2277	0.9
321.2427	0.9
345.2074	1.0
345.2435	0.8
347.2228	2.2
349.2396	0.9
363.1410	1.3
363.2156	1.9
365.2341	4.5
366.2366	1.2
367.2494	1.2
381.2275	2.4
382.2337	1.1
383.2451	5.1
384.2476	1.2
389.2367	1.5
391.2108	2.7
393.2290	1.9
407.2048	1.0
407.2503	2.8
408.2495	0.7
409.2221	10.2
410.2254	2.1
411.2400	5.0
425.2169	10.8
425.2578	8.6
426.1497	0.8
426.2118	6.3
426.2618	3.4
427.2335	100.0
428.2367	24.7
429.2508	43.8

Name: (1-(3,5-Dihydroxyphenyl)-12-hydroxytridecan-2-yl) acetate
PrecursorMZ: 365.23345
RT: 5.3191
ExactMass: 366.24062418
Spectrum_type: 2
charge: -1
Formula: C21H34O5
SMILES: CC(CCCCCCCCCC(CC1=CC(=CC(=C1)O)O)OC(=O)C)O
Method: HCD
Collision_energy: [28.333334]
Isolation_window: 4.0
Ion_mode: N
Num Peaks: 40
58.0050	2.3
59.0130	4.5
71.0129	2.1
73.0287	3.3
78.9582	13.7
87.0441	1.6
96.9687	2.0
97.4073	1.8
114.0553	2.8
128.0343	2.0
130.0864	1.6
205.0501	2.0
222.0768	3.9
257.1546	1.8
259.1699	2.8
277.1812	10.7
278.1842	1.9
303.1963	3.8
305.2117	2.6
321.1712	3.1
321.2071	6.5
323.2227	8.1
328.1195	3.1
347.1875	2.6
347.2223	3.1
349.2026	4.2
364.1503	3.6
364.1840	2.3
364.2228	5.4
365.0874	1.5
365.1603	17.3
365.1963	28.3
365.2338	100.0
366.1244	2.2
366.1641	4.6
366.1993	7.7
366.2371	22.4
367.1045	2.0
367.1742	5.4
367.2128	52.3

Name: (1-hexadecanoyloxy-3-(hydroxy-(2,3,4,5,6-pentahydroxycyclohexyl)oxyphosphoryl)oxypropan-2-yl) (9Z,12Z)-octadeca-9,12-dienoate
PrecursorMZ: 833.51849
RT: 4.585666666666667
ExactMass: 834.52582957
Spectrum_type: 2
charge: -1
Formula: C43H79O13P
SMILES: CCCCCCCCCCCCCCCC(=O)OCC(COP(=O)(O)OC1C(C(C(C(C1O)O)O)O)O)OC(=O)CCCCCCC/C=C\C/C=C\CCCCC
Method: HCD
Collision_energy: [28.333334]
Isolation_window: 4.0
Ion_mode: N
Num Peaks: 36
78.9580	25.9
92.6101	2.3
92.6167	4.5
92.7282	2.0
92.8404	1.4
96.9686	6.3
152.9950	27.2
153.9984	1.2
223.0008	10.1
241.0115	42.5
242.0147	2.3
255.2327	61.2
256.2362	9.2
259.0222	4.2
277.2168	2.5
279.2327	54.1
280.2361	10.1
281.2484	15.5
297.0379	4.7
315.0494	2.1
379.2255	1.3
391.2256	8.5
392.2300	1.6
415.2245	1.4
553.2779	6.1
554.2823	1.6
571.2890	2.2
577.2776	1.1
831.4954	1.9
831.5041	2.1
831.5129	1.2
832.4951	7.6
832.5070	6.9
833.5192	100.0
834.5226	45.6
835.5325	31.8

Name: (1-hexadecanoyloxy-3-(hydroxy-(2,3,4,5,6-pentahydroxycyclohexyl)oxyphosphoryl)oxypropan-2-yl) (Z)-octadec-9-enoate
PrecursorMZ: 835.53317
RT: 3.014
ExactMass: 836.54147963
Spectrum_type: 2
charge: -1
Formula: C43H81O13P
SMILES: CCCCCCCCCCCCCCCC(=O)OCC(COP(=O)(O)OC1C(C(C(C(C1O)O)O)O)O)OC(=O)CCCCCCC/C=C\CCCCCCCC
Method: HCD
Collision_energy: [28.333334]
Isolation_window: 4.0
Ion_mode: N
Num Peaks: 30
78.9580	32.1
92.8339	2.3
92.8405	4.3
92.9520	1.7
96.9685	8.6
97.4633	4.0
152.9949	33.4
153.9983	1.8
223.0009	15.4
241.0114	60.8
242.0143	3.8
255.2325	87.0
256.2360	16.6
259.0219	5.8
279.2327	15.4
280.2360	5.9
281.2483	75.0
282.2514	12.7
297.0381	6.5
315.0489	2.4
391.2254	11.4
392.2295	2.3
553.2778	8.7
554.2825	2.6
571.2916	1.8
833.5190	14.7
834.5231	18.7
835.5337	100.0
836.5373	43.2
837.5422	6.9

Name: (10e,15z)-9,12,13-Trihydroxyoctadeca-10,15-dienoic acid
PrecursorMZ: 327.21738
RT: 4.7519
ExactMass: 328.22497412
Spectrum_type: 2
charge: -1
Formula: C18H32O5
SMILES: CC/C=C\CC(C(/C=C/C(CCCCCCCC(=O)O)O)O)O
Method: HCD
Collision_energy: [28.333334]
Isolation_window: 4.0
Ion_mode: N
Num Peaks: 91
57.0337	1.2
59.0130	1.4
69.2662	1.1
69.7528	0.9
71.0492	0.9
74.0237	0.8
83.0492	1.0
85.0286	1.8
87.0077	0.8
88.0394	0.6
93.0336	1.2
96.9591	0.7
97.0648	0.8
99.0804	0.9
114.0552	3.2
115.0392	0.7
116.0704	0.8
125.0960	0.8
127.1118	0.6
130.0864	3.0
135.0444	1.7
137.0233	0.8
137.0964	1.1
139.1119	3.9
143.0706	0.9
169.1228	0.7
171.1019	11.7
183.0111	1.0
183.1382	2.2
185.1174	0.7
190.0481	2.8
201.1123	1.7
202.0487	1.1
211.1332	5.1
228.1024	1.5
229.1443	2.6
235.0715	0.9
237.1850	0.7
247.2063	12.4
248.2100	2.3
249.2224	1.3
263.2013	1.6
265.1807	1.6
265.2169	5.8
266.2200	1.0
271.0236	1.2
273.1860	1.6
281.2119	4.9
282.2147	2.3
283.0252	1.3
283.1912	2.5
283.2273	8.2
284.2306	1.6
291.1965	11.0
292.1998	2.1
293.2113	1.1
299.0192	2.8
307.1905	1.5
308.0597	2.5
308.1943	0.8
309.2069	16.8
310.2101	3.4
311.2223	2.2
325.1821	13.3
325.1857	7.6
325.1991	7.0
325.2057	9.4
326.0972	1.1
326.1076	1.4
326.1852	9.3
326.1887	4.3
326.2020	4.5
326.2091	5.6
327.0185	0.9
327.0890	3.5
327.0933	2.9
327.1331	1.4
327.1849	4.2
327.2174	100.0
328.0221	7.0
328.0842	1.1
328.1179	1.2
328.1547	0.9
328.1821	1.5
328.2203	20.0
328.2512	4.0
329.1009	2.5
329.1047	4.2
329.1501	1.0
329.1984	1.4
329.2327	28.7

Name: (11-Methyl-2,7-dimethylidene-6,12-dioxo-5,14-dioxatricyclo)9.2.1.04,8(tetradec-1(13)-en-9-yl) 2-methylprop-2-enoate
PrecursorMZ: 343.11887
RT: 3.326
ExactMass: 344.12598835
Spectrum_type: 2
charge: -1
Formula: C19H20O6
SMILES: CC(=C)C(=O)OC1CC2(C(=O)C=C(O2)C(=C)CC3C1C(=C)C(=O)O3)C
Method: HCD
Collision_energy: [28.333334]
Isolation_window: 4.0
Ion_mode: N
Num Peaks: 25
109.0286	37.2
135.0444	88.4
136.0477	7.3
145.0651	16.4
163.0760	6.2
189.0558	3.9
189.0914	3.1
207.0650	10.1
237.0933	3.1
239.0713	10.0
253.0871	8.6
255.1027	52.3
256.1058	7.7
281.0824	6.7
283.0981	3.9
299.0923	12.5
300.0957	2.1
325.0708	6.1
341.0987	4.6
342.0879	3.7
343.0826	100.0
343.1195	33.5
344.0863	17.9
344.1227	6.4
345.0895	4.7

Name: (15Z)-9,12,13-Trihydroxy-15-octadecenoic acid
PrecursorMZ: 329.23358
RT: 4.5895
ExactMass: 330.24062418
Spectrum_type: 2
charge: -1
Formula: C18H34O5
SMILES: CC/C=C\CC(C(CCC(CCCCCCCC(=O)O)O)O)O
Method: HCD
Collision_energy: [28.333334]
Isolation_window: 4.0
Ion_mode: N
Num Peaks: 54
59.0130	3.2
71.0128	1.6
72.9923	3.2
80.9643	1.9
85.0285	3.0
87.0078	3.3
96.9591	2.7
99.0806	4.5
101.0599	1.8
109.0287	1.8
115.0869	2.5
116.0709	14.8
119.0492	1.7
123.0441	1.6
127.1120	3.8
128.0344	3.4
130.0865	25.5
135.0443	4.4
139.1121	8.6
171.1021	21.4
172.1050	1.9
183.1383	3.8
185.1655	5.5
197.1295	3.0
201.1131	2.1
211.1329	17.8
212.1364	1.9
229.1441	12.3
230.1470	1.6
240.1117	2.2
255.1135	1.7
284.0965	3.2
284.0983	1.8
284.2343	8.2
285.1147	1.8
285.2373	1.6
293.2115	1.9
311.2238	2.0
327.2194	4.1
328.0822	5.6
328.1540	2.1
328.1901	2.0
328.2235	43.2
329.0809	2.9
329.1017	3.2
329.1052	2.4
329.1174	2.1
329.2331	100.0
330.0979	5.0
330.1391	2.5
330.2366	19.2
331.0834	1.6
331.1276	4.9
331.2482	7.7

Name: (1R,2R,4aS,6aS,6bR,9R,10R,11R,12aR)-1,10,11-trihydroxy-9-(hydroxymethyl)-1,2,6a,6b,9,12a-hexamethyl-2,3,4,5,6,6a,7,8,8a,10,11,12,13,14b-tetradecahydropicene-4a-carboxylic acid
PrecursorMZ: 503.33763
RT: 4.8634
ExactMass: 504.34508925
Spectrum_type: 2
charge: -1
Formula: C30H48O6
SMILES: C[C@@H]1CC[C@@]2(CC[C@@]3(C(=CCC4[C@]3(CCC5[C@@]4(C[C@H]([C@@H]([C@@]5(C)CO)O)O)C)C)C2[C@]1(C)O)C)C(=O)O
Method: HCD
Collision_energy: [28.333334]
Isolation_window: 4.0
Ion_mode: N
Num Peaks: 4
55.9279	4.7
503.3388	100.0
504.3419	30.9
505.3449	4.1

Name: (1R,3R,4R,4aS,5'S,8aR)-5'-(furan-3-yl)-1-hydroxy-8,8a-bis(hydroxymethyl)-3-methylspiro(1,2,3,4a,5,6-hexahydronaphthalene-4,3'-oxolane)-2'-one
PrecursorMZ: 361.16596
RT: 4.8638
ExactMass: 362.17293854
Spectrum_type: 2
charge: -1
Formula: C20H26O6
SMILES: C[C@@H]1C[C@H]([C@@]2([C@@H]([C@@]13C[C@H](OC3=O)C4=COC=C4)CCC=C2CO)CO)O
Method: HCD
Collision_energy: [28.333334]
Isolation_window: 4.0
Ion_mode: N
Num Peaks: 97
59.0130	13.0
61.9874	3.2
67.0181	6.1
71.0130	14.8
72.9922	8.7
73.0286	47.9
74.0239	3.4
79.9564	7.7
85.0286	4.7
87.0079	3.2
88.0396	3.2
97.0286	3.9
99.0444	3.1
109.0286	23.1
114.0552	23.8
116.0706	4.7
123.0445	4.0
125.0963	4.0
128.0346	5.3
130.0866	7.8
135.0444	7.1
149.0602	3.4
163.0267	4.1
164.0714	4.2
170.1548	3.2
171.1020	9.7
185.1175	7.0
190.1234	3.1
197.1180	7.2
201.1111	4.3
203.1203	5.8
209.1172	4.4
215.1077	3.7
215.1285	8.9
226.0873	5.7
229.1581	4.4
233.1195	3.9
239.1445	3.5
240.1037	3.6
247.1090	11.6
251.1075	8.2
257.1540	6.0
263.1659	5.7
267.1036	3.5
269.1199	3.8
271.1352	7.1
271.1664	25.1
272.1697	4.0
283.1350	7.0
287.1395	6.0
287.1726	4.6
298.1103	5.5
300.1257	4.5
301.1092	5.0
301.1454	3.6
301.1805	5.7
305.1764	4.5
307.1357	4.1
313.1459	3.5
315.1633	5.9
316.1223	6.2
316.1619	4.4
317.1435	5.2
317.1783	8.2
319.1932	6.9
325.1444	47.3
326.1482	10.2
329.1503	3.1
333.2071	4.0
341.1977	6.4
343.1553	100.0
344.1586	25.2
345.1343	3.1
345.1709	4.8
359.1177	6.7
359.1533	10.9
359.1583	3.9
359.2023	14.0
359.2071	48.6
359.2455	12.2
359.2820	5.7
360.1110	34.8
360.1505	20.4
360.2105	14.3
360.2157	4.3
361.0885	4.9
361.0960	5.4
361.1343	10.7
361.1670	82.1
361.2061	13.4
361.2210	23.0
361.2613	10.7
362.1263	34.6
362.1696	32.6
363.1461	18.2
363.1823	34.9
363.2194	11.8

Name: (1R,7R)-7-Ethenyl-1,4A,7-trimethyl-3,4,4B,5,6,9,10,10A-octahydro-2H-phenanthrene-1-carboxylic acid
PrecursorMZ: 301.21679
RT: 1.0628
ExactMass: 302.224580195
Spectrum_type: 2
charge: -1
Formula: C20H30O2
SMILES: C[C@@]1(CCC2C(=C1)CCC3C2(CCC[C@@]3(C)C(=O)O)C)C=C
Method: HCD
Collision_energy: [28.333334]
Isolation_window: 4.0
Ion_mode: N
Num Peaks: 9
69.7837	2.9
96.9590	5.1
283.2064	3.9
300.1442	3.7
301.1285	6.4
301.2169	100.0
301.6299	3.5
302.1347	3.1
302.2203	17.4

Name: (1S,2R,3R,5'R,6R,7R)-5'-(furan-3-yl)-3,6,7-trimethylspiro(9-oxatricyclo(5.2.2.01,6)undecane-2,3'-oxolane)-2',8-dione
PrecursorMZ: 343.15514
RT: 0.8183
ExactMass: 344.16237386
Spectrum_type: 2
charge: -1
Formula: C20H24O5
SMILES: C[C@@H]1CC[C@@]2([C@]3(CC[C@]2([C@@]14C[C@@H](OC4=O)C5=COC=C5)OC3=O)C)C
Method: HCD
Collision_energy: [28.333334]
Isolation_window: 4.0
Ion_mode: N
Num Peaks: 32
111.0443	14.2
125.0599	12.6
181.0498	4.2
191.1435	8.6
259.1343	10.0
267.2685	4.9
273.1123	4.7
284.1771	4.4
286.1940	13.8
297.2224	7.9
298.2255	4.4
299.1653	16.0
299.2380	30.2
300.2414	6.0
301.1807	21.6
301.2172	10.6
301.2538	35.4
341.1757	13.5
341.2112	11.3
342.1785	26.9
342.2158	6.7
343.1211	5.1
343.1551	100.0
343.1918	63.1
343.2217	6.1
343.2270	17.9
344.1580	22.3
344.1956	15.5
345.1339	4.3
345.1705	37.5
345.2068	11.1
345.2438	23.2

Name: (1S,2R,4aS,6aS,6bR,9R,10R,11R,12aR)-10,11-dihydroxy-9-(hydroxymethyl)-1,2,6a,6b,9,12a-hexamethyl-2,3,4,5,6,6a,7,8,8a,10,11,12,13,14b-tetradecahydro-1H-picene-4a-carboxylic acid
PrecursorMZ: 487.34286
RT: 4.5433
ExactMass: 488.35017463
Spectrum_type: 2
charge: -1
Formula: C30H48O5
SMILES: C[C@@H]1CC[C@@]2(CC[C@@]3(C(=CCC4[C@]3(CCC5[C@@]4(C[C@H]([C@@H]([C@@]5(C)CO)O)O)C)C)C2[C@H]1C)C)C(=O)O
Method: HCD
Collision_energy: [28.333334]
Isolation_window: 4.0
Ion_mode: N
Num Peaks: 16
96.9592	7.2
152.9855	7.1
331.1918	11.9
332.1946	28.2
333.2070	71.6
334.2101	13.5
371.2579	5.9
425.3076	7.3
486.1800	26.2
486.2310	7.5
487.2000	66.2
487.3483	100.0
488.2041	17.3
488.3507	33.8
489.3167	7.1
489.3519	5.6

Name: (1S,2S)-3,11-dihydroxy-1,2,5-trimethylspiro(8-oxatricyclo(7.2.1.02,7)dodec-5-ene-12,2'-oxirane)-4-one
PrecursorMZ: 279.12354
RT: 4.6607
ExactMass: 280.13107373
Spectrum_type: 2
charge: -1
Formula: C15H20O5
SMILES: CC1=CC2[C@](C(C1=O)O)([C@]3(C(CC(C34CO4)O2)O)C)C
Method: HCD
Collision_energy: [28.333334]
Isolation_window: 4.0
Ion_mode: N
Num Peaks: 31
59.0129	2.9
79.9563	4.9
80.9642	5.8
96.9591	8.1
110.0601	2.7
114.0551	3.6
128.0343	2.0
152.0707	2.6
191.1435	4.1
200.0711	3.5
217.1223	6.9
221.0607	2.2
234.0754	2.4
235.1335	92.4
236.1371	14.0
277.1547	3.0
277.1836	2.0
278.0702	2.0
278.1062	3.6
279.0581	2.0
279.0925	7.2
279.1236	100.0
279.2321	9.5
280.0257	2.7
280.0789	2.7
280.1270	19.1
280.2363	2.3
281.0441	12.3
281.0716	2.1
281.1014	4.5
281.2482	20.6

Name: (1S,2S)-3,11-dihydroxy-1,2,5-trimethylspiro)8-oxatricyclo)7.2.1.02,7(dodec-5-ene-12,2'-oxirane(-4-one
PrecursorMZ: 279.12397
RT: 1.1203
ExactMass: 280.13107373
Spectrum_type: 2
charge: -1
Formula: C15H20O5
SMILES: CC1=CC2[C@](C(C1=O)O)([C@]3(C(CC(C34CO4)O2)O)C)C
Method: HCD
Collision_energy: [28.333334]
Isolation_window: 4.0
Ion_mode: N
Num Peaks: 20
135.0440	1.4
191.1435	2.8
217.0507	1.6
217.1230	6.1
235.0614	1.5
235.1339	76.5
236.1373	10.2
251.0345	1.9
252.0416	1.2
253.0508	8.0
261.1135	1.2
277.1804	1.8
279.0259	1.4
279.0575	1.3
279.0899	5.6
279.1238	100.0
280.0351	1.2
280.1273	14.7
281.0455	67.2
281.1274	1.6

Name: (1S,2S,4S,5R,6S)-2-amino-4-((3-methoxybenzene-1-carbonyl)amino)bicyclo(3.1.0)hexane-2,6-dicarboxylic acid
PrecursorMZ: 333.10911
RT: 3.0138000000000003
ExactMass: 334.1164863
Spectrum_type: 2
charge: -1
Formula: C16H18N2O6
SMILES: COC1=CC=CC(=C1)C(=O)N[C@H]2C[C@]([C@H]3[C@@H]2[C@@H]3C(=O)O)(C(=O)O)N
Method: HCD
Collision_energy: [28.333334]
Isolation_window: 4.0
Ion_mode: N
Num Peaks: 31
59.0129	3.5
79.9563	4.7
80.9643	7.9
88.0394	7.3
96.9592	3.0
106.0653	10.1
109.0161	7.0
113.0711	5.7
114.0552	5.7
119.0495	5.7
120.0450	3.5
122.0603	11.0
132.0448	4.9
138.0553	13.7
147.0448	3.4
150.0553	3.8
162.0555	4.8
164.0709	4.2
233.1295	5.8
244.0610	5.9
245.1304	3.7
271.1097	3.7
289.1194	100.0
290.1225	14.9
331.1230	4.3
332.1223	6.3
333.1087	55.6
333.1426	5.5
334.1081	8.1
335.1173	4.0
335.1915	6.8

Name: (1S,2S,5S,8R,9R,10R,11R,15S,18R)-9,10,15,18-tetrahydroxy-12,12-dimethyl-6-methylidene-17-oxapentacyclo)7.6.2.15,8.01,11.02,8(octadecan-7-one
PrecursorMZ: 363.18199
RT: 0.6299
ExactMass: 364.18858861
Spectrum_type: 2
charge: -1
Formula: C20H28O6
SMILES: CC1(CC[C@@H]([C@]23[C@@H]1[C@H]([C@@]([C@]45[C@H]2CC[C@H]([C@H]4O)C(=C)C5=O)(OC3)O)O)O)C
Method: HCD
Collision_energy: [28.333334]
Isolation_window: 4.0
Ion_mode: N
Num Peaks: 65
59.0130	4.8
61.9875	8.5
71.0129	2.7
72.9922	2.6
79.9564	9.6
80.9643	3.6
81.9522	5.8
87.0079	3.9
96.9590	3.3
111.0443	5.6
114.0552	3.7
124.0761	2.9
125.0600	4.7
130.0864	4.0
137.0601	3.3
171.1018	2.6
179.0705	2.7
181.0500	6.5
183.0295	3.2
187.0794	6.2
193.0863	2.6
195.0656	13.4
199.1334	2.4
201.0948	3.7
205.0872	4.1
209.1172	3.3
223.0977	3.3
225.1128	4.0
227.1288	7.6
233.1183	2.6
237.1122	4.2
245.1663	2.5
249.1125	5.1
250.0847	20.1
251.0897	3.5
251.1284	5.5
257.1665	3.3
263.1292	4.3
271.1819	4.8
281.1396	2.7
287.1768	2.9
294.0749	4.9
301.1869	3.3
317.1769	2.7
319.1923	2.8
345.1707	2.9
347.1864	5.4
361.1657	11.2
361.2060	32.7
361.2642	2.6
362.1263	6.7
362.1679	10.1
362.2083	13.1
363.1083	4.6
363.1454	12.2
363.1822	100.0
363.2555	3.0
363.3262	3.1
364.1041	3.8
364.1447	8.6
364.1855	26.1
365.0931	3.8
365.1593	11.1
365.1977	30.4
365.2319	2.7

Name: (1S,3R,4R,6S,8S,9R,10R,16R)-5,5,9,14-tetramethyltetracyclo(11.2.1.01,10.04,8)hexadecane-3,4,6,9,14,16-hexol
PrecursorMZ: 369.22844
RT: 1.3861
ExactMass: 370.2355388
Spectrum_type: 2
charge: -1
Formula: C20H34O6
SMILES: C[C@]1([C@@H]2CCC3[C@H]([C@@]2(C[C@H]([C@]4([C@H]1C[C@@H](C4(C)C)O)O)O)CC3(C)O)O)O
Method: HCD
Collision_energy: [28.333334]
Isolation_window: 4.0
Ion_mode: N
Num Peaks: 118
57.0337	2.8
59.0130	8.2
69.0337	1.7
69.5008	1.0
71.0129	2.5
71.0493	2.4
72.9922	1.1
73.0286	3.0
83.0494	3.0
85.0286	1.5
85.0649	1.7
87.0078	1.3
87.0442	3.5
95.0494	0.9
97.0650	2.3
99.0443	1.4
99.0808	1.0
101.0235	4.9
109.0651	1.1
111.0442	1.2
111.0807	1.5
113.0237	0.9
113.0599	1.4
113.0964	1.5
114.0552	4.2
115.0392	5.0
115.0753	1.1
123.0808	1.0
125.0597	1.0
125.0964	0.9
128.0345	1.4
129.0547	1.4
129.0912	1.5
130.0867	1.7
131.0344	1.2
131.0706	2.3
135.0445	1.1
137.0964	1.5
139.0753	1.0
139.1123	1.2
141.0913	1.4
143.0709	1.2
150.0915	1.1
155.1069	1.7
157.0864	2.0
159.1022	4.3
163.1122	0.9
167.1065	0.9
171.1019	1.2
175.0970	1.3
179.1436	1.1
181.1222	1.2
183.1020	2.5
185.1180	2.3
195.1385	1.6
197.1183	0.9
201.1130	1.6
203.1277	1.1
209.1544	1.7
211.1337	0.8
223.1330	1.5
223.1707	0.9
225.1499	0.9
235.1706	0.9
237.1488	1.1
237.1853	1.2
241.1436	1.1
249.1863	1.0
253.1458	0.9
255.1594	1.2
263.2022	1.9
267.1972	2.1
279.1707	1.1
281.2127	2.0
289.1820	1.0
289.2181	2.3
291.1714	1.1
291.1976	1.5
291.2334	1.0
295.1922	1.5
305.2111	1.2
306.2162	1.2
307.1932	2.2
307.2285	5.1
309.2079	2.8
309.2443	1.8
323.2230	3.7
324.2259	3.9
325.2025	3.0
325.2378	16.3
326.2411	3.2
327.2181	1.4
327.2544	2.6
333.2071	3.7
335.1863	0.9
335.2238	1.7
349.2014	1.7
350.2058	2.1
351.1830	1.6
351.1866	2.8
351.2188	15.4
351.2246	8.6
352.2221	3.9
352.2275	1.6
353.1965	3.4
353.2343	6.4
367.2121	11.4
368.1791	1.4
368.2164	16.5
369.1521	1.0
369.1909	12.7
369.2295	100.0
370.1271	1.4
370.1949	2.9
370.2332	21.3
371.1676	0.9
371.2066	17.2
371.2450	37.0

Name: (1S,3R,4R,6S,8S,9R,10R,16R)-5,5,9,14-tetramethyltetracyclo)11.2.1.01,10.04,8(hexadecane-3,4,6,9,14,16-hexol
PrecursorMZ: 369.22829
RT: 0.6037
ExactMass: 370.2355388
Spectrum_type: 2
charge: -1
Formula: C20H34O6
SMILES: C[C@]1([C@@H]2CCC3[C@H]([C@@]2(C[C@H]([C@]4([C@H]1C[C@@H](C4(C)C)O)O)O)CC3(C)O)O)O
Method: HCD
Collision_energy: [28.333334]
Isolation_window: 4.0
Ion_mode: N
Num Peaks: 133
57.0337	1.5
59.0129	5.2
69.0336	1.2
71.0129	1.9
71.0493	1.8
73.0285	2.7
83.0492	2.4
85.0285	1.2
85.0648	1.3
87.0441	3.2
95.0489	0.6
97.0284	0.6
97.0648	1.6
99.0439	0.7
99.0805	0.8
101.0234	3.1
101.0596	0.6
103.0391	1.0
109.0648	0.8
111.0439	0.6
111.0804	1.0
113.0233	1.1
113.0600	1.5
113.0962	0.8
114.0550	0.6
115.0390	3.8
116.0705	0.6
121.1014	0.7
123.0807	0.8
125.0963	0.7
127.0755	0.8
129.0548	2.0
129.0910	1.4
130.0865	1.3
131.0343	0.6
131.0705	4.2
137.0963	1.6
139.0750	0.6
139.1122	1.0
141.0915	0.7
143.0702	0.9
145.0497	1.1
149.0963	0.6
151.1123	0.7
153.0910	0.6
155.1074	1.1
157.0863	1.0
159.1020	1.7
163.1119	0.6
165.0913	0.6
167.1069	1.1
169.1224	0.8
171.1015	0.9
177.1272	0.6
179.1431	1.4
181.1221	1.0
183.1019	2.2
185.1174	1.7
187.1332	0.7
191.1435	0.8
193.1594	0.8
195.1378	1.0
197.1173	0.7
201.1118	1.1
203.1279	0.9
207.1384	0.6
207.1747	0.6
209.1536	1.8
211.1327	0.9
223.1338	2.0
223.1688	0.9
225.1480	0.7
227.1266	0.6
235.1334	0.8
235.1695	0.6
237.1485	1.4
237.1853	0.9
239.1649	1.0
241.1432	1.5
241.1802	1.3
249.1856	0.8
253.1442	1.0
255.1594	1.8
257.1763	0.7
263.2012	1.2
265.1806	0.7
267.1956	1.1
277.1821	0.6
281.2114	0.6
289.2166	1.6
291.1965	0.7
291.2321	1.3
293.2112	0.5
295.1904	1.3
305.2115	1.6
307.1913	1.1
307.2270	4.9
308.2303	0.9
309.1699	0.9
309.2064	1.2
309.2425	2.2
323.2224	3.2
324.2254	1.3
325.2015	1.1
325.2378	10.4
326.2405	1.8
327.2159	0.9
327.2532	2.5
333.2063	2.1
335.2219	2.0
349.2011	1.7
350.2041	1.0
351.1814	1.0
351.2179	11.4
352.2210	2.3
353.1952	1.3
353.2335	7.2
367.2115	20.4
367.2500	3.7
368.2147	11.0
368.2516	2.6
369.1292	0.6
369.1949	8.1
369.2283	100.0
369.2642	3.2
369.3261	0.7
370.1332	0.8
370.1970	1.9
370.2314	22.4
371.2050	11.4
371.2447	62.8
371.2799	1.0
371.3405	0.5

Name: (1S,4S,5R,9S,10R,13R,14R)-14-hydroxy-5,9-dimethyl-14-(3-methylbutanoyloxymethyl)tetracyclo(11.2.1.01,10.04,9)hexadecane-5-carboxylic acid
PrecursorMZ: 419.28003
RT: 1.9396
ExactMass: 420.28757437
Spectrum_type: 2
charge: -1
Formula: C25H40O5
SMILES: CC(C)CC(=O)OC[C@]1(C[C@@]23CC[C@H]4[C@]([C@@H]2CC[C@@H]1C3)(CCC[C@@]4(C)C(=O)O)C)O
Method: HCD
Collision_energy: [28.333334]
Isolation_window: 4.0
Ion_mode: N
Num Peaks: 18
136.0520	32.1
148.0520	27.4
152.9950	26.5
163.0756	100.0
255.1961	49.9
375.2905	40.9
376.2938	9.0
383.2579	14.3
401.2696	64.7
402.2723	15.1
417.2946	10.3
418.2944	11.1
418.3035	14.3
419.2101	25.7
419.2801	48.3
420.2455	9.4
420.2855	13.9
421.2532	13.5

Name: (1S,4S,5R,9S,10R,13R,14R)-14-hydroxy-5,9-dimethyl-14-(3-methylbutanoyloxymethyl)tetracyclo)11.2.1.01,10.04,9(hexadecane-5-carboxylic acid
PrecursorMZ: 419.28074
RT: 0.5568
ExactMass: 420.28757437
Spectrum_type: 2
charge: -1
Formula: C25H40O5
SMILES: CC(C)CC(=O)OC[C@]1(C[C@@]23CC[C@H]4[C@]([C@@H]2CC[C@@H]1C3)(CCC[C@@]4(C)C(=O)O)C)O
Method: HCD
Collision_energy: [28.333334]
Isolation_window: 4.0
Ion_mode: N
Num Peaks: 38
59.0131	0.9
61.9875	13.1
63.9615	11.7
64.9694	0.9
79.9564	11.6
80.9643	2.3
87.0078	1.2
96.9591	5.9
116.0709	1.2
130.0866	5.8
136.0522	9.1
149.0600	46.5
150.0633	3.6
193.0977	3.1
205.0985	1.2
205.1212	0.9
269.2121	8.0
270.2162	1.2
375.2906	1.0
383.2610	1.1
386.2482	0.9
401.2703	4.1
402.2736	0.8
404.2562	0.9
417.2623	1.3
418.1246	0.8
418.2279	15.8
418.2683	1.4
419.1318	2.7
419.2193	6.6
419.2805	100.0
419.3985	0.8
420.1375	1.3
420.2864	25.0
421.1147	0.8
421.1468	1.2
421.2305	3.3
421.2869	1.6

Name: (1aR,6R,7R,7aR,7bR)-4,5,6,7,7a,7b-Hexahydro-6-hydroxy-1a-(1-(hydroxymethyl)ethenyl)-7,7a-dimethylnaphth(1,2-b)oxiren-2(1aH)-one
PrecursorMZ: 263.1288
RT: 5.9165
ExactMass: 264.13615911
Spectrum_type: 2
charge: -1
Formula: C15H20O4
SMILES: C[C@H]1[C@@H](CCC2=CC(=O)[C@]3([C@@H]([C@]12C)O3)C(=C)CO)O
Method: HCD
Collision_energy: [28.333334]
Isolation_window: 4.0
Ion_mode: N
Num Peaks: 5
73.0285	12.1
80.9642	9.1
219.1387	16.8
263.1290	100.0
264.1331	16.4

Name: (1alpha,2beta,4aalpha,4bbeta,10beta)-2-Hydroxy-1,4a-dimethyl-8-methylenegibbane-1,10-dicarboxylic acid
PrecursorMZ: 347.18617
RT: 0.8566
ExactMass: 348.19367399
Spectrum_type: 2
charge: -1
Formula: C20H28O5
SMILES: C[C@@]12CC[C@@H]([C@@]([C@H]1[C@@H]([C@]34[C@H]2CC[C@H](C3)C(=C)C4)C(=O)O)(C)C(=O)O)O
Method: HCD
Collision_energy: [28.333334]
Isolation_window: 4.0
Ion_mode: N
Num Peaks: 4
303.1963	31.7
304.2008	7.2
347.1864	100.0
348.1893	21.5

Name: (2,3-dihydroxy-1-(7-methoxy-2-oxochromen-6-yl)-3-methylbutyl) (Z)-2-methylbut-2-enoate
PrecursorMZ: 375.14462
RT: 6.1802
ExactMass: 376.1522031
Spectrum_type: 2
charge: -1
Formula: C20H24O7
SMILES: C/C=C(/C)\C(=O)OC(C1=C(C=C2C(=C1)C=CC(=O)O2)OC)C(C(C)(C)O)O
Method: HCD
Collision_energy: [28.333334]
Isolation_window: 4.0
Ion_mode: N
Num Peaks: 15
73.0285	2.9
130.0865	4.1
151.0505	8.6
243.1750	9.4
287.1650	9.2
331.1553	62.4
332.1589	11.4
373.2197	4.3
374.2243	3.5
375.1453	100.0
375.1911	3.8
375.2428	4.2
376.1486	22.9
377.1597	14.2
377.2176	6.2

Name: (2-Hydroxy-3-(hydroxy-(2,3,4,5,6-pentahydroxycyclohexyl)oxyphosphoryl)oxypropyl) octadecanoate
PrecursorMZ: 599.32033
RT: 4.842099999999999
ExactMass: 600.32746412
Spectrum_type: 2
charge: -1
Formula: C27H53O12P
SMILES: CCCCCCCCCCCCCCCCCC(=O)OCC(COP(=O)(O)OC1C(C(C(C(C1O)O)O)O)O)O
Method: HCD
Collision_energy: [28.333334]
Isolation_window: 4.0
Ion_mode: N
Num Peaks: 30
66.4805	1.0
66.5891	1.9
66.5931	4.5
66.7045	1.3
78.9580	16.1
79.9562	1.4
96.9593	1.5
96.9686	4.4
152.9950	68.0
153.9985	2.6
166.0169	3.2
171.0057	2.8
223.0011	7.6
241.0115	41.8
242.0150	3.6
259.0223	2.0
281.2484	14.5
282.2519	10.0
283.2640	65.6
284.2676	11.8
299.1507	1.3
315.0487	17.9
316.0518	2.2
419.2565	3.4
597.3018	11.9
598.3066	22.1
599.3196	100.0
600.3231	31.4
601.3233	4.8
601.4103	3.2

Name: (2-Neopentylallyl)succinic acid
PrecursorMZ: 227.1286
RT: 2.084
ExactMass: 228.13615911
Spectrum_type: 2
charge: -1
Formula: C12H20O4
SMILES: CC(C)(C)CC(=C)CC(CC(=O)O)C(=O)O
Method: HCD
Collision_energy: [28.333334]
Isolation_window: 4.0
Ion_mode: N
Num Peaks: 37
59.0129	3.1
67.0180	2.1
71.0129	4.7
71.0492	1.6
73.0287	2.0
88.0393	1.3
97.0650	5.2
111.0808	2.0
112.0396	3.4
113.0712	4.2
153.0664	3.6
154.0695	1.3
165.0663	8.6
165.1278	18.4
166.0703	3.8
166.1310	2.4
167.0455	2.9
167.1435	21.9
181.0977	22.4
182.1013	10.7
183.1045	1.9
183.1385	73.5
184.1420	8.1
207.0778	2.5
208.0797	1.4
209.1178	13.9
210.1220	1.7
211.1336	20.3
225.0879	34.6
226.0912	29.0
227.0951	10.2
227.1285	100.0
227.1658	1.5
228.0867	4.6
228.1322	12.0
229.0862	1.7
229.1443	68.0

Name: (20S)-Protopanaxatriol
PrecursorMZ: 521.38503
RT: 0.9993
ExactMass: 476.38656014
Spectrum_type: 2
charge: -1
Formula: C30H52O4
SMILES: CC(=CCC[C@@](C)([C@H]1CC[C@@]2([C@@H]1[C@@H](C[C@H]3[C@]2(C[C@@H]([C@@H]4[C@@]3(CC[C@@H](C4(C)C)O)C)O)C)O)C)O)C
Method: HCD
Collision_energy: [28.333334]
Isolation_window: 4.0
Ion_mode: N
Num Peaks: 40
57.9334	4.5
58.1573	3.0
59.0130	4.6
61.9874	3.3
71.0130	3.3
73.0287	8.2
83.0494	7.5
97.0288	5.6
97.0650	3.4
115.0395	3.3
127.0393	2.7
129.0911	3.0
143.0705	2.8
145.0501	4.6
194.0821	2.9
251.2011	3.6
269.2110	2.8
287.2390	3.4
301.1551	3.9
305.2489	5.5
361.3116	24.8
362.3157	5.8
363.3254	3.2
445.3710	7.1
447.3870	8.8
471.3480	2.9
473.3649	3.9
488.3488	3.4
489.3596	39.8
490.3627	10.7
491.3750	32.9
519.3665	2.8
520.3104	8.2
520.3726	9.6
520.3881	7.0
521.3259	9.0
521.3874	100.0
522.2302	3.3
522.3905	32.2
523.4014	72.8

Name: (2E)-3-(3,4-dimethoxyphenyl)-N-(4-methoxyphenyl)prop-2-enamide
PrecursorMZ: 358.12986
RT: 5.3197
ExactMass: 313.13140809
Spectrum_type: 2
charge: -1
Formula: C18H19NO4
SMILES: COC1=CC=C(C=C1)NC(=O)/C=C/C2=CC(=C(C=C2)OC)OC
Method: HCD
Collision_energy: [28.333334]
Isolation_window: 4.0
Ion_mode: N
Num Peaks: 33
59.0130	7.1
78.9581	2.8
87.0079	2.2
109.0288	1.9
130.0866	2.3
135.0447	4.0
195.0651	2.7
223.0763	2.0
231.0506	6.4
239.0726	2.5
240.0784	2.3
255.1027	17.4
256.1066	3.4
265.1816	2.8
269.0826	2.5
281.0815	8.0
282.0871	3.7
283.0860	2.9
298.1086	27.0
299.1154	5.1
315.1332	2.7
327.1819	2.3
341.1026	7.3
356.2188	2.1
357.1919	14.3
357.2292	10.1
358.1302	100.0
358.1909	2.2
358.2210	2.4
359.1344	21.8
359.2079	20.3
360.1336	2.6
360.2113	2.7

Name: (2E,4E)-12-hydroxy-13-(hydroxymethyl)-14-methoxy-3,5,7-trimethyl-14-oxotetradeca-2,4-dienoic acid
PrecursorMZ: 355.21272
RT: 1.4155
ExactMass: 356.21988874
Spectrum_type: 2
charge: -1
Formula: C19H32O6
SMILES: CC(CCCCC(C(CO)C(=O)OC)O)C/C(=C/C(=C/C(=O)O)/C)/C
Method: HCD
Collision_energy: [28.333334]
Isolation_window: 4.0
Ion_mode: N
Num Peaks: 114
57.0337	3.0
59.0130	8.4
69.0337	1.9
71.0130	3.2
71.0494	3.0
72.9922	1.3
73.0286	2.5
83.0493	3.6
85.0285	1.4
85.0649	1.3
87.0079	1.6
87.0441	2.9
88.0395	1.5
95.0494	1.1
96.0082	1.2
97.0651	2.6
99.0444	1.2
99.0803	1.1
101.0235	4.8
103.0390	2.0
109.0650	1.2
111.0441	1.4
111.0807	1.9
113.0234	1.4
114.0553	5.3
115.0392	5.5
116.0709	1.1
117.0550	1.3
123.0807	1.4
125.0963	1.9
127.0506	1.2
127.0757	1.2
128.0344	2.5
129.0548	2.0
130.0865	1.3
135.0445	1.4
137.0962	1.8
141.0913	1.5
143.0706	2.7
153.0916	1.2
155.0707	1.4
155.1071	1.1
167.1071	1.2
171.1022	2.8
177.1283	1.1
181.1230	1.7
183.0661	1.2
183.1016	1.9
183.1378	1.2
185.1172	1.6
187.0967	1.8
195.1388	1.7
201.1130	1.3
209.1179	1.6
209.1542	1.6
211.1329	1.5
223.1333	1.3
223.1688	1.5
225.1499	1.1
227.1291	1.1
237.1497	1.3
237.1854	1.3
249.1861	2.9
251.1650	1.4
251.2009	1.3
255.1607	1.2
265.1812	1.4
267.1977	2.5
275.1669	1.4
275.2022	2.8
277.1845	2.0
277.2179	1.8
279.1608	1.2
281.1765	1.1
283.1911	1.7
291.1978	2.8
292.2006	1.1
293.1766	4.3
293.2129	6.5
294.2161	1.3
295.1922	4.3
295.2281	2.4
305.1762	1.4
309.2073	7.2
310.2100	3.0
311.1870	5.5
311.2236	18.8
312.2270	3.6
313.2024	2.4
313.2392	2.8
319.1923	2.3
321.2080	1.4
323.1871	2.4
335.1868	3.4
336.1907	2.2
337.1660	2.6
337.2023	16.3
338.2066	3.4
339.1810	2.8
339.2182	5.7
353.1970	23.0
353.2320	3.5
354.1635	2.0
354.2006	11.5
355.1236	1.9
355.1753	21.9
355.2137	100.0
355.2487	3.2
356.1168	1.7
356.1470	1.6
356.1795	4.9
356.2172	20.6
357.1915	23.9
357.2294	31.6

Name: (2E,4E)-5-)1-hydroxy-2,6-dimethyl-4-oxo-6-))(2R,3R,4S,5S,6R)-3,4,5-trihydroxy-6-(hydroxymethyl)oxan-2-yl(oxymethyl(cyclohex-2-en-1-yl(-3-methylpenta-2,4-dienoic acid
PrecursorMZ: 441.17672
RT: 0.583
ExactMass: 442.18389715
Spectrum_type: 2
charge: -1
Formula: C21H30O10
SMILES: CC1=CC(=O)CC(C1(/C=C/C(=C/C(=O)O)/C)O)(C)CO[C@H]2[C@@H]([C@H]([C@@H]([C@H](O2)CO)O)O)O
Method: HCD
Collision_energy: [28.333334]
Isolation_window: 4.0
Ion_mode: N
Num Peaks: 57
57.0336	1.9
59.0129	2.6
72.9922	2.1
78.9851	1.9
83.0130	1.4
87.0079	2.3
87.0441	1.4
88.0394	2.0
101.0599	1.4
109.0285	3.0
111.0441	1.3
114.0551	1.9
116.0706	1.6
123.0442	1.4
124.0757	1.9
125.0598	3.1
128.0342	1.9
130.0864	4.8
139.0391	1.8
139.0756	2.1
157.0497	1.4
159.0656	1.4
164.0704	1.7
167.0707	3.7
179.0705	1.4
181.0853	2.5
183.0655	1.4
195.0651	2.4
209.0812	4.2
211.0600	1.3
221.0816	1.9
225.0764	3.4
265.1092	1.9
267.1236	4.5
279.1238	3.4
281.1399	2.1
283.1188	7.6
294.1111	1.5
297.1338	1.4
312.1211	1.5
341.1232	1.4
361.1659	1.4
370.1628	1.3
383.1345	67.5
384.1381	12.8
397.1490	1.9
439.1848	2.6
439.2364	3.6
440.1834	4.5
440.2420	2.3
441.1246	3.3
441.1739	100.0
441.2742	1.9
442.1786	22.4
443.1338	7.0
443.1862	11.9
443.2759	3.7

Name: (2E,6E,10Z)-12-hydroxy-10-(hydroxymethyl)-6-methyl-2-(4-methylpent-3-enyl)dodeca-2,6,10-trienoic acid
PrecursorMZ: 335.22238
RT: 1.1793
ExactMass: 336.2300595
Spectrum_type: 2
charge: -1
Formula: C20H32O4
SMILES: CC(=CCC/C(=C\CC/C(=C/CC/C(=C/CO)/CO)/C)/C(=O)O)C
Method: HCD
Collision_energy: [28.333334]
Isolation_window: 4.0
Ion_mode: N
Num Peaks: 25
57.0336	2.1
59.0129	10.8
69.0336	6.1
71.0493	1.7
73.0285	2.4
81.0700	9.3
83.0492	2.1
96.9590	3.4
97.0649	3.0
133.1015	2.1
137.0965	1.5
186.0915	2.7
191.1798	1.9
203.1797	2.0
255.2109	2.2
262.1559	1.4
291.2327	20.3
292.2361	4.5
295.1908	5.4
317.2095	1.5
335.2229	100.0
336.2260	21.2
337.1328	16.0
337.2017	3.8
337.2383	6.4

Name: (2R)-1-((tert-butoxy)carbonyl)pyrrolidine-2-carboxylic acid
PrecursorMZ: 214.10808
RT: 5.0232
ExactMass: 215.11575802
Spectrum_type: 2
charge: -1
Formula: C10H17NO4
SMILES: CC(C)(C)OC(=O)N1CCC[C@@H]1C(=O)O
Method: HCD
Collision_energy: [28.333334]
Isolation_window: 4.0
Ion_mode: N
Num Peaks: 41
59.0129	3.6
70.0290	6.9
71.0129	3.0
72.0446	5.1
72.9921	3.8
74.0239	4.6
82.0290	2.1
83.0494	4.1
84.0446	5.0
85.0286	2.6
87.0079	3.8
89.0236	2.3
96.0445	9.0
99.0443	8.4
111.0440	2.7
112.0396	3.8
113.0348	12.4
114.0552	70.5
114.0916	3.4
115.0588	3.1
128.0345	100.0
129.0380	5.0
139.0391	2.2
141.1024	3.0
152.0709	2.3
154.0500	4.1
154.0867	2.1
170.0815	2.3
171.0774	3.2
172.0973	41.1
173.1011	3.3
178.0868	3.7
185.0927	2.6
196.0976	17.8
212.0911	4.8
213.0744	5.1
214.0723	15.7
214.1080	25.6
215.0559	5.0
215.0901	21.0
216.0870	6.0

Name: (2R)-2,3-Dihydro-3beta,5,7-trihydroxy-2alpha-(4-hydroxyphenyl)-8-(3-methyl-2-butenyl)-4H-1-benzopyran-4-one
PrecursorMZ: 355.11845
RT: 2.8666
ExactMass: 356.12598835
Spectrum_type: 2
charge: -1
Formula: C20H20O6
SMILES: CC(=CCC1=C2C(=C(C=C1O)O)C(=O)[C@H]([C@@H](O2)C3=CC=C(C=C3)O)O)C
Method: HCD
Collision_energy: [28.333334]
Isolation_window: 4.0
Ion_mode: N
Num Peaks: 14
124.0156	5.4
125.0964	4.3
149.0962	6.3
151.0754	4.0
161.0236	54.3
162.0270	4.6
193.0864	100.0
194.0895	9.6
353.3429	5.4
354.1245	4.3
355.1187	62.5
355.2644	13.0
356.1219	13.8
357.2802	7.8

Name: (2R)-2-((2R,5S)-5-((2S)-2-Hydroxybutyl)oxolan-2-YL)propanoic acid
PrecursorMZ: 215.12853
RT: 2.5071
ExactMass: 216.13615911
Spectrum_type: 2
charge: -1
Formula: C11H20O4
SMILES: CC[C@@H](C[C@@H]1CC[C@@H](O1)[C@@H](C)C(=O)O)O
Method: HCD
Collision_energy: [28.333334]
Isolation_window: 4.0
Ion_mode: N
Num Peaks: 79
59.0130	2.3
61.9875	4.7
71.0129	0.9
71.0495	0.4
73.0286	0.9
74.0239	0.5
83.0493	2.1
84.0444	0.5
85.0286	1.1
87.0081	0.4
87.0555	0.8
88.0396	0.4
94.0038	1.3
97.0650	0.9
98.0238	1.0
99.0806	0.5
100.0396	0.4
109.0651	0.4
111.0445	0.4
112.0396	0.4
113.0348	2.7
114.0553	1.1
115.0756	3.0
116.0710	0.4
125.0350	0.4
125.0711	1.8
125.0963	0.8
126.0551	0.8
126.0914	1.0
127.0393	0.4
127.1119	0.6
128.0170	0.4
130.0867	1.5
139.0395	0.4
143.1182	2.1
151.0255	2.8
151.1122	0.4
152.1072	0.9
153.0550	0.8
153.0927	1.2
153.1278	31.8
154.0857	0.5
154.1312	3.4
169.1227	2.8
170.0805	0.5
170.1260	0.8
171.0645	0.5
171.0790	0.9
171.1017	4.5
171.1134	0.4
171.1383	0.8
172.0106	3.3
173.0926	0.8
184.0723	1.4
187.1084	0.6
197.1178	26.4
198.0764	0.7
198.1219	2.8
213.1128	0.7
214.0174	1.4
214.0506	0.6
214.0719	1.9
214.1065	2.0
215.0143	0.7
215.0593	1.7
215.0898	2.0
215.1049	8.1
215.1283	100.0
215.1621	0.9
215.1706	0.6
216.0305	0.4
216.0667	0.4
216.0871	7.7
216.1067	0.4
216.1318	11.8
217.0707	1.0
217.0893	0.5
217.1050	0.8
217.1364	0.6

Name: (2R)-2-formamido-4-(methylsulfanyl)butanoic acid
PrecursorMZ: 176.03801
RT: 3.6726
ExactMass: 177.04596439
Spectrum_type: 2
charge: -1
Formula: C6H11NO3S
SMILES: CSCC[C@H](C(=O)O)NC=O
Method: HCD
Collision_energy: [28.333334]
Isolation_window: 4.0
Ion_mode: N
Num Peaks: 6
84.0446	27.5
98.0238	82.7
128.0344	76.0
148.0399	21.6
174.0192	19.2
176.0358	100.0

Name: (2R)-2-hydroxyoctadecanoic acid
PrecursorMZ: 299.25868
RT: 1.7211
ExactMass: 300.26644501
Spectrum_type: 2
charge: -1
Formula: C18H36O3
SMILES: CCCCCCCCCCCCCCCC[C@H](C(=O)O)O
Method: HCD
Collision_energy: [28.333334]
Isolation_window: 4.0
Ion_mode: N
Num Peaks: 21
96.9592	0.8
97.4646	0.7
97.4669	0.6
141.1275	1.4
253.2532	1.4
281.2483	1.7
297.2434	9.0
297.2774	0.5
297.7446	0.7
298.1562	0.8
298.2468	7.1
299.0784	0.5
299.1877	0.6
299.2251	1.9
299.2588	100.0
299.3299	0.6
300.1160	1.0
300.2622	18.8
301.1324	1.2
301.2660	1.5
301.2701	0.8

Name: (2R)-3-(((2-Aminoethoxy)hydroxyphosphinyl)oxy)-2-hydroxypropyl (9Z,12Z)-9,12-octadecadienoate
PrecursorMZ: 476.27848
RT: 4.9961
ExactMass: 477.28553974
Spectrum_type: 2
charge: -1
Formula: C23H44NO7P
SMILES: CCCCC/C=C\C/C=C\CCCCCCCC(=O)OC[C@H](COP(=O)(O)OCCN)O
Method: HCD
Collision_energy: [28.333334]
Isolation_window: 4.0
Ion_mode: N
Num Peaks: 16
52.9213	1.8
59.0129	1.3
78.9581	8.1
140.0110	5.6
152.9953	2.0
196.0376	17.4
214.0483	3.6
279.2330	100.0
280.2364	19.4
281.2486	46.8
377.2335	1.6
433.2979	3.0
475.2876	1.7
476.2786	42.9
477.2875	22.2
478.2936	24.2

Name: (2R)-3-cyclopentyl-2-(4-methylsulfonylphenyl)-N-(2-thiazolyl)propanamide
PrecursorMZ: 377.09933
RT: 3.1403
ExactMass: 378.10718492
Spectrum_type: 2
charge: -1
Formula: C18H22N2O3S2
SMILES: CS(=O)(=O)C1=CC=C(C=C1)[C@@H](CC2CCCC2)C(=O)NC3=NC=CS3
Method: HCD
Collision_energy: [28.333334]
Isolation_window: 4.0
Ion_mode: N
Num Peaks: 22
71.0128	1.6
80.9643	4.9
87.0080	2.1
109.0287	1.8
115.0026	1.6
128.0344	2.2
135.0444	4.8
152.9856	16.2
153.0662	49.7
154.0700	3.9
188.0710	3.4
191.0558	1.7
197.0563	100.0
198.0594	7.9
200.0715	2.2
333.1062	2.0
375.1092	1.9
376.1095	4.1
377.0977	23.6
378.1009	7.5
379.0697	1.7
379.1103	5.3

Name: (2R)-7-hydroxy-8-(2-hydroxyethyl)-5-methoxy-2-methyl-2,3-dihydrochromen-4-one
PrecursorMZ: 251.09239
RT: 1.3486
ExactMass: 252.09977361
Spectrum_type: 2
charge: -1
Formula: C13H16O5
SMILES: C[C@@H]1CC(=O)C2=C(C=C(C(=C2O1)CCO)O)OC
Method: HCD
Collision_energy: [28.333334]
Isolation_window: 4.0
Ion_mode: N
Num Peaks: 70
59.0130	6.1
61.9875	6.4
69.0336	2.0
71.0128	2.5
71.0493	1.9
72.9922	3.1
80.9642	2.9
85.0285	8.8
87.0079	3.7
88.0395	2.8
97.0284	2.2
99.0077	1.8
109.0284	2.4
111.0442	3.4
112.0507	2.2
113.0234	3.3
115.0391	5.1
123.0444	3.6
123.0553	2.2
125.0235	2.2
127.0395	3.0
128.0345	2.6
131.0342	8.6
135.0441	3.2
135.0805	1.9
136.0507	2.6
137.0601	13.1
138.0548	1.8
139.0390	2.4
143.0706	4.7
149.0600	5.1
150.0555	2.8
151.0502	5.1
153.0545	1.8
159.0294	2.7
162.0917	1.9
163.0752	2.4
164.0706	2.4
165.0541	2.1
165.0910	2.1
176.0709	3.7
177.0546	2.8
178.0495	2.9
178.0864	2.5
179.0702	8.1
180.0659	1.9
189.0550	1.8
189.0914	15.0
190.0869	2.2
191.0705	9.5
205.0852	3.0
206.0809	3.1
206.0942	2.3
207.0647	3.6
207.1020	3.4
208.0952	4.2
209.0808	7.0
233.0815	16.6
234.0824	2.3
235.0601	2.2
249.0759	9.3
249.0970	2.0
250.0737	10.0
250.1084	5.5
250.1435	9.1
251.0554	6.8
251.0932	100.0
252.0928	20.3
253.0712	41.8
253.1107	5.7

Name: (2R,3R,6R)-5-)(1E,3E)-Hepta-1,3-dienyl(-2,3-dihydroxy-6-(hydroxymethyl)cyclohexan-1-one
PrecursorMZ: 253.14453
RT: 0.5478
ExactMass: 254.15180918
Spectrum_type: 2
charge: -1
Formula: C14H22O4
SMILES: CCC/C=C/C=C/C1C[C@H]([C@H](C(=O)[C@H]1CO)O)O
Method: HCD
Collision_energy: [28.333334]
Isolation_window: 4.0
Ion_mode: N
Num Peaks: 32
72.9922	2.3
97.0648	2.0
99.0807	18.2
100.0839	1.5
143.0707	3.7
151.0763	1.9
154.0629	1.9
166.0630	7.2
167.0705	2.4
167.1433	1.4
179.1437	8.7
183.1385	8.3
197.1543	20.6
198.1581	2.4
207.1387	40.1
208.1429	7.1
209.1543	38.0
210.1577	5.0
211.1336	7.6
223.1338	35.5
224.1375	4.0
251.1283	1.5
252.0943	1.5
252.1322	2.2
253.0813	4.1
253.1445	5.8
253.2173	23.0
254.1399	2.8
254.1761	2.8
254.2202	3.7
255.0842	2.2
255.2330	100.0

Name: (2R,3S)-2-methylcitric acid
PrecursorMZ: 205.03492
RT: 9.4177
ExactMass: 206.04265265
Spectrum_type: 2
charge: -1
Formula: C7H10O7
SMILES: C[C@H](C(=O)O)[C@](CC(=O)O)(C(=O)O)O
Method: HCD
Collision_energy: [28.333334]
Isolation_window: 4.0
Ion_mode: N
Num Peaks: 54
57.0336	6.8
59.0130	22.0
71.0130	24.2
71.0493	10.9
72.9922	15.6
73.0286	18.6
75.0079	12.2
79.9564	9.4
80.9643	16.6
85.0286	26.0
87.0079	35.3
87.0443	8.0
89.0235	10.7
89.9249	14.2
90.9327	8.6
97.0288	7.7
99.0443	34.1
99.9330	9.4
101.0235	26.1
104.0343	6.7
106.9276	10.8
113.0239	12.4
115.0393	16.3
116.0708	7.7
117.0185	18.0
125.0236	100.0
129.0185	8.6
131.0344	7.9
131.9594	11.8
135.0446	10.0
143.0342	22.6
143.9596	8.9
145.0135	16.6
159.0443	11.6
160.0396	30.9
161.0445	10.9
161.0599	37.9
162.0548	21.6
163.0391	14.9
163.0757	16.7
186.0757	11.9
187.0244	47.9
203.0554	15.6
203.0715	10.8
203.0922	11.2
204.0876	53.4
205.0344	39.1
205.0506	33.3
205.0712	52.0
205.0885	8.0
205.1596	23.0
205.9597	8.6
206.0447	12.0
207.0659	14.2

Name: (2R,3S,4R,5R)-2,3,4,5-Tetrahydroxy-6-(((2S,3R,4S,5R,6R)-3,4,5-trihydroxy-6-(hydroxymethyl)tetrahydro-2H-pyran-2-yl)oxy)hexanal
PrecursorMZ: 387.11481
RT: 4.7809
ExactMass: 342.11621151
Spectrum_type: 2
charge: -1
Formula: C12H22O11
SMILES: C([C@@H]1[C@@H]([C@@H]([C@H]([C@H](O1)OC[C@H]([C@H]([C@@H]([C@H](C=O)O)O)O)O)O)O)O)O
Method: HCD
Collision_energy: [28.333334]
Isolation_window: 4.0
Ion_mode: N
Num Peaks: 21
59.0130	29.6
61.9875	34.4
71.0129	48.2
73.0286	22.5
87.0079	18.4
89.0235	86.1
96.9593	16.7
97.0286	21.3
101.0234	80.9
113.0236	30.2
119.0341	33.7
128.0345	25.7
143.0337	18.8
161.0448	100.0
179.0559	72.0
221.0662	27.5
263.0765	16.5
341.1085	54.7
343.1242	36.5
388.1747	23.7
389.1232	23.0

Name: (2R,3S,4S,5R,6S)-2-(hydroxymethyl)-6-((1,4,13-trihydroxy-12,12-dimethyl-6-propan-2-yl-5-tricyclo(9.4.0.03,8)pentadeca-3,5,7-trienyl)oxy)oxane-3,4,5-triol
PrecursorMZ: 495.25989
RT: 6.834
ExactMass: 496.26723285
Spectrum_type: 2
charge: -1
Formula: C26H40O9
SMILES: CC(C)C1=C(C(=C2CC3(CCC(C(C3CCC2=C1)(C)C)O)O)O)O[C@H]4[C@@H]([C@H]([C@@H]([C@H](O4)CO)O)O)O
Method: HCD
Collision_energy: [28.333334]
Isolation_window: 4.0
Ion_mode: N
Num Peaks: 32
55.0273	2.0
55.0304	4.8
59.0130	7.6
83.0492	2.4
107.0860	1.8
115.0394	2.0
141.0913	3.9
153.0914	29.1
154.0945	2.4
197.0814	16.1
229.0979	4.8
247.1700	1.6
261.2219	1.7
271.2069	1.6
293.1397	2.1
305.2121	1.7
315.1970	1.9
331.2274	2.2
333.2068	2.2
347.2597	2.0
389.2716	1.6
391.2493	11.5
392.2521	3.3
435.2390	35.0
436.2425	9.1
477.2482	7.4
478.2530	1.6
494.2272	2.0
495.2600	100.0
496.2633	26.4
497.1593	2.8
497.2668	4.6

Name: (2R,3S,4S,5R,6S)-2-(hydroxymethyl)-6-)(1,4,13-trihydroxy-12,12-dimethyl-6-propan-2-yl-5-tricyclo)9.4.0.03,8(pentadeca-3,5,7-trienyl)oxy(oxane-3,4,5-triol
PrecursorMZ: 495.26045
RT: 2.832
ExactMass: 496.26723285
Spectrum_type: 2
charge: -1
Formula: C26H40O9
SMILES: CC(C)C1=C(C(=C2CC3(CCC(C(C3CCC2=C1)(C)C)O)O)O)O[C@H]4[C@@H]([C@H]([C@@H]([C@H](O4)CO)O)O)O
Method: HCD
Collision_energy: [28.333334]
Isolation_window: 4.0
Ion_mode: N
Num Peaks: 11
59.0130	6.9
141.0910	5.0
153.0914	34.1
197.0815	19.2
391.2496	13.5
435.2391	35.7
436.2409	8.3
477.2484	6.5
495.2596	100.0
496.2633	21.6
497.3232	6.8

Name: (2R,7R,8R,9R,10S,20S)-7,8,9,19-tetrahydroxy-6,17-bis(hydroxymethyl)-2,6,10,17-tetramethylhexacyclo(12.8.1.01,14.02,11.05,10.015,20)tricos-12-ene-20-carboxylic acid
PrecursorMZ: 533.31153
RT: 5.9904
ExactMass: 534.31926842
Spectrum_type: 2
charge: -1
Formula: C30H46O8
SMILES: C[C@@]12CCC3[C@@](C1C=CC45C2(C4)CC[C@@]6(C5CC(CC6O)(C)CO)C(=O)O)([C@H]([C@H]([C@@H](C3(C)CO)O)O)O)C
Method: HCD
Collision_energy: [28.333334]
Isolation_window: 4.0
Ion_mode: N
Num Peaks: 3
533.3118	100.0
534.3154	31.6
535.3278	18.9

Name: (2S)-2-))(4R)-4-)(3R,5R,6S,7R,8S,9S,10R,13R,14S,17R)-3,6,7-trihydroxy-10,13-dimethyl-2,3,4,5,6,7,8,9,11,12,14,15,16,17-tetradecahydro-1H-cyclopenta)a(phenanthren-17-yl(pentanoyl(amino(pentanedioic acid
PrecursorMZ: 536.32253
RT: 5.5923
ExactMass: 537.33016746
Spectrum_type: 2
charge: -1
Formula: C29H47NO8
SMILES: C[C@H](CCC(=O)N[C@@H](CCC(=O)O)C(=O)O)[C@H]1CC[C@@H]2[C@@]1(CC[C@H]3[C@H]2[C@H]([C@H]([C@H]4[C@@]3(CC[C@H](C4)O)C)O)O)C
Method: HCD
Collision_energy: [28.333334]
Isolation_window: 4.0
Ion_mode: N
Num Peaks: 9
69.1280	6.3
102.0550	9.5
128.0343	39.7
146.0449	8.1
407.2802	31.5
408.2832	6.4
492.3330	8.3
536.3229	100.0
537.3270	33.7

Name: (2S)-2-))(4R)-4-)(3R,5R,6S,7S,8S,9S,10R,13R,14S,17R)-3,6,7-trihydroxy-10,13-dimethyl-2,3,4,5,6,7,8,9,11,12,14,15,16,17-tetradecahydro-1H-cyclopenta)a(phenanthren-17-yl(pentanoyl(amino(butanedioic acid
PrecursorMZ: 522.30652
RT: 0.6091
ExactMass: 523.31451739
Spectrum_type: 2
charge: -1
Formula: C28H45NO8
SMILES: C[C@H](CCC(=O)N[C@@H](CC(=O)O)C(=O)O)[C@H]1CC[C@@H]2[C@@]1(CC[C@H]3[C@H]2[C@@H]([C@H]([C@H]4[C@@]3(CC[C@H](C4)O)C)O)O)C
Method: HCD
Collision_energy: [28.333334]
Isolation_window: 4.0
Ion_mode: N
Num Peaks: 48
53.2544	1.9
53.2572	4.3
58.0324	1.8
58.0358	3.6
59.0128	5.0
61.9873	17.0
71.0129	2.7
73.0284	2.9
83.0491	14.1
85.0284	6.0
87.0079	1.9
87.0440	5.8
89.0233	2.0
97.0649	1.7
99.0440	3.3
101.0596	1.3
111.0439	1.5
113.0344	1.3
113.0598	2.0
114.0549	2.3
115.0752	2.9
123.0804	1.5
125.0598	1.8
127.0499	1.7
130.0863	1.5
141.0910	2.4
149.0960	1.5
151.0754	1.3
159.1016	37.9
160.1050	2.9
175.0967	3.9
181.0976	1.4
301.1804	5.0
303.1971	1.5
319.1912	15.3
320.1938	3.6
461.2898	3.3
477.2849	1.3
478.2847	1.3
479.3007	100.0
480.3040	26.4
481.3104	3.5
521.1957	2.2
521.2573	2.7
521.3388	4.1
522.3062	84.2
523.3054	25.0
524.3193	2.3

Name: (2S)-2-))(4R)-4-)(3R,5R,6S,8S,9S,10R,13R,14S,17R)-3,6-dihydroxy-10,13-dimethyl-2,3,4,5,6,7,8,9,11,12,14,15,16,17-tetradecahydro-1H-cyclopenta)a(phenanthren-17-yl(pentanoyl(amino(pentanedioic acid
PrecursorMZ: 520.32751
RT: 5.0554
ExactMass: 521.33525284
Spectrum_type: 2
charge: -1
Formula: C29H47NO7
SMILES: C[C@H](CCC(=O)N[C@@H](CCC(=O)O)C(=O)O)[C@H]1CC[C@@H]2[C@@]1(CC[C@H]3[C@H]2C[C@@H]([C@H]4[C@@]3(CC[C@H](C4)O)C)O)C
Method: HCD
Collision_energy: [28.333334]
Isolation_window: 4.0
Ion_mode: N
Num Peaks: 21
57.8125	2.0
57.8158	4.4
69.1552	1.8
69.1930	2.0
69.2737	2.2
102.0550	9.5
128.0343	39.3
129.0379	1.9
146.0450	7.2
391.2853	26.0
392.2882	6.3
476.3381	7.7
477.3408	2.1
502.3167	3.2
518.3179	3.2
519.3208	8.5
519.3321	6.7
520.3280	100.0
521.3321	31.3
522.3336	4.4
522.3403	2.1

Name: (2S)-2-))(4R)-4-)(3R,5R,8R,9S,10S,12S,13R,14S,17R)-3,12-dihydroxy-10,13-dimethyl-2,3,4,5,6,7,8,9,11,12,14,15,16,17-tetradecahydro-1H-cyclopenta)a(phenanthren-17-yl(pentanoyl(amino(butanedioic acid
PrecursorMZ: 506.31181
RT: 5.0041
ExactMass: 507.31960277
Spectrum_type: 2
charge: -1
Formula: C28H45NO7
SMILES: C[C@H](CCC(=O)N[C@@H](CC(=O)O)C(=O)O)[C@H]1CC[C@@H]2[C@@]1([C@H](C[C@H]3[C@H]2CC[C@H]4[C@@]3(CC[C@H](C4)O)C)O)C
Method: HCD
Collision_energy: [28.333334]
Isolation_window: 4.0
Ion_mode: N
Num Peaks: 31
56.2553	1.9
56.2584	4.6
71.0129	5.2
88.0394	15.1
115.0027	8.7
115.9197	2.9
116.9275	3.6
127.0504	1.6
128.0344	4.5
132.0295	3.0
275.1039	1.7
347.1686	1.8
372.2911	2.1
390.3014	10.9
391.2844	14.4
392.2880	3.0
444.2588	2.1
462.3232	9.5
463.3259	2.2
488.2990	1.7
489.1931	3.8
505.1626	1.6
505.2489	1.9
505.2597	2.2
505.3234	1.8
506.3127	100.0
507.2056	10.6
507.2442	1.6
507.3165	29.1
508.2081	3.5
508.3182	3.7

Name: (2S)-2-))(4R)-4-)(3R,5S,7R,8R,9S,10S,12S,13R,14S,17R)-3,7,12-trihydroxy-10,13-dimethyl-2,3,4,5,6,7,8,9,11,12,14,15,16,17-tetradecahydro-1H-cyclopenta)a(phenanthren-17-yl(pentanoyl(amino(butanedioic acid
PrecursorMZ: 522.30694
RT: 5.5464
ExactMass: 523.31451739
Spectrum_type: 2
charge: -1
Formula: C28H45NO8
SMILES: C[C@H](CCC(=O)N[C@@H](CC(=O)O)C(=O)O)[C@H]1CC[C@@H]2[C@@]1([C@H](C[C@H]3[C@H]2[C@@H](C[C@H]4[C@@]3(CC[C@H](C4)O)C)O)O)C
Method: HCD
Collision_energy: [28.333334]
Isolation_window: 4.0
Ion_mode: N
Num Peaks: 16
58.0357	4.5
69.1519	4.7
71.0129	5.9
88.0393	13.5
115.0027	8.6
132.0293	3.8
388.2843	4.3
406.2966	9.9
407.2794	16.2
408.2837	3.5
478.3176	10.2
520.2878	4.7
521.2919	6.7
522.3067	100.0
523.3096	27.0
524.3135	3.1

Name: (2S)-2-))2-(5-methoxyindol-1-yl)acetyl(amino(-3-phenylpropanoic acid
PrecursorMZ: 351.13526
RT: 0.9343
ExactMass: 352.14230712
Spectrum_type: 2
charge: -1
Formula: C20H20N2O4
SMILES: COC1=CC2=C(C=C1)N(C=C2)CC(=O)N[C@@H](CC3=CC=CC=C3)C(=O)O
Method: HCD
Collision_energy: [28.333334]
Isolation_window: 4.0
Ion_mode: N
Num Peaks: 32
58.0290	2.4
72.0081	1.5
72.0446	4.4
74.0238	48.5
98.0239	2.1
116.0348	1.6
116.0498	8.6
142.0654	2.0
147.0445	2.8
159.0920	4.2
164.0709	6.0
178.0867	6.7
201.1031	3.8
203.0822	69.9
204.0662	2.3
204.0854	7.8
222.0769	24.7
223.0801	2.6
273.1606	2.2
307.1464	6.0
307.2270	2.1
317.1498	1.6
349.2058	14.8
350.1272	1.4
350.1721	2.0
350.2100	6.3
351.1356	100.0
351.2181	38.1
352.1396	21.0
352.2210	8.3
353.1389	1.4
353.2325	4.5

Name: (2S)-2-Hydroxy-3-butenyl-glucosinolate
PrecursorMZ: 388.03759
RT: 6.5928
ExactMass: 389.04503815
Spectrum_type: 2
charge: -1
Formula: C11H19NO10S2
SMILES: C=CC(C/C(=N\OS(=O)(=O)O)/SC1C(C(C(C(O1)CO)O)O)O)O
Method: HCD
Collision_energy: [28.333334]
Isolation_window: 4.0
Ion_mode: N
Num Peaks: 5
74.9900	55.4
95.9513	34.4
96.9591	100.0
388.0380	96.6
389.0408	12.3

Name: (2S,3S)-2-(3,4-dihydroxyphenyl)-3,5,7-trihydroxy-6-methyl-2,3-dihydrochromen-4-one
PrecursorMZ: 317.06666
RT: 1.7984
ExactMass: 318.07395278
Spectrum_type: 2
charge: -1
Formula: C16H14O7
SMILES: CC1=C(C2=C(C=C1O)O[C@H]([C@@H](C2=O)O)C3=CC(=C(C=C3)O)O)O
Method: HCD
Collision_energy: [28.333334]
Isolation_window: 4.0
Ion_mode: N
Num Peaks: 45
59.0129	3.0
80.9642	3.1
87.0078	4.6
93.0335	7.1
109.0286	5.0
111.0079	5.2
111.0445	2.0
115.0391	5.1
119.0495	3.3
123.0076	2.0
123.0440	2.1
125.0604	2.6
135.0443	2.7
137.0236	4.3
145.0656	2.3
151.0395	6.0
153.0185	3.6
165.0186	14.3
165.0545	2.1
169.0498	2.7
181.0501	1.8
185.0964	1.7
187.1122	31.5
193.0498	3.1
200.0551	1.9
203.0347	3.8
215.0351	1.7
229.0512	4.3
229.0877	2.3
231.1024	34.6
233.0454	4.2
243.0657	2.6
247.0608	2.3
255.0667	3.3
273.0781	3.0
275.0921	9.2
289.0717	6.6
299.0568	5.4
315.0865	4.5
315.8945	1.8
316.0836	8.5
317.0665	100.0
317.1619	2.2
318.0685	17.8
319.0823	11.9

Name: (2S,3S)-3,4',5,7-Tetrahydroxyflavanone
PrecursorMZ: 287.05589
RT: 1.2806
ExactMass: 288.0633881
Spectrum_type: 2
charge: -1
Formula: C15H12O6
SMILES: C1=CC(=CC=C1[C@H]2[C@@H](C(=O)C3=C(C=C(C=C3O2)O)O)O)O
Method: HCD
Collision_energy: [28.333334]
Isolation_window: 4.0
Ion_mode: N
Num Peaks: 69
59.0129	25.2
60.0162	0.7
68.9972	0.8
71.0129	0.4
72.9922	0.4
80.9641	0.7
81.0335	0.9
85.0284	0.7
87.0076	0.8
93.0335	1.6
95.0127	0.6
95.0493	0.4
106.0415	0.5
107.0493	1.6
108.0207	1.1
109.0287	1.2
109.0649	0.9
113.0233	0.5
115.9194	0.6
116.9275	0.8
119.0491	2.2
121.0285	4.0
123.0443	1.3
135.0444	1.5
135.0806	2.6
137.0597	0.5
147.0445	0.5
149.0598	1.3
152.0104	0.9
153.0186	0.9
153.0548	0.5
165.0549	0.4
175.0392	0.4
179.0704	1.3
181.0501	0.5
199.0761	0.4
205.0503	0.8
213.0918	5.6
214.0963	1.0
215.0457	0.6
215.0706	0.7
225.0554	0.8
225.0916	32.2
226.0949	7.6
227.0981	0.8
228.0421	3.2
229.0471	0.5
241.0500	0.4
241.1231	13.4
242.0821	0.9
242.1262	3.1
243.0658	17.6
243.1119	0.6
244.0690	2.2
244.0975	1.8
245.0814	1.1
267.1025	7.4
268.1058	2.1
285.0615	3.4
285.1130	100.0
286.0707	1.3
286.1164	28.3
287.0551	1.5
287.0768	2.4
287.1186	3.9
287.9818	0.5
288.0575	0.7
288.0864	2.1
289.0693	1.2

Name: (2S,3S)-3-decyl-2-hydroxy-2-(3-methoxy-3-oxopropyl)butanedioic acid
PrecursorMZ: 359.20789
RT: 1.5277
ExactMass: 360.21480336
Spectrum_type: 2
charge: -1
Formula: C18H32O7
SMILES: CCCCCCCCCC[C@H](C(=O)O)[C@@](CCC(=O)OC)(C(=O)O)O
Method: HCD
Collision_energy: [28.333334]
Isolation_window: 4.0
Ion_mode: N
Num Peaks: 60
57.0337	2.1
59.0130	6.0
61.9875	9.3
71.0129	3.5
83.0494	2.3
85.0286	2.7
87.0079	4.3
88.0394	2.1
101.0236	2.7
103.0391	6.1
111.0806	1.6
113.0600	1.9
115.0029	2.0
115.0391	4.0
115.0754	2.3
129.0552	2.3
129.0913	2.1
130.0866	2.6
135.0443	4.6
143.0709	2.0
155.0711	2.0
157.0864	2.4
171.1020	1.7
175.0969	2.6
181.1221	3.2
187.0964	3.6
199.1336	3.5
201.1125	3.9
232.0538	2.2
242.1870	4.7
243.1240	3.2
255.1591	2.1
273.1698	3.7
277.1813	2.1
295.1893	3.5
297.2065	2.3
313.1961	3.0
313.2384	2.4
314.2008	1.7
323.1592	2.8
339.1811	2.4
339.2181	5.5
340.1870	3.3
340.2221	1.7
341.1966	9.5
341.2339	2.8
357.1909	30.0
357.2296	26.4
358.0935	2.0
358.1484	1.8
358.1953	23.4
358.2333	9.8
359.1183	3.8
359.2072	100.0
359.2452	15.2
360.1081	4.2
360.2111	16.7
360.2489	3.2
361.0970	2.5
361.2249	9.1

Name: (2S,3S,9R,12R,13R,14S,15R,16R,17S)-3,12,13,15,16-pentahydroxy-2,6,14,17-tetramethyl-10-oxatetracyclo(7.7.1.02,7.013,17)heptadec-5-ene-4,11-dione
PrecursorMZ: 395.17104
RT: 0.8429
ExactMass: 396.17841785
Spectrum_type: 2
charge: -1
Formula: C20H28O8
SMILES: C[C@H]1[C@H]([C@@H](C2[C@@]3([C@]1([C@H](C(=O)O[C@@H]3CC4[C@@]2([C@@H](C(=O)C=C4C)O)C)O)O)C)O)O
Method: HCD
Collision_energy: [28.333334]
Isolation_window: 4.0
Ion_mode: N
Num Peaks: 29
85.0648	1.4
96.9592	1.0
111.0442	3.7
125.0599	1.7
139.0760	1.9
141.0552	1.1
167.0707	6.1
169.0499	4.0
195.0658	16.7
196.0693	2.3
209.0819	1.3
221.0815	1.0
223.1338	1.4
235.1337	1.1
237.1130	100.0
238.1164	13.0
239.1189	1.2
253.1085	1.4
263.1288	4.7
281.1386	1.1
307.1531	1.2
393.1920	12.1
394.1952	7.5
395.1690	37.7
395.2085	48.3
396.1724	7.9
396.2115	11.3
397.1735	2.7
397.2218	3.1

Name: (2S,4aR,6aR,6aS,6bR,8aR,10R,11S,12aR,14bS)-10,11-dihydroxy-2,6a,6b,9,9,12a-hexamethyl-1,3,4,5,6,6a,7,8,8a,10,11,12,13,14b-tetradecahydropicene-2,4a-dicarboxylic acid
PrecursorMZ: 501.32296
RT: 1.2455
ExactMass: 502.32943918
Spectrum_type: 2
charge: -1
Formula: C30H46O6
SMILES: C[C@@]1(CC[C@@]2(CC[C@@]3(C(=CC[C@H]4[C@]3(CC[C@@H]5[C@@]4(C[C@@H]([C@@H](C5(C)C)O)O)C)C)[C@@H]2C1)C)C(=O)O)C(=O)O
Method: HCD
Collision_energy: [28.333334]
Isolation_window: 4.0
Ion_mode: N
Num Peaks: 11
55.7010	1.3
55.7040	3.9
55.8155	1.2
61.9875	2.1
173.0452	1.4
457.3327	2.2
499.3334	3.0
500.3428	3.1
501.3220	100.0
502.3260	30.1
503.3272	8.5

Name: (2S,6S)-2,6-diaminoheptanedioic acid
PrecursorMZ: 189.08761
RT: 2.6569
ExactMass: 190.09535693
Spectrum_type: 2
charge: -1
Formula: C7H14N2O4
SMILES: C(C[C@@H](C(=O)O)N)C[C@@H](C(=O)O)N
Method: HCD
Collision_energy: [28.333334]
Isolation_window: 4.0
Ion_mode: N
Num Peaks: 46
58.0289	1.8
59.0130	5.6
71.0131	1.5
73.0286	7.9
74.0239	4.6
75.0079	1.6
78.9582	2.6
80.9624	2.5
84.0448	1.5
85.0286	2.8
88.0395	5.6
96.0446	3.8
97.0651	5.0
99.0556	1.6
100.0395	2.7
101.0234	3.1
101.0711	10.3
103.0506	2.5
109.0160	2.7
110.9844	6.2
112.9887	12.6
116.0709	28.6
125.0720	2.8
125.0964	100.0
126.0997	12.6
127.0505	5.8
127.0757	2.8
129.0549	6.8
143.1073	1.8
144.0296	3.4
144.0657	1.7
145.0612	61.0
146.0635	3.2
169.0622	1.7
169.0863	4.6
187.0261	9.1
187.0605	7.5
187.0970	76.7
188.0342	3.7
188.0561	8.5
188.1011	11.4
189.0761	16.0
189.0885	4.9
190.0505	4.5
190.0722	3.3
191.0557	10.6

Name: (2beta,3beta,9epsilon,17epsilon,22R)-2,3,14,20,22-Pentahydroxyergost-7-en-6-one
PrecursorMZ: 523.32768
RT: 4.5604
ExactMass: 478.32943918
Spectrum_type: 2
charge: -1
Formula: C28H46O6
SMILES: C[C@@H](C[C@H]([C@@](C)(C1CC[C@@]2([C@@]1(CCC3C2=CC(=O)C4[C@@]3(C[C@@H]([C@@H](C4)O)O)C)C)O)O)O)C(C)C
Method: HCD
Collision_energy: [28.333334]
Isolation_window: 4.0
Ion_mode: N
Num Peaks: 29
58.1490	3.8
59.0130	4.3
61.9875	4.8
69.1067	3.5
73.0286	4.6
83.0493	3.6
85.0283	2.6
87.0079	4.2
87.0442	2.8
89.0234	2.8
99.0443	2.7
111.0441	3.1
114.0553	3.0
148.0522	60.7
149.0593	6.7
163.0758	100.0
164.0796	10.7
173.0449	2.6
231.1392	5.0
319.1933	2.6
479.3414	8.1
480.3447	4.1
521.3542	5.2
522.2299	3.8
522.3469	6.5
523.3303	63.3
524.3364	20.1
525.2532	13.0
525.3310	8.6

Name: (2s,3s)-3,5,7-Trihydroxy-6-methyl-2-(3,4,5-trihydroxyphenyl)chroman-4-one
PrecursorMZ: 333.06142
RT: 4.6356
ExactMass: 334.0688674
Spectrum_type: 2
charge: -1
Formula: C16H14O8
SMILES: CC1=C(C2=C(C=C1O)O[C@H]([C@@H](C2=O)O)C3=CC(=C(C(=C3)O)O)O)O
Method: HCD
Collision_energy: [28.333334]
Isolation_window: 4.0
Ion_mode: N
Num Peaks: 78
59.0129	0.9
72.9921	0.7
74.0238	2.3
79.9564	2.0
80.9642	3.5
84.0444	0.7
85.0286	0.8
87.0076	0.7
88.0394	2.3
96.9591	3.6
97.0159	1.0
97.0286	0.8
109.0285	0.7
114.0549	1.3
123.0441	1.4
124.0759	4.6
125.0235	4.2
128.0341	1.0
135.0447	0.9
137.0235	5.3
138.0316	1.0
138.0549	1.0
151.0027	1.0
151.0392	3.6
163.0029	36.0
163.0389	0.9
164.0062	2.4
164.0708	0.9
164.1074	0.7
165.0193	1.0
166.0265	1.1
167.0342	1.4
181.0135	29.2
182.0169	2.5
186.0763	0.7
191.0702	1.0
198.0917	1.2
203.0705	1.7
205.0499	1.5
217.0502	0.7
227.0354	0.9
227.0708	0.8
228.1029	0.7
229.0496	1.0
247.0609	1.4
253.0502	0.8
257.1656	8.9
258.1695	1.4
271.0608	1.0
288.1252	0.7
289.0710	0.8
289.1189	1.5
297.0407	0.7
313.2382	0.8
315.0509	27.2
316.0540	4.2
329.2319	0.8
331.1192	3.0
331.1571	1.6
331.2491	15.2
331.6220	1.5
332.1198	4.6
332.1640	1.1
332.2525	4.7
332.9775	0.8
333.0616	100.0
333.0969	3.7
333.1346	5.9
333.1727	1.7
333.2076	0.7
334.0643	16.1
334.0954	1.2
334.1330	2.2
334.1768	4.8
335.0697	2.3
335.1162	1.6
335.1559	0.9
335.1882	0.8

Name: (3,4,5-Trihydroxy-6-methyloxan-2-yl) 2-(methylamino)benzoate
PrecursorMZ: 296.11418
RT: 0.7057
ExactMass: 297.12123733
Spectrum_type: 2
charge: -1
Formula: C14H19NO6
SMILES: CC1C(C(C(C(O1)OC(=O)C2=CC=CC=C2NC)O)O)O
Method: HCD
Collision_energy: [28.333334]
Isolation_window: 4.0
Ion_mode: N
Num Peaks: 59
57.0337	5.9
59.0129	9.2
61.9875	12.5
71.0130	6.1
72.9922	5.9
73.0286	4.8
85.0284	4.8
87.0079	9.1
87.0443	4.7
88.0394	5.9
96.9593	9.9
111.0445	4.7
115.0028	22.4
116.0707	5.8
121.0651	37.3
129.0186	4.9
130.0864	4.3
136.0762	5.0
137.0604	5.0
139.0758	12.3
142.0502	9.5
144.0809	4.4
151.0753	6.3
164.0709	8.5
165.1025	6.5
178.0862	6.5
179.0703	4.2
180.1024	23.8
181.0496	4.6
191.1069	10.6
191.1434	11.2
192.1019	9.6
206.0814	9.3
207.1001	6.7
223.0608	4.6
233.0830	6.3
235.0983	9.7
235.1331	9.5
250.1085	4.9
251.0897	8.3
251.1352	5.6
252.0870	5.3
252.1222	8.1
253.1101	5.9
253.1411	4.8
254.1044	4.5
279.0873	7.1
294.1016	5.6
295.0823	55.3
295.1220	22.7
296.0817	14.5
296.1138	100.0
297.0621	6.6
297.0987	54.3
297.1345	24.1
297.2435	22.2
298.0578	4.5
298.0959	13.0
298.1332	7.7

Name: (3As,5aS,5bR,9S,11aR,13aR)-9-hydroxy-5b,8,8,11a-tetramethyl-1-prop-1-en-2-yl-1,2,3,4,5,6,7,7a,9,10,11,11b,12,13,13a,13b-hexadecahydrocyclopenta(a)chrysene-3a,5a-dicarboxylic acid
PrecursorMZ: 485.32752
RT: 1.928
ExactMass: 486.33452456
Spectrum_type: 2
charge: -1
Formula: C30H46O5
SMILES: CC(=C)C1CC[C@]2(C1[C@H]3CCC4[C@]5(CC[C@@H](C(C5CC[C@]4([C@@]3(CC2)C(=O)O)C)(C)C)O)C)C(=O)O
Method: HCD
Collision_energy: [28.333334]
Isolation_window: 4.0
Ion_mode: N
Num Peaks: 20
53.7986	1.8
53.8016	4.5
53.9238	1.8
53.9267	3.4
72.9922	3.0
96.9592	11.7
99.0442	2.3
355.2656	1.7
423.3362	2.9
441.3404	1.8
452.1742	5.3
453.1825	2.4
454.1908	14.6
455.1942	2.9
484.2016	100.0
485.2092	29.2
485.3302	83.0
486.2051	9.7
486.3337	26.1
487.3457	10.2

Name: (3As,6S,7R,8aR)-8-hydroxy-6,8-dimethyl-3-methylidenespiro(4,5,6,8a-tetrahydro-3aH-cyclohepta(b)furan-7,5'-oxolane)-2,2'-dione
PrecursorMZ: 279.12326
RT: 0.742
ExactMass: 280.13107373
Spectrum_type: 2
charge: -1
Formula: C15H20O5
SMILES: C[C@H]1CC[C@@H]2[C@H](C([C@@]13CCC(=O)O3)(C)O)OC(=O)C2=C
Method: HCD
Collision_energy: [28.333334]
Isolation_window: 4.0
Ion_mode: N
Num Peaks: 7
123.0807	22.0
191.1437	26.2
235.1336	45.0
279.1236	100.0
279.2323	14.4
280.1265	16.1
281.2482	33.1

Name: (3E,5R,6E,8S,9E,13S,14R)-5-Hydroxy-8-methoxy-5,9,13,14-tetramethyloxacyclotetradeca-3,6,9-trien-2-one
PrecursorMZ: 307.19164
RT: 0.5389
ExactMass: 308.19875937
Spectrum_type: 2
charge: -1
Formula: C18H28O4
SMILES: C[C@H]1CC/C=C(/[C@H](/C=C/[C@@](/C=C/C(=O)O[C@@H]1C)(C)O)OC)\C
Method: HCD
Collision_energy: [28.333334]
Isolation_window: 4.0
Ion_mode: N
Num Peaks: 42
57.0337	8.6
85.0650	1.3
87.0078	19.5
95.0492	1.9
97.0285	6.9
97.0648	1.3
99.0079	1.5
111.0442	0.9
117.0700	0.7
121.0649	1.9
133.0650	1.6
135.0807	12.9
135.1165	0.8
136.0841	1.3
189.1647	0.8
217.1593	0.9
219.1022	0.8
227.1801	1.5
243.1753	2.3
245.1909	68.2
246.1943	12.0
247.2068	5.0
271.1706	2.1
287.1651	2.3
288.1686	1.2
289.1809	100.0
289.2473	0.7
290.1843	18.5
291.1963	9.4
305.1752	1.0
306.0737	0.8
307.0817	1.2
307.1307	2.2
307.1914	58.6
307.6322	0.7
308.0897	1.4
308.1371	4.9
308.1945	10.7
308.6390	1.9
309.1350	1.0
309.2066	5.5
309.2793	1.3

Name: (3R,4R)-3,4-dihydroxyoxolan-2-one
PrecursorMZ: 117.01819
RT: 8.4288
ExactMass: 118.02660867
Spectrum_type: 2
charge: -1
Formula: C4H6O4
SMILES: C1[C@H]([C@H](C(=O)O1)O)O
Method: HCD
Collision_energy: [28.333334]
Isolation_window: 4.0
Ion_mode: N
Num Peaks: 12
59.0129	9.8
60.9922	7.6
73.0285	80.7
89.0135	5.9
99.0078	9.2
99.9248	17.5
116.0244	16.9
116.9275	100.0
117.0185	18.5
117.9276	12.0
118.0287	8.9
118.0401	6.3

Name: (3R,4R)-4,5,8-trihydroxy-3-methyl-3,4-dihydroisochromen-1-one
PrecursorMZ: 209.04516
RT: 1.0059
ExactMass: 210.05282342
Spectrum_type: 2
charge: -1
Formula: C10H10O5
SMILES: C[C@@H]1[C@@H](C2=C(C=CC(=C2C(=O)O1)O)O)O
Method: HCD
Collision_energy: [28.333334]
Isolation_window: 4.0
Ion_mode: N
Num Peaks: 76
66.0340	1.2
71.0129	1.5
72.9922	8.4
80.9643	9.9
85.0286	1.4
87.0080	1.1
93.0337	2.8
96.9592	1.9
97.0286	9.8
99.0079	2.0
107.0494	3.4
108.0210	1.0
108.0447	1.5
109.0287	2.4
111.0080	1.4
111.0442	2.0
119.0495	2.6
120.0449	1.1
121.0286	7.9
121.0652	2.9
122.0603	3.4
123.0444	9.5
123.0807	1.1
125.0236	3.1
125.0601	1.2
133.0288	1.9
135.0445	2.8
136.0392	1.5
137.0237	3.3
137.0601	5.8
138.0010	1.6
138.0552	6.3
139.0393	4.1
139.0754	1.6
146.0607	1.2
147.0445	4.5
149.0601	6.0
151.0395	4.4
153.0554	0.9
163.0393	5.9
163.0760	1.8
164.0175	1.2
164.0350	5.0
164.0707	3.5
165.0187	18.6
165.0550	22.2
165.9961	4.3
166.0219	1.0
166.0332	1.6
166.0508	3.4
167.0345	3.3
167.0707	3.4
173.0595	1.4
179.0345	5.3
179.0691	1.2
181.0497	2.0
182.0454	7.0
191.0345	9.3
191.0705	2.6
193.0503	3.2
194.0443	1.5
207.0316	3.1
207.0535	7.1
208.0249	1.5
208.0607	8.9
209.0099	35.2
209.0452	100.0
209.0651	6.0
209.0830	10.0
209.9871	1.5
210.0121	3.4
210.0469	11.1
210.0783	2.1
211.0082	1.9
211.0272	2.2
211.0609	24.8

Name: (3R,5R)-7-((1S,2S,8S,8aR)-2-methyl-8-(2-methylbutanoyloxy)-1,2,6,7,8,8a-hexahydronaphthalen-1-yl)-3,5-dihydroxyheptanoic acid
PrecursorMZ: 407.24411
RT: 5.0187
ExactMass: 408.25118886
Spectrum_type: 2
charge: -1
Formula: C23H36O6
SMILES: CCC(C)C(=O)O[C@H]1CCC=C2[C@H]1[C@H]([C@H](C=C2)C)CC[C@H](C[C@H](CC(=O)O)O)O
Method: HCD
Collision_energy: [28.333334]
Isolation_window: 4.0
Ion_mode: N
Num Peaks: 29
59.0130	5.3
71.0129	2.7
78.9581	2.1
83.0493	2.0
114.0552	3.1
128.0344	2.3
319.1920	2.1
319.2288	2.9
321.2412	2.0
345.2435	3.1
347.2228	3.2
363.2174	5.6
363.2554	7.7
364.2598	2.0
365.2328	5.4
365.2711	6.9
389.2349	7.1
390.2376	2.2
391.2115	2.5
391.2542	6.8
405.2685	5.2
406.2287	5.2
406.2686	12.3
407.2022	3.0
407.2864	100.0
408.2444	6.8
408.2852	25.2
409.2222	22.3
409.2613	29.2

Name: (3R,6aR,7S,12aS)-5,6,6a,7,8-pentahydroxy-3-methyl-3,4,5,6,7,12a-hexahydro-2H-benzo(a)anthracene-1,12-dione
PrecursorMZ: 359.11382
RT: 6.2385
ExactMass: 360.12090297
Spectrum_type: 2
charge: -1
Formula: C19H20O7
SMILES: C[C@@H]1CC2=C([C@@H]3C(=O)C4=C([C@@H]([C@]3(C(C2O)O)O)O)C(=CC=C4)O)C(=O)C1
Method: HCD
Collision_energy: [28.333334]
Isolation_window: 4.0
Ion_mode: N
Num Peaks: 41
59.0130	30.5
116.0708	2.9
128.0344	6.6
130.0865	6.8
135.0444	4.1
146.0604	7.8
148.0760	7.0
150.0918	3.8
161.0237	2.2
195.0657	6.1
215.1189	4.7
226.1194	2.3
227.1032	3.2
239.1075	2.2
243.1135	12.1
243.1496	3.8
254.0954	5.2
255.1026	82.0
256.1064	14.1
270.0892	2.8
271.0995	2.7
271.1458	8.4
281.0810	2.9
287.1404	5.3
313.1087	2.9
315.1238	13.4
315.1281	61.3
316.1272	2.4
316.1310	12.2
317.1520	4.9
340.1890	3.9
341.1028	3.3
357.0971	7.0
358.0994	3.6
358.1981	7.2
359.1148	100.0
359.2010	2.7
359.2078	2.2
360.1177	22.2
361.1308	2.4
361.1422	15.5

Name: (3R,6aR,7S,12aS)-5,6,6a,7,8-pentahydroxy-3-methyl-3,4,5,6,7,12a-hexahydro-2H-benzo)a(anthracene-1,12-dione
PrecursorMZ: 359.11349
RT: 2.2539
ExactMass: 360.12090297
Spectrum_type: 2
charge: -1
Formula: C19H20O7
SMILES: C[C@@H]1CC2=C([C@@H]3C(=O)C4=C([C@@H]([C@]3(C(C2O)O)O)O)C(=CC=C4)O)C(=O)C1
Method: HCD
Collision_energy: [28.333334]
Isolation_window: 4.0
Ion_mode: N
Num Peaks: 24
59.0129	36.1
109.0283	2.4
121.0286	3.7
135.0442	3.0
136.0155	2.7
149.0594	3.4
150.0677	6.5
151.0394	3.1
152.0471	4.8
164.0469	12.3
177.0181	2.5
181.0496	4.8
195.0648	3.1
243.1018	4.7
255.1022	65.8
256.1065	12.4
271.0958	2.6
297.1122	6.3
315.0949	2.6
315.1234	100.0
316.1265	18.6
359.1135	92.9
360.1165	19.6
361.0891	7.9

Name: (3R,7R,8R,8aS)-3,4'-dihydroxy-7'-(2-hydroxyethyl)-4,4,7,8a-tetramethylspiro(2,3,4a,5,6,7-hexahydro-1H-naphthalene-8,2'-3,8-dihydrofuro(2,3-e)isoindole)-6'-one
PrecursorMZ: 428.24445
RT: 5.5506
ExactMass: 429.25152322
Spectrum_type: 2
charge: -1
Formula: C25H35NO5
SMILES: C[C@@H]1CCC2[C@@]([C@@]13CC4=C(C=C5C(=C4O3)CN(C5=O)CCO)O)(CC[C@H](C2(C)C)O)C
Method: HCD
Collision_energy: [28.333334]
Isolation_window: 4.0
Ion_mode: N
Num Peaks: 18
59.0130	1.5
71.0130	1.6
96.9592	4.5
99.0440	1.7
115.0028	2.4
310.1810	1.8
328.1921	15.4
329.1953	3.4
410.2342	20.3
411.2371	5.3
427.1425	1.5
427.2790	2.8
428.1491	1.4
428.2447	100.0
429.1648	4.1
429.2477	27.8
430.1628	1.5
430.2529	3.0

Name: (3S,4R,6S)-2-(Hydroxymethyl)-6-)(3S,4S,6R)-4,5,6-trihydroxy-2-(hydroxymethyl)oxan-3-yl(oxyoxane-3,4,5-triol
PrecursorMZ: 401.13046
RT: 3.9195
ExactMass: 342.11621151
Spectrum_type: 2
charge: -1
Formula: C12H22O11
SMILES: C([C@@H]1[C@H]([C@@H]([C@H]([C@@H](O1)O[C@H]([C@@H](CO)O)[C@@H]([C@H](C=O)O)O)O)O)O)O
Method: HCD
Collision_energy: [28.333334]
Isolation_window: 4.0
Ion_mode: N
Num Peaks: 29
59.0129	15.0
61.9875	6.0
71.0129	17.1
75.0078	2.3
85.0286	2.5
87.0078	4.9
89.0235	48.8
101.0235	13.8
113.0235	12.7
115.0028	2.5
119.0341	21.1
126.0551	1.9
128.0344	5.9
131.0340	4.2
143.0343	5.9
146.0452	2.3
149.0446	2.2
161.0449	6.1
179.0556	20.7
226.1075	2.9
268.1189	4.0
341.1090	100.0
342.1127	13.3
399.1318	2.4
400.1293	10.8
401.1207	6.2
401.1678	6.2
402.1022	3.4
403.1274	2.0

Name: (3S,4S)-3-hydroxytetradecane-1,3,4-tricarboxylate
PrecursorMZ: 345.1921
RT: 3.6226
ExactMass: 343.1756782
Spectrum_type: 2
charge: -1
Formula: C17H27O7-3
SMILES: CCCCCCCCCC[C@H](C(=O)[O-])[C@@](CCC(=O)[O-])(C(=O)[O-])O
Method: HCD
Collision_energy: [28.333334]
Isolation_window: 4.0
Ion_mode: N
Num Peaks: 68
59.0131	1.8
61.9875	2.4
71.0130	1.4
72.9922	1.0
83.0494	1.0
85.0286	1.4
87.0079	1.2
88.0395	1.4
89.0235	1.0
96.0082	1.5
101.0235	17.8
110.0239	1.8
111.0805	1.9
113.0236	1.0
114.0552	1.9
116.0708	1.4
124.0395	1.2
128.0343	1.4
130.0865	1.0
142.0503	1.3
145.0499	0.9
145.0975	1.1
173.1039	1.0
179.0933	2.0
181.1225	1.5
182.0814	1.4
196.0605	1.2
199.1339	2.4
201.1124	1.0
210.0767	6.9
211.1338	1.6
221.1908	7.0
225.1123	3.1
228.0875	1.1
237.1855	1.1
240.0878	1.2
243.1237	11.7
244.1272	1.5
247.1706	1.0
252.0884	1.4
263.1650	2.7
265.1811	19.0
266.1842	3.2
281.1757	3.6
282.1799	0.9
283.1913	5.6
287.1509	1.0
299.1867	2.1
300.1115	1.0
307.1552	1.3
309.1709	7.5
310.1749	1.4
325.1664	6.1
326.1678	1.8
327.1463	1.2
327.1815	23.0
328.1846	4.2
343.1768	31.8
344.0989	3.7
344.1435	2.7
344.1813	11.6
345.0315	1.1
345.1550	19.0
345.1922	100.0
345.2805	1.6
346.1576	4.1
346.1960	19.3
347.1709	4.9

Name: (3Z,6E)-5,8-Dihydroxy-10-methyl-5,8,9,10-tetrahydro-2H-oxecin-2-one
PrecursorMZ: 197.08146
RT: 3.3239
ExactMass: 198.08920892
Spectrum_type: 2
charge: -1
Formula: C10H14O4
SMILES: CC1CC(/C=C\C(/C=C\C(=O)O1)O)O
Method: HCD
Collision_energy: [28.333334]
Isolation_window: 4.0
Ion_mode: N
Num Peaks: 31
59.0136	2.8
80.9643	13.5
108.0445	0.9
111.0443	1.5
135.0291	1.0
135.0808	3.4
137.0964	3.3
152.0344	1.0
153.0915	32.8
154.0953	2.8
155.0346	1.9
155.1071	44.9
178.9838	1.5
179.0708	9.5
180.0749	1.0
195.9053	3.8
196.0140	9.3
196.1336	1.3
196.9033	1.5
197.0116	7.3
197.0601	0.8
197.0814	100.0
197.0977	1.5
197.1175	2.1
198.0416	1.0
198.0853	10.9
199.0273	1.7
199.0593	0.8
199.0974	11.5
199.1335	3.7
199.1697	1.1

Name: (3aR,4R,5aS,6S,9aR,9bS)-4,6-dihydroxy-5a,9-dimethyl-3-methylidene-4,5,6,7,9a,9b-hexahydro-3aH-benzo(g)(1)benzofuran-2-one
PrecursorMZ: 263.12888
RT: 5.27075
ExactMass: 264.13615911
Spectrum_type: 2
charge: -1
Formula: C15H20O4
SMILES: CC1=CC[C@@H]([C@@]2([C@@H]1[C@H]3[C@@H]([C@@H](C2)O)C(=C)C(=O)O3)C)O
Method: HCD
Collision_energy: [28.333334]
Isolation_window: 4.0
Ion_mode: N
Num Peaks: 14
79.9564	31.2
116.0708	15.4
136.0759	6.1
219.1387	38.0
220.1428	5.8
263.0609	3.8
263.0960	31.5
263.1289	100.0
263.6100	32.2
264.1101	5.3
264.1325	10.6
264.1350	12.2
265.0745	8.5
265.1487	4.3

Name: (3alpha,7alpha)-3,7-Dihydroxycholan-24-oic acid
PrecursorMZ: 391.2851
RT: 3.103
ExactMass: 392.29265975
Spectrum_type: 2
charge: -1
Formula: C24H40O4
SMILES: C[C@H](CCC(=O)O)[C@H]1CC[C@@H]2[C@@]1(CC[C@H]3[C@H]2[C@@H](CC4[C@@]3(CC[C@H](C4)O)C)O)C
Method: HCD
Collision_energy: [28.333334]
Isolation_window: 4.0
Ion_mode: N
Num Peaks: 15
79.9564	1.1
80.9642	0.9
96.9592	2.4
343.2652	0.8
345.2798	5.0
346.2835	1.1
347.2948	1.1
390.2753	0.9
391.1819	3.0
391.2854	100.0
392.1374	0.8
392.2887	26.5
393.1929	3.0
393.2922	3.0
393.2959	0.9

Name: (3beta,16beta,17alpha,18beta,20alpha)-18-Hydroxy-11,17-dimethoxyyohimban-16-carboxylic acid
PrecursorMZ: 399.19211
RT: 1.8376
ExactMass: 400.199822
Spectrum_type: 2
charge: -1
Formula: C22H28N2O5
SMILES: CO[C@H]1[C@@H](C[C@@H]2CN3CCC4=C([C@H]3C[C@@H]2[C@@H]1C(=O)O)NC5=C4C=CC(=C5)OC)O
Method: HCD
Collision_energy: [28.333334]
Isolation_window: 4.0
Ion_mode: N
Num Peaks: 24
58.0282	2.6
61.9867	7.4
93.0335	3.0
112.0757	2.3
121.0285	2.7
129.1024	25.7
130.1060	1.4
200.0708	2.9
225.0915	30.5
226.0950	4.7
249.1603	16.2
250.1639	2.3
267.1019	3.1
285.1153	1.3
354.1451	2.5
355.2024	100.0
356.2055	23.3
357.2090	1.8
398.1336	4.4
399.1485	1.8
399.1925	38.5
400.1430	1.7
400.1957	9.7
401.2056	1.2

Name: (4,5-dihydroxy-3,4-bis(hydroxymethyl)-4a,8,8-trimethyl-5,6,7,8a-tetrahydro-1H-naphthalen-1-yl) hexanoate
PrecursorMZ: 383.24404
RT: 5.2387
ExactMass: 384.25118886
Spectrum_type: 2
charge: -1
Formula: C21H36O6
SMILES: CCCCCC(=O)OC1C=C(C(C2(C1C(CCC2O)(C)C)C)(CO)O)CO
Method: HCD
Collision_energy: [28.333334]
Isolation_window: 4.0
Ion_mode: N
Num Peaks: 35
59.0131	10.2
71.0131	4.1
78.9582	43.9
83.0494	6.1
87.0442	4.7
97.0650	4.2
101.0237	4.3
114.0549	4.5
115.0389	4.5
130.0870	4.3
201.1128	6.9
295.2295	5.0
321.2069	7.0
321.2440	6.2
323.2226	5.4
338.2411	6.8
339.2172	9.2
339.2542	20.5
341.2330	6.2
364.2224	4.3
365.1952	8.4
365.2338	23.6
366.2380	4.3
367.2118	4.3
367.2498	9.0
381.2291	6.7
382.1941	9.8
382.2321	25.4
383.2076	66.0
383.2446	100.0
384.2109	12.4
384.2479	25.4
385.1843	4.6
385.2226	57.6
385.2618	28.1

Name: (4,8-Dihydroxy-3-(3-methoxy-3-oxoprop-1-en-2-yl)-8a-methyl-5-oxo-1,2,3,4,4a,6,7,8-octahydronaphthalen-2-yl) 3,4-dihydroxy-2-methylidenebutanoate
PrecursorMZ: 411.16629
RT: 1.7543
ExactMass: 412.17333247
Spectrum_type: 2
charge: -1
Formula: C20H28O9
SMILES: CC12CC(C(C(C1C(=O)CCC2O)O)C(=C)C(=O)OC)OC(=O)C(=C)C(CO)O
Method: HCD
Collision_energy: [28.333334]
Isolation_window: 4.0
Ion_mode: N
Num Peaks: 18
59.0130	17.7
69.0337	41.3
74.0238	13.5
87.0078	14.9
95.0495	17.2
113.0235	18.5
115.0392	100.0
123.0441	25.7
152.9952	18.5
169.0863	18.9
233.1186	19.2
251.1282	35.4
295.1190	49.0
409.2229	63.8
410.2269	45.5
411.1663	72.6
411.2331	28.6
412.2851	13.6

Name: (4-Hydroxyphenyl)acetamide
PrecursorMZ: 150.05537
RT: 2.393
ExactMass: 151.06332853
Spectrum_type: 2
charge: -1
Formula: C8H9NO2
SMILES: C1=CC(=CC=C1CC(=O)N)O
Method: HCD
Collision_energy: [28.333334]
Isolation_window: 4.0
Ion_mode: N
Num Peaks: 16
59.0130	5.1
94.0290	4.4
107.0369	14.8
107.0484	3.3
108.0197	10.9
108.0447	60.2
109.0479	4.2
122.0240	5.3
123.0445	5.3
131.0340	3.4
148.9521	7.4
149.0451	14.5
150.0554	100.0
151.0257	62.3
151.0391	11.3
151.0589	9.3

Name: (5-acetyloxy-3-(hydroxymethyl)-2-oxo-6-propan-2-ylcyclohex-3-en-1-yl) 3-methylbutanoate
PrecursorMZ: 325.1647
RT: 0.8271
Spectrum_type: 2
charge: -1
SMILES: CC(=O)OC1C=C(CO)C(=O)C(OC(=O)CC(C)C)C1C(C)C
Method: HCD
Collision_energy: [28.333334]
Isolation_window: 4.0
Ion_mode: N
Num Peaks: 13
101.0600	1.7
117.0183	2.4
131.0707	1.5
179.1071	1.3
183.0113	1.7
197.0268	1.3
211.0972	1.8
263.1653	4.3
323.1692	4.6
324.1766	1.4
325.1846	100.0
326.1878	19.7
327.1823	2.9

Name: (5E)-3,4,9-trihydroxy-2-propyl-2,3,4,7,8,9-hexahydrooxecin-10-one
PrecursorMZ: 243.12372
RT: 0.6978
ExactMass: 244.13107373
Spectrum_type: 2
charge: -1
Formula: C12H20O5
SMILES: CCCC1C(C(/C=C/CCC(C(=O)O1)O)O)O
Method: HCD
Collision_energy: [28.333334]
Isolation_window: 4.0
Ion_mode: N
Num Peaks: 108
59.0130	17.3
71.0131	3.0
71.0494	2.7
72.9923	5.6
73.0108	2.4
73.0286	3.4
75.0079	1.6
83.0494	3.6
85.0287	2.9
87.0079	9.4
87.0443	5.8
88.0396	1.8
94.0290	3.6
95.0494	3.4
97.0287	2.8
97.0650	3.0
98.0240	1.5
99.0079	11.5
99.0443	3.5
101.0235	1.7
109.0287	1.7
109.0651	2.5
111.0081	1.8
111.0444	3.1
112.0395	2.4
113.0236	2.3
113.0600	3.3
114.0552	2.3
115.0757	1.5
116.0711	1.8
121.0652	4.6
123.0444	2.9
123.0808	6.7
125.0236	2.1
125.0602	3.6
125.0964	2.4
126.0555	1.7
127.0393	3.5
127.0504	3.9
127.0753	1.6
128.0344	2.1
128.0709	4.3
130.0867	6.9
135.0809	1.5
137.0598	2.5
137.0968	1.8
139.0398	2.9
139.0761	2.4
149.0601	2.0
151.0397	1.5
151.0757	6.8
153.0551	3.9
153.0915	2.8
153.1280	1.8
155.0707	2.2
156.1025	2.5
156.9958	1.5
163.1122	2.6
165.0551	1.6
166.0865	1.9
167.0707	4.1
171.1019	2.9
179.0703	1.8
181.0503	1.5
181.0866	2.1
181.1228	10.9
183.0660	1.6
183.1020	2.5
183.1384	1.7
197.0815	2.8
197.1308	7.6
197.1532	2.3
198.0588	2.4
198.1500	2.7
199.0615	1.7
199.0966	1.6
199.1335	11.5
199.1815	5.5
200.0923	5.2
207.1023	10.8
211.0606	1.7
225.0768	1.7
225.1131	50.8
225.1494	1.9
226.1165	6.3
227.1291	3.8
241.0716	18.0
241.1197	10.9
241.1448	20.9
241.2172	8.1
242.0750	4.3
242.1041	5.6
242.1462	4.8
242.1771	1.5
242.2199	1.5
243.0513	2.3
243.0874	28.7
243.1239	100.0
243.1647	13.6
243.1695	13.8
244.0862	4.1
244.1260	12.9
244.1566	3.1
244.1762	1.6
245.0462	2.7
245.0666	7.6
245.1030	5.4
245.1393	14.3

Name: (5R,9S)-5,9-dimethyl-14-methylidenetetracyclo(11.2.1.01,10.04,9)hexadecane-5-carboxylic acid
PrecursorMZ: 301.21708
RT: 1.0954
ExactMass: 302.224580195
Spectrum_type: 2
charge: -1
Formula: C20H30O2
SMILES: C[C@@]12CCC[C@@](C1CCC34C2CCC(C3)C(=C)C4)(C)C(=O)O
Method: HCD
Collision_energy: [28.333334]
Isolation_window: 4.0
Ion_mode: N
Num Peaks: 3
59.0131	11.7
301.2174	100.0
302.2209	20.4

Name: (5xi,6alpha,7beta)-6,11,12-Trihydroxy-7,20-epoxyabieta-8,11,13-trien-20-one
PrecursorMZ: 345.1706
RT: 4.3756
ExactMass: 346.17802393
Spectrum_type: 2
charge: -1
Formula: C20H26O5
SMILES: CC(C)C1=C(C(=C2C(=C1)[C@@H]3[C@@H](C4[C@@]2(CCCC4(C)C)C(=O)O3)O)O)O
Method: HCD
Collision_energy: [28.333334]
Isolation_window: 4.0
Ion_mode: N
Num Peaks: 35
72.9922	1.4
73.0286	1.3
75.0077	1.2
220.0384	0.6
283.1343	0.7
283.1702	0.9
299.1655	4.5
300.0946	1.0
300.1679	1.1
301.1811	7.9
302.1843	1.8
303.1967	1.1
327.1610	1.1
343.2121	3.5
343.2500	1.2
344.0780	0.8
344.1156	1.4
344.1191	1.4
344.1533	1.1
344.2144	1.0
344.2179	0.9
344.2503	0.6
345.1013	2.1
345.1380	0.9
345.1710	100.0
345.2221	1.5
345.2264	3.6
345.2323	1.3
345.2639	6.3
346.0955	0.9
346.1333	1.5
346.1739	21.3
346.2663	1.3
347.1851	3.5
347.1891	2.2

Name: (6S)-4,5,6,7-Tetrahydro-3H-imidazo(4,5-c)pyridine-6-carboxylic acid
PrecursorMZ: 166.06162
RT: 3.9813
ExactMass: 167.069476538
Spectrum_type: 2
charge: -1
Formula: C7H9N3O2
SMILES: C1[C@H](NCC2=C1N=CN2)C(=O)O
Method: HCD
Collision_energy: [28.333334]
Isolation_window: 4.0
Ion_mode: N
Num Peaks: 29
65.0136	5.0
75.0078	32.9
80.0370	4.9
80.9642	7.8
107.0480	14.5
121.0287	58.5
122.0237	5.8
122.0607	7.5
122.0715	100.0
123.0079	5.4
123.0442	9.3
123.0742	4.1
124.0394	11.4
124.9837	4.1
129.0187	9.0
140.0246	9.6
141.0199	5.5
147.0292	5.3
164.0368	5.4
165.0189	13.1
165.0401	51.4
165.0546	3.9
165.0647	4.8
166.0147	11.5
166.0401	12.7
166.0513	8.8
167.0352	90.3
167.9966	14.0
168.0299	24.1

Name: (7,9b-Dihydroxy-6,6,9a-trimethyl-3-oxo-1,5,5a,7,8,9-hexahydrobenzo)e()2(benzofuran-5-yl) hexanoate
PrecursorMZ: 415.18938
RT: 0.8787
ExactMass: 380.21988874
Spectrum_type: 2
charge: -1
Formula: C21H32O6
SMILES: CCCCCC(=O)OC1C=C2C(=O)OCC2(C3(C1C(C(CC3)O)(C)C)C)O
Method: HCD
Collision_energy: [28.333334]
Isolation_window: 4.0
Ion_mode: N
Num Peaks: 34
58.0289	1.3
59.0130	0.7
61.9875	3.8
79.9564	2.5
96.9592	4.0
109.0286	1.7
121.0286	2.6
129.1024	0.8
130.0864	1.3
135.0441	2.1
137.0601	0.9
163.0394	2.9
171.1134	2.0
251.1400	23.7
252.1434	3.1
277.1211	0.8
293.1508	13.4
293.2103	0.6
294.1546	2.0
305.1493	0.7
307.1660	0.6
317.1750	0.9
355.2654	1.1
373.2773	0.8
375.2894	1.1
413.1648	0.7
413.2030	0.8
413.2575	1.0
414.1698	1.9
415.1871	100.0
416.1432	1.4
416.1896	23.1
417.1953	8.9
417.2648	15.5

Name: (7R)-6,7-Dihydro-3,7-dihydroxy-2-(1E)-1-propen-1-ylpyrano(2,3-c)pyrrole-4,5-dione
PrecursorMZ: 222.04047
RT: 5.7739
ExactMass: 223.04807239
Spectrum_type: 2
charge: -1
Formula: C10H9NO5
SMILES: C/C=C/C1=C(C(=O)C2=C(O1)[C@H](NC2=O)O)O
Method: HCD
Collision_energy: [28.333334]
Isolation_window: 4.0
Ion_mode: N
Num Peaks: 71
58.0290	1.7
59.0130	1.2
67.0293	0.9
71.0130	0.5
73.0400	0.6
88.0393	0.5
89.0235	0.7
94.0288	0.5
96.9592	3.0
106.0290	0.7
107.0370	0.5
108.0446	4.5
119.0494	1.9
120.0447	0.5
122.0240	2.4
124.0396	1.4
129.1025	1.0
130.0868	0.7
132.0447	2.4
134.0240	13.9
134.0603	3.1
135.0275	0.9
135.0444	1.2
136.0396	0.6
136.0758	0.5
137.0241	0.5
142.0503	0.6
142.0614	0.9
143.0708	0.6
148.0396	0.9
149.0605	0.4
150.0554	53.2
151.0590	4.6
159.0320	0.7
160.0121	0.5
160.0398	68.7
160.0670	0.5
161.0433	6.2
161.9907	0.7
161.9974	0.4
162.0190	100.0
162.0411	0.7
162.0466	0.7
162.0552	0.7
163.0225	8.4
164.0235	0.6
164.0351	1.0
176.0349	2.0
176.0711	0.4
177.0540	0.6
178.0503	4.4
179.0354	0.4
179.0540	0.5
179.0698	1.2
180.0659	1.0
211.1326	0.5
220.0730	0.8
220.1391	1.4
220.1786	0.5
220.6411	0.5
221.0443	0.6
221.0675	1.1
221.0924	0.7
221.1547	0.6
222.0405	9.3
222.0759	1.7
222.6238	2.0
223.0272	1.9
223.0449	0.9
223.0608	1.3
223.1305	0.4

Name: (8aR,12S,12aR)-12-hydroxy-4-methyl-4,5,6,7,8,8a,12,12a-octahydro-1H-3-benzoxecine-2,9-dione
PrecursorMZ: 251.129
RT: 4.8190888888888885
ExactMass: 252.13615911
Spectrum_type: 2
charge: -1
Formula: C14H20O4
SMILES: CC1CCCC[C@@H]2[C@@H](CC(=O)O1)[C@H](C=CC2=O)O
Method: HCD
Collision_energy: [28.333334]
Isolation_window: 4.0
Ion_mode: N
Num Peaks: 45
59.0130	15.2
79.9564	3.2
80.9643	3.0
83.0494	2.2
86.0238	3.1
87.0078	2.8
96.9592	13.8
122.0605	2.7
130.0864	3.1
137.0962	2.5
138.0550	2.5
139.0507	5.1
151.0631	3.9
161.1333	4.0
162.0916	4.4
163.1486	8.8
164.1073	15.8
179.0822	10.4
189.1277	7.9
205.1210	2.9
206.0810	6.7
206.1164	2.7
207.0659	3.3
207.1038	3.0
207.1381	100.0
208.0973	16.3
208.1425	11.3
209.1155	9.9
209.1520	3.0
249.0799	22.2
249.5816	25.1
250.0773	18.0
250.1068	8.4
250.1452	9.0
250.5802	2.8
251.0534	6.0
251.0933	13.5
251.1301	18.3
251.1659	3.9
251.6145	2.1
252.0855	8.5
252.1321	11.3
253.0696	10.7
253.1084	17.4
253.1440	8.1

Name: (9-hydroxy-5,8-dimethyl-1-methylidene-2,6-dioxo-4,8a,9,9a-tetrahydro-3aH-azuleno(6,7-b)furan-4-yl) 3-methylbut-2-enoate
PrecursorMZ: 357.13438
RT: 2.7167
ExactMass: 358.14163842
Spectrum_type: 2
charge: -1
Formula: C20H22O6
SMILES: CC1=CC(=O)C2=C(C(C3C(C(C12)O)C(=C)C(=O)O3)OC(=O)C=C(C)C)C
Method: HCD
Collision_energy: [28.333334]
Isolation_window: 4.0
Ion_mode: N
Num Peaks: 41
59.0129	1.4
61.9875	5.1
71.0129	1.1
79.9565	2.2
80.9643	3.9
85.0286	1.3
87.0079	5.1
96.9592	9.9
105.0183	3.6
109.0288	1.3
113.0237	1.6
114.0552	1.2
125.0237	2.2
125.0601	6.0
127.0757	4.3
143.0343	1.6
151.0393	1.4
159.0808	3.5
169.0501	2.0
187.0760	7.8
197.0451	2.9
203.0710	7.2
205.0863	2.2
229.0872	3.1
231.0502	10.3
245.0818	28.4
246.0853	4.9
255.0662	1.7
273.0767	3.4
313.1091	1.4
329.1401	2.3
355.1046	4.1
355.3210	1.8
356.1104	3.2
356.1448	1.3
357.0981	6.6
357.1352	100.0
358.0971	3.1
358.1341	18.6
359.0790	5.9
359.1150	4.2

Name: (9E)-12-hydroxyoctadec-9-enoic acid
PrecursorMZ: 297.24292
RT: 1.0295
ExactMass: 298.25079494
Spectrum_type: 2
charge: -1
Formula: C18H34O3
SMILES: CCCCCCC(C/C=C/CCCCCCCC(=O)O)O
Method: HCD
Collision_energy: [28.333334]
Isolation_window: 4.0
Ion_mode: N
Num Peaks: 20
59.0129	19.9
249.2221	1.1
251.2377	29.6
252.2411	5.6
253.2533	17.6
271.2273	1.3
279.2328	1.1
295.2278	6.7
295.2636	4.6
296.2308	3.6
296.2662	2.0
297.1535	3.4
297.1715	0.7
297.2431	100.0
297.2788	8.2
297.3129	0.7
298.1555	0.6
298.2465	19.4
298.2826	1.8
299.2587	49.3

Name: (9E)-5,6-Dihydroxy-4-methoxy-9,13,14-trimethyl-16-(2-methylpropyl)-17-azatricyclo)9.7.0.01,15(octadeca-9,12-diene-2,18-dione
PrecursorMZ: 432.27592
RT: 0.6211
ExactMass: 433.28282334
Spectrum_type: 2
charge: -1
Formula: C25H39NO5
SMILES: CC1C2C(NC(=O)C23C(/C=C(/CCC(C(C(CC3=O)OC)O)O)\C)C=C1C)CC(C)C
Method: HCD
Collision_energy: [28.333334]
Isolation_window: 4.0
Ion_mode: N
Num Peaks: 27
96.9591	7.9
114.0552	4.0
130.0864	1.2
132.0446	2.0
158.0605	8.5
165.1029	2.6
179.1181	2.4
265.1347	2.7
309.1252	1.9
387.2543	3.8
388.2568	2.8
389.2700	100.0
390.2733	26.4
391.2852	45.0
392.2887	2.3
407.2803	6.6
408.2833	1.6
430.1970	1.6
431.2113	38.5
431.3098	3.5
432.2156	9.8
432.3254	1.2
433.2018	2.3
433.2403	1.5
433.2930	2.1
433.3328	3.5
434.2071	2.7

Name: (9Z)-5,8,11-Trihydroxyoctadec-9-enoic acid
PrecursorMZ: 329.23345
RT: 4.5928
ExactMass: 330.24062418
Spectrum_type: 2
charge: -1
Formula: C18H34O5
SMILES: CCCCCCCC(/C=C\C(CCC(CCCC(=O)O)O)O)O
Method: HCD
Collision_energy: [28.333334]
Isolation_window: 4.0
Ion_mode: N
Num Peaks: 85
57.0337	0.8
59.0130	1.5
71.0131	1.3
72.9923	2.2
73.0286	0.7
74.0240	0.8
78.9582	0.8
79.9565	1.2
80.9643	1.6
85.0286	1.3
87.0079	1.9
96.9592	2.8
97.4663	1.0
99.0442	0.7
99.0806	4.2
109.0290	1.0
111.0442	0.8
116.0709	1.4
119.0493	1.0
123.0445	0.9
125.0237	0.7
125.0964	0.8
127.1120	2.7
128.0344	1.0
129.0913	0.7
130.0866	4.7
135.0445	1.5
139.1121	6.1
141.0665	0.7
155.1436	0.7
157.1228	1.1
161.0474	1.4
164.0347	0.9
171.1021	14.2
172.1057	1.5
183.1386	4.3
185.1651	0.8
193.0376	1.5
193.1229	1.4
199.0766	0.6
209.1183	1.1
211.1335	28.2
212.1370	4.1
229.1443	17.1
230.1479	2.2
239.1076	1.4
240.1111	2.7
243.1754	3.0
250.0866	1.7
251.0951	1.2
255.1025	0.8
267.2323	0.9
268.0981	0.9
269.0824	0.7
283.0989	0.8
283.2285	1.1
284.0965	1.8
284.1034	2.2
284.2337	1.0
285.0731	0.7
285.1186	0.9
286.1098	0.9
287.0918	1.0
287.1657	1.7
293.2122	1.5
311.2227	1.6
327.2184	2.4
327.2668	0.7
328.0796	2.6
328.0875	3.5
328.1882	1.2
328.2223	7.0
329.0835	2.1
329.1063	3.1
329.1203	0.8
329.1481	1.0
329.2335	100.0
329.3157	0.7
330.0991	7.7
330.1361	0.8
330.2367	20.3
331.1201	4.9
331.1559	9.7
331.1909	0.9
331.2480	9.5

Name: (E)-2,7-dimethyloct-4-enedioic acid
PrecursorMZ: 199.09715
RT: 2.4277
ExactMass: 200.10485899
Spectrum_type: 2
charge: -1
Formula: C10H16O4
SMILES: CC(C/C=C/CC(C)C(=O)O)C(=O)O
Method: HCD
Collision_energy: [28.333334]
Isolation_window: 4.0
Ion_mode: N
Num Peaks: 19
59.0129	1.1
83.0494	1.6
109.0649	1.1
111.0442	1.3
112.0504	1.1
128.0345	1.5
136.0762	1.7
137.0963	7.8
139.1121	24.0
155.1070	100.0
156.1106	8.9
181.0862	2.6
183.1020	8.4
199.0595	1.1
199.0736	1.1
199.0970	27.0
200.1018	2.6
201.0742	1.6
201.1128	49.0

Name: (E)-2-(hydroxymethyl)-3-(3-oxo-5-propan-2-yl-4,5,6,7-tetrahydro-1H-2-benzofuran-4-yl)prop-2-enoic acid
PrecursorMZ: 279.12375
RT: 4.60685
ExactMass: 280.13107373
Spectrum_type: 2
charge: -1
Formula: C15H20O5
SMILES: CC(C)C1CCC2=C(C1/C=C(\CO)/C(=O)O)C(=O)OC2
Method: HCD
Collision_energy: [28.333334]
Isolation_window: 4.0
Ion_mode: N
Num Peaks: 79
59.0130	0.3
69.4693	0.2
71.0130	0.2
72.9923	0.7
73.0286	0.2
79.9564	0.6
80.9643	0.4
87.0078	0.8
96.9592	1.9
97.4645	0.2
111.0806	0.3
113.0349	0.2
121.0286	0.3
122.0602	0.3
123.0443	0.3
124.0759	0.2
129.0549	0.5
130.0861	0.3
135.0445	0.3
136.0758	0.2
178.0501	0.3
189.1279	0.7
190.0872	0.3
191.1437	5.0
192.1467	0.6
194.0573	0.4
199.1338	0.2
202.1238	0.3
205.1224	0.3
217.0869	0.5
217.1231	7.3
218.1263	1.2
235.0846	0.8
235.0949	0.6
235.0983	0.2
235.1338	100.0
235.1723	0.9
235.1827	0.6
236.0722	1.3
236.1371	15.3
237.1388	1.0
237.1856	0.2
245.1294	0.6
246.1331	0.2
251.0710	0.3
261.1135	0.7
261.1498	0.4
277.1559	0.6
278.0385	0.4
278.0464	0.5
278.0734	0.2
278.1057	0.5
278.1109	0.4
278.1392	0.3
279.0566	0.3
279.0611	0.6
279.0641	0.3
279.0721	0.6
279.0911	1.9
279.1238	95.3
279.1553	0.5
279.1587	0.2
279.1750	0.3
279.1882	0.6
279.2289	0.3
279.2326	0.9
280.0817	0.6
280.0885	0.5
280.0926	0.3
280.1271	15.6
280.1550	0.5
280.6183	0.3
281.0417	0.3
281.0700	0.4
281.1041	0.6
281.1311	1.2
281.1388	0.6
281.1758	0.6
281.2482	1.3

Name: (E)-2-decylpent-2-enedioic acid
PrecursorMZ: 269.17576
RT: 3.0224
ExactMass: 270.18310931
Spectrum_type: 2
charge: -1
Formula: C15H26O4
SMILES: CCCCCCCCCC/C(=C\CC(=O)O)/C(=O)O
Method: HCD
Collision_energy: [28.333334]
Isolation_window: 4.0
Ion_mode: N
Num Peaks: 46
59.0131	1.0
69.2394	0.7
79.9565	0.7
80.9643	0.5
83.0494	0.5
87.0444	0.6
96.9592	1.8
109.0648	0.5
115.0392	0.6
115.0756	2.5
138.0679	3.8
139.1117	0.7
153.0915	10.9
154.0974	1.5
168.1151	1.8
183.1145	0.5
207.1392	0.5
207.1751	2.7
209.1542	0.5
225.1857	6.0
226.1895	0.8
227.0727	0.6
251.1647	1.9
267.1329	0.5
267.1604	1.6
267.1964	0.9
267.6355	1.2
267.6990	0.7
268.1409	1.4
268.1636	0.8
268.2047	3.0
268.6429	0.7
268.7055	1.0
269.0669	0.6
269.1148	0.5
269.1307	1.1
269.1759	100.0
269.2373	0.7
269.2501	0.5
270.0978	1.2
270.1189	0.6
270.1407	0.8
270.1794	16.0
271.0795	0.6
271.1511	1.0
271.1906	6.4

Name: (E)-3-(3,4-dihydroxy-5-((E)-4-hydroxy-3-methoxystyryl)phenyl)acrylic acid
PrecursorMZ: 327.08748
RT: 6.2373
Spectrum_type: 2
charge: -1
SMILES: OC(/C=C/C1=CC(O)=C(O)C(/C=C/C2=CC=C(O)C(OC)=C2)=C1)=O
Method: HCD
Collision_energy: [28.333334]
Isolation_window: 4.0
Ion_mode: N
Num Peaks: 31
59.0130	4.4
93.0335	2.3
135.0308	1.7
135.0443	2.6
145.0652	3.9
181.0503	1.8
213.0920	3.6
222.0684	2.8
223.0761	9.9
224.0807	1.9
225.0918	24.5
235.0765	1.6
237.0919	39.4
238.0954	5.9
239.1076	86.1
240.1110	14.1
253.0875	2.3
265.0871	24.2
266.0904	5.4
267.0653	1.6
283.0977	28.9
284.1008	5.0
285.1133	25.1
309.0774	6.2
325.0931	1.7
325.1843	10.3
326.1878	3.3
327.0874	100.0
328.0906	19.0
329.0914	2.7
329.1027	3.5

Name: (E)-3-(4-acetyloxy-2,3-dihydroxy-2,5,5,8a-tetramethyl-3,4,4a,6,7,8-hexahydro-1H-naphthalen-1-yl)prop-2-enoic acid
PrecursorMZ: 353.19732
RT: 2.7747
ExactMass: 354.20423867
Spectrum_type: 2
charge: -1
Formula: C19H30O6
SMILES: CC(=O)OC1C2C(CCCC2(C(C(C1O)(C)O)/C=C/C(=O)O)C)(C)C
Method: HCD
Collision_energy: [28.333334]
Isolation_window: 4.0
Ion_mode: N
Num Peaks: 89
59.0130	6.0
61.9875	5.9
69.0338	1.6
71.0130	3.6
72.9921	2.5
74.0239	1.4
80.9644	1.8
83.0491	2.4
85.0285	2.4
87.0079	3.4
88.0395	1.7
89.0235	4.1
97.0648	2.2
99.0444	1.5
101.0237	2.1
102.0552	1.6
103.0392	5.6
109.0650	1.5
111.0444	1.4
113.0238	2.5
114.0552	6.0
115.0027	1.7
115.0391	1.7
116.0708	4.4
124.0395	3.9
128.0345	8.3
130.0866	1.7
134.0603	1.4
135.0445	1.8
136.0763	1.7
138.0552	4.8
146.0457	1.7
149.0602	1.9
152.0711	1.5
154.0503	1.6
159.0656	1.6
170.0452	5.5
178.0500	4.1
181.1227	1.4
182.0806	1.5
191.0561	4.2
193.0498	4.5
207.1386	2.7
235.0608	6.5
245.1293	1.7
247.2067	9.3
248.2105	1.5
249.2222	3.7
251.1651	4.4
253.1197	2.4
263.2018	3.7
264.2049	1.9
265.2174	7.5
266.2214	2.0
273.1861	2.7
275.2021	2.2
291.1968	14.6
292.2010	2.5
293.1767	1.4
293.2132	7.1
307.1923	3.6
308.1950	2.0
309.2071	17.7
310.1400	2.0
310.2096	3.3
311.1866	2.3
311.2237	3.9
317.1750	1.8
335.1249	2.2
335.1876	16.4
336.1238	1.8
336.1898	3.1
337.1664	1.7
337.2022	11.1
351.1821	9.4
351.2194	2.1
352.1078	3.1
352.1433	11.7
352.1866	7.1
353.0980	2.5
353.1321	7.9
353.1626	5.3
353.1981	100.0
354.1281	17.0
354.1673	1.8
354.2014	19.5
355.1110	3.7
355.1761	21.7
355.2141	42.5

Name: (E)-4-((1R,4aS,5R,8aS)-6-hydroxy-5-(hydroxymethyl)-5,8a-dimethyl-2-methylidene-3,4,4a,6,7,8-hexahydro-1H-naphthalen-1-yl)-2-(1,2-dihydroxyethyl)but-2-enoic acid
PrecursorMZ: 367.2127
RT: 3.0756
ExactMass: 368.21988874
Spectrum_type: 2
charge: -1
Formula: C20H32O6
SMILES: C[C@@]12CCC([C@@]([C@H]1CCC(=C)[C@H]2C/C=C(\C(CO)O)/C(=O)O)(C)CO)O
Method: HCD
Collision_energy: [28.333334]
Isolation_window: 4.0
Ion_mode: N
Num Peaks: 12
59.0128	2.7
137.0964	4.2
275.2022	2.6
305.2121	4.2
331.1914	3.5
349.2020	5.0
365.1965	12.1
365.2357	4.7
366.1994	9.2
367.2126	100.0
368.2159	23.5
369.2285	10.6

Name: (E)-4-(6,8-dihydroxy-3-methyl-1-oxoisochromen-7-yl)-2-methoxybut-3-enoic acid
PrecursorMZ: 305.06681
RT: 2.8182
ExactMass: 306.07395278
Spectrum_type: 2
charge: -1
Formula: C15H14O7
SMILES: CC1=CC2=CC(=C(C(=C2C(=O)O1)O)/C=C/C(C(=O)O)OC)O
Method: HCD
Collision_energy: [28.333334]
Isolation_window: 4.0
Ion_mode: N
Num Peaks: 33
59.0129	3.4
61.9875	2.7
85.0285	2.5
113.0235	6.5
129.0186	4.2
135.0445	1.5
159.0444	1.5
161.0237	31.9
161.0600	2.4
162.0271	2.5
171.0445	3.1
173.0602	4.9
175.0394	3.3
187.0761	2.8
189.0551	2.2
199.0758	13.0
200.0795	1.3
201.0552	14.3
202.0589	1.6
203.0714	1.6
213.0553	5.3
217.0864	1.8
225.0553	2.6
231.0660	19.2
232.0691	3.0
243.0661	15.9
244.0700	1.7
261.0772	3.6
275.0563	3.7
305.0666	100.0
305.0961	2.8
306.0699	16.3
307.0725	1.4

Name: (E)-4-)(1R,4aS,5R,8aS)-6-hydroxy-5-(hydroxymethyl)-5,8a-dimethyl-2-methylidene-3,4,4a,6,7,8-hexahydro-1H-naphthalen-1-yl(-2-(1,2-dihydroxyethyl)but-2-enoic acid
PrecursorMZ: 367.21235
RT: 6.0177
ExactMass: 368.21988874
Spectrum_type: 2
charge: -1
Formula: C20H32O6
SMILES: C[C@@]12CCC([C@@]([C@H]1CCC(=C)[C@H]2C/C=C(\C(CO)O)/C(=O)O)(C)CO)O
Method: HCD
Collision_energy: [28.333334]
Isolation_window: 4.0
Ion_mode: N
Num Peaks: 10
114.0550	8.8
279.2328	8.2
305.2115	17.0
323.2224	14.0
349.2016	15.2
365.1970	14.6
366.2027	11.7
367.2123	100.0
368.2158	20.9
369.2280	17.9

Name: (E)-4-hydroxy-4-(4-hydroxy-2-((E)-6-oxohept-1-enyl)cyclopentyl)but-2-enoic acid
PrecursorMZ: 295.15483
RT: 4.9594
ExactMass: 296.16237386
Spectrum_type: 2
charge: -1
Formula: C16H24O5
SMILES: CC(=O)CCC/C=C/C1CC(CC1C(/C=C/C(=O)O)O)O
Method: HCD
Collision_energy: [28.333334]
Isolation_window: 4.0
Ion_mode: N
Num Peaks: 25
96.9591	1.3
121.0653	1.3
127.0756	10.7
128.0789	0.8
129.0549	0.9
131.0489	1.0
135.0304	1.0
143.0707	1.4
147.0808	5.4
149.0600	14.1
150.0636	1.1
163.0753	1.3
215.1436	1.1
233.1542	2.7
251.1649	4.2
259.1340	2.6
277.1444	12.7
278.1476	2.2
294.0448	3.0
295.0860	1.0
295.1550	100.0
295.2261	1.5
296.1583	16.7
297.1534	1.4
297.1652	2.0

Name: (E)-5-(4-methoxy-5-methyl-6-oxopyran-2-yl)-3-methylhex-4-enoic acid
PrecursorMZ: 265.10807
RT: 0.5474
ExactMass: 266.11542367
Spectrum_type: 2
charge: -1
Formula: C14H18O5
SMILES: CC1=C(C=C(OC1=O)/C(=C/C(C)CC(=O)O)/C)OC
Method: HCD
Collision_energy: [28.333334]
Isolation_window: 4.0
Ion_mode: N
Num Peaks: 28
59.0129	0.6
96.9590	6.6
109.0649	6.6
110.0683	0.4
111.0441	3.6
123.0075	0.3
133.0649	1.8
151.0755	2.4
152.0788	0.3
177.1277	6.1
178.0625	0.5
178.1313	0.7
203.1071	3.3
204.1102	0.5
221.1178	10.6
222.1212	1.2
247.0971	8.3
248.1009	1.2
263.1280	0.5
265.0495	0.6
265.0623	0.5
265.1079	100.0
265.1474	21.8
265.1678	0.8
266.1112	14.0
266.1505	2.7
267.1170	0.9
267.1465	0.3

Name: (E)-9-hydroxy-11-(3-hydroxy-5-(1-hydroxypropyl)tetrahydrofuran-2-yl)undec-10-enoic acid
PrecursorMZ: 343.21255
RT: 4.87
ExactMass: 344.21988874
Spectrum_type: 2
charge: -1
Formula: C18H32O6
SMILES: CCC(C1CC(C(O1)/C=C/C(CCCCCCCC(=O)O)O)O)O
Method: HCD
Collision_energy: [28.333334]
Isolation_window: 4.0
Ion_mode: N
Num Peaks: 16
91.0392	7.2
123.0810	3.2
171.1021	7.2
197.1180	2.7
201.1129	6.5
209.1181	12.3
233.0720	3.3
250.0706	4.2
263.0826	6.4
265.1809	2.7
289.1804	2.7
307.0729	8.9
325.2038	3.1
343.2129	100.0
344.2166	19.2
345.2283	38.9

Name: (E)-undec-2-enedioic acid
PrecursorMZ: 213.11287
RT: 5.6543
ExactMass: 214.12050905
Spectrum_type: 2
charge: -1
Formula: C11H18O4
SMILES: C(CCC/C=C/C(=O)O)CCCC(=O)O
Method: HCD
Collision_energy: [28.333334]
Isolation_window: 4.0
Ion_mode: N
Num Peaks: 10
151.1122	3.3
153.1278	29.5
169.1228	15.5
195.1025	2.1
197.1179	27.8
213.1129	9.0
213.1855	1.7
213.6184	1.6
214.1169	1.6
215.1286	100.0

Name: (E,E)-sorbate
PrecursorMZ: 111.04421
RT: 7.995
ExactMass: 111.044604462
Spectrum_type: 2
charge: -1
Formula: C6H7O2-
SMILES: C/C=C/C=C/C(=O)[O-]
Method: HCD
Collision_energy: [28.333334]
Isolation_window: 4.0
Ion_mode: N
Num Peaks: 39
55.0180	2.7
57.0337	2.3
58.0290	2.5
66.0340	7.8
67.0180	6.3
67.0293	16.0
68.0132	2.7
68.9947	2.3
69.0337	5.2
70.0290	2.3
71.0131	1.4
79.9565	29.6
81.0337	15.6
81.9522	1.6
82.0289	5.0
83.0129	3.9
83.0493	17.3
84.0081	1.8
84.0444	1.6
85.0286	5.8
93.0338	4.7
108.0209	3.7
109.0286	22.4
109.0399	9.5
109.0652	2.4
110.0240	14.3
110.0331	2.6
110.0359	4.1
110.0604	1.5
111.0079	21.6
111.0191	27.0
111.0274	2.0
111.0443	100.0
111.0809	2.0
112.0225	1.5
112.0395	11.0
112.0498	13.0
113.0234	3.0
113.0348	1.8

Name: (Methylsulfanyl)heptyl glucosinolate
PrecursorMZ: 462.09238
RT: 6.7528
ExactMass: 463.10044502
Spectrum_type: 2
charge: -1
Formula: C15H29NO9S3
SMILES: CSCCCCCCC/C(=N/OS(=O)(=O)O)/SC1C(C(C(C(O1)CO)O)O)O
Method: HCD
Collision_energy: [28.333334]
Isolation_window: 4.0
Ion_mode: N
Num Peaks: 6
51.3450	4.5
96.9592	22.5
259.0131	17.5
462.0926	100.0
463.0953	14.1
464.0908	5.5

Name: (R)-2-hydroxystearic acid
PrecursorMZ: 299.25909
RT: 0.9634
ExactMass: 300.26644501
Spectrum_type: 2
charge: -1
Formula: C18H36O3
SMILES: CCCCCCCCCCCCCCCC[C@H](C(=O)O)O
Method: HCD
Collision_energy: [28.333334]
Isolation_window: 4.0
Ion_mode: N
Num Peaks: 12
61.9875	3.5
115.9196	1.3
255.2331	3.5
281.2486	1.3
297.2434	4.2
298.1556	1.4
298.2472	1.9
299.0201	2.1
299.2591	100.0
300.1101	1.8
300.2624	20.3
301.0722	3.3

Name: (S)-2-(3-(1-methyl-1H-benzo(d)imidazol-5-yl)propanamido)-3-phenylpropanoic acid
PrecursorMZ: 350.15126
RT: 4.6128
ExactMass: 351.15829154
Spectrum_type: 2
charge: -1
Formula: C20H21N3O3
SMILES: CN1C=NC2=C1C=CC(=C2)CCC(=O)N[C@@H](CC3=CC=CC=C3)C(=O)O
Method: HCD
Collision_energy: [28.333334]
Isolation_window: 4.0
Ion_mode: N
Num Peaks: 35
71.0242	9.5
73.0399	15.0
74.0238	13.2
85.0398	11.0
88.0392	6.5
114.0550	8.6
116.0501	6.7
116.0712	7.6
120.0812	8.5
124.0760	9.4
130.0655	8.0
130.0865	29.9
136.0758	10.5
138.0551	10.1
147.0445	13.6
148.0755	7.3
164.0709	22.2
202.0986	18.1
203.0823	14.1
221.0930	28.4
241.1348	7.7
273.1253	6.8
273.1606	27.0
306.1605	7.0
314.2091	6.1
316.1383	8.1
317.1488	16.2
348.1940	7.8
349.1752	29.0
349.2046	28.1
350.1513	100.0
350.2080	25.9
351.1547	27.2
351.1977	9.3
352.2246	7.2

Name: (S)-2-(3-(3-hydroxyisoxazol-5-yl)propanamido)-3-phenylpropanoic acid
PrecursorMZ: 303.09863
RT: 2.7352
ExactMass: 304.10592162
Spectrum_type: 2
charge: -1
Formula: C15H16N2O5
SMILES: C1=CC=C(C=C1)C[C@@H](C(=O)O)NC(=O)CCC2=CC(=O)NO2
Method: HCD
Collision_energy: [28.333334]
Isolation_window: 4.0
Ion_mode: N
Num Peaks: 48
58.0290	48.0
59.0129	5.2
79.9564	7.8
80.9643	12.8
82.0290	4.0
84.0446	9.1
87.0078	6.8
96.0082	9.1
96.9592	5.6
109.0161	100.0
110.0189	5.3
112.0395	8.8
116.0708	3.8
118.0654	4.1
125.0240	5.6
128.0345	3.4
129.1025	6.7
130.0865	6.4
147.0445	6.8
154.0508	3.7
155.0455	45.9
156.0662	4.7
157.0653	4.2
157.0975	6.7
164.0710	8.3
168.0536	7.9
198.0918	3.7
199.0879	4.1
200.0714	35.3
201.0758	5.0
216.1033	3.4
216.1385	3.5
217.1001	4.9
233.1654	4.7
241.0985	4.1
244.0614	74.3
245.0649	9.2
258.1114	3.5
259.1097	18.9
260.0889	3.8
301.0895	4.8
301.1783	5.1
302.1035	7.0
303.0685	3.9
303.0992	55.4
304.1212	7.8
305.1118	5.8
305.1513	23.1

Name: (S)-3-(1-(2-(5-methoxy-1H-indol-3-yl)ethyl)-2,5-dioxoimidazolidin-4-yl)propanoic acid
PrecursorMZ: 344.12477
RT: 4.6291
ExactMass: 345.13247072
Spectrum_type: 2
charge: -1
Formula: C17H19N3O5
SMILES: COC1=CC2=C(C=C1)NC=C2CCN3C(=O)[C@@H](NC3=O)CCC(=O)O
Method: HCD
Collision_energy: [28.333334]
Isolation_window: 4.0
Ion_mode: N
Num Peaks: 99
58.0289	5.2
59.0129	8.7
63.9615	4.1
71.0129	3.3
72.9921	4.4
74.0238	96.2
79.9563	16.1
80.9641	14.6
82.0288	3.1
84.0444	4.7
85.0285	3.6
86.0239	2.8
87.0078	7.9
88.0396	4.0
96.9591	16.5
98.0238	46.9
109.0397	3.9
110.0241	3.5
112.0395	2.9
113.0347	3.3
114.0550	3.2
115.0754	16.5
116.0496	3.0
116.0707	5.6
118.0503	5.9
118.0652	53.5
119.0688	3.1
124.0396	3.0
127.0504	30.5
128.0343	5.6
129.1024	36.0
130.0864	18.3
137.0711	6.3
138.0552	11.2
140.0707	3.1
143.1180	16.3
147.0442	3.8
152.0708	3.2
152.9952	3.1
153.0295	6.0
153.0663	3.5
155.0817	4.1
157.0971	3.6
162.0548	4.6
164.0709	15.1
169.0979	3.3
171.1013	3.5
172.0759	14.5
173.0928	4.1
179.0458	7.6
181.0611	58.8
181.0969	5.9
182.0647	4.8
189.0576	5.6
189.1028	16.9
191.0825	9.0
196.1444	3.0
197.1656	4.8
200.0713	3.2
201.1120	4.5
203.0824	6.5
215.1035	5.9
216.0662	7.6
217.1190	3.0
225.1606	27.3
243.0774	7.2
243.1712	6.5
244.0994	4.3
256.2027	46.7
257.1891	3.2
257.2074	3.9
267.1023	5.7
269.0808	5.5
282.1237	3.4
282.2187	5.5
283.0973	40.0
284.1038	24.7
285.1083	4.3
299.0929	4.6
300.1362	71.0
300.1922	93.0
301.1394	11.9
301.1933	14.8
302.1470	3.0
316.0944	9.6
342.2021	3.5
343.1189	84.5
343.2115	42.1
343.2484	3.4
344.1241	100.0
344.1610	12.1
344.2179	92.6
345.1009	9.6
345.1327	21.4
345.1709	43.8
345.2252	28.4
346.0891	3.9
346.1342	10.2
346.1751	5.9

Name: (S)-Pmpa
PrecursorMZ: 286.07077
RT: 8.5184
ExactMass: 287.07834094
Spectrum_type: 2
charge: -1
Formula: C9H14N5O4P
SMILES: C[C@@H](CN1C=NC2=C(N=CN=C21)N)OCP(=O)(O)O
Method: HCD
Collision_energy: [28.333334]
Isolation_window: 4.0
Ion_mode: N
Num Peaks: 12
62.9632	6.3
80.9737	9.7
110.9843	16.2
134.0463	79.3
135.0510	3.2
151.0158	24.7
243.1349	4.6
284.2675	15.7
285.2709	3.1
286.0708	100.0
287.0740	11.5
287.1588	2.5

Name: (S)-tert-butyl 2-(4-(3-ethylureido)phenyl)-4-(3-methylmorpholino)-5,6-dihydropyrido(3,4-d)pyrimidine-7(8H)-carboxylate
PrecursorMZ: 495.27304
RT: 1.0579
ExactMass: 496.27980365
Spectrum_type: 2
charge: -1
Formula: C26H36N6O4
SMILES: CCNC(=O)NC1=CC=C(C=C1)C2=NC3=C(CCN(C3)C(=O)OC(C)(C)C)C(=N2)N4CCOC[C@@H]4C
Method: HCD
Collision_energy: [28.333334]
Isolation_window: 4.0
Ion_mode: N
Num Peaks: 17
55.0289	1.3
55.0319	2.7
59.0129	1.5
73.0286	100.0
74.0319	2.7
78.9581	6.6
87.0442	8.3
152.9951	19.5
209.0216	3.5
211.2062	5.5
347.1994	5.8
348.2029	1.2
421.2367	4.1
451.3451	1.3
495.2733	63.8
496.2764	15.6
497.2811	2.0

Name: (Z)-2-octylpent-2-enedioic acid
PrecursorMZ: 241.14456
RT: 0.621
ExactMass: 242.15180918
Spectrum_type: 2
charge: -1
Formula: C13H22O4
SMILES: CCCCCCCC/C(=C/CC(=O)O)/C(=O)O
Method: HCD
Collision_energy: [28.333334]
Isolation_window: 4.0
Ion_mode: N
Num Peaks: 34
89.0234	0.3
99.0807	0.2
109.0649	0.2
111.0807	0.2
154.0627	0.4
155.1434	1.9
167.1433	0.5
171.1385	0.3
179.1067	0.3
195.1387	6.2
196.1420	1.6
197.0590	0.2
197.0945	0.1
197.1053	0.2
197.1162	0.6
197.1239	0.5
197.1542	100.0
197.1846	0.5
197.1918	0.8
197.2030	0.2
197.2387	0.2
198.1575	12.6
199.1331	0.2
199.1594	0.6
223.0269	0.2
224.0282	0.2
239.1288	0.5
240.1318	0.1
241.1443	9.2
241.1786	0.3
241.2162	0.5
242.1478	1.3
243.1175	0.2
243.1958	0.4

Name: (Z)-5,8,11-trihydroxyoctadec-9-enoic acid
PrecursorMZ: 329.23294
RT: 2.54
ExactMass: 330.24062418
Spectrum_type: 2
charge: -1
Formula: C18H34O5
SMILES: CCCCCCCC(/C=C\C(CCC(CCCC(=O)O)O)O)O
Method: HCD
Collision_energy: [28.333334]
Isolation_window: 4.0
Ion_mode: N
Num Peaks: 54
59.0129	1.2
74.0238	2.0
79.9564	1.0
88.0396	1.3
93.0334	1.1
96.9590	1.7
99.0806	3.9
116.0707	1.2
127.1121	3.1
130.0865	3.0
136.0394	1.0
139.1120	7.1
157.1227	1.6
162.0223	1.0
171.1019	20.1
172.1053	2.3
180.0331	3.2
181.0498	1.9
183.1383	2.5
193.1226	1.0
201.1128	1.7
211.1333	17.5
212.1370	2.4
229.1441	11.8
230.1480	1.2
242.1872	1.2
249.2220	6.5
265.2173	1.6
267.2327	2.4
283.1917	1.2
284.1950	1.3
285.1863	1.2
286.1778	2.5
293.2121	4.5
309.2060	1.1
311.2226	8.3
312.2256	1.6
327.2176	8.3
328.0226	1.6
328.2198	10.3
328.2515	1.2
329.0939	5.6
329.1363	1.6
329.1463	2.8
329.1762	2.5
329.2331	100.0
330.0995	2.0
330.1407	1.1
330.2027	4.0
330.2369	18.3
331.1273	1.5
331.1524	1.5
331.1913	21.4
331.2480	8.3

Name: (Z)-8-((Z)-octadec-9-enoyl)oxyoctadec-9-enoic acid
PrecursorMZ: 561.48898
RT: 0.9328
ExactMass: 562.49611058
Spectrum_type: 2
charge: -1
Formula: C36H66O4
SMILES: CCCCCCCC/C=C\CCCCCCCC(=O)OC(CCCCCCC(=O)O)/C=C\CCCCCCCC
Method: HCD
Collision_energy: [28.333334]
Isolation_window: 4.0
Ion_mode: N
Num Peaks: 16
62.3895	0.5
62.6098	0.6
62.6134	1.4
279.2329	28.9
280.2363	5.0
281.1842	0.7
281.1979	0.5
281.2485	100.0
281.3000	0.6
281.3122	0.7
282.2518	1.3
299.2591	19.9
300.2625	0.7
561.4891	10.4
562.4921	3.8
563.5045	31.5

Name: )(2S,3S)-2-)(E,3R,4S)-3,4-dihydroxypent-1-enyl(-6-oxo-2,3-dihydropyran-3-yl( (E)-2-methylbut-2-enoate
PrecursorMZ: 295.11883
RT: 0.5699
ExactMass: 296.12598835
Spectrum_type: 2
charge: -1
Formula: C15H20O6
SMILES: C/C=C(\C)/C(=O)O[C@H]1C=CC(=O)O[C@H]1/C=C/[C@H]([C@H](C)O)O
Method: HCD
Collision_energy: [28.333334]
Isolation_window: 4.0
Ion_mode: N
Num Peaks: 35
59.0130	0.7
96.9592	1.6
105.0701	1.0
123.0807	3.3
125.0600	10.6
149.0601	3.3
149.0960	0.6
151.1121	0.5
167.0708	2.7
189.1279	1.4
192.1149	0.5
207.1386	1.0
221.1180	1.1
233.1180	2.2
251.1288	9.0
251.2380	0.6
252.1326	1.2
253.1447	1.8
277.1082	6.4
278.1115	1.0
279.1223	0.5
293.1400	0.9
293.1791	1.4
293.6343	0.5
295.0505	0.6
295.1187	100.0
295.1886	0.7
295.2282	2.6
295.2643	5.6
296.1220	16.7
296.2329	0.9
296.2681	1.1
297.1320	16.8
297.2435	14.1
297.2762	0.6

Name: )1-(3,5-Dihydroxyphenyl)-12-hydroxytridecan-2-yl( acetate
PrecursorMZ: 411.2387
RT: 2.5628
ExactMass: 366.24062418
Spectrum_type: 2
charge: -1
Formula: C21H34O5
SMILES: CC(CCCCCCCCCC(CC1=CC(=CC(=C1)O)O)OC(=O)C)O
Method: HCD
Collision_energy: [28.333334]
Isolation_window: 4.0
Ion_mode: N
Num Peaks: 55
59.0129	2.4
71.0128	1.3
83.0492	1.6
87.0077	2.4
89.0232	1.1
96.9591	1.1
97.0648	1.1
101.0234	1.7
109.0285	1.4
113.0233	0.9
114.0549	1.4
129.0547	0.8
135.0288	1.5
135.0440	3.6
141.0548	1.4
165.0398	1.1
167.0455	1.1
207.1745	1.8
235.1446	0.9
251.1646	3.4
269.1750	2.2
287.2376	2.0
305.2480	2.0
323.2585	0.9
331.2279	5.0
332.2318	0.9
333.2426	1.6
347.2224	1.3
348.2249	1.0
349.2377	6.9
350.2412	1.7
351.2533	1.3
365.2335	1.8
366.2355	1.5
367.2486	6.2
368.2524	1.0
375.2174	4.5
376.2236	1.1
377.2340	2.2
391.2122	1.3
392.2146	1.6
393.2282	17.6
394.2317	3.8
395.2440	6.5
409.2218	9.3
410.1141	2.3
410.1688	3.4
410.2268	12.6
411.1200	4.4
411.2389	100.0
412.1081	1.3
412.1327	1.9
412.2452	22.8
413.1118	2.9
413.2558	27.5

Name: )4,5-dihydroxy-3,4-bis(hydroxymethyl)-4a,8,8-trimethyl-5,6,7,8a-tetrahydro-1H-naphthalen-1-yl( octanoate
PrecursorMZ: 447.2519
RT: 0.537
ExactMass: 412.28248899
Spectrum_type: 2
charge: -1
Formula: C23H40O6
SMILES: CCCCCCCC(=O)OC1C=C(C(C2(C1C(CCC2O)(C)C)C)(CO)O)CO
Method: HCD
Collision_energy: [28.333334]
Isolation_window: 4.0
Ion_mode: N
Num Peaks: 30
59.0129	0.5
61.9873	0.3
78.9580	2.9
96.9591	0.5
110.9843	5.2
128.0343	0.9
130.0862	0.4
151.0255	0.6
164.0707	0.5
167.0106	12.1
168.0138	0.5
185.0213	3.4
225.0066	0.3
279.1689	0.8
279.1817	0.5
279.2326	100.0
279.2833	0.6
279.2960	0.7
280.2360	18.4
281.2394	1.2
445.2949	0.3
446.3323	1.0
447.1488	0.7
447.2515	43.1
447.2989	1.2
447.3514	0.7
448.2547	9.9
448.3076	0.4
448.3524	0.3
449.2576	1.0

Name: )5-Acetyloxy-3-(hydroxymethyl)-2-oxo-6-propan-2-ylcyclohex-3-en-1-yl( 3-methylpentanoate
PrecursorMZ: 339.18089
RT: 2.80715
ExactMass: 340.18858861
Spectrum_type: 2
charge: -1
Formula: C18H28O6
SMILES: CCC(C)CC(=O)OC1C(C(C=C(C1=O)CO)OC(=O)C)C(C)C
Method: HCD
Collision_energy: [28.333334]
Isolation_window: 4.0
Ion_mode: N
Num Peaks: 79
57.0337	1.5
59.0129	3.1
61.9874	2.6
71.0127	3.1
72.9921	1.2
79.9563	1.0
80.9642	6.2
83.0492	1.2
85.0285	2.4
87.0077	6.2
89.0234	2.8
94.0287	0.9
97.0647	0.9
101.0234	2.1
103.0025	1.5
108.0444	0.9
109.0285	3.4
113.0234	2.4
114.0550	1.0
115.0390	0.9
128.0345	1.0
129.0184	6.3
135.0442	5.9
137.0598	0.9
151.0503	7.6
159.0289	4.7
161.0445	1.4
165.0395	1.0
168.0769	0.9
173.0923	1.3
177.0396	3.7
179.0334	1.6
180.0777	1.1
181.0494	2.3
189.0549	8.2
193.0618	2.5
195.0500	2.2
207.0476	0.9
233.0454	2.7
233.1906	6.6
234.1941	1.1
235.2062	1.4
249.0615	1.0
251.2008	1.7
258.1088	1.0
259.1341	0.9
259.1702	3.0
261.1854	2.6
276.1088	1.4
277.1447	2.7
277.1804	13.7
278.1834	2.3
279.0902	1.2
279.1958	3.4
293.1741	0.9
294.0769	1.5
295.1911	9.6
296.1241	1.8
296.1947	1.4
297.0978	0.9
297.2060	1.3
303.1591	1.6
305.1753	1.7
321.0844	1.0
321.1705	17.2
322.1735	3.6
323.1861	11.5
337.0780	1.0
337.1658	1.8
337.2026	1.3
338.0630	3.5
338.1678	1.0
339.0951	14.9
339.1809	100.0
339.2122	3.4
340.1121	6.8
340.1842	18.4
341.0855	4.9
341.1963	38.5

Name: )5-Hydroxy-3-(hydroxymethyl)-2-oxo-6-propan-2-ylcyclohex-3-en-1-yl( 3-methylpentanoate
PrecursorMZ: 297.17079
RT: 1.551
ExactMass: 298.17802393
Spectrum_type: 2
charge: -1
Formula: C16H26O5
SMILES: CCC(C)CC(=O)OC1C(C(C=C(C1=O)CO)O)C(C)C
Method: HCD
Collision_energy: [28.333334]
Isolation_window: 4.0
Ion_mode: N
Num Peaks: 99
57.0337	2.8
59.0130	9.8
61.9875	18.4
69.0337	2.9
71.0129	6.1
72.9921	5.4
73.0286	5.0
83.0493	3.4
85.0286	4.0
87.0077	6.9
88.0395	5.9
89.0236	3.9
96.0083	3.0
97.0650	3.5
99.0440	4.3
101.0235	3.7
108.0446	7.6
109.0287	3.9
109.0653	2.7
111.0443	2.7
112.0396	3.6
113.0237	2.8
114.0553	7.3
115.0393	3.0
116.0708	15.2
123.0444	3.8
124.0398	4.0
125.0236	3.8
126.0553	2.7
127.0506	2.7
128.0345	7.9
130.0866	3.6
135.0446	4.2
136.0396	10.0
137.0602	8.5
138.0552	4.5
139.0396	2.9
142.0503	3.8
150.0556	5.3
151.0391	2.8
151.0510	4.0
152.0709	3.2
153.0551	2.7
163.0389	2.9
164.0710	2.6
166.0500	3.4
168.0294	4.2
178.0502	2.8
180.0656	3.4
181.0477	2.8
181.0622	2.7
183.1139	2.6
192.1025	2.9
195.1383	3.0
196.0608	3.7
205.0501	2.8
208.0966	5.1
209.1543	4.2
211.0590	3.6
211.1692	3.9
224.0911	3.6
226.1074	4.6
227.0505	2.7
235.1344	3.1
235.1705	10.1
236.1283	6.4
237.1506	5.0
237.1856	3.9
238.1080	2.9
251.1651	7.9
252.1266	4.5
252.1692	3.7
253.0867	6.4
253.1455	6.1
253.1815	24.3
254.1850	4.6
255.1579	4.3
255.1963	17.7
279.1602	21.2
280.1195	10.5
280.1614	3.4
281.1772	4.4
295.1560	8.4
295.1923	2.6
296.0798	16.8
296.1170	31.9
296.1569	4.9
297.1016	24.0
297.1392	5.9
297.1716	100.0
297.2077	12.9
297.2437	4.1
298.0987	10.4
298.1340	31.9
298.1746	15.3
299.0716	6.3
299.1186	12.4
299.1511	18.8
299.1874	40.8

Name: )5-formyl-4,8-dihydroxy-3-(3-methoxy-3-oxoprop-1-en-2-yl)-8a-methyl-2,3,4,4a,5,6,7,8-octahydro-1H-naphthalen-2-yl( 3,4-dihydroxy-2-methylidenebutanoate
PrecursorMZ: 425.18266
RT: 0.6111
ExactMass: 426.18898253
Spectrum_type: 2
charge: -1
Formula: C21H30O9
SMILES: CC12CC(C(C(C1C(CCC2O)C=O)O)C(=C)C(=O)OC)OC(=O)C(=C)C(CO)O
Method: HCD
Collision_energy: [28.333334]
Isolation_window: 4.0
Ion_mode: N
Num Peaks: 69
57.0335	1.4
59.0130	5.5
79.9563	1.4
80.9643	2.7
83.0127	1.4
87.0443	1.5
96.9592	20.6
99.0806	2.7
101.0599	2.2
109.0285	1.6
110.0601	1.5
111.0442	2.0
113.0596	1.4
124.0759	2.9
125.0598	3.6
130.0866	2.0
139.0758	4.2
141.0185	2.2
141.0550	5.1
159.0657	1.7
167.0106	1.4
167.0709	2.9
181.0856	1.5
183.0660	2.3
195.0659	4.2
209.0817	5.9
209.1172	2.4
210.0842	1.3
223.1336	2.0
225.0759	2.2
235.0976	1.4
237.0774	1.9
249.1127	5.0
251.1288	10.0
252.1328	1.8
253.1069	1.4
255.2329	14.8
256.2363	4.3
263.1286	5.2
265.1092	1.7
267.1238	12.7
268.1269	1.8
277.1436	4.6
278.0792	2.9
279.0866	2.7
279.1226	1.7
281.1392	2.4
283.1188	7.0
335.3331	1.7
358.0725	1.7
363.3262	3.7
365.3411	2.2
367.1393	35.4
368.1435	7.1
381.3378	11.8
382.3417	3.8
383.3535	5.2
423.1474	1.9
423.1982	4.7
423.2432	17.6
423.3386	3.7
424.2010	4.7
424.2463	5.4
424.3514	1.6
425.1802	100.0
425.3612	4.7
426.1836	24.7
427.1389	4.8
427.1909	14.2

Name: 1(4H)-Dibenzofuranone, 2,6-diacetyl-4a,9b-dihydro-3,7,9-trihydroxy-4a-methoxy-8,9b-dimethyl-
PrecursorMZ: 375.10822
RT: 5.8598
ExactMass: 376.11581759
Spectrum_type: 2
charge: -1
Formula: C19H20O8
SMILES: CC1=C(C(=C2C(=C1O)C3(C(=C(C(=O)CC3(O2)OC)C(=O)C)O)C)C(=O)C)O
Method: HCD
Collision_energy: [28.333334]
Isolation_window: 4.0
Ion_mode: N
Num Peaks: 35
59.0128	0.9
61.9874	6.9
109.0287	0.7
135.0439	1.2
137.0599	3.5
149.0599	7.4
150.0633	0.8
181.0498	14.1
182.0534	1.2
193.0496	1.0
253.0873	1.2
254.0950	0.7
256.0731	0.9
269.0814	1.4
271.0973	10.9
272.1044	8.2
273.1079	1.1
286.0851	1.2
287.0894	0.8
303.0867	1.3
304.0950	3.3
313.0718	0.9
313.1080	3.5
314.1111	0.7
315.0870	11.0
316.0907	1.9
329.1019	1.5
331.1181	6.9
332.1212	1.7
348.0854	1.2
357.0980	0.9
373.0921	1.2
375.1082	100.0
376.1113	19.7
377.1130	1.7

Name: 1,10a-Dihydroxy-4,4,7,11b-tetramethyl-1,2,3,4a,5,6,6a,7,11,11a-decahydronaphtho(2,1-f)(1)benzofuran-9-one
PrecursorMZ: 333.20707
RT: 3.5312
ExactMass: 334.21440943
Spectrum_type: 2
charge: -1
Formula: C20H30O4
SMILES: CC1C2CCC3C(CCC(C3(C2CC4(C1=CC(=O)O4)O)C)O)(C)C
Method: HCD
Collision_energy: [28.333334]
Isolation_window: 4.0
Ion_mode: N
Num Peaks: 3
289.2172	27.5
333.2073	100.0
334.2110	21.6

Name: 1,2,3,4-Butanetetracarboxylic acid
PrecursorMZ: 233.0303
RT: 2.5708
ExactMass: 234.03756727
Spectrum_type: 2
charge: -1
Formula: C8H10O8
SMILES: C(C(C(CC(=O)O)C(=O)O)C(=O)O)C(=O)O
Method: HCD
Collision_energy: [28.333334]
Isolation_window: 4.0
Ion_mode: N
Num Peaks: 57
59.0129	3.6
61.9875	1.1
71.0130	2.6
73.0286	3.8
83.0493	3.4
85.0285	1.8
87.0078	100.0
88.0112	3.6
89.0234	4.1
94.0289	2.8
97.0285	1.4
99.0443	2.3
100.0393	0.9
101.0235	4.9
109.0284	1.8
111.0079	1.1
111.0440	0.8
113.0233	2.0
115.0392	2.2
117.0186	2.5
120.0446	24.8
121.0480	1.0
125.0601	1.2
127.0393	4.8
128.0344	1.1
139.0397	1.0
141.0185	2.4
143.0340	1.4
145.0134	1.2
146.0244	0.9
153.0186	1.1
159.0290	1.2
171.0292	3.0
188.0702	2.0
189.0534	0.9
190.0495	0.9
190.0865	5.3
191.0702	1.0
191.0847	0.8
214.9139	0.9
215.0192	1.6
216.0657	1.0
231.0492	2.3
231.0871	3.9
231.1228	2.3
232.0265	1.0
232.0600	1.8
232.9242	1.7
233.0284	4.3
233.0476	0.8
233.0650	4.9
233.1043	2.8
233.1559	1.9
234.0424	1.0
234.0766	6.5
235.0617	2.2
235.0807	4.3

Name: 1,2,3,4-Tetrahydro-Beta-Carboline-3-Carboxylic Acid
PrecursorMZ: 215.08199
RT: 1.8806
ExactMass: 216.08987763
Spectrum_type: 2
charge: -1
Formula: C12H12N2O2
SMILES: C1C(NCC2=C1C3=CC=CC=C3N2)C(=O)O
Method: HCD
Collision_energy: [28.333334]
Isolation_window: 4.0
Ion_mode: N
Num Peaks: 17
72.0081	10.0
86.0237	96.0
87.0271	3.6
92.0495	63.5
93.0527	3.7
116.0495	62.0
117.0528	4.9
142.0653	19.7
143.0589	2.5
144.0806	5.2
154.0656	3.1
169.0762	14.5
171.0919	90.3
172.0955	9.7
215.0820	100.0
215.1241	3.3
216.0853	11.5

Name: 1,2-Dipalmitoyl-sn-glycero-3-phosphoethanolamine
PrecursorMZ: 690.50867
RT: 1.5887
ExactMass: 691.51520532
Spectrum_type: 2
charge: -1
Formula: C37H74NO8P
SMILES: CCCCCCCCCCCCCCCC(=O)OC[C@H](COP(=O)(O)OCCN)OC(=O)CCCCCCCCCCCCCCC
Method: HCD
Collision_energy: [28.333334]
Isolation_window: 4.0
Ion_mode: N
Num Peaks: 9
76.7209	2.4
76.7258	4.2
78.9581	60.9
96.9688	4.6
152.9952	44.9
171.0058	74.8
690.5085	100.0
691.5120	36.3
692.5235	46.0

Name: 1,3-Benzodioxole-5-carboxylic acid
PrecursorMZ: 165.01871
RT: 16.7562
ExactMass: 166.02660867
Spectrum_type: 2
charge: -1
Formula: C8H6O4
SMILES: C1OC2=C(O1)C=C(C=C2)C(=O)O
Method: HCD
Collision_energy: [28.333334]
Isolation_window: 4.0
Ion_mode: N
Num Peaks: 39
59.0129	1.0
60.9923	1.0
61.9875	2.1
71.0130	0.9
73.0286	2.2
75.0078	7.7
80.9642	0.9
87.0079	0.9
89.0235	0.8
93.0337	1.7
101.0236	0.9
118.9918	2.7
119.0246	1.1
119.0494	10.2
120.0447	1.2
120.0530	0.8
121.0286	100.0
121.0649	13.5
122.0238	7.8
122.0321	7.3
122.0603	3.2
122.0690	1.0
122.8987	1.4
123.0443	1.1
129.0184	1.5
145.0499	1.6
147.0293	1.4
148.9724	1.5
163.0250	1.3
163.0608	5.8
164.0348	0.8
165.0190	18.0
165.0403	13.7
165.0550	7.0
166.0161	2.7
166.0412	2.2
166.0529	3.0
166.9828	2.3
167.0353	8.1

Name: 1,3-Dideacetyl-7-deacetoxy-7-oxokhivorin
PrecursorMZ: 457.22344
RT: 0.7864
ExactMass: 458.23045342
Spectrum_type: 2
charge: -1
Formula: C26H34O7
SMILES: C[C@@]12CCC3[C@]4([C@H](C[C@H](C(C4CC(=O)[C@]3(C15C(O5)C(=O)O[C@H]2C6=COC=C6)C)(C)C)O)O)C
Method: HCD
Collision_energy: [28.333334]
Isolation_window: 4.0
Ion_mode: N
Num Peaks: 76
50.8000	4.2
50.8039	5.5
59.0130	5.0
61.9875	14.9
69.3304	3.4
78.9849	3.1
79.9565	6.2
80.9643	8.1
85.0650	5.0
96.9592	58.7
99.0442	2.9
111.0443	17.2
113.0237	3.0
113.0600	8.5
125.0600	9.2
163.0757	3.9
165.0550	4.7
167.0701	3.3
177.0913	4.2
179.0705	3.0
181.0501	13.2
193.0505	3.1
195.0658	10.9
207.0660	9.2
208.0735	5.2
209.0452	5.5
209.0804	3.2
217.1225	2.9
221.0827	2.9
231.1017	3.0
233.1182	40.4
234.1223	6.1
235.0612	4.0
235.1338	8.9
237.1130	4.6
245.0808	3.6
247.1343	4.7
249.1130	25.1
250.1169	4.0
251.1289	17.9
256.0977	9.2
263.1290	6.9
265.1458	4.3
274.1081	8.1
277.1081	4.4
278.1161	23.5
279.1212	6.0
287.1299	3.4
329.1761	37.1
330.1800	6.2
331.1911	3.6
335.1498	8.2
341.0687	3.7
345.1713	3.4
347.1862	21.1
348.1902	4.2
360.1835	11.0
361.1646	19.8
362.1672	4.2
379.1395	2.8
393.1930	9.3
398.1977	19.0
399.2033	4.7
401.1972	3.2
413.1996	3.1
455.2103	6.9
455.2564	3.7
456.1299	6.1
456.1779	10.6
456.2429	36.8
457.2342	100.0
458.1446	3.4
458.2350	28.1
459.1264	10.3
459.1785	3.2
459.2478	44.3

Name: 1,6-Cleve's acid
PrecursorMZ: 222.02232
RT: 4.3152
ExactMass: 223.03031432
Spectrum_type: 2
charge: -1
Formula: C10H9NO3S
SMILES: C1=CC2=C(C=CC(=C2)S(=O)(=O)O)C(=C1)N
Method: HCD
Collision_energy: [28.333334]
Isolation_window: 4.0
Ion_mode: N
Num Peaks: 4
158.0602	3.3
221.1538	11.3
222.0225	100.0
223.0264	18.2

Name: 1,7-Dimethyluric Acid
PrecursorMZ: 195.05191
RT: 0.7526
ExactMass: 196.05964013
Spectrum_type: 2
charge: -1
Formula: C7H8N4O3
SMILES: CN1C2=C(NC1=O)NC(=O)N(C2=O)C
Method: HCD
Collision_energy: [28.333334]
Isolation_window: 4.0
Ion_mode: N
Num Peaks: 21
65.0136	2.7
137.0223	5.3
138.0311	1.7
149.0602	4.4
156.0407	1.2
167.0353	1.4
168.0193	1.4
169.0152	2.7
176.8948	2.6
178.9828	1.7
180.0282	5.9
193.0499	2.2
194.0457	5.4
194.0812	2.1
194.9053	12.6
195.0334	3.9
195.0518	100.0
195.9058	1.6
196.0133	5.9
196.0553	7.8
197.0204	1.7

Name: 1,9-Dimethyluric acid
PrecursorMZ: 195.05159
RT: 2.8569
ExactMass: 196.05964013
Spectrum_type: 2
charge: -1
Formula: C7H8N4O3
SMILES: CN1C2=C(C(=O)N(C(=O)N2)C)NC1=O
Method: HCD
Collision_energy: [28.333334]
Isolation_window: 4.0
Ion_mode: N
Num Peaks: 33
66.0088	1.9
68.0132	1.2
80.9642	34.8
82.9599	1.3
83.0241	11.6
96.9592	2.3
110.0350	1.3
112.0392	1.2
123.0062	1.8
127.0503	4.4
137.0223	2.2
140.0456	1.7
150.0552	6.6
151.0395	1.4
151.0763	1.3
152.0454	1.2
152.0707	1.3
153.0046	22.2
154.0487	1.8
154.0616	1.7
155.0566	1.7
166.0123	1.8
179.0077	1.3
194.0122	4.3
194.0447	2.7
194.9962	20.3
195.0323	8.0
195.0531	7.1
196.0106	100.0
196.0594	1.2
197.0132	4.6
197.0454	1.5
197.0671	1.9

Name: 1-(2,5-Dihydroxyphenyl)-3-hydroxybutan-1-one
PrecursorMZ: 195.06583
RT: 0.661
ExactMass: 196.07355886
Spectrum_type: 2
charge: -1
Formula: C10H12O4
SMILES: CC(CC(=O)C1=C(C=CC(=C1)O)O)O
Method: HCD
Collision_energy: [28.333334]
Isolation_window: 4.0
Ion_mode: N
Num Peaks: 58
59.0130	1.6
66.0340	4.0
80.0497	7.2
80.9642	1.2
93.0336	2.9
106.0655	1.2
107.0494	2.3
108.0448	2.1
109.0287	1.6
109.0648	1.9
116.9278	1.0
121.0289	1.9
121.0651	39.7
122.0604	4.6
122.0690	2.8
123.0443	11.9
133.0654	1.2
135.0440	1.5
136.0157	1.5
149.0242	1.7
149.0601	3.6
150.0186	1.9
150.0552	16.8
151.0394	53.5
151.0491	2.5
151.0757	17.0
151.0861	1.0
152.0330	1.4
152.0442	4.2
152.0690	2.2
152.0793	1.2
153.0551	2.4
165.0550	2.6
166.0500	3.7
169.0151	0.9
175.0395	1.3
176.8947	12.6
177.8943	2.0
178.9834	2.0
193.0143	1.3
193.0501	30.8
193.0851	1.1
194.0104	1.9
194.0548	6.1
194.0801	1.3
194.1182	1.0
194.9053	49.7
195.0149	1.1
195.0294	45.6
195.0511	2.9
195.0657	100.0
195.1029	1.3
195.9053	7.2
196.0148	1.9
196.0323	3.6
196.0698	9.4
196.9032	3.1
197.0459	2.1

Name: 1-(3,4-dimethoxyphenyl)-2,3,4,9-tetrahydro-1H-pyrido(3,4-b)indole-3-carboxylic acid
PrecursorMZ: 351.13514
RT: 4.7743
ExactMass: 352.14230712
Spectrum_type: 2
charge: -1
Formula: C20H20N2O4
SMILES: COC1=C(C=C(C=C1)C2C3=C(CC(N2)C(=O)O)C4=CC=CC=C4N3)OC
Method: HCD
Collision_energy: [28.333334]
Isolation_window: 4.0
Ion_mode: N
Num Peaks: 195
58.0290	1.7
59.0130	3.5
61.9875	2.5
69.0336	0.9
69.2169	1.3
69.4126	1.0
69.5947	1.0
71.0130	2.3
71.0493	0.7
72.0083	1.6
72.0446	3.0
72.9922	4.9
73.0286	2.6
74.0239	62.3
75.0079	1.4
75.0272	1.3
79.9564	6.8
80.9643	6.7
83.0130	0.8
83.0494	1.2
84.0446	0.8
85.0285	2.8
86.0238	0.8
87.0079	5.3
87.0441	0.8
88.0395	1.8
89.0235	1.7
91.0544	0.9
93.0336	1.6
94.0288	0.8
94.9799	1.0
95.0491	1.1
96.9592	9.0
97.0286	2.4
98.0238	2.7
98.9551	0.6
99.0080	1.3
99.0443	1.5
101.0235	2.4
107.0495	1.0
108.0447	1.4
109.0286	3.3
109.0652	1.0
110.0240	1.5
111.0081	1.1
111.0442	2.1
112.0397	1.5
113.0237	2.3
113.0350	1.1
113.0601	0.8
114.0552	9.6
115.0029	0.8
115.0392	2.7
116.0347	0.9
116.0497	11.1
116.0709	1.6
117.0533	1.0
119.0493	1.5
121.0289	1.0
121.0652	2.0
122.0240	3.0
122.0604	0.9
123.0444	2.6
124.0396	2.2
125.0237	2.7
125.0599	1.9
127.0393	1.7
127.0504	1.1
128.0345	2.9
129.0187	1.3
130.0866	2.1
134.0605	0.8
135.0444	5.8
136.0386	0.9
137.0239	1.7
137.0602	2.2
138.0550	1.5
139.0395	2.9
141.0550	0.8
142.0499	1.2
142.0656	3.1
143.0344	0.9
146.0604	1.0
147.0445	7.3
148.0760	1.0
149.0603	1.5
150.0547	1.1
151.0394	1.8
151.0756	1.2
152.0706	1.0
153.0553	1.9
155.0344	0.8
159.0923	4.7
160.0761	3.8
161.0601	1.2
161.0965	0.7
162.0552	1.0
163.0397	1.0
163.0754	1.4
164.0710	17.7
165.0548	1.5
165.0745	1.2
168.0301	0.7
171.0660	1.2
173.0602	0.9
175.0396	0.8
175.0757	0.8
176.0702	1.0
177.0548	1.8
178.0509	0.9
178.0868	10.7
179.0342	0.9
179.0702	1.2
180.0655	1.1
181.0494	1.4
181.0987	1.4
186.0553	1.5
187.0760	0.8
189.0547	2.1
189.0915	0.9
190.0867	2.8
191.0342	1.0
191.0694	1.2
192.0660	0.8
193.0493	1.2
196.0612	0.8
201.1041	1.9
203.0823	77.5
204.0664	3.5
204.0856	8.2
205.0506	1.1
205.0847	0.9
205.0879	0.7
206.0807	1.0
207.0650	0.9
210.0766	0.8
217.0512	0.8
217.0859	1.0
218.0826	0.8
219.0655	1.5
220.0624	0.8
222.0769	33.5
223.0804	3.1
225.0886	0.8
229.0680	1.0
229.0714	0.7
229.1197	0.8
233.0816	1.3
234.0746	1.2
244.0985	0.7
246.1146	0.9
247.0996	0.8
260.0944	1.0
261.0770	1.0
262.1112	0.8
263.0944	0.8
267.1972	1.2
277.0707	0.8
288.1279	0.9
289.1103	1.1
290.1074	0.9
291.0892	0.8
306.1031	1.3
306.1381	1.4
307.1181	1.1
307.1474	8.5
308.1147	0.7
308.1513	1.9
309.0994	0.7
332.1203	1.2
333.0983	1.2
349.0935	1.5
349.1327	3.4
349.1666	2.5
349.2035	12.4
350.0558	4.7
350.0854	1.4
350.0934	5.1
350.1295	12.5
350.1686	2.7
350.2062	4.5
351.0405	11.8
351.1388	100.0
351.1813	5.1
351.2196	4.9
352.0378	0.9
352.0450	1.2
352.1061	5.6
352.1415	25.6
352.1861	2.7
352.2223	1.0
353.0844	2.1
353.0890	9.1
353.1270	6.5
353.2022	2.1

Name: 1-(4-Hydroxy-3-(2-hydroxyethyl)phenyl)ethan-1-one
PrecursorMZ: 179.07082
RT: 4.7695
ExactMass: 180.078644241
Spectrum_type: 2
charge: -1
Formula: C10H12O3
SMILES: CC(=O)C1=CC(=C(C=C1)O)CCO
Method: HCD
Collision_energy: [28.333334]
Isolation_window: 4.0
Ion_mode: N
Num Peaks: 38
57.0337	5.4
60.9923	3.5
69.3945	3.9
79.9564	8.3
80.9643	4.5
90.9227	22.6
93.0336	18.0
97.4657	2.5
108.9332	50.8
109.0285	2.5
119.0493	3.3
134.0239	3.9
134.0606	4.1
134.9124	4.9
135.0445	13.2
135.0807	48.1
136.0751	3.3
136.0848	4.6
137.0104	3.8
137.0238	21.1
137.0349	3.3
137.0600	6.7
137.9937	2.4
149.0234	2.7
149.0600	2.7
153.0918	3.8
164.0476	5.2
178.0169	4.1
178.0501	5.1
178.9027	8.2
179.0348	5.1
179.0706	100.0
180.0299	4.3
180.0428	8.7
180.0757	10.0
180.9992	2.7
181.0140	3.0
181.0501	3.2

Name: 1-(8-hydroxy-3-methyl-1-((2S,3R,4S,5S,6R)-3,4,5-trihydroxy-6-(hydroxymethyl)oxan-2-yl)oxynaphthalen-2-yl)ethanone
PrecursorMZ: 377.12397
RT: 6.1838
ExactMass: 378.13146766
Spectrum_type: 2
charge: -1
Formula: C19H22O8
SMILES: CC1=CC2=C(C(=CC=C2)O)C(=C1C(=O)C)O[C@H]3[C@@H]([C@H]([C@@H]([C@H](O3)CO)O)O)O
Method: HCD
Collision_energy: [28.333334]
Isolation_window: 4.0
Ion_mode: N
Num Peaks: 27
72.9922	71.8
73.0285	10.4
130.0865	12.7
136.0395	5.0
151.0254	8.2
181.0499	8.6
185.0963	9.6
215.1437	11.6
227.0228	4.8
229.0866	14.1
241.1228	8.9
247.0718	3.2
257.1294	4.8
259.1334	9.6
285.1128	3.9
303.1236	100.0
304.1270	19.1
375.2901	27.6
376.2939	11.2
377.1235	47.2
377.1614	3.2
377.2240	3.8
378.1258	11.7
378.1310	6.2
378.1676	7.8
379.1013	12.8
379.2134	3.0

Name: 1-(9Z-octadecenoyl)-sn-glycero-3-phospho-(1'-sn-glycerol)
PrecursorMZ: 509.28866
RT: 1.0294
ExactMass: 510.29577007
Spectrum_type: 2
charge: -1
Formula: C24H47O9P
SMILES: CCCCCCCC/C=C\CCCCCCCC(=O)OC[C@H](COP(=O)(O)OC[C@H](CO)O)O
Method: HCD
Collision_energy: [28.333334]
Isolation_window: 4.0
Ion_mode: N
Num Peaks: 17
56.5860	1.1
56.5892	2.5
73.0286	6.8
78.9582	4.6
87.0442	100.0
88.0476	4.1
101.0599	4.2
152.9952	14.1
209.0219	1.1
211.2065	3.6
223.0379	1.5
347.1992	5.5
421.2364	3.2
508.2746	6.6
509.2886	58.6
510.2911	18.1
511.2936	2.7

Name: 1-(9Z-octadecenoyl)-sn-glycero-3-phosphocholine
PrecursorMZ: 452.27846
RT: 4.894542857142857
ExactMass: 521.34814
Spectrum_type: 2
charge: -1
Formula: C26H52NO7P
SMILES: CCCCCCCC/C=C\CCCCCCCC(=O)OC[C@H](COP(=O)([O-])OCC[N+](C)(C)C)O
Method: HCD
Collision_energy: [28.333334]
Isolation_window: 4.0
Ion_mode: N
Num Peaks: 21
50.2544	1.7
59.0129	1.0
78.9582	4.0
114.0554	1.3
140.0111	3.3
152.9952	2.1
196.0376	10.9
214.0482	2.3
241.2174	1.1
255.2329	100.0
256.2364	16.8
450.3003	1.4
451.2245	1.6
451.2724	1.1
451.3045	2.6
451.3285	2.6
452.2172	1.1
452.2787	36.1
453.2857	9.2
454.2871	1.5
454.2946	1.1

Name: 1-)(Z)-but-2-en-2-yl(-3,9-dihydroxy-4,7-dimethyl-6-oxobenzo)b()1,4(benzodioxepine-2-carboxylic acid
PrecursorMZ: 369.0978
RT: 0.7342
ExactMass: 370.10525291
Spectrum_type: 2
charge: -1
Formula: C20H18O7
SMILES: C/C=C(/C)\C1=C(C(=C(C2=C1OC3=C(C(=CC(=C3)O)C)C(=O)O2)C)O)C(=O)O
Method: HCD
Collision_energy: [28.333334]
Isolation_window: 4.0
Ion_mode: N
Num Peaks: 29
59.0131	1.2
61.9874	1.9
72.9923	1.2
87.0076	2.1
96.9590	2.8
109.0285	2.9
135.0444	2.6
151.0390	1.5
163.0391	2.3
165.0548	1.6
173.0592	1.4
175.0397	1.1
189.0548	2.8
307.0973	3.4
323.0923	1.2
325.0781	2.1
325.1078	77.1
326.1109	15.2
327.0821	2.1
327.1166	1.2
367.0846	2.4
367.1207	2.2
368.0831	2.2
368.1365	2.1
369.0975	100.0
369.1749	1.4
370.0996	23.5
371.0771	7.5
371.1114	6.1

Name: 1-)4-(4-Fluorophenyl)piperazinyl(-2-(4-hydroxyquinazolin-2-ylthio)ethan-1-one
PrecursorMZ: 397.11372
RT: 3.0645
ExactMass: 398.1212752
Spectrum_type: 2
charge: -1
Formula: C20H19FN4O2S
SMILES: C1CN(CCN1C2=CC=C(C=C2)F)C(=O)CSC3=NC4=CC=CC=C4C(=O)N3
Method: HCD
Collision_energy: [28.333334]
Isolation_window: 4.0
Ion_mode: N
Num Peaks: 26
85.9986	4.5
99.0439	2.4
109.0286	7.7
125.0235	4.2
128.0345	3.1
135.0441	8.1
137.0600	10.5
179.0343	2.5
181.0498	74.6
182.0536	6.6
199.0760	2.6
203.0554	68.6
204.0586	5.0
215.0549	7.0
245.0813	4.1
309.1123	3.2
335.1860	3.6
353.1005	3.4
379.1775	2.4
395.0909	3.4
396.1360	2.4
397.1149	100.0
397.1876	19.2
398.1178	20.8
398.1931	3.9
399.1101	9.6

Name: 1-Caffeoyl-beta-D-glucose
PrecursorMZ: 341.08739
RT: 7.5657499999999995
ExactMass: 342.09508215
Spectrum_type: 2
charge: -1
Formula: C15H18O9
SMILES: C1=CC(=C(C=C1/C=C/C(=O)O[C@H]2[C@@H]([C@H]([C@@H]([C@H](O2)CO)O)O)O)O)O
Method: HCD
Collision_energy: [28.333334]
Isolation_window: 4.0
Ion_mode: N
Num Peaks: 9
91.0391	8.9
135.0443	28.2
179.0342	100.0
180.0377	7.6
339.1994	37.6
339.2462	9.5
340.2025	17.6
341.0877	28.7
341.2031	6.6

Name: 1-Carboxycyclohexaneacetic acid
PrecursorMZ: 185.08141
RT: 4.1769
ExactMass: 186.08920892
Spectrum_type: 2
charge: -1
Formula: C9H14O4
SMILES: C1CCC(CC1)(CC(=O)O)C(=O)O
Method: HCD
Collision_energy: [28.333334]
Isolation_window: 4.0
Ion_mode: N
Num Peaks: 20
59.0130	54.1
65.0137	31.7
97.0650	26.9
98.0238	60.1
123.0809	78.6
125.0966	25.2
125.9363	100.0
127.9316	23.9
141.0550	20.1
141.0913	24.4
142.0403	31.9
166.9833	25.3
167.0712	20.4
184.0102	40.9
185.0815	55.5
185.1176	62.7
185.1538	37.9
186.0297	78.6
187.0257	39.3
187.0971	19.9

Name: 1-Heptadecanoyl-2-octadecanoyl-glycero-3-phosphoethanolamine
PrecursorMZ: 732.55425
RT: 1.5246
ExactMass: 733.56215551
Spectrum_type: 2
charge: -1
Formula: C40H80NO8P
SMILES: CCCCCCCCCCCCCCCCCC(=O)O[C@H](COC(=O)CCCCCCCCCCCCCCCC)COP(=O)(O)OCCN
Method: HCD
Collision_energy: [28.333334]
Isolation_window: 4.0
Ion_mode: N
Num Peaks: 8
78.9580	79.1
96.9685	5.3
152.9949	57.2
171.0055	94.2
731.5416	10.4
732.5549	100.0
733.5576	37.9
734.5701	68.6

Name: 1-Hexadecanoyl-sn-glycero-3-phosphoethanolamine
PrecursorMZ: 452.27852
RT: 4.9261
ExactMass: 453.28553974
Spectrum_type: 2
charge: -1
Formula: C21H44NO7P
SMILES: CCCCCCCCCCCCCCCC(=O)OC[C@H](COP(=O)(O)OCCN)O
Method: HCD
Collision_energy: [28.333334]
Isolation_window: 4.0
Ion_mode: N
Num Peaks: 43
50.2518	0.7
50.2544	1.5
59.0130	0.8
69.3680	0.6
69.4512	0.6
71.0132	0.4
72.9923	0.6
78.9581	5.9
87.0079	0.8
96.9687	1.0
114.0552	1.4
116.0708	0.5
128.0348	0.9
130.0862	0.9
139.0394	0.8
140.0111	4.7
145.0504	0.4
152.9951	2.0
196.0375	8.5
214.0483	2.7
241.2170	5.6
242.2200	0.8
253.2175	0.7
253.2535	1.7
254.2566	0.7
255.1773	0.7
255.2329	100.0
255.2886	0.7
256.2362	16.0
257.2393	1.1
407.2792	0.4
409.2994	0.6
435.2720	0.7
450.2597	0.4
450.2999	6.0
451.2699	0.6
451.2854	2.3
451.3122	5.1
451.3293	1.0
452.2249	1.0
452.2785	34.4
453.2842	8.3
454.2860	1.1

Name: 1-Kestose
PrecursorMZ: 549.16694
RT: 9.7263
ExactMass: 504.16903493
Spectrum_type: 2
charge: -1
Formula: C18H32O16
SMILES: C([C@@H]1[C@H]([C@@H]([C@H]([C@H](O1)O[C@]2([C@H]([C@@H]([C@H](O2)CO)O)O)CO[C@]3([C@H]([C@@H]([C@H](O3)CO)O)O)CO)O)O)O)O
Method: HCD
Collision_energy: [28.333334]
Isolation_window: 4.0
Ion_mode: N
Num Peaks: 5
71.0129	21.6
89.0233	42.7
221.0663	24.0
503.1621	100.0
504.1652	21.5

Name: 1-Methyl-1,2,3,4-tetrahydro-beta-carboline-3-carboxylic acid
PrecursorMZ: 229.09793
RT: 6.5528
ExactMass: 230.105527694
Spectrum_type: 2
charge: -1
Formula: C13H14N2O2
SMILES: CC1C2=C(CC(N1)C(=O)O)C3=CC=CC=C3N2
Method: HCD
Collision_energy: [28.333334]
Isolation_window: 4.0
Ion_mode: N
Num Peaks: 20
59.0129	10.5
72.0082	14.3
92.0497	89.8
100.0395	99.9
116.0497	77.8
123.0439	8.2
141.0545	9.2
142.0656	37.5
142.0868	13.6
168.0807	10.6
183.0920	32.2
185.0578	9.1
185.1077	100.0
186.1114	15.5
228.1354	14.5
229.0710	14.3
229.0975	96.4
230.1019	18.7
231.0884	9.1
231.1243	8.6

Name: 1-Methyl-L-histidine
PrecursorMZ: 168.07718
RT: 6.1777
ExactMass: 169.085126602
Spectrum_type: 2
charge: -1
Formula: C7H11N3O2
SMILES: CN1C=C(N=C1)C[C@@H](C(=O)O)N
Method: HCD
Collision_energy: [28.333334]
Isolation_window: 4.0
Ion_mode: N
Num Peaks: 13
108.0447	11.0
120.0448	21.6
122.0604	11.4
148.9725	33.6
150.0554	17.4
150.0666	66.9
166.0516	14.4
166.9830	44.8
167.0348	7.4
168.0658	8.3
168.0774	100.0
170.0933	8.2
184.9936	11.6

Name: 1-Methyladenosine
PrecursorMZ: 280.10475
RT: 7.1427
ExactMass: 281.11240398
Spectrum_type: 2
charge: -1
Formula: C11H15N5O4
SMILES: CN1C=NC2=C(C1=N)N=CN2[C@H]3[C@@H]([C@@H]([C@H](O3)CO)O)O
Method: HCD
Collision_energy: [28.333334]
Isolation_window: 4.0
Ion_mode: N
Num Peaks: 7
148.0620	100.0
149.0664	4.7
151.0505	3.6
279.2328	1.6
280.1048	9.4
280.1312	2.2
281.2480	6.2

Name: 1-Methyluric Acid
PrecursorMZ: 181.03614
RT: 6.7142
ExactMass: 182.04399007
Spectrum_type: 2
charge: -1
Formula: C6H6N4O3
SMILES: CN1C(=O)C2=C(NC(=O)N2)NC1=O
Method: HCD
Collision_energy: [28.333334]
Isolation_window: 4.0
Ion_mode: N
Num Peaks: 66
59.0130	4.5
72.9923	2.1
73.0286	2.2
83.0242	4.0
83.0493	1.0
94.0289	0.9
95.0494	6.6
96.0195	0.6
96.0445	0.6
103.0214	1.1
107.0495	0.7
108.0446	1.6
109.0289	0.8
109.0653	0.9
110.0351	3.6
111.0444	1.4
119.0494	4.6
121.0288	1.9
122.0227	1.6
122.0604	1.5
123.0317	0.6
124.0149	0.6
135.0310	1.1
135.0445	6.8
135.0555	0.8
136.0396	2.3
136.0485	0.7
136.0760	2.3
137.0232	0.8
137.0433	0.5
137.0477	0.6
137.0601	37.9
137.0694	1.1
137.0714	2.1
137.0965	0.9
138.0302	29.7
138.0551	7.2
138.0640	2.6
138.0916	6.2
139.0344	1.3
139.0757	2.3
151.0392	0.9
156.0410	2.5
163.0258	0.8
163.0392	7.7
163.1123	0.8
164.0438	0.8
165.0552	1.5
166.0127	3.5
179.0339	1.0
179.0564	0.5
179.0713	0.6
179.1076	0.6
180.0279	1.3
180.0523	2.1
180.0665	0.9
181.0031	0.6
181.0362	100.0
181.0503	8.0
181.0625	0.9
181.0694	0.8
181.1229	6.0
182.0399	6.5
182.0810	2.0
182.1267	0.6
183.0655	4.8

Name: 1-N,3-N-bis(2-(cyclohexen-1-yl)ethyl)benzene-1,3-dicarboxamide
PrecursorMZ: 415.21572
RT: 1.8948
ExactMass: 380.246378268
Spectrum_type: 2
charge: -1
Formula: C24H32N2O2
SMILES: C1CCC(=CC1)CCNC(=O)C2=CC(=CC=C2)C(=O)NCCC3=CCCCC3
Method: HCD
Collision_energy: [28.333334]
Isolation_window: 4.0
Ion_mode: N
Num Peaks: 20
69.2611	0.9
96.9591	17.8
97.4071	1.1
99.0554	1.3
141.0662	1.2
279.2338	0.9
413.2007	7.0
414.2036	11.6
414.2093	0.9
415.2166	100.0
415.2741	2.4
415.2796	3.0
415.3315	0.9
416.2199	23.2
416.2827	0.8
417.2154	5.0
417.2927	1.3
417.2998	3.1
417.3385	3.9
417.3437	2.1

Name: 1-Naphthaleneacetic Acid
PrecursorMZ: 174.04029
RT: 4.9944
ExactMass: 186.068079557
Spectrum_type: 2
charge: -1
Formula: C12H10O2
SMILES: C1=CC=C2C(=C1)C=CC=C2CC(=O)O
Method: HCD
Collision_energy: [28.333334]
Isolation_window: 4.0
Ion_mode: N
Num Peaks: 20
58.0289	0.5
59.0130	0.8
85.0285	0.7
88.0395	2.6
114.0187	0.8
115.0028	0.6
130.0503	1.3
131.0611	0.6
131.0819	100.0
131.0978	0.5
131.1024	0.5
132.0857	4.9
154.9466	1.9
157.0135	0.5
157.0612	0.6
173.0467	0.8
174.0193	1.1
174.0405	1.6
174.0880	2.7
176.0343	1.0

Name: 1-O-Cinnamoyl-6-O-p-coumaroyl-b-D-glucopyranose
PrecursorMZ: 455.13423
RT: 2.8322
ExactMass: 456.14203234
Spectrum_type: 2
charge: -1
Formula: C24H24O9
SMILES: C1=CC=C(C=C1)/C=C/C(=O)O[C@H]2[C@@H]([C@H]([C@@H]([C@H](O2)COC(=O)/C=C/C3=CC=C(C=C3)O)O)O)O
Method: HCD
Collision_energy: [28.333334]
Isolation_window: 4.0
Ion_mode: N
Num Peaks: 53
50.5691	1.9
50.5718	4.4
59.0128	2.1
109.0285	2.9
124.9903	1.2
128.0343	2.1
135.0442	7.9
136.0528	1.3
137.0599	9.9
149.0601	2.5
151.0755	1.2
161.0602	3.1
163.0394	2.0
173.0598	2.6
175.0743	1.2
177.0548	4.5
181.0498	20.1
182.0537	1.7
187.0755	3.3
189.0553	2.3
189.0913	16.9
190.0951	1.9
193.0866	1.4
199.0759	1.2
201.0553	1.6
203.0707	1.6
215.0705	3.1
217.0862	3.5
221.0445	2.4
229.0865	11.7
230.0916	2.8
231.1028	1.8
233.0812	10.0
237.0749	1.4
261.0766	2.0
273.0766	2.9
339.1233	1.4
349.1429	1.3
351.1230	8.7
352.1263	1.7
367.1548	4.7
393.1370	1.8
395.1144	2.0
409.1281	1.9
410.1301	2.3
411.1448	9.4
412.1471	1.9
437.1241	1.7
453.1480	1.9
454.1277	3.0
455.1344	100.0
456.1382	25.9
457.1393	4.3

Name: 1-Oleoyl-sn-glycerol 3-phosphate
PrecursorMZ: 435.25184
RT: 4.9174
ExactMass: 436.25899064
Spectrum_type: 2
charge: -1
Formula: C21H41O7P
SMILES: CCCCCCCC/C=C\CCCCCCCC(=O)OC[C@H](COP(=O)(O)O)O
Method: HCD
Collision_energy: [28.333334]
Isolation_window: 4.0
Ion_mode: N
Num Peaks: 35
59.0130	0.5
78.9581	35.9
81.0447	0.7
87.0079	0.8
96.9590	0.5
96.9687	4.1
114.0552	0.9
125.0002	1.2
128.0345	0.5
136.0762	0.7
140.0110	5.8
150.9798	0.7
152.9951	100.0
153.0207	0.8
153.9986	3.6
154.9992	0.7
171.0058	3.0
179.0109	1.6
180.0183	0.5
196.0376	6.6
237.2227	0.6
239.2378	3.7
255.2330	21.9
256.2363	3.6
261.1610	1.7
281.2487	1.6
305.1508	0.7
375.2296	0.6
433.2370	1.1
434.1921	0.5
434.2384	1.9
434.2640	1.9
435.2502	28.5
436.2796	11.3
437.2663	7.7

Name: 1-Palmitoyl-2-myristoyl-sn-glycero-3-phosphocholine
PrecursorMZ: 690.50724
RT: 0.96885
ExactMass: 705.53085538
Spectrum_type: 2
charge: -1
Formula: C38H76NO8P
SMILES: CCCCCCCCCCCCCCCC(=O)OC[C@H](COP(=O)([O-])OCC[N+](C)(C)C)OC(=O)CCCCCCCCCCCCC
Method: HCD
Collision_energy: [28.333334]
Isolation_window: 4.0
Ion_mode: N
Num Peaks: 15
76.7256	2.5
78.9580	6.0
152.9950	22.5
241.2169	16.1
242.2209	2.0
255.2326	100.0
256.2360	14.5
269.2484	9.4
270.2520	1.3
434.2678	3.2
689.5009	1.8
690.5079	55.2
691.5110	24.2
692.5077	4.6
692.5195	2.1

Name: 1-Palmitoyl-2-oleoyl-sn-glycero-3-(phospho-rac-(1-glycerol))
PrecursorMZ: 747.51799
RT: 1.4937
ExactMass: 748.52543565
Spectrum_type: 2
charge: -1
Formula: C40H77O10P
SMILES: CCCCCCCCCCCCCCCC(=O)OC[C@H](COP(=O)(O)OCC(CO)O)OC(=O)CCCCCCC/C=C\CCCCCCCC
Method: HCD
Collision_energy: [28.333334]
Isolation_window: 4.0
Ion_mode: N
Num Peaks: 32
59.0130	1.2
73.0286	11.1
78.9581	0.9
82.8393	0.9
82.9460	1.5
82.9517	4.2
83.0549	0.9
83.0632	2.1
83.1753	0.9
87.0442	18.8
96.9590	0.9
101.0598	1.7
152.9953	2.4
227.2012	4.5
241.2172	21.3
242.2207	2.7
255.2329	30.6
256.2360	4.9
269.2501	1.1
279.2331	0.8
281.2484	4.4
282.2520	0.8
462.2691	10.2
463.2719	6.9
464.2840	37.6
465.2874	11.8
466.2856	3.5
745.5286	22.5
746.5391	100.0
747.5324	81.2
748.5403	38.9
749.5449	7.8

Name: 1-Pentadecanoyl-2-hexadecanoyl-glycero-3-phosphoethanolamine
PrecursorMZ: 676.49149
RT: 1.8767
ExactMass: 677.49955525
Spectrum_type: 2
charge: -1
Formula: C36H72NO8P
SMILES: CCCCCCCCCCCCCCCC(=O)O[C@H](COC(=O)CCCCCCCCCCCCCC)COP(=O)(O)OCCN
Method: HCD
Collision_energy: [28.333334]
Isolation_window: 4.0
Ion_mode: N
Num Peaks: 16
75.1634	2.3
75.1684	4.3
75.2798	1.7
78.9580	67.0
96.9686	5.7
97.4085	1.6
152.9949	45.4
171.0055	74.5
172.0091	1.7
227.2008	1.7
241.2169	8.6
255.2326	3.5
675.4643	2.9
676.4918	100.0
677.4928	43.5
678.5062	33.9

Name: 1-Pentadecanoyl-glycero-3-phosphoethanolamine
PrecursorMZ: 438.26222
RT: 0.61805
ExactMass: 439.26988968
Spectrum_type: 2
charge: -1
Formula: C20H42NO7P
SMILES: CCCCCCCCCCCCCCC(=O)OC[C@H](COP(=O)(O)OCCN)O
Method: HCD
Collision_energy: [28.333334]
Isolation_window: 4.0
Ion_mode: N
Num Peaks: 7
69.3256	4.6
78.9580	4.7
196.0371	9.4
241.2169	100.0
242.2204	16.2
438.2623	42.8
439.2696	9.3

Name: 1-Tridecanoyl-sn-glycero-3-phosphoethanolamine
PrecursorMZ: 410.23074
RT: 5.12895
ExactMass: 411.23858955
Spectrum_type: 2
charge: -1
Formula: C18H38NO7P
SMILES: CCCCCCCCCCCCC(=O)OC[C@H](COP(=O)(O)OCCN)O
Method: HCD
Collision_energy: [28.333334]
Isolation_window: 4.0
Ion_mode: N
Num Peaks: 13
78.9580	23.4
140.0109	5.6
145.0977	6.3
152.9950	58.3
196.0374	8.8
213.1854	100.0
214.1888	11.9
408.2846	5.1
409.2346	17.4
409.3386	11.5
410.2290	40.2
411.2328	9.4
411.3519	8.5

Name: 1-amino-1,3-dicarboxycyclopentane, trans-(1R,3S)-
PrecursorMZ: 172.06089
RT: 3.038
ExactMass: 173.06880783
Spectrum_type: 2
charge: -1
Formula: C7H11NO4
SMILES: C1C[C@@](C[C@H]1C(=O)O)(C(=O)O)N
Method: HCD
Collision_energy: [28.333334]
Isolation_window: 4.0
Ion_mode: N
Num Peaks: 15
84.0446	35.5
85.0477	1.3
86.0239	0.8
110.0602	5.8
126.0552	7.0
128.0709	26.6
129.0742	1.7
154.0499	1.0
154.9467	1.7
171.0192	8.6
171.1017	1.4
172.0609	100.0
173.0237	1.2
173.0645	7.8
173.1173	0.7

Name: 1-dodecanoyl-2-(13Z,16Z-docosadienoyl)-glycero-3-phospho-(1'-myo-inositol)
PrecursorMZ: 833.51847
RT: 3.014
ExactMass: 834.52582957
Spectrum_type: 2
charge: -1
Formula: C43H79O13P
SMILES: CCCCCCCCCCCC(=O)OC[C@H](COP(=O)(O)OC1C([C@@H](C(C(C1O)O)O)O)O)OC(=O)CCCCCCCCCCC/C=C\C/C=C\CCCCC
Method: HCD
Collision_energy: [28.333334]
Isolation_window: 4.0
Ion_mode: N
Num Peaks: 47
61.9874	2.3
78.9580	70.9
78.9617	1.4
92.6100	2.2
92.6167	3.1
92.7216	1.0
92.7281	1.4
92.8406	1.1
96.9686	10.4
134.9843	1.1
152.9949	100.0
153.9985	3.9
154.9994	0.9
171.0056	5.0
223.0007	11.7
227.2007	2.8
241.0114	46.9
241.2168	3.1
242.0144	2.2
255.2326	73.5
256.2359	9.8
259.0225	4.2
277.2178	0.9
279.2070	1.0
279.2326	55.4
280.2360	10.0
281.2483	13.1
297.0381	4.4
315.0488	2.3
365.2099	2.3
379.2257	4.2
380.2296	1.9
381.2001	2.2
391.2254	8.2
392.2297	1.2
395.2191	3.5
396.2240	0.8
409.2373	1.2
553.2777	5.7
554.2845	1.2
571.2906	1.1
577.2802	0.8
831.4835	5.6
832.4859	11.7
833.5204	76.2
834.5245	35.6
835.5337	26.5

Name: 1-hexadecanoyl-2-(13Z,16Z-docosadienoyl)-glycero-3-phospho-(1'-sn-glycerol)
PrecursorMZ: 801.56529
RT: 0.7655
ExactMass: 802.57238584
Spectrum_type: 2
charge: -1
Formula: C44H83O10P
SMILES: CCCCCCCCCCCCCCCC(=O)OC[C@H](COP(=O)(O)OC[C@H](CO)O)OC(=O)CCCCCCCCCCC/C=C\C/C=C\CCCCC
Method: HCD
Collision_energy: [28.333334]
Isolation_window: 4.0
Ion_mode: N
Num Peaks: 9
87.0442	69.9
97.4393	3.9
241.2173	4.1
255.2329	100.0
256.2363	15.5
281.2491	4.1
801.5656	80.5
802.5687	35.6
803.5714	13.5

Name: 1-methoxy-1H-indole-3-carbaldehyde
PrecursorMZ: 174.05512
RT: 1.4235
ExactMass: 175.06332853
Spectrum_type: 2
charge: -1
Formula: C10H9NO2
SMILES: CON1C=C(C2=CC=CC=C21)C=O
Method: HCD
Collision_energy: [28.333334]
Isolation_window: 4.0
Ion_mode: N
Num Peaks: 10
127.1119	8.7
128.1154	0.9
131.0370	1.4
154.9464	3.7
159.0317	100.0
160.0352	9.5
173.1174	10.4
174.0552	39.6
174.1208	0.9
175.0590	3.9

Name: 10,12,15-Octadecatrienoic acid, 9-hydroxy-
PrecursorMZ: 293.21207
RT: 1.519
ExactMass: 294.21949481
Spectrum_type: 2
charge: -1
Formula: C18H30O3
SMILES: CCC=CCC=CC=CC(CCCCCCCC(=O)O)O
Method: HCD
Collision_energy: [28.333334]
Isolation_window: 4.0
Ion_mode: N
Num Peaks: 31
59.0129	3.2
71.0493	3.6
96.9592	5.7
113.0962	2.5
125.0964	2.2
145.0650	9.3
147.0444	2.2
163.0756	15.2
171.1018	7.4
183.1384	2.5
185.1173	3.9
187.0754	4.4
195.1382	4.9
199.0262	2.5
223.1701	2.6
235.1697	12.0
262.9893	31.1
263.9928	5.1
275.2016	12.8
276.2052	2.7
277.2169	10.4
291.1967	3.0
292.0285	20.3
292.2000	13.1
293.0341	3.9
293.1183	34.8
293.1804	6.2
293.2118	93.3
294.1223	7.6
294.2150	18.4
295.2276	100.0

Name: 11,12-dihydroxy-13-methoxy-4,5,8-trimethyl-3-(2-methylpropyl)-1H,2H,3H,4H,6aH,9H,10H,11H,12H,13H,14H,15H,15bH-cycloundeca(e)isoindole-1,15-dione
PrecursorMZ: 432.27561
RT: 2.0061
ExactMass: 433.28282334
Spectrum_type: 2
charge: -1
Formula: C25H39NO5
SMILES: CC1C2C(NC(=O)C23C(/C=C(\CCC(C(C(CC3=O)OC)O)O)/C)C=C1C)CC(C)C
Method: HCD
Collision_energy: [28.333334]
Isolation_window: 4.0
Ion_mode: N
Num Peaks: 17
74.0239	34.6
114.0551	56.9
158.0599	18.8
165.1026	34.7
179.1187	29.7
389.2697	100.0
390.2726	29.6
391.2855	92.3
430.2984	24.9
431.1350	15.0
431.3228	89.0
432.2007	17.7
432.3215	44.7
433.2484	54.7
433.2950	21.9
433.3348	22.7
434.2517	12.7

Name: 11-(3-ethoxyphenyl)-3,3-dimethyl-2,3,4-trihydro-5H,10H,11H-benzo(1,2-f)benzo(b)1,4-diazepin-1-one
PrecursorMZ: 397.16915
RT: 4.5737
ExactMass: 362.199428076
Spectrum_type: 2
charge: -1
Formula: C23H26N2O2
SMILES: CCOC1=CC=CC(=C1)C2C3=C(CC(CC3=O)(C)C)NC4=CC=CC=C4N2
Method: HCD
Collision_energy: [28.333334]
Isolation_window: 4.0
Ion_mode: N
Num Peaks: 74
59.0130	1.0
69.3612	0.3
71.0129	0.3
72.9923	0.6
73.0286	0.4
74.0241	0.3
75.0077	0.4
78.9581	0.3
79.9564	2.1
80.9643	0.9
83.0494	2.1
85.0285	0.3
87.0079	1.0
87.0441	0.3
95.9511	0.3
96.9592	31.4
97.0286	0.3
97.4670	0.4
97.9586	0.2
98.9550	1.9
98.9632	0.4
99.0441	0.3
99.0554	0.3
101.0235	0.3
113.0236	0.2
114.0553	0.9
123.0443	0.2
127.0393	5.1
128.0428	0.3
130.0865	0.5
135.0440	0.3
151.0064	0.6
152.9954	0.3
171.1388	0.3
177.0763	0.2
226.1446	1.4
231.0694	4.8
232.0742	0.5
239.1105	0.3
287.1338	0.3
315.2540	1.0
316.2565	0.4
317.2111	0.5
319.2282	0.6
338.1985	0.3
351.3649	0.3
352.1871	0.3
353.1794	7.3
354.1821	1.6
355.1807	0.3
355.3217	0.6
395.1523	0.4
395.1557	0.4
395.2012	0.5
395.2083	3.5
395.3915	0.3
395.7427	0.3
396.1082	0.8
396.1565	1.1
396.2029	0.2
396.2075	3.8
397.0610	0.6
397.0856	0.5
397.1177	1.6
397.1266	1.2
397.1692	100.0
397.2559	0.7
397.2773	0.7
397.3688	0.5
398.1260	0.7
398.1726	22.7
398.2179	1.4
399.1859	24.3
399.2799	0.5

Name: 11-(3-ethoxyphenyl)-3,3-dimethyl-2,3,4-trihydro-5H,10H,11H-benzo)1,2-f(benzo)b(1,4-diazepin-1-one
PrecursorMZ: 397.16934
RT: 0.9362
ExactMass: 362.199428076
Spectrum_type: 2
charge: -1
Formula: C23H26N2O2
SMILES: CCOC1=CC=CC(=C1)C2C3=C(CC(CC3=O)(C)C)NC4=CC=CC=C4N2
Method: HCD
Collision_energy: [28.333334]
Isolation_window: 4.0
Ion_mode: N
Num Peaks: 24
59.0129	0.9
79.9566	1.1
96.9592	14.4
114.0552	1.2
116.0708	0.6
130.0866	1.3
135.0443	0.8
253.0899	0.7
353.1796	2.9
353.2713	0.8
354.1780	0.7
379.2463	0.8
395.1586	0.7
395.2011	1.1
395.2442	2.2
395.2850	0.7
396.2493	0.8
397.0039	0.7
397.1696	100.0
397.2583	7.0
398.1727	23.7
398.2608	1.9
399.1868	24.8
399.2737	1.7

Name: 11-Eicosenoic Acid
PrecursorMZ: 309.27948
RT: 6.3802
ExactMass: 310.287180451
Spectrum_type: 2
charge: -1
Formula: C20H38O2
SMILES: CCCCCCCC/C=C/CCCCCCCCCC(=O)O
Method: HCD
Collision_energy: [28.333334]
Isolation_window: 4.0
Ion_mode: N
Num Peaks: 4
309.2794	52.9
310.2813	12.7
311.1684	100.0
311.2945	24.1

Name: 12,13-DiHOME
PrecursorMZ: 313.23882
RT: 0.5921
ExactMass: 314.24570956
Spectrum_type: 2
charge: -1
Formula: C18H34O4
SMILES: CCCCCC(C(C/C=C\CCCCCCCC(=O)O)O)O
Method: HCD
Collision_energy: [28.333334]
Isolation_window: 4.0
Ion_mode: N
Num Peaks: 53
59.0131	4.1
61.9875	3.1
72.9922	1.7
87.0078	2.7
91.0212	1.9
96.9592	2.4
99.0807	1.9
108.0447	1.8
113.0236	1.3
123.0445	1.6
129.0913	7.7
130.0865	9.4
160.0396	1.6
165.1029	3.5
166.0865	1.4
171.1022	2.2
178.0868	2.0
181.1342	2.0
182.0819	8.4
183.1384	8.5
183.1515	5.3
193.0985	1.6
194.1176	1.9
201.1129	12.3
211.1449	44.6
225.1613	2.6
229.0725	2.5
239.1398	3.5
243.1714	22.6
269.0820	1.5
269.1286	3.2
269.2478	1.4
270.1200	2.1
271.0975	3.3
271.1681	2.3
277.2165	2.8
295.2278	6.6
311.2227	2.3
312.0872	5.1
312.1236	1.9
312.1728	2.9
312.2263	1.8
313.0739	3.5
313.1082	16.3
313.1826	18.8
313.2400	100.0
314.1069	7.5
314.1847	3.3
314.2420	17.8
315.0884	16.2
315.1270	25.9
315.1568	11.1
315.2535	16.2

Name: 12,13-DiHOME(9)
PrecursorMZ: 313.23848
RT: 2.3867000000000003
ExactMass: 314.24570956
Spectrum_type: 2
charge: -1
Formula: C18H34O4
SMILES: CCCCCC(C(C/C=C/CCCCCCCC(=O)O)O)O
Method: HCD
Collision_energy: [28.333334]
Isolation_window: 4.0
Ion_mode: N
Num Peaks: 31
79.9564	1.8
80.9643	27.4
91.0212	2.7
96.9592	0.9
127.1120	1.8
141.1279	1.5
155.1070	1.3
171.1020	3.5
183.1386	1.8
185.1176	1.9
201.1128	17.5
202.1163	1.9
269.0457	6.1
277.2176	2.2
279.2328	0.9
295.2274	3.1
297.2437	5.9
311.1694	2.8
311.2228	4.2
311.2952	1.6
312.1715	3.4
312.2253	1.8
313.0510	11.6
313.1700	1.1
313.2386	45.9
314.0569	1.2
314.2419	9.1
315.0833	1.1
315.1267	2.0
315.1299	4.5
315.2541	100.0

Name: 12,14-Dihydroxy-11-methyl-6-methylidene-16-oxo-15-oxapentacyclo)9.3.2.15,8.01,10.02,8(heptadecane-9-carboxylic acid
PrecursorMZ: 347.15009
RT: 0.5976
ExactMass: 348.15728848
Spectrum_type: 2
charge: -1
Formula: C19H24O6
SMILES: CC12C(CC(C3(C1C(C45C3CCC(C4)C(=C)C5)C(=O)O)OC2=O)O)O
Method: HCD
Collision_energy: [28.333334]
Isolation_window: 4.0
Ion_mode: N
Num Peaks: 57
58.0051	18.7
59.0129	9.9
71.0129	3.9
72.9922	2.7
73.0285	3.0
85.0285	2.7
87.0078	5.5
88.0396	2.1
101.0236	3.7
105.0184	2.1
109.0286	3.6
111.0444	2.8
113.0234	2.4
125.0236	2.1
128.0345	2.2
129.0183	2.1
130.0865	2.3
135.0443	6.8
151.0389	2.3
185.0796	3.8
199.1487	9.3
237.1288	2.9
239.1438	13.9
240.1473	2.5
241.1593	16.1
242.1634	2.7
243.1234	2.3
255.1388	9.5
257.1158	2.3
259.1701	61.7
260.1732	10.3
285.1488	3.7
301.1800	4.7
303.1247	2.0
303.1601	16.9
303.1964	12.9
304.1633	3.8
304.1993	2.0
305.2121	2.4
319.1922	2.3
329.1367	7.3
330.1424	1.9
345.1207	7.6
345.1676	15.3
345.2297	5.2
346.0908	3.7
346.1245	9.3
346.1707	7.4
347.1108	8.4
347.1500	100.0
347.1847	15.1
348.1123	5.9
348.1520	20.1
348.1896	3.9
349.1255	4.1
349.1643	9.3
349.2023	39.1

Name: 12-Hydroxy-13-(hydroxymethyl)-3,5,7-trimethyl-2,4-tetradecadienedioic acid
PrecursorMZ: 341.197
RT: 3.3603
ExactMass: 342.20423867
Spectrum_type: 2
charge: -1
Formula: C18H30O6
SMILES: CC(CCCCC(C(CO)C(=O)O)O)C/C(=C/C(=C/C(=O)O)/C)/C
Method: HCD
Collision_energy: [28.333334]
Isolation_window: 4.0
Ion_mode: N
Num Peaks: 29
59.0129	1.6
61.9875	1.6
116.9277	2.2
135.0444	1.2
235.2065	3.4
261.1862	6.2
262.1896	1.3
263.2018	5.3
277.1814	1.2
279.1966	13.4
280.2001	2.2
281.2128	2.6
283.2639	1.3
297.2073	1.5
305.1759	3.3
307.1914	2.3
321.1710	2.6
322.1736	2.6
323.1866	29.2
324.1900	4.9
325.2023	16.4
339.1814	11.8
340.1851	9.5
341.0344	2.2
341.0901	1.1
341.1971	100.0
342.2007	20.3
343.1788	2.9
343.2127	51.5

Name: 12-Hydroxyjasmonate sulfate
PrecursorMZ: 305.07005
RT: 1.8802
ExactMass: 306.07732408
Spectrum_type: 2
charge: -1
Formula: C12H18O7S
SMILES: C1CC(=O)[C@@H]([C@H]1CC(=O)O)C/C=C\CCOS(=O)(=O)O
Method: HCD
Collision_energy: [28.333334]
Isolation_window: 4.0
Ion_mode: N
Num Peaks: 11
59.0130	14.7
96.9592	60.6
98.9550	1.5
225.1130	34.3
226.1163	3.7
304.1417	0.8
304.9977	0.7
305.0700	100.0
305.1428	0.9
306.0731	13.7
307.0718	2.6

Name: 12-Methoxyvernolepin
PrecursorMZ: 307.11876
RT: 1.3278
ExactMass: 308.12598835
Spectrum_type: 2
charge: -1
Formula: C16H20O6
SMILES: COC(=O)C(=C)[C@@H]1[C@H](C[C@@]2(COC(=O)C(=C)[C@@H]2[C@H]1O)C=C)O
Method: HCD
Collision_energy: [28.333334]
Isolation_window: 4.0
Ion_mode: N
Num Peaks: 38
59.0129	4.0
61.9875	20.5
87.0079	1.9
88.0392	1.9
94.0289	2.4
108.0450	1.8
113.0346	1.8
116.0707	2.9
121.0286	49.3
122.0318	3.1
124.0759	9.8
134.0463	10.5
135.0443	3.9
136.0759	23.4
137.0608	1.6
137.0796	3.4
139.0393	1.9
149.0600	1.9
165.0186	100.0
166.0220	7.9
168.0658	14.1
169.0702	1.9
175.0756	1.7
180.0658	6.5
201.0883	2.1
215.1027	1.8
245.1141	5.9
263.0930	3.7
305.1133	2.1
305.1509	4.8
306.1005	9.6
306.1360	3.6
307.0827	14.1
307.1196	17.1
308.0841	1.9
308.1179	9.9
309.0989	3.7
309.1718	1.5

Name: 12a-HYDROXY-5-DEOXYDEHYDROMUNDUSERONE
PrecursorMZ: 341.10275
RT: 6.0760000000000005
ExactMass: 342.11033829
Spectrum_type: 2
charge: -1
Formula: C19H18O6
SMILES: COC1=CC2=C(C=C1)C=C3C4=CC(=C(C=C4OCC3(O2)O)OC)OC
Method: HCD
Collision_energy: [28.333334]
Isolation_window: 4.0
Ion_mode: N
Num Peaks: 21
59.0128	5.5
91.0390	12.6
113.0349	5.5
267.0662	59.1
268.0696	9.2
282.0894	33.0
283.0951	8.7
297.1124	20.1
311.0570	12.4
326.0796	31.6
327.0823	6.5
339.1993	24.0
339.2475	6.5
339.3253	9.8
340.2056	9.0
341.1031	100.0
341.1971	28.4
342.1054	18.7
342.1968	6.7
343.1199	17.7
343.2136	16.3

Name: 13-HOTrE
PrecursorMZ: 293.21226
RT: 1.6793
ExactMass: 294.21949481
Spectrum_type: 2
charge: -1
Formula: C18H30O3
SMILES: CC/C=C\CC(/C=C/C=C\CCCCCCCC(=O)O)O
Method: HCD
Collision_energy: [28.333334]
Isolation_window: 4.0
Ion_mode: N
Num Peaks: 19
59.0130	4.5
113.0963	6.1
125.0964	2.4
171.1020	6.7
185.1177	5.3
195.1383	2.0
199.1693	1.7
235.1704	1.9
249.2215	2.8
251.2377	3.4
275.2015	4.1
277.2171	9.5
291.1971	2.1
293.1787	3.9
293.1824	4.5
293.2122	100.0
294.2154	18.5
295.2279	92.1
295.2607	3.8

Name: 13-HoTrE
PrecursorMZ: 293.2116
RT: 1.283
ExactMass: 294.21949481
Spectrum_type: 2
charge: -1
Formula: C18H30O3
SMILES: CC/C=C\CC(/C=C/C=C\CCCCCCCC(=O)O)O
Method: HCD
Collision_energy: [28.333334]
Isolation_window: 4.0
Ion_mode: N
Num Peaks: 51
59.0130	1.8
71.0129	10.0
71.0492	0.8
96.9590	0.8
113.0962	1.6
127.0755	1.3
137.0963	0.9
151.0755	0.8
171.1019	2.1
183.1025	0.7
183.1383	5.5
185.1178	0.5
192.1149	2.4
193.1591	2.0
194.0944	0.7
195.1382	2.8
207.1385	1.9
207.1747	2.4
211.1330	1.6
218.0940	1.3
220.1464	32.3
221.1096	0.7
221.1540	92.7
221.1990	0.7
222.1575	12.4
223.1335	1.0
223.1606	0.8
223.1700	1.4
235.1176	2.0
235.1211	2.0
235.1342	1.6
235.1697	1.7
236.0555	0.8
236.1049	100.0
236.1542	0.8
237.1085	14.1
238.1109	1.0
249.1856	0.7
251.1648	3.7
275.2015	3.7
276.2047	0.7
277.2170	3.1
291.1976	0.9
292.1997	0.5
293.1757	21.7
293.1792	2.2
293.2117	27.3
294.1791	4.5
294.2149	5.1
295.1551	1.3
295.2273	13.4

Name: 13-Hydroxyoctadeca-9,11-dienoic acid
PrecursorMZ: 295.22741
RT: 1.4139
ExactMass: 296.23514488
Spectrum_type: 2
charge: -1
Formula: C18H32O3
SMILES: CCCCCC(C=CC=CCCCCCCCC(=O)O)O
Method: HCD
Collision_energy: [28.333334]
Isolation_window: 4.0
Ion_mode: N
Num Peaks: 55
71.0129	2.6
96.9590	2.6
99.0077	0.7
101.0597	0.9
113.0961	0.9
136.0883	0.9
140.0833	1.5
155.1068	0.9
171.1019	3.0
183.1026	1.3
183.1383	16.1
184.1420	1.1
185.1174	3.7
192.1148	1.2
193.1186	1.5
193.1590	4.0
194.1624	5.3
195.1383	6.7
196.1417	0.9
197.1540	5.0
208.1412	0.7
220.1463	5.5
221.1529	17.9
222.1575	19.0
223.1595	2.0
223.1624	0.7
223.1698	3.6
224.1734	0.6
225.1491	0.5
235.1698	3.3
236.1049	14.5
237.1084	19.8
238.1108	2.5
249.1855	1.0
250.1890	2.2
251.1652	0.6
277.2170	10.3
278.2203	2.2
279.2327	6.4
293.1761	2.5
293.2117	1.1
294.0770	1.2
294.1792	8.3
294.2156	1.1
295.1808	0.9
295.1839	0.6
295.2016	1.4
295.2275	49.3
296.2309	9.4
297.1158	2.2
297.1537	2.5
297.1707	0.6
297.1873	0.5
297.2431	100.0
297.3129	0.7

Name: 14-(hydroxymethyl)-5,9-dimethyl-15-oxapentacyclo(11.3.1.0¹,¹⁰.0⁴,⁹.0¹⁴,¹⁶)heptadecane-5-carboxylic acid
PrecursorMZ: 333.20718
RT: 2.8927
Spectrum_type: 2
charge: -1
SMILES: CC1(C(=O)O)CCCC2(C)C1CCC13CC(CCC21)C1(CO)OC31
Method: HCD
Collision_energy: [28.333334]
Isolation_window: 4.0
Ion_mode: N
Num Peaks: 7
96.9593	2.0
332.1134	2.0
332.1737	2.6
333.1415	2.4
333.2074	100.0
334.2107	21.6
335.2218	9.4

Name: 14-Epiandrographolide
PrecursorMZ: 349.20172
RT: 4.704
ExactMass: 350.20932405
Spectrum_type: 2
charge: -1
Formula: C20H30O5
SMILES: C[C@@]12CC[C@H]([C@@]([C@H]1CCC(=C)[C@H]2C/C=C/3\[C@H](COC3=O)O)(C)CO)O
Method: HCD
Collision_energy: [28.333334]
Isolation_window: 4.0
Ion_mode: N
Num Peaks: 66
57.0337	1.0
59.0129	2.5
71.0129	1.4
73.0285	1.4
74.0238	1.0
88.0396	1.0
96.9592	1.0
114.0550	2.7
122.0602	2.1
130.0864	3.9
136.0758	1.9
147.0444	1.4
148.0763	0.8
164.0709	2.6
176.1074	1.1
183.1139	1.1
217.0976	1.7
219.1138	1.6
226.1079	1.4
229.1202	0.8
243.1142	1.6
245.1297	3.3
257.1908	1.5
259.1279	1.0
261.1873	0.8
273.1600	1.3
275.2015	1.4
277.1554	1.2
285.1856	0.9
287.2017	5.2
288.2050	1.0
289.2173	0.9
303.1959	5.4
304.1979	1.7
305.1784	1.0
305.2120	15.4
306.2150	3.2
307.2275	6.1
315.1359	1.9
316.1379	1.4
319.1907	1.6
321.2068	7.0
329.2322	1.2
331.1622	2.3
331.1655	1.2
331.1925	1.2
331.2006	1.5
333.2075	1.4
337.2017	1.2
347.1870	9.9
347.2442	19.6
348.1099	1.0
348.1511	1.5
348.1561	2.2
348.1907	5.2
348.2476	8.1
349.1387	1.3
349.2032	100.0
349.2400	2.9
350.1343	1.3
350.1738	1.6
350.2065	20.2
351.1815	1.3
351.1840	1.2
351.2177	32.2
351.2540	1.3

Name: 14-Ethyl-12-ethylidene-8-aza-14-azoniapentacyclo)9.5.2.01,9.02,7.014,17(octadeca-2,4,6,9-tetraene-10-carbaldehyde
PrecursorMZ: 355.15799
RT: 0.9609
ExactMass: 321.196688425
Spectrum_type: 2
charge: -1
Formula: C21H25N2O+
SMILES: CC[N+]12CCC34C1CC(C(=CC)C2)C(=C3NC5=CC=CC=C45)C=O
Method: HCD
Collision_energy: [28.333334]
Isolation_window: 4.0
Ion_mode: N
Num Peaks: 17
69.1378	0.6
79.9562	0.6
96.9591	29.5
98.9548	0.7
274.1449	0.4
275.0913	0.4
353.1426	3.2
353.2013	1.0
354.1001	0.8
354.1454	2.0
355.0663	0.5
355.0856	0.7
355.1583	100.0
355.2311	0.6
355.2500	0.7
356.1616	18.6
357.1665	2.7

Name: 14-Methylpentadecanoic acid
PrecursorMZ: 255.23297
RT: 0.5614
ExactMass: 256.240230259
Spectrum_type: 2
charge: -1
Formula: C16H32O2
SMILES: CC(C)CCCCCCCCCCCCC(=O)O
Method: HCD
Collision_energy: [28.333334]
Isolation_window: 4.0
Ion_mode: N
Num Peaks: 8
83.0493	0.7
253.2176	1.4
254.2214	0.6
255.1771	0.7
255.2329	100.0
255.2879	0.6
256.2364	16.5
257.2391	1.0

Name: 16-Hydroxy-4,4,8,10,14-pentamethyl-17-(4,5,6-trihydroxy-6-methylheptan-2-yl)-1,2,5,6,7,9,11,12,15,16-decahydrocyclopenta(a)phenanthren-3-one
PrecursorMZ: 535.36398
RT: 2.9892
ExactMass: 490.36582469
Spectrum_type: 2
charge: -1
Formula: C30H50O5
SMILES: CC(CC(C(C(C)(C)O)O)O)C1=C2CCC3C4(CCC(=O)C(C4CCC3(C2(CC1O)C)C)(C)C)C
Method: HCD
Collision_energy: [28.333334]
Isolation_window: 4.0
Ion_mode: N
Num Peaks: 3
87.0441	52.2
459.3481	88.3
535.3725	100.0

Name: 16-Hydroxyhexadecanoic acid
PrecursorMZ: 271.22808
RT: 0.5421
ExactMass: 272.23514488
Spectrum_type: 2
charge: -1
Formula: C16H32O3
SMILES: C(CCCCCCCC(=O)O)CCCCCCCO
Method: HCD
Collision_energy: [28.333334]
Isolation_window: 4.0
Ion_mode: N
Num Peaks: 10
149.0964	1.7
225.2221	35.5
226.2257	5.9
253.2172	0.8
269.2488	28.0
270.2521	10.2
271.2280	100.0
272.2314	16.3
273.0796	2.3
273.2337	1.1

Name: 18-Hepe
PrecursorMZ: 317.21187
RT: 2.1556
ExactMass: 318.21949481
Spectrum_type: 2
charge: -1
Formula: C20H30O3
SMILES: CCC(/C=C/C=C\C/C=C\C/C=C\C/C=C\CCCC(=O)O)O
Method: HCD
Collision_energy: [28.333334]
Isolation_window: 4.0
Ion_mode: N
Num Peaks: 4
315.2545	1.6
317.2122	100.0
318.2156	21.7
319.2235	2.7

Name: 19-Hydroxybufalin
PrecursorMZ: 447.23909
RT: 7.875
ExactMass: 402.24062418
Spectrum_type: 2
charge: -1
Formula: C24H34O5
SMILES: C[C@]12CC[C@H]3[C@H]([C@]1(CC[C@@H]2C4=COC(=O)C=C4)O)CC[C@H]5[C@@]3(CC[C@@H](C5)O)CO
Method: HCD
Collision_energy: [28.333334]
Isolation_window: 4.0
Ion_mode: N
Num Peaks: 19
78.9581	5.7
128.0346	10.0
210.0763	6.8
341.2486	8.1
367.2291	7.3
385.2378	10.3
411.2171	12.5
429.2286	22.9
430.2314	7.3
446.1579	5.9
446.1783	5.9
447.1105	11.0
447.1529	5.8
447.2396	100.0
447.3067	5.5
448.1781	7.0
448.2426	31.3
449.1910	8.7
449.2500	6.5

Name: 1H-3,9a-Methanocyclopent(c)oxocin-4-carboxylic acid, octahydro-4-hydroxy-7-(2-hydroxy-1-methylethylidene)-, (7E)-
PrecursorMZ: 281.13918
RT: 6.0275
ExactMass: 282.1467238
Spectrum_type: 2
charge: -1
Formula: C15H22O5
SMILES: C/C(=C\1/CCC23C1CCC(C(C2)OC3)(C(=O)O)O)/CO
Method: HCD
Collision_energy: [28.333334]
Isolation_window: 4.0
Ion_mode: N
Num Peaks: 18
61.9875	30.4
85.0649	15.0
96.9590	7.0
111.0807	6.5
130.0865	38.2
150.0189	28.9
165.0663	6.2
219.1383	28.0
237.1491	100.0
238.1530	16.2
239.1654	9.0
263.1294	14.7
281.1396	77.5
281.2482	56.4
282.1426	13.6
282.2514	10.7
283.1550	21.8
283.2640	71.8

Name: 1H-Imidazole-5-acetic acid
PrecursorMZ: 125.03484
RT: 2.9774
ExactMass: 126.042927438
Spectrum_type: 2
charge: -1
Formula: C5H6N2O2
SMILES: C1=C(NC=N1)CC(=O)O
Method: HCD
Collision_energy: [28.333334]
Isolation_window: 4.0
Ion_mode: N
Num Peaks: 15
81.0449	100.0
82.0481	5.5
94.0289	5.3
123.0083	4.6
123.0448	4.0
123.0553	5.6
123.9013	20.7
124.0066	7.2
124.0396	13.8
124.9908	14.5
125.0237	10.3
125.0349	13.8
125.8990	20.2
126.0189	4.4
126.0550	4.4

Name: 1H-Indole-3-acetic acid, 2,3-dihydro-3-hydroxy-2-oxo-
PrecursorMZ: 206.04515
RT: 4.7191
ExactMass: 207.05315777
Spectrum_type: 2
charge: -1
Formula: C10H9NO4
SMILES: C1=CC=C2C(=C1)C(C(=O)N2)(CC(=O)O)O
Method: HCD
Collision_energy: [28.333334]
Isolation_window: 4.0
Ion_mode: N
Num Peaks: 34
59.0129	5.9
79.9565	2.7
92.0496	4.1
108.0445	4.2
118.0288	7.8
118.0652	11.3
134.0602	90.9
135.0637	6.1
136.0759	4.4
144.0446	83.2
145.0481	7.7
146.0239	100.0
146.0602	6.0
147.0273	8.5
160.0396	9.5
161.0711	6.7
162.0551	23.1
164.0705	7.1
180.0658	4.8
184.0010	6.9
186.0187	5.5
204.0294	5.7
205.0708	3.2
205.1591	30.1
206.0302	5.2
206.0454	12.1
206.0807	11.1
206.1628	5.4
206.5335	3.4
207.0035	4.1
207.0063	2.5
207.0873	3.7
208.0607	14.2
208.0977	2.5

Name: 1H-Naphtho(1,2-c)pyran-7-propanoic acid, dodecahydro-8-(1-hydroxy-1-methylethyl)-3-(methoxycarbonyl)-3,4a,7,10a-tetramethyl-5-methylene-1,4-dioxo-
PrecursorMZ: 477.24916
RT: 5.583975000000001
ExactMass: 478.25666817
Spectrum_type: 2
charge: -1
Formula: C26H38O8
SMILES: CC12CCC(C(C1CC(=C)C3(C2C(=O)OC(C3=O)(C)C(=O)OC)C)(C)CCC(=O)O)C(C)(C)O
Method: HCD
Collision_energy: [28.333334]
Isolation_window: 4.0
Ion_mode: N
Num Peaks: 37
53.0262	1.8
53.0290	4.5
53.2501	1.6
53.2530	3.8
109.0647	1.5
111.0806	3.0
219.1384	2.8
259.2054	1.7
287.2378	3.8
289.2536	3.0
291.1606	1.6
313.2163	2.4
315.2327	2.3
331.2277	17.0
332.2302	3.1
333.2427	6.4
359.2227	4.4
375.2182	7.7
376.2211	1.5
377.2326	4.5
378.1745	1.8
389.2694	4.4
415.2475	1.6
417.2645	4.6
419.2082	2.8
421.2234	2.9
428.2466	1.7
433.2578	5.6
435.2732	5.0
461.2565	3.1
475.2315	1.7
476.2345	5.6
477.2488	100.0
478.2522	28.7
479.2573	4.4
479.2642	87.5
479.3122	2.9

Name: 1H-Pyrrole-1-carboxamide, 3-ethyl-2,5-dihydro-4-methyl-N-2-4-(trans-4-methylcyclohexyl)aminocarbonylaminosulfonylphenylethyl-2-oxo-
PrecursorMZ: 489.21707
RT: 0.5983
ExactMass: 490.22499137
Spectrum_type: 2
charge: -1
Formula: C24H34N4O5S
SMILES: CCC1=C(CN(C1=O)C(=O)NCCC2=CC=C(C=C2)S(=O)(=O)NC(=O)NC3CCC(CC3)C)C
Method: HCD
Collision_energy: [28.333334]
Isolation_window: 4.0
Ion_mode: N
Num Peaks: 14
54.3558	1.9
54.3588	4.7
54.4703	1.0
96.9592	1.5
152.9855	2.6
335.2230	46.9
336.2264	9.2
337.2288	0.9
487.2002	0.7
488.2038	0.8
489.2166	100.0
489.3329	1.4
490.2197	22.9
491.2183	5.0

Name: 2',3' cyclic CMP
PrecursorMZ: 609.0757
RT: 8.8182
ExactMass: 305.04128673
Spectrum_type: 2
charge: -1
Formula: C9H12N3O7P
SMILES: C1=CN(C(=O)N=C1N)[C@H]2C3C([C@H](O2)CO)OP(=O)(O3)O
Method: HCD
Collision_energy: [28.333334]
Isolation_window: 4.0
Ion_mode: N
Num Peaks: 11
78.9582	73.8
96.9687	31.6
110.0352	72.1
158.9245	13.6
174.9799	15.3
211.0008	42.8
304.0338	17.4
322.0460	10.3
498.0352	11.2
609.0762	100.0
610.0788	15.9

Name: 2',3'-Dideoxyuridine
PrecursorMZ: 211.072
RT: 4.8794
ExactMass: 212.07970687
Spectrum_type: 2
charge: -1
Formula: C9H12N2O4
SMILES: C1C[C@@H](O[C@@H]1CO)N2C=CC(=O)NC2=O
Method: HCD
Collision_energy: [28.333334]
Isolation_window: 4.0
Ion_mode: N
Num Peaks: 44
59.0128	2.1
68.0246	6.9
74.0237	2.5
80.9808	4.0
81.0211	8.4
82.0289	19.8
84.0446	16.4
94.0290	6.3
96.0447	3.8
97.0287	7.5
97.0397	9.9
104.0498	3.2
108.0446	6.5
110.0603	22.5
111.0553	3.1
114.0550	2.2
123.0556	11.4
124.0395	8.8
126.0552	1.9
127.0503	2.9
128.0345	25.9
136.0396	15.7
138.0553	4.2
148.0397	6.9
149.0710	7.0
166.0504	25.6
166.0865	3.2
167.0820	100.0
167.1192	2.3
168.0659	9.8
168.0854	8.8
169.0865	2.6
169.1338	5.9
210.0410	4.0
210.0760	4.4
211.0280	1.9
211.0725	45.8
211.1085	3.1
212.0565	27.3
212.0746	4.3
212.0923	17.2
213.0069	1.9
213.0760	5.1
213.1242	15.7

Name: 2',3-Dihydroxy-4,4',6'-trimethoxychalcone
PrecursorMZ: 329.10314
RT: 6.7039
ExactMass: 330.11033829
Spectrum_type: 2
charge: -1
Formula: C18H18O6
SMILES: COC1=C(C=C(C=C1)/C=C/C(=O)C2=C(C=C(C=C2OC)OC)O)O
Method: HCD
Collision_energy: [28.333334]
Isolation_window: 4.0
Ion_mode: N
Num Peaks: 26
88.0393	5.4
114.0554	3.1
121.0287	5.9
128.0345	7.9
149.0601	4.5
179.0705	3.8
201.1247	3.1
213.0916	2.5
239.1074	20.1
240.1113	3.9
241.1233	100.0
242.1267	16.8
267.1029	22.3
268.1055	4.6
285.1133	68.5
286.1168	12.4
311.0926	23.7
311.1868	3.4
312.0956	4.2
327.1820	5.5
328.2500	5.6
329.0985	3.4
329.1031	78.7
329.1959	9.0
330.1069	15.2
330.1674	11.5

Name: 2',4',5'-Trihydroxybutyrophenone
PrecursorMZ: 195.06579
RT: 3.0992
ExactMass: 196.07355886
Spectrum_type: 2
charge: -1
Formula: C10H12O4
SMILES: CCCC(=O)C1=CC(=C(C=C1O)O)O
Method: HCD
Collision_energy: [28.333334]
Isolation_window: 4.0
Ion_mode: N
Num Peaks: 95
57.0337	5.9
58.9952	2.8
59.0129	2.5
66.0340	7.4
72.9923	20.2
73.0286	4.8
80.9642	7.6
81.0338	2.4
85.0286	2.0
91.0181	2.5
92.0497	2.6
93.0337	3.6
94.0290	10.8
95.0493	4.4
97.0287	2.3
99.0079	2.0
99.0442	1.5
107.0495	7.2
108.0446	6.3
109.0165	3.2
109.0285	7.1
109.0651	27.0
110.0241	2.8
110.0604	6.0
111.0079	2.3
111.0443	4.4
119.0494	2.8
120.0447	6.4
121.0287	9.7
121.0650	4.3
122.0606	3.3
123.0320	3.2
123.0444	13.7
123.0807	3.9
124.0397	6.3
125.0238	1.9
125.0601	5.2
133.0651	4.1
134.0605	1.9
135.0444	6.1
135.0809	2.7
136.0396	2.1
136.0522	5.4
137.0237	5.5
137.0476	6.7
137.0600	3.8
138.0317	4.0
139.0393	3.7
139.0756	2.9
149.0601	8.5
150.0445	2.1
150.0551	17.1
150.0641	3.4
150.0910	3.4
151.0401	7.1
151.0759	77.1
151.0871	6.8
151.1115	3.6
152.0694	8.2
152.0798	4.4
152.1072	3.4
153.0551	17.2
153.0915	26.5
163.0394	3.0
165.0187	6.9
165.0550	5.1
165.1027	2.5
167.0348	1.8
167.0709	2.5
177.0551	6.0
179.0344	1.7
179.0708	8.5
180.0283	4.1
193.0503	2.5
193.0835	2.0
193.1343	15.8
194.0460	2.9
194.0565	2.4
194.0807	6.5
194.1186	1.8
194.1375	3.9
194.9971	3.7
195.0306	4.6
195.0515	12.1
195.0659	100.0
195.1024	2.0
195.1384	5.6
196.0426	2.0
196.0587	3.8
196.0609	4.2
196.0685	8.9
196.0708	1.8
196.0964	3.5
197.0450	19.6
197.0815	35.3

Name: 2',4',6'-Trihydroxydihydrochalcone
PrecursorMZ: 257.08195
RT: 0.6153
ExactMass: 258.08920892
Spectrum_type: 2
charge: -1
Formula: C15H14O4
SMILES: C1=CC=C(C=C1)CCC(=O)C2=C(C=C(C=C2O)O)O
Method: HCD
Collision_energy: [28.333334]
Isolation_window: 4.0
Ion_mode: N
Num Peaks: 32
59.0128	1.0
81.0336	1.0
83.0492	11.7
93.0337	3.2
96.9591	3.8
106.0414	10.5
107.0494	23.4
108.0207	3.2
108.0525	1.2
109.0286	0.8
121.0286	4.1
127.0390	1.3
135.0441	1.3
138.0315	1.0
151.0395	0.8
167.0855	0.9
213.0915	71.0
214.0950	10.4
255.0291	0.9
255.2327	22.1
256.1242	0.8
256.2363	5.2
257.0468	5.8
257.0816	100.0
257.1286	5.3
257.1727	2.8
257.2111	1.1
258.0851	15.3
258.1332	0.9
259.0277	0.8
259.0626	3.9
259.0899	1.2

Name: 2',4'-Dihydroxyacetophenone
PrecursorMZ: 151.03905
RT: 6.1732
ExactMass: 152.047344113
Spectrum_type: 2
charge: -1
Formula: C8H8O3
SMILES: CC(=O)C1=C(C=C(C=C1)O)O
Method: HCD
Collision_energy: [28.333334]
Isolation_window: 4.0
Ion_mode: N
Num Peaks: 47
59.0129	2.0
66.0340	0.5
79.9564	1.2
80.0495	0.4
81.0335	0.4
83.0241	0.9
85.0285	0.4
93.0336	0.6
96.9591	6.3
106.0411	0.6
107.0493	15.2
108.0194	24.7
108.0445	9.7
108.0525	1.1
109.0034	1.0
109.0226	0.9
109.0284	0.6
109.0397	0.9
110.0714	1.0
118.8987	1.4
121.0284	0.5
122.0603	0.4
123.0443	0.9
124.0758	1.5
126.0299	1.6
126.0550	0.4
133.0149	0.5
136.0157	0.6
137.0475	0.5
149.0456	0.7
149.0600	0.3
150.0553	1.1
150.8887	0.4
151.0000	0.6
151.0054	0.7
151.0153	0.8
151.0253	100.0
151.0367	2.2
151.0388	6.2
151.0473	0.4
151.0510	0.8
151.0755	0.3
151.0871	0.4
152.0293	5.1
152.0345	3.8
152.0708	12.0
153.0742	0.3

Name: 2',4,4',6'-Tetrahydroxychalcone
PrecursorMZ: 271.06122
RT: 2.2216
ExactMass: 272.06847348
Spectrum_type: 2
charge: -1
Formula: C15H12O5
SMILES: C1=CC(=CC=C1/C=C/C(=O)C2=C(C=C(C=C2O)O)O)O
Method: HCD
Collision_energy: [28.333334]
Isolation_window: 4.0
Ion_mode: N
Num Peaks: 5
119.0494	28.4
151.0031	60.0
271.0614	100.0
271.2276	24.0
272.0641	14.3

Name: 2'-Deoxyguanosine 5'-monophosphate
PrecursorMZ: 346.05522
RT: 7.7168
ExactMass: 347.0630848
Spectrum_type: 2
charge: -1
Formula: C10H14N5O7P
SMILES: C1[C@@H]([C@H](O[C@H]1N2C=NC3=C2N=C(NC3=O)N)COP(=O)(O)O)O
Method: HCD
Collision_energy: [28.333334]
Isolation_window: 4.0
Ion_mode: N
Num Peaks: 6
78.9580	70.2
96.9686	16.2
134.0463	27.2
211.0006	100.0
346.0552	53.5
347.1029	17.4

Name: 2'-O-Methylguanosine
PrecursorMZ: 296.09979
RT: 6.20165
ExactMass: 297.1073186
Spectrum_type: 2
charge: -1
Formula: C11H15N5O5
SMILES: CO[C@@H]1[C@@H]([C@H](O[C@H]1N2C=NC3=C2N=C(NC3=O)N)CO)O
Method: HCD
Collision_energy: [28.333334]
Isolation_window: 4.0
Ion_mode: N
Num Peaks: 10
133.0144	5.6
149.0336	2.7
150.0414	70.5
191.0442	2.6
206.0678	4.5
222.0402	2.6
296.0252	11.7
296.0999	100.0
297.1030	14.6
297.2439	3.0

Name: 2'-O-methylinosine
PrecursorMZ: 281.08826
RT: 1.4345
ExactMass: 282.09641956
Spectrum_type: 2
charge: -1
Formula: C11H14N4O5
SMILES: CO[C@@H]1[C@@H]([C@H](O[C@H]1N2C=NC3=C2N=CNC3=O)CO)O
Method: HCD
Collision_energy: [28.333334]
Isolation_window: 4.0
Ion_mode: N
Num Peaks: 7
61.9874	9.0
165.0408	100.0
166.0449	4.7
191.0568	6.1
281.0884	56.5
282.0919	7.5
283.2634	14.0

Name: 2,2-Dimethyl-1-(4-((6-(trifluoromethyl)pyrimidin-4-yl)amino)piperidin-1-yl)propan-1-one
PrecursorMZ: 365.13551
RT: 7.5891
ExactMass: 330.16674579
Spectrum_type: 2
charge: -1
Formula: C15H21F3N4O
SMILES: CC(C)(C)C(=O)N1CCC(CC1)NC2=NC=NC(=C2)C(F)(F)F
Method: HCD
Collision_energy: [28.333334]
Isolation_window: 4.0
Ion_mode: N
Num Peaks: 12
122.0603	8.8
136.0761	26.7
138.0553	40.0
230.1053	8.0
244.1218	11.0
259.1452	100.0
260.1487	16.3
303.1354	9.2
347.1253	43.7
348.1278	7.6
365.1373	36.3
366.1386	10.6

Name: 2,2-Dimethyl-1-(4-))6-(trifluoromethyl)pyrimidin-4-yl(aminopiperidin-1-yl)propan-1-one
PrecursorMZ: 365.13561
RT: 3.9755
ExactMass: 330.16674579
Spectrum_type: 2
charge: -1
Formula: C15H21F3N4O
SMILES: CC(C)(C)C(=O)N1CCC(CC1)NC2=NC=NC(=C2)C(F)(F)F
Method: HCD
Collision_energy: [28.333334]
Isolation_window: 4.0
Ion_mode: N
Num Peaks: 18
61.9875	5.5
122.0603	6.8
136.0760	22.9
138.0553	32.8
138.0914	2.9
182.0455	3.4
216.1390	5.5
230.1059	6.4
231.1135	3.2
244.1218	7.1
259.1452	100.0
260.1484	15.7
303.1355	7.3
347.1250	32.6
348.1288	5.6
365.1352	40.8
366.1393	6.8
367.1762	10.1

Name: 2,3,14,22,25-Pentahydroxycholest-7-en-6-one
PrecursorMZ: 509.31172
RT: 5.2922
ExactMass: 464.31378912
Spectrum_type: 2
charge: -1
Formula: C27H44O6
SMILES: CC(C1CCC2(C1(CCC3C2=CC(=O)C4C3(CC(C(C4)O)O)C)C)O)C(CCC(C)(C)O)O
Method: HCD
Collision_energy: [28.333334]
Isolation_window: 4.0
Ion_mode: N
Num Peaks: 20
56.5917	3.5
56.8157	4.3
209.1538	3.1
253.1442	3.4
271.1543	3.4
429.3002	2.8
431.3162	4.4
447.3124	2.6
449.3277	3.5
465.3233	3.9
473.2916	3.3
475.3058	6.0
491.3011	12.8
492.3035	3.9
493.3166	24.0
507.2971	4.9
508.3033	3.7
509.3119	75.5
510.3151	22.1
511.3272	100.0

Name: 2,3,24-Trihydroxy-12-ursen-28-oic acid
PrecursorMZ: 487.34314
RT: 2.3425
ExactMass: 488.35017463
Spectrum_type: 2
charge: -1
Formula: C30H48O5
SMILES: C[C@@H]1CC[C@@]2(CC[C@@]3(C(=CC[C@H]4[C@]3(CC[C@@H]5[C@@]4(C[C@H]([C@H]([C@]5(C)CO)O)O)C)C)[C@@H]2[C@H]1C)C)C(=O)O
Method: HCD
Collision_energy: [28.333334]
Isolation_window: 4.0
Ion_mode: N
Num Peaks: 16
54.1478	2.2
54.1508	4.4
54.2622	1.5
59.0130	1.3
73.0288	1.0
425.3486	1.0
443.3648	1.8
445.3762	2.2
469.3357	2.1
471.3512	1.7
485.3273	1.9
486.3369	6.2
487.1580	1.3
487.3450	100.0
488.3485	32.3
489.3651	12.6

Name: 2,3,4'-Trihydroxy-4-methoxybenzophenone
PrecursorMZ: 259.06118
RT: 1.1242
ExactMass: 260.06847348
Spectrum_type: 2
charge: -1
Formula: C14H12O5
SMILES: COC1=C(C(=C(C=C1)C(=O)C2=CC=C(C=C2)O)O)O
Method: HCD
Collision_energy: [28.333334]
Isolation_window: 4.0
Ion_mode: N
Num Peaks: 44
59.0130	1.3
67.0179	0.8
69.0337	0.9
87.0078	0.6
93.0337	3.2
108.0209	0.6
109.0286	5.4
121.0289	0.6
134.0368	0.7
135.0444	8.7
139.0393	0.7
145.0290	0.8
146.0367	1.2
147.0445	0.7
159.0444	1.9
169.0651	1.5
171.0448	0.9
172.0524	3.0
173.0600	1.4
185.0603	1.4
187.0758	2.2
189.0550	1.2
197.0605	2.8
198.0641	0.8
200.0475	1.1
201.0547	0.7
211.0761	2.2
212.0789	0.6
213.0577	0.9
213.0920	3.2
214.0641	0.8
214.0951	0.8
215.0710	100.0
215.1135	0.6
216.0744	13.1
217.0880	2.1
257.0650	3.1
257.1287	1.4
258.0708	0.6
259.0612	63.0
259.0834	2.5
259.1191	0.6
260.0644	8.9
261.0784	4.4

Name: 2,3,4,9-Tetrahydro-1H-pyrido(3,4-b)indole-1-carboxylic acid
PrecursorMZ: 215.08227
RT: 2.294
ExactMass: 216.08987763
Spectrum_type: 2
charge: -1
Formula: C12H12N2O2
SMILES: C1CNC(C2=C1C3=CC=CC=C3N2)C(=O)O
Method: HCD
Collision_energy: [28.333334]
Isolation_window: 4.0
Ion_mode: N
Num Peaks: 23
59.0129	3.6
72.0083	10.9
86.0238	97.4
92.0496	62.9
93.0530	3.3
116.0497	60.6
116.0709	4.9
117.0529	5.3
129.1027	3.4
142.0655	21.6
144.0814	4.6
154.0654	4.0
169.0765	15.0
171.0921	90.0
172.0958	9.8
172.9572	2.6
173.0925	17.7
213.1856	10.7
215.0100	6.0
215.0822	100.0
216.0313	3.1
216.0853	14.7
217.1190	6.6

Name: 2,3-Dihydroxy-3-methylbutanoic acid
PrecursorMZ: 133.04977
RT: 6.5519
ExactMass: 134.0579088
Spectrum_type: 2
charge: -1
Formula: C5H10O4
SMILES: CC(C)(C(C(=O)O)O)O
Method: HCD
Collision_energy: [28.333334]
Isolation_window: 4.0
Ion_mode: N
Num Peaks: 11
71.0129	2.0
87.0443	9.6
107.0494	5.5
132.0447	3.7
132.8672	6.3
132.8995	6.4
133.0498	6.7
134.0462	3.4
134.8653	6.5
134.8939	100.0
135.0445	10.0

Name: 2,3-Dihydroxybenzoate
PrecursorMZ: 153.01865
RT: 2.7601
ExactMass: 153.01878364
Spectrum_type: 2
charge: -1
Formula: C7H5O4-
SMILES: C1=CC(=C(C(=C1)O)[O-])C(=O)O
Method: HCD
Collision_energy: [28.333334]
Isolation_window: 4.0
Ion_mode: N
Num Peaks: 25
66.0340	2.9
80.0497	2.5
81.0336	2.1
82.0290	1.7
107.0493	3.4
108.0196	14.3
108.0446	58.6
109.0286	100.0
109.0401	5.6
109.0480	3.7
109.0645	2.0
110.0238	4.2
110.0319	5.9
111.0442	15.6
123.0444	3.1
151.0255	71.7
151.0388	7.4
152.0355	18.0
152.0704	2.1
153.0186	48.7
153.0289	2.4
153.0550	2.7
154.0214	3.3
154.0500	2.7
155.0343	4.0

Name: 2,3-bis(4-Hydroxy-3-methoxybenzyl)butane-1,4-diol
PrecursorMZ: 361.16622
RT: 0.5521
ExactMass: 362.17293854
Spectrum_type: 2
charge: -1
Formula: C20H26O6
SMILES: COC1=C(C=CC(=C1)CC(CO)C(CC2=CC(=C(C=C2)O)OC)CO)O
Method: HCD
Collision_energy: [28.333334]
Isolation_window: 4.0
Ion_mode: N
Num Peaks: 42
109.0649	1.5
111.0441	1.2
124.0522	2.8
125.0600	3.1
137.0599	9.2
139.0391	2.7
151.0395	2.1
153.0549	12.3
156.0420	9.0
179.0344	4.8
179.0705	2.0
180.1146	2.1
191.1070	4.1
192.1149	3.8
193.1218	1.5
195.0656	4.4
207.1021	3.9
208.1097	2.3
209.0818	2.1
209.1176	2.2
210.1256	3.3
212.1046	2.5
224.1051	1.5
242.1162	2.8
248.1054	1.4
264.1004	1.3
276.1003	11.4
277.1040	1.9
292.0951	9.8
293.1003	1.3
294.1108	6.3
317.1747	1.4
319.1908	1.2
359.2803	14.1
360.2841	4.1
361.0918	1.3
361.1659	100.0
361.1997	3.3
362.1274	1.6
362.1682	21.4
363.1075	3.2
363.1814	82.9

Name: 2,4,6-Trimethylbenzoic acid
PrecursorMZ: 163.07578
RT: 6.1854
ExactMass: 164.083729621
Spectrum_type: 2
charge: -1
Formula: C10H12O2
SMILES: CC1=CC(=C(C(=C1)C)C(=O)O)C
Method: HCD
Collision_energy: [28.333334]
Isolation_window: 4.0
Ion_mode: N
Num Peaks: 10
118.0292	3.7
119.0858	2.7
121.0287	100.0
121.0651	20.9
122.0364	3.8
162.8927	4.1
163.0758	81.9
163.1121	3.6
164.0796	8.4
165.0187	11.1

Name: 2,4-Diacetylphloroglucinol
PrecursorMZ: 209.04498
RT: 1.3862
ExactMass: 210.05282342
Spectrum_type: 2
charge: -1
Formula: C10H10O5
SMILES: CC(=O)C1=C(C(=C(C=C1O)O)C(=O)C)O
Method: HCD
Collision_energy: [28.333334]
Isolation_window: 4.0
Ion_mode: N
Num Peaks: 57
79.0544	0.4
79.9563	1.0
80.9643	0.5
85.0286	1.3
96.9592	13.9
108.0208	0.6
109.0286	0.6
109.0649	0.9
119.0495	0.6
121.0287	0.7
121.0651	2.0
123.0443	3.6
135.0443	0.6
137.0243	0.8
137.0601	23.6
138.0634	2.2
138.9854	0.9
139.0395	0.4
149.0237	26.4
150.0271	2.2
152.0468	0.4
153.0548	0.5
163.0032	0.5
163.0394	1.4
164.0343	2.3
164.0709	4.0
165.0551	38.0
165.0775	0.4
165.0913	2.0
166.0586	3.5
167.0345	0.9
167.0713	0.6
177.0184	1.1
181.0502	1.2
191.0343	1.5
192.0411	0.5
193.0137	2.0
193.0501	0.9
194.0216	1.7
196.0372	0.6
207.0117	1.0
207.0296	1.0
207.0685	1.2
208.0239	0.7
208.0599	1.1
208.0635	1.3
208.0947	0.5
208.9495	1.3
209.0050	0.5
209.0126	0.8
209.0452	100.0
209.0846	19.7
210.0485	10.7
210.0886	1.6
211.0270	2.5
211.0631	2.5
211.1703	0.7

Name: 2,4-Diaminobenzenesulfonic acid
PrecursorMZ: 187.01771
RT: 2.3339666666666665
ExactMass: 188.0255633
Spectrum_type: 2
charge: -1
Formula: C6H8N2O3S
SMILES: C1=CC(=C(C=C1N)N)S(=O)(=O)O
Method: HCD
Collision_energy: [28.333334]
Isolation_window: 4.0
Ion_mode: N
Num Peaks: 11
79.9565	100.0
114.0189	18.0
125.0601	19.8
142.0866	21.6
143.0708	8.8
143.1070	9.3
144.0446	8.5
187.0178	96.4
187.0609	11.4
187.0969	5.1
188.0201	6.1

Name: 2,4-Dihydroxy-1,4-Benzoxazin-3-One
PrecursorMZ: 180.02945
RT: 3.7945
ExactMass: 181.0375077
Spectrum_type: 2
charge: -1
Formula: C8H7NO4
SMILES: C1=CC=C2C(=C1)N(C(=O)C(O2)O)O
Method: HCD
Collision_energy: [28.333334]
Isolation_window: 4.0
Ion_mode: N
Num Peaks: 8
92.0495	6.5
108.9331	2.6
134.9127	0.9
135.0443	9.4
136.0394	100.0
137.0430	7.1
179.0342	3.6
180.0291	6.7

Name: 2,4-Dihydroxybutanoic acid
PrecursorMZ: 119.03452
RT: 2.643
ExactMass: 120.04225873
Spectrum_type: 2
charge: -1
Formula: C4H8O4
SMILES: C(CO)C(C(=O)O)O
Method: HCD
Collision_energy: [28.333334]
Isolation_window: 4.0
Ion_mode: N
Num Peaks: 9
59.0130	100.0
60.0165	3.2
73.0286	34.0
101.0235	4.0
117.0189	10.6
118.0291	10.3
119.0245	12.0
119.0343	29.9
121.0286	5.5

Name: 2,4-Dihydroxyheptadec-16-enyl acetate
PrecursorMZ: 327.25391
RT: 0.9437
ExactMass: 328.26135963
Spectrum_type: 2
charge: -1
Formula: C19H36O4
SMILES: CC(=O)OCC(CC(CCCCCCCCCCCC=C)O)O
Method: HCD
Collision_energy: [28.333334]
Isolation_window: 4.0
Ion_mode: N
Num Peaks: 25
59.0130	1.1
71.0130	2.6
75.0078	6.0
89.0235	14.2
183.0113	5.3
184.0148	2.1
199.0069	1.1
255.2329	16.9
256.2364	2.4
268.0941	1.2
269.2484	1.7
281.2850	4.2
282.2885	1.0
325.1846	28.3
325.6681	1.9
326.1052	1.0
326.1878	100.0
327.1643	19.6
327.1852	14.6
327.2542	3.1
327.2907	12.1
328.1653	0.9
328.1699	3.4
328.1834	3.2
328.2948	2.2

Name: 2,4-Dimethylbenzenesulfonic acid
PrecursorMZ: 185.02689
RT: 1.2255
ExactMass: 186.03506535
Spectrum_type: 2
charge: -1
Formula: C8H10O3S
SMILES: CC1=CC(=C(C=C1)S(=O)(=O)O)C
Method: HCD
Collision_energy: [28.333334]
Isolation_window: 4.0
Ion_mode: N
Num Peaks: 8
79.9562	3.4
141.1276	8.8
183.0115	5.8
184.9925	3.0
185.0270	100.0
185.1539	17.5
186.0302	9.3
187.1333	10.2

Name: 2,4-Dinitrophenol
PrecursorMZ: 183.00384
RT: 1.5794
ExactMass: 184.01202123
Spectrum_type: 2
charge: -1
Formula: C6H4N2O5
SMILES: C1=CC(=C(C=C1[N+](=O)[O-])[N+](=O)[O-])O
Method: HCD
Collision_energy: [28.333334]
Isolation_window: 4.0
Ion_mode: N
Num Peaks: 17
65.0135	6.5
108.0444	5.6
110.9840	4.1
112.9845	5.8
123.0077	5.0
137.9039	6.0
138.0550	49.2
141.0657	4.1
153.0056	8.0
181.0234	4.5
181.0973	6.1
182.0464	14.5
183.0038	100.0
183.0300	5.3
183.0642	4.6
184.0073	5.0
184.0606	4.3

Name: 2,5-Diaminopentanoic Acid
PrecursorMZ: 131.08176
RT: 9.8885
ExactMass: 132.08987763
Spectrum_type: 2
charge: -1
Formula: C5H12N2O2
SMILES: C(CC(C(=O)O)N)CN
Method: HCD
Collision_energy: [28.333334]
Isolation_window: 4.0
Ion_mode: N
Num Peaks: 23
65.0136	10.4
67.0293	8.5
71.0131	6.2
84.0444	5.7
86.0601	11.5
87.0443	10.6
88.0395	36.4
89.0136	10.8
91.0292	17.0
105.0449	5.3
114.0187	6.5
114.0550	6.8
115.0029	15.9
130.0403	14.5
130.0865	23.1
131.0355	22.0
131.0818	100.0
132.0295	13.2
132.0559	14.8
132.0657	10.9
132.0857	6.6
132.8671	13.5
132.8995	6.2

Name: 2,5-Dihydroxybenzenesulfonic Acid
PrecursorMZ: 188.98569
RT: 1.4483
ExactMass: 189.99359446
Spectrum_type: 2
charge: -1
Formula: C6H6O5S
SMILES: C1=CC(=C(C=C1O)S(=O)(=O)O)O
Method: HCD
Collision_energy: [28.333334]
Isolation_window: 4.0
Ion_mode: N
Num Peaks: 11
59.0129	3.1
79.9565	100.0
80.9642	6.5
97.0286	7.2
125.0237	14.3
141.1277	4.3
187.1333	5.9
188.9858	57.3
189.0210	3.9
189.9891	3.5
191.0361	2.5

Name: 2,5-Dihydroxybenzoate
PrecursorMZ: 153.01856
RT: 2.9948
ExactMass: 153.01878364
Spectrum_type: 2
charge: -1
Formula: C7H5O4-
SMILES: C1=CC(=C(C=C1O)C(=O)O)[O-]
Method: HCD
Collision_energy: [28.333334]
Isolation_window: 4.0
Ion_mode: N
Num Peaks: 30
66.0340	1.6
68.9974	1.7
69.0337	2.8
71.0130	2.1
79.9564	1.5
81.0337	4.1
82.0289	1.9
83.0130	1.0
85.0285	15.7
95.0129	16.0
99.0079	1.0
108.0208	35.7
108.0446	11.5
109.0286	100.0
110.0239	3.0
110.0320	6.7
110.0605	1.7
111.0442	2.7
111.0805	1.6
113.0235	1.7
120.9592	4.2
123.0079	13.7
137.0474	1.5
152.0014	5.2
152.0707	1.9
153.0095	1.8
153.0186	78.0
153.0540	1.0
154.0222	4.7
154.0503	1.0

Name: 2,5-Dihydroxybenzoic acid
PrecursorMZ: 153.01856
RT: 4.5417
ExactMass: 154.02660867
Spectrum_type: 2
charge: -1
Formula: C7H6O4
SMILES: C1=CC(=C(C=C1O)C(=O)O)O
Method: HCD
Collision_energy: [28.333334]
Isolation_window: 4.0
Ion_mode: N
Num Peaks: 3
108.0205	23.2
109.0286	100.0
153.0187	91.9

Name: 2,5-Furandicarboxylic acid
PrecursorMZ: 154.99786
RT: 0.9495
ExactMass: 156.00587322
Spectrum_type: 2
charge: -1
Formula: C6H4O5
SMILES: C1=C(OC(=C1)C(=O)O)C(=O)O
Method: HCD
Collision_energy: [28.333334]
Isolation_window: 4.0
Ion_mode: N
Num Peaks: 8
67.0180	85.2
80.9644	13.5
111.0079	100.0
113.0601	10.8
139.9744	22.0
154.9467	14.6
154.9979	15.5
155.0343	65.4

Name: 2,6-Anhydro-1-deoxy-5-O-(6-deoxy-alpha-L-mannopyranosyl)-6-C-(5,7-dihydroxy-2-(4-hydroxyphenyl)-4-oxo-4H-1-benzopyran-6-yl)-xylo-3-hexulose
PrecursorMZ: 541.13604
RT: 10.0297
ExactMass: 560.15299094
Spectrum_type: 2
charge: -1
Formula: C27H28O13
SMILES: CC1C(C(C(C(O1)OC2C(C(=O)C(OC2C3=C(C4=C(C=C3O)OC(=CC4=O)C5=CC=C(C=C5)O)O)C)O)O)O)O
Method: HCD
Collision_energy: [28.333334]
Isolation_window: 4.0
Ion_mode: N
Num Peaks: 30
59.0129	10.4
60.1258	2.9
71.0129	35.4
85.0284	3.0
89.0234	17.5
101.0235	11.1
113.0235	15.3
119.0340	7.3
125.0235	10.7
143.0343	6.2
156.9902	18.1
161.0450	3.9
168.9901	41.8
179.0554	12.5
180.9902	22.5
199.0003	3.6
221.0663	2.9
223.0005	4.5
229.0110	3.0
259.0240	3.6
289.0331	5.6
361.0541	9.5
379.0649	2.9
503.1623	15.6
504.1633	8.1
539.1393	8.9
540.1429	10.6
541.1193	100.0
542.1232	17.1
543.1182	8.0

Name: 2-(((4R)-4-((3R,5R,8R,9S,10S,13R,14S,17R)-3-hydroxy-10,13-dimethyl-2,3,4,5,6,7,8,9,11,12,14,15,16,17-tetradecahydro-1H-cyclopenta(a)phenanthren-17-yl)pentanoyl)amino)acetic acid
PrecursorMZ: 432.3121
RT: 2.9214
ExactMass: 433.31920885
Spectrum_type: 2
charge: -1
Formula: C26H43NO4
SMILES: CC(CCC(=O)NCC(=O)O)C1CCC2C1(CCC3C2CCC4C3(CCC(C4)O)C)C
Method: HCD
Collision_energy: [28.333334]
Isolation_window: 4.0
Ion_mode: N
Num Peaks: 9
74.0239	59.7
75.0272	1.3
388.3225	3.5
431.1762	4.4
432.1847	1.3
432.3124	100.0
433.1948	1.9
433.3157	28.9
434.3178	2.6

Name: 2-(((4R)-4-((3R,7R,8R,9S,10S,12S,13R,14S,17R)-3,7,12-trihydroxy-10,13-dimethyl-2,3,4,5,6,7,8,9,11,12,14,15,16,17-tetradecahydro-1H-cyclopenta(a)phenanthren-17-yl)pentanoyl)amino)ethanesulfonic acid
PrecursorMZ: 514.28438
RT: 5.2188
ExactMass: 515.29167395
Spectrum_type: 2
charge: -1
Formula: C26H45NO7S
SMILES: C[C@H](CCC(=O)NCCS(=O)(=O)O)[C@H]1CC[C@@H]2[C@@]1([C@H](C[C@H]3[C@H]2[C@@H](CC4[C@@]3(CC[C@H](C4)O)C)O)O)C
Method: HCD
Collision_energy: [28.333334]
Isolation_window: 4.0
Ion_mode: N
Num Peaks: 16
57.1411	2.0
57.1443	4.6
57.2526	0.5
57.2558	1.2
96.9592	0.7
319.1918	0.9
453.3032	0.5
471.3120	0.8
512.3314	0.5
513.2405	0.7
513.2794	0.7
513.3484	2.1
514.1231	0.6
514.2846	100.0
515.2883	28.5
516.2867	6.4

Name: 2-((1R,2R)-3-oxo-2-((Z)-5-(3,4,5-trihydroxy-6-(hydroxymethyl)oxan-2-yl)oxypent-2-enyl)cyclopentyl)acetic acid
PrecursorMZ: 387.16622
RT: 6.06798
ExactMass: 388.17333247
Spectrum_type: 2
charge: -1
Formula: C18H28O9
SMILES: C1CC(=O)[C@@H]([C@H]1CC(=O)O)C/C=C\CCOC2C(C(C(C(O2)CO)O)O)O
Method: HCD
Collision_energy: [28.333334]
Isolation_window: 4.0
Ion_mode: N
Num Peaks: 14
59.0130	48.9
71.0129	10.2
89.0235	16.5
101.0235	11.8
113.0232	5.9
114.0549	7.5
119.0340	8.4
163.1128	7.2
207.1018	14.9
317.1016	5.9
387.1109	8.7
387.1656	100.0
387.2398	15.7
388.1695	22.6

Name: 2-((2'R,8R,8As)-2',4,4,7,8a-pentamethylspiro(2,3,4a,5-tetrahydro-1H-naphthalene-8,5'-oxolane)-2'-yl)acetic acid
PrecursorMZ: 319.2277
RT: 0.8801
ExactMass: 320.23514488
Spectrum_type: 2
charge: -1
Formula: C20H32O3
SMILES: CC1=CCC2[C@@]([C@@]13CC[C@](O3)(C)CC(=O)O)(CCCC2(C)C)C
Method: HCD
Collision_energy: [28.333334]
Isolation_window: 4.0
Ion_mode: N
Num Peaks: 29
69.3145	1.0
80.9644	1.1
96.9592	21.7
231.0662	1.5
247.0972	1.0
273.2223	3.5
274.2259	1.6
275.0926	1.0
275.0954	1.1
275.2380	100.0
276.2415	20.9
277.2442	1.0
317.2121	2.2
318.0677	1.0
318.1039	1.5
318.2155	1.5
319.0818	7.6
319.1195	4.6
319.1517	1.2
319.1603	1.1
319.1970	2.6
319.2279	88.4
320.0839	2.0
320.1941	1.0
320.2311	18.4
321.0618	1.3
321.0990	5.5
321.1783	1.9
321.2103	66.9

Name: 2-((2-Hydroxy-3-methylbutanoyl)amino)-4-methylpentanoic acid
PrecursorMZ: 230.1395
RT: 2.7696
ExactMass: 231.14705815
Spectrum_type: 2
charge: -1
Formula: C11H21NO4
SMILES: CC(C)CC(C(=O)O)NC(=O)C(C(C)C)O
Method: HCD
Collision_energy: [28.333334]
Isolation_window: 4.0
Ion_mode: N
Num Peaks: 108
57.0337	1.8
59.0130	13.8
69.0337	3.1
71.0129	3.6
71.0494	3.9
72.9922	3.5
73.0286	3.3
79.9564	5.8
80.9643	3.0
81.0337	3.8
82.0289	1.9
83.0130	1.5
83.0494	3.0
84.0082	14.3
85.0287	6.8
85.0650	27.4
87.0079	8.9
87.0442	5.0
89.0236	1.6
93.0337	8.1
95.0494	1.7
96.9591	1.4
97.0287	3.5
97.0649	3.2
99.0080	2.8
99.0442	8.9
100.0396	1.7
100.0761	2.1
101.0234	5.6
101.0601	1.4
105.0704	1.7
107.0495	1.5
109.0286	5.4
109.0651	2.1
111.0079	2.4
111.0444	3.7
113.0236	6.1
113.0599	4.0
114.0189	1.4
114.0553	3.4
116.0709	24.2
123.0446	2.6
123.0808	4.2
124.0397	1.3
125.0236	2.8
125.0422	5.4
125.0598	4.5
126.0552	2.3
127.0393	3.5
128.0347	1.6
130.0866	11.0
131.0495	16.1
137.0601	1.9
139.0757	10.7
141.0189	1.7
141.0551	1.7
141.0915	2.0
142.0503	3.5
142.0869	1.8
143.0528	9.3
149.0602	2.2
152.0711	2.8
153.0550	2.5
153.0791	3.6
154.0869	2.0
155.0708	3.1
158.0606	3.2
159.0442	4.0
160.0761	4.8
167.0341	2.4
167.0709	7.1
168.1024	6.7
168.1393	2.0
169.0498	1.4
172.0400	2.5
173.0470	2.8
174.0559	1.4
184.1328	2.1
185.0451	2.0
185.0612	3.2
185.0827	3.4
185.1184	2.7
186.0555	5.2
186.1138	1.6
186.1495	18.3
187.0419	3.2
187.0606	1.6
187.0768	2.7
187.1520	2.0
188.0712	25.0
211.0607	4.9
213.0562	4.5
228.1234	3.9
229.0381	4.2
229.0711	40.2
229.1059	4.1
230.0484	2.0
230.0801	3.0
230.1034	2.5
230.1201	1.6
230.1395	100.0
231.0320	2.9
231.0512	7.2
231.0679	2.2
231.0863	9.7
231.1423	10.9
232.0614	8.7
232.0954	1.8

Name: 2-((difluoromethyl)thio)-N-(2-(4-(furan-2-yl)-3,5-dimethyl-1H-pyrazol-1-yl)ethyl)benzamide
PrecursorMZ: 390.10907
RT: 2.6303
ExactMass: 391.11660436
Spectrum_type: 2
charge: -1
Formula: C19H19F2N3O2S
SMILES: CC1=C(C(=NN1CCNC(=O)C2=CC=CC=C2SC(F)F)C)C3=CC=CO3
Method: HCD
Collision_energy: [28.333334]
Isolation_window: 4.0
Ion_mode: N
Num Peaks: 18
111.0441	0.8
143.0343	0.9
155.0337	0.6
173.0445	1.4
191.0554	2.4
216.0557	0.7
217.0523	2.7
258.0666	1.0
259.0629	3.7
311.0937	0.6
372.1005	0.6
373.0956	2.7
390.1094	25.7
391.0014	0.6
391.1059	100.0
391.2142	0.6
391.2853	1.1
392.1092	10.6

Name: 2-(1-hydroxyethyl)-4-(2-hydroxypropyl)-2H-furan-5-one
PrecursorMZ: 185.08143
RT: 0.669
ExactMass: 186.08920892
Spectrum_type: 2
charge: -1
Formula: C9H14O4
SMILES: CC(CC1=CC(OC1=O)C(C)O)O
Method: HCD
Collision_energy: [28.333334]
Isolation_window: 4.0
Ion_mode: N
Num Peaks: 86
59.0130	13.1
69.0337	8.3
70.0290	5.8
71.0131	5.8
72.9923	5.7
73.0286	5.2
73.0399	4.1
74.0239	4.7
79.0544	4.2
81.0336	4.5
81.0700	4.3
83.0493	13.2
84.0081	6.0
85.0287	4.7
86.0239	4.8
87.0079	68.1
88.0396	13.4
95.0494	6.2
96.0447	12.4
97.0286	24.2
97.0650	36.1
98.0603	7.0
99.0080	4.8
99.0442	12.4
107.0494	5.0
109.0286	14.5
109.0481	5.9
109.0649	5.3
111.0443	52.7
111.0808	7.8
112.0396	35.0
112.0759	12.1
113.0235	53.2
113.0600	4.4
114.0553	16.3
114.0914	5.5
116.0709	6.2
121.0648	5.6
123.0443	21.6
123.0807	11.5
124.0397	22.3
124.0759	7.5
125.0236	5.9
125.0600	25.0
125.0964	6.6
130.0868	6.9
138.0550	11.7
139.0402	8.2
139.0589	30.1
139.0753	11.1
140.0608	6.4
140.0709	91.0
140.1070	7.0
141.0553	15.2
141.0756	6.6
141.0915	79.1
141.1024	7.9
141.1277	4.5
142.0863	45.4
143.0707	14.3
153.0191	5.7
155.0341	5.6
156.0661	4.2
165.0551	4.3
166.0503	4.8
167.0341	8.5
167.0708	5.2
168.0294	22.0
168.0660	6.8
169.0500	19.5
183.0487	14.2
183.0659	13.9
183.1381	6.2
184.0612	100.0
184.0972	87.8
185.0452	35.1
185.0640	6.7
185.0809	78.7
185.0946	6.5
185.1163	19.9
186.0773	9.5
186.1124	20.3
187.0069	6.8
187.0609	81.8
187.0959	16.7
187.1333	11.7

Name: 2-(14-Methylpentadecanoylamino)-3-phenylpropanoic acid
PrecursorMZ: 402.30077
RT: 1.092
ExactMass: 403.30864417
Spectrum_type: 2
charge: -1
Formula: C25H41NO3
SMILES: CC(C)CCCCCCCCCCCCC(=O)NC(CC1=CC=CC=C1)C(=O)O
Method: HCD
Collision_energy: [28.333334]
Isolation_window: 4.0
Ion_mode: N
Num Peaks: 21
69.3931	1.7
78.9580	19.5
91.0543	10.1
134.9844	5.8
147.0443	20.1
148.0480	1.9
164.0708	74.1
165.0741	7.6
254.2485	16.7
255.2523	2.4
265.2534	58.3
266.2560	12.9
267.2693	14.1
268.2734	2.0
401.2458	77.7
402.2498	18.6
402.3000	100.0
403.2588	15.8
403.3051	26.0
404.2624	2.1
404.3112	2.7

Name: 2-(2-((2-Acetamido-4-methylpentanoyl)amino)propanoylamino)-3-hydroxypropanoic acid
PrecursorMZ: 330.16697
RT: 7.3248
ExactMass: 331.17433553
Spectrum_type: 2
charge: -1
Formula: C14H25N3O6
SMILES: CC(C)CC(C(=O)NC(C)C(=O)NC(CO)C(=O)O)NC(=O)C
Method: HCD
Collision_energy: [28.333334]
Isolation_window: 4.0
Ion_mode: N
Num Peaks: 50
59.0130	24.8
71.0129	4.3
84.0446	5.3
88.0394	21.3
102.0552	16.9
114.0551	8.9
115.0027	6.0
116.0708	34.6
119.0496	3.7
123.0559	4.4
127.0504	3.8
128.0345	45.9
130.0866	18.3
138.0557	4.5
146.0451	11.3
150.0547	5.2
180.1024	6.8
183.1133	13.8
188.0922	21.2
199.0716	4.7
200.1397	4.8
201.1240	29.2
213.0913	4.0
214.1563	6.8
223.1083	8.2
225.0919	33.5
226.0956	5.4
241.1227	32.8
242.1258	6.3
249.1858	10.0
267.1026	8.1
267.1968	11.2
285.1131	80.6
286.1162	14.7
286.1765	10.4
311.1864	18.0
312.1562	10.5
314.1254	5.0
329.0929	18.9
329.0964	20.6
329.1458	4.5
329.1970	68.6
330.1254	8.0
330.1669	100.0
330.2006	10.9
331.0783	4.9
331.1672	6.1
331.1732	12.4
332.1305	9.2
332.1368	8.5

Name: 2-(2-((Z)-pent-2-enyl)-3-(3,4,5-trihydroxy-6-(hydroxymethyl)oxan-2-yl)oxycyclopentyl)acetic acid
PrecursorMZ: 373.18687
RT: 7.3678
ExactMass: 374.19406791
Spectrum_type: 2
charge: -1
Formula: C18H30O8
SMILES: CC/C=C\CC1C(CCC1OC2C(C(C(C(O2)CO)O)O)O)CC(=O)O
Method: HCD
Collision_energy: [28.333334]
Isolation_window: 4.0
Ion_mode: N
Num Peaks: 8
101.0235	55.5
209.1541	11.5
227.1650	19.1
271.1552	32.1
355.1761	9.4
372.1329	7.1
373.1870	100.0
374.1904	16.5

Name: 2-(2-Acetyl-3-hydroxy-5-methoxyphenyl)acetic acid
PrecursorMZ: 223.06093
RT: 0.8885
ExactMass: 224.06847348
Spectrum_type: 2
charge: -1
Formula: C11H12O5
SMILES: CC(=O)C1=C(C=C(C=C1O)OC)CC(=O)O
Method: HCD
Collision_energy: [28.333334]
Isolation_window: 4.0
Ion_mode: N
Num Peaks: 22
80.9644	3.6
109.0286	6.2
121.0288	3.5
124.0395	5.7
135.0808	3.7
137.0599	3.7
151.0396	13.1
179.0699	10.1
179.1191	8.0
180.0659	52.9
181.0988	3.6
181.1229	9.6
221.0465	6.5
222.0406	25.5
222.0772	4.3
223.0255	4.4
223.0608	100.0
223.1096	3.6
224.0558	30.5
225.0402	10.3
225.0888	3.2
225.1131	4.0

Name: 2-(2-Oxo-8,9-dihydrofuro(2,3-h)chromen-8-yl)propan-2-yl acetate
PrecursorMZ: 287.09223
RT: 5.5352
ExactMass: 288.09977361
Spectrum_type: 2
charge: -1
Formula: C16H16O5
SMILES: CC(=O)OC(C)(C)C1CC2=C(O1)C=CC3=C2OC(=O)C=C3
Method: HCD
Collision_energy: [28.333334]
Isolation_window: 4.0
Ion_mode: N
Num Peaks: 56
59.0126	3.1
71.0126	2.0
73.0286	1.6
74.0237	1.8
75.0079	1.5
83.0492	1.6
85.0285	3.0
87.0077	1.9
88.0394	2.0
96.0080	1.9
97.0648	1.9
113.0962	2.1
115.0755	2.2
116.0707	5.4
121.0286	9.2
130.0863	2.3
139.0754	3.4
141.0915	1.5
145.0646	1.7
150.0552	4.7
151.1122	1.8
153.0908	1.8
157.1226	1.7
163.0607	2.7
169.0984	1.6
169.1223	3.5
185.1654	1.5
193.1592	2.1
194.0450	4.3
213.0915	95.5
214.0949	13.6
215.0554	1.9
239.1645	1.9
243.0987	2.1
243.1961	2.0
257.0817	37.9
258.0850	6.5
259.0987	2.2
267.1598	2.8
271.1264	2.2
285.1431	2.5
285.1705	57.9
285.2706	7.3
286.0931	14.0
286.1381	2.3
286.1746	22.7
287.0934	69.3
287.1492	6.8
287.1858	100.0
287.2104	1.5
288.0958	11.1
288.1891	15.7
289.0919	4.4
289.0954	3.1
289.1203	1.6
289.1645	2.3

Name: 2-(2-Oxo-8,9-dihydrofuro)2,3-h(chromen-8-yl)propan-2-yl acetate
PrecursorMZ: 287.09261
RT: 5.2114
ExactMass: 288.09977361
Spectrum_type: 2
charge: -1
Formula: C16H16O5
SMILES: CC(=O)OC(C)(C)C1CC2=C(O1)C=CC3=C2OC(=O)C=C3
Method: HCD
Collision_energy: [28.333334]
Isolation_window: 4.0
Ion_mode: N
Num Peaks: 53
59.0129	4.1
61.9875	1.3
71.0129	1.3
87.0079	6.3
88.0395	2.8
93.0336	21.1
94.0409	1.7
95.0483	1.8
102.0552	1.5
109.0286	1.5
109.0650	2.2
111.0441	3.1
112.0507	7.6
113.0236	1.5
119.0493	16.1
121.0288	1.5
122.0365	1.9
123.0443	7.0
136.0523	5.5
136.0872	14.8
137.0600	44.7
138.0635	2.6
139.0394	1.3
149.0600	8.6
154.0613	2.3
177.0188	1.3
180.0772	24.0
181.0499	1.8
185.0563	3.9
192.0771	2.0
196.0724	2.2
197.0972	1.6
198.0879	16.7
199.1125	1.9
202.0828	5.5
210.0881	2.1
215.0712	6.1
215.1070	1.3
225.0918	72.2
226.0954	11.6
227.0721	9.1
228.0748	1.4
243.1026	18.1
244.1059	2.7
269.0832	1.8
270.1093	9.6
285.5878	2.2
287.0080	1.3
287.0925	100.0
288.0951	14.0
288.1211	13.8
289.0561	2.8
289.0953	1.7

Name: 2-(2-hydroxybut-3-en-2-yl)-3a,6,6,9a-tetramethyl-2,4,5,5a,7,8,9,9b-octahydro-1H-benzo(e)(1)benzofuran-4,5-diol
PrecursorMZ: 337.23819
RT: 3.0147
ExactMass: 338.24570956
Spectrum_type: 2
charge: -1
Formula: C20H34O4
SMILES: CC1(CCCC2(C1C(C(C3(C2CC(O3)C(C)(C=C)O)C)O)O)C)C
Method: HCD
Collision_energy: [28.333334]
Isolation_window: 4.0
Ion_mode: N
Num Peaks: 34
59.0130	1.3
71.0493	2.3
73.0286	1.1
79.9564	2.9
80.9642	2.1
96.9591	5.8
97.0649	1.3
114.0551	1.5
124.0395	1.8
130.0863	1.5
181.1589	1.3
223.1322	1.4
275.2378	13.3
276.2410	2.2
293.2492	1.6
308.1197	1.6
319.2276	36.7
320.2309	7.7
335.2244	1.0
335.7204	1.1
336.1111	2.2
336.1563	3.4
336.2233	3.5
337.0931	6.7
337.1298	1.7
337.1735	3.6
337.2382	100.0
338.0962	1.7
338.1283	2.2
338.1716	2.0
338.2416	20.2
339.1060	4.2
339.1993	9.6
339.2498	2.8

Name: 2-(2-hydroxybut-3-en-2-yl)-3a,6,6,9a-tetramethyl-2,4,5,5a,7,8,9,9b-octahydro-1H-benzo)e()1(benzofuran-4,5-diol
PrecursorMZ: 337.2378
RT: 0.575
ExactMass: 338.24570956
Spectrum_type: 2
charge: -1
Formula: C20H34O4
SMILES: CC1(CCCC2(C1C(C(C3(C2CC(O3)C(C)(C=C)O)C)O)O)C)C
Method: HCD
Collision_energy: [28.333334]
Isolation_window: 4.0
Ion_mode: N
Num Peaks: 27
57.0336	1.8
69.0335	2.6
71.0491	3.0
85.0646	0.9
87.0440	0.8
96.9592	0.9
115.0388	14.7
116.0423	0.7
125.0961	1.0
157.0856	0.9
162.0673	0.7
168.1016	0.9
177.0904	0.9
178.0942	0.8
205.1950	0.8
249.1844	0.7
319.2268	10.3
320.2308	1.9
335.2223	1.7
336.1916	1.0
336.2261	1.4
337.2027	4.4
337.2378	100.0
338.2035	1.8
338.2409	19.8
339.1995	8.6
339.2487	2.9

Name: 2-(3,4,5-Trihydroxy-6-(hydroxymethyl)oxan-2-yl)oxybenzoic acid
PrecursorMZ: 299.077
RT: 7.7841
ExactMass: 300.08451746
Spectrum_type: 2
charge: -1
Formula: C13H16O8
SMILES: C1=CC=C(C(=C1)C(=O)O)OC2C(C(C(C(O2)CO)O)O)O
Method: HCD
Collision_energy: [28.333334]
Isolation_window: 4.0
Ion_mode: N
Num Peaks: 3
93.0336	21.5
137.0236	100.0
301.1654	13.3

Name: 2-(3,4-dimethoxybenzyl)-7-((1R)-1-((1R)-1-hydroxyethyl)-4-phenylbutyl)-5-methyl imidazo(5,1-f)(1,2,4)triazin-4 (3H)-one
PrecursorMZ: 475.23463
RT: 2.9885
ExactMass: 476.24235551
Spectrum_type: 2
charge: -1
Formula: C27H32N4O4
SMILES: CC1=C2C(=O)NC(=NN2C(=N1)[C@@H](CCCC3=CC=CC=C3)[C@@H](C)O)CC4=CC(=C(C=C4)OC)OC
Method: HCD
Collision_energy: [28.333334]
Isolation_window: 4.0
Ion_mode: N
Num Peaks: 26
52.8024	2.1
52.8053	4.2
57.0338	2.8
59.0130	79.1
60.0163	2.0
73.0287	2.9
95.0494	14.6
96.9592	4.4
99.0443	2.0
109.0650	6.2
111.0807	5.1
113.0600	40.9
114.0631	1.9
127.0756	7.9
133.0499	1.8
171.1019	4.6
205.0869	3.3
243.1027	11.7
329.1768	1.8
457.2232	16.3
458.2264	5.0
475.2348	100.0
475.2982	4.0
476.2375	27.3
477.2437	3.1
477.3275	3.0

Name: 2-(3,5-dimethylphenoxy)-N-)4-))2-(3,5-dimethylphenoxy)acetyl(amino(-1,2,5-oxadiazol-3-yl(acetamide
PrecursorMZ: 423.16749
RT: 1.1363
ExactMass: 424.17466988
Spectrum_type: 2
charge: -1
Formula: C22H24N4O5
SMILES: CC1=CC(=CC(=C1)OCC(=O)NC2=NON=C2NC(=O)COC3=CC(=CC(=C3)C)C)C
Method: HCD
Collision_energy: [28.333334]
Isolation_window: 4.0
Ion_mode: N
Num Peaks: 26
61.9875	1.4
110.9753	1.0
165.0187	2.3
191.0710	1.4
207.0294	6.3
208.0736	1.1
236.0689	100.0
237.0723	12.6
238.0734	1.2
239.1291	1.3
249.0770	1.8
280.0589	4.2
281.1035	1.5
283.1188	1.6
293.0691	1.4
294.1111	52.6
295.1144	8.0
305.1399	1.4
338.1010	35.9
339.1041	6.0
365.1263	1.3
367.1415	1.5
423.1668	72.0
424.1699	16.2
425.1287	1.4
425.1807	10.2

Name: 2-(3-(2,4'-Dihydroxy-3,6-dimethoxy-(1,1'-biphenyl)-4-yl)-5-oxo-2,5-dihydrofuran-2-yl)acetic acid
PrecursorMZ: 385.09271
RT: 6.1014
ExactMass: 386.10016753
Spectrum_type: 2
charge: -1
Formula: C20H18O8
SMILES: COC1=C(C(=C(C(=C1)C2=CC(=O)OC2CC(=O)O)OC)O)C3=CC=C(C=C3)O
Method: HCD
Collision_energy: [28.333334]
Isolation_window: 4.0
Ion_mode: N
Num Peaks: 17
59.0129	37.6
71.0128	12.4
89.0233	13.3
207.1034	11.2
267.0669	22.3
282.0901	24.0
283.0960	10.6
326.0797	27.9
341.1027	86.6
342.1042	17.0
343.1170	23.9
383.2034	23.5
384.2154	12.4
385.2230	47.3
386.2274	11.3
387.1660	100.0
387.2390	54.1

Name: 2-(3-Carboxypropanoylamino)-3-methylpentanoic acid
PrecursorMZ: 230.10321
RT: 0.6649
ExactMass: 231.11067264
Spectrum_type: 2
charge: -1
Formula: C10H17NO5
SMILES: CCC(C)C(C(=O)O)NC(=O)CCC(=O)O
Method: HCD
Collision_energy: [28.333334]
Isolation_window: 4.0
Ion_mode: N
Num Peaks: 44
59.0130	52.6
72.9922	1.3
82.0289	1.3
86.9901	7.6
87.0077	2.0
98.0238	11.7
99.0077	2.4
101.0599	6.2
102.0551	1.9
116.0708	3.0
125.0602	1.4
128.0345	5.5
130.0866	100.0
131.0901	6.4
140.0709	4.3
141.0372	15.3
141.0913	2.1
142.0863	2.4
142.1230	5.2
143.1175	1.6
158.0815	2.8
167.0707	1.5
168.0656	1.4
168.1023	20.2
169.1068	1.5
170.0815	2.4
185.0273	8.8
185.0822	1.6
186.1129	5.2
187.0426	3.7
187.0758	1.4
187.1082	8.4
212.0924	50.7
213.0956	5.9
229.0713	8.7
229.0994	2.6
229.1568	2.2
230.1031	20.2
231.0313	3.9
231.0496	3.0
231.0662	2.3
231.0871	2.0
231.1063	1.5
231.1371	2.5

Name: 2-(3-Oxo-2-(5-(3,4,5-trihydroxy-6-(hydroxymethyl)oxan-2-yl)oxypent-2-enyl)cyclopentyl)acetic acid
PrecursorMZ: 387.16598
RT: 5.9452
ExactMass: 388.17333247
Spectrum_type: 2
charge: -1
Formula: C18H28O9
SMILES: C1CC(=O)C(C1CC(=O)O)CC=CCCOC2C(C(C(C(O2)CO)O)O)O
Method: HCD
Collision_energy: [28.333334]
Isolation_window: 4.0
Ion_mode: N
Num Peaks: 36
59.0129	38.0
71.0129	10.1
73.0285	2.0
85.0286	2.0
89.0235	15.7
101.0235	10.7
113.0234	5.3
119.0341	7.6
145.0501	3.2
163.0393	3.9
163.1121	8.8
195.0657	24.5
196.0689	2.4
207.1021	13.0
208.1060	2.0
226.0629	3.3
241.1805	2.4
266.0949	2.1
270.0532	1.8
285.0765	3.3
287.0561	2.0
302.0794	5.2
317.1029	18.4
318.1064	3.6
343.1199	2.1
369.2282	2.6
385.2237	3.2
386.2211	1.9
387.1089	22.0
387.1652	100.0
387.2394	17.4
388.1120	5.1
388.1686	20.6
388.2430	3.4
389.1723	2.1
389.2544	2.1

Name: 2-(3-carboxypropanoylamino)hexanoic Acid
PrecursorMZ: 230.10315
RT: 6.1326
ExactMass: 231.11067264
Spectrum_type: 2
charge: -1
Formula: C10H17NO5
SMILES: CCCCC(C(=O)O)NC(=O)CCC(=O)O
Method: HCD
Collision_energy: [28.333334]
Isolation_window: 4.0
Ion_mode: N
Num Peaks: 35
58.0290	4.3
59.0127	2.8
71.0126	2.8
74.0239	3.3
82.0286	2.8
94.0289	3.1
98.0239	29.8
101.0600	3.8
102.0553	8.0
113.0348	33.5
114.0551	8.1
116.0709	100.0
117.0743	4.6
126.0555	3.1
127.0869	16.9
128.0346	8.3
130.0866	42.9
143.0455	17.3
168.1029	8.4
169.0974	9.1
184.0974	4.1
186.1115	3.4
187.1086	7.0
188.0700	5.5
196.0605	3.8
207.1061	5.9
212.0923	14.8
213.0877	22.1
214.0916	2.9
214.1153	2.7
228.0868	7.5
229.0869	3.8
229.1578	4.7
230.1159	40.8
231.1181	4.2

Name: 2-(4,5-dihydroxy-7,7a-dimethyl-2-oxo-5,6,7,7b-tetrahydro-4H-naphtho(1,2-b)oxiren-1a-yl)prop-2-enyl 2,3,4-trihydroxybutanoate
PrecursorMZ: 397.15041
RT: 6.7063
ExactMass: 398.1576824
Spectrum_type: 2
charge: -1
Formula: C19H26O9
SMILES: CC1CC(C(C2=CC(=O)C3(C(C12C)O3)C(=C)COC(=O)C(C(CO)O)O)O)O
Method: HCD
Collision_energy: [28.333334]
Isolation_window: 4.0
Ion_mode: N
Num Peaks: 11
89.0234	17.4
113.0234	13.1
249.1496	41.2
293.1400	28.4
337.1295	100.0
338.1323	17.4
395.2094	13.9
397.1489	64.7
397.2233	52.4
398.1566	13.3
399.2444	16.2

Name: 2-(4-(4-(4-(Hydroxydiphenylmethyl)piperidin-1-yl)butanoyl)phenyl)-2-methylpropanoic acid
PrecursorMZ: 498.26513
RT: 4.7856
ExactMass: 499.27225866
Spectrum_type: 2
charge: -1
Formula: C32H37NO4
SMILES: CC(C)(C1=CC=C(C=C1)C(=O)CCCN2CCC(CC2)C(C3=CC=CC=C3)(C4=CC=CC=C4)O)C(=O)O
Method: HCD
Collision_energy: [28.333334]
Isolation_window: 4.0
Ion_mode: N
Num Peaks: 12
114.0553	7.1
130.0865	5.3
152.9950	5.5
187.1123	30.9
188.1061	7.8
376.2286	100.0
377.2317	23.4
454.2757	91.7
455.2786	30.0
496.3385	10.6
497.3549	28.8
498.3591	9.8

Name: 2-(4-methoxyphenyl)ethyl 6-O-a-L-arabinopyranosyl-b-D-glucopyranoside
PrecursorMZ: 445.17172
RT: 6.3293
ExactMass: 446.17881177
Spectrum_type: 2
charge: -1
Formula: C20H30O11
SMILES: COC1=CC=C(C=C1)CCO[C@H]2[C@@H]([C@H]([C@@H]([C@H](O2)CO[C@H]3[C@@H]([C@H]([C@H](CO3)O)O)O)O)O)O
Method: HCD
Collision_energy: [28.333334]
Isolation_window: 4.0
Ion_mode: N
Num Peaks: 14
59.0129	42.8
71.0130	51.8
85.0285	9.0
89.0235	100.0
101.0236	66.4
113.0235	30.1
119.0341	45.6
131.0342	10.3
143.0341	8.1
161.0447	25.7
179.0556	93.1
221.0661	25.9
445.1728	36.7
446.1768	11.6

Name: 2-(5-(2-((2-(5-(2-Oxopropyl)tetrahydrofuran-2-yl)propanoyl)oxy)butyl)tetrahydrofuran-2-yl)propanoic acid
PrecursorMZ: 397.22392
RT: 0.6301
ExactMass: 398.23045342
Spectrum_type: 2
charge: -1
Formula: C21H34O7
SMILES: CCC(CC1CCC(O1)C(C)C(=O)O)OC(=O)C(C)C2CCC(O2)CC(=O)C
Method: HCD
Collision_energy: [28.333334]
Isolation_window: 4.0
Ion_mode: N
Num Peaks: 102
57.0336	2.3
59.0130	6.5
71.0131	2.6
73.0284	3.0
80.9641	2.8
83.0493	3.0
85.0286	2.6
85.0650	3.1
87.0078	2.3
87.0443	4.5
96.9592	13.5
97.0650	2.6
99.0441	2.1
99.0807	3.4
101.0600	2.5
109.0651	2.1
111.0442	6.4
111.0808	2.5
113.0600	4.1
114.0551	2.1
116.0708	3.9
125.0599	7.4
127.0755	3.6
129.0548	2.5
129.0911	2.2
130.0866	12.0
131.0704	2.2
139.0758	3.3
141.0549	4.7
153.0915	5.8
155.0708	3.8
155.1067	2.4
165.0551	2.3
167.1074	2.8
179.0708	7.4
181.0501	3.1
193.0858	2.6
195.0658	16.9
196.0693	3.4
197.0818	5.8
199.0972	2.2
207.0658	4.3
207.1016	6.7
209.1177	5.3
223.0978	2.6
235.0967	3.2
237.1132	8.0
238.1170	4.3
249.1131	29.0
250.1169	4.0
251.1282	4.3
263.1293	3.6
265.1086	2.7
265.1443	17.7
266.1490	4.1
267.1234	7.9
267.1586	2.1
268.0961	6.1
269.1394	12.4
270.1432	2.6
271.1553	10.3
279.1245	2.7
281.1392	4.3
282.1106	3.3
283.1184	3.7
283.1546	10.2
284.1585	2.2
293.1396	3.2
294.1100	2.1
295.1554	2.3
307.1550	2.0
309.1350	2.0
312.1216	8.1
313.1750	2.2
315.2541	2.1
319.1547	4.9
320.1581	2.2
321.1706	9.9
326.1372	4.2
337.1657	3.8
339.1813	11.8
340.1842	2.1
351.2172	2.7
353.2332	2.4
353.2693	2.0
355.3222	2.4
363.1813	2.2
365.1603	4.8
377.1964	4.7
378.2003	2.8
379.2145	7.4
395.2075	100.0
396.2122	64.4
397.1812	50.3
397.2224	81.8
397.2627	4.1
398.1835	10.3
398.2263	19.4
398.2675	3.4
399.1854	90.2
399.2298	3.5
399.2746	3.9

Name: 2-(5-(2-(2-(5-(2-Hydroxybutyl)oxolan-2-yl)propanoyloxy)butyl)oxolan-2-yl)propanoic acid
PrecursorMZ: 413.25438
RT: 5.6679
ExactMass: 414.26175355
Spectrum_type: 2
charge: -1
Formula: C22H38O7
SMILES: CCC(CC1CCC(O1)C(C)C(=O)OC(CC)CC2CCC(O2)C(C)C(=O)O)O
Method: HCD
Collision_energy: [28.333334]
Isolation_window: 4.0
Ion_mode: N
Num Peaks: 5
395.2442	15.2
412.2426	16.9
413.2560	100.0
414.2600	29.1
415.2751	28.9

Name: 2-(5-(2-(2-(5-(2-Hydroxypropyl)oxolan-2-yl)propanoyloxy)propyl)oxolan-2-yl)propanoic acid
PrecursorMZ: 385.22325
RT: 7.3853
ExactMass: 386.23045342
Spectrum_type: 2
charge: -1
Formula: C20H34O7
SMILES: CC(CC1CCC(O1)C(C)C(=O)OC(C)CC2CCC(O2)C(C)C(=O)O)O
Method: HCD
Collision_energy: [28.333334]
Isolation_window: 4.0
Ion_mode: N
Num Peaks: 73
59.0136	1.7
69.0345	0.6
69.4607	0.7
71.0136	0.6
83.0501	1.4
85.0649	1.1
87.0079	0.7
88.0403	0.6
97.0650	1.4
103.0400	0.6
111.0805	1.0
113.0596	1.0
114.0553	0.8
115.0393	1.3
125.0965	1.9
127.0514	0.7
128.0345	1.3
129.0546	0.8
131.0352	0.7
131.0705	5.8
145.0623	0.6
159.1020	1.8
169.1223	0.7
171.1032	0.6
181.1230	2.1
191.1440	0.9
197.1176	3.7
209.1542	4.2
211.1337	1.3
223.1336	0.8
225.1494	2.3
227.1293	0.6
227.1659	0.7
235.1340	1.0
237.1496	0.8
239.1652	1.2
253.1442	2.4
253.1815	0.8
255.1610	0.6
261.2222	1.6
271.1551	1.5
279.2326	1.8
287.2024	0.6
303.1961	0.9
304.2003	0.9
305.2120	6.3
306.2156	1.2
307.2271	0.9
321.2077	1.2
322.2115	0.9
323.2224	5.5
324.2264	1.2
325.2007	1.1
339.2179	1.4
340.2217	1.1
341.2331	2.9
347.1866	0.6
349.2022	6.0
350.2054	1.3
351.2173	1.7
365.1970	2.0
366.2001	2.0
367.2128	25.1
368.2165	5.4
369.1875	0.7
369.2279	3.2
383.2075	12.0
384.2120	11.7
385.2233	100.0
385.3275	0.6
386.2276	21.7
387.1967	4.7
387.2382	11.7

Name: 2-(5-(Cyclohex-3-ene-1-carbonyl)-octahydropyrrolo(3,4-c)pyrrol-2-yl)-6-ethyl-5-fluoro-3,4-dihydropyrimidin-4-one
PrecursorMZ: 359.18915
RT: 2.9763
ExactMass: 360.19615422
Spectrum_type: 2
charge: -1
Formula: C19H25FN4O2
SMILES: CCC1=C(C(=O)NC(=N1)N2CC3CN(CC3C2)C(=O)C4CCC=CC4)F
Method: HCD
Collision_energy: [28.333334]
Isolation_window: 4.0
Ion_mode: N
Num Peaks: 5
79.9564	100.0
113.0346	4.0
359.1899	46.4
360.1091	4.3
360.1922	7.6

Name: 2-(6-Hydroxyhexyl)-3-methylidenebutanedioic acid
PrecursorMZ: 229.10792
RT: 2.6192
ExactMass: 230.11542367
Spectrum_type: 2
charge: -1
Formula: C11H18O5
SMILES: C=C(C(CCCCCCO)C(=O)O)C(=O)O
Method: HCD
Collision_energy: [28.333334]
Isolation_window: 4.0
Ion_mode: N
Num Peaks: 8
139.1122	4.0
185.1177	100.0
186.1211	11.1
227.1657	7.1
227.2014	12.0
229.0722	4.2
229.1077	24.3
229.1809	4.9

Name: 2-(7-hydroxy-4,8-dimethyl-2-oxochromen-3-yl)-N-(3-morpholin-4-ylpropyl)acetamide
PrecursorMZ: 373.17687
RT: 1.5099
ExactMass: 374.18417193
Spectrum_type: 2
charge: -1
Formula: C20H26N2O5
SMILES: CC1=C(C(=O)OC2=C1C=CC(=C2C)O)CC(=O)NCCCN3CCOCC3
Method: HCD
Collision_energy: [28.333334]
Isolation_window: 4.0
Ion_mode: N
Num Peaks: 4
112.0395	61.3
164.0710	95.5
373.1767	100.0
374.1782	24.0

Name: 2-(Hydroxymethyl)pentanedioic acid
PrecursorMZ: 161.04495
RT: 7.7578
ExactMass: 162.05282342
Spectrum_type: 2
charge: -1
Formula: C6H10O5
SMILES: C(CC(=O)O)C(CO)C(=O)O
Method: HCD
Collision_energy: [28.333334]
Isolation_window: 4.0
Ion_mode: N
Num Peaks: 16
60.9922	33.0
72.9689	15.9
74.0238	10.1
88.0395	43.6
89.0235	100.0
99.0443	34.9
101.0237	13.0
116.0709	16.7
117.0547	10.3
121.0508	13.6
128.0346	19.4
131.0452	18.1
142.0503	21.5
143.0345	12.5
159.0658	11.1
161.0451	39.2

Name: 2-(Methylamino)benzoic acid
PrecursorMZ: 150.05528
RT: 7.44475
ExactMass: 151.06332853
Spectrum_type: 2
charge: -1
Formula: C8H9NO2
SMILES: CNC1=CC=CC=C1C(=O)O
Method: HCD
Collision_energy: [28.333334]
Isolation_window: 4.0
Ion_mode: N
Num Peaks: 8
106.0654	100.0
108.0447	47.4
136.0160	17.1
149.0603	14.8
150.0010	16.2
150.0553	82.9
151.0394	30.4
152.0343	18.0

Name: 2-))(2R,3S)-2-(3,4-dihydroxyphenyl)-3,5-dihydroxy-3,4-dihydro-2H-chromen-7-yl(oxy(oxane-3,4,5-triol
PrecursorMZ: 421.11402
RT: 2.2891
ExactMass: 422.12129689
Spectrum_type: 2
charge: -1
Formula: C20H22O10
SMILES: C1[C@@H]([C@H](OC2=CC(=CC(=C21)O)OC3C(C(C(CO3)O)O)O)C4=CC(=C(C=C4)O)O)O
Method: HCD
Collision_energy: [28.333334]
Isolation_window: 4.0
Ion_mode: N
Num Peaks: 82
59.0129	3.5
71.0127	1.1
73.0286	0.9
85.0286	1.3
87.0077	3.0
95.0128	0.9
97.0286	1.0
99.0442	1.6
109.0286	2.3
109.0649	0.9
111.0077	0.9
111.0442	1.2
113.0236	1.9
115.0390	0.8
123.0441	1.4
125.0235	5.1
125.0599	0.8
131.0339	1.4
135.0442	3.4
137.0235	6.1
137.0599	9.0
143.0340	0.9
149.0598	2.0
151.0395	1.5
151.0755	1.5
153.0548	4.4
155.0341	1.8
157.0496	0.7
163.0386	1.1
167.0342	2.4
167.0707	1.4
169.0499	3.2
177.0551	1.0
179.0342	7.4
181.0499	59.5
182.0532	2.6
185.0448	9.1
186.0486	0.7
189.0548	1.9
193.0495	1.1
195.0655	1.2
196.0370	2.4
197.0448	6.0
197.0810	1.0
201.0559	0.7
211.0607	3.1
215.0704	1.1
217.0867	1.0
227.0554	7.2
228.0593	0.7
229.0709	4.7
235.0606	1.5
239.0552	2.9
240.0629	0.9
241.0679	1.6
243.0668	1.5
257.0814	1.2
259.0971	3.7
261.0774	0.7
271.0974	0.9
275.0562	0.9
277.0716	2.2
295.0976	1.1
299.0919	0.7
301.0711	1.1
303.0871	2.8
315.0876	0.9
317.1022	0.7
319.0817	1.9
321.0985	0.9
323.1126	0.9
343.0824	2.6
351.1229	1.3
361.0915	2.2
363.1088	0.9
379.1200	1.5
403.1030	2.2
405.1192	2.5
420.0933	1.0
421.1139	100.0
422.1172	22.2
423.1300	49.5

Name: 2-)2,5-dimethyl(methylsulfonyl)anilino(-N-(3-pyridinyl)acetamide
PrecursorMZ: 368.08369
RT: 1.106
ExactMass: 333.11471265
Spectrum_type: 2
charge: -1
Formula: C16H19N3O3S
SMILES: CC1=CC(=C(C=C1)C)N(CC(=O)NC2=CN=CC=C2)S(=O)(=O)C
Method: HCD
Collision_energy: [28.333334]
Isolation_window: 4.0
Ion_mode: N
Num Peaks: 8
61.9875	100.0
287.0784	3.5
305.0903	3.8
367.1044	4.4
367.2124	7.4
367.3598	2.3
368.0868	3.5
369.2284	7.4

Name: 2-)2-)(2-Acetamido-4-methylpentanoyl)amino(propanoylamino(-3-hydroxypropanoic acid
PrecursorMZ: 330.16679
RT: 2.7733333333333334
ExactMass: 331.17433553
Spectrum_type: 2
charge: -1
Formula: C14H25N3O6
SMILES: CC(C)CC(C(=O)NC(C)C(=O)NC(CO)C(=O)O)NC(=O)C
Method: HCD
Collision_energy: [28.333334]
Isolation_window: 4.0
Ion_mode: N
Num Peaks: 26
88.0394	62.9
114.0551	12.0
116.0707	25.4
124.0759	10.3
128.0342	18.5
130.0863	11.8
140.0706	8.2
150.0551	13.8
152.0708	11.4
180.1023	42.4
197.1290	9.6
201.1234	11.0
214.1556	19.2
215.1397	8.0
223.1084	18.7
241.1174	10.2
295.1300	44.6
312.1561	33.1
329.1819	14.3
329.2327	18.2
330.1212	14.2
330.1279	9.1
330.1665	100.0
331.0678	8.3
331.1581	12.9
331.1667	22.6

Name: 2-)2-)(Z)-pent-2-enyl(-3-)3,4,5-trihydroxy-6-(hydroxymethyl)oxan-2-yl(oxycyclopentyl(acetic acid
PrecursorMZ: 373.18657
RT: 3.4145
ExactMass: 374.19406791
Spectrum_type: 2
charge: -1
Formula: C18H30O8
SMILES: CC/C=C\CC1C(CCC1OC2C(C(C(C(O2)CO)O)O)O)CC(=O)O
Method: HCD
Collision_energy: [28.333334]
Isolation_window: 4.0
Ion_mode: N
Num Peaks: 26
101.0234	42.7
102.0268	1.6
116.0706	1.2
135.0441	0.8
171.1019	2.3
209.1541	6.0
227.1648	12.7
228.1679	1.6
253.1441	2.3
271.1549	28.0
272.1581	4.4
289.1651	2.8
291.1965	1.3
309.2065	1.5
335.1847	1.0
337.1657	0.9
353.1964	5.0
354.1999	1.5
355.1754	8.6
356.1779	1.4
371.2075	20.6
372.2108	6.7
373.0904	1.0
373.1862	100.0
374.1898	18.7
375.1943	2.2

Name: 2-)5-(2-Hydroxypropyl)oxolan-2-YL(propanoic acid
PrecursorMZ: 205.05004
RT: 0.7899666666666667
ExactMass: 202.12050905
Spectrum_type: 2
charge: -1
Formula: C10H18O4
SMILES: CC(CC1CCC(O1)C(C)C(=O)O)O
Method: HCD
Collision_energy: [28.333334]
Isolation_window: 4.0
Ion_mode: N
Num Peaks: 42
59.0128	1.2
70.0287	2.2
72.9921	1.0
75.0076	1.0
80.9642	14.0
85.0286	1.9
87.0077	3.0
87.0441	1.9
97.0286	1.2
99.0440	1.0
116.0496	23.7
117.0182	1.1
117.0334	1.9
117.0528	2.5
119.0493	6.6
125.0236	1.8
133.0285	9.9
133.0649	2.5
135.0444	1.1
158.0447	1.1
159.0655	1.4
160.0395	27.6
161.0236	9.9
161.0437	2.5
161.0599	10.0
163.0391	13.2
163.0751	1.0
176.0558	1.3
185.0445	1.2
203.0553	4.7
204.0294	14.3
204.0624	1.0
205.0127	1.6
205.0163	1.9
205.0347	4.8
205.0500	100.0
205.1601	1.6
206.0538	11.3
206.9986	6.8
207.0291	41.0
207.0464	1.2
207.0656	1.4

Name: 2-)5-)2-)2-)5-(2-Hydroxypropyl)oxolan-2-yl(propanoyloxy(propyl(oxolan-2-yl(propanoic acid
PrecursorMZ: 385.22303
RT: 2.755
ExactMass: 386.23045342
Spectrum_type: 2
charge: -1
Formula: C20H34O7
SMILES: CC(CC1CCC(O1)C(C)C(=O)OC(C)CC2CCC(O2)C(C)C(=O)O)O
Method: HCD
Collision_energy: [28.333334]
Isolation_window: 4.0
Ion_mode: N
Num Peaks: 63
59.0123	0.9
61.9868	1.0
71.0128	0.7
83.0492	1.4
97.0649	1.4
109.0286	0.9
111.0806	1.3
113.0234	1.2
113.0598	0.9
114.0549	0.8
125.0963	2.6
128.0346	0.7
130.0863	1.3
131.0339	2.4
131.0704	2.3
135.0290	0.8
135.0440	1.5
181.1224	0.7
197.1175	6.4
198.1210	1.0
205.0501	0.8
207.1384	0.9
209.1530	0.9
211.1334	1.5
225.1490	4.6
231.0645	0.6
237.1496	0.7
239.1640	1.8
253.1441	0.7
253.1800	0.6
261.2226	1.3
279.2321	0.7
283.1547	1.1
303.1954	0.9
305.2117	4.4
306.2151	1.0
321.2079	0.9
322.2095	0.9
323.2223	3.7
324.2243	0.7
325.2036	0.7
339.2170	1.4
340.2191	0.9
341.2331	2.0
349.2016	4.2
365.1964	2.5
366.2001	2.1
367.2123	18.9
368.2158	4.4
369.2271	1.0
383.2070	17.4
384.1430	1.1
384.2109	13.3
385.0937	1.6
385.1183	2.4
385.2231	100.0
386.1098	1.5
386.2266	20.7
387.0580	3.0
387.0997	0.7
387.1350	1.4
387.1946	1.2
387.2356	4.1

Name: 2-Acetamido-3-hydroxypropanoic acid
PrecursorMZ: 146.04517
RT: 3.2784
ExactMass: 147.05315777
Spectrum_type: 2
charge: -1
Formula: C5H9NO4
SMILES: CC(=O)NC(CO)C(=O)O
Method: HCD
Collision_energy: [28.333334]
Isolation_window: 4.0
Ion_mode: N
Num Peaks: 33
59.0130	7.5
70.0289	28.8
72.0444	5.8
74.0238	100.0
82.0289	5.2
83.0492	7.0
84.0445	48.9
98.0237	23.8
100.0392	4.3
101.0598	11.2
102.0187	12.9
102.0338	11.1
103.0504	5.5
104.0343	16.5
114.0187	12.6
116.0344	76.4
118.0295	5.3
128.0344	6.2
129.0548	4.1
144.0197	56.6
144.0297	7.6
144.0380	9.9
145.0218	5.2
145.0399	8.8
145.0498	11.1
145.0862	12.1
145.9991	15.9
146.0237	30.8
146.0351	7.1
146.0449	55.3
146.9252	6.0
147.0190	37.8
147.0655	14.0

Name: 2-Acetamidophenol
PrecursorMZ: 150.05535
RT: 5.3603
ExactMass: 151.06332853
Spectrum_type: 2
charge: -1
Formula: C8H9NO2
SMILES: CC(=O)NC1=CC=CC=C1O
Method: HCD
Collision_energy: [28.333334]
Isolation_window: 4.0
Ion_mode: N
Num Peaks: 7
107.0367	36.4
108.0204	33.2
108.0446	52.8
150.0553	100.0
150.0966	18.1
151.0256	30.8
151.0392	46.1

Name: 2-Acetoxy-6-pentadecylbenzoic acid
PrecursorMZ: 389.26994
RT: 7.2905
ExactMass: 390.27700969
Spectrum_type: 2
charge: -1
Formula: C24H38O4
SMILES: CCCCCCCCCCCCCCCC1=C(C(=CC=C1)OC(=O)C)C(=O)O
Method: HCD
Collision_energy: [28.333334]
Isolation_window: 4.0
Ion_mode: N
Num Peaks: 8
345.2819	5.8
353.2504	6.0
371.2594	11.1
388.1911	5.6
388.2587	6.6
389.2704	74.2
390.2693	16.7
391.2860	100.0

Name: 2-Acetylaminofluorene
PrecursorMZ: 222.08784
RT: 5.4996
ExactMass: 223.099714038
Spectrum_type: 2
charge: -1
Formula: C15H13NO
SMILES: CC(=O)NC1=CC2=C(C=C1)C3=CC=CC=C3C2
Method: HCD
Collision_energy: [28.333334]
Isolation_window: 4.0
Ion_mode: N
Num Peaks: 31
55.0292	48.9
59.0130	3.0
80.9640	3.1
96.0193	24.1
108.0446	2.9
110.0349	2.9
123.0444	7.6
123.0556	23.6
124.0395	12.5
126.0300	39.2
136.0398	2.4
136.0758	4.5
137.0347	20.9
150.0556	2.7
151.0394	2.0
162.0551	7.2
163.0395	3.4
164.0582	3.3
166.0501	12.9
178.0861	2.7
179.0680	3.4
179.0833	3.7
180.0656	15.8
180.1023	2.1
192.0772	10.6
222.0887	100.0
223.0606	9.5
223.0917	9.9
223.1095	7.7
224.0893	3.2
224.0933	3.9

Name: 2-Acetylhydroquinone
PrecursorMZ: 151.03933
RT: 6.7533
ExactMass: 152.047344113
Spectrum_type: 2
charge: -1
Formula: C8H8O3
SMILES: CC(=O)C1=C(C=CC(=C1)O)O
Method: HCD
Collision_energy: [28.333334]
Isolation_window: 4.0
Ion_mode: N
Num Peaks: 8
81.0336	6.1
108.0195	22.2
109.0285	2.3
118.8988	3.6
123.0443	6.6
151.0257	100.0
151.0394	36.0
152.0345	29.3

Name: 2-Amino-2-deoxymannose
PrecursorMZ: 224.07674
RT: 4.263
ExactMass: 179.07937252
Spectrum_type: 2
charge: -1
Formula: C6H13NO5
SMILES: C([C@H]([C@H]([C@@H]([C@@H](C=O)N)O)O)O)O
Method: HCD
Collision_energy: [28.333334]
Isolation_window: 4.0
Ion_mode: N
Num Peaks: 25
58.0050	2.1
59.0128	41.0
61.9873	3.6
71.0128	38.4
72.0161	2.5
72.9920	2.5
85.0284	2.7
86.0233	2.3
87.0076	2.5
88.0393	2.7
89.0233	100.0
90.0265	5.3
100.0393	3.5
101.0233	18.1
113.0232	17.2
118.0498	2.8
119.0338	26.1
131.0340	2.5
143.0337	3.0
149.0447	2.4
161.0445	4.5
178.0711	4.4
179.0551	15.3
204.0861	2.1
222.0978	5.0

Name: 2-Amino-4-hydroxy-5-((1-(4-methoxy-6-oxopyran-2-yl)-3-methylbutyl)amino)-5-oxopentanoic acid
PrecursorMZ: 355.15132
RT: 5.3369
ExactMass: 356.15835111
Spectrum_type: 2
charge: -1
Formula: C16H24N2O7
SMILES: CC(C)CC(C1=CC(=CC(=O)O1)OC)NC(=O)C(CC(C(=O)O)N)O
Method: HCD
Collision_energy: [28.333334]
Isolation_window: 4.0
Ion_mode: N
Num Peaks: 79
59.0129	10.0
71.0130	9.4
72.9923	7.8
73.0288	5.9
74.0239	7.8
83.0130	8.4
85.0286	10.7
85.0650	15.8
87.0079	7.3
87.0443	41.5
88.0398	6.1
96.0083	6.1
98.0237	6.3
99.0079	70.2
99.0440	5.0
100.0396	6.5
101.0236	22.0
102.0552	28.5
109.0287	5.5
112.0396	5.4
113.0352	6.0
114.0552	21.7
116.0497	53.2
116.0709	8.8
122.0604	6.6
124.0759	15.3
125.0604	6.2
126.0558	7.5
127.0030	11.8
127.0505	8.3
128.0346	100.0
130.0866	30.1
134.0606	5.4
136.0761	21.5
137.0601	12.1
138.0553	49.8
144.0296	8.8
145.0136	9.9
146.0452	57.1
152.0710	4.9
153.0301	8.7
161.0450	12.1
163.0867	6.2
164.0707	9.6
166.0871	7.7
184.0974	32.2
185.0565	5.0
203.0827	7.1
212.1285	8.2
226.1079	6.8
240.0866	6.7
253.1713	5.3
259.1454	7.7
267.1819	5.3
269.1508	13.3
275.1392	8.5
277.1561	7.0
311.1617	5.0
311.2229	7.8
337.1411	14.4
353.1743	7.6
353.1971	14.0
353.6849	40.8
354.1210	8.4
354.1830	17.7
354.2205	7.2
354.6886	7.6
355.0797	5.6
355.1069	7.2
355.1448	9.6
355.1522	94.8
355.2138	28.5
356.1408	27.9
356.2148	6.1
357.1212	20.6
357.1400	7.9
357.1915	6.4
357.2151	17.0
357.2299	6.6

Name: 2-Amino-4-hydroxy-5-))1-(4-methoxy-6-oxopyran-2-yl)-3-methylbutyl(amino(-5-oxopentanoic acid
PrecursorMZ: 355.1517
RT: 0.6456
ExactMass: 356.15835111
Spectrum_type: 2
charge: -1
Formula: C16H24N2O7
SMILES: CC(C)CC(C1=CC(=CC(=O)O1)OC)NC(=O)C(CC(C(=O)O)N)O
Method: HCD
Collision_energy: [28.333334]
Isolation_window: 4.0
Ion_mode: N
Num Peaks: 51
59.0129	4.7
61.9874	5.8
71.0130	3.8
72.9922	4.9
74.0240	4.4
85.0285	4.7
87.0078	12.4
88.0395	10.0
96.9592	28.0
101.0235	13.8
102.0551	3.7
111.0445	3.6
112.0394	4.2
114.0551	19.8
115.0027	6.1
116.0708	10.2
128.0345	21.8
129.0185	3.5
130.0866	100.0
131.0900	6.1
145.0136	24.1
146.0451	5.3
156.0660	4.3
180.1020	5.4
196.0971	5.3
197.1299	3.8
199.0726	7.1
210.0767	5.8
227.1398	7.7
241.1200	5.2
275.1863	3.5
292.1923	3.8
293.1503	3.5
295.1301	6.2
310.2049	9.7
311.1638	8.6
312.1599	3.8
337.1447	6.0
353.1365	3.6
353.2040	4.4
354.1278	16.8
354.1659	4.5
354.1977	39.9
355.1096	15.5
355.1518	72.1
355.2130	8.5
356.1487	34.6
356.1858	12.0
357.1337	8.0
357.1684	12.7
357.1996	7.6

Name: 2-Amino-5-methylbenzenesulfonic acid
PrecursorMZ: 186.02219
RT: 7.6388
ExactMass: 187.03031432
Spectrum_type: 2
charge: -1
Formula: C7H9NO3S
SMILES: CC1=CC(=C(C=C1)N)S(=O)(=O)O
Method: HCD
Collision_energy: [28.333334]
Isolation_window: 4.0
Ion_mode: N
Num Peaks: 8
79.9563	100.0
100.0394	8.6
125.0961	32.9
166.9832	12.3
185.1177	8.4
186.0222	91.0
187.0607	10.7
187.0959	22.9

Name: 2-Amino-9-(5-O-phosphonopentofuranosyl)-1,9-dihydro-6H-purin-6-one
PrecursorMZ: 362.05024
RT: 8.7348
ExactMass: 363.05799942
Spectrum_type: 2
charge: -1
Formula: C10H14N5O8P
SMILES: C1=NC2=C(N1C3C(C(C(O3)COP(=O)(O)O)O)O)N=C(NC2=O)N
Method: HCD
Collision_energy: [28.333334]
Isolation_window: 4.0
Ion_mode: N
Num Peaks: 7
78.9580	100.0
96.9687	16.5
128.0343	7.7
150.0413	20.5
211.0005	90.9
361.1353	8.9
362.0505	77.4

Name: 2-Aminophenol
PrecursorMZ: 108.04454
RT: 2.1347
ExactMass: 109.052763847
Spectrum_type: 2
charge: -1
Formula: C6H7NO
SMILES: C1=CC=C(C(=C1)N)O
Method: HCD
Collision_energy: [28.333334]
Isolation_window: 4.0
Ion_mode: N
Num Peaks: 10
66.0342	4.3
81.0337	5.1
107.0370	5.5
107.0493	10.8
108.0207	5.3
108.0446	100.0
109.0285	44.2
109.0398	35.6
109.0478	5.2
109.0648	6.2

Name: 2-Benzyl-4-oxo-3-azaheptanedioic acid
PrecursorMZ: 264.08765
RT: 5.9524
ExactMass: 265.09502258
Spectrum_type: 2
charge: -1
Formula: C13H15NO5
SMILES: C1=CC=C(C=C1)CC(C(=O)O)NC(=O)CCC(=O)O
Method: HCD
Collision_energy: [28.333334]
Isolation_window: 4.0
Ion_mode: N
Num Peaks: 12
98.0239	36.8
102.0551	21.4
128.0347	50.2
135.0306	21.7
146.0452	95.8
147.0443	28.9
164.0709	100.0
184.0762	27.3
202.0866	42.2
246.0773	43.0
263.1497	21.6
264.0871	29.5

Name: 2-Dec-9-enylpentanedioic acid
PrecursorMZ: 269.17568
RT: 3.0306
ExactMass: 270.18310931
Spectrum_type: 2
charge: -1
Formula: C15H26O4
SMILES: C=CCCCCCCCCC(CCC(=O)O)C(=O)O
Method: HCD
Collision_energy: [28.333334]
Isolation_window: 4.0
Ion_mode: N
Num Peaks: 15
96.9592	6.2
115.0755	2.0
138.0676	3.6
153.0915	10.2
207.1747	2.1
225.1857	4.7
251.1649	1.8
268.1433	3.6
269.0607	5.2
269.1301	1.8
269.1416	1.8
269.1759	100.0
270.0676	2.7
270.1793	16.4
271.1883	2.4

Name: 2-Decyl-3-hydroxypentanedioic acid
PrecursorMZ: 287.18613
RT: 5.9682
ExactMass: 288.19367399
Spectrum_type: 2
charge: -1
Formula: C15H28O5
SMILES: CCCCCCCCCCC(C(CC(=O)O)O)C(=O)O
Method: HCD
Collision_energy: [28.333334]
Isolation_window: 4.0
Ion_mode: N
Num Peaks: 19
59.0128	8.2
85.0285	6.3
87.0077	5.8
116.0706	8.5
172.9865	13.4
207.1755	8.0
225.1863	9.7
251.1657	8.2
269.1756	23.7
285.1704	8.3
285.2705	9.1
286.1700	16.7
286.1741	9.2
287.0768	13.5
287.1507	11.9
287.1861	100.0
288.1893	16.0
289.0941	7.9
289.1646	13.9

Name: 2-Deoxyglucose
PrecursorMZ: 223.08184
RT: 5.0791
ExactMass: 164.06847348
Spectrum_type: 2
charge: -1
Formula: C6H12O5
SMILES: C(C=O)[C@H]([C@@H]([C@@H](CO)O)O)O
Method: HCD
Collision_energy: [28.333334]
Isolation_window: 4.0
Ion_mode: N
Num Peaks: 35
57.0336	2.6
59.0129	27.6
71.0129	38.9
73.0285	10.6
80.9642	3.2
85.0285	19.7
89.0234	13.0
97.0284	5.2
99.0079	3.1
101.0234	75.8
102.0265	4.4
103.0390	2.7
113.0234	10.7
115.0391	3.5
124.0395	34.4
127.0391	3.2
131.0340	5.2
144.0446	4.1
145.0492	2.9
149.0713	4.0
161.0452	6.0
163.0604	100.0
164.0635	5.3
178.0058	8.7
178.0863	5.7
180.0217	31.3
180.0651	4.7
181.0980	4.0
207.1504	3.4
222.0765	3.2
223.0815	4.9
224.0115	12.4
224.0922	8.6
225.1093	4.0
225.1606	26.6

Name: 2-Dodecoxyethyl hydrogen sulfate
PrecursorMZ: 309.174
RT: 0.7868999999999999
ExactMass: 310.18139523
Spectrum_type: 2
charge: -1
Formula: C14H30O5S
SMILES: CCCCCCCCCCCCOCCOS(=O)(=O)O
Method: HCD
Collision_energy: [28.333334]
Isolation_window: 4.0
Ion_mode: N
Num Peaks: 10
79.9568	0.6
96.9592	20.2
98.9550	0.4
122.9750	0.9
309.0999	0.6
309.1743	100.0
309.2315	0.6
309.2489	0.6
310.1775	16.0
311.1695	6.9

Name: 2-Ethylbutyric acid
PrecursorMZ: 115.07546
RT: 2.4583
ExactMass: 116.083729621
Spectrum_type: 2
charge: -1
Formula: C6H12O2
SMILES: CCC(CC)C(=O)O
Method: HCD
Collision_energy: [28.333334]
Isolation_window: 4.0
Ion_mode: N
Num Peaks: 10
71.0494	0.9
97.9303	1.8
99.9248	16.4
114.9331	8.5
115.0755	31.5
115.9198	6.3
116.0788	2.1
116.9103	0.7
116.9275	100.0
116.9450	0.7

Name: 2-Formylbenzenesulfonic acid
PrecursorMZ: 184.9906
RT: 1.1545999999999998
ExactMass: 185.99867984
Spectrum_type: 2
charge: -1
Formula: C7H6O4S
SMILES: C1=CC=C(C(=C1)C=O)S(=O)(=O)O
Method: HCD
Collision_energy: [28.333334]
Isolation_window: 4.0
Ion_mode: N
Num Peaks: 4
121.0287	35.9
184.9909	100.0
185.9942	9.3
187.0057	12.1

Name: 2-Heptyl-3,6-dihydroxy-5-(3-methyl-2-buten-1-yl)benzaldehyde
PrecursorMZ: 349.20197
RT: 6.5798
ExactMass: 304.20384475
Spectrum_type: 2
charge: -1
Formula: C19H28O3
SMILES: CCCCCCCC1=C(C=C(C(=C1C=O)O)CC=C(C)C)O
Method: HCD
Collision_energy: [28.333334]
Isolation_window: 4.0
Ion_mode: N
Num Peaks: 33
59.0130	7.5
61.9875	3.9
109.0288	1.7
114.0551	2.3
128.0344	1.6
135.0445	1.9
180.0660	3.2
186.1244	1.8
187.1084	3.5
219.1137	3.6
259.1295	2.6
303.1966	2.8
305.1767	2.5
305.2125	3.6
307.1928	2.7
347.1215	2.2
347.1866	10.3
348.1074	2.8
348.1137	2.4
348.1194	3.1
348.1494	2.1
348.1892	5.6
349.1324	3.2
349.1360	5.6
349.1677	7.1
349.2024	100.0
349.2343	3.5
350.1284	3.1
350.1648	2.7
350.1686	6.4
350.2058	22.2
351.1808	10.8
351.2182	14.6

Name: 2-Hexyl-3-hydroxypentanedioic acid
PrecursorMZ: 231.12358
RT: 3.3084
ExactMass: 232.13107373
Spectrum_type: 2
charge: -1
Formula: C11H20O5
SMILES: CCCCCCC(C(CC(=O)O)O)C(=O)O
Method: HCD
Collision_energy: [28.333334]
Isolation_window: 4.0
Ion_mode: N
Num Peaks: 30
59.0129	1.3
72.9922	2.3
87.0078	1.1
97.0650	1.2
99.0442	1.1
105.0186	1.3
141.1271	1.1
143.0344	3.2
151.1121	9.9
152.1156	1.0
154.9465	1.2
167.1436	1.4
169.1228	15.0
170.1263	1.8
172.9573	2.1
187.1336	6.9
195.1021	11.1
211.0969	1.2
211.1335	2.2
213.1128	45.8
214.1162	5.8
229.0703	1.3
229.1082	3.6
229.1442	6.1
229.1781	1.2
230.0656	1.9
231.0499	1.7
231.1235	100.0
232.1270	11.7
233.0658	6.6

Name: 2-Hydroxy-1,2,3-propanetricarboxylic acid 2-methyl ester
PrecursorMZ: 205.03471
RT: 2.4391
ExactMass: 206.04265265
Spectrum_type: 2
charge: -1
Formula: C7H10O7
SMILES: COC(=O)C(CC(=O)O)(CC(=O)O)O
Method: HCD
Collision_energy: [28.333334]
Isolation_window: 4.0
Ion_mode: N
Num Peaks: 59
57.0338	3.8
59.0129	9.9
71.0130	7.8
72.9922	11.8
73.0286	14.5
74.0237	4.0
75.0079	10.2
83.0130	3.4
85.0286	4.1
87.0078	55.6
88.0393	3.6
89.0235	19.2
97.0650	10.5
99.0443	6.8
101.0235	12.7
105.0185	4.2
111.0079	100.0
112.0111	4.6
113.0236	3.7
113.0598	6.4
114.0556	3.4
115.0392	8.3
116.0708	3.0
117.0185	8.6
119.0493	5.0
123.0441	6.9
124.0397	8.6
125.0598	3.4
131.0454	3.1
133.0132	5.4
141.0548	8.4
143.0342	17.5
143.0706	11.6
144.0287	4.4
145.0135	6.4
145.0497	4.7
159.0659	5.7
160.0397	81.1
160.0589	6.5
161.0434	7.4
161.0593	3.6
162.0553	97.5
163.0392	3.1
163.0589	5.3
166.8323	4.0
167.8337	9.2
169.8301	4.1
173.0082	4.3
185.0449	21.5
187.0607	21.4
188.0349	6.6
203.0559	23.8
204.0302	35.2
204.0511	6.5
204.0871	12.0
205.0348	12.4
205.0711	33.2
206.0455	40.9
207.0498	8.8

Name: 2-Hydroxy-3,4-dimethoxybenzoic acid
PrecursorMZ: 197.04512
RT: 1.4413
ExactMass: 198.05282342
Spectrum_type: 2
charge: -1
Formula: C9H10O5
SMILES: COC1=C(C(=C(C=C1)C(=O)O)O)OC
Method: HCD
Collision_energy: [28.333334]
Isolation_window: 4.0
Ion_mode: N
Num Peaks: 38
72.9922	4.0
80.9642	3.0
81.0336	35.7
87.0078	22.0
93.0336	1.8
95.0492	3.9
99.0444	2.1
108.0207	23.4
109.0285	1.9
111.0441	2.4
121.0286	34.5
122.0320	2.0
122.0603	3.1
123.0080	5.5
123.0443	79.6
124.0395	6.7
125.0599	2.1
135.0445	1.7
137.0600	5.4
138.0314	14.9
139.0398	2.3
153.0550	46.2
153.0658	2.5
154.0595	3.6
155.0706	3.2
166.0504	1.4
166.9979	15.7
167.0343	4.2
181.0502	6.7
182.0214	100.0
183.0242	6.4
195.0318	2.5
196.0136	1.9
197.0450	69.7
197.0814	2.6
198.0499	5.4
198.0760	3.5
199.0607	24.4

Name: 2-Hydroxy-4,5',8a'-trimethyl-1'-oxo-4-vinyloctahydro-1'H-spiro(cyclopentane-1,2'-naphthalene)-5'-carboxylic acid
PrecursorMZ: 333.20707
RT: 3.3238
ExactMass: 334.21440943
Spectrum_type: 2
charge: -1
Formula: C20H30O4
SMILES: CC12CCCC(C1CCC3(C2=O)CC(CC3O)(C)C=C)(C)C(=O)O
Method: HCD
Collision_energy: [28.333334]
Isolation_window: 4.0
Ion_mode: N
Num Peaks: 7
97.4646	5.4
287.2014	5.1
289.2174	36.8
290.2213	8.3
321.2058	5.0
333.2073	100.0
334.2107	23.4

Name: 2-Hydroxy-4-Methoxy-3,6-Dimethylbenzoic Acid
PrecursorMZ: 195.0657
RT: 5.9055
ExactMass: 196.07355886
Spectrum_type: 2
charge: -1
Formula: C10H12O4
SMILES: CC1=CC(=C(C(=C1C(=O)O)O)C)OC
Method: HCD
Collision_energy: [28.333334]
Isolation_window: 4.0
Ion_mode: N
Num Peaks: 9
73.0286	33.8
133.0651	17.2
135.0445	9.0
147.0445	9.2
151.0757	100.0
165.0544	11.9
177.0549	11.5
195.0658	93.2
197.0673	17.0

Name: 2-Hydroxy-6-(8Z,11Z)-8,11,14-pentadecatrien-1-ylbenzoic acid
PrecursorMZ: 341.21219
RT: 0.7681
ExactMass: 342.21949481
Spectrum_type: 2
charge: -1
Formula: C22H30O3
SMILES: C=CC/C=C\C/C=C\CCCCCCCC1=C(C(=CC=C1)O)C(=O)O
Method: HCD
Collision_energy: [28.333334]
Isolation_window: 4.0
Ion_mode: N
Num Peaks: 18
96.9589	1.5
97.4668	2.1
107.0494	4.3
119.0494	6.7
121.0287	3.3
133.0651	1.8
203.1437	1.5
281.1915	2.0
295.2070	8.0
297.2224	76.4
298.2259	15.7
299.2380	98.6
339.2003	11.4
340.2033	6.6
341.0718	2.8
341.2124	100.0
342.2157	23.4
343.2278	75.3

Name: 2-Hydroxy-6-methoxybenzoic acid
PrecursorMZ: 167.03424
RT: 1.6377
ExactMass: 168.04225873
Spectrum_type: 2
charge: -1
Formula: C8H8O4
SMILES: COC1=CC=CC(=C1C(=O)O)O
Method: HCD
Collision_energy: [28.333334]
Isolation_window: 4.0
Ion_mode: N
Num Peaks: 18
71.0130	5.1
79.9563	4.9
80.9643	100.0
82.9602	3.5
95.0493	16.8
108.0205	5.3
122.0601	3.4
123.0444	70.2
123.0807	3.6
124.0478	5.6
134.9749	4.1
152.0837	4.7
165.0218	4.0
165.0545	3.7
166.0523	14.9
167.0010	10.6
167.0343	31.5
169.0503	5.5

Name: 2-Hydroxyadipic acid
PrecursorMZ: 161.04488
RT: 7.7915
ExactMass: 162.05282342
Spectrum_type: 2
charge: -1
Formula: C6H10O5
SMILES: C(CC(C(=O)O)O)CC(=O)O
Method: HCD
Collision_energy: [28.333334]
Isolation_window: 4.0
Ion_mode: N
Num Peaks: 23
59.0130	42.6
65.0136	15.2
71.0130	26.3
71.0493	28.9
88.0393	14.6
97.0285	22.8
97.0650	29.5
99.0443	52.1
101.0235	35.7
115.0391	26.3
115.0758	20.5
117.0548	72.8
120.0559	17.8
121.0510	47.3
132.0560	13.3
133.0510	13.4
143.0343	100.0
159.0663	26.3
160.0395	42.9
160.8918	16.4
161.0452	90.8
162.8925	15.1
163.1124	17.6

Name: 2-Hydroxynicotinic acid
PrecursorMZ: 138.01893
RT: 1.642
ExactMass: 139.026943022
Spectrum_type: 2
charge: -1
Formula: C6H5NO3
SMILES: C1=CNC(=O)C(=C1)C(=O)O
Method: HCD
Collision_energy: [28.333334]
Isolation_window: 4.0
Ion_mode: N
Num Peaks: 10
93.0336	14.4
94.0289	100.0
136.0145	10.7
136.8620	10.2
136.8909	43.0
137.0236	19.9
137.0349	10.0
138.0188	25.5
138.0551	12.9
140.0250	8.1

Name: 2-Hydroxyquinoline
PrecursorMZ: 144.04474
RT: 5.0418
ExactMass: 145.052763847
Spectrum_type: 2
charge: -1
Formula: C9H7NO
SMILES: C1=CC=C2C(=C1)C=CC(=O)N2
Method: HCD
Collision_energy: [28.333334]
Isolation_window: 4.0
Ion_mode: N
Num Peaks: 23
69.3483	0.5
71.0492	0.5
83.0494	0.9
85.0650	0.8
99.0443	0.6
99.0806	3.7
101.0599	2.5
111.0190	0.7
114.0915	1.0
116.0498	4.4
118.0656	0.6
127.0392	0.7
128.0499	1.1
131.0368	0.5
142.0867	0.5
143.0344	0.5
144.0212	0.7
144.0448	100.0
144.0630	0.5
144.0684	0.7
145.0488	13.5
145.0862	4.3
146.0604	13.9

Name: 2-Hydroxyquinoline-4-carboxylic acid
PrecursorMZ: 188.03473
RT: 5.1099
ExactMass: 189.042593085
Spectrum_type: 2
charge: -1
Formula: C10H7NO3
SMILES: C1=CC=C2C(=C1)C(=CC(=O)N2)C(=O)O
Method: HCD
Collision_energy: [28.333334]
Isolation_window: 4.0
Ion_mode: N
Num Peaks: 31
59.0130	0.5
71.0493	0.3
73.0286	0.3
79.9564	1.6
80.9643	0.4
83.0494	0.4
87.0442	0.9
99.0443	0.6
115.0393	0.3
116.0496	1.4
125.0599	0.2
125.0964	0.9
127.0388	0.3
143.0712	0.3
144.0210	0.6
144.0448	100.0
144.0686	0.6
145.0482	9.6
146.0499	0.3
146.0604	1.8
159.1021	1.3
160.0401	0.3
168.0664	0.3
186.3658	0.4
187.0611	1.2
187.0971	1.9
188.0021	0.6
188.0347	3.1
189.0404	0.8
189.1125	0.6
190.0506	0.6

Name: 2-Methoxy-1-(2,4,6-trihydroxyphenyl)ethanone
PrecursorMZ: 197.04506
RT: 0.699
ExactMass: 198.05282342
Spectrum_type: 2
charge: -1
Formula: C9H10O5
SMILES: COCC(=O)C1=C(C=C(C=C1O)O)O
Method: HCD
Collision_energy: [28.333334]
Isolation_window: 4.0
Ion_mode: N
Num Peaks: 80
59.0129	2.5
71.0129	2.1
72.9922	24.0
81.0336	3.4
83.0493	5.9
87.0079	6.4
93.0336	6.7
93.0700	1.9
94.0290	1.6
95.0127	1.5
95.0493	3.2
96.0445	2.0
97.0285	3.6
97.0650	6.2
98.0237	1.6
99.0444	2.5
107.0493	5.7
108.0445	5.8
109.0287	3.9
109.0650	7.1
110.0366	3.5
110.0602	6.6
110.9900	1.7
111.0443	22.7
111.0551	2.0
111.0806	4.2
113.0234	1.8
114.0551	8.2
123.0443	6.5
123.0552	2.3
123.0807	2.9
124.0158	7.1
125.0600	26.1
126.0634	1.6
126.0918	2.0
134.0603	2.6
135.0444	33.5
135.0805	1.7
136.0476	2.6
136.0761	3.9
137.0235	1.8
137.0600	15.2
138.0316	6.5
139.0144	2.2
150.0555	1.6
151.0393	9.7
151.0506	5.0
151.0757	12.8
151.0879	5.5
152.0706	11.3
152.1069	2.9
153.0550	38.3
153.0909	5.0
154.0491	4.0
154.0863	6.3
155.0711	3.7
155.1072	1.8
179.0344	21.9
179.0696	2.1
180.0386	2.0
180.0659	1.7
181.0123	4.1
181.0503	5.5
195.0300	5.1
195.0659	10.5
195.1383	2.3
195.9055	2.2
196.0358	75.6
196.0596	7.2
196.0969	6.1
197.0450	100.0
197.0615	2.7
197.0810	12.7
197.1163	2.5
198.0480	8.4
198.0755	7.0
198.1125	3.7
199.0608	30.6
199.0964	3.7
199.1334	4.0

Name: 2-Methoxydecanoic acid
PrecursorMZ: 377.16081
RT: 6.2186
ExactMass: 202.15689456
Spectrum_type: 2
charge: -1
Formula: C11H22O3
SMILES: CCCCCCCCC(C(=O)O)OC
Method: HCD
Collision_energy: [28.333334]
Isolation_window: 4.0
Ion_mode: N
Num Peaks: 4
271.1708	23.0
359.1504	100.0
360.1544	19.6
377.1610	53.1

Name: 2-Methyl-4,6-dinitrophenol
PrecursorMZ: 197.01967
RT: 1.3581
ExactMass: 198.0276713
Spectrum_type: 2
charge: -1
Formula: C7H6N2O5
SMILES: CC1=CC(=CC(=C1O)[N+](=O)[O-])[N+](=O)[O-]
Method: HCD
Collision_energy: [28.333334]
Isolation_window: 4.0
Ion_mode: N
Num Peaks: 107
59.0129	3.8
66.0339	24.3
69.0336	1.9
71.0129	3.2
72.9921	6.4
78.9580	4.3
79.9561	4.1
80.9641	27.8
81.0335	3.3
82.0288	3.4
82.9600	2.7
83.0493	2.5
85.0286	2.1
87.0078	10.0
93.0336	2.1
94.0288	3.8
95.0493	2.6
96.0445	1.8
96.9590	5.8
97.0286	3.5
98.0238	2.9
99.0443	2.6
107.0491	3.0
108.0445	7.2
108.0809	5.9
109.0291	6.5
109.0397	90.8
109.0648	18.0
110.0238	13.0
110.0431	5.2
110.0601	2.8
111.0442	6.3
111.0555	1.9
111.0802	2.5
112.0393	5.3
113.0235	4.3
114.0550	6.0
116.9199	4.2
120.0444	2.6
122.0604	2.3
123.0445	5.8
123.0543	3.5
124.0064	2.1
124.0394	6.5
125.0235	6.9
125.0345	2.2
125.0599	4.7
126.0551	2.7
127.0390	3.3
134.0602	3.1
135.0443	7.4
135.0554	2.4
136.0394	10.8
136.0758	2.2
137.0236	7.2
137.0598	12.4
138.0551	2.2
139.0391	3.7
151.0391	4.8
151.0505	3.7
151.0755	4.8
151.0867	1.9
152.0343	12.9
152.0707	19.8
153.0200	3.1
153.0296	100.0
153.0548	22.8
153.0662	10.4
153.0911	1.8
154.0136	6.6
154.0326	15.6
154.0500	20.0
154.0856	3.3
155.0356	3.4
155.0705	7.2
169.0145	2.4
178.0503	1.9
179.0333	2.5
180.0292	12.7
181.0497	6.4
182.0214	2.3
194.9962	24.6
195.0321	39.3
195.0628	6.1
195.9053	5.4
195.9983	2.9
196.0136	2.5
196.0296	3.7
196.0601	14.4
196.0962	3.0
196.9025	2.7
196.9921	2.1
197.0203	28.8
197.0447	27.1
197.0578	3.8
197.0814	2.9
198.0070	6.4
198.0225	4.2
198.0404	13.8
198.0764	35.0
198.1121	2.2
198.9734	9.2
199.0092	7.7
199.0273	12.2
199.0601	37.3
199.0763	3.5
199.0974	2.4

Name: 2-Methyl-5-nitrobenzenesulfonic acid
PrecursorMZ: 215.99699
RT: 3.8908
ExactMass: 217.0044935
Spectrum_type: 2
charge: -1
Formula: C7H7NO5S
SMILES: CC1=C(C=C(C=C1)[N+](=O)[O-])S(=O)(=O)O
Method: HCD
Collision_energy: [28.333334]
Isolation_window: 4.0
Ion_mode: N
Num Peaks: 10
79.9564	11.2
136.0396	25.0
172.9575	3.7
199.8500	4.4
215.0095	33.8
215.9968	100.0
216.0314	5.4
216.8543	5.8
216.9997	7.5
217.0280	4.8

Name: 2-Methylpentanedioic Acid
PrecursorMZ: 145.0498
RT: 7.3743
Spectrum_type: 2
charge: -1
SMILES: CC(CCC(=O)O)C(=O)O
Method: HCD
Collision_energy: [28.333334]
Isolation_window: 4.0
Ion_mode: N
Num Peaks: 5
83.0492	14.6
101.0599	100.0
144.0444	10.4
145.0498	20.1
146.0242	13.4

Name: 2-Oxoadipic acid
PrecursorMZ: 159.02957
RT: 1.4417
ExactMass: 160.03717335
Spectrum_type: 2
charge: -1
Formula: C6H8O5
SMILES: C(CC(=O)C(=O)O)CC(=O)O
Method: HCD
Collision_energy: [28.333334]
Isolation_window: 4.0
Ion_mode: N
Num Peaks: 40
57.0337	12.3
59.0129	6.9
60.9921	1.6
65.0136	1.6
65.9976	1.4
69.0336	3.5
71.0130	3.0
71.0493	2.4
85.0286	13.1
86.0602	2.1
87.0078	2.4
97.0285	3.9
99.0079	3.4
101.0235	7.0
102.0087	2.5
112.0395	1.4
113.0235	10.1
113.0600	4.2
114.0552	4.7
114.0915	5.1
115.0392	15.1
116.0246	7.1
116.0708	5.3
127.0390	1.2
129.0186	1.2
131.0346	1.6
141.0186	1.4
157.0507	8.4
157.0694	1.5
157.0864	1.4
157.1226	1.4
158.0351	2.3
158.0464	9.8
158.0815	12.2
159.0293	100.0
159.0649	4.6
159.1017	1.5
160.0328	6.4
160.0610	1.5
161.0450	23.1

Name: 2-Oxobutyric acid
PrecursorMZ: 101.02355
RT: 5.1845
Spectrum_type: 2
charge: -1
SMILES: CCC(=O)C(=O)O
Method: HCD
Collision_energy: [28.333334]
Isolation_window: 4.0
Ion_mode: N
Num Peaks: 3
57.0337	59.6
73.0286	11.2
101.0235	100.0

Name: 2-Phenylbenzimidazole-5-Sulfonic Acid
PrecursorMZ: 273.03365
RT: 2.4997
ExactMass: 274.04121336
Spectrum_type: 2
charge: -1
Formula: C13H10N2O3S
SMILES: C1=CC=C(C=C1)C2=NC3=C(N2)C=C(C=C3)S(=O)(=O)O
Method: HCD
Collision_energy: [28.333334]
Isolation_window: 4.0
Ion_mode: N
Num Peaks: 47
59.0129	0.7
79.9567	0.6
85.0285	0.8
95.0491	0.5
114.0550	0.8
115.0392	0.7
127.0504	1.2
130.0865	0.5
132.0658	0.5
134.0605	0.6
136.0395	0.4
136.0759	1.5
138.0550	1.1
152.0705	1.1
161.0712	0.9
193.0764	42.4
194.0799	5.4
203.0946	0.4
209.0718	0.5
214.1230	0.7
228.0884	0.9
228.1599	1.0
229.1184	0.5
230.1183	0.5
232.1336	0.7
242.1049	1.1
255.1140	1.6
257.1292	14.7
271.0823	1.8
271.1505	0.7
271.1913	0.8
271.1957	0.8
272.0852	1.0
272.1293	0.5
272.1368	0.4
272.9717	0.7
272.9864	0.5
273.0337	100.0
273.0823	0.8
273.0946	0.7
273.1662	0.5
273.1681	2.4
274.0368	14.8
274.1660	5.8
275.0303	2.8
275.1031	0.8
275.1398	0.7

Name: 2-Propanesulfonic acid
PrecursorMZ: 123.01124
RT: 2.1898
ExactMass: 124.01941529
Spectrum_type: 2
charge: -1
Formula: C3H8O3S
SMILES: CC(C)S(=O)(=O)O
Method: HCD
Collision_energy: [28.333334]
Isolation_window: 4.0
Ion_mode: N
Num Peaks: 5
79.9564	100.0
81.9522	15.6
120.9958	8.8
123.0113	60.6
123.9013	7.8

Name: 2-acetamido-3-(4-methoxyphenyl)propanoic Acid
PrecursorMZ: 236.09252
RT: 4.8593
ExactMass: 237.10010796
Spectrum_type: 2
charge: -1
Formula: C12H15NO4
SMILES: CC(=O)NC(CC1=CC=C(C=C1)OC)C(=O)O
Method: HCD
Collision_energy: [28.333334]
Isolation_window: 4.0
Ion_mode: N
Num Peaks: 36
59.0130	5.5
72.0446	21.0
72.9922	3.4
79.9565	6.0
80.9643	17.9
84.0445	17.2
88.0394	7.4
94.0289	4.1
107.0494	28.6
108.0447	4.5
112.0395	3.5
119.0495	6.2
124.0066	4.7
124.0760	16.9
137.0964	3.5
163.0394	14.1
165.1029	5.2
176.0345	7.0
180.0661	100.0
181.0695	8.5
192.0661	41.9
192.1024	17.6
194.0567	7.0
194.0814	4.1
201.0768	3.7
235.0386	4.1
235.1085	4.2
235.1179	11.1
236.0575	23.5
236.0925	81.9
237.0561	5.5
237.0774	3.6
237.0932	3.5
237.0971	8.8
238.0373	5.0
238.0732	3.9

Name: 2-acetamido-3-(4-oxo-1H-cyclohepta)b(pyrrol-3-yl)propanoic acid
PrecursorMZ: 273.08792
RT: 1.4532
ExactMass: 274.09535693
Spectrum_type: 2
charge: -1
Formula: C14H14N2O4
SMILES: CC(=O)NC(CC1=CNC2=C1C(=O)C=CC=C2)C(=O)O
Method: HCD
Collision_energy: [28.333334]
Isolation_window: 4.0
Ion_mode: N
Num Peaks: 42
59.0135	10.8
72.9922	3.1
83.0492	3.1
88.0401	2.5
97.0649	6.8
98.0238	55.1
107.0605	6.7
109.0285	21.7
111.0806	5.5
121.0287	2.9
125.0961	7.6
135.0443	11.7
139.0392	3.1
158.0602	7.0
187.0753	2.7
201.1024	3.3
209.1545	3.7
211.0873	5.1
213.0665	11.6
214.0743	29.2
215.0774	3.1
227.0828	10.0
227.1652	2.5
228.0886	3.2
229.0981	100.0
230.1011	12.5
231.0662	3.9
231.1126	2.8
253.1442	15.8
254.1039	3.9
254.1468	3.7
257.0931	9.1
271.0797	22.0
271.1549	53.0
272.0818	7.0
272.1134	2.7
272.1582	13.6
273.0877	79.8
273.1691	7.8
274.0942	16.2
275.0774	7.9
275.1031	38.0

Name: 2-hydroxy-4-(hydroxymethyl)-6-(1-hydroxy-3-methylbut-2-enyl)-3-)(E)-prop-1-enyl(-7-oxabicyclo)4.1.0(hept-3-en-5-one
PrecursorMZ: 279.1238
RT: 0.9058
ExactMass: 280.13107373
Spectrum_type: 2
charge: -1
Formula: C15H20O5
SMILES: C/C=C/C1=C(C(=O)C2(C(C1O)O2)C(C=C(C)C)O)CO
Method: HCD
Collision_energy: [28.333334]
Isolation_window: 4.0
Ion_mode: N
Num Peaks: 45
59.0130	1.7
72.9922	1.9
80.9642	5.4
87.0078	2.9
96.9591	2.4
109.0283	4.1
115.0393	2.4
123.0444	2.7
124.0395	2.1
125.0237	2.1
128.0347	2.0
135.0444	2.5
136.0760	13.8
154.0140	2.0
175.0750	2.1
177.0548	1.7
181.0500	2.6
191.0698	2.5
191.1439	2.9
217.0874	2.1
217.1233	6.3
219.0663	2.4
233.0820	1.6
234.0786	2.1
235.0601	3.7
235.0994	4.2
235.1336	61.9
236.1372	9.2
237.0759	2.7
237.1129	10.9
261.0767	1.5
263.0551	2.6
277.0715	2.0
278.0695	7.7
279.0042	2.3
279.0524	10.0
279.0876	29.8
279.1235	100.0
280.0534	1.9
280.0850	11.3
280.1266	16.4
281.0384	1.7
281.0663	51.1
281.1021	5.5
281.1369	2.2

Name: 20-Deoxyingenol
PrecursorMZ: 377.19786
RT: 4.5686
ExactMass: 332.19875937
Spectrum_type: 2
charge: -1
Formula: C20H28O4
SMILES: C[C@@H]1C[C@@H]2[C@@H](C2(C)C)[C@@H]3C=C([C@H]([C@]4([C@@]1(C3=O)C=C([C@@H]4O)C)O)O)C
Method: HCD
Collision_energy: [28.333334]
Isolation_window: 4.0
Ion_mode: N
Num Peaks: 53
59.0130	4.7
61.9876	0.9
69.5802	0.8
72.9922	2.1
73.0286	0.8
75.0079	63.5
76.0113	1.1
80.9643	2.7
87.0079	0.8
88.0394	0.9
96.9591	1.9
99.0443	1.7
114.0552	5.0
116.0706	0.8
122.0600	0.8
125.0599	0.9
130.0866	2.1
195.0654	1.4
213.1236	1.0
219.0064	2.0
233.1176	1.4
237.1125	1.3
271.1454	0.9
285.1822	2.0
293.2136	0.9
294.1110	8.6
295.2281	1.1
299.1048	1.1
303.1711	0.7
315.2544	0.8
319.1135	0.7
319.1914	100.0
319.2687	0.7
320.1948	19.3
321.1980	1.6
375.1879	1.3
375.2199	1.8
375.2752	20.7
376.1010	0.9
376.1049	0.9
376.1432	1.5
376.1862	4.4
376.2784	7.5
377.1625	4.8
377.1985	50.5
377.2352	1.8
377.2789	0.8
378.1207	1.0
378.1613	2.3
378.2009	12.1
379.1750	4.6
379.2130	18.1
379.2514	5.7

Name: 20-Hdohe
PrecursorMZ: 343.22732
RT: 0.7403
ExactMass: 344.23514488
Spectrum_type: 2
charge: -1
Formula: C22H32O3
SMILES: CCC(/C=C/C=C\C/C=C\C/C=C\C/C=C\C/C=C\CCC(=O)O)O
Method: HCD
Collision_energy: [28.333334]
Isolation_window: 4.0
Ion_mode: N
Num Peaks: 15
106.0418	0.9
107.0494	1.0
119.0490	2.0
121.0289	0.8
297.2222	4.9
298.2255	6.1
299.2375	52.9
300.2410	11.9
301.2532	90.1
314.2210	0.7
341.2119	6.2
342.2152	11.2
343.2273	52.6
344.2308	13.2
345.2429	100.0

Name: 20-Oxopregnane-3,12-diyl diacetate
PrecursorMZ: 607.26568
RT: 4.837
ExactMass: 418.27192431
Spectrum_type: 2
charge: -1
Formula: C25H38O5
SMILES: CC(=O)C1CCC2C1(C(CC3C2CCC4C3(CCC(C4)OC(=O)C)C)OC(=O)C)C
Method: HCD
Collision_energy: [28.333334]
Isolation_window: 4.0
Ion_mode: N
Num Peaks: 17
67.4762	3.3
78.9581	100.0
96.9688	4.8
152.9952	28.7
171.0058	68.4
227.0327	2.5
245.0442	2.6
273.1611	2.0
361.2146	2.1
379.2260	28.7
380.2299	5.0
435.2529	2.0
453.2645	1.9
563.3209	2.3
607.2658	72.5
608.2691	18.8
609.2743	2.9

Name: 24-Epibrassinolide
PrecursorMZ: 479.33833
RT: 4.605
ExactMass: 480.34508925
Spectrum_type: 2
charge: -1
Formula: C28H48O6
SMILES: C[C@@H]([C@H]1CC[C@@H]2[C@@]1(CC[C@H]3[C@H]2COC(=O)[C@@H]4[C@@]3(C[C@H]([C@H](C4)O)O)C)C)[C@H]([C@@H]([C@H](C)C(C)C)O)O
Method: HCD
Collision_energy: [28.333334]
Isolation_window: 4.0
Ion_mode: N
Num Peaks: 62
53.2585	2.7
53.2614	4.0
53.4853	1.5
57.0337	1.3
59.0130	6.6
69.0336	1.4
71.0130	5.0
71.0493	1.5
72.9924	2.2
73.0286	7.1
75.0080	2.7
83.0494	4.1
85.0285	1.7
87.0079	3.9
87.0444	1.3
89.0236	3.5
96.9593	2.2
97.0286	2.1
97.0653	1.5
97.4663	1.1
101.0235	1.6
101.0597	1.7
109.0285	1.3
113.0963	2.0
115.0393	8.4
116.0708	1.5
129.0551	2.3
130.0866	1.8
135.0443	1.3
145.0500	6.1
152.9953	1.7
173.0456	1.7
183.1023	1.9
305.2512	2.2
317.2514	1.3
333.2827	2.3
399.3297	1.3
417.3415	3.7
419.3597	1.9
433.2940	2.3
433.3452	5.2
434.3022	4.8
434.3451	3.1
435.3066	3.7
435.3520	14.4
436.3525	1.2
436.3623	3.7
437.3662	2.5
449.2914	3.5
460.3150	1.5
461.3296	10.5
462.3320	2.3
463.3525	5.1
477.3179	2.4
477.3233	17.1
478.1661	1.7
478.3287	19.7
479.1911	1.7
479.3416	100.0
480.3459	28.9
481.2284	2.5
481.3588	36.3

Name: 2H-(1,6)Dioxacycloundecino(2,3,4-gh)pyrrolizine-2,6(3H)-dione, 4,5,8,10,12,13,13a,13b-octahydro-3,4-dihydroxy-3,4,5-trimethyl-, 11-oxide
PrecursorMZ: 205.05007
RT: 9.7586
ExactMass: 341.14745207
Spectrum_type: 2
charge: -1
Formula: C16H23NO7
SMILES: CC1C(=O)OCC2=CC[N+]3(C2C(CC3)OC(=O)C(C1(C)O)(C)O)[O-]
Method: HCD
Collision_energy: [28.333334]
Isolation_window: 4.0
Ion_mode: N
Num Peaks: 48
59.0130	5.9
71.0130	6.5
72.9924	2.7
73.0286	4.1
75.0078	2.7
80.9642	2.7
85.0287	7.3
87.0078	6.0
88.0395	9.6
89.0237	2.7
97.0286	2.1
99.0443	4.3
101.0236	4.7
113.0237	2.8
115.0029	4.6
115.0392	3.6
116.0348	3.0
117.0184	2.7
125.0237	9.5
131.0343	2.8
132.0295	46.4
135.0448	5.3
143.0344	2.2
143.0494	9.3
145.0132	2.3
146.0365	6.0
159.0445	4.9
160.0396	7.4
161.0486	2.6
161.0602	100.0
161.0915	6.2
162.0659	9.1
163.0391	3.9
163.0758	3.7
186.0768	2.2
187.0243	3.1
203.0554	3.8
203.0717	2.9
203.0923	3.5
204.0874	13.0
205.0340	5.4
205.0506	12.0
205.0715	16.2
205.0885	2.1
205.1594	8.0
206.0442	2.6
206.0812	2.1
207.0664	2.7

Name: 3''-p-Coumaroylprunin
PrecursorMZ: 579.15118
RT: 8.3164
ExactMass: 580.15807632
Spectrum_type: 2
charge: -1
Formula: C30H28O12
SMILES: C1C(OC2=CC(=CC(=C2C1=O)O)O[C@H]3[C@@H]([C@H]([C@@H]([C@H](O3)CO)O)OC(=O)/C=C/C4=CC=C(C=C4)O)O)C5=CC=C(C=C5)O
Method: HCD
Collision_energy: [28.333334]
Isolation_window: 4.0
Ion_mode: N
Num Peaks: 15
78.9581	13.3
109.0286	6.2
135.0446	6.3
307.0985	11.8
351.0869	12.2
367.1189	47.5
368.1227	10.5
411.1092	41.1
412.1132	12.4
475.1399	5.6
491.1724	32.9
492.1739	8.7
535.1610	100.0
536.1650	27.3
579.1559	13.6

Name: 3',5'-Dihydroxyacetophenone
PrecursorMZ: 151.03926
RT: 6.7579
ExactMass: 152.047344113
Spectrum_type: 2
charge: -1
Formula: C8H8O3
SMILES: CC(=O)C1=CC(=CC(=C1)O)O
Method: HCD
Collision_energy: [28.333334]
Isolation_window: 4.0
Ion_mode: N
Num Peaks: 9
81.0336	12.8
107.0494	5.2
108.0195	24.0
109.0288	7.2
118.8989	7.2
123.0443	19.9
151.0256	94.4
151.0393	100.0
152.0339	18.5

Name: 3',5-Dihydroxy-3,4',5',7-tetramethoxyflavone
PrecursorMZ: 373.09305
RT: 8.3122
ExactMass: 374.10016753
Spectrum_type: 2
charge: -1
Formula: C19H18O8
SMILES: COC1=CC(=C2C(=C1)OC(=C(C2=O)OC)C3=CC(=C(C(=C3)OC)OC)O)O
Method: HCD
Collision_energy: [28.333334]
Isolation_window: 4.0
Ion_mode: N
Num Peaks: 48
59.0130	10.8
71.0131	4.4
78.9581	3.9
83.0493	4.5
109.0286	29.5
115.0025	3.3
128.0345	10.0
135.0444	15.4
145.0494	4.3
159.0442	5.2
161.0601	8.9
175.0759	4.1
181.0500	3.9
193.0498	3.9
195.0654	4.0
209.1173	3.8
219.0654	4.4
227.1280	3.6
251.0705	3.3
254.0583	11.6
255.0658	19.1
269.0819	58.1
270.0879	17.6
285.1125	20.2
286.1144	4.2
293.1757	3.5
311.0915	4.8
311.1860	5.4
313.0717	5.3
315.0848	3.3
329.1031	29.5
329.1974	8.9
330.1040	5.6
337.1681	4.0
355.1769	14.6
355.2653	10.7
371.1745	7.1
371.2568	4.3
372.1072	12.7
373.0920	83.0
373.1877	100.0
373.2741	41.3
374.0908	18.3
374.1914	19.0
374.2773	10.9
375.1103	12.2
375.2080	14.7
375.2908	93.3

Name: 3'-Hydroxy-5,6,7,4'-tetramethoxyflavone
PrecursorMZ: 357.09821
RT: 4.2676
ExactMass: 358.10525291
Spectrum_type: 2
charge: -1
Formula: C19H18O7
SMILES: COC1=C(C=C(C=C1)C2=CC(=O)C3=C(C(=C(C=C3O2)OC)OC)OC)O
Method: HCD
Collision_energy: [28.333334]
Isolation_window: 4.0
Ion_mode: N
Num Peaks: 12
87.0078	10.8
253.0866	17.5
254.0949	77.6
255.0966	14.9
269.1185	98.1
270.1213	17.8
313.1082	100.0
314.1124	17.4
355.2504	12.5
357.0969	44.7
358.0958	12.3
359.2814	10.3

Name: 3,15-Dihydroxyhexadecanoic acid
PrecursorMZ: 287.22276
RT: 3.0592
ExactMass: 288.2300595
Spectrum_type: 2
charge: -1
Formula: C16H32O4
SMILES: CC(CCCCCCCCCCCC(CC(=O)O)O)O
Method: HCD
Collision_energy: [28.333334]
Isolation_window: 4.0
Ion_mode: N
Num Peaks: 4
269.2129	2.1
287.2228	100.0
288.2262	17.6
289.2278	1.4

Name: 3,3'-Dityrosine
PrecursorMZ: 359.12514
RT: 4.8514
ExactMass: 360.13213636
Spectrum_type: 2
charge: -1
Formula: C18H20N2O6
SMILES: C1=CC(=C(C=C1C[C@@H](C(=O)O)N)C2=C(C=CC(=C2)C[C@@H](C(=O)O)N)O)O
Method: HCD
Collision_energy: [28.333334]
Isolation_window: 4.0
Ion_mode: N
Num Peaks: 47
59.0130	8.3
71.0129	7.1
72.9922	7.7
73.0286	4.1
74.0238	7.5
85.0285	5.2
87.0079	8.4
97.0286	3.9
98.0241	4.5
111.0443	3.7
113.0235	3.8
114.0551	7.8
116.0708	5.8
123.0554	4.0
128.0346	14.3
130.0866	26.4
140.0711	4.5
164.0708	4.6
182.0819	3.9
199.1809	4.3
209.0928	4.2
210.1123	5.4
213.0880	6.3
246.0771	12.6
255.0902	85.9
256.0937	12.5
257.1059	35.1
258.1094	5.2
270.1137	92.4
271.1164	12.8
272.1292	47.1
273.1350	5.0
297.2419	4.8
302.1036	6.9
314.1046	4.5
315.1364	5.1
316.1233	3.6
357.1675	10.3
357.2165	17.5
358.0996	4.4
358.1685	5.8
358.2192	5.2
359.1257	100.0
359.2084	8.6
360.1235	22.6
361.0982	7.1
361.1389	3.7

Name: 3,3-Dimethyl-N-(4-)5-methyl-4-)(1H-pyrazol-1-YL)methyl(-1,3-oxazol-2-YLphenyl)butanamide
PrecursorMZ: 351.1826
RT: 0.581
ExactMass: 352.18992602
Spectrum_type: 2
charge: -1
Formula: C20H24N4O2
SMILES: CC1=C(N=C(O1)C2=CC=C(C=C2)NC(=O)CC(C)(C)C)CN3C=CC=N3
Method: HCD
Collision_energy: [28.333334]
Isolation_window: 4.0
Ion_mode: N
Num Peaks: 25
61.9874	0.6
71.0129	0.4
85.0285	0.7
87.0440	0.3
95.0492	3.5
113.0598	0.8
193.1225	0.7
207.1387	0.5
261.1854	0.8
271.1703	0.8
277.1814	0.3
279.1950	0.3
289.1806	1.1
313.1078	0.8
314.1109	0.5
349.2020	2.8
350.1227	0.7
350.2050	1.1
351.0920	0.7
351.1096	0.7
351.1809	100.0
351.2163	7.0
352.1843	19.6
352.2212	1.6
353.1956	10.4

Name: 3,4,5-Trihydroxy-1-cyclohexene-1-carboxylic acid
PrecursorMZ: 173.04468
RT: 6.3549
ExactMass: 174.05282342
Spectrum_type: 2
charge: -1
Formula: C7H10O5
SMILES: C1C(C(C(C=C1C(=O)O)O)O)O
Method: HCD
Collision_energy: [28.333334]
Isolation_window: 4.0
Ion_mode: N
Num Peaks: 11
73.0285	13.5
83.0493	13.2
93.0336	10.0
111.0442	78.0
127.0390	9.5
154.9465	28.9
155.0341	100.0
156.0376	6.7
171.1019	14.8
171.1383	14.9
173.0448	58.6

Name: 3,4,5-Trihydroxy-2-(3-methylbutanoyl)-4-(3-methylbut-2-en-1-yl)-5-(4-methylpent-3-enoyl)cyclopent-2-en-1-one
PrecursorMZ: 377.19701
RT: 1.0406
ExactMass: 378.20423867
Spectrum_type: 2
charge: -1
Formula: C21H30O6
SMILES: CC(C)CC(=O)C1=C(C(C(C1=O)(C(=O)CC=C(C)C)O)(CC=C(C)C)O)O
Method: HCD
Collision_energy: [28.333334]
Isolation_window: 4.0
Ion_mode: N
Num Peaks: 142
59.0130	1.8
69.0679	0.7
69.1909	1.0
71.0130	0.9
72.9922	1.1
73.0287	1.2
75.0079	4.9
79.9565	27.7
80.9643	4.7
81.9522	0.9
83.0494	0.7
85.0284	0.9
85.0649	0.8
87.0078	0.8
95.0490	0.7
96.9592	3.6
97.0287	0.6
99.0442	1.6
99.0806	4.1
101.0599	1.6
109.0286	1.0
111.0442	2.5
113.0347	0.7
113.0601	1.4
114.0553	2.5
116.0707	0.8
123.0444	0.7
125.0600	7.1
127.0506	0.7
127.0756	2.8
128.0347	1.0
130.0865	0.7
135.0448	0.7
137.0600	0.7
139.0757	9.2
141.0550	5.5
147.0814	0.7
149.0602	1.1
153.0549	0.9
155.0708	1.2
163.0759	0.7
164.0703	0.8
165.0551	2.1
167.0706	1.8
169.0498	1.2
171.1022	1.5
179.0708	2.3
181.0501	2.6
181.1228	1.1
195.0658	7.0
196.0693	0.8
200.0322	2.2
201.1124	1.6
205.0870	1.2
207.0658	0.8
207.1020	3.3
207.1384	2.2
209.1177	2.0
211.0606	1.7
220.0733	1.0
221.0817	1.9
223.0613	0.8
223.0971	1.3
223.1336	12.5
224.1369	1.7
233.1180	1.8
233.1541	1.1
234.1265	0.7
235.1337	1.0
237.1130	26.9
238.1163	3.5
239.0559	2.5
245.1181	1.0
247.1340	0.8
248.1052	1.7
249.1132	5.1
250.0480	0.8
250.0856	0.9
251.0926	0.8
251.1287	2.7
253.1448	1.1
261.1129	0.9
262.1219	0.8
263.1289	48.3
264.1006	1.3
264.1324	7.0
265.1093	1.0
265.1419	0.9
265.1446	7.7
266.1524	0.7
267.1237	0.7
275.1292	1.2
277.1441	0.8
279.1238	2.7
281.1393	4.9
283.1549	6.8
291.1234	1.1
293.2110	0.9
298.1451	0.9
303.1610	0.7
306.1107	0.7
308.0909	5.8
308.1269	0.9
309.0943	1.0
310.1060	1.2
310.1423	1.9
315.1628	0.8
317.1397	0.9
319.1201	0.7
319.1916	8.9
320.1944	1.6
331.1907	1.1
332.1669	1.3
333.1711	1.1
333.2079	0.9
335.1874	1.4
347.1495	0.9
347.1864	0.8
359.1872	1.6
361.2030	2.3
375.1435	4.9
375.1829	21.3
375.1884	6.8
375.2417	1.0
376.1085	0.8
376.1466	4.2
376.1857	10.0
377.0880	1.3
377.0939	0.9
377.1161	2.1
377.1596	9.5
377.1983	100.0
378.1059	0.7
378.1217	1.5
378.1628	2.8
378.1670	0.8
378.2014	22.5
379.0968	1.0
379.1010	0.9
379.1394	0.9
379.1762	23.3
379.2139	20.0

Name: 3,4,5-Trimethoxybenzoic Acid
PrecursorMZ: 211.06061
RT: 2.6515
ExactMass: 212.06847348
Spectrum_type: 2
charge: -1
Formula: C10H12O5
SMILES: COC1=CC(=CC(=C1OC)OC)C(=O)O
Method: HCD
Collision_energy: [28.333334]
Isolation_window: 4.0
Ion_mode: N
Num Peaks: 10
80.9644	16.7
97.0397	14.0
139.0393	100.0
140.0713	10.3
167.0703	11.2
168.0648	9.8
211.0286	19.6
211.0610	36.6
211.0832	69.0
213.0769	15.1

Name: 3,4,5-trimethoxy-N-(2-(5-methoxy-2-methyl-1H-indol-3-yl)ethyl)benzamide
PrecursorMZ: 397.17693
RT: 6.5214
ExactMass: 398.18417193
Spectrum_type: 2
charge: -1
Formula: C22H26N2O5
SMILES: CC1=C(C2=C(N1)C=CC(=C2)OC)CCNC(=O)C3=CC(=C(C(=C3)OC)OC)OC
Method: HCD
Collision_energy: [28.333334]
Isolation_window: 4.0
Ion_mode: N
Num Peaks: 9
129.1025	19.8
223.0763	21.4
225.0920	12.1
249.1599	6.4
265.0874	7.4
353.1871	100.0
354.1904	23.8
355.2027	48.1
399.1932	14.7

Name: 3,4-Dehydro-6-hydroxymellein
PrecursorMZ: 191.03448
RT: 4.5461
ExactMass: 192.04225873
Spectrum_type: 2
charge: -1
Formula: C10H8O4
SMILES: CC1=CC2=CC(=CC(=C2C(=O)O1)O)O
Method: HCD
Collision_energy: [28.333334]
Isolation_window: 4.0
Ion_mode: N
Num Peaks: 87
59.0130	3.6
66.0341	2.3
67.0180	3.5
69.0337	1.9
70.0289	2.5
71.0129	1.6
75.0079	2.4
79.0181	2.3
80.0497	1.9
80.9643	2.7
84.0445	2.7
85.0285	1.6
91.0544	4.1
93.0336	2.0
95.0492	1.7
96.0445	2.6
101.0236	1.5
103.0543	2.3
107.0494	3.7
108.0446	3.1
112.0396	4.5
113.0600	3.2
114.0010	1.5
118.0653	1.9
119.0494	10.0
120.0448	5.7
121.0285	2.3
121.0651	4.7
122.0241	3.6
122.0604	3.9
123.0444	1.9
124.0397	1.9
133.0652	1.5
134.0604	3.0
135.0446	3.6
136.0394	1.8
137.0237	1.5
137.0603	1.9
144.0448	4.1
145.0649	2.2
146.0604	10.5
147.0354	2.7
147.0445	100.0
147.0545	3.2
147.0808	7.6
148.0391	32.7
148.0483	7.0
148.0760	25.0
149.0603	22.6
149.0710	2.4
149.0965	3.9
150.0548	3.0
161.0242	1.6
161.0601	3.4
162.0547	4.6
163.0390	1.9
163.0755	5.0
164.0706	5.1
165.0548	3.7
165.0669	2.3
165.1029	1.4
172.0396	1.9
173.0601	3.1
174.0317	2.1
175.0390	2.1
175.0763	1.6
176.0469	2.3
189.0550	21.5
189.0922	2.9
190.0144	2.2
190.0498	32.4
190.0861	8.6
191.0346	15.5
191.0542	5.1
191.0699	47.9
191.1075	2.5
191.1198	1.7
192.0115	1.6
192.0303	5.2
192.0657	58.7
192.1003	3.9
193.0499	20.6
193.0678	1.7
193.0700	3.9
193.0850	4.6
193.1010	8.7
193.1350	2.8

Name: 3,4-Diethoxy-N-(7-hydroxy-5-methyl-(1,2,4)triazolo(1,5-A)pyrimidin-6-YL)benzamide
PrecursorMZ: 356.13535
RT: 6.8446
ExactMass: 357.1437041
Spectrum_type: 2
charge: -1
Formula: C17H19N5O4
SMILES: CCOC1=C(C=C(C=C1)C(=O)NC2=C(N=C3N=CNN3C2=O)C)OCC
Method: HCD
Collision_energy: [28.333334]
Isolation_window: 4.0
Ion_mode: N
Num Peaks: 28
59.0130	14.3
60.9923	8.7
72.9922	7.1
74.0238	7.5
87.0079	6.6
88.0397	8.4
101.0235	43.4
114.0552	15.5
116.0709	8.1
128.0345	20.5
130.0865	23.0
135.0444	7.7
145.0136	100.0
161.0239	6.3
210.0769	6.8
241.1203	8.9
295.1305	7.3
354.2007	45.2
355.0837	17.5
355.1175	7.5
355.1521	11.5
355.2072	24.7
355.3229	6.2
356.0847	6.6
356.1430	20.7
357.0996	13.3
357.1322	7.6
357.1614	8.4

Name: 3,4-Dihydro-6,8-dihydroxy-3-(10-hydroxyundecyl)isocoumarin
PrecursorMZ: 349.20178
RT: 2.1212
ExactMass: 350.20932405
Spectrum_type: 2
charge: -1
Formula: C20H30O5
SMILES: CC(CCCCCCCCCC1CC2=C(C(=CC(=C2)O)O)C(=O)O1)O
Method: HCD
Collision_energy: [28.333334]
Isolation_window: 4.0
Ion_mode: N
Num Peaks: 16
61.9874	0.7
135.0441	3.0
303.1963	1.0
305.0851	0.7
319.1909	3.5
320.1936	0.8
331.1907	0.4
347.1835	0.4
348.1055	1.3
349.1149	1.3
349.1260	1.2
349.2016	100.0
349.2903	0.7
350.1298	0.6
350.2050	20.3
351.2103	1.5

Name: 3,4-Dihydroxybenzaldehyde
PrecursorMZ: 137.02367
RT: 6.5253
ExactMass: 138.031694049
Spectrum_type: 2
charge: -1
Formula: C7H6O3
SMILES: C1=CC(=C(C=C1C=O)O)O
Method: HCD
Collision_energy: [28.333334]
Isolation_window: 4.0
Ion_mode: N
Num Peaks: 45
65.0388	1.1
77.9646	2.0
79.9565	7.2
80.9643	1.2
92.0247	0.6
92.0497	11.0
93.0215	0.7
93.0239	0.6
93.0337	100.0
93.0434	0.5
93.0459	0.6
93.0530	0.8
94.0290	2.1
94.0370	7.5
95.0129	1.4
95.0493	1.1
95.9752	1.4
96.0446	1.0
107.0494	0.6
108.0209	0.7
108.0448	0.8
109.0286	3.2
109.9413	0.5
120.0445	0.5
121.0525	1.3
122.0367	0.9
123.0318	23.6
124.0158	1.2
134.0365	0.7
135.0442	6.4
136.0166	0.6
136.0395	6.2
136.0484	0.9
136.0760	2.3
136.8909	1.5
137.0237	17.5
137.0340	1.0
137.0599	1.2
137.0712	1.3
137.9859	2.1
138.0184	0.6
138.0276	1.4
138.0553	29.6
138.0912	0.6
139.0396	1.3

Name: 3,4-dihydroxy-5-)(2S,3R,4S,5S,6R)-3,4,5-trihydroxy-6-))4-(2-hydroxypropan-2-yl)cyclohexene-1-carbonyl(oxymethyl(oxan-2-yl(oxybenzoic acid
PrecursorMZ: 497.16706
RT: 1.4455
ExactMass: 498.17372639
Spectrum_type: 2
charge: -1
Formula: C23H30O12
SMILES: CC(C)(C1CCC(=CC1)C(=O)OC[C@@H]2[C@H]([C@@H]([C@H]([C@@H](O2)OC3=CC(=CC(=C3O)O)C(=O)O)O)O)O)O
Method: HCD
Collision_energy: [28.333334]
Isolation_window: 4.0
Ion_mode: N
Num Peaks: 20
55.2393	2.0
55.2423	4.4
55.3538	1.1
61.9874	2.1
79.9562	3.5
93.0336	2.7
108.0206	2.4
171.9827	67.7
172.9905	16.5
173.9771	1.1
220.0722	0.9
417.2106	18.8
418.2135	4.7
419.2117	1.1
495.3431	1.2
497.1671	100.0
497.3292	1.0
497.3521	1.1
498.1704	26.9
499.1662	8.5

Name: 3,4-dimethoxy-N-(3-(pyridin-4-ylcarbonyl)phenyl)benzamide
PrecursorMZ: 397.09637
RT: 4.761
ExactMass: 362.12665706
Spectrum_type: 2
charge: -1
Formula: C21H18N2O4
SMILES: COC1=C(C=C(C=C1)C(=O)NC2=CC=CC(=C2)C(=O)C3=CC=NC=C3)OC
Method: HCD
Collision_energy: [28.333334]
Isolation_window: 4.0
Ion_mode: N
Num Peaks: 11
79.9565	3.8
96.9592	5.0
287.1289	53.2
288.1323	7.7
317.1395	25.7
318.1421	4.3
397.0963	100.0
397.1701	9.8
398.0991	19.6
399.0966	3.9
399.1891	4.3

Name: 3,5,6-Trihydroxy-2-(2-methylbutanoyl)-4,6-bis(3-methylbut-2-en-1-yl)cyclohexa-2,4-dien-1-one
PrecursorMZ: 361.20231
RT: 1.016
ExactMass: 362.20932405
Spectrum_type: 2
charge: -1
Formula: C21H30O5
SMILES: CCC(C)C(=O)C1=C(C(=C(C(C1=O)(CC=C(C)C)O)O)CC=C(C)C)O
Method: HCD
Collision_energy: [28.333334]
Isolation_window: 4.0
Ion_mode: N
Num Peaks: 33
97.4081	2.1
111.0442	6.3
125.0600	8.7
165.0555	2.0
169.0500	3.3
179.0709	3.4
181.0498	1.8
195.0653	1.9
197.0815	2.7
205.1227	1.9
259.1336	2.6
275.1283	3.4
293.1392	2.4
299.2016	2.6
305.1028	4.5
305.1389	16.4
306.1430	2.7
343.1918	9.3
359.1863	3.1
360.1110	2.8
360.1507	2.5
360.1898	24.9
361.0929	2.2
361.1282	3.8
361.1643	38.6
361.2019	100.0
362.1676	8.8
362.2054	21.9
363.1069	1.7
363.1443	3.5
363.1809	38.9
363.2126	2.3
363.3269	10.7

Name: 3,5-Dihydroxy-2-(4-hydroxyphenyl)-6-(3-methylbut-2-enyl)-7-(3,4,5-trihydroxy-6-(hydroxymethyl)oxan-2-yl)oxy-2,3-dihydrochromen-4-one
PrecursorMZ: 517.17173
RT: 4.6957
ExactMass: 518.17881177
Spectrum_type: 2
charge: -1
Formula: C26H30O11
SMILES: CC(=CCC1=C(C=C2C(=C1O)C(=O)C(C(O2)C3=CC=C(C=C3)O)O)OC4C(C(C(C(O4)CO)O)O)O)C
Method: HCD
Collision_energy: [28.333334]
Isolation_window: 4.0
Ion_mode: N
Num Peaks: 94
59.0130	2.7
61.9876	2.1
71.0130	2.6
72.9923	2.5
73.0286	1.7
74.0060	1.7
74.0239	8.0
75.0080	1.5
78.9584	1.4
83.0495	1.8
85.0286	2.2
87.0079	4.0
88.0395	1.9
89.0235	1.7
93.0338	9.5
98.0240	2.1
99.0443	1.6
109.0286	2.2
111.0079	1.6
111.0444	4.3
113.0236	2.3
114.0553	6.0
115.0507	2.0
116.0711	1.5
121.0288	1.5
123.0443	1.9
124.0400	1.3
127.0397	1.3
127.0507	2.7
128.0346	3.5
129.0188	2.2
130.0867	4.2
134.0367	1.8
135.0445	2.3
137.0240	2.2
137.0600	1.4
147.0443	1.5
149.0603	4.2
151.0396	1.6
155.0345	6.7
161.0605	1.6
164.0476	2.6
164.0709	2.0
173.0451	61.9
174.0477	3.6
191.0557	19.4
201.1268	1.4
219.0658	3.9
248.0804	1.2
267.1029	1.5
269.0821	31.2
270.0857	5.8
279.2334	3.4
282.0897	4.8
283.0974	5.1
284.1056	47.2
285.1091	7.9
297.1124	1.8
298.0835	1.3
299.1292	21.2
300.1302	4.3
313.2207	8.9
314.2243	1.7
316.0954	9.7
317.0992	2.0
331.2305	2.2
343.1191	100.0
344.1221	19.5
345.1311	2.9
393.2914	2.6
455.3172	1.8
497.3687	1.4
499.3074	1.7
515.2937	2.5
515.3010	4.0
515.3619	2.2
515.3703	6.5
516.1721	1.9
516.1863	2.0
516.3081	4.6
516.3291	6.9
516.3743	1.9
517.1719	25.9
517.2579	3.1
517.3165	17.8
517.3245	28.7
517.3872	4.4
518.1731	10.2
518.2622	1.9
518.3263	5.7
518.3406	13.5
518.3511	22.7
519.1769	4.4
519.3404	18.1

Name: 3,5-Dihydroxydecanoic acid
PrecursorMZ: 203.12848
RT: 0.878
ExactMass: 204.13615911
Spectrum_type: 2
charge: -1
Formula: C10H20O4
SMILES: CCCCCC(CC(CC(=O)O)O)O
Method: HCD
Collision_energy: [28.333334]
Isolation_window: 4.0
Ion_mode: N
Num Peaks: 94
57.0336	1.0
59.0130	8.6
69.0338	0.7
71.0130	1.3
71.0493	1.2
72.9922	3.1
73.0286	3.4
75.0079	3.7
79.9565	1.2
80.9644	0.9
85.0286	2.0
85.0649	1.2
87.0079	2.3
87.0442	4.7
88.0395	1.9
94.0289	2.5
96.9592	0.9
97.0286	1.2
97.0651	0.9
99.0444	0.8
99.0807	1.8
101.0235	2.5
101.0599	1.6
111.0443	1.2
112.0474	0.8
113.0965	1.6
115.0391	0.8
115.0756	3.8
116.0497	1.2
116.0706	0.6
119.0496	0.6
123.0443	1.9
126.0916	0.7
127.1120	1.3
129.0546	0.8
129.0911	0.9
130.0865	0.7
132.0447	0.9
133.0654	1.0
139.0759	0.6
139.1120	1.0
141.0911	1.1
142.0865	3.4
155.1071	1.7
156.1023	0.7
157.0877	1.0
157.1227	22.3
158.0351	0.7
158.0618	2.2
158.1272	1.9
159.0443	1.7
159.0556	1.0
159.0659	0.7
159.0809	0.8
160.0394	3.6
160.0759	2.2
161.0237	0.7
161.0451	0.8
161.0599	5.3
161.0967	0.7
162.0555	1.1
167.1070	0.6
170.0818	0.7
174.0555	1.0
176.0346	0.6
183.1020	1.8
185.0447	0.6
185.1178	12.5
186.1213	1.7
201.0785	1.9
201.0962	0.7
201.1127	9.5
201.1485	0.8
202.0174	3.8
202.0500	2.5
202.0810	2.0
202.1090	6.7
203.0016	0.9
203.0543	4.6
203.0719	3.5
203.0913	5.1
203.1284	100.0
203.1674	0.6
204.0269	1.2
204.0450	0.9
204.0657	6.8
204.1040	0.9
204.1316	10.7
205.0152	2.0
205.0501	3.6
205.0698	2.7
205.0874	2.3
205.1075	3.5
205.1334	0.8

Name: 3,7,12-Tris(acetyloxy)cholan-24-oic acid
PrecursorMZ: 533.31239
RT: 6.353
ExactMass: 534.31926842
Spectrum_type: 2
charge: -1
Formula: C30H46O8
SMILES: CC(CCC(=O)O)C1CCC2C1(C(CC3C2C(CC4C3(CCC(C4)OC(=O)C)C)OC(=O)C)OC(=O)C)C
Method: HCD
Collision_energy: [28.333334]
Isolation_window: 4.0
Ion_mode: N
Num Peaks: 6
59.2586	4.8
381.2444	16.5
399.2533	12.0
453.3020	8.0
533.3126	100.0
534.3159	31.8

Name: 3,7,8-Trihydroxy-3-methyl-1,4-dihydropyrano)4,3-b(chromen-10-one
PrecursorMZ: 263.05573
RT: 2.1878
ExactMass: 264.0633881
Spectrum_type: 2
charge: -1
Formula: C13H12O6
SMILES: C[C@]1(CC2=C(CO1)C(=O)C3=CC(=C(C=C3O2)O)O)O
Method: HCD
Collision_energy: [28.333334]
Isolation_window: 4.0
Ion_mode: N
Num Peaks: 51
59.0129	8.1
71.0128	2.7
72.9921	2.0
73.0285	2.8
80.9641	4.2
85.0285	1.9
87.0077	5.1
97.0284	1.6
101.0233	6.3
109.0285	5.7
118.9800	2.4
125.0236	2.1
128.0344	4.7
129.0183	2.1
135.0443	4.7
139.0391	3.4
147.0442	1.8
148.0157	1.7
149.0240	2.0
149.0596	1.9
159.0441	6.5
163.0391	2.1
175.0390	6.1
175.0756	12.9
177.0912	5.3
181.0496	2.3
191.0707	4.4
201.0550	13.5
217.0848	3.0
218.0817	5.6
219.0656	100.0
219.1014	2.5
220.0695	12.5
221.0813	11.9
222.0680	3.1
223.0758	1.8
230.0451	3.4
243.0503	1.7
261.0582	12.4
261.1365	2.3
262.0376	1.6
262.0708	7.7
263.0568	5.6
263.0749	1.6
263.0941	3.4
264.0300	1.9
264.0558	2.2
264.0888	3.5
265.0687	3.9
265.0867	11.8
265.1462	3.7

Name: 3,7-Dihydroxy-3',4'-dimethoxyflavone
PrecursorMZ: 313.07194
RT: 1.838
ExactMass: 314.07903816
Spectrum_type: 2
charge: -1
Formula: C17H14O6
SMILES: COC1=C(C=C(C=C1)C2=C(C(=O)C3=C(O2)C=C(C=C3)O)O)OC
Method: HCD
Collision_energy: [28.333334]
Isolation_window: 4.0
Ion_mode: N
Num Peaks: 54
59.0129	0.5
61.9875	0.7
109.0286	3.1
124.0156	0.3
125.0236	0.8
133.0288	2.0
135.0443	0.6
137.0236	0.4
137.0601	0.3
149.0601	0.3
161.0601	1.9
181.0499	1.1
205.0496	0.3
223.0761	0.4
227.0347	2.3
227.0695	0.4
238.0629	0.5
239.0712	0.6
240.0426	4.0
241.0497	2.0
241.0864	0.6
242.0573	0.3
243.0666	0.5
251.0716	0.8
252.0431	1.4
252.0784	0.5
253.0501	1.4
253.0868	2.0
254.0582	1.5
255.0661	7.9
256.0740	15.7
267.0659	0.5
267.1979	0.3
268.0727	0.3
269.0819	8.1
269.2484	0.4
270.0860	1.4
271.0976	2.1
282.0532	0.5
288.0657	0.3
297.0766	0.6
298.0485	0.6
299.0564	1.2
300.0640	22.8
313.0717	7.9
313.1650	0.8
314.0751	1.5
314.1050	0.4
315.0577	2.7
315.0874	100.0
315.1478	0.6
315.1667	0.7
315.1841	0.7
332.0538	2.3

Name: 3,7-Epoxycaryophyllan-6-one
PrecursorMZ: 235.16974
RT: 1.427
ExactMass: 236.177630004
Spectrum_type: 2
charge: -1
Formula: C15H24O2
SMILES: CC1(CC2C1CCC3(C(=O)CCC2(O3)C)C)C
Method: HCD
Collision_energy: [28.333334]
Isolation_window: 4.0
Ion_mode: N
Num Peaks: 41
69.2063	0.8
69.2973	1.0
79.9563	1.5
80.9641	1.2
96.9591	2.3
121.0285	1.8
136.0519	1.5
151.0504	0.8
151.0756	100.0
152.0790	9.3
176.9934	2.2
177.0911	1.3
178.0992	1.7
184.0009	16.5
184.5032	3.0
184.9991	1.4
190.0864	1.0
192.1148	2.5
200.4998	1.8
207.1387	0.7
207.1749	3.5
218.0945	1.1
233.1196	1.0
233.6211	2.2
234.0637	24.4
234.1079	2.6
234.1104	1.3
234.1859	2.4
234.5655	7.7
234.6109	0.8
235.0626	3.0
235.1182	4.1
235.1198	1.8
235.1698	22.8
235.5647	0.7
235.6184	0.9
236.0933	1.5
236.1051	11.0
236.1731	4.1
237.1090	1.3
237.1487	0.8

Name: 3,9,10-Trihydroxy-4-(methoxymethyl)-1,7-dimethyl-6-oxobenzo)b()1,4(benzodioxepine-2-carboxylic acid
PrecursorMZ: 375.07248
RT: 4.2821
ExactMass: 376.07943208
Spectrum_type: 2
charge: -1
Formula: C18H16O9
SMILES: CC1=CC(=C(C2=C1C(=O)OC3=C(O2)C(=C(C(=C3COC)O)C(=O)O)C)O)O
Method: HCD
Collision_energy: [28.333334]
Isolation_window: 4.0
Ion_mode: N
Num Peaks: 22
59.0129	3.8
67.0180	11.1
93.0336	22.8
93.0702	4.8
106.0414	10.2
119.0494	16.6
128.0345	5.2
137.0601	14.8
175.0758	19.6
199.1123	91.7
200.1154	12.5
225.0916	19.2
237.0404	5.4
243.1024	100.0
244.1060	15.9
287.0924	63.1
288.0960	12.0
330.0987	5.0
331.0808	6.4
341.1080	4.6
373.1888	4.6
377.0831	15.7

Name: 3-((4-Hydroxyphenyl)methyl)-2,3,6,7,8,8a-hexahydropyrrolo(1,2-a)pyrazine-1,4-dione
PrecursorMZ: 259.10869
RT: 3.332057142857143
ExactMass: 260.11609238
Spectrum_type: 2
charge: -1
Formula: C14H16N2O3
SMILES: C1CC2C(=O)NC(C(=O)N2C1)CC3=CC=C(C=C3)O
Method: HCD
Collision_energy: [28.333334]
Isolation_window: 4.0
Ion_mode: N
Num Peaks: 30
59.0130	5.2
72.0083	5.7
72.9923	5.5
81.9925	6.3
85.0285	3.0
87.0079	10.1
99.0191	3.3
111.0556	7.1
112.0396	4.0
113.0234	3.1
114.0552	9.1
124.0396	5.2
125.0348	19.0
127.0505	5.4
142.0504	4.5
151.0507	10.8
153.0663	61.7
154.0707	3.7
167.0456	5.3
197.0565	4.2
258.0958	5.9
258.0989	9.5
258.1430	3.0
259.0820	15.2
259.1087	100.0
259.1911	12.0
260.0776	15.2
260.1117	14.1
260.1499	3.8
261.0963	5.1

Name: 3-((Diethylamino)carbonyl)benzoic acid
PrecursorMZ: 220.09755
RT: 6.7086
ExactMass: 221.10519334
Spectrum_type: 2
charge: -1
Formula: C12H15NO3
SMILES: CCN(CC)C(=O)C1=CC(=CC=C1)C(=O)O
Method: HCD
Collision_energy: [28.333334]
Isolation_window: 4.0
Ion_mode: N
Num Peaks: 6
146.0968	28.9
150.0913	15.3
176.1075	48.3
219.1751	100.0
220.0978	38.3
220.1790	16.4

Name: 3-((Dimethylamino)methyl)-4-(3-methyl-4-(methylthio)phenoxy)benzenesulfonamide
PrecursorMZ: 365.09932
RT: 4.5403
ExactMass: 366.10718492
Spectrum_type: 2
charge: -1
Formula: C17H22N2O3S2
SMILES: CC1=C(C=CC(=C1)OC2=C(C=C(C=C2)S(=O)(=O)N)CN(C)C)SC
Method: HCD
Collision_energy: [28.333334]
Isolation_window: 4.0
Ion_mode: N
Num Peaks: 28
66.0340	3.5
71.0129	2.4
87.0078	2.3
116.0710	3.9
128.0345	15.0
130.0502	2.3
148.0760	2.8
160.0608	11.8
173.0711	3.7
178.0715	32.3
188.0909	2.0
191.0544	24.7
191.0809	73.0
192.0589	2.2
192.0852	7.4
217.0621	4.5
235.0725	12.1
259.1089	10.8
278.1252	2.3
303.0985	17.9
304.1012	2.4
321.1087	27.6
322.1127	4.3
323.0973	8.1
347.0872	12.1
365.0988	100.0
366.1017	20.8
367.1113	3.8

Name: 3-((E)-3,4-dihydroxy-3,5-dimethylhept-1-enyl)-7,8-dihydroxy-7-methyl-8,8a-dihydro-1H-isochromen-6-one
PrecursorMZ: 351.18133
RT: 0.87075
ExactMass: 352.18858861
Spectrum_type: 2
charge: -1
Formula: C19H28O6
SMILES: CCC(C)C(C(C)(/C=C/C1=CC2=CC(=O)C(C(C2CO1)O)(C)O)O)O
Method: HCD
Collision_energy: [28.333334]
Isolation_window: 4.0
Ion_mode: N
Num Peaks: 168
59.0130	1.5
69.3156	1.3
71.0493	0.8
79.9564	20.7
80.9643	5.2
81.0336	0.7
83.0492	0.9
85.0284	1.0
85.0650	3.6
87.0078	1.7
87.0441	2.1
93.0336	0.8
95.0492	0.9
96.9592	13.9
97.0285	1.7
97.0647	1.0
99.0443	1.5
109.0287	1.6
109.0650	1.3
111.0078	1.0
111.0443	8.2
112.0477	0.8
113.0234	1.5
113.0600	3.0
121.0651	1.0
123.0445	2.3
125.0239	1.4
125.0598	2.5
127.0389	1.6
127.0754	1.3
135.0804	0.8
137.0233	1.0
137.0599	1.2
139.0392	1.9
139.0754	1.6
141.0548	3.4
149.0598	1.1
151.0028	1.0
151.0394	1.6
151.0754	1.0
152.0472	1.2
153.0554	2.1
163.0757	1.4
165.0549	3.5
166.0616	0.8
167.0344	2.1
167.0704	0.8
167.1070	0.8
169.0498	1.1
175.0755	0.7
177.0548	1.0
177.0914	1.0
179.0342	0.9
179.0709	2.4
179.1068	1.7
181.0500	20.3
181.0847	1.3
182.0535	2.9
185.0450	1.1
189.0558	0.8
191.0346	1.0
191.0739	8.3
192.0771	0.9
193.0501	8.5
193.0865	2.3
193.1229	1.0
194.0578	6.4
195.0656	2.2
195.1021	0.7
197.0445	2.0
198.0527	1.0
205.0504	1.3
205.0866	2.0
207.0658	1.6
209.0451	8.3
209.0807	0.7
209.1178	3.1
210.0516	2.4
210.1213	1.0
211.0604	0.8
211.1338	0.8
219.0662	0.9
219.1022	2.6
220.1095	1.2
221.0453	4.2
221.0818	1.3
221.1175	1.2
222.0493	1.1
223.0611	7.8
223.0633	1.4
223.0972	6.1
224.1018	1.7
225.1135	1.7
231.0658	0.8
233.0823	1.1
233.1176	1.4
235.0976	3.0
236.1022	0.9
237.0759	0.8
237.1130	6.5
238.1178	1.9
239.0562	1.1
239.1285	3.0
241.1072	1.1
245.0820	0.8
247.0975	0.9
249.0760	1.6
249.1131	7.2
250.1173	3.3
251.0937	1.2
251.1287	6.5
252.1340	1.3
253.1089	1.3
255.0879	1.4
255.1239	3.6
261.1126	1.7
262.1175	1.0
263.0928	2.7
263.1287	9.3
264.0996	3.2
264.1323	1.5
265.1053	1.1
265.1429	0.9
267.1239	7.0
268.1274	2.5
269.1393	2.8
271.0609	1.7
273.0777	1.1
275.0920	1.0
275.1288	0.8
279.1231	0.8
280.0953	24.0
281.0986	8.2
282.1109	100.0
283.1142	14.7
305.1753	1.8
306.1027	0.7
307.0825	0.9
307.1186	2.5
307.1903	1.7
331.1543	2.1
332.1595	0.9
333.1705	5.0
334.1731	0.9
349.0934	2.9
349.1306	3.5
349.1655	44.4
349.1976	2.4
349.2413	1.2
350.0953	8.3
350.1312	4.0
350.1690	25.3
350.2033	1.1
350.2391	1.3
351.0745	2.3
351.1082	22.0
351.1455	39.2
351.1816	90.1
351.3210	1.5
352.1111	5.0
352.1480	7.5
352.1851	17.4
353.0883	7.5
353.1253	3.2
353.1588	1.0
353.1996	60.7
353.3048	1.1
353.3415	1.4

Name: 3-(2,4-Dimethoxyphenyl)-7-hydroxychromen-4-one
PrecursorMZ: 297.07663
RT: 4.3477
ExactMass: 298.08412354
Spectrum_type: 2
charge: -1
Formula: C17H14O5
SMILES: COC1=CC(=C(C=C1)C2=COC3=C(C2=O)C=CC(=C3)O)OC
Method: HCD
Collision_energy: [28.333334]
Isolation_window: 4.0
Ion_mode: N
Num Peaks: 18
109.0285	21.4
145.0648	4.0
227.0344	3.8
237.0554	10.4
238.0630	7.8
239.0707	5.8
251.0710	35.0
252.0746	7.7
253.0867	100.0
254.0900	15.9
255.0663	15.2
255.1024	43.5
295.0883	4.1
297.0746	25.8
297.2428	8.4
298.0761	6.2
299.0564	9.9
299.0923	38.9

Name: 3-(2,5-Dihydroxy-6-methyl-3-propan-2-ylphenyl)-2-methyl-5-propan-2-ylbenzene-1,4-diol
PrecursorMZ: 375.18107
RT: 2.7424
ExactMass: 330.18310931
Spectrum_type: 2
charge: -1
Formula: C20H26O4
SMILES: CC1=C(C=C(C(=C1C2=C(C(=CC(=C2C)O)C(C)C)O)O)C(C)C)O
Method: HCD
Collision_energy: [28.333334]
Isolation_window: 4.0
Ion_mode: N
Num Peaks: 13
227.1071	14.0
228.1107	1.9
255.1210	3.1
256.1229	3.3
257.1210	0.8
301.1446	5.5
302.1480	1.5
374.1509	1.0
375.1896	0.8
375.2901	100.0
376.2936	25.6
377.2953	1.3
393.3022	0.9

Name: 3-(2-(2,3-dihydroxy-5,6,8a-trimethyloctahydro-2H-spiro(naphthalene-1,2'-oxiran)-5-yl)ethyl)-5-hydroxyfuran-2(5H)-one
PrecursorMZ: 365.19752
RT: 1.3728
ExactMass: 366.20423867
Spectrum_type: 2
charge: -1
Formula: C20H30O6
SMILES: CC1CCC2(C(C1(C)CCC3=CC(OC3=O)O)CC(C(C24CO4)O)O)C
Method: HCD
Collision_energy: [28.333334]
Isolation_window: 4.0
Ion_mode: N
Num Peaks: 34
59.0130	1.5
71.0130	0.8
73.0286	1.2
114.0553	1.4
128.0344	0.8
245.1674	1.0
275.2021	0.7
303.1964	1.8
305.2123	0.8
319.1915	2.4
320.1952	0.8
321.2075	7.2
322.2101	1.7
323.2225	2.2
335.1866	3.1
337.2019	1.1
347.1870	3.2
348.1891	0.7
349.2017	1.5
363.1768	0.9
363.1811	4.3
363.2197	2.3
364.1451	1.8
364.1490	1.4
364.1861	5.1
364.2213	1.2
365.1968	100.0
365.2348	7.4
366.1270	0.8
366.1660	0.9
366.2005	20.8
366.2380	1.4
367.1744	1.7
367.2128	14.9

Name: 3-(2-(2-Hydroxy-4-methoxyphenyl)-2-oxoethyl)-6,7-dimethoxy-1(3H)-isobenzofuranone
PrecursorMZ: 357.09807
RT: 6.235
ExactMass: 358.10525291
Spectrum_type: 2
charge: -1
Formula: C19H18O7
SMILES: COC1=CC(=C(C=C1)C(=O)CC2C3=C(C(=C(C=C3)OC)OC)C(=O)O2)O
Method: HCD
Collision_energy: [28.333334]
Isolation_window: 4.0
Ion_mode: N
Num Peaks: 18
59.0130	24.8
116.0708	7.7
128.0347	14.0
130.0866	18.5
253.0872	12.3
254.0946	31.5
255.1025	73.9
267.1034	16.5
269.1187	12.5
280.0733	7.0
295.0977	17.4
313.1074	25.6
315.1238	50.0
340.1878	13.0
357.0979	84.3
358.1013	21.2
358.1998	21.7
359.1138	100.0

Name: 3-(2-(4-Hydroxy-3-methoxyphenyl)-2-oxoethyl)-6,7-dimethoxy-1(3H)-isobenzofuranone
PrecursorMZ: 357.09818
RT: 6.2666
ExactMass: 358.10525291
Spectrum_type: 2
charge: -1
Formula: C19H18O7
SMILES: COC1=C(C2=C(C=C1)C(OC2=O)CC(=O)C3=CC(=C(C=C3)O)OC)OC
Method: HCD
Collision_energy: [28.333334]
Isolation_window: 4.0
Ion_mode: N
Num Peaks: 47
59.0130	22.7
116.0707	1.1
123.0444	2.2
128.0346	1.8
130.0865	2.7
145.0654	1.7
165.0547	1.2
195.0660	5.8
228.0799	1.6
237.0924	2.2
238.0631	1.1
239.1076	3.3
240.0798	1.6
240.1092	1.4
243.1011	2.8
244.0736	2.0
252.0794	1.6
253.0870	7.5
254.0948	17.0
255.1025	75.1
256.1105	1.6
267.1026	8.6
268.1060	1.5
269.1184	6.4
270.0895	2.9
270.1213	1.3
271.0975	2.3
271.1346	1.2
280.0741	3.1
281.0815	3.3
295.0976	8.1
296.1005	1.5
297.1133	2.4
313.1083	13.5
314.1116	2.7
315.1241	48.2
339.0869	2.1
340.1880	1.5
341.1031	4.2
355.2067	1.5
355.2111	1.1
356.0842	1.3
357.0981	42.5
357.2238	1.3
358.1018	9.0
358.1992	2.8
359.1141	100.0

Name: 3-(2-(6,7-dihydroxy-1,2,4a-trimethylspiro(3,4,6,7,8,8a-hexahydro-2H-naphthalene-5,2'-oxirane)-1-yl)ethyl)-2-hydroxy-2H-furan-5-one
PrecursorMZ: 365.19698
RT: 2.8912
ExactMass: 366.20423867
Spectrum_type: 2
charge: -1
Formula: C20H30O6
SMILES: CC1CCC2(C(C1(C)CCC3=CC(=O)OC3O)CC(C(C24CO4)O)O)C
Method: HCD
Collision_energy: [28.333334]
Isolation_window: 4.0
Ion_mode: N
Num Peaks: 26
58.0051	2.2
59.0129	1.1
73.0288	1.6
87.0443	1.6
96.9593	6.9
113.0600	1.8
245.1909	3.5
255.1758	1.1
257.1919	2.2
273.1860	5.2
275.2018	15.6
276.2050	3.4
285.1842	2.5
301.1810	2.0
303.1965	9.1
304.1990	1.6
321.2074	1.6
337.2030	2.1
364.2155	3.1
365.1975	100.0
365.3418	17.1
365.3795	1.5
366.2004	22.7
366.3447	5.1
367.2066	2.6
367.3580	17.3

Name: 3-(2-Hydroxyphenyl)propanoate
PrecursorMZ: 165.05486
RT: 8.4967
ExactMass: 165.055169145
Spectrum_type: 2
charge: -1
Formula: C9H9O3-
SMILES: C1=CC=C(C(=C1)CCC(=O)[O-])O
Method: HCD
Collision_energy: [28.333334]
Isolation_window: 4.0
Ion_mode: N
Num Peaks: 13
75.0078	2.1
93.0336	2.1
119.0492	1.9
121.0286	100.0
121.0644	3.2
122.0318	7.7
147.0445	3.2
148.9722	5.7
165.0187	11.9
165.0550	7.1
166.0530	5.3
166.9831	7.3
184.9935	1.8

Name: 3-(3-Hydroxy-4-methoxy-phenyl)prop-2-enoic acid
PrecursorMZ: 387.109
RT: 2.5528
ExactMass: 194.0579088
Spectrum_type: 2
charge: -1
Formula: C10H10O4
SMILES: COC1=C(C=C(C=C1)C=CC(=O)O)O
Method: HCD
Collision_energy: [28.333334]
Isolation_window: 4.0
Ion_mode: N
Num Peaks: 47
59.0106	1.3
59.0140	5.4
71.0141	0.8
87.0089	1.2
101.0246	0.7
114.0551	3.2
116.0709	0.8
121.0299	0.7
123.0443	1.5
128.0344	1.8
130.0863	1.1
135.0445	4.1
136.0524	3.1
137.0605	0.8
148.0160	2.8
149.0242	2.1
149.0601	0.9
150.0316	6.1
151.0398	1.2
151.0758	2.6
153.0550	3.5
163.0394	16.2
164.0438	1.5
165.0554	0.8
177.0187	1.6
181.0976	1.1
182.0452	2.8
190.0716	1.4
195.0658	100.0
195.1027	0.8
196.0693	10.0
225.0888	1.2
227.1041	1.1
269.0819	1.1
283.0972	2.5
284.1033	1.6
297.1092	1.3
300.1187	0.7
311.0923	5.1
312.0950	1.0
343.1189	12.4
344.1212	2.8
386.1051	1.4
386.1479	1.2
387.1036	14.5
388.1031	3.5
389.1130	1.3

Name: 3-(3-Hydroxy-4-methoxyphenyl)prop-2-enoic acid
PrecursorMZ: 387.10874
RT: 7.2076
ExactMass: 194.0579088
Spectrum_type: 2
charge: -1
Formula: C10H10O4
SMILES: COC1=C(C=C(C=C1)C=CC(=O)O)O
Method: HCD
Collision_energy: [28.333334]
Isolation_window: 4.0
Ion_mode: N
Num Peaks: 22
59.0129	7.8
135.0443	4.8
136.0524	5.5
148.0158	3.4
149.0239	2.9
150.0317	6.8
151.0761	2.7
153.0553	3.3
163.0395	14.9
195.0659	100.0
196.0695	11.0
281.1148	3.0
311.0927	4.9
343.1190	12.8
344.1224	2.9
370.1630	2.1
386.1603	2.3
387.1089	10.1
387.2499	3.6
388.1033	2.2
388.1699	2.1
389.2701	9.4

Name: 3-(3-sulfooxyphenyl)propanoic Acid
PrecursorMZ: 245.01215
RT: 4.8284
ExactMass: 246.01980921
Spectrum_type: 2
charge: -1
Formula: C9H10O6S
SMILES: C1=CC(=CC(=C1)OS(=O)(=O)O)CCC(=O)O
Method: HCD
Collision_energy: [28.333334]
Isolation_window: 4.0
Ion_mode: N
Num Peaks: 12
79.9563	8.1
96.9591	23.6
119.0493	17.8
121.0650	11.5
152.1072	19.1
165.0549	70.7
170.1179	13.7
213.1246	5.9
243.1129	7.9
243.1596	9.9
245.0121	100.0
246.0156	10.2

Name: 3-(4-Butoxyphenyl)-4-)(2-hydroxy-3-nitrophenyl)methylidene(-1,2-oxazol-5-one
PrecursorMZ: 381.10947
RT: 1.6796
ExactMass: 382.1164863
Spectrum_type: 2
charge: -1
Formula: C20H18N2O6
SMILES: CCCCOC1=CC=C(C=C1)C2=NOC(=O)C2=CC3=C(C(=CC=C3)[N+](=O)[O-])O
Method: HCD
Collision_energy: [28.333334]
Isolation_window: 4.0
Ion_mode: N
Num Peaks: 11
61.9875	11.7
86.0237	7.0
112.0031	13.6
135.0444	23.7
157.0766	13.1
161.0238	71.8
219.0773	67.5
220.0803	6.6
381.1101	100.0
382.1137	24.3
383.1240	8.4

Name: 3-(4-Hydroxy-3-Methoxyphenyl)Prop-2-Enoic Acid
PrecursorMZ: 387.10884
RT: 6.3727
ExactMass: 194.0579088
Spectrum_type: 2
charge: -1
Formula: C10H10O4
SMILES: COC1=C(C=CC(=C1)C=CC(=O)O)O
Method: HCD
Collision_energy: [28.333334]
Isolation_window: 4.0
Ion_mode: N
Num Peaks: 12
109.0283	7.7
123.0443	11.2
175.0750	8.5
269.0819	28.1
282.0884	6.4
283.0983	10.5
284.1052	23.3
310.0855	8.0
343.1186	46.6
344.1216	9.5
387.1089	100.0
388.1107	23.4

Name: 3-(4-Hydroxy-3-methoxy-phenyl)prop-2-enoic acid
PrecursorMZ: 387.10876
RT: 2.6353
ExactMass: 194.0579088
Spectrum_type: 2
charge: -1
Formula: C10H10O4
SMILES: COC1=C(C=CC(=C1)C=CC(=O)O)O
Method: HCD
Collision_energy: [28.333334]
Isolation_window: 4.0
Ion_mode: N
Num Peaks: 17
61.9875	15.6
121.0286	10.4
123.0443	6.1
195.0659	7.0
269.0818	29.6
270.0861	5.0
283.0973	14.9
284.1036	12.9
285.1110	4.9
301.1190	10.3
311.0924	22.9
328.0950	14.1
343.1185	100.0
344.1216	21.0
345.1046	7.3
387.1083	13.1
389.1241	14.1

Name: 3-(4-Hydroxyphenyl)propanol
PrecursorMZ: 151.07576
RT: 7.5993
ExactMass: 152.083729621
Spectrum_type: 2
charge: -1
Formula: C9H12O2
SMILES: C1=CC(=CC=C1CCCO)O
Method: HCD
Collision_energy: [28.333334]
Isolation_window: 4.0
Ion_mode: N
Num Peaks: 14
107.0494	11.4
108.0195	13.8
108.0447	44.3
109.0289	6.4
109.0401	3.3
109.0649	6.3
123.0441	5.4
150.0550	6.9
151.0255	58.4
151.0393	21.7
151.0758	100.0
152.0349	10.5
152.0806	7.9
153.0915	46.1

Name: 3-(4-Methoxy-6-oxopyran-2-yl)butanoic acid
PrecursorMZ: 211.06083
RT: 0.6915
ExactMass: 212.06847348
Spectrum_type: 2
charge: -1
Formula: C10H12O5
SMILES: CC(CC(=O)O)C1=CC(=CC(=O)O1)OC
Method: HCD
Collision_energy: [28.333334]
Isolation_window: 4.0
Ion_mode: N
Num Peaks: 57
59.0129	6.3
72.9922	6.0
81.0337	1.1
82.0288	1.3
85.0285	1.0
87.0078	6.3
95.0491	1.0
97.0286	1.2
99.0444	1.6
101.0236	3.2
105.0700	1.2
107.0493	1.3
109.0287	1.4
109.0398	3.9
109.0648	1.1
110.0602	1.6
111.0443	8.2
114.0550	1.0
121.0650	1.5
123.0440	3.2
123.0807	11.1
124.0396	1.2
125.0236	2.1
125.0599	3.2
128.0344	1.3
136.0395	1.6
137.0600	8.7
139.0396	1.7
139.0756	2.6
149.0602	20.9
149.0718	2.6
150.0638	2.7
151.0400	1.0
151.0760	2.5
155.0344	1.1
165.0548	1.6
166.0501	1.3
166.0866	5.0
167.0702	17.0
167.0815	8.6
167.1066	1.5
168.1016	2.9
169.0498	1.4
169.0862	1.2
193.0496	2.4
193.0859	2.2
195.0659	3.0
209.0455	1.6
209.0813	6.0
210.0764	22.1
211.0603	100.0
211.0981	1.8
212.0629	10.5
212.0920	9.2
213.0389	1.6
213.0573	2.0
213.0761	26.8

Name: 3-(5,7-Dimethoxy-4-oxochromen-2-yl)propanoic acid
PrecursorMZ: 277.07116
RT: 0.6535
ExactMass: 278.07903816
Spectrum_type: 2
charge: -1
Formula: C14H14O6
SMILES: COC1=CC2=C(C(=C1)OC)C(=O)C=C(O2)CCC(=O)O
Method: HCD
Collision_energy: [28.333334]
Isolation_window: 4.0
Ion_mode: N
Num Peaks: 68
59.0128	8.9
61.9872	1.1
72.9919	1.3
73.0283	1.0
79.9562	1.1
85.0283	1.4
87.0077	16.8
94.0287	1.4
96.9590	4.3
99.0075	1.7
101.0596	1.6
113.0232	1.0
114.0549	1.6
115.0389	1.4
128.0345	1.4
128.0707	2.4
130.0863	2.2
133.0284	6.9
137.0231	1.0
143.0340	1.1
149.0598	3.1
161.0598	1.6
172.0515	1.2
173.0442	1.8
173.0593	1.9
177.0547	23.3
178.0580	2.0
179.0700	1.1
187.0753	1.2
189.0548	2.8
189.0905	2.0
190.0869	1.1
191.0706	1.3
191.1068	1.2
203.0346	1.3
205.0490	1.8
205.0859	1.1
215.0707	2.2
217.0498	12.5
218.0545	1.7
218.0809	1.2
231.0646	1.8
231.1015	1.6
232.0972	3.3
232.1334	9.1
233.0820	6.4
233.1185	1.5
233.1353	1.2
234.0776	1.5
235.0962	2.2
257.0931	2.0
257.1293	1.0
259.0606	3.1
275.0583	4.8
275.0917	4.0
275.1484	1.1
276.0590	2.2
276.0884	8.3
276.1234	1.2
277.0712	100.0
277.1066	8.5
277.1526	1.0
277.1834	1.6
278.0736	15.9
278.1053	7.9
279.0548	1.5
279.0867	17.5
279.1255	1.9

Name: 3-(5-acetyl-4-(carboxymethyl)-1H-pyrrol-3-yl)propanoic acid
PrecursorMZ: 238.07167
RT: 6.3375
ExactMass: 239.07937252
Spectrum_type: 2
charge: -1
Formula: C11H13NO5
SMILES: CC(=O)C1=C(C(=CN1)CCC(=O)O)CC(=O)O
Method: HCD
Collision_energy: [28.333334]
Isolation_window: 4.0
Ion_mode: N
Num Peaks: 6
59.0129	6.3
108.0446	100.0
109.0478	5.5
194.0811	7.5
238.0709	16.4
239.1267	4.1

Name: 3-(6,8-Dimethoxy-1-oxoisochromen-3-yl)-2-hydroxypropanoic acid
PrecursorMZ: 293.06687
RT: 1.405
ExactMass: 294.07395278
Spectrum_type: 2
charge: -1
Formula: C14H14O7
SMILES: COC1=CC(=C2C(=C1)C=C(OC2=O)CC(C(=O)O)O)OC
Method: HCD
Collision_energy: [28.333334]
Isolation_window: 4.0
Ion_mode: N
Num Peaks: 55
59.0129	10.6
61.9874	15.1
72.9922	6.9
83.0129	92.1
85.0289	6.8
87.0077	7.6
95.0493	7.3
97.0285	7.5
102.0550	6.7
109.0286	51.8
113.0234	9.7
121.0288	8.0
123.0444	8.4
125.0236	7.0
128.0345	7.2
131.0342	36.1
135.0444	61.3
137.0606	9.7
139.0393	11.7
149.0600	49.4
161.0237	66.1
173.0597	9.6
176.0473	12.6
179.0346	7.6
183.0294	52.8
185.0601	38.8
186.0678	22.2
187.0759	84.3
188.0805	9.7
189.0550	10.2
201.0551	7.3
203.0716	7.6
203.1075	7.8
205.0865	82.5
206.0907	8.2
209.0932	13.1
229.0896	12.1
231.0661	34.7
232.0707	6.8
233.0835	8.7
235.0736	8.3
247.0974	60.5
248.1004	15.4
249.0784	7.7
251.0919	11.4
253.0829	12.8
291.0888	68.3
292.0883	37.2
292.1215	20.4
293.0684	100.0
293.1045	20.5
294.0707	16.4
294.1029	22.1
294.1378	10.3
295.0825	30.1

Name: 3-(9H-pyrido(3,4-b)indol-1-yl)propanoic acid
PrecursorMZ: 239.08233
RT: 4.6966
ExactMass: 240.08987763
Spectrum_type: 2
charge: -1
Formula: C14H12N2O2
SMILES: C1=CC=C2C(=C1)C3=C(N2)C(=NC=C3)CCC(=O)O
Method: HCD
Collision_energy: [28.333334]
Isolation_window: 4.0
Ion_mode: N
Num Peaks: 28
67.0293	43.5
82.0289	5.5
84.0444	4.5
88.0394	10.5
94.0288	6.3
96.0446	5.0
124.0393	6.5
126.0187	4.0
126.0553	32.0
128.0344	8.8
141.1024	6.9
154.0613	4.6
170.0451	4.9
180.0684	4.4
193.0772	15.7
194.0798	9.1
195.0922	97.3
196.0964	15.5
196.1450	5.0
197.1291	41.9
221.0716	64.6
222.0748	9.1
238.0818	11.2
239.0824	100.0
239.1389	9.1
240.0855	22.5
241.0686	7.6
241.1197	55.7

Name: 3-(Indol-3-YL) lactate
PrecursorMZ: 204.06617
RT: 1.0508
ExactMass: 205.07389321
Spectrum_type: 2
charge: -1
Formula: C11H11NO3
SMILES: C1=CC=C2C(=C1)C(=CN2)C[C@@H](C(=O)O)O
Method: HCD
Collision_energy: [28.333334]
Isolation_window: 4.0
Ion_mode: N
Num Peaks: 77
59.0130	4.9
69.0337	7.3
70.0369	3.4
71.0129	2.9
71.0493	3.8
72.9923	6.4
73.0285	4.1
75.0079	2.0
79.9564	1.2
80.9643	10.2
81.0336	1.1
83.0129	7.6
83.0492	1.1
84.0162	1.3
85.0286	6.0
87.0079	67.8
87.0442	27.9
88.0112	32.1
88.0476	1.4
89.0120	15.8
95.0494	7.8
96.0525	3.0
97.0286	3.9
97.0650	11.6
98.0238	1.6
99.0443	7.0
101.0235	3.7
101.0599	1.4
111.0443	12.6
112.0477	1.4
113.0235	8.4
113.0599	10.4
114.0269	7.1
114.0632	2.9
115.0280	1.9
115.0390	1.8
115.0756	1.1
116.0495	3.8
117.0185	3.6
123.0444	4.2
127.0392	1.3
129.0190	1.4
129.0549	2.8
130.0655	1.1
131.0342	1.2
139.0392	2.5
140.0428	5.3
141.0446	1.2
141.0549	8.9
142.0661	2.6
143.0344	1.8
155.0345	2.1
157.0498	2.0
158.0608	11.9
159.0657	39.1
160.0404	1.5
160.0691	2.7
161.0239	2.0
161.0599	1.6
162.0554	1.1
184.0329	2.6
185.0458	6.7
186.0559	6.8
202.0436	5.7
203.0559	100.0
203.0886	1.1
203.0944	1.2
203.1084	1.6
204.0304	1.6
204.0665	32.9
205.0165	3.2
205.0346	5.7
205.0510	4.6
205.0706	10.6
206.0124	2.8
206.0446	2.0
206.0794	1.3

Name: 3-(Sulfooxy)benzenepropanoic acid
PrecursorMZ: 245.01234
RT: 5.2183
ExactMass: 246.01980921
Spectrum_type: 2
charge: -1
Formula: C9H10O6S
SMILES: C1=CC(=CC(=C1)OS(=O)(=O)O)CCC(=O)O
Method: HCD
Collision_energy: [28.333334]
Isolation_window: 4.0
Ion_mode: N
Num Peaks: 8
79.9564	7.5
119.0494	16.2
121.0651	11.1
165.0551	72.5
166.0583	6.6
245.0124	100.0
246.0158	11.0
247.0091	2.5

Name: 3-(beta-D-Glucopyranosyloxy)-2-methylbutanenitrile
PrecursorMZ: 306.11907
RT: 8.0112
ExactMass: 261.12123733
Spectrum_type: 2
charge: -1
Formula: C11H19NO6
SMILES: CC(C#N)C(C)O[C@H]1[C@@H]([C@H]([C@@H]([C@H](O1)CO)O)O)O
Method: HCD
Collision_energy: [28.333334]
Isolation_window: 4.0
Ion_mode: N
Num Peaks: 14
59.0129	25.7
71.0129	46.6
85.0285	24.5
87.0076	32.6
89.0234	45.9
113.0233	32.2
126.0552	100.0
161.0447	37.8
179.0553	34.3
216.0868	47.1
263.1137	40.1
305.0872	75.9
306.1218	28.4
307.1030	41.4

Name: 3-(p-Methoxyphenyl)propionic acid
PrecursorMZ: 179.07073
RT: 4.8732
ExactMass: 180.078644241
Spectrum_type: 2
charge: -1
Formula: C10H12O3
SMILES: COC1=CC=C(C=C1)CCC(=O)O
Method: HCD
Collision_energy: [28.333334]
Isolation_window: 4.0
Ion_mode: N
Num Peaks: 9
79.9564	16.6
90.9226	39.9
108.9332	100.0
134.9129	16.0
135.0444	14.0
135.0807	40.4
178.9023	15.0
179.0707	95.9
180.0322	14.3

Name: 3-)(1-Carboxyvinyl)oxy(benzoic acid
PrecursorMZ: 207.02928
RT: 1.7024
ExactMass: 208.03717335
Spectrum_type: 2
charge: -1
Formula: C10H8O5
SMILES: C=C(C(=O)O)OC1=CC=CC(=C1)C(=O)O
Method: HCD
Collision_energy: [28.333334]
Isolation_window: 4.0
Ion_mode: N
Num Peaks: 40
59.0128	2.6
71.0129	2.5
79.9563	13.6
80.9642	14.5
85.0285	5.0
87.0078	2.7
107.0493	1.9
115.0027	9.3
119.0493	18.2
121.0648	3.0
133.0289	3.0
135.0444	4.6
137.0596	2.0
147.0441	2.3
160.0392	6.0
161.0432	6.4
161.0598	6.1
162.0552	35.4
163.0392	47.0
163.0595	3.2
163.0755	17.6
164.0440	3.3
164.0698	4.8
165.0548	8.5
177.0182	2.2
179.0001	2.3
205.0334	2.8
205.0503	5.4
205.0704	2.5
205.0870	2.1
206.0444	6.6
206.0800	2.5
206.9979	24.4
207.0292	100.0
207.0477	4.9
207.0650	14.5
208.0320	11.0
208.0632	10.0
209.0450	8.5
209.1171	2.2

Name: 3-)(E)-3,4-dihydroxy-3,5-dimethylhept-1-enyl(-7,8-dihydroxy-7-methyl-8,8a-dihydro-1H-isochromen-6-one
PrecursorMZ: 351.18222
RT: 0.61775
ExactMass: 352.18858861
Spectrum_type: 2
charge: -1
Formula: C19H28O6
SMILES: CCC(C)C(C(C)(/C=C/C1=CC2=CC(=O)C(C(C2CO1)O)(C)O)O)O
Method: HCD
Collision_energy: [28.333334]
Isolation_window: 4.0
Ion_mode: N
Num Peaks: 122
57.0339	1.5
59.0131	1.8
71.0494	1.4
72.9921	1.8
75.0078	2.2
79.9564	5.4
80.9643	2.2
83.0496	1.4
85.0287	1.4
85.0649	3.1
87.0078	2.3
87.0442	3.5
95.0493	1.2
96.9592	5.7
97.0286	1.7
99.0442	1.8
101.0600	1.5
109.0649	2.3
111.0443	9.0
113.0234	1.5
113.0599	2.1
119.0494	2.7
123.0446	1.8
125.0237	1.6
125.0602	2.5
127.0391	1.9
130.0866	3.4
139.0392	2.5
139.0758	1.7
141.0550	3.0
151.0395	1.5
151.0757	1.3
152.0470	2.3
153.0550	2.8
163.0760	1.7
165.0549	3.3
167.0339	1.4
177.0550	1.2
177.0922	1.6
179.0705	2.5
179.1070	2.8
181.0500	17.7
182.0535	2.9
191.0730	3.7
193.0501	7.8
193.0863	2.6
194.0579	5.4
195.0653	2.4
205.0861	2.2
207.0661	1.6
209.0447	2.6
209.1177	3.4
219.1029	2.7
220.1103	1.6
221.0459	1.7
221.0813	1.3
221.1171	1.4
223.0627	2.6
223.0972	10.1
224.1015	2.2
225.1133	2.3
225.1489	1.3
233.0825	2.0
233.1181	3.1
234.1242	1.3
235.0977	2.3
237.1131	7.1
238.1173	1.9
239.1286	3.7
247.0978	1.7
249.0765	2.0
249.1132	5.2
250.1184	2.3
250.1452	3.0
251.1286	5.2
253.1078	1.3
255.1234	2.6
261.1124	2.0
263.0922	1.6
263.1288	8.5
264.0996	3.6
264.1329	1.9
265.1060	1.6
266.0789	2.1
267.1240	4.0
268.1278	1.6
269.1391	1.4
279.1238	1.8
280.0951	9.8
281.0987	3.1
282.0766	2.0
282.1107	28.5
283.1144	4.2
284.0903	2.0
287.1647	1.4
305.1760	4.0
306.1785	1.5
307.1895	3.0
331.1545	2.7
333.1710	4.1
349.0940	4.2
349.1303	5.1
349.1660	77.2
349.2021	6.0
350.0961	9.0
350.1312	6.7
350.1692	36.8
350.2046	2.5
351.0745	4.2
351.1088	27.8
351.1458	14.5
351.1814	100.0
351.2174	5.7
352.0810	1.5
352.1171	6.3
352.1485	3.4
352.1850	20.0
352.2231	2.1
353.0882	3.3
353.1334	1.9
353.1973	10.4
353.2348	4.9

Name: 3-)2-(2,3-dihydroxy-5,6,8a-trimethyloctahydro-2H-spiro)naphthalene-1,2'-oxiran(-5-yl)ethyl(-5-hydroxyfuran-2(5H)-one
PrecursorMZ: 365.19713
RT: 1.3909
ExactMass: 366.20423867
Spectrum_type: 2
charge: -1
Formula: C20H30O6
SMILES: CC1CCC2(C(C1(C)CCC3=CC(OC3=O)O)CC(C(C24CO4)O)O)C
Method: HCD
Collision_energy: [28.333334]
Isolation_window: 4.0
Ion_mode: N
Num Peaks: 9
61.9875	4.3
303.1972	2.9
335.1865	36.2
336.1906	8.1
365.1959	100.0
365.2344	91.7
366.1992	19.1
366.2375	20.7
367.2042	2.1

Name: 3-)2-(4-Hydroxy-3-methoxyphenyl)-2-oxoethyl(-6,7-dimethoxy-1(3H)-isobenzofuranone
PrecursorMZ: 357.09828
RT: 3.3755499999999996
ExactMass: 358.10525291
Spectrum_type: 2
charge: -1
Formula: C19H18O7
SMILES: COC1=C(C2=C(C=C1)C(OC2=O)CC(=O)C3=CC(=C(C=C3)O)OC)OC
Method: HCD
Collision_energy: [28.333334]
Isolation_window: 4.0
Ion_mode: N
Num Peaks: 33
59.0128	2.0
61.9875	7.5
109.0285	1.5
116.9278	2.1
119.0494	30.0
120.0526	2.5
121.0284	1.5
128.0346	1.3
132.0574	1.5
134.0365	18.8
135.0446	20.7
136.0477	1.3
137.0601	8.7
138.0633	1.4
148.0519	1.2
149.0601	11.6
163.0396	5.0
173.0445	1.6
181.0501	38.6
182.0534	8.0
193.0500	4.0
211.0760	4.0
252.0788	1.1
253.0868	6.5
254.0945	6.8
269.1184	1.6
313.1083	30.8
314.1115	5.9
355.1041	6.0
356.1063	4.3
357.0984	100.0
358.1010	19.9
359.1059	2.1

Name: 3-)2-(6,7-dihydroxy-1,2,4a-trimethylspiro)3,4,6,7,8,8a-hexahydro-2H-naphthalene-5,2'-oxirane(-1-yl)ethyl(-2-hydroxy-2H-furan-5-one
PrecursorMZ: 365.19745
RT: 0.6259
ExactMass: 366.20423867
Spectrum_type: 2
charge: -1
Formula: C20H30O6
SMILES: CC1CCC2(C(C1(C)CCC3=CC(=O)OC3O)CC(C(C24CO4)O)O)C
Method: HCD
Collision_energy: [28.333334]
Isolation_window: 4.0
Ion_mode: N
Num Peaks: 50
59.0130	4.0
71.0130	1.8
72.9922	1.6
80.9643	2.2
83.0493	3.5
87.0079	2.1
96.9591	2.0
97.0651	2.3
99.0443	1.6
111.0442	1.8
128.0345	1.9
130.0866	1.8
136.0760	3.8
181.0501	1.6
191.0834	2.3
195.0656	7.6
196.0695	1.7
245.1659	4.8
259.2066	9.5
260.2108	1.7
261.2223	3.1
263.1292	2.4
265.1440	1.9
275.2016	3.0
277.2172	27.6
278.2206	5.9
281.1402	3.3
303.1968	11.7
304.1991	2.4
305.2125	5.4
319.1940	2.3
321.2074	35.6
322.2108	7.7
323.2230	6.5
347.1870	6.7
349.2023	5.7
363.1818	18.4
364.1091	6.2
364.1461	2.4
364.1851	11.7
365.0880	13.2
365.1289	7.8
365.1975	100.0
365.2327	5.9
366.0869	1.8
366.1294	4.2
366.2001	20.0
367.1066	9.1
367.1778	2.3
367.2132	33.1

Name: 3-Acetyl-2-(4-chlorophenyl)-4-hydroxy-1-(2-indol-3-ylethyl)-5-oxo-3-pyrroline
PrecursorMZ: 393.10107
RT: 1.6478
ExactMass: 394.1084202
Spectrum_type: 2
charge: -1
Formula: C22H19ClN2O3
SMILES: CC(=O)C1=C(C(=O)N(C1C2=CC=C(C=C2)Cl)CCC3=CNC4=CC=CC=C43)O
Method: HCD
Collision_energy: [28.333334]
Isolation_window: 4.0
Ion_mode: N
Num Peaks: 12
79.9561	6.2
96.9592	19.0
195.0662	6.2
271.0645	100.0
272.0681	15.8
391.1784	11.0
392.1783	4.6
393.0631	5.6
393.1081	10.6
393.1911	14.0
395.1615	6.1
395.2092	7.0

Name: 3-Amino-4-hydroxybenzoate
PrecursorMZ: 152.03427
RT: 1.1851
ExactMass: 152.034768053
Spectrum_type: 2
charge: -1
Formula: C7H6NO3-
SMILES: C1=CC(=C(C=C1C(=O)O)N)[O-]
Method: HCD
Collision_energy: [28.333334]
Isolation_window: 4.0
Ion_mode: N
Num Peaks: 23
65.9974	2.3
66.0339	22.5
78.9848	1.9
85.0284	2.6
95.0127	2.8
107.0492	4.2
107.0602	1.4
108.0206	6.3
108.0443	100.0
109.0283	23.9
109.0477	6.6
118.0034	1.5
123.0077	2.3
123.0188	5.0
126.0087	3.5
150.0301	1.9
150.0550	4.1
151.0389	5.7
151.0861	1.3
152.0342	24.2
152.0697	1.3
153.0183	25.1
153.0378	1.8

Name: 3-Amino-5-hydroxybenzoic acid
PrecursorMZ: 152.03464
RT: 1.2931
ExactMass: 153.042593085
Spectrum_type: 2
charge: -1
Formula: C7H7NO3
SMILES: C1=C(C=C(C=C1N)O)C(=O)O
Method: HCD
Collision_energy: [28.333334]
Isolation_window: 4.0
Ion_mode: N
Num Peaks: 48
66.0340	2.3
78.9580	1.4
78.9850	6.3
79.9564	1.4
80.9642	6.7
81.0336	2.6
82.0288	1.4
85.0286	2.8
95.0129	4.7
107.0493	3.8
108.0209	11.3
108.0446	100.0
109.0286	53.7
109.0479	5.2
109.0650	5.1
110.0000	2.4
110.0238	1.4
110.0321	2.4
120.9593	2.4
122.0366	9.7
123.0083	3.6
123.0193	1.6
123.0444	39.4
124.0409	1.9
124.0479	1.8
125.0001	1.7
125.0348	2.4
125.0599	1.8
126.0553	2.9
135.0444	11.0
136.0157	2.6
137.9951	1.5
150.0643	11.2
151.0058	1.6
151.0394	38.1
151.0498	2.0
151.0757	5.1
151.0872	5.5
152.0344	45.0
152.0701	4.8
152.9862	3.0
153.0187	57.3
153.0389	2.3
153.0549	19.9
153.0663	2.1
153.0911	7.6
154.0228	2.0
154.0482	1.9

Name: 3-Carboxy-6,7-dihydroxy-1-(3',4'-dihydroxyphenyl)-naphthalene
PrecursorMZ: 311.05592
RT: 5.6954
ExactMass: 312.0633881
Spectrum_type: 2
charge: -1
Formula: C17H12O6
SMILES: C1=CC(=C(C=C1C2=C3C=C(C(=CC3=CC(=C2)C(=O)O)O)O)O)O
Method: HCD
Collision_energy: [28.333334]
Isolation_window: 4.0
Ion_mode: N
Num Peaks: 30
109.0287	1.8
159.0441	1.3
161.0601	3.2
205.0499	81.2
206.0533	9.0
211.0756	2.7
223.0769	1.5
224.0476	1.4
239.0709	10.5
240.0432	1.6
240.0737	1.9
249.0556	2.6
250.0610	1.6
251.0711	8.8
252.0424	2.7
253.0499	2.3
254.0581	4.0
267.0660	100.0
267.0884	2.0
268.0700	18.8
269.0454	5.1
269.0809	28.0
283.0605	1.5
309.0978	4.2
311.0547	48.4
311.0880	7.1
311.1695	1.4
312.0583	9.3
312.0931	1.7
313.0703	17.2

Name: 3-Dehydroshikimate
PrecursorMZ: 171.02929
RT: 3.2701
ExactMass: 172.03717335
Spectrum_type: 2
charge: -1
Formula: C7H8O5
SMILES: C1[C@H]([C@@H](C(=O)C=C1C(=O)O)O)O
Method: HCD
Collision_energy: [28.333334]
Isolation_window: 4.0
Ion_mode: N
Num Peaks: 56
59.0129	1.5
65.0388	5.4
69.0337	1.9
71.0129	1.1
71.0494	1.1
73.0286	0.8
81.0337	1.2
83.0130	0.8
83.0494	15.0
84.0447	1.0
84.0527	0.7
85.0286	1.0
87.0077	1.3
93.0337	4.1
97.0289	1.0
98.0967	2.0
99.0079	25.0
99.0442	3.5
100.0112	1.1
109.0287	10.6
109.0650	4.8
111.0444	2.1
111.0807	9.4
113.0236	2.0
114.0555	0.9
125.0238	1.0
125.0600	1.9
125.0964	0.9
126.0552	1.6
127.0393	52.0
127.0756	15.9
128.0425	2.8
128.0710	6.0
128.0789	1.0
128.1075	2.1
129.0549	1.0
130.0865	3.9
153.0187	24.7
153.0550	9.0
154.0220	1.7
154.0588	0.7
154.9469	1.4
155.0346	0.7
169.0506	2.7
169.0859	1.1
170.0466	1.1
170.0814	2.3
170.9943	1.3
171.0295	100.0
171.0653	24.2
171.1026	1.0
172.0326	6.9
172.0591	4.1
172.0972	6.2
173.0451	19.6
173.0811	10.4

Name: 3-HYDROXY-4-(SUCCIN-2-YL)-CARYOLANE delta-LACTONE
PrecursorMZ: 319.19136
RT: 4.1188
ExactMass: 320.19875937
Spectrum_type: 2
charge: -1
Formula: C19H28O4
SMILES: C[C@@]12CCC3C(CC(=O)O[C@]3(C1)C4CC(C4CC2)(C)C)C(=O)O
Method: HCD
Collision_energy: [28.333334]
Isolation_window: 4.0
Ion_mode: N
Num Peaks: 13
69.2991	0.7
99.0078	1.3
196.0610	3.1
273.1861	0.6
275.2018	2.2
319.1140	0.7
319.1295	0.6
319.1915	100.0
319.2536	0.5
319.2688	0.7
320.1948	20.8
321.1456	1.6
321.1976	1.9

Name: 3-Hydroxy-2-methyl-4-pyrone sulfate
PrecursorMZ: 204.98065
RT: 1.7904666666666667
ExactMass: 205.98850908
Spectrum_type: 2
charge: -1
Formula: C6H6O6S
SMILES: CC1=C(C(=O)C=CO1)OS(=O)(=O)O
Method: HCD
Collision_energy: [28.333334]
Isolation_window: 4.0
Ion_mode: N
Num Peaks: 20
69.0336	2.5
79.9563	2.9
80.9642	5.8
85.0286	1.7
96.9592	1.4
97.0286	8.7
125.0236	3.1
158.9749	1.9
173.9858	4.1
175.0272	1.5
176.9857	20.7
187.0398	2.1
203.9968	6.1
204.9808	100.0
205.0247	11.0
205.0502	2.9
205.9839	7.7
206.9772	2.2
206.9965	3.8
207.0409	2.0

Name: 3-Hydroxy-7-methoxy-1-pentyl-9-propyldibenzo(b,d)furan-2-carboxylic acid
PrecursorMZ: 369.16672
RT: 9.2676
ExactMass: 370.17802393
Spectrum_type: 2
charge: -1
Formula: C22H26O5
SMILES: CCCCCC1=C(C(=CC2=C1C3=C(C=C(C=C3O2)OC)CCC)O)C(=O)O
Method: HCD
Collision_energy: [28.333334]
Isolation_window: 4.0
Ion_mode: N
Num Peaks: 7
61.9875	10.7
209.0928	100.0
210.0967	9.6
309.1460	64.5
310.1498	10.2
369.1670	63.2
370.1712	11.4

Name: 3-Hydroxybenzyl alcohol
PrecursorMZ: 123.04432
RT: 6.1611
ExactMass: 124.052429494
Spectrum_type: 2
charge: -1
Formula: C7H8O2
SMILES: C1=CC(=CC(=C1)O)CO
Method: HCD
Collision_energy: [28.333334]
Isolation_window: 4.0
Ion_mode: N
Num Peaks: 5
79.0545	7.0
81.0337	58.2
123.0443	100.0
123.9012	4.6
124.0477	8.0

Name: 3-Hydroxyglutaric acid
PrecursorMZ: 147.02919
RT: 3.9765
ExactMass: 148.03717335
Spectrum_type: 2
charge: -1
Formula: C5H8O5
SMILES: C(C(CC(=O)O)O)C(=O)O
Method: HCD
Collision_energy: [28.333334]
Isolation_window: 4.0
Ion_mode: N
Num Peaks: 13
57.0337	6.0
83.0493	13.2
85.0286	30.3
101.0236	13.7
101.0600	19.3
102.0552	28.6
103.0392	21.7
128.0345	16.9
129.0185	100.0
130.0220	5.1
145.0500	13.0
146.0449	18.4
147.0292	32.9

Name: 3-Hydroxysebacic acid
PrecursorMZ: 217.10779
RT: 2.6919
ExactMass: 218.11542367
Spectrum_type: 2
charge: -1
Formula: C10H18O5
SMILES: C(CCCC(=O)O)CCC(CC(=O)O)O
Method: HCD
Collision_energy: [28.333334]
Isolation_window: 4.0
Ion_mode: N
Num Peaks: 11
137.0964	1.6
155.1070	23.5
156.1101	2.2
171.1019	17.2
172.1054	1.8
181.0862	0.7
199.0969	4.8
217.1076	100.0
217.1511	0.8
218.1111	11.3
219.1123	1.1

Name: 3-Hydroxysuberic acid
PrecursorMZ: 189.07607
RT: 4.0459
ExactMass: 190.08412354
Spectrum_type: 2
charge: -1
Formula: C8H14O5
SMILES: C(CCC(=O)O)CC(CC(=O)O)O
Method: HCD
Collision_energy: [28.333334]
Isolation_window: 4.0
Ion_mode: N
Num Peaks: 28
57.0337	1.6
59.0129	1.6
71.0493	1.9
97.0649	1.6
99.0805	14.8
109.0649	4.0
111.0076	1.1
115.0390	1.9
118.0503	2.9
125.0597	1.5
125.0962	32.9
126.0996	4.1
127.0755	100.0
128.0788	7.1
143.0702	2.4
145.0861	12.1
169.0496	1.5
169.0868	1.6
171.0654	27.8
172.0692	2.0
187.0609	4.4
187.0967	27.9
188.0343	3.6
188.1008	4.6
189.0760	90.2
189.0891	1.7
190.0801	7.5
191.0550	3.4

Name: 3-Indol-3-yl-2-(2-(2-methylphenoxy)acetylamino)propanoic acid
PrecursorMZ: 351.13528
RT: 4.701
ExactMass: 352.14230712
Spectrum_type: 2
charge: -1
Formula: C20H20N2O4
SMILES: CC1=CC=CC=C1OCC(=O)NC(CC2=CNC3=CC=CC=C32)C(=O)O
Method: HCD
Collision_energy: [28.333334]
Isolation_window: 4.0
Ion_mode: N
Num Peaks: 32
58.0289	2.5
69.4199	3.2
72.0446	6.2
74.0239	49.4
98.0239	3.4
116.0497	12.9
120.0811	5.9
148.0763	3.8
159.0925	4.5
164.0709	7.1
178.0868	5.8
201.1034	4.5
203.0822	67.0
204.0856	7.0
222.0769	19.8
223.0806	2.5
256.1343	4.1
273.1611	16.5
274.1647	6.8
307.1457	4.1
307.2267	3.6
317.1500	6.8
318.1535	3.1
349.1739	27.3
350.1804	13.9
351.1359	100.0
351.1773	3.3
351.2193	23.2
352.1397	21.7
352.2223	4.5
353.1368	2.5
353.2335	8.8

Name: 3-Indol-3-yl-2-)2-(2-methylphenoxy)acetylamino(propanoic acid
PrecursorMZ: 351.13472
RT: 2.5753
ExactMass: 352.14230712
Spectrum_type: 2
charge: -1
Formula: C20H20N2O4
SMILES: CC1=CC=CC=C1OCC(=O)NC(CC2=CNC3=CC=CC=C32)C(=O)O
Method: HCD
Collision_energy: [28.333334]
Isolation_window: 4.0
Ion_mode: N
Num Peaks: 92
58.0289	2.3
59.0129	1.9
69.4702	1.1
70.1212	0.7
72.0082	1.7
72.0445	4.6
72.9922	1.8
73.0286	1.5
74.0238	58.8
75.0271	1.1
79.9565	2.0
80.9642	2.2
84.0445	0.8
85.0286	1.1
87.0078	3.2
88.0394	1.4
93.0336	1.4
96.9591	8.1
97.4633	1.0
97.4663	1.3
98.0237	3.0
99.0442	1.1
111.0189	1.9
111.0443	0.8
113.0350	1.1
114.0551	5.0
116.0349	1.5
116.0496	12.1
116.0707	1.3
117.0530	1.2
119.0492	1.4
121.0648	1.4
123.0443	1.1
124.0397	1.1
128.0347	1.4
130.0864	3.5
134.0604	0.9
135.0444	1.7
136.0394	3.3
136.0760	1.1
139.0392	0.8
142.0654	2.7
147.0444	4.4
155.0004	0.9
155.0095	1.0
159.0920	5.0
160.0759	2.8
164.0709	13.0
165.0410	0.7
165.0763	1.2
171.0655	0.8
178.0866	8.8
180.0660	0.8
186.0555	1.5
190.0864	1.8
201.1033	2.8
203.0678	1.1
203.0820	73.7
204.0659	3.3
204.0854	8.2
222.0767	26.7
223.0799	3.0
230.0883	1.2
232.0588	11.6
273.1615	1.6
306.1048	0.8
307.1457	7.0
308.1506	1.8
319.1905	1.3
349.1323	1.3
349.1664	2.0
349.2037	12.8
350.0933	2.5
350.1291	5.9
350.1697	2.6
350.2058	7.0
351.0438	6.1
351.0478	1.5
351.1355	100.0
351.2165	23.4
351.2236	0.7
352.1089	1.8
352.1400	23.7
352.1847	1.5
352.2197	4.7
353.0837	1.1
353.0885	2.0
353.1273	3.4
353.1328	3.0
353.1386	3.5
353.2319	1.6
367.1597	0.7

Name: 3-Methoxy-4-(sulfooxy)benzaldehyde
PrecursorMZ: 230.99646
RT: 0.7946
ExactMass: 232.00415914
Spectrum_type: 2
charge: -1
Formula: C8H8O6S
SMILES: COC1=C(C=CC(=C1)C=O)OS(=O)(=O)O
Method: HCD
Collision_energy: [28.333334]
Isolation_window: 4.0
Ion_mode: N
Num Peaks: 4
136.0156	9.9
151.0393	100.0
152.0431	6.3
230.9963	12.7

Name: 3-Methoxy-4-)2-methoxy-4-(1,2,3-trihydroxypropyl)phenoxy(benzoic acid
PrecursorMZ: 363.10889
RT: 2.6728
ExactMass: 364.11581759
Spectrum_type: 2
charge: -1
Formula: C18H20O8
SMILES: COC1=C(C=CC(=C1)C(C(CO)O)O)OC2=C(C=C(C=C2)C(=O)O)OC
Method: HCD
Collision_energy: [28.333334]
Isolation_window: 4.0
Ion_mode: N
Num Peaks: 32
59.0127	2.6
107.0494	3.2
109.0288	2.6
135.0443	100.0
136.0477	7.9
137.0600	6.7
145.0287	5.4
147.0446	2.4
151.0393	10.9
163.0393	5.8
165.0550	34.8
166.0586	3.7
179.0343	2.3
181.0500	90.0
182.0533	9.2
191.0555	32.5
235.0609	9.7
243.0774	5.7
315.0871	11.2
316.0910	2.1
325.2029	2.0
327.0870	4.8
343.2122	6.1
345.0981	13.7
346.1024	2.8
361.1704	1.9
361.2232	43.8
362.2263	13.5
363.1092	31.1
363.2213	2.4
364.1108	6.3
364.1517	3.5

Name: 3-Methoxy-4-Hydroxyphenylglycol sulfate
PrecursorMZ: 263.02287
RT: 1.9442
ExactMass: 264.03037389
Spectrum_type: 2
charge: -1
Formula: C9H12O7S
SMILES: COC1=C(C=CC(=C1)C(CO)OS(=O)(=O)O)O
Method: HCD
Collision_energy: [28.333334]
Isolation_window: 4.0
Ion_mode: N
Num Peaks: 92
59.0129	15.0
61.9874	6.2
71.0128	10.0
72.9921	10.9
73.0285	6.3
74.0060	4.2
74.9900	7.4
75.0078	9.6
79.9562	3.7
80.9642	13.2
85.0285	11.5
87.0077	26.1
87.0440	3.6
89.0234	7.0
95.0488	3.9
97.0285	7.1
99.0078	6.0
99.0442	5.5
101.0234	12.0
103.0025	3.3
109.0284	15.2
111.0438	6.5
113.0234	7.8
115.0022	6.1
115.0391	4.3
116.0166	46.6
117.0182	5.9
118.9798	100.0
120.9753	3.3
125.0236	5.2
127.0211	4.0
127.0390	7.5
128.0171	5.2
128.0343	35.8
129.0184	12.4
129.0544	3.4
135.0472	30.0
139.0392	10.9
141.0002	4.1
141.0185	5.2
143.0340	4.6
145.0136	5.1
145.0317	6.9
149.0235	3.6
149.0595	3.3
153.0010	7.0
153.0185	10.8
155.0337	4.0
159.0287	5.5
159.0430	6.0
161.0594	6.3
163.0391	4.3
171.0109	11.2
171.0285	5.3
173.0443	4.6
173.0596	19.9
175.0395	3.5
175.0753	20.8
177.0090	7.3
178.0171	27.3
181.0492	3.6
189.0547	4.6
199.0614	4.2
199.0755	5.1
201.0216	3.7
201.0539	6.1
203.0547	4.1
203.0706	4.7
215.0705	3.9
217.0865	30.7
218.0665	6.2
218.0844	12.1
219.0330	22.1
219.0647	19.1
219.0994	6.6
220.0632	3.7
220.0988	5.8
221.0805	6.2
245.0120	8.8
261.0573	38.5
261.0815	8.8
262.0374	6.6
262.0690	15.7
263.0183	39.5
263.0537	3.9
263.0765	69.5
264.0234	5.2
264.0536	9.9
264.0906	19.5
265.0392	6.2
265.0718	13.0
265.1468	3.5

Name: 3-Methyl-2-(2-(3-oxo-2H,3H,5H,6H,7H,8H,9H-cyclohepta(C)pyridazin-2-YL)acetamido)butanoic acid
PrecursorMZ: 320.16151
RT: 4.6552
ExactMass: 321.16885622
Spectrum_type: 2
charge: -1
Formula: C16H23N3O4
SMILES: CC(C)[C@@H](C(=O)O)NC(=O)CN1C(=O)C=C2CCCCCC2=N1
Method: HCD
Collision_energy: [28.333334]
Isolation_window: 4.0
Ion_mode: N
Num Peaks: 46
59.0130	2.2
69.4855	1.5
71.0130	1.5
72.9921	1.9
74.0238	67.0
75.0271	1.5
78.9582	2.0
87.0078	17.6
114.0552	2.6
115.0868	47.0
116.0710	1.7
116.0905	2.3
122.0604	1.7
124.0760	2.2
125.0713	3.7
128.0344	3.0
129.1024	4.1
130.0862	1.6
137.0602	1.6
147.0444	2.1
150.0918	2.5
153.0660	3.4
155.0819	2.8
160.0761	27.1
161.0802	2.7
164.0709	6.7
172.1085	16.2
184.1087	5.5
196.0606	1.5
204.0657	2.7
245.1294	19.0
245.1653	2.1
246.1327	3.0
259.1454	4.6
276.1713	4.3
318.1522	4.1
319.0636	3.3
319.1647	10.3
320.0809	2.1
320.1280	2.8
320.1617	100.0
321.0618	1.7
321.1049	1.8
321.1641	15.2
322.1394	3.4
322.1745	1.7

Name: 3-Methyl-2-(methylamino)pentanoic acid
PrecursorMZ: 144.10227
RT: 5.2301
ExactMass: 145.110278721
Spectrum_type: 2
charge: -1
Formula: C7H15NO2
SMILES: CCC(C)C(C(=O)O)NC
Method: HCD
Collision_energy: [28.333334]
Isolation_window: 4.0
Ion_mode: N
Num Peaks: 12
89.0135	3.3
99.9249	5.0
116.0247	5.8
142.0403	12.7
143.0245	7.7
143.0351	37.0
143.0706	8.9
144.0198	7.8
144.1022	100.0
145.0398	2.8
145.1057	7.9
146.0240	10.0

Name: 3-Methyl-2-))2,3,4-trihydroxy-5-(hydroxymethyl)oxolan-2-yl(methylamino(pentanoic acid
PrecursorMZ: 292.14035
RT: 1.433
ExactMass: 293.14745207
Spectrum_type: 2
charge: -1
Formula: C12H23NO7
SMILES: CCC(C)C(C(=O)O)NCC1(C(C(C(O1)CO)O)O)O
Method: HCD
Collision_energy: [28.333334]
Isolation_window: 4.0
Ion_mode: N
Num Peaks: 9
101.0235	9.6
130.0865	100.0
131.0900	5.5
172.0978	1.7
202.1080	15.3
203.1114	1.5
214.1076	1.1
232.1182	0.8
292.1419	0.9

Name: 3-Methyl-DL-aspartic acid
PrecursorMZ: 146.0451
RT: 8.4362
ExactMass: 147.05315777
Spectrum_type: 2
charge: -1
Formula: C5H9NO4
SMILES: CC(C(C(=O)O)N)C(=O)O
Method: HCD
Collision_energy: [28.333334]
Isolation_window: 4.0
Ion_mode: N
Num Peaks: 11
85.0286	100.0
101.0233	7.9
102.0552	8.2
103.0392	11.7
105.0450	6.6
118.0403	21.7
129.0186	28.4
145.0510	7.0
146.0242	7.3
146.0451	6.4
147.0295	8.5

Name: 3-Methylcatechol
PrecursorMZ: 123.04429
RT: 6.5267
ExactMass: 124.052429494
Spectrum_type: 2
charge: -1
Formula: C7H8O2
SMILES: CC1=C(C(=CC=C1)O)O
Method: HCD
Collision_energy: [28.333334]
Isolation_window: 4.0
Ion_mode: N
Num Peaks: 3
81.0337	100.0
123.0443	63.2
123.9013	27.5

Name: 3-Methyloxindole
PrecursorMZ: 146.06044
RT: 5.9503
ExactMass: 147.068413911
Spectrum_type: 2
charge: -1
Formula: C9H9NO
SMILES: CC1C2=CC=CC=C2NC1=O
Method: HCD
Collision_energy: [28.333334]
Isolation_window: 4.0
Ion_mode: N
Num Peaks: 13
71.0487	4.9
100.0760	1.9
101.0600	2.6
116.0498	3.3
118.0287	3.7
118.0653	3.2
128.0498	6.3
131.0370	2.9
144.0448	59.3
145.0486	18.8
146.0243	3.3
146.0605	100.0
147.0645	14.0

Name: 3-Methylpentanoic acid
PrecursorMZ: 115.07558
RT: 3.1422
ExactMass: 116.083729621
Spectrum_type: 2
charge: -1
Formula: C6H12O2
SMILES: CCC(C)CC(=O)O
Method: HCD
Collision_energy: [28.333334]
Isolation_window: 4.0
Ion_mode: N
Num Peaks: 14
69.0994	1.3
69.2095	1.4
69.4410	1.0
71.0130	6.3
97.4617	0.8
97.4639	1.5
97.4662	1.1
97.4688	0.9
99.9249	6.2
112.9706	2.3
114.9333	2.6
115.0756	100.0
116.0789	7.0
116.9277	35.3

Name: 3-O-Acetylpadmatin
PrecursorMZ: 359.07763
RT: 4.4522
ExactMass: 360.08451746
Spectrum_type: 2
charge: -1
Formula: C18H16O8
SMILES: CC(=O)O[C@@H]1[C@H](OC2=CC(=CC(=C2C1=O)O)OC)C3=CC(=C(C=C3)O)O
Method: HCD
Collision_energy: [28.333334]
Isolation_window: 4.0
Ion_mode: N
Num Peaks: 34
59.0130	3.2
79.9568	2.2
85.0286	2.5
87.0083	2.2
89.0239	2.3
109.0287	11.5
128.0347	2.7
135.0445	20.5
149.0601	23.9
161.0601	7.3
177.0182	2.8
179.0344	12.6
216.0424	38.2
217.0485	10.8
229.0507	2.2
241.0498	5.5
242.0564	2.2
253.0873	6.9
255.0663	30.2
256.0712	6.3
269.0826	3.8
271.0977	78.2
272.1009	13.4
297.0765	10.0
299.0550	2.5
314.1036	2.5
315.0874	45.5
316.0899	7.5
341.0656	5.2
357.1967	4.8
359.0771	100.0
359.1685	4.8
360.0794	19.4
361.0887	7.4

Name: 3-O-Caffeoylquinic acid methyl ester
PrecursorMZ: 367.10384
RT: 6.0182
ExactMass: 368.11073221
Spectrum_type: 2
charge: -1
Formula: C17H20O9
SMILES: COC(=O)[C@@]1(C[C@H]([C@H]([C@@H](C1)OC(=O)/C=C/C2=CC(=C(C=C2)O)O)O)O)O
Method: HCD
Collision_energy: [28.333334]
Isolation_window: 4.0
Ion_mode: N
Num Peaks: 51
59.0130	4.9
71.0130	5.0
72.9922	3.8
73.0286	6.1
74.0238	5.1
78.9582	3.0
83.0493	3.1
85.0285	3.2
87.0078	5.8
88.0394	2.6
93.0337	22.7
98.0239	2.6
99.0079	3.7
99.0443	12.4
109.0286	3.8
111.0444	19.1
113.0236	5.4
114.0552	14.1
115.0027	2.7
116.0707	2.9
124.0394	2.5
128.0344	5.1
129.0185	2.6
130.0865	10.7
134.0367	6.7
135.0447	5.3
137.0238	4.7
143.0344	15.0
155.0343	7.5
163.0391	3.3
173.0451	71.6
174.0486	2.8
181.0498	2.7
191.0557	5.8
193.0501	17.9
195.0660	8.9
319.1926	4.9
323.2233	5.3
333.1700	2.9
365.1976	28.3
366.1241	9.3
366.2015	11.3
367.1031	14.3
367.1432	8.0
367.2127	100.0
368.1041	2.7
368.1445	9.1
368.2159	23.2
369.1218	7.7
369.1793	4.5
369.2279	8.6

Name: 3-O-Methylfunicone
PrecursorMZ: 387.10873
RT: 4.6281
ExactMass: 388.11581759
Spectrum_type: 2
charge: -1
Formula: C20H20O8
SMILES: C/C=C/C1=C(C(=O)C(=CO1)C(=O)C2=C(C=C(C=C2OC)OC)C(=O)OC)OC
Method: HCD
Collision_energy: [28.333334]
Isolation_window: 4.0
Ion_mode: N
Num Peaks: 73
59.0130	8.3
61.9876	3.4
71.0129	3.2
72.9923	7.0
73.0287	5.3
75.0078	3.4
80.9643	4.2
83.0492	2.7
85.0287	2.4
87.0079	3.2
87.0443	3.0
96.9593	4.7
97.0287	2.1
109.0286	5.2
111.0443	2.2
114.0552	8.8
115.0390	2.9
123.0443	2.0
125.0237	1.9
125.0597	2.1
127.0401	2.1
127.0499	2.2
128.0345	2.9
129.0548	2.0
129.0914	2.4
130.0866	3.8
135.0446	4.4
137.0601	2.4
139.0390	1.9
149.0600	2.3
164.0709	4.4
193.0496	1.8
201.1127	3.0
245.0820	4.0
269.0814	4.0
273.0768	18.6
274.0798	2.8
283.0976	21.4
284.1042	11.2
285.1074	2.1
287.0921	7.4
288.0985	3.4
299.0922	2.1
313.0716	2.3
316.0937	3.0
327.0875	30.4
328.0932	13.2
332.0894	2.9
341.1407	2.0
342.1376	1.9
343.1190	25.1
344.1211	4.3
360.0853	7.8
369.2312	2.5
385.0925	2.2
385.1309	6.7
385.1726	8.7
385.2230	21.1
385.2612	4.8
386.1263	11.8
386.1681	7.8
386.2266	5.0
387.1083	100.0
387.1508	7.5
387.1968	3.7
387.2385	30.5
388.1043	18.8
388.1517	3.3
388.1855	7.6
388.2431	3.0
389.1228	6.3
389.1667	7.1
389.2527	7.0

Name: 3-amino-6,7,8,8a-tetrahydroimidazo(1,5-a)pyridin-1(5H)-one
PrecursorMZ: 375.28997
RT: 4.328
ExactMass: 153.090211983
Spectrum_type: 2
charge: -1
Formula: C7H11N3O
SMILES: C1CCN2C(C1)C(=O)N=C2N
Method: HCD
Collision_energy: [28.333334]
Isolation_window: 4.0
Ion_mode: N
Num Peaks: 7
96.9592	0.8
374.2772	0.9
375.2903	100.0
376.2160	0.8
376.2936	25.2
377.2980	2.6
393.3005	1.4

Name: 3-amino-6,7,8,8a-tetrahydroimidazo)1,5-a(pyridin-1(5H)-one
PrecursorMZ: 375.29015
RT: 1.443
ExactMass: 153.090211983
Spectrum_type: 2
charge: -1
Formula: C7H11N3O
SMILES: C1CCN2C(C1)C(=O)N=C2N
Method: HCD
Collision_energy: [28.333334]
Isolation_window: 4.0
Ion_mode: N
Num Peaks: 41
61.9874	1.1
69.2025	0.2
69.2900	0.3
78.9581	0.2
87.0077	0.2
93.0448	0.2
96.9591	0.8
114.0551	0.8
116.0708	0.3
130.0864	0.7
137.0346	0.5
154.0614	1.0
164.0710	0.3
173.0711	0.4
180.0407	2.1
217.1337	0.4
312.1499	0.2
373.2753	0.4
374.1272	0.3
374.1515	1.4
374.1730	0.6
374.2094	1.1
374.2775	0.6
375.1605	0.6
375.1893	0.4
375.1938	0.6
375.2112	0.6
375.2532	1.2
375.2903	100.0
375.3892	0.6
376.1471	0.3
376.1884	0.5
376.1933	0.2
376.1978	0.6
376.2189	0.3
376.2936	25.8
377.1916	0.2
377.1999	0.4
377.2692	7.2
377.2976	2.4
393.3007	0.7

Name: 3-hydroxybenzoic acid-3-O-sulphate
PrecursorMZ: 216.98084
RT: 0.9668
ExactMass: 217.98850908
Spectrum_type: 2
charge: -1
Formula: C7H6O6S
SMILES: C1=CC(=CC(=C1)OS(=O)(=O)O)C(=O)O
Method: HCD
Collision_energy: [28.333334]
Isolation_window: 4.0
Ion_mode: N
Num Peaks: 5
137.0237	100.0
138.0273	8.8
215.9298	11.2
216.9813	15.9
217.9275	10.3

Name: 3-methyl-3,4-dihydro-1H-1,4-benzodiazepine-2,5-dione
PrecursorMZ: 189.06638
RT: 3.0702
ExactMass: 190.074227566
Spectrum_type: 2
charge: -1
Formula: C10H10N2O2
SMILES: CC1C(=O)NC2=CC=CC=C2C(=O)N1
Method: HCD
Collision_energy: [28.333334]
Isolation_window: 4.0
Ion_mode: N
Num Peaks: 10
79.9565	54.8
80.9643	100.0
108.0446	2.8
109.0286	35.4
145.0400	5.1
161.0714	87.8
162.0751	8.4
189.0664	56.8
190.0699	5.2
191.0015	51.3

Name: 3-oxo-N-(tetrahydro-2-oxo-3-furanyl)hexanamide
PrecursorMZ: 212.09239
RT: 3.0045
ExactMass: 213.10010796
Spectrum_type: 2
charge: -1
Formula: C10H15NO4
SMILES: CCCC(=O)CC(=O)NC1CCOC1=O
Method: HCD
Collision_energy: [28.333334]
Isolation_window: 4.0
Ion_mode: N
Num Peaks: 42
57.0337	5.3
69.0337	8.2
83.0492	9.0
84.0446	43.2
85.0286	17.5
86.0602	25.7
87.0078	7.6
95.0489	4.5
96.0445	6.5
97.0286	8.1
97.0648	5.7
98.0602	6.7
111.0445	7.2
112.0396	9.3
122.0966	10.6
123.0443	7.3
124.0759	6.8
124.1125	3.9
125.0710	5.8
126.0553	20.5
139.0397	6.1
140.0708	14.1
150.0550	5.4
151.0393	10.4
151.0758	4.8
153.0294	4.8
168.0659	63.5
168.1023	82.6
169.0864	4.6
169.1055	5.1
194.0818	16.4
210.9995	13.8
211.0604	13.5
212.0349	5.5
212.0563	26.5
212.0924	100.0
213.0119	7.3
213.0384	8.0
213.0529	5.2
213.0764	24.9
213.0952	7.1
213.1858	3.5

Name: 3aH-Cyclopenta(a)chrysene-3a-carboxylic acid, 1-acetyleicosahydro-9-hydroxy-5a,5b,8,8,11a-pentamethyl-, (1R,3aS,5aR,5bR,9S,11aR)-
PrecursorMZ: 457.33261
RT: 2.3367
ExactMass: 458.33960994
Spectrum_type: 2
charge: -1
Formula: C29H46O4
SMILES: CC(=O)[C@@H]1CC[C@]2(C1C3CCC4[C@]5(CC[C@@H](C(C5CC[C@]4([C@@]3(CC2)C)C)(C)C)O)C)C(=O)O
Method: HCD
Collision_energy: [28.333334]
Isolation_window: 4.0
Ion_mode: N
Num Peaks: 10
50.8160	4.4
59.0130	2.9
61.9875	8.7
69.2158	3.1
96.9591	2.3
455.3183	3.3
456.3202	6.2
457.3330	100.0
458.3365	31.3
459.3417	4.0

Name: 3beta,7alpha,12alpha-Trihydroxy-5beta-cholan-24-oic Acid
PrecursorMZ: 407.28058
RT: 2.3979
ExactMass: 408.28757437
Spectrum_type: 2
charge: -1
Formula: C24H40O5
SMILES: C[C@H](CCC(=O)O)[C@H]1CC[C@@H]2[C@@]1([C@H](C[C@H]3[C@H]2[C@@H](C[C@H]4[C@@]3(CC[C@@H](C4)O)C)O)O)C
Method: HCD
Collision_energy: [28.333334]
Isolation_window: 4.0
Ion_mode: N
Num Peaks: 9
59.0130	1.1
61.9875	7.4
96.9592	1.0
405.2648	3.9
406.2692	7.1
407.2807	100.0
408.2841	24.9
409.1902	1.0
409.2912	2.6

Name: 3beta-Hydroxy-23,24-bisnorchol-5-enic acid
PrecursorMZ: 345.2434
RT: 1.208
ExactMass: 346.25079494
Spectrum_type: 2
charge: -1
Formula: C22H34O3
SMILES: CC([C@H]1CCC2[C@@]1(CCC3C2CC=C4[C@@]3(CC[C@@H](C4)O)C)C)C(=O)O
Method: HCD
Collision_energy: [28.333334]
Isolation_window: 4.0
Ion_mode: N
Num Peaks: 17
119.0490	1.2
286.1936	3.2
299.2382	13.9
300.2418	10.1
301.2237	2.6
301.2536	100.0
302.2570	22.2
303.2678	3.8
343.2278	10.5
344.1609	1.1
344.1656	1.1
344.2311	7.7
345.2102	3.9
345.2436	84.5
346.2470	19.6
347.2571	3.0
347.2624	1.1

Name: 4',6,7-Trimethoxyisoflavone
PrecursorMZ: 195.06572
RT: 5.1153
ExactMass: 312.09977361
Spectrum_type: 2
charge: -1
Formula: C18H16O5
SMILES: COC1=CC=C(C=C1)C2=COC3=CC(=C(C=C3C2=O)OC)OC
Method: HCD
Collision_energy: [28.333334]
Isolation_window: 4.0
Ion_mode: N
Num Peaks: 29
59.0130	12.2
94.0291	2.4
97.4068	2.3
119.0494	11.4
121.0288	5.9
122.0604	2.5
123.0443	4.7
124.0159	4.9
134.0367	14.9
135.0450	26.7
136.0523	97.7
137.0232	2.8
137.0554	8.3
138.0302	2.6
149.0600	3.8
150.0320	3.3
151.0396	8.6
151.0759	9.2
152.0713	2.4
177.0549	3.3
178.0271	4.6
179.0306	5.1
180.0285	22.3
193.0859	3.9
194.0548	3.3
195.0517	84.5
195.0664	100.0
196.0551	6.1
196.0695	8.4

Name: 4',7-Dihydroxy-3,4-dihydroisoflavone
PrecursorMZ: 241.08699
RT: 1.9535
ExactMass: 242.094294304
Spectrum_type: 2
charge: -1
Formula: C15H14O3
SMILES: C1C(COC2=C1C=CC(=C2)O)C3=CC=C(C=C3)O
Method: HCD
Collision_energy: [28.333334]
Isolation_window: 4.0
Ion_mode: N
Num Peaks: 23
93.0336	13.0
96.9592	3.2
119.0493	60.5
120.0527	5.8
121.0286	85.7
122.0319	5.8
135.0443	42.5
136.0477	3.3
147.0443	5.9
162.0187	5.0
184.0013	3.2
197.1905	9.5
239.2012	3.0
240.0736	4.5
241.0674	3.1
241.0864	7.3
241.0890	36.2
241.1935	2.4
241.2170	100.0
242.0478	3.2
242.0910	6.6
242.2205	14.5
243.1963	20.3

Name: 4',7-Dihydroxyflavanone
PrecursorMZ: 255.06578
RT: 2.4028
ExactMass: 256.07355886
Spectrum_type: 2
charge: -1
Formula: C15H12O4
SMILES: C1C(OC2=C(C1=O)C=CC(=C2)O)C3=CC=C(C=C3)O
Method: HCD
Collision_energy: [28.333334]
Isolation_window: 4.0
Ion_mode: N
Num Peaks: 44
57.0337	7.8
59.0130	1.1
79.9563	6.3
80.9643	4.1
91.0179	2.2
96.9591	21.6
98.9549	1.2
119.0493	2.2
121.0287	1.3
123.0808	2.4
135.0079	8.8
135.0808	1.3
149.0236	100.0
149.0965	3.7
150.0270	6.9
151.1120	2.5
153.0186	4.1
175.1122	9.6
176.1153	1.4
191.5742	2.1
193.1228	10.8
194.1265	1.5
213.5690	3.1
214.1081	4.9
225.0394	2.8
232.0584	2.0
237.1127	2.1
253.5464	3.9
253.5978	1.2
254.0474	4.5
254.0534	28.0
254.0711	16.8
254.5539	8.7
254.5742	4.5
255.0649	87.8
255.1198	4.6
255.1239	20.7
255.2327	66.9
255.5822	4.8
256.0693	15.5
256.1245	3.1
256.2360	12.0
257.0733	1.3
257.0772	7.1

Name: 4'-Hydroxypropiophenone
PrecursorMZ: 149.06012
RT: 0.9289
ExactMass: 150.068079557
Spectrum_type: 2
charge: -1
Formula: C9H10O2
SMILES: CCC(=O)C1=CC=C(C=C1)O
Method: HCD
Collision_energy: [28.333334]
Isolation_window: 4.0
Ion_mode: N
Num Peaks: 16
66.0340	11.5
93.0336	3.2
107.0493	12.8
108.0197	2.5
147.0445	4.0
147.0653	2.7
148.0387	2.8
148.0766	3.4
148.9519	3.4
149.0601	100.0
149.0967	2.9
150.0552	12.9
150.0641	7.2
151.0251	12.1
151.0393	16.2
151.0870	14.2

Name: 4'-Methoxy-2'-hydroxy chalcone
PrecursorMZ: 313.10816
RT: 2.2957
ExactMass: 254.094294304
Spectrum_type: 2
charge: -1
Formula: C16H14O3
SMILES: COC1=CC(=C(C=C1)C(=O)C=CC2=CC=CC=C2)O
Method: HCD
Collision_energy: [28.333334]
Isolation_window: 4.0
Ion_mode: N
Num Peaks: 23
59.0129	2.3
91.0212	4.2
107.0492	4.8
109.0286	15.8
121.0285	5.9
123.0444	6.1
137.0599	2.2
149.0596	2.9
161.0602	4.3
205.0503	11.8
227.1077	2.5
269.1184	12.0
270.1199	2.1
295.0977	1.6
311.1682	20.5
312.0893	2.3
312.1731	8.5
313.1083	100.0
313.1665	6.5
313.2028	4.7
314.1093	23.8
315.0837	3.4
315.1240	2.9

Name: 4'-Methoxychalcone
PrecursorMZ: 237.09159
RT: 4.5053
ExactMass: 238.099379685
Spectrum_type: 2
charge: -1
Formula: C16H14O2
SMILES: COC1=CC=C(C=C1)C(=O)/C=C/C2=CC=CC=C2
Method: HCD
Collision_energy: [28.333334]
Isolation_window: 4.0
Ion_mode: N
Num Peaks: 47
59.0129	0.5
63.9616	0.6
69.0335	0.5
72.9921	0.9
79.9563	0.9
80.9642	1.3
93.0336	2.5
96.9591	1.5
108.0447	0.5
109.0285	0.6
122.0236	1.0
123.0314	0.6
123.0443	0.7
124.0392	0.5
130.0415	1.1
131.0490	0.5
137.0598	0.6
138.0550	0.5
143.0493	5.3
149.0599	2.1
151.0754	0.8
177.0186	0.5
182.0730	0.6
191.0686	0.5
192.0659	25.6
193.0499	0.8
193.0689	2.5
193.0865	1.5
194.0831	0.8
195.0556	5.8
195.0807	1.8
209.0968	0.6
222.0680	19.8
223.0720	3.2
235.0779	2.3
236.0562	8.8
236.0819	0.6
237.0179	0.5
237.0409	1.0
237.0535	0.5
237.0917	100.0
237.1423	0.7
238.0723	1.2
238.0946	16.7
239.0557	0.9
239.0662	1.1
239.1085	9.4

Name: 4,4'-Dihydroxy-2'-methoxychalcone
PrecursorMZ: 269.08206
RT: 2.2465
ExactMass: 270.08920892
Spectrum_type: 2
charge: -1
Formula: C16H14O4
SMILES: COC1=C(C=CC(=C1)O)C(=O)/C=C/C2=CC=C(C=C2)O
Method: HCD
Collision_energy: [28.333334]
Isolation_window: 4.0
Ion_mode: N
Num Peaks: 59
59.0129	2.6
71.0130	1.1
72.9921	2.3
79.9567	1.0
80.9641	3.0
87.0078	2.7
109.0285	23.6
110.0317	1.3
125.0232	1.9
128.0346	1.1
129.0181	0.9
135.0442	5.0
136.0066	2.7
137.0599	1.6
137.0710	3.2
149.0601	1.1
159.0443	8.6
160.0483	0.9
165.0661	2.7
179.1070	1.3
180.0324	1.7
181.0497	2.6
194.0118	1.5
195.0654	1.6
196.0276	1.9
207.0081	2.5
223.0965	2.7
223.1319	1.9
224.0229	1.0
224.0471	1.6
224.1027	1.1
225.0570	2.2
239.0712	4.0
240.0740	0.9
241.0867	0.9
242.0582	3.3
251.0731	4.5
252.0424	5.6
253.0489	4.6
253.0748	1.8
254.0581	32.0
255.0622	5.8
256.0732	1.1
267.0290	33.0
267.0660	24.9
267.0891	3.8
267.1255	1.1
268.0263	3.8
268.0498	1.5
268.0721	8.2
268.0963	5.7
269.0314	5.9
269.0835	100.0
269.1411	1.9
269.2462	1.5
270.0864	15.0
271.0513	1.2
271.0853	4.2
271.0951	5.1

Name: 4,5-Dihydroxy-3-propylcyclopent-2-EN-1-one
PrecursorMZ: 155.07067
RT: 2.37
ExactMass: 156.078644241
Spectrum_type: 2
charge: -1
Formula: C8H12O3
SMILES: CCCC1=CC(=O)C(C1O)O
Method: HCD
Collision_energy: [28.333334]
Isolation_window: 4.0
Ion_mode: N
Num Peaks: 25
59.0130	55.2
74.0028	2.6
101.0136	21.2
102.0091	2.4
109.0650	1.7
110.0601	1.6
111.0442	4.1
111.0806	2.9
112.0759	3.6
113.0600	2.7
114.0552	7.2
125.0600	3.5
126.0091	3.8
128.0246	19.6
129.0279	1.4
137.0599	4.0
153.0551	11.8
154.9471	2.1
155.0362	3.4
155.0707	98.3
156.0659	6.7
156.0749	5.9
157.0512	6.0
157.0763	1.9
157.0863	100.0

Name: 4,5-dihydroxy-4,5,6-trimethyl-2,8-dioxa-13-azatricyclo(8.5.1.0¹³,¹⁶)hexadec-10-ene-3,7-dione
PrecursorMZ: 324.14534
RT: 4.5895
Spectrum_type: 2
charge: -1
SMILES: CC1C(=O)OCC2=CCN3CCC(OC(=O)C(C)(O)C1(C)O)C23
Method: HCD
Collision_energy: [28.333334]
Isolation_window: 4.0
Ion_mode: N
Num Peaks: 63
57.0337	2.6
59.0130	6.0
69.3675	2.1
71.0128	3.4
72.9922	6.2
73.0285	2.5
74.0238	2.3
78.9581	2.7
79.9565	5.6
80.9643	7.6
85.0284	2.5
87.0078	7.5
96.9592	16.0
111.0081	2.6
111.0807	100.0
112.0396	9.6
112.0839	7.1
113.0350	4.6
114.0552	27.6
116.0709	2.2
124.0400	2.5
124.0760	56.8
125.0794	2.8
128.0342	2.9
135.0443	2.2
136.0757	3.6
137.0356	7.9
137.0600	94.0
138.0635	6.5
147.0446	2.4
152.9952	2.7
155.0707	7.0
179.0569	2.1
183.0117	2.9
192.0661	9.1
196.0524	16.1
236.1651	6.4
237.0920	18.6
262.1443	11.5
263.1283	3.1
280.1556	18.1
323.0797	5.4
323.1166	8.8
323.1562	2.9
323.1624	4.1
323.1872	3.1
323.6191	3.7
324.0758	2.4
324.1132	12.2
324.1463	25.3
324.1506	16.4
324.6268	4.1
325.0724	14.8
325.0991	3.4
325.1280	20.6
325.1405	3.1
325.1847	95.3
325.6213	4.3
326.0754	2.5
326.1290	3.2
326.1331	2.9
326.1859	7.9
326.1896	9.9

Name: 4,6,8-Trihydroxy-3-methyl-3,4-dihydroisochromen-1-one
PrecursorMZ: 209.04504
RT: 4.6185
ExactMass: 210.05282342
Spectrum_type: 2
charge: -1
Formula: C10H10O5
SMILES: CC1C(C2=C(C(=CC(=C2)O)O)C(=O)O1)O
Method: HCD
Collision_energy: [28.333334]
Isolation_window: 4.0
Ion_mode: N
Num Peaks: 22
72.9922	0.7
79.9564	2.0
80.9643	6.1
121.0287	100.0
122.0320	7.1
124.0507	1.0
137.0228	1.0
163.0756	1.0
165.0551	1.3
166.0493	0.8
166.0868	0.7
194.0440	6.3
207.0661	1.1
207.0861	2.3
207.5885	1.0
209.0152	2.2
209.0456	14.1
209.0678	29.8
210.0484	1.5
210.0711	2.8
211.0279	3.2
211.0829	1.1

Name: 4,6-dihydroxy-3-(1-hydroxyethyl)-5-methoxy-3H-2-benzofuran-1-one
PrecursorMZ: 239.05563
RT: 2.5325
ExactMass: 240.0633881
Spectrum_type: 2
charge: -1
Formula: C11H12O6
SMILES: CC(C1C2=C(C(=C(C=C2C(=O)O1)O)OC)O)O
Method: HCD
Collision_energy: [28.333334]
Isolation_window: 4.0
Ion_mode: N
Num Peaks: 193
57.0337	0.8
59.0130	4.6
69.1358	0.7
69.1383	0.8
69.2465	0.8
71.0130	0.9
72.9922	1.5
73.0286	0.8
79.9563	7.2
80.9643	16.6
81.0336	0.9
82.9601	1.5
83.0130	0.8
83.0493	0.6
85.0285	1.3
87.0078	2.3
87.0442	0.6
93.0337	0.7
94.0289	2.9
94.9798	0.5
95.0128	0.5
95.0494	0.8
96.9592	45.9
97.0286	3.1
97.4659	0.5
98.9550	2.1
99.0079	1.0
99.0443	1.0
101.0235	1.2
101.0599	0.6
107.0494	1.0
108.0208	0.6
108.0447	0.9
109.0287	1.6
109.0650	3.3
111.0079	0.9
111.0443	2.1
112.0395	3.6
113.0236	8.4
119.0493	0.4
121.0288	0.6
121.0651	1.1
122.0365	0.8
123.0082	1.2
123.0444	4.9
123.0807	1.0
124.0397	0.6
125.0236	3.2
125.0600	1.5
127.0393	3.9
133.0652	1.2
134.0366	1.8
135.0445	3.5
135.0807	1.2
136.0161	0.7
136.0525	1.0
137.0237	4.6
137.0474	0.8
137.0601	2.1
138.0315	0.9
139.0063	3.2
139.0393	3.2
139.0757	0.6
141.0188	0.7
141.0550	1.8
145.0291	0.5
147.0445	0.4
149.0239	0.6
149.0601	4.3
150.0551	0.6
150.0639	0.7
151.0394	3.5
151.0508	1.4
151.0758	7.9
151.1122	0.9
152.0705	1.4
152.0798	0.6
153.0189	0.6
153.0551	10.2
153.0914	1.8
154.0591	0.7
155.0708	0.6
159.0559	0.6
160.0398	1.1
160.0761	9.6
161.0797	0.8
162.0317	1.3
163.0397	1.1
163.0759	0.6
164.1075	0.7
165.0187	1.7
165.0551	4.2
165.0914	3.0
166.0508	0.6
166.0865	1.1
167.0343	2.6
167.0708	3.5
169.0500	0.6
171.0654	0.4
175.0397	0.5
175.0759	0.4
176.0706	1.0
177.0195	0.6
177.0551	5.6
177.0907	0.9
177.0924	0.5
178.0596	0.5
179.0345	14.2
179.0705	1.5
180.0292	0.6
180.0422	45.3
181.0463	5.1
181.0496	1.5
192.9997	0.8
193.0502	5.3
193.0864	3.1
194.0435	0.8
194.0470	0.6
194.0552	1.1
194.0809	6.7
194.1177	0.6
195.0264	0.7
195.0284	1.2
195.0659	18.1
195.0818	0.7
195.0844	0.8
195.1008	1.6
195.1032	0.6
195.1374	1.7
195.9900	0.6
196.0626	0.8
196.0700	1.6
196.0954	0.6
197.0451	21.3
197.0819	2.2
197.1174	1.0
198.0486	2.4
205.0526	0.4
206.9966	2.5
208.0969	0.7
209.0131	1.8
209.0450	4.3
210.0494	0.6
211.0612	0.9
212.0716	1.4
212.0928	3.7
219.0667	0.6
221.0128	0.9
221.0455	1.9
223.0611	0.8
224.0325	4.3
237.0430	6.2
237.0459	2.4
237.0795	13.6
237.1111	0.7
237.1137	1.9
237.1179	0.8
238.0181	0.6
238.0463	2.1
238.0557	2.1
238.0754	5.0
238.0794	3.7
238.0820	2.2
239.0043	0.8
239.0184	1.3
239.0231	17.8
239.0565	100.0
239.0946	49.1
239.1296	1.9
239.2365	0.8
239.9986	1.1
240.0246	0.9
240.0272	1.3
240.0336	13.1
240.0597	12.1
240.0893	9.6
240.0972	2.3
240.1004	4.3
240.1250	2.3
241.0001	1.4
241.0030	0.8
241.0170	3.3
241.0204	3.6
241.0365	1.5
241.0534	3.1
241.0730	11.8
241.0915	1.6
241.1077	0.6
241.1132	0.7
241.1162	1.8
241.1791	0.9
241.1810	0.7
241.2162	1.6

Name: 4,7-Bis(dimethylamino)-3,10,12,12a-tetrahydroxy-1,11-dioxo-1,4,4a,5,5a,6,11,12a-octahydrotetracene-2-carboxamide
PrecursorMZ: 456.17807
RT: 4.5158
ExactMass: 457.18490021
Spectrum_type: 2
charge: -1
Formula: C23H27N3O7
SMILES: CN(C)C1C2CC3CC4=C(C=CC(=C4C(=C3C(=O)C2(C(=C(C1=O)C(=O)N)O)O)O)O)N(C)C
Method: HCD
Collision_energy: [28.333334]
Isolation_window: 4.0
Ion_mode: N
Num Peaks: 18
59.0130	5.0
61.9875	4.4
72.9922	4.4
114.0550	4.2
209.0716	40.6
210.0752	5.5
322.1562	89.5
323.1598	18.3
366.1461	100.0
367.1493	22.4
454.1959	3.3
455.1905	5.1
455.2542	14.2
456.1756	8.4
456.2614	3.3
457.1493	3.3
457.2781	9.9
458.1929	4.0

Name: 4,8-Dihydroxy-3,7,8-trimethyl-5,7-dihydropyrano(4,3-b)pyran-2-one
PrecursorMZ: 225.07657
RT: 3.0859
ExactMass: 226.08412354
Spectrum_type: 2
charge: -1
Formula: C11H14O5
SMILES: CC1C(C2=C(CO1)C(=C(C(=O)O2)C)O)(C)O
Method: HCD
Collision_energy: [28.333334]
Isolation_window: 4.0
Ion_mode: N
Num Peaks: 148
57.0337	2.2
58.0290	3.4
59.0130	31.5
59.0152	0.7
60.0164	0.4
66.0341	1.2
69.0337	0.7
71.0130	1.4
71.0494	1.9
72.9922	1.0
73.0286	1.4
80.9643	3.9
81.0338	0.9
83.0494	1.1
84.0446	0.7
85.0287	1.2
87.0078	0.9
88.0395	0.6
93.0338	0.7
94.0289	4.4
95.0494	2.3
96.0446	0.8
97.0287	1.4
97.0651	0.9
98.0239	1.1
99.0079	0.6
99.0443	0.8
101.0234	0.6
107.0494	1.5
108.0447	1.0
109.0286	1.4
109.0651	2.1
110.0239	0.4
110.0606	0.7
111.0443	2.3
112.0396	1.5
113.0236	1.9
113.0348	8.9
113.0600	1.0
115.0392	0.5
119.0493	1.1
121.0286	0.6
121.0651	3.7
122.0238	0.8
122.0604	1.3
123.0323	1.1
123.0444	2.8
123.0555	1.0
123.0807	0.7
124.0398	3.0
124.0757	0.5
125.0236	1.1
125.0347	1.1
125.0600	3.0
126.0011	1.3
126.0553	1.7
127.0393	1.0
127.0504	0.6
128.0344	0.5
129.0184	0.6
135.0443	1.2
135.0808	1.1
136.0760	1.7
137.0237	0.7
137.0602	3.2
137.0711	0.5
137.0964	3.6
138.0427	0.7
138.0553	4.7
138.0917	5.4
139.0394	2.0
139.0758	4.9
139.1122	3.4
139.1227	0.6
140.0708	1.8
141.0551	0.7
148.0396	1.5
149.0602	1.1
150.0549	1.2
150.0917	3.9
151.0396	1.8
151.0759	6.4
152.0702	0.9
153.0551	3.0
153.0916	1.0
154.0503	1.8
154.1231	0.6
155.0819	3.8
159.0444	0.7
163.0394	2.4
163.0758	2.1
163.1121	1.1
164.0702	1.1
165.0550	1.4
165.0912	0.9
166.0503	0.6
167.0343	0.9
167.0707	0.7
169.0500	3.3
179.0707	0.7
179.1192	0.6
179.1432	0.7
180.0654	4.1
180.1023	6.8
181.0493	0.5
181.0520	0.7
181.0861	6.3
181.0987	1.4
181.1208	1.6
182.0276	1.2
182.0814	10.0
182.1172	2.0
183.0451	0.5
183.0658	7.4
183.0838	0.8
183.1010	1.2
183.1146	3.7
183.1382	2.9
184.0692	0.6
184.0971	0.8
193.0498	0.8
194.0447	0.5
194.0821	0.7
195.0656	0.6
199.0393	1.0
207.0662	0.9
207.1024	0.9
209.1169	0.5
223.0950	0.7
223.1321	0.7
224.0564	2.1
224.0921	3.1
225.0411	1.5
225.0443	1.6
225.0765	31.4
225.1118	10.3
226.0514	0.5
226.0737	4.1
226.0793	3.5
226.1105	1.7
226.9878	0.6
227.0348	100.0
227.0534	3.2
227.0560	5.9
227.0844	0.9
227.0915	3.6
227.1029	6.6
227.1281	5.3

Name: 4,8-Dihydroxy-3,7,8-trimethyl-5,7-dihydropyrano)4,3-b(pyran-2-one
PrecursorMZ: 225.07662
RT: 0.7623500000000001
ExactMass: 226.08412354
Spectrum_type: 2
charge: -1
Formula: C11H14O5
SMILES: CC1C(C2=C(CO1)C(=C(C(=O)O2)C)O)(C)O
Method: HCD
Collision_energy: [28.333334]
Isolation_window: 4.0
Ion_mode: N
Num Peaks: 79
57.0337	4.3
58.0290	2.4
59.0130	20.0
69.0336	1.9
72.9922	11.7
73.0286	2.2
81.0336	1.9
83.0493	3.4
84.0445	1.9
85.0287	2.3
87.0079	6.4
88.0394	1.9
93.0335	4.4
95.0493	4.7
97.0286	3.9
97.0651	3.3
99.0442	2.6
101.0235	5.8
107.0492	3.2
109.0286	2.9
109.0650	3.8
111.0444	4.3
113.0233	1.9
121.0650	6.9
123.0443	4.9
123.0554	8.2
123.0806	3.3
124.0396	14.2
125.0235	2.3
125.0599	7.9
126.0549	2.3
127.0390	3.1
128.0345	2.1
135.0809	3.9
137.0236	2.2
137.0603	10.6
137.0963	6.2
138.0550	2.8
139.0393	10.6
139.0756	6.7
141.0550	2.4
149.0602	3.5
151.0390	2.2
151.0758	16.1
152.0698	2.5
153.0552	3.0
153.0916	2.9
163.0756	8.8
165.0555	3.6
165.0910	2.7
167.0337	2.3
169.0498	5.6
179.0703	5.8
180.0662	2.2
180.1017	6.0
181.0860	14.7
181.1214	3.7
182.0820	3.1
182.1156	5.4
182.1298	3.1
183.0656	13.9
183.1151	2.3
183.1385	2.8
184.0973	15.7
207.0652	4.3
209.0810	2.2
209.1172	1.8
223.0601	14.3
223.0974	3.0
224.0607	5.2
224.0925	21.4
225.0765	100.0
225.1129	8.6
226.0757	13.9
226.1097	6.6
227.0562	21.3
227.0921	25.0
227.1279	46.8
227.2011	2.4

Name: 4-((3,4-Dimethoxyphenyl)-hydroxymethylidene)-5-(3-ethoxy-4-hydroxyphenyl)-1-methylpyrrolidine-2,3-dione
PrecursorMZ: 412.14024
RT: 7.6135
ExactMass: 413.14745207
Spectrum_type: 2
charge: -1
Formula: C22H23NO7
SMILES: CCOC1=C(C=CC(=C1)C2C(=C(C3=CC(=C(C=C3)OC)OC)O)C(=O)C(=O)N2C)O
Method: HCD
Collision_energy: [28.333334]
Isolation_window: 4.0
Ion_mode: N
Num Peaks: 16
78.9582	82.1
114.0554	15.0
128.0346	19.7
130.0870	8.3
135.0442	9.8
161.0965	10.6
163.0397	7.9
180.0661	97.5
187.0757	25.1
231.0658	23.8
368.1499	9.9
411.2133	21.1
412.1372	100.0
413.1400	17.0
413.2590	10.0
414.1837	10.4

Name: 4-(12-hydroxy-10,13-dimethyl-3-sulfooxy-2,3,4,5,6,7,8,9,11,12,14,15,16,17-tetradecahydro-1H-cyclopenta(a)phenanthren-17-yl)pentanoic acid
PrecursorMZ: 471.24252
RT: 3.0401
ExactMass: 472.24947478
Spectrum_type: 2
charge: -1
Formula: C24H40O7S
SMILES: CC(CCC(=O)O)C1CCC2C1(C(CC3C2CCC4C3(CCC(C4)OS(=O)(=O)O)C)O)C
Method: HCD
Collision_energy: [28.333334]
Isolation_window: 4.0
Ion_mode: N
Num Peaks: 51
52.2416	2.0
52.2443	3.1
52.2467	1.0
52.2492	1.0
52.3558	0.9
52.3589	2.4
52.3617	3.9
52.3695	0.6
52.4705	0.7
52.4732	1.0
52.5934	0.7
78.9581	1.0
79.9565	1.4
80.9643	0.6
81.9524	0.6
94.9798	0.7
96.9592	40.5
98.9550	2.2
140.0016	8.2
152.9953	1.3
164.0717	0.6
206.0446	0.6
346.2028	3.9
347.2051	1.0
384.1927	1.0
425.3075	2.5
426.3102	1.9
427.3234	1.1
469.2270	14.6
469.2892	0.6
469.2960	1.4
470.1796	68.6
470.1862	32.0
470.2342	13.0
470.3210	0.9
470.3598	0.6
471.1890	16.2
471.2439	100.0
471.3080	16.2
471.3501	1.3
471.3786	1.8
471.4153	0.6
472.1870	7.9
472.2405	25.8
472.2475	20.2
472.3117	5.1
473.1839	1.5
473.2380	5.3
473.2455	4.1
473.3215	18.8
473.3289	15.3

Name: 4-(2,4-Dihydroxy-3,5-dimethylbenzoyl)oxy-2-hydroxy-3,5-dimethylbenzoic acid
PrecursorMZ: 345.09772
RT: 4.1591
ExactMass: 346.10525291
Spectrum_type: 2
charge: -1
Formula: C18H18O7
SMILES: CC1=CC(=C(C(=C1O)C)O)C(=O)OC2=C(C(=C(C=C2C)C(=O)O)O)C
Method: HCD
Collision_energy: [28.333334]
Isolation_window: 4.0
Ion_mode: N
Num Peaks: 26
59.0128	6.8
61.9874	10.3
78.9580	13.2
109.0285	15.9
119.0492	45.4
128.0346	4.9
135.0442	17.9
137.0598	38.0
163.0391	8.1
163.0752	6.5
181.0498	100.0
182.0536	10.0
189.0548	11.2
232.0602	4.5
239.0732	5.6
241.0864	19.6
255.1016	12.2
256.1029	5.0
258.1139	7.9
299.0914	5.4
301.1190	32.3
343.0768	17.1
344.0788	10.4
345.0993	67.1
346.0539	9.5
346.0984	16.2

Name: 4-(2-((1R,4aS,5R,6R,8aS)-6-hydroxy-5-(hydroxymethyl)-5,8a-dimethyl-2-methylidene-3,4,4a,6,7,8-hexahydro-1H-naphthalen-1-yl)-1-hydroxyethyl)-2H-furan-5-one
PrecursorMZ: 349.20206
RT: 5.0713
ExactMass: 350.20932405
Spectrum_type: 2
charge: -1
Formula: C20H30O5
SMILES: C[C@@]12CC[C@H]([C@@]([C@H]1CCC(=C)[C@H]2CC(C3=CCOC3=O)O)(C)CO)O
Method: HCD
Collision_energy: [28.333334]
Isolation_window: 4.0
Ion_mode: N
Num Peaks: 36
58.0051	0.8
59.0130	0.9
61.9874	0.9
73.0284	0.8
74.0239	1.4
88.0395	1.2
114.0552	1.0
200.1406	1.0
257.1909	2.2
273.1520	0.7
273.1864	0.9
275.2016	1.7
277.1808	0.6
285.1865	0.9
287.2016	4.8
288.2051	1.0
301.1814	0.7
303.1964	6.3
304.1997	1.2
305.2121	11.6
306.2156	2.2
331.1924	0.7
337.2030	1.7
347.1874	1.6
348.1109	1.2
348.1552	0.8
348.1955	0.7
349.1121	1.2
349.1696	1.0
349.2023	100.0
349.2910	0.8
350.1280	1.5
350.1715	3.7
350.2061	21.0
351.1784	0.8
351.2165	3.9

Name: 4-(2-((1R,4aS,5R,6R,8aS)-6-hydroxy-5-(hydroxymethyl)-5,8a-dimethyl-2-methylidene-3,4,4a,6,7,8-hexahydro-1H-naphthalen-1-yl)acetyl)-2H-furan-5-one
PrecursorMZ: 347.18643
RT: 5.7143
ExactMass: 348.19367399
Spectrum_type: 2
charge: -1
Formula: C20H28O5
SMILES: C[C@@]12CC[C@H]([C@@]([C@H]1CCC(=C)[C@H]2CC(=O)C3=CCOC3=O)(C)CO)O
Method: HCD
Collision_energy: [28.333334]
Isolation_window: 4.0
Ion_mode: N
Num Peaks: 7
301.1805	7.0
303.1967	37.7
304.2009	6.9
319.1918	20.5
347.1866	100.0
348.1899	20.8
349.2021	64.7

Name: 4-(2-((1R,4aS,5R,8aS)-6-hydroxy-5-(hydroxymethyl)-5,8a-dimethyl-2-methylidene-3,4,4a,6,7,8-hexahydro-1H-naphthalen-1-yl)ethyl)-2H-furan-5-one
PrecursorMZ: 333.20722
RT: 4.5612
ExactMass: 334.21440943
Spectrum_type: 2
charge: -1
Formula: C20H30O4
SMILES: C[C@@]12CCC([C@@]([C@H]1CCC(=C)[C@H]2CCC3=CCOC3=O)(C)CO)O
Method: HCD
Collision_energy: [28.333334]
Isolation_window: 4.0
Ion_mode: N
Num Peaks: 21
59.0129	5.4
87.0078	6.7
96.9592	15.2
145.0496	3.4
204.0658	2.8
253.1443	4.8
287.2019	4.7
289.2174	33.9
290.2210	6.2
321.2068	3.9
331.2489	18.0
332.1748	3.2
332.2518	6.8
333.1024	11.4
333.1589	3.8
333.1709	4.0
333.2074	100.0
334.2104	19.6
335.1727	7.5
335.1812	5.5
335.2220	5.4

Name: 4-(3-hydroxy-10,13-dimethyl-2,3,4,5,6,7,8,9,14,15,16,17-dodecahydro-1H-cyclopenta(a)phenanthren-17-yl)pentanoic acid
PrecursorMZ: 373.27485
RT: 1.7159
ExactMass: 374.28209507
Spectrum_type: 2
charge: -1
Formula: C24H38O3
SMILES: CC(CCC(=O)O)C1CCC2C1(C=CC3C2CCC4C3(CCC(C4)O)C)C
Method: HCD
Collision_energy: [28.333334]
Isolation_window: 4.0
Ion_mode: N
Num Peaks: 5
96.9592	6.9
373.1690	9.9
373.2751	100.0
374.2781	29.3
375.1858	6.5

Name: 4-(3-methyl-5-(5,6,7-trihydroxy-1,2,4a,5-tetramethyl-3,4,6,7,8,8a-hexahydro-2H-naphthalen-1-yl)pentoxy)-4-oxobutanoic acid
PrecursorMZ: 441.28573
RT: 6.0692
ExactMass: 442.29305367
Spectrum_type: 2
charge: -1
Formula: C24H42O7
SMILES: CC1CCC2(C(C1(C)CCC(C)CCOC(=O)CCC(=O)O)CC(C(C2(C)O)O)O)C
Method: HCD
Collision_energy: [28.333334]
Isolation_window: 4.0
Ion_mode: N
Num Peaks: 8
361.2748	9.1
379.2883	6.6
405.2643	7.2
423.2763	32.0
424.2794	7.7
440.2785	17.6
441.2880	100.0
442.2917	24.5

Name: 4-(4-(3-Adamantan-1-ylureido)cyclohexyloxy)benzoic acid
PrecursorMZ: 447.20568
RT: 1.4663
ExactMass: 412.23620751
Spectrum_type: 2
charge: -1
Formula: C24H32N2O4
SMILES: C1CC(CCC1NC(=O)NC23CC4CC(C2)CC(C4)C3)OC5=CC=C(C=C5)C(=O)O
Method: HCD
Collision_energy: [28.333334]
Isolation_window: 4.0
Ion_mode: N
Num Peaks: 19
61.9874	0.6
79.9564	0.4
87.0079	0.4
96.9544	0.4
96.9591	16.6
98.9549	0.7
114.0551	0.4
173.0449	1.0
351.1641	0.3
445.1887	4.1
445.1939	1.1
446.1472	1.1
446.1937	6.8
446.1997	3.7
447.0742	0.4
447.2059	100.0
447.3346	0.4
448.2093	23.3
449.2066	5.6

Name: 4-(Acetyloxy)-3-methoxybenzeneacetic acid
PrecursorMZ: 223.06066
RT: 6.302
ExactMass: 224.06847348
Spectrum_type: 2
charge: -1
Formula: C11H12O5
SMILES: CC(=O)OC1=C(C=C(C=C1)CC(=O)O)OC
Method: HCD
Collision_energy: [28.333334]
Isolation_window: 4.0
Ion_mode: N
Num Peaks: 20
59.0129	1.7
78.9581	5.9
109.0648	1.9
110.9842	3.3
123.0445	1.6
124.0157	6.5
125.0240	2.7
137.0236	6.3
137.0598	2.6
138.0316	7.8
151.0757	3.1
152.0106	1.9
161.0597	4.4
163.0392	3.2
164.0470	1.7
179.0707	100.0
180.0747	9.8
181.1224	1.7
223.0607	5.2
225.1604	5.4

Name: 4-(Decan-4-Yl)Benzenesulfonic Acid
PrecursorMZ: 297.15285
RT: 0.815
ExactMass: 298.16026586
Spectrum_type: 2
charge: -1
Formula: C16H26O3S
SMILES: CCCCCCC(CCC)C1=CC=C(C=C1)S(=O)(=O)O
Method: HCD
Collision_energy: [28.333334]
Isolation_window: 4.0
Ion_mode: N
Num Peaks: 25
59.0129	1.1
61.9875	1.5
69.1719	0.4
69.2856	0.4
69.3183	0.4
69.3585	0.4
79.9560	0.5
80.9643	0.4
96.9591	1.5
97.9472	0.4
183.0115	6.6
184.0156	0.5
197.0271	0.4
295.1356	0.3
296.1170	0.5
297.0820	0.8
297.0948	0.3
297.1251	3.0
297.1530	100.0
297.2227	0.7
297.2429	0.8
298.1274	0.8
298.1562	17.5
299.1292	0.7
299.1510	2.0

Name: 4-(Hydroxymethyl)-1-isopropyl-3-cyclohexen-1-yl beta-D-glucopyranoside
PrecursorMZ: 331.17619
RT: 8.4439
ExactMass: 332.18350323
Spectrum_type: 2
charge: -1
Formula: C16H28O7
SMILES: CC(C)C1(CCC(=CC1)CO)O[C@H]2[C@@H]([C@H]([C@@H]([C@H](O2)CO)O)O)O
Method: HCD
Collision_energy: [28.333334]
Isolation_window: 4.0
Ion_mode: N
Num Peaks: 55
59.0129	8.4
71.0130	6.0
72.9923	3.0
74.0237	4.4
75.0079	3.1
78.9583	3.6
85.0285	3.3
87.0080	4.3
88.0396	5.2
89.0235	10.1
96.9687	8.1
108.0447	6.4
109.0287	6.2
113.0238	2.9
114.0550	5.9
115.0032	3.1
115.0392	14.8
124.0398	3.3
125.0237	4.5
128.0346	10.1
130.0862	3.0
135.0443	10.5
145.0974	3.5
149.0602	2.9
150.9796	6.9
151.0393	2.9
153.0915	8.2
171.0777	4.5
171.1018	9.4
196.0613	2.9
207.1748	5.1
215.0911	10.8
233.1553	3.3
240.0509	4.5
240.0867	7.3
251.1652	11.0
285.1138	4.3
287.0916	3.7
295.1551	22.4
296.1584	3.3
313.1302	4.2
313.1653	26.9
314.1701	4.3
329.1626	14.1
330.0852	6.6
330.1240	18.9
330.1667	6.2
331.0434	4.4
331.0843	8.9
331.1396	44.5
331.1771	100.0
332.1117	4.3
332.1432	8.9
332.1807	17.7
333.0949	7.8

Name: 4-(beta-D-Glucopyranosyloxy)-3-methoxybenzoic acid
PrecursorMZ: 329.08734
RT: 7.1749
ExactMass: 330.09508215
Spectrum_type: 2
charge: -1
Formula: C14H18O9
SMILES: COC1=C(C=CC(=C1)C(=O)O)O[C@H]2[C@@H]([C@H]([C@@H]([C@H](O2)CO)O)O)O
Method: HCD
Collision_energy: [28.333334]
Isolation_window: 4.0
Ion_mode: N
Num Peaks: 7
108.0207	11.7
123.0442	15.9
152.0106	14.1
167.0342	100.0
168.0378	6.8
327.1822	3.4
329.0962	3.1

Name: 4-(carboxymethyl)-3-ethenyl-2-(3,4,5-trihydroxy-6-(hydroxymethyl)oxan-2-yl)oxy-3,4-dihydro-2H-pyran-5-carboxylic acid
PrecursorMZ: 389.16392
RT: 4.8138
ExactMass: 390.11621151
Spectrum_type: 2
charge: -1
Formula: C16H22O11
SMILES: C=CC1C(C(=COC1OC2C(C(C(C(O2)CO)O)O)O)C(=O)O)CC(=O)O
Method: HCD
Collision_energy: [28.333334]
Isolation_window: 4.0
Ion_mode: N
Num Peaks: 20
63.9615	4.9
78.9580	7.1
79.9564	60.5
80.9643	95.2
96.9592	7.3
135.0806	4.9
171.1018	8.5
185.1174	6.3
286.1092	5.0
289.1810	30.3
290.1847	5.5
307.1913	15.0
309.2076	12.6
387.2392	12.5
388.2421	5.5
389.1644	100.0
389.2531	12.0
390.1660	19.5
391.1799	56.1
391.2867	64.3

Name: 4-)(2R,3R,4S,5S,6R)-3,4,5-trihydroxy-6-(hydroxymethyl)oxan-2-yl(oxypentan-2-yl (E)-3-(4-hydroxyphenyl)prop-2-enoate
PrecursorMZ: 411.16663
RT: 4.9222
ExactMass: 412.17333247
Spectrum_type: 2
charge: -1
Formula: C20H28O9
SMILES: CC(CC(C)OC(=O)/C=C/C1=CC=C(C=C1)O)O[C@H]2[C@@H]([C@H]([C@@H]([C@H](O2)CO)O)O)O
Method: HCD
Collision_energy: [28.333334]
Isolation_window: 4.0
Ion_mode: N
Num Peaks: 14
87.0080	5.6
128.0346	10.2
179.0565	6.7
243.1390	9.4
287.1652	16.6
331.1551	14.4
349.1661	25.1
393.1562	100.0
394.1604	18.2
409.1451	6.3
410.1452	8.3
411.1671	94.7
412.1688	14.9
413.1285	6.0

Name: 4-))4-(Diethylamino)-1-methylbutyl(amino-6-fluoro-2-(methylsulfanyl)-3-quinolinecarbonitrile
PrecursorMZ: 373.18695
RT: 3.2301
ExactMass: 374.19404621
Spectrum_type: 2
charge: -1
Formula: C20H27FN4S
SMILES: CCN(CC)CCCC(C)NC1=C(C(=NC2=C1C=C(C=C2)F)SC)C#N
Method: HCD
Collision_energy: [28.333334]
Isolation_window: 4.0
Ion_mode: N
Num Peaks: 15
61.9875	5.8
75.0078	4.1
101.0235	35.7
135.0290	3.8
165.0398	50.0
206.9960	3.9
209.1540	4.4
227.1650	9.4
271.1552	26.9
355.0344	9.6
355.1768	7.1
371.2078	7.2
373.0485	5.7
373.1866	100.0
374.1908	17.3

Name: 4-)3-methyl-5-(5,6,7-trihydroxy-1,2,4a,5-tetramethyl-3,4,6,7,8,8a-hexahydro-2H-naphthalen-1-yl)pentoxy(-4-oxobutanoic acid
PrecursorMZ: 441.28571
RT: 5.4194
ExactMass: 442.29305367
Spectrum_type: 2
charge: -1
Formula: C24H42O7
SMILES: CC1CCC2(C(C1(C)CCC(C)CCOC(=O)CCC(=O)O)CC(C(C2(C)O)O)O)C
Method: HCD
Collision_energy: [28.333334]
Isolation_window: 4.0
Ion_mode: N
Num Peaks: 14
69.3427	5.4
130.0861	4.8
361.2739	9.7
379.2847	5.8
405.2642	8.6
423.2750	30.4
424.2788	8.7
439.2693	14.0
440.2728	18.8
441.2856	100.0
442.2295	4.6
442.2881	24.9
443.2423	5.6
443.2462	7.8

Name: 4-)4-)Hydroxy-(4-hydroxy-3-methoxyphenyl)methyl(-3-(hydroxymethyl)oxolan-2-yl(-2-methoxyphenol
PrecursorMZ: 375.14538
RT: 0.5667
ExactMass: 376.1522031
Spectrum_type: 2
charge: -1
Formula: C20H24O7
SMILES: COC1=C(C=CC(=C1)C2C(C(CO2)C(C3=CC(=C(C=C3)O)OC)O)CO)O
Method: HCD
Collision_energy: [28.333334]
Isolation_window: 4.0
Ion_mode: N
Num Peaks: 93
75.0077	0.5
99.0804	0.6
101.0598	0.5
109.0639	0.4
110.0001	0.6
111.0079	0.5
113.0232	0.5
125.0235	1.3
125.0598	3.5
139.0756	0.8
140.0470	0.6
149.0959	0.5
151.0754	0.5
163.0754	1.0
165.0547	0.7
167.0705	0.7
178.0628	1.7
179.0707	1.0
191.1072	1.2
193.0499	0.8
194.0577	0.7
195.0655	1.6
205.1232	0.8
206.1304	0.4
207.1386	0.7
219.0661	0.6
221.1175	1.1
222.0161	1.2
223.0243	1.5
223.1331	0.9
231.1012	0.4
233.1177	0.4
235.0243	2.7
236.0321	7.6
237.0364	0.6
247.0244	7.8
247.0959	0.7
247.1347	0.5
248.0280	1.0
249.0401	3.4
249.1131	0.4
249.1496	0.5
251.1287	1.4
259.0974	1.5
261.1131	0.6
262.1210	0.8
263.1283	1.3
268.0228	0.5
275.0561	0.7
275.0923	1.1
275.1283	1.1
276.0638	1.5
277.0718	0.4
278.1147	0.4
278.1756	0.6
279.1224	0.5
281.1395	0.9
288.0638	0.7
289.0715	6.8
290.0783	4.3
290.1154	2.3
291.0844	0.7
291.1206	0.7
292.0765	1.0
293.1398	0.5
306.0012	0.6
306.0177	0.5
306.0743	100.0
306.1037	2.7
306.1479	0.6
307.0776	15.8
307.1080	0.5
308.0899	51.0
308.1202	1.4
317.1393	1.7
319.1555	0.8
331.1554	0.6
331.1918	1.5
333.2076	0.9
359.1862	1.0
373.1295	0.8
373.1696	0.5
374.1237	0.7
374.2037	0.9
375.1057	1.9
375.1438	8.7
375.1825	38.6
375.2799	0.5
376.1459	2.0
376.1823	7.0
376.2488	1.3
377.1555	7.6
377.1980	31.6

Name: 4-Acetamidobutyric acid
PrecursorMZ: 144.06584
RT: 7.9413
ExactMass: 145.07389321
Spectrum_type: 2
charge: -1
Formula: C6H11NO3
SMILES: CC(=O)NCCCC(=O)O
Method: HCD
Collision_energy: [28.333334]
Isolation_window: 4.0
Ion_mode: N
Num Peaks: 5
100.0758	31.8
102.0551	100.0
103.0504	25.9
143.1071	21.5
144.0446	30.7

Name: 4-Amino-2-hydroxy-5-((1-hydroxy-1-(2-oxo-1-bicyclo(4.1.0)hept-3-enyl)propan-2-yl)amino)-5-oxopentanoic acid
PrecursorMZ: 325.14065
RT: 5.7189
ExactMass: 326.14778643
Spectrum_type: 2
charge: -1
Formula: C15H22N2O6
SMILES: CC(C(C12CC1CC=CC2=O)O)NC(=O)C(CC(C(=O)O)O)N
Method: HCD
Collision_energy: [28.333334]
Isolation_window: 4.0
Ion_mode: N
Num Peaks: 106
59.0130	36.0
71.0129	17.7
72.9922	21.9
73.0286	14.7
74.0238	8.4
75.0080	8.1
79.9564	10.3
80.9643	18.9
85.0286	15.0
87.0078	32.4
88.0396	11.4
89.0236	10.5
93.0338	6.1
94.9799	13.5
96.0081	10.8
96.0447	6.3
96.9593	14.0
97.0286	12.2
98.0238	9.1
99.0082	6.3
99.0445	7.4
101.0236	10.7
105.0185	13.1
107.0605	6.3
108.0446	9.1
109.0286	21.7
110.0240	7.3
111.0444	11.7
112.0396	7.1
113.0237	41.2
113.0349	14.0
114.0552	36.3
116.0710	9.5
121.0288	9.0
123.0445	13.9
123.0556	8.7
124.0397	12.8
125.0236	10.2
125.0601	10.5
126.0553	6.0
127.0395	10.4
127.0506	14.1
128.0345	37.9
130.0865	12.0
131.0343	7.3
135.0446	18.4
136.0393	7.1
136.0760	29.5
137.0237	7.9
137.0601	14.4
138.0552	7.5
139.0394	16.4
149.0608	9.1
150.0555	6.2
151.0394	11.8
151.0507	22.2
152.9949	7.4
153.0550	7.7
153.0667	6.3
156.0661	19.9
162.0554	6.0
163.0392	7.0
164.0711	6.1
165.0548	9.7
166.0498	8.8
166.0868	6.3
173.0448	6.4
177.0545	8.6
178.1234	6.1
180.0782	21.3
181.0501	11.8
185.0567	6.4
191.0695	14.2
192.0668	6.2
193.1343	57.1
195.1136	6.5
196.0609	8.3
198.0884	19.3
201.0399	48.4
203.1196	7.9
206.0827	6.1
208.0615	6.1
221.1296	45.6
234.0878	11.6
235.0608	24.1
237.0101	12.9
239.1082	12.5
250.0722	9.0
261.1613	7.0
280.1245	7.0
281.1060	6.6
281.1514	6.9
282.1372	7.0
283.0978	9.6
306.1036	6.2
323.0786	6.5
323.1201	17.3
324.0778	9.7
324.1131	77.2
324.1525	11.0
325.0943	93.3
325.1391	100.0
325.1848	11.4
326.0917	20.4
326.1285	52.1
327.1139	39.2

Name: 4-Aminobenzoate
PrecursorMZ: 136.0396
RT: 8.2457
ExactMass: 136.039853434
Spectrum_type: 2
charge: -1
Formula: C7H6NO2-
SMILES: C1=CC(=CC=C1C(=O)[O-])N
Method: HCD
Collision_energy: [28.333334]
Isolation_window: 4.0
Ion_mode: N
Num Peaks: 23
92.0246	10.5
92.0497	46.4
93.0337	43.6
93.0531	3.6
94.0290	23.4
97.4077	2.9
107.0494	9.5
123.0318	14.2
134.0365	8.4
134.8644	5.6
134.8939	11.1
135.0307	8.2
135.0444	100.0
135.9705	3.5
136.0394	11.7
136.0483	9.8
136.0759	5.0
136.8911	5.0
137.0239	22.2
137.0600	13.4
137.0710	2.9
138.0192	6.8
138.0554	25.6

Name: 4-Aminophenol
PrecursorMZ: 108.04462
RT: 5.2169
ExactMass: 109.052763847
Spectrum_type: 2
charge: -1
Formula: C6H7NO
SMILES: C1=CC(=CC=C1N)O
Method: HCD
Collision_energy: [28.333334]
Isolation_window: 4.0
Ion_mode: N
Num Peaks: 6
80.0259	14.7
80.0495	13.9
107.0367	26.8
108.0446	93.6
109.0159	20.1
109.0399	100.0

Name: 4-Carbamoyl-2-acetamidobutanoic acid
PrecursorMZ: 187.07167
RT: 2.2161
ExactMass: 188.07970687
Spectrum_type: 2
charge: -1
Formula: C7H12N2O4
SMILES: CC(=O)NC(CCC(=O)N)C(=O)O
Method: HCD
Collision_energy: [28.333334]
Isolation_window: 4.0
Ion_mode: N
Num Peaks: 29
58.0289	23.2
59.0129	5.4
101.0711	6.1
115.0390	5.6
125.0601	9.4
125.0710	81.5
125.0962	24.9
126.0551	7.5
126.0748	4.8
127.0503	82.8
128.0344	16.4
141.0912	10.5
142.0859	10.3
143.0703	15.2
143.0816	13.2
145.0292	4.1
145.0609	100.0
145.0972	4.2
146.0649	4.4
169.0494	5.3
169.0613	39.7
170.0442	5.1
186.0766	12.8
187.0728	92.1
187.0960	22.5
188.0349	6.4
188.0555	21.6
188.0747	7.8
189.0758	7.7

Name: 4-Decan-4-ylbenzenesulonic acid
PrecursorMZ: 297.15297
RT: 0.5406
ExactMass: 298.16026586
Spectrum_type: 2
charge: -1
Formula: C16H26O3S
SMILES: CCCCCCC(CCC)C1=CC=C(C=C1)S(=O)(=O)O
Method: HCD
Collision_energy: [28.333334]
Isolation_window: 4.0
Ion_mode: N
Num Peaks: 20
59.0129	1.1
61.9875	5.8
116.9276	0.9
183.0112	2.6
253.2536	1.6
255.2329	3.8
277.8205	4.6
278.8192	2.4
295.1781	2.8
295.2260	3.6
295.8314	1.9
296.2316	1.5
297.1529	100.0
297.2086	0.9
297.2432	26.5
297.2769	1.2
298.1562	16.9
298.2469	4.9
299.1508	3.2
299.2589	8.2

Name: 4-Decyl-3-hydroxy-5-oxooxolane-2,3-dicarboxylic acid
PrecursorMZ: 329.16113
RT: 0.6609
ExactMass: 330.16785316
Spectrum_type: 2
charge: -1
Formula: C16H26O7
SMILES: CCCCCCCCCCC1C(=O)OC(C1(C(=O)O)O)C(=O)O
Method: HCD
Collision_energy: [28.333334]
Isolation_window: 4.0
Ion_mode: N
Num Peaks: 101
59.0129	2.3
69.0337	0.6
71.0130	1.0
72.9922	0.5
75.0078	2.1
83.0494	1.3
85.0286	3.1
87.0077	1.6
88.0395	0.8
97.0652	1.3
99.0080	1.5
101.0235	1.3
103.0392	26.5
104.0424	1.4
111.0806	1.2
113.0235	1.1
113.0599	0.9
114.0551	0.6
115.0392	0.6
125.0963	1.3
127.0757	0.7
128.0345	1.8
129.0548	0.7
130.0864	0.7
131.0342	1.5
131.0706	2.6
141.0548	0.7
143.0709	0.6
153.0915	3.8
155.0704	0.6
155.1073	0.6
163.1120	0.9
169.0861	1.4
171.1014	0.8
179.1072	2.4
181.1228	10.8
182.0813	0.9
182.1265	1.2
183.1019	0.7
187.0969	0.6
195.1383	0.7
197.1175	3.0
198.1211	0.6
199.1336	1.7
205.1596	1.5
207.1026	0.7
209.1180	0.6
211.1334	3.1
213.1489	0.7
217.1074	1.1
223.1699	3.5
224.1736	0.6
225.1130	6.0
225.1481	2.4
226.1168	0.8
227.1284	1.2
239.1286	3.1
239.1656	0.9
240.1323	0.7
241.1090	0.5
243.1239	4.3
245.1390	1.6
249.1496	5.5
250.1531	0.8
251.1648	0.7
257.1395	4.4
258.1430	0.6
265.1445	0.8
265.1807	0.7
267.1602	7.7
268.1634	1.3
269.1394	1.6
269.1753	0.9
271.1554	0.6
283.1561	1.6
285.1717	3.5
286.1746	0.8
293.1391	2.4
294.1435	0.6
309.1340	0.6
309.1718	0.7
311.1504	14.7
311.1842	0.7
312.1542	2.5
313.1660	1.7
316.0985	0.5
327.1450	8.5
327.1820	3.5
328.0839	0.6
328.1484	4.0
328.1851	1.2
329.0751	1.1
329.0974	0.9
329.1608	100.0
329.2413	0.6
330.1044	0.8
330.1641	18.0
330.1929	0.7
331.0843	1.0
331.1227	21.5
331.1754	13.4

Name: 4-Feruloylquinic acid
PrecursorMZ: 367.10378
RT: 1.0933
ExactMass: 368.11073221
Spectrum_type: 2
charge: -1
Formula: C17H20O9
SMILES: COC1=C(C=CC(=C1)/C=C/C(=O)OC2[C@@H](CC(C[C@H]2O)(C(=O)O)O)O)O
Method: HCD
Collision_energy: [28.333334]
Isolation_window: 4.0
Ion_mode: N
Num Peaks: 47
59.0130	2.1
60.0082	1.7
61.9875	6.5
67.0180	1.7
71.0130	4.3
81.0337	1.8
83.0494	2.1
85.0286	1.7
87.0079	25.2
93.0337	15.9
94.0371	1.0
103.9981	4.6
109.0286	2.6
110.9748	2.8
111.0078	0.9
111.0443	13.3
113.0236	1.3
115.9199	1.1
127.0395	1.4
129.0185	9.3
134.0365	9.2
135.0452	1.6
137.0235	3.2
139.0395	0.9
149.0600	2.8
155.0343	6.2
161.0234	1.6
173.0450	100.0
174.0482	7.2
178.0263	1.7
191.0556	4.5
193.0501	31.2
194.0536	3.3
218.9957	1.4
229.0703	1.8
295.0983	1.3
323.0919	1.4
323.2226	1.0
349.0229	1.0
365.1302	2.9
365.1994	1.6
366.1292	2.5
367.1040	76.7
367.2043	3.5
368.1078	14.9
369.0987	6.2
369.2268	1.6

Name: 4-Hydroxy-2',3,4',6'-tetramethoxychalcone
PrecursorMZ: 343.11842
RT: 6.048
ExactMass: 344.12598835
Spectrum_type: 2
charge: -1
Formula: C19H20O6
SMILES: COC1=CC(=C(C(=C1)OC)C(=O)/C=C/C2=CC(=C(C=C2)O)OC)OC
Method: HCD
Collision_energy: [28.333334]
Isolation_window: 4.0
Ion_mode: N
Num Peaks: 22
59.0129	9.6
98.0237	6.1
116.0708	8.1
121.0285	13.6
130.0863	10.1
171.1018	6.1
255.0661	5.8
269.0817	32.7
270.0862	6.1
283.0972	35.5
284.1022	13.9
301.1514	8.4
311.0924	16.9
328.0942	12.3
341.1963	25.0
342.1999	11.9
343.1184	100.0
343.2121	46.2
344.1215	22.3
344.2119	8.8
345.1788	8.0
345.2287	5.5

Name: 4-Hydroxy-2,5,6-trichloroisophthalonitrile
PrecursorMZ: 244.90766
RT: 0.735
ExactMass: 245.915446
Spectrum_type: 2
charge: -1
Formula: C8HCl3N2O
SMILES: C(#N)C1=C(C(=C(C(=C1Cl)C#N)Cl)Cl)O
Method: HCD
Collision_energy: [28.333334]
Isolation_window: 4.0
Ion_mode: N
Num Peaks: 3
244.9078	100.0
245.9115	7.7
246.9048	67.1

Name: 4-Hydroxy-2-methoxy-6-methylbenzoic acid
PrecursorMZ: 363.10845
RT: 2.1061
ExactMass: 182.0579088
Spectrum_type: 2
charge: -1
Formula: C9H10O4
SMILES: CC1=CC(=CC(=C1C(=O)O)OC)O
Method: HCD
Collision_energy: [28.333334]
Isolation_window: 4.0
Ion_mode: N
Num Peaks: 12
59.0128	2.9
109.0284	3.2
135.0443	6.1
137.0597	11.5
138.0634	2.0
181.0498	100.0
182.0532	24.5
183.0550	4.5
317.1027	18.1
318.1056	7.1
363.1814	5.4
365.1961	5.0

Name: 4-Hydroxy-3,5-dimethoxycinnamic acid
PrecursorMZ: 223.06076
RT: 2.2674
ExactMass: 224.06847348
Spectrum_type: 2
charge: -1
Formula: C11H12O5
SMILES: COC1=CC(=CC(=C1O)OC)/C=C/C(=O)O
Method: HCD
Collision_energy: [28.333334]
Isolation_window: 4.0
Ion_mode: N
Num Peaks: 57
79.9564	5.2
80.9643	4.3
83.0129	2.3
87.0445	2.3
95.0493	2.4
96.9592	12.0
97.0286	6.5
107.0493	4.0
109.0286	3.2
113.0236	7.2
113.0348	5.2
123.0444	4.6
125.0597	3.7
133.0652	3.6
135.0447	2.2
135.0805	4.2
136.0755	2.2
137.0600	5.6
149.0601	5.1
150.0015	2.3
151.0398	2.5
151.0756	6.2
153.0550	2.6
161.0603	2.4
163.0395	4.0
166.0628	13.1
169.0502	3.7
170.9988	2.6
177.0550	8.4
177.0742	2.8
178.0865	2.8
178.1223	2.4
179.0706	7.6
180.0646	2.9
181.0850	6.3
181.1336	4.1
183.0660	6.8
193.0504	9.8
205.0505	5.8
210.0531	4.9
221.0835	2.6
222.0228	3.1
222.0443	3.1
222.0750	4.3
222.0778	2.2
223.0263	3.3
223.0287	3.1
223.0608	100.0
223.0971	2.3
224.0043	6.0
224.0564	12.5
224.0592	12.6
224.0939	2.6
225.0444	5.6
225.0572	5.1
225.0763	38.8
225.1033	4.1

Name: 4-Hydroxy-6-methyl-2-pyrone
PrecursorMZ: 125.0236
RT: 4.7238
ExactMass: 126.031694049
Spectrum_type: 2
charge: -1
Formula: C6H6O3
SMILES: CC1=CC(=CC(=O)O1)O
Method: HCD
Collision_energy: [28.333334]
Isolation_window: 4.0
Ion_mode: N
Num Peaks: 9
69.0337	14.0
81.0338	21.2
83.0129	14.3
94.0290	37.0
123.9013	31.9
124.0396	51.3
125.0237	100.0
125.8991	24.4
126.0552	12.4

Name: 4-Hydroxy-8-methoxy-5-methyl-3-(3-methylbut-2-enyl)chromen-2-one
PrecursorMZ: 273.11306
RT: 4.687749999999999
ExactMass: 274.12050905
Spectrum_type: 2
charge: -1
Formula: C16H18O4
SMILES: CC1=C2C(=C(C(=O)OC2=C(C=C1)OC)CC=C(C)C)O
Method: HCD
Collision_energy: [28.333334]
Isolation_window: 4.0
Ion_mode: N
Num Peaks: 88
59.0124	3.3
59.0150	1.1
71.0122	2.2
72.9915	1.1
73.0279	2.1
74.0231	2.8
79.9557	1.8
80.9634	2.8
83.0486	1.3
84.0445	1.4
85.0278	2.0
87.0072	4.1
88.0393	1.0
92.9998	5.7
93.0328	3.8
96.9583	2.1
97.0269	1.1
99.0434	1.7
101.0591	3.0
107.0483	4.0
109.0270	1.4
111.0435	2.6
111.0797	2.0
116.0700	1.9
121.0285	4.5
123.0434	2.2
125.0227	1.0
127.0390	1.3
128.0336	1.6
129.0903	1.3
129.1018	1.6
130.0865	3.9
135.0443	12.4
136.0463	1.0
138.0549	1.0
143.1182	3.9
145.0653	1.3
146.0271	1.1
149.0596	1.2
155.0707	1.1
156.1020	2.8
173.0449	5.2
174.0488	1.0
180.0661	4.9
183.0794	1.0
185.0592	1.2
185.1278	1.0
193.0762	3.7
197.0969	1.1
199.0751	2.2
200.0923	2.4
205.0498	3.3
210.0682	2.1
211.0411	1.1
213.0914	2.8
215.1071	4.6
225.0916	7.6
226.0949	1.1
229.0500	9.2
229.0874	1.1
229.1188	6.4
230.0545	1.4
230.0797	1.1
230.0826	1.3
230.1182	1.5
231.0294	4.9
239.0707	1.0
241.0863	6.3
243.1023	100.0
243.1294	2.1
243.1325	2.9
244.1055	16.0
257.0824	2.1
271.0819	6.3
271.1556	1.8
272.0593	1.5
272.0857	11.5
273.0351	15.1
273.1142	41.2
273.1394	1.7
273.1449	2.4
273.1707	10.8
274.0393	2.7
274.0740	2.1
274.1151	7.0
274.1741	1.5
275.0725	1.0
275.1137	2.2

Name: 4-Hydroxybenzaldehyde
PrecursorMZ: 121.0287
RT: 0.7996
ExactMass: 122.03677943
Spectrum_type: 2
charge: -1
Formula: C7H6O2
SMILES: C1=CC(=CC=C1C=O)O
Method: HCD
Collision_energy: [28.333334]
Isolation_window: 4.0
Ion_mode: N
Num Peaks: 14
93.0338	0.4
108.0210	0.5
119.0243	1.7
119.0340	0.4
120.0198	0.4
121.0042	0.8
121.0106	0.6
121.0142	0.5
121.0287	100.0
121.0432	0.6
121.0468	0.8
122.0238	0.9
122.0318	7.5
122.0605	0.4

Name: 4-Hydroxybenzoic acid glucoside
PrecursorMZ: 299.07706
RT: 6.2369
ExactMass: 300.08451746
Spectrum_type: 2
charge: -1
Formula: C13H16O8
SMILES: C1=CC(=CC=C1C(=O)O)OC2C(C(C(C(O2)CO)O)O)O
Method: HCD
Collision_energy: [28.333334]
Isolation_window: 4.0
Ion_mode: N
Num Peaks: 15
93.0337	15.5
137.0236	100.0
138.0270	6.7
141.0912	3.8
145.0980	5.8
168.1020	8.6
171.1022	4.8
283.1552	14.5
297.1832	7.1
299.0779	7.4
299.1512	5.8
299.1987	7.1
299.2587	3.8
300.2210	5.2
301.1654	51.0

Name: 4-Hydroxycinnamaldehyde
PrecursorMZ: 147.04441
RT: 6.7537
ExactMass: 148.052429494
Spectrum_type: 2
charge: -1
Formula: C9H8O2
SMILES: C1=CC(=CC=C1/C=C/C=O)O
Method: HCD
Collision_energy: [28.333334]
Isolation_window: 4.0
Ion_mode: N
Num Peaks: 11
102.0551	18.5
106.0276	77.2
119.0495	16.3
120.0449	14.7
146.0241	16.6
147.0445	100.0
148.0393	21.9
148.0502	16.3
148.0755	27.3
149.0335	57.9
149.0460	13.0

Name: 4-Hydroxycyclohexanecarboxylic acid
PrecursorMZ: 143.07062
RT: 5.5528
ExactMass: 144.078644241
Spectrum_type: 2
charge: -1
Formula: C7H12O3
SMILES: C1CC(CCC1C(=O)O)O
Method: HCD
Collision_energy: [28.333334]
Isolation_window: 4.0
Ion_mode: N
Num Peaks: 6
97.0650	57.9
125.0600	6.4
141.0550	33.7
143.0707	100.0
144.0445	6.4
144.0742	8.9

Name: 4-Hydroxyindole-3-carboxaldehyde
PrecursorMZ: 160.0397
RT: 5.7731
ExactMass: 161.047678466
Spectrum_type: 2
charge: -1
Formula: C9H7NO2
SMILES: C1=CC2=C(C(=C1)O)C(=CN2)C=O
Method: HCD
Collision_energy: [28.333334]
Isolation_window: 4.0
Ion_mode: N
Num Peaks: 38
57.0337	0.6
58.0290	0.9
59.0130	0.6
71.0130	0.6
78.0341	0.7
90.0340	0.9
91.0180	1.5
97.0651	0.9
104.0496	0.9
106.0290	4.2
108.0443	0.5
114.0916	4.2
115.0756	1.3
116.0709	5.2
117.0337	3.6
117.0747	0.6
119.0496	0.9
131.0369	1.3
132.0447	7.6
134.0240	27.1
134.0602	0.9
144.0448	1.1
147.0317	1.2
158.0455	1.1
158.0813	3.5
158.8924	1.2
159.0319	9.0
159.0660	0.9
159.8933	1.9
160.0120	0.7
160.0397	100.0
160.0669	0.6
160.8920	1.8
161.0437	8.6
161.0810	0.5
161.8935	0.9
162.0189	18.4
162.0554	19.8

Name: 4-Hydroxyphenyl acetate
PrecursorMZ: 151.03936
RT: 5.3365
ExactMass: 152.047344113
Spectrum_type: 2
charge: -1
Formula: C8H8O3
SMILES: CC(=O)OC1=CC=C(C=C1)O
Method: HCD
Collision_energy: [28.333334]
Isolation_window: 4.0
Ion_mode: N
Num Peaks: 7
107.0491	13.2
108.0201	35.9
109.0286	16.2
118.8988	19.7
151.0252	100.0
151.0391	50.5
151.0754	14.2

Name: 4-Hydroxyquinoline
PrecursorMZ: 144.04474
RT: 5.0173
ExactMass: 145.052763847
Spectrum_type: 2
charge: -1
Formula: C9H7NO
SMILES: C1=CC=C2C(=C1)C(=O)C=CN2
Method: HCD
Collision_energy: [28.333334]
Isolation_window: 4.0
Ion_mode: N
Num Peaks: 8
99.0807	1.7
101.0600	1.0
116.0497	7.8
143.0346	1.2
144.0447	100.0
145.0488	13.5
145.0861	2.0
146.0604	7.9

Name: 4-Hydroxyquinoline sulfate
PrecursorMZ: 224.00179
RT: 0.7613
ExactMass: 225.00957888
Spectrum_type: 2
charge: -1
Formula: C9H7NO4S
SMILES: C1=CC=C2C(=C1)C(=CC=N2)OS(=O)(=O)O
Method: HCD
Collision_energy: [28.333334]
Isolation_window: 4.0
Ion_mode: N
Num Peaks: 4
144.0447	100.0
145.0483	9.7
222.0773	8.4
224.0020	34.7

Name: 4-Isopropylbenzoic Acid
PrecursorMZ: 163.07576
RT: 2.894
ExactMass: 164.083729621
Spectrum_type: 2
charge: -1
Formula: C10H12O2
SMILES: CC(C)C1=CC=C(C=C1)C(=O)O
Method: HCD
Collision_energy: [28.333334]
Isolation_window: 4.0
Ion_mode: N
Num Peaks: 16
59.0130	26.2
61.9875	25.7
69.4947	2.9
91.0544	8.9
119.0494	15.1
121.0287	24.8
134.0239	2.7
135.0445	3.7
149.0090	3.6
162.0194	11.0
162.0554	45.6
163.0604	4.0
163.0758	100.0
163.1121	3.8
164.0796	11.6
165.0188	3.1

Name: 4-Methoxysalicylic Acid
PrecursorMZ: 167.03551
RT: 0.9702
ExactMass: 168.04225873
Spectrum_type: 2
charge: -1
Formula: C8H8O4
SMILES: COC1=CC(=C(C=C1)C(=O)O)O
Method: HCD
Collision_energy: [28.333334]
Isolation_window: 4.0
Ion_mode: N
Num Peaks: 66
59.0130	4.1
65.0136	2.5
65.9977	1.1
66.0340	1.4
81.0336	1.6
95.0493	3.1
96.0445	1.9
102.0086	1.4
108.0200	1.6
108.0446	13.3
110.0714	15.4
111.0079	1.4
112.0396	1.1
119.0492	1.3
121.0288	1.7
121.0649	2.7
122.0603	21.5
123.0443	9.8
123.0552	1.2
123.0637	1.2
123.0806	4.9
124.0156	1.2
124.0395	2.6
124.0759	8.0
124.9835	3.6
125.0057	9.1
125.0232	1.1
125.0600	3.7
125.0961	1.7
126.0553	2.1
127.0753	1.5
135.0443	14.0
136.0157	1.3
136.0394	3.9
137.0711	1.8
138.0321	1.6
138.0552	4.1
140.0245	3.0
140.0711	2.4
141.0198	3.4
147.0445	1.3
150.0314	1.3
150.0552	4.4
152.0108	10.9
153.0048	1.9
165.0409	9.6
165.0549	5.2
165.0665	2.1
165.1024	1.5
166.0141	10.2
166.0401	2.5
166.0504	10.4
166.0863	3.1
166.0981	3.5
166.9947	1.7
167.0345	100.0
167.0706	7.1
167.0826	2.4
168.0308	9.5
168.0395	2.6
168.0657	22.9
168.1018	2.6
169.0149	1.9
169.0405	1.6
169.0611	20.1
169.0859	2.0

Name: 4-Methyl-2-(2-(3-oxo-2H,3H,5H,6H,7H,8H,9H-cyclohepta(C)pyridazin-2-YL)acetamido)pentanoic acid
PrecursorMZ: 334.17716
RT: 4.6161
ExactMass: 335.18450629
Spectrum_type: 2
charge: -1
Formula: C17H25N3O4
SMILES: CC(C)C[C@@H](C(=O)O)NC(=O)CN1C(=O)C=C2CCCCCC2=N1
Method: HCD
Collision_energy: [28.333334]
Isolation_window: 4.0
Ion_mode: N
Num Peaks: 12
74.0238	43.3
88.0394	24.5
114.0553	19.8
128.0344	10.9
129.1026	22.2
130.0867	20.8
143.1179	10.7
198.1241	10.7
333.1098	16.9
333.1464	12.4
334.1772	100.0
335.1632	12.6

Name: 4-Methyl-2-nitrophenol
PrecursorMZ: 152.03468
RT: 5.9163
ExactMass: 153.042593085
Spectrum_type: 2
charge: -1
Formula: C7H7NO3
SMILES: CC1=CC(=C(C=C1)O)[N+](=O)[O-]
Method: HCD
Collision_energy: [28.333334]
Isolation_window: 4.0
Ion_mode: N
Num Peaks: 3
107.0370	8.0
151.0257	7.9
152.0347	100.0

Name: 4-Methylcatechol
PrecursorMZ: 123.04438
RT: 2.734
ExactMass: 124.052429494
Spectrum_type: 2
charge: -1
Formula: C7H8O2
SMILES: CC1=CC(=C(C=C1)O)O
Method: HCD
Collision_energy: [28.333334]
Isolation_window: 4.0
Ion_mode: N
Num Peaks: 18
65.9977	5.4
79.9565	5.8
81.0336	68.1
94.0289	14.4
95.0131	5.3
121.0036	22.4
121.0287	61.1
122.0241	29.6
122.0325	8.8
123.0080	11.5
123.0193	5.3
123.0443	100.0
123.0545	5.0
123.9012	23.4
124.0066	17.1
124.0396	16.8
124.0480	8.1
125.0236	5.1

Name: 4-Methylidene-5-oxo-2-(14-oxopentadecyl)oxolane-3-carboxylic acid
PrecursorMZ: 365.23291
RT: 3.0113
ExactMass: 366.24062418
Spectrum_type: 2
charge: -1
Formula: C21H34O5
SMILES: CC(=O)CCCCCCCCCCCCCC1C(C(=C)C(=O)O1)C(=O)O
Method: HCD
Collision_energy: [28.333334]
Isolation_window: 4.0
Ion_mode: N
Num Peaks: 5
275.2021	12.3
335.2226	100.0
336.2256	22.6
365.2334	60.5
366.2363	15.5

Name: 4-Nitrophenol
PrecursorMZ: 138.01883
RT: 1.9991
ExactMass: 139.026943022
Spectrum_type: 2
charge: -1
Formula: C6H5NO3
SMILES: C1=CC(=CC=C1[N+](=O)[O-])O
Method: HCD
Collision_energy: [28.333334]
Isolation_window: 4.0
Ion_mode: N
Num Peaks: 6
80.9642	14.7
108.0208	33.5
111.9366	18.9
136.8909	29.1
137.9397	11.4
138.0189	100.0

Name: 4-Nitroquinoline 1-Oxide
PrecursorMZ: 189.03004
RT: 0.6949
ExactMass: 190.03784206
Spectrum_type: 2
charge: -1
Formula: C9H6N2O3
SMILES: C1=CC=C2C(=C1)C(=CC=[N+]2[O-])[N+](=O)[O-]
Method: HCD
Collision_energy: [28.333334]
Isolation_window: 4.0
Ion_mode: N
Num Peaks: 50
59.0120	1.5
71.0484	4.0
72.9913	1.6
73.0277	1.3
75.0069	5.7
83.0120	1.5
83.0493	2.1
84.0445	1.1
85.0285	2.3
87.0078	2.7
87.0441	1.8
97.0286	7.8
97.0650	1.2
99.0079	1.3
99.0442	2.4
102.0551	1.3
111.0804	1.5
113.0235	1.2
113.0600	1.1
115.0391	1.6
125.0236	1.1
125.0600	5.5
125.0963	5.1
127.0030	1.2
127.0392	1.2
141.0186	1.6
143.0343	1.4
143.0706	3.4
144.0477	2.2
145.0400	100.0
146.0437	7.3
147.0452	1.0
147.0651	1.8
159.0298	1.1
169.0499	5.3
171.0293	9.1
187.0263	1.0
187.0608	13.0
187.0966	5.9
187.1322	1.2
188.0348	4.6
188.0659	1.7
188.0939	1.0
189.0410	21.3
189.0558	2.2
189.0774	8.8
190.0475	1.0
191.0013	4.3
191.0350	3.5
191.0721	1.7

Name: 4-Oxobutanoic acid
PrecursorMZ: 101.02339
RT: 5.1839
ExactMass: 102.031694049
Spectrum_type: 2
charge: -1
Formula: C4H6O3
SMILES: C(CC(=O)O)C=O
Method: HCD
Collision_energy: [28.333334]
Isolation_window: 4.0
Ion_mode: N
Num Peaks: 4
57.0336	96.1
99.9247	88.3
101.0233	100.0
101.0597	81.9

Name: 4-Oxododecanedioic acid
PrecursorMZ: 243.12366
RT: 3.5852
ExactMass: 244.13107373
Spectrum_type: 2
charge: -1
Formula: C12H20O5
SMILES: C(CCCC(=O)CCC(=O)O)CCCC(=O)O
Method: HCD
Collision_energy: [28.333334]
Isolation_window: 4.0
Ion_mode: N
Num Peaks: 17
83.0491	1.0
153.1276	0.9
155.0340	1.1
163.1122	8.8
164.1156	0.8
179.1069	1.1
181.0866	16.2
181.1227	18.6
182.0902	1.7
182.1266	1.9
199.1337	1.5
225.1128	7.7
226.1164	0.9
243.1236	100.0
244.1271	12.4
245.0666	1.8
245.1310	1.0

Name: 4-Phenylbutyric Acid
PrecursorMZ: 163.07577
RT: 2.9195
ExactMass: 164.083729621
Spectrum_type: 2
charge: -1
Formula: C10H12O2
SMILES: C1=CC=C(C=C1)CCCC(=O)O
Method: HCD
Collision_energy: [28.333334]
Isolation_window: 4.0
Ion_mode: N
Num Peaks: 10
59.0130	14.9
91.0545	4.2
115.9200	4.0
119.0493	6.7
121.0287	100.0
162.0556	9.7
163.0759	65.7
163.1121	4.9
164.0795	6.6
165.0187	11.9

Name: 4-Sulfooxybenzoic acid
PrecursorMZ: 216.98088
RT: 2.6457
ExactMass: 217.98850908
Spectrum_type: 2
charge: -1
Formula: C7H6O6S
SMILES: C1=CC(=CC=C1C(=O)O)OS(=O)(=O)O
Method: HCD
Collision_energy: [28.333334]
Isolation_window: 4.0
Ion_mode: N
Num Peaks: 35
79.9565	4.2
80.9643	3.9
83.0493	7.2
86.0239	2.4
87.0078	11.7
93.0336	11.4
96.9591	8.3
99.0442	3.2
111.0441	7.9
112.9363	9.2
127.0390	3.8
129.0187	2.5
129.0546	3.0
136.9727	4.5
137.0236	100.0
138.0272	6.5
141.0187	2.3
154.9468	2.3
155.0342	14.3
171.0294	4.1
172.0610	4.0
172.9577	3.8
172.9907	3.9
173.0450	50.2
173.0597	3.1
174.0481	3.3
215.0087	8.5
216.0515	3.0
216.9314	3.4
216.9808	41.2
217.0346	25.5
217.0512	2.7
217.9837	2.4
218.0411	2.3
219.0296	5.2

Name: 4-Tert-octylphenol
PrecursorMZ: 205.15939
RT: 16.399
ExactMass: 206.167065321
Spectrum_type: 2
charge: -1
Formula: C14H22O
SMILES: CC(C)(C)CC(C)(C)C1=CC=C(C=C1)O
Method: HCD
Collision_energy: [28.333334]
Isolation_window: 4.0
Ion_mode: N
Num Peaks: 4
204.9389	5.4
205.1594	100.0
206.1630	16.3
206.9639	5.1

Name: 4-Vinylphenol
PrecursorMZ: 119.04926
RT: 4.9062
ExactMass: 120.057514874
Spectrum_type: 2
charge: -1
Formula: C8H8O
SMILES: C=CC1=CC=C(C=C1)O
Method: HCD
Collision_energy: [28.333334]
Isolation_window: 4.0
Ion_mode: N
Num Peaks: 7
100.9250	16.4
101.9232	4.7
117.9278	100.0
118.9254	26.9
118.9322	5.1
119.0494	63.7
121.0651	16.6

Name: 4-acetyloxy-8-(3-oxo-2-pent-2-enylcyclopenten-1-yl)octanoic acid
PrecursorMZ: 349.20215
RT: 4.682433333333333
ExactMass: 350.20932405
Spectrum_type: 2
charge: -1
Formula: C20H30O5
SMILES: CCC=CCC1=C(CCC1=O)CCCCC(CCC(=O)O)OC(=O)C
Method: HCD
Collision_energy: [28.333334]
Isolation_window: 4.0
Ion_mode: N
Num Peaks: 27
59.0130	5.8
79.9564	1.8
96.9592	9.8
115.0393	3.0
150.0922	2.9
273.1610	3.1
279.1725	1.9
287.2018	3.8
291.1717	2.2
303.1974	1.8
305.2126	3.9
307.1989	1.9
307.2312	4.0
319.1915	36.1
320.1947	7.4
347.1864	8.6
348.1124	3.6
348.1892	4.8
349.0960	2.7
349.1323	4.3
349.2028	100.0
350.1693	1.8
350.2059	22.1
351.1096	1.9
351.1500	11.4
351.1874	7.9
351.2184	14.4

Name: 4-nitro-N-(3,4,5-trimethoxybenzyl)benzamide
PrecursorMZ: 345.10889
RT: 1.6517
ExactMass: 346.1164863
Spectrum_type: 2
charge: -1
Formula: C17H18N2O6
SMILES: COC1=CC(=CC(=C1OC)OC)CNC(=O)C2=CC=C(C=C2)[N+](=O)[O-]
Method: HCD
Collision_energy: [28.333334]
Isolation_window: 4.0
Ion_mode: N
Num Peaks: 17
109.0285	1.9
135.0442	6.3
179.0341	4.6
189.0549	2.6
256.0976	46.7
257.1009	8.0
258.1132	100.0
259.1166	15.7
260.1217	0.9
301.1191	14.2
302.1236	2.3
303.1342	2.2
343.1106	1.3
344.1097	1.0
345.1091	79.9
346.1125	14.5
347.1222	2.8

Name: 4.5-Dimethyl-3-hydroxy-2,5-dihydrofuran-2-one sulfate
PrecursorMZ: 206.99617
RT: 4.2494
ExactMass: 208.00415914
Spectrum_type: 2
charge: -1
Formula: C6H8O6S
SMILES: CC1C(=C(C(=O)O1)OS(=O)(=O)O)C
Method: HCD
Collision_energy: [28.333334]
Isolation_window: 4.0
Ion_mode: N
Num Peaks: 43
58.0289	1.4
71.0493	2.8
74.0238	2.2
78.9672	2.9
79.9564	100.0
80.9642	26.6
81.9521	2.8
85.0285	8.6
86.0239	1.6
96.9592	1.4
97.0283	1.2
99.0441	1.7
108.0446	1.8
113.0234	3.7
115.0390	1.1
119.0494	1.2
125.0235	3.7
127.0391	4.0
135.0440	2.2
143.0342	1.7
147.0441	1.8
151.0061	1.6
162.0550	2.4
163.0391	1.5
163.0754	1.5
164.0708	8.4
179.0012	7.5
184.0009	8.4
184.5023	1.4
200.4994	1.3
206.0125	1.9
206.0317	13.8
206.0804	5.3
206.5340	3.0
206.9960	44.0
207.0113	3.6
207.0299	2.8
207.0512	12.9
207.0659	1.4
207.0851	3.3
207.9994	3.6
208.0606	2.7
209.0477	4.8

Name: 4H-1-Benzopyran-4-one, 5-hydroxy-2-(3-hydroxy-4,5-dimethoxyphenyl)-3,7-dimethoxy-
PrecursorMZ: 373.09314
RT: 3.4551
ExactMass: 374.10016753
Spectrum_type: 2
charge: -1
Formula: C19H18O8
SMILES: COC1=CC(=C2C(=C1)OC(=C(C2=O)OC)C3=CC(=C(C(=C3)OC)OC)O)O
Method: HCD
Collision_energy: [28.333334]
Isolation_window: 4.0
Ion_mode: N
Num Peaks: 25
61.9875	19.3
108.0208	14.0
109.0285	40.9
123.0444	42.4
134.0365	7.7
135.0444	25.7
160.0524	23.4
161.0601	51.3
163.0759	25.0
179.0343	18.0
205.0501	20.7
207.0658	21.3
269.0821	13.2
270.0892	8.4
285.1133	100.0
286.1166	19.3
311.0561	17.3
311.0939	7.1
329.1030	80.1
330.1064	14.7
373.0928	97.0
373.2744	7.8
374.0950	21.3
375.1081	36.7
375.2908	12.2

Name: 4H-1-Benzopyran-4-one, 7-(beta-D-glucopyranosyloxy)-2,3-dihydro-5-hydroxy-2-(4-hydroxyphenyl)-, (2S)-
PrecursorMZ: 433.11394
RT: 0.6633
ExactMass: 434.12129689
Spectrum_type: 2
charge: -1
Formula: C21H22O10
SMILES: C1C(OC2=CC(=CC(=C2C1=O)O)O[C@H]3[C@@H]([C@H]([C@@H]([C@H](O3)CO)O)O)O)C4=CC=C(C=C4)O
Method: HCD
Collision_energy: [28.333334]
Isolation_window: 4.0
Ion_mode: N
Num Peaks: 52
59.0128	2.3
72.9921	5.2
79.9565	1.0
80.9643	1.2
87.0078	1.5
96.9591	6.7
109.0284	3.7
119.0494	1.1
121.0284	1.1
123.0440	1.3
125.0232	1.5
128.0346	2.3
135.0443	9.3
137.0598	11.8
149.0596	1.5
163.0754	1.3
165.0548	2.1
167.0338	1.0
173.0446	1.8
177.0553	1.1
179.0341	4.1
181.0498	66.4
182.0533	4.7
185.0446	1.7
189.0548	1.1
191.0342	1.5
191.0552	2.4
193.0498	1.1
195.0652	2.7
197.0445	1.2
203.0700	2.4
207.0650	1.7
209.0446	2.1
211.0600	1.4
235.0598	1.1
239.0555	12.5
240.0591	1.8
241.0710	3.8
247.0606	1.1
251.0558	3.1
253.0715	1.2
259.0610	1.4
389.1286	1.3
415.1024	1.1
431.1778	10.0
432.0966	2.2
432.1350	3.1
432.1753	2.8
433.1126	100.0
434.1148	25.0
435.1297	34.9
435.1986	1.3

Name: 4MeC13SPC
PrecursorMZ: 383.18979
RT: 1.405
ExactMass: 384.19704529
Spectrum_type: 2
charge: -1
Formula: C20H32O5S
SMILES: CCC(CCCCCCC(C)CCC(=O)O)C1=CC=C(C=C1)S(=O)(=O)O
Method: HCD
Collision_energy: [28.333334]
Isolation_window: 4.0
Ion_mode: N
Num Peaks: 54
69.1932	0.6
69.2747	0.6
72.9922	0.5
73.0287	0.8
79.9564	6.6
80.9599	0.5
80.9643	18.7
95.9514	2.7
96.9535	0.7
96.9592	31.0
97.4674	0.6
98.9550	2.7
98.9632	0.5
136.9906	0.4
168.1388	0.8
201.0183	1.0
231.0695	1.9
271.1024	0.6
299.1323	0.6
327.1273	1.1
335.3322	13.6
336.3357	5.2
337.3478	49.3
338.3513	11.3
339.3548	0.5
341.3063	0.9
365.3430	1.3
381.1732	9.8
381.2122	19.0
381.2177	1.5
381.2282	2.4
381.3376	30.9
382.1359	0.8
382.1771	9.9
382.2159	10.8
382.2217	1.3
382.2284	1.0
382.3408	12.5
383.1523	29.6
383.1912	100.0
383.2274	1.6
383.2958	0.6
383.3531	92.7
383.3910	0.8
383.4361	0.5
383.4557	0.8
384.1125	0.6
384.1543	7.6
384.1945	21.3
384.3566	23.5
385.0912	0.7
385.1679	15.5
385.2066	29.1
385.3607	1.2

Name: 5'-(furan-3-yl)-4a-hydroxy-4,7-dimethylspiro(5,6,7,8a-tetrahydro-1H-naphthalene-8,3'-oxolane)-2,2'-dione
PrecursorMZ: 329.13965
RT: 4.857
ExactMass: 330.1467238
Spectrum_type: 2
charge: -1
Formula: C19H22O5
SMILES: CC1CCC2(C(C13CC(OC3=O)C4=COC=C4)CC(=O)C=C2C)O
Method: HCD
Collision_energy: [28.333334]
Isolation_window: 4.0
Ion_mode: N
Num Peaks: 74
59.0130	6.9
71.0130	3.2
72.9924	3.6
73.0286	3.2
74.0239	7.4
78.9851	8.4
85.0285	5.0
86.0239	9.8
87.0079	6.3
88.0394	6.8
91.0544	13.4
93.0338	4.5
97.0288	3.6
109.0289	3.1
114.0552	4.3
116.0710	7.5
128.0346	4.8
130.0866	12.5
135.0445	50.0
136.0480	9.1
137.0239	4.1
139.1123	7.5
147.0809	7.7
164.0706	3.9
171.1021	21.0
175.0759	6.8
180.0660	3.6
182.0816	3.0
193.0866	100.0
194.0903	10.3
199.0724	3.1
201.1118	3.0
211.1335	11.7
212.1083	5.1
229.1441	6.9
240.0894	5.4
242.1868	4.0
244.0984	3.5
255.1142	26.6
265.2173	5.0
283.1910	3.3
284.0947	2.7
284.1297	2.9
285.1170	3.6
286.1099	4.9
287.0926	6.9
287.1401	15.5
309.2066	4.4
311.1876	3.3
311.2239	3.9
327.1177	3.4
327.1827	4.6
327.2180	46.8
328.0232	5.0
328.0269	3.9
328.0869	7.5
328.1199	6.9
328.1499	5.8
328.1873	12.2
328.2215	14.2
329.1028	54.0
329.1086	12.7
329.1984	5.0
329.2331	78.0
330.1036	13.9
330.1447	16.4
330.2361	15.2
331.0785	3.8
331.0859	4.8
331.1200	5.1
331.1253	3.5
331.1549	3.2
331.1876	10.1
331.2484	4.3

Name: 5'-Thymidylic acid
PrecursorMZ: 321.04903
RT: 3.6536
ExactMass: 322.05660244
Spectrum_type: 2
charge: -1
Formula: C10H15N2O8P
SMILES: CC1=CN(C(=O)NC1=O)[C@H]2C[C@@H]([C@H](O2)COP(=O)(O)O)O
Method: HCD
Collision_energy: [28.333334]
Isolation_window: 4.0
Ion_mode: N
Num Peaks: 17
61.9872	6.0
78.9580	91.8
80.9641	7.7
96.9686	19.2
109.0285	10.3
114.0549	5.3
125.0346	49.1
135.0443	11.4
176.9951	15.8
195.0057	56.8
319.0812	7.1
319.1934	6.4
321.0489	100.0
321.0949	9.1
322.0528	11.7
322.0947	7.0
323.0772	20.3

Name: 5,11,17,19-Tetrahydroxy-15-methyl-2-oxapentacyclo(9.8.0.01,3.04,9.012,17)nonadeca-4(9),5,7-triene-10,13-dione
PrecursorMZ: 359.11399
RT: 3.0784
ExactMass: 360.12090297
Spectrum_type: 2
charge: -1
Formula: C19H20O7
SMILES: CC1CC(=O)C2C(C1)(CC(C34C2(C(=O)C5=C(C3O4)C(=CC=C5)O)O)O)O
Method: HCD
Collision_energy: [28.333334]
Isolation_window: 4.0
Ion_mode: N
Num Peaks: 38
59.0131	2.8
61.9875	8.2
73.0286	24.2
93.0338	5.3
111.0444	2.4
121.0653	2.4
123.0444	3.6
125.0238	4.0
135.0444	100.0
136.0479	8.1
139.0394	3.9
147.0447	3.0
165.0552	2.9
171.0410	2.4
175.0393	2.5
177.0546	3.0
209.0809	4.4
221.0812	3.2
229.0874	4.3
241.0871	21.4
242.0902	3.2
252.0884	2.8
282.0857	2.4
283.0967	3.1
314.1104	5.5
315.1242	84.2
315.1529	2.4
316.1268	17.6
317.0875	2.8
317.1367	2.2
358.0967	8.9
358.1319	6.8
359.1145	69.9
359.2805	2.3
360.1128	22.6
361.0929	12.1
361.1311	9.5
361.2044	7.7

Name: 5,11,17,19-Tetrahydroxy-15-methyl-2-oxapentacyclo)9.8.0.01,3.04,9.012,17(nonadeca-4(9),5,7-triene-10,13-dione
PrecursorMZ: 359.11364
RT: 0.6734
ExactMass: 360.12090297
Spectrum_type: 2
charge: -1
Formula: C19H20O7
SMILES: CC1CC(=O)C2C(C1)(CC(C34C2(C(=O)C5=C(C3O4)C(=CC=C5)O)O)O)O
Method: HCD
Collision_energy: [28.333334]
Isolation_window: 4.0
Ion_mode: N
Num Peaks: 34
59.0129	35.5
72.9920	2.0
109.0284	4.3
121.0286	3.9
128.0343	3.6
135.0443	4.3
149.0598	4.1
150.0678	6.2
151.0391	2.8
152.0470	4.9
164.0470	10.3
165.0546	2.3
189.0551	2.1
195.0653	3.9
239.1068	2.4
243.1018	5.2
255.1023	65.2
256.1069	13.7
271.1010	2.5
271.1299	2.5
297.1112	5.6
298.1108	2.3
315.0940	2.2
315.1235	93.6
316.1266	18.1
341.1037	2.7
358.0964	3.9
358.1352	6.2
359.0789	5.7
359.1139	100.0
360.1156	23.2
360.1830	7.5
361.0898	16.9
361.1282	3.4

Name: 5,6,7-Trimethoxycoumarin
PrecursorMZ: 235.06099
RT: 1.0633
ExactMass: 236.06847348
Spectrum_type: 2
charge: -1
Formula: C12H12O5
SMILES: COC1=C(C(=C2C=CC(=O)OC2=C1)OC)OC
Method: HCD
Collision_energy: [28.333334]
Isolation_window: 4.0
Ion_mode: N
Num Peaks: 80
59.0129	6.6
71.0129	2.6
72.0445	3.7
72.9922	6.2
73.0286	2.7
75.0079	5.2
79.9564	3.2
80.9643	52.7
84.0445	4.4
85.0285	2.9
87.0078	11.5
87.0554	38.3
88.0395	6.3
89.0235	4.6
97.0285	3.8
102.0551	14.4
107.0494	9.2
107.0603	2.5
108.0447	6.8
109.0287	3.0
111.0443	2.8
113.0235	3.5
119.0490	2.9
123.0443	2.6
124.0397	2.5
127.0392	3.1
131.0494	3.6
135.0445	4.8
135.0808	4.7
136.0759	2.5
137.0601	2.6
146.0601	2.4
147.0288	6.0
147.0438	15.5
147.0652	5.4
147.0805	5.2
148.0761	9.7
149.0601	23.9
150.0535	3.1
151.0503	5.8
160.0763	4.7
161.0580	2.4
163.0393	3.7
163.0757	6.6
164.0706	8.6
165.0661	7.5
172.0753	2.5
173.0594	5.4
175.0753	4.9
176.0462	2.3
180.0661	33.7
186.0554	10.6
189.0525	3.0
190.0489	3.7
190.0864	12.1
191.0356	3.1
191.0702	100.0
192.0651	56.5
192.1012	8.7
193.0491	4.5
193.0691	4.0
193.0859	8.0
203.0558	2.9
204.0660	7.2
219.0683	2.6
233.0444	3.4
233.0650	2.7
233.0834	2.5
233.1038	9.0
234.0434	6.3
234.0767	44.7
235.0603	43.0
235.0777	3.7
235.1091	47.9
236.0562	46.5
236.0920	45.7
236.1108	3.5
237.0075	29.1
237.0775	24.5
237.1155	2.7

Name: 5,6-Dihydropenicillic acid
PrecursorMZ: 171.06675
RT: 7.4679
ExactMass: 172.07355886
Spectrum_type: 2
charge: -1
Formula: C8H12O4
SMILES: CC(C)C1(C(=CC(=O)O1)OC)O
Method: HCD
Collision_energy: [28.333334]
Isolation_window: 4.0
Ion_mode: N
Num Peaks: 7
127.0755	100.0
128.0789	8.0
134.8645	18.9
171.0188	6.2
171.0657	23.8
171.1015	10.1
171.1381	11.8

Name: 5,7-Dimethoxy-4'-hydroxyflavanone
PrecursorMZ: 299.09269
RT: 0.6299
ExactMass: 300.09977361
Spectrum_type: 2
charge: -1
Formula: C17H16O5
SMILES: COC1=CC2=C(C(=O)CC(O2)C3=CC=C(C=C3)O)C(=C1)OC
Method: HCD
Collision_energy: [28.333334]
Isolation_window: 4.0
Ion_mode: N
Num Peaks: 49
59.0129	7.7
87.0077	1.3
93.0337	9.9
93.0702	1.1
103.0391	2.7
109.0286	1.5
114.0553	1.6
119.0493	3.4
121.0652	1.1
122.0365	2.6
123.0444	1.0
134.0366	1.0
135.0445	1.7
148.0520	1.3
149.0601	9.2
150.0314	4.4
151.0394	2.4
153.0915	1.6
161.0601	9.1
162.0639	1.0
182.0215	4.6
226.0634	2.3
227.0711	7.9
227.1054	1.4
228.0742	1.0
237.0927	3.6
239.0713	14.9
239.1288	1.0
240.0748	2.5
253.1083	2.6
254.1164	1.1
255.1026	45.0
256.1057	7.0
257.0820	37.0
257.1041	1.0
283.1190	1.1
297.0987	4.1
297.1356	1.1
298.1024	2.1
299.0924	100.0
299.1500	2.6
299.2018	4.3
300.0955	18.2
300.2054	1.0
301.0716	16.5
301.0969	1.3
301.1294	8.9
301.1657	1.5
301.2174	1.8

Name: 5-((4-(4-Carboxyanilino)-5-fluoropyrimidin-2-yl)amino)-2-hydroxybenzoic acid
PrecursorMZ: 383.08033
RT: 4.7278
ExactMass: 384.08699769
Spectrum_type: 2
charge: -1
Formula: C18H13FN4O5
SMILES: C1=CC(=CC=C1C(=O)O)NC2=NC(=NC=C2F)NC3=CC(=C(C=C3)O)C(=O)O
Method: HCD
Collision_energy: [28.333334]
Isolation_window: 4.0
Ion_mode: N
Num Peaks: 52
59.0130	1.0
75.0079	1.6
76.0220	0.8
79.9565	1.1
80.9642	8.0
96.9591	4.1
107.0493	1.3
109.0284	1.1
114.0551	1.7
121.0650	1.0
128.0344	1.4
130.0866	1.2
133.0866	1.0
135.0446	0.9
151.0393	2.8
164.0708	0.9
165.0549	2.2
189.0917	0.8
191.0706	2.1
193.0498	2.4
215.1078	0.9
217.0500	3.7
233.0821	0.9
235.0604	1.2
257.1177	2.8
273.1605	2.3
283.0978	1.3
301.1079	100.0
302.1114	17.6
303.1139	1.6
337.3477	1.2
349.1765	3.2
381.2270	8.7
381.2312	3.1
381.2661	1.4
381.2720	1.3
381.3346	1.6
382.2298	3.4
383.0803	34.4
383.1549	5.5
383.1986	1.1
383.2047	2.0
383.2362	1.5
383.2423	1.1
383.2839	1.6
383.3521	2.9
384.0815	6.1
384.1611	1.7
384.2776	0.9
385.0772	1.6
385.0829	0.8
385.2223	0.7

Name: 5-((E)-2-Carboxyethenyl)-2-methoxyphenyl beta-D-glucopyranosiduronic acid
PrecursorMZ: 369.08342
RT: 3.0923
ExactMass: 370.08999677
Spectrum_type: 2
charge: -1
Formula: C16H18O10
SMILES: COC1=C(C=C(C=C1)/C=C/C(=O)O)O[C@H]2[C@@H]([C@H]([C@@H]([C@H](O2)C(=O)O)O)O)O
Method: HCD
Collision_energy: [28.333334]
Isolation_window: 4.0
Ion_mode: N
Num Peaks: 14
61.9875	100.0
127.0506	16.9
157.0615	12.8
179.0344	36.4
280.1193	10.7
323.0787	37.6
335.1237	11.3
335.1619	23.6
367.1508	16.0
367.2095	11.2
368.1372	19.9
369.1194	10.6
369.1775	16.1
370.1565	13.4

Name: 5-(1,2,4a-Trimethyl-5-(propanoyloxymethyl)-2,3,4,7,8,8a-hexahydronaphthalen-1-yl)-3-methylpentanoic acid
PrecursorMZ: 377.26945
RT: 1.0297
ExactMass: 378.27700969
Spectrum_type: 2
charge: -1
Formula: C23H38O4
SMILES: CCC(=O)OCC1=CCCC2C1(CCC(C2(C)CCC(C)CC(=O)O)C)C
Method: HCD
Collision_energy: [28.333334]
Isolation_window: 4.0
Ion_mode: N
Num Peaks: 15
59.0129	100.0
60.0163	3.3
73.0286	4.2
99.0077	2.0
115.0391	1.8
275.2384	1.8
277.2535	1.4
279.2326	7.0
280.2363	1.4
335.2587	5.0
376.2578	2.1
377.2707	16.6
378.2736	4.1
379.2465	2.4
379.3585	4.8

Name: 5-(2-(2,4-dimethylphenyl)-2-oxoethyl)-1-(1,1-dioxidotetrahydrothiophen-3-yl)-1H-pyrazolo)3,4-d(pyrimidin-4(5H)-one
PrecursorMZ: 399.11395
RT: 8.3728
ExactMass: 400.12052631
Spectrum_type: 2
charge: -1
Formula: C19H20N4O4S
SMILES: CC1=CC(=C(C=C1)C(=O)CN2C=NC3=C(C2=O)C=NN3C4CCS(=O)(=O)C4)C
Method: HCD
Collision_energy: [28.333334]
Isolation_window: 4.0
Ion_mode: N
Num Peaks: 37
59.0129	10.3
71.0128	17.1
72.9922	4.9
73.0285	13.5
74.0238	4.7
75.0078	100.0
83.0128	5.7
85.0285	5.7
87.0078	9.7
89.0233	8.9
97.0284	7.7
101.0234	37.1
113.0233	8.6
115.0391	4.0
117.0184	36.0
119.0341	3.2
127.0503	3.7
128.0343	12.0
146.0450	3.2
159.0654	3.7
161.0449	15.2
164.0707	3.3
207.0770	3.3
219.0502	18.1
237.0611	23.0
279.0719	27.3
321.0814	7.4
336.1192	3.5
339.0925	26.8
340.0966	4.0
380.1079	3.2
397.1220	4.3
398.1197	41.2
399.1141	50.8
400.1267	11.9
401.1208	6.2
401.1730	4.8

Name: 5-(2-(Furan-3-YL)ethyl)-8-hydroxy-5,6,8A-trimethyl-3,4,4A,6,7,8-hexahydronaphthalene-1-carboxylic acid
PrecursorMZ: 331.19148
RT: 0.7935
ExactMass: 332.19875937
Spectrum_type: 2
charge: -1
Formula: C20H28O4
SMILES: CC1CC(C2(C(C1(C)CCC3=COC=C3)CCC=C2C(=O)O)C)O
Method: HCD
Collision_energy: [28.333334]
Isolation_window: 4.0
Ion_mode: N
Num Peaks: 4
287.2019	100.0
288.2048	18.6
331.1916	73.4
332.1940	10.4

Name: 5-(3-Furyl)-2a',5'-dihydroxy-8b'-(hydroxymethyl)-7'-methyldodecahydrospiro(furan-3,6'-naphtho(1,8-bc)furan)-2-one
PrecursorMZ: 377.16058
RT: 0.7909999999999999
ExactMass: 378.16785316
Spectrum_type: 2
charge: -1
Formula: C20H26O7
SMILES: CC1CC2C3(C(C14CC(OC4=O)C5=COC=C5)C(CCC3(CO2)O)O)CO
Method: HCD
Collision_energy: [28.333334]
Isolation_window: 4.0
Ion_mode: N
Num Peaks: 4
209.0820	24.6
319.1184	35.7
377.1607	100.0
378.1646	24.5

Name: 5-(4-Acetyloxy-3-hydroxy-2,5,5,8a-tetramethyl-3,4,4a,6,7,8-hexahydronaphthalen-1-yl)-3-methylpentanoic acid
PrecursorMZ: 379.24913
RT: 0.8264
ExactMass: 380.25627424
Spectrum_type: 2
charge: -1
Formula: C22H36O5
SMILES: CC1=C(C2(CCCC(C2C(C1O)OC(=O)C)(C)C)C)CCC(C)CC(=O)O
Method: HCD
Collision_energy: [28.333334]
Isolation_window: 4.0
Ion_mode: N
Num Peaks: 44
69.0349	1.0
71.0494	2.1
79.9565	3.3
101.0599	6.1
113.0963	1.7
143.1071	2.1
191.1438	4.1
203.1442	1.1
219.1388	12.9
220.1425	2.0
231.1753	12.6
232.1787	5.3
243.1750	0.9
247.1333	0.7
247.1701	1.4
249.1496	7.5
250.1531	2.0
297.2227	1.4
298.2251	0.8
299.2382	3.7
300.2413	0.7
303.2335	0.8
315.2332	2.5
316.2367	1.5
317.2491	2.1
331.2285	2.7
332.2313	0.8
333.2440	15.8
333.3159	0.9
334.2478	4.2
335.2598	25.8
335.3313	14.4
336.2629	5.4
337.3478	1.1
377.2348	37.3
377.3390	3.5
378.2380	26.5
378.3415	1.7
379.2495	100.0
379.3587	28.7
380.2530	22.9
380.3625	7.2
381.2566	2.2
381.3377	46.9

Name: 5-(4-Carboxy-3-methylbutyl)-5,6,8a-trimethyl-3-oxo-3,4,4a,5,6,7,8,8a-octahydronaphthalene-1-carboxylic acid
PrecursorMZ: 349.20213
RT: 5.482
ExactMass: 350.20932405
Spectrum_type: 2
charge: -1
Formula: C20H30O5
SMILES: CC1CCC2(C(C1(C)CCC(C)CC(=O)O)CC(=O)C=C2C(=O)O)C
Method: HCD
Collision_energy: [28.333334]
Isolation_window: 4.0
Ion_mode: N
Num Peaks: 6
287.2015	10.0
305.2129	7.2
348.1901	9.0
349.2034	100.0
350.2071	20.0
351.2178	15.8

Name: 5-(4-methyl-5-oxo-2H-furan-3-yl)pentanoic acid
PrecursorMZ: 197.0815
RT: 2.80865
ExactMass: 198.08920892
Spectrum_type: 2
charge: -1
Formula: C10H14O4
SMILES: CC1=C(COC1=O)CCCCC(=O)O
Method: HCD
Collision_energy: [28.333334]
Isolation_window: 4.0
Ion_mode: N
Num Peaks: 77
55.0293	7.3
59.0130	11.1
71.0130	5.2
73.0285	4.6
83.0494	5.2
87.0080	6.2
89.0235	9.1
94.0289	21.8
96.0079	2.6
96.0446	17.4
98.0238	5.2
99.0080	2.6
99.0444	3.1
101.0234	4.3
108.0446	9.3
109.0286	7.1
109.0647	5.6
110.0241	2.6
110.0352	4.6
110.0603	7.9
111.0443	39.2
111.0806	5.3
112.0396	2.8
113.0234	2.5
114.0551	2.6
123.0451	3.6
123.0554	4.7
124.0396	10.1
124.0507	4.9
125.0234	3.7
125.0598	2.7
126.0553	3.7
127.0393	2.8
128.0345	12.6
128.0708	9.3
134.0604	3.5
135.0556	2.8
135.0807	5.2
136.0396	5.3
136.0508	2.6
136.0761	5.1
136.0871	9.8
137.0598	9.7
137.0964	5.3
151.0611	4.1
151.0759	3.7
152.0343	5.6
152.0709	4.7
152.0821	32.1
153.0188	3.0
153.0550	12.0
153.0663	4.4
153.0917	37.0
154.0500	16.6
154.0850	2.6
154.0973	7.2
155.0344	15.8
155.0705	6.5
155.1071	27.9
156.0662	6.3
179.0706	10.7
180.0773	14.7
181.0488	3.2
181.0859	2.8
195.0865	6.6
195.1029	2.7
196.0743	16.2
196.0964	4.7
197.0433	8.3
197.0814	100.0
197.1171	8.5
198.0389	3.8
198.0883	70.0
199.0242	3.7
199.0589	16.8
199.0977	24.1
199.1326	4.4

Name: 5-(5-(acetyloxymethyl)-1,2,4a-trimethyl-7-oxo-3,4,8,8a-tetrahydro-2H-naphthalen-1-yl)-3-methylpentanoic acid
PrecursorMZ: 377.23369
RT: 4.7039
ExactMass: 378.24062418
Spectrum_type: 2
charge: -1
Formula: C22H34O5
SMILES: CC1CCC2(C(C1(C)CCC(C)CC(=O)O)CC(=O)C=C2COC(=O)C)C
Method: HCD
Collision_energy: [28.333334]
Isolation_window: 4.0
Ion_mode: N
Num Peaks: 50
58.0052	1.0
71.0494	2.9
79.9564	5.8
80.9643	1.7
96.9592	12.4
97.4668	0.7
99.0442	1.1
101.0599	9.4
143.1066	0.8
191.1434	2.0
203.1441	0.7
217.1593	0.7
219.1387	10.3
220.1423	1.3
229.1596	0.6
231.1752	21.7
232.1785	4.3
243.1751	2.2
244.1789	0.6
247.1338	1.4
247.1689	0.7
249.1496	10.9
250.1529	2.2
261.1857	1.4
297.2224	3.4
298.1449	5.1
298.2249	1.1
299.1486	0.7
299.2378	1.5
315.2329	4.7
316.2345	0.9
317.2486	0.8
331.2279	2.6
332.2310	0.6
333.2435	9.0
334.2478	0.7
335.2591	8.8
375.2190	6.5
376.1160	1.0
376.2221	10.4
377.1357	2.5
377.2344	100.0
377.3388	1.5
378.0988	2.4
378.2377	22.6
379.1049	1.2
379.1547	1.2
379.1960	26.0
379.2492	36.5
379.3563	3.9

Name: 5-(5-Hydroxy-3-(hydroxymethyl)pentyl)-8a-(hydroxymethyl)-5,6-dimethyl-3,4,4a,6,7,8-hexahydronaphthalene-1-carboxylic acid
PrecursorMZ: 353.23339
RT: 4.8134
ExactMass: 354.24062418
Spectrum_type: 2
charge: -1
Formula: C20H34O5
SMILES: CC1CCC2(C(C1(C)CCC(CCO)CO)CCC=C2C(=O)O)CO
Method: HCD
Collision_energy: [28.333334]
Isolation_window: 4.0
Ion_mode: N
Num Peaks: 30
57.0338	1.9
59.0130	2.5
73.0285	1.6
96.9592	6.3
139.1120	1.7
157.0865	2.1
169.1228	8.0
183.1022	5.4
233.0454	2.7
275.1670	2.8
289.2175	1.8
291.2325	7.0
307.2288	2.9
309.2433	8.7
310.2448	1.7
311.2589	4.3
317.2126	4.3
335.2231	16.2
336.2250	3.2
337.2386	4.2
351.1835	4.4
351.2182	74.2
352.1859	4.1
352.2217	60.2
353.0904	1.6
353.1617	3.0
353.2335	100.0
354.2368	20.9
355.2123	3.3
355.2496	24.5

Name: 5-(6-(3-Hydroxy-4-methoxyphenyl)-1,3,3a,4,6,6a-hexahydrofuro(3,4-c)furan-3-yl)-2-methoxyphenol
PrecursorMZ: 403.14004
RT: 2.821
ExactMass: 358.14163842
Spectrum_type: 2
charge: -1
Formula: C20H22O6
SMILES: COC1=C(C=C(C=C1)C2C3COC(C3CO2)C4=CC(=C(C=C4)OC)O)O
Method: HCD
Collision_energy: [28.333334]
Isolation_window: 4.0
Ion_mode: N
Num Peaks: 20
79.9565	4.8
96.9592	7.8
115.0392	24.6
121.0288	58.7
133.0499	100.0
134.0532	5.7
165.0551	17.9
225.0919	15.5
269.0820	37.5
270.0848	5.5
281.1037	10.8
287.0924	20.1
385.1296	19.4
386.1334	4.4
401.1574	5.2
402.2363	10.3
402.7341	5.8
403.1379	5.2
403.1809	23.2
403.2389	8.4

Name: 5-)(1E)-2-Carboxyethenyl(-2-hydroxyphenyl ss-D-Glucopyranosiduronic Acid
PrecursorMZ: 355.0674
RT: 0.6299
ExactMass: 356.0743467
Spectrum_type: 2
charge: -1
Formula: C15H16O10
SMILES: C1=CC(=C(C=C1C=CC(=O)O)OC2C(C(C(C(O2)C(=O)O)O)O)O)O
Method: HCD
Collision_energy: [28.333334]
Isolation_window: 4.0
Ion_mode: N
Num Peaks: 59
59.0129	3.2
61.9874	9.0
72.9922	1.6
79.9563	1.5
80.9642	6.1
85.0284	2.4
87.0077	12.5
96.9591	2.8
97.0646	1.2
99.0440	1.4
101.0234	1.1
109.0284	1.2
111.0075	1.3
111.0442	1.7
113.0233	2.3
121.0648	1.1
123.0439	1.3
125.0234	1.2
125.0602	1.6
127.0390	2.1
135.0805	1.5
137.0599	4.7
139.0389	1.4
151.0755	1.5
153.0551	1.6
161.0962	2.0
163.0758	2.6
165.0548	1.2
167.0707	1.6
177.0913	5.4
179.0698	3.0
179.1064	1.5
181.0498	1.3
181.0859	1.6
187.0754	1.3
190.0637	1.3
193.0863	3.1
205.0864	7.8
206.0895	1.2
215.0560	1.5
221.0819	2.3
223.0950	1.3
249.0758	1.8
264.9984	1.8
267.0872	2.0
291.0871	1.2
311.0779	2.6
353.0868	7.5
353.1980	1.5
353.3062	4.2
354.0914	4.7
354.3095	1.2
354.9945	1.2
355.0668	100.0
355.1048	4.6
356.0697	16.9
356.1087	1.5
357.0720	2.0
357.0934	1.8

Name: 5-))2-(4-Carboxyanilino)pyrimidin-4-yl(amino(-2-hydroxybenzoic acid
PrecursorMZ: 365.08912
RT: 7.1153
ExactMass: 366.09641956
Spectrum_type: 2
charge: -1
Formula: C18H14N4O5
SMILES: C1=CC(=CC=C1C(=O)O)NC2=NC=CC(=N2)NC3=CC(=C(C=C3)O)C(=O)O
Method: HCD
Collision_energy: [28.333334]
Isolation_window: 4.0
Ion_mode: N
Num Peaks: 20
59.0128	2.6
71.0128	3.0
80.9642	2.8
85.0286	3.0
87.0079	3.0
101.0234	2.8
128.0346	3.4
129.0184	4.2
130.0866	2.9
191.0360	4.1
191.0551	9.3
191.0819	2.6
203.0822	5.3
217.0522	5.1
233.0476	5.0
347.0785	3.4
364.0915	26.6
365.0893	100.0
366.0919	16.4
367.0791	7.1

Name: 5-))2-)4-(Carboxymethyl)anilino(pyrimidin-4-yl(amino(-2-hydroxybenzoic acid
PrecursorMZ: 379.10539
RT: 3.1422
ExactMass: 380.11206962
Spectrum_type: 2
charge: -1
Formula: C19H16N4O5
SMILES: C1=CC(=CC=C1CC(=O)O)NC2=NC=CC(=N2)NC3=CC(=C(C=C3)O)C(=O)O
Method: HCD
Collision_energy: [28.333334]
Isolation_window: 4.0
Ion_mode: N
Num Peaks: 25
61.9874	0.7
97.0288	0.7
111.0442	1.3
115.0199	1.1
161.0452	1.4
171.0293	0.6
173.0445	0.6
179.0557	1.3
186.0449	1.0
187.0409	3.2
189.0401	1.7
191.0555	8.6
204.0558	1.0
205.0518	4.8
217.0520	2.4
246.0664	1.0
247.0628	3.7
289.0743	1.5
360.0979	1.0
361.0949	3.1
377.2186	1.0
378.1092	22.4
379.1055	100.0
380.1081	14.3
381.1101	2.2

Name: 5-)5-(acetyloxymethyl)-1,2,4a-trimethyl-7-oxo-3,4,8,8a-tetrahydro-2H-naphthalen-1-yl(-3-methylpentanoic acid
PrecursorMZ: 377.23316
RT: 4.7654
ExactMass: 378.24062418
Spectrum_type: 2
charge: -1
Formula: C22H34O5
SMILES: CC1CCC2(C(C1(C)CCC(C)CC(=O)O)CC(=O)C=C2COC(=O)C)C
Method: HCD
Collision_energy: [28.333334]
Isolation_window: 4.0
Ion_mode: N
Num Peaks: 18
59.0129	7.7
114.0551	5.6
116.0704	9.3
215.1397	24.4
287.1617	15.7
315.2330	6.4
331.2275	6.1
332.2300	9.8
333.2431	54.4
334.2471	12.1
359.2230	15.8
361.2382	19.8
377.1923	11.1
377.2336	100.0
377.2707	6.9
378.2321	22.3
379.2106	24.9
379.2498	59.8

Name: 5-)5-Hydroxy-3-(hydroxymethyl)pentyl(-8a-(hydroxymethyl)-5,6-dimethyl-3,4,4a,6,7,8-hexahydronaphthalene-1-carboxylic acid
PrecursorMZ: 353.23374
RT: 0.6206
ExactMass: 354.24062418
Spectrum_type: 2
charge: -1
Formula: C20H34O5
SMILES: CC1CCC2(C(C1(C)CCC(CCO)CO)CCC=C2C(=O)O)CO
Method: HCD
Collision_energy: [28.333334]
Isolation_window: 4.0
Ion_mode: N
Num Peaks: 63
57.0338	1.6
59.0130	2.5
69.0336	1.7
71.0494	1.4
73.0286	1.8
74.0239	5.3
79.9564	1.2
81.0701	2.4
83.0494	1.8
85.0286	1.4
87.0442	1.9
88.0396	1.2
94.0289	1.1
96.9592	6.4
97.0650	1.4
99.0443	1.4
113.0237	1.5
114.0551	6.4
115.0392	10.1
116.0708	2.2
130.0866	11.1
145.0503	1.3
153.0913	1.1
164.0704	1.1
167.1072	1.4
183.1015	1.6
203.0825	4.2
204.0853	2.7
222.0762	1.4
223.0800	1.2
223.1082	3.4
232.0597	2.9
247.1700	3.4
265.1807	1.3
291.2324	3.3
307.2280	5.8
308.2306	2.5
309.2430	7.6
310.2126	1.3
310.2462	1.4
317.2117	1.3
335.2233	10.2
336.2264	2.3
337.2385	2.5
351.1354	2.1
351.1859	2.1
351.2194	17.7
352.1389	7.3
352.1858	4.3
352.2216	9.4
353.0868	2.8
353.1280	3.7
353.1607	2.0
353.1985	3.7
353.2333	100.0
354.1266	1.2
354.1638	1.6
354.2022	10.0
354.2370	19.7
355.1014	2.1
355.1600	5.1
355.2093	2.9
355.2492	22.1

Name: 5-Acetamido-4-oxohexanoic acid
PrecursorMZ: 186.07659
RT: 4.682
ExactMass: 187.0844579
Spectrum_type: 2
charge: -1
Formula: C8H13NO4
SMILES: CC(C(=O)CCC(=O)O)NC(=O)C
Method: HCD
Collision_energy: [28.333334]
Isolation_window: 4.0
Ion_mode: N
Num Peaks: 97
58.0289	3.6
59.0130	9.0
69.0337	5.5
69.0449	2.2
70.0290	7.1
71.0129	4.5
71.0493	3.1
72.0447	2.0
72.9922	7.2
73.0286	7.3
74.0239	7.8
79.9564	3.5
81.0337	3.3
82.0290	1.9
83.0129	3.3
83.0494	5.6
84.0082	2.4
84.0446	100.0
85.0287	6.5
85.0478	4.4
85.0650	2.2
86.0238	6.7
86.0603	4.8
87.0079	13.5
87.0443	15.7
88.0395	8.1
93.0336	2.3
95.0494	4.9
96.0446	8.0
96.9922	5.5
97.0288	4.1
97.0650	9.2
98.0239	13.4
98.0603	5.4
99.0080	2.9
99.0443	11.2
100.0396	4.2
100.0760	1.9
101.0235	2.3
106.9799	2.4
111.0079	2.7
111.0443	5.6
112.0396	12.4
112.0758	1.9
113.0234	24.7
113.0347	19.2
113.0599	8.0
114.0011	2.9
114.0553	12.4
114.0916	5.7
116.0498	12.0
116.0709	2.2
122.0600	2.7
123.0441	7.0
123.0810	2.8
124.0397	7.9
124.0759	4.7
125.0236	3.7
125.0599	7.8
125.0961	2.2
126.0551	1.9
127.0028	5.7
127.0392	5.7
128.0346	11.2
139.0391	2.3
140.0710	30.7
140.1070	2.2
141.0545	6.0
141.0658	3.3
141.0756	3.7
141.0910	5.4
141.1023	5.5
142.0320	2.2
142.0519	13.4
142.0865	12.0
143.0707	14.0
144.0450	3.8
144.0653	5.1
156.0300	2.9
167.0343	8.9
168.0286	4.3
168.0660	3.1
169.0503	4.2
184.0609	19.3
184.0973	19.2
185.0110	13.2
185.0439	26.1
185.0573	4.4
185.0802	8.6
185.0969	2.0
186.0402	2.9
186.0766	86.1
186.1115	2.0
187.0610	53.2
187.0784	7.4
187.0959	14.2
188.0921	4.3

Name: 5-Acetylamino-6-amino-3-methyluracil
PrecursorMZ: 197.06755
RT: 2.2936
ExactMass: 198.07529019
Spectrum_type: 2
charge: -1
Formula: C7H10N4O3
SMILES: CC(=O)NC1=C(NC(=O)N(C1=O)C)N
Method: HCD
Collision_energy: [28.333334]
Isolation_window: 4.0
Ion_mode: N
Num Peaks: 13
72.0446	14.3
85.0397	2.8
97.0399	3.1
98.0350	9.0
127.0505	100.0
128.0543	4.7
140.0458	50.3
141.0500	2.0
154.0615	55.9
155.0559	2.0
155.0650	2.4
197.0675	73.7
198.0711	6.0

Name: 5-Acetylsalicylic acid
PrecursorMZ: 179.03424
RT: 5.0745
ExactMass: 180.04225873
Spectrum_type: 2
charge: -1
Formula: C9H8O4
SMILES: CC(=O)C1=CC(=C(C=C1)O)C(=O)O
Method: HCD
Collision_energy: [28.333334]
Isolation_window: 4.0
Ion_mode: N
Num Peaks: 25
79.9563	2.0
80.9642	9.3
86.0237	2.4
90.9226	3.6
92.0496	6.9
93.0338	1.6
108.9332	7.4
109.0400	1.6
134.0602	2.1
135.0356	1.6
135.0444	100.0
135.0555	18.5
136.0395	10.8
136.0482	7.5
137.0347	1.6
137.0603	1.8
137.9935	3.1
161.0350	2.7
178.0863	3.7
179.0025	2.3
179.0343	55.2
179.0464	18.3
180.0336	4.2
180.0370	5.7
180.9998	3.9

Name: 5-Amino-2-methylbenzenesulfonic acid
PrecursorMZ: 186.02226
RT: 7.6311
ExactMass: 187.03031432
Spectrum_type: 2
charge: -1
Formula: C7H9NO3S
SMILES: CC1=C(C=C(C=C1)N)S(=O)(=O)O
Method: HCD
Collision_energy: [28.333334]
Isolation_window: 4.0
Ion_mode: N
Num Peaks: 20
59.0130	6.0
72.9921	5.0
79.9564	100.0
82.9602	5.0
88.0394	9.6
97.0648	4.9
100.0395	8.9
101.0234	5.0
114.0550	7.2
116.0343	6.6
116.0707	9.7
125.0961	12.4
142.0868	5.5
143.0708	6.2
166.9827	6.7
184.9906	6.3
186.0223	86.9
187.0263	8.8
187.0605	8.9
187.0948	9.3

Name: 5-Hydroxy-2,6,6,10-tetramethyl-16-oxo-11,13-dioxatetracyclo(8.8.0.02,7.012,17)octadeca-12(17),14-diene-14-carboxylic acid
PrecursorMZ: 375.18143
RT: 7.2223
ExactMass: 376.18858861
Spectrum_type: 2
charge: -1
Formula: C21H28O6
SMILES: CC1(C2CCC3(C(C2(CCC1O)C)CC4=C(O3)OC(=CC4=O)C(=O)O)C)C
Method: HCD
Collision_energy: [28.333334]
Isolation_window: 4.0
Ion_mode: N
Num Peaks: 27
108.0449	1.2
135.0450	1.4
147.0446	2.6
147.0806	1.2
151.0507	11.3
257.1303	1.4
269.1553	2.3
269.1916	1.0
287.2024	1.9
295.1702	1.3
313.1456	4.7
313.1819	1.8
314.1483	1.3
331.1302	4.2
331.1921	2.0
357.1713	3.4
373.2749	9.9
374.2781	4.7
375.1189	4.4
375.1831	28.7
375.2907	100.0
376.1067	1.9
376.1873	5.9
376.2941	24.4
377.1305	1.1
377.2972	1.7
393.3001	1.5

Name: 5-Hydroxy-7-(hydroxymethyl)-2-methyl-2-(5-oxooxolan-2-yl)-3H-chromen-4-one
PrecursorMZ: 291.08771
RT: 1.0954
ExactMass: 292.09468823
Spectrum_type: 2
charge: -1
Formula: C15H16O6
SMILES: CC1(CC(=O)C2=C(C=C(C=C2O1)CO)O)C3CCC(=O)O3
Method: HCD
Collision_energy: [28.333334]
Isolation_window: 4.0
Ion_mode: N
Num Peaks: 39
61.9875	5.7
107.0492	2.3
109.0284	2.2
125.0236	1.8
129.1027	3.3
130.0866	4.8
135.0444	2.5
141.1027	2.2
161.0238	2.6
163.0395	2.2
177.0552	1.9
180.0663	1.5
187.1083	1.7
189.0550	1.6
202.0490	1.2
203.0709	1.5
211.0759	3.0
227.0714	1.1
229.0866	12.9
230.0903	2.1
231.0655	2.4
247.0983	2.2
248.0927	1.2
249.0766	7.5
249.1606	1.6
289.0709	11.6
289.1177	1.4
289.1574	1.1
290.0736	4.1
290.1044	7.5
290.1426	1.2
291.0873	100.0
291.1326	2.1
292.0884	18.2
292.1207	4.3
292.1583	2.3
293.0657	1.7
293.1010	2.5
293.1507	30.1

Name: 5-Hydroxydecanoic acid
PrecursorMZ: 187.13332
RT: 3.7917
ExactMass: 188.1412445
Spectrum_type: 2
charge: -1
Formula: C10H20O3
SMILES: CCCCCC(CCCC(=O)O)O
Method: HCD
Collision_energy: [28.333334]
Isolation_window: 4.0
Ion_mode: N
Num Peaks: 7
108.0445	10.3
141.1277	63.1
144.0445	10.2
145.0401	17.1
187.0610	18.3
187.1334	100.0
188.1368	8.9

Name: 5-Hydroxyindoleacetic Acid
PrecursorMZ: 190.05046
RT: 1.5079
ExactMass: 191.058243149
Spectrum_type: 2
charge: -1
Formula: C10H9NO3
SMILES: C1=CC2=C(C=C1O)C(=CN2)CC(=O)O
Method: HCD
Collision_energy: [28.333334]
Isolation_window: 4.0
Ion_mode: N
Num Peaks: 11
128.0497	2.7
131.0368	2.5
132.0447	1.5
144.0447	25.2
145.0484	2.2
146.0603	100.0
147.0639	9.1
172.0396	5.0
189.0398	1.8
190.0503	34.7
191.0538	3.9

Name: 5-Methoxy-2-sulfooxybenzoic acid
PrecursorMZ: 246.99167
RT: 0.8275
ExactMass: 247.99907376
Spectrum_type: 2
charge: -1
Formula: C8H8O7S
SMILES: COC1=CC(=C(C=C1)OS(=O)(=O)O)C(=O)O
Method: HCD
Collision_energy: [28.333334]
Isolation_window: 4.0
Ion_mode: N
Num Peaks: 5
167.0344	100.0
168.0377	9.7
184.0015	13.0
246.9918	20.1
248.0803	29.8

Name: 5-Methoxysalicylic Acid
PrecursorMZ: 167.03415
RT: 7.1209
ExactMass: 168.04225873
Spectrum_type: 2
charge: -1
Formula: C8H8O4
SMILES: COC1=CC(=C(C=C1)O)C(=O)O
Method: HCD
Collision_energy: [28.333334]
Isolation_window: 4.0
Ion_mode: N
Num Peaks: 20
72.0082	5.5
108.0208	9.0
122.0239	100.0
123.0272	6.1
123.0443	7.1
124.0143	3.3
126.0188	5.3
148.0478	21.6
148.9724	5.7
149.0500	4.1
152.0107	32.6
165.0747	13.2
166.0140	5.5
166.0524	2.5
166.0752	2.8
166.9830	7.4
167.0341	11.4
168.9906	3.7
169.0249	2.7
184.9937	1.8

Name: 5-Methoxytryptophan
PrecursorMZ: 233.09288
RT: 4.6001
ExactMass: 234.10044231
Spectrum_type: 2
charge: -1
Formula: C12H14N2O3
SMILES: COC1=CC2=C(C=C1)NC=C2C[C@@H](C(=O)O)N
Method: HCD
Collision_energy: [28.333334]
Isolation_window: 4.0
Ion_mode: N
Num Peaks: 73
72.9923	4.9
74.0238	17.4
79.9564	5.8
80.9642	5.0
83.0495	5.0
88.0395	14.0
94.0288	6.0
96.9591	7.4
97.0295	5.0
97.0398	39.9
99.0555	3.8
107.0367	23.8
107.0606	4.3
108.0451	4.5
110.0238	4.2
120.0447	7.3
122.0477	7.0
124.0395	4.7
124.0762	3.7
126.0550	5.1
130.0865	5.7
136.0757	7.6
143.1183	16.5
146.0603	42.7
146.0959	3.8
148.0399	4.9
148.0762	5.3
151.0268	49.9
155.0456	7.2
158.0607	8.0
160.0393	6.0
160.0766	9.3
161.0708	9.7
162.0554	7.5
162.0789	4.3
163.0869	5.0
167.0459	6.2
168.0495	4.5
169.0976	7.1
172.0759	6.4
173.0714	5.6
174.0555	4.8
184.0011	5.3
187.0881	11.1
187.1087	59.8
188.0350	7.2
188.0709	31.5
188.1107	13.9
189.0663	15.3
189.1026	73.6
190.0505	24.8
190.0872	27.5
190.1048	6.6
191.0821	100.0
204.0659	7.8
205.0733	7.4
206.0805	4.0
214.0507	3.9
215.0819	6.4
216.0660	9.4
231.0526	9.8
231.1338	13.3
232.0616	74.4
232.0952	9.9
232.1347	5.1
233.0662	13.2
233.0924	74.3
234.0439	10.9
234.0775	43.6
234.1130	11.7
235.0508	4.5
235.0733	26.4
235.1135	20.5

Name: 5-Methyl-2'-O-methyluridine
PrecursorMZ: 271.09371
RT: 4.4729
ExactMass: 272.10083623
Spectrum_type: 2
charge: -1
Formula: C11H16N2O6
SMILES: CC1=CN(C(=O)NC1=O)[C@H]2[C@@H]([C@@H]([C@H](O2)CO)O)OC
Method: HCD
Collision_energy: [28.333334]
Isolation_window: 4.0
Ion_mode: N
Num Peaks: 58
59.0129	6.1
71.0130	6.6
72.9923	3.0
84.0446	4.6
85.0285	2.7
87.0078	4.7
114.0551	2.2
121.0400	3.6
122.0240	2.3
123.0447	2.2
123.0808	2.5
125.0236	2.5
127.0502	2.1
128.0343	2.4
137.0611	2.6
137.0823	5.0
139.0394	4.0
139.0760	4.7
145.0610	9.3
149.0710	4.9
162.0552	3.5
163.1119	2.4
165.0544	3.4
167.0705	2.6
181.0614	21.2
182.0818	2.4
183.0641	3.2
192.0652	3.5
193.0616	22.4
209.0452	2.1
211.0731	22.0
211.1332	2.6
227.0541	4.8
228.1019	2.1
228.1354	2.0
229.0696	2.8
252.0853	2.3
254.1144	3.2
255.0489	2.4
269.0676	2.9
269.0789	2.8
269.2165	3.1
269.2487	100.0
270.0626	3.4
270.0968	4.6
270.1468	2.1
270.2521	24.0
271.0142	3.3
271.0460	5.5
271.0938	86.4
271.1382	3.8
271.2554	2.4
272.0768	6.4
272.0973	6.9
272.1216	13.2
273.0609	14.3
273.1060	2.3
273.1343	9.5

Name: 5-Methylcytosine
PrecursorMZ: 124.05058
RT: 16.3288
ExactMass: 125.058911855
Spectrum_type: 2
charge: -1
Formula: C5H7N3O
SMILES: CC1=C(NC(=O)N=C1)N
Method: HCD
Collision_energy: [28.333334]
Isolation_window: 4.0
Ion_mode: N
Num Peaks: 7
81.0448	100.0
82.0289	64.9
82.0400	58.0
122.0349	59.0
123.0556	81.3
124.0505	42.4
125.0347	48.6

Name: 5-Nitroisophthalic acid
PrecursorMZ: 210.00393
RT: 3.3183
ExactMass: 211.01168688
Spectrum_type: 2
charge: -1
Formula: C8H5NO6
SMILES: C1=C(C=C(C=C1C(=O)O)[N+](=O)[O-])C(=O)O
Method: HCD
Collision_energy: [28.333334]
Isolation_window: 4.0
Ion_mode: N
Num Peaks: 11
80.9642	5.4
94.0290	12.5
95.0129	11.9
122.0239	100.0
123.0080	21.1
123.0272	5.0
166.0140	50.3
209.0118	11.7
210.0043	9.5
210.9891	10.3
212.0200	11.4

Name: 5-Nitrosalicylic acid
PrecursorMZ: 182.00857
RT: 0.8285
ExactMass: 183.01677226
Spectrum_type: 2
charge: -1
Formula: C7H5NO5
SMILES: C1=CC(=C(C=C1[N+](=O)[O-])C(=O)O)O
Method: HCD
Collision_energy: [28.333334]
Isolation_window: 4.0
Ion_mode: N
Num Peaks: 5
108.0207	17.2
138.0187	100.0
139.0223	5.4
182.0087	32.4
183.0115	5.7

Name: 5-O-Methylsulochrin
PrecursorMZ: 345.09775
RT: 3.825
ExactMass: 346.10525291
Spectrum_type: 2
charge: -1
Formula: C18H18O7
SMILES: CC1=CC(=C(C(=C1)O)C(=O)C2=C(C=C(C=C2OC)OC)C(=O)OC)O
Method: HCD
Collision_energy: [28.333334]
Isolation_window: 4.0
Ion_mode: N
Num Peaks: 37
59.0129	22.3
93.0335	2.9
109.0286	3.1
135.0443	88.9
136.0476	8.8
149.0599	2.3
151.0756	42.1
152.0791	4.2
163.0758	2.0
173.0812	2.4
179.0705	2.4
195.0653	2.8
207.0655	2.7
223.0596	2.2
229.0868	15.4
230.0906	2.4
239.0729	8.4
239.1072	10.6
240.0750	2.9
241.0867	16.8
242.0903	2.9
255.1024	10.5
256.1058	4.5
257.1181	18.1
258.1216	3.6
283.0981	5.1
299.0924	4.9
300.0944	2.4
301.1079	100.0
302.1112	17.6
343.0819	14.6
343.1190	6.2
344.0851	8.5
344.1221	3.1
345.0976	99.5
346.1010	18.6
347.1116	2.0

Name: 5-hydroxy-2-methyl-1H-indole-3-carboxylic acid
PrecursorMZ: 190.05042
RT: 0.7878
ExactMass: 191.058243149
Spectrum_type: 2
charge: -1
Formula: C10H9NO3
SMILES: CC1=C(C2=C(N1)C=CC(=C2)O)C(=O)O
Method: HCD
Collision_energy: [28.333334]
Isolation_window: 4.0
Ion_mode: N
Num Peaks: 11
128.0497	2.4
131.0368	1.4
132.0450	0.9
144.0447	25.8
145.0399	5.1
145.0494	1.7
146.0604	100.0
147.0639	9.8
172.0396	5.3
190.0504	35.9
191.0543	5.0

Name: 5-hydroxy-4-(hydroxymethyl)-3,7-dimethoxy-6-methyl-3H-2-benzofuran-1-one
PrecursorMZ: 253.07136
RT: 0.6441
ExactMass: 254.07903816
Spectrum_type: 2
charge: -1
Formula: C12H14O6
SMILES: CC1=C(C(=C2C(OC(=O)C2=C1OC)OC)CO)O
Method: HCD
Collision_energy: [28.333334]
Isolation_window: 4.0
Ion_mode: N
Num Peaks: 135
57.0335	1.3
59.0129	5.1
69.0336	1.6
71.0128	1.4
72.9921	6.5
73.0286	2.6
79.9562	2.2
80.9640	3.7
80.9971	1.4
81.0336	2.0
83.0127	1.0
84.0444	5.0
85.0284	3.6
87.0077	5.0
88.0392	0.9
95.0128	3.9
95.0493	2.4
96.0444	1.0
97.0285	5.2
99.0075	1.1
99.0440	2.2
107.0494	1.9
108.0445	3.6
109.0283	1.3
109.0648	2.6
110.0238	2.4
111.0077	1.3
111.0187	0.9
111.0439	2.6
112.0392	1.1
113.0234	3.0
114.0551	3.0
121.0648	1.2
122.0602	2.0
123.0440	6.6
123.0551	4.4
123.0804	4.4
124.0395	3.7
125.0235	9.7
125.0598	2.8
126.0552	1.9
127.0392	3.9
128.0343	11.5
129.0183	1.7
133.0651	1.5
135.0443	2.4
135.0808	1.5
136.0517	1.7
136.0756	2.0
137.0237	3.3
137.0600	8.7
137.0960	1.4
138.0547	2.1
139.0391	3.1
139.0756	2.3
142.0497	0.9
143.0341	1.0
147.0439	0.9
147.0805	3.4
148.0754	1.1
149.0601	4.9
149.0960	1.2
150.0549	1.4
150.0670	1.0
151.0392	4.2
151.0752	2.7
151.0870	1.3
152.0705	1.2
152.1072	1.2
153.0547	3.6
155.0339	1.6
161.0598	6.1
162.0546	1.0
163.0387	1.3
163.0756	3.7
164.0705	1.4
165.0547	4.0
165.0909	8.4
165.1029	2.8
166.0498	0.9
166.0861	1.3
167.0337	1.5
167.0706	5.4
167.1065	1.4
177.0540	2.5
178.0493	1.6
178.0863	1.5
179.0345	2.3
179.0702	5.8
180.0403	1.2
180.0655	18.0
181.0496	3.7
181.0685	1.0
181.0859	1.4
181.0978	1.1
189.0547	3.6
190.0497	6.0
190.0862	1.4
191.0339	1.2
191.0699	5.7
192.0651	4.8
193.0499	13.6
193.0863	1.3
194.0537	1.0
195.0656	1.6
197.0447	1.7
206.0447	1.1
207.0647	3.0
207.0988	2.6
208.0959	5.3
209.0435	1.0
209.0791	9.8
209.1301	8.8
210.0762	12.4
210.1129	1.2
211.0606	13.5
211.0965	2.0
212.0631	1.0
223.0607	4.8
233.0447	4.2
233.0825	1.1
234.0400	4.7
235.0615	2.9
236.0558	1.7
251.0554	24.6
251.0942	34.9
252.0570	7.2
252.0907	9.8
253.0712	100.0
253.1131	12.4
254.0671	42.8
254.1025	2.3
255.0498	8.7
255.0869	17.5
255.1246	1.4

Name: 5alpha-Tetrahydrocortisol
PrecursorMZ: 411.23916
RT: 3.0937
ExactMass: 366.24062418
Spectrum_type: 2
charge: -1
Formula: C21H34O5
SMILES: C[C@]12CC[C@H](C[C@@H]1CC[C@@H]3[C@@H]2[C@H](C[C@]4([C@H]3CC[C@@]4(C(=O)CO)O)C)O)O
Method: HCD
Collision_energy: [28.333334]
Isolation_window: 4.0
Ion_mode: N
Num Peaks: 8
335.2229	49.1
336.2264	10.5
365.2338	79.1
366.2376	18.7
372.1570	11.6
411.2391	100.0
412.2426	22.3
413.2697	20.0

Name: 6''-O-Malonyldaidzin
PrecursorMZ: 501.10449
RT: 5.6518
ExactMass: 502.11112613
Spectrum_type: 2
charge: -1
Formula: C24H22O12
SMILES: C1=CC(=CC=C1C2=COC3=C(C2=O)C=CC(=C3)O[C@H]4[C@@H]([C@H]([C@@H]([C@H](O4)COC(=O)CC(=O)O)O)O)O)O
Method: HCD
Collision_energy: [28.333334]
Isolation_window: 4.0
Ion_mode: N
Num Peaks: 15
112.9871	75.3
119.0494	26.2
135.0443	7.4
161.0601	8.1
163.0394	31.6
223.0759	16.6
237.0923	10.6
265.0867	17.5
277.0351	10.2
283.0974	41.7
284.1011	7.3
325.1082	23.5
327.0875	100.0
328.0904	16.6
369.0983	6.4

Name: 6,10a-Dihydroxy-4-(hydroxymethyl)-4,7,11b-trimethyl-1,2,3,4a,5,6,6a,7,11,11a-decahydronaphtho(2,1-f)(1)benzofuran-9-one
PrecursorMZ: 349.20206
RT: 5.7984
ExactMass: 350.20932405
Spectrum_type: 2
charge: -1
Formula: C20H30O5
SMILES: CC1C2C(CC3C(CCCC3(C2CC4(C1=CC(=O)O4)O)C)(C)CO)O
Method: HCD
Collision_energy: [28.333334]
Isolation_window: 4.0
Ion_mode: N
Num Peaks: 82
58.0046	0.7
59.0125	2.4
69.2531	0.4
71.0124	0.6
73.0280	0.8
78.9582	0.4
79.9564	0.5
80.9644	0.4
83.0489	0.5
87.0080	0.5
87.0440	1.3
96.9592	0.9
113.0601	0.4
114.0555	0.4
115.0392	1.2
120.0811	1.2
122.0606	0.4
124.0758	0.6
134.0599	0.5
148.0760	0.9
150.0918	1.0
155.0711	0.5
163.1120	0.5
164.0712	0.5
175.0247	0.4
178.1230	0.6
190.1229	0.7
229.1341	0.4
230.1561	0.4
245.1655	0.5
247.2066	0.4
250.1453	0.5
256.1340	0.5
257.1911	2.9
258.1946	0.5
259.1702	0.4
260.1737	0.4
273.1604	2.6
273.1866	1.2
274.1641	0.4
275.2018	2.5
276.2051	0.4
277.1805	0.7
277.2163	0.5
279.1710	0.8
285.1862	1.4
287.2019	6.0
288.2035	1.3
291.1710	1.0
301.1806	0.4
303.1609	0.5
303.1963	6.5
304.1635	0.6
304.2001	1.5
305.1813	0.5
305.2123	16.1
306.2156	3.1
307.2298	1.2
317.1498	1.1
319.1920	0.4
331.1916	0.6
332.1894	0.4
337.2023	1.6
347.1506	2.2
347.2062	1.1
347.2099	0.6
347.2470	0.9
348.1149	0.5
348.1540	3.2
348.1958	0.4
349.0883	0.4
349.1124	0.5
349.1326	1.4
349.2029	100.0
349.2738	0.4
349.2914	0.5
350.1283	0.4
350.1328	0.4
350.2056	22.2
351.1104	0.4
351.1887	2.1
351.2163	3.1

Name: 6,10a-Dihydroxy-4-(hydroxymethyl)-4,7,11b-trimethyl-1,2,3,4a,5,6,6a,7,11,11a-decahydronaphtho)2,1-f()1(benzofuran-9-one
PrecursorMZ: 349.20235
RT: 0.6335
ExactMass: 350.20932405
Spectrum_type: 2
charge: -1
Formula: C20H30O5
SMILES: CC1C2C(CC3C(CCCC3(C2CC4(C1=CC(=O)O4)O)C)(C)CO)O
Method: HCD
Collision_energy: [28.333334]
Isolation_window: 4.0
Ion_mode: N
Num Peaks: 23
73.0287	0.6
257.1907	1.6
273.1605	1.4
275.2014	1.3
285.1864	0.6
287.2018	3.9
288.2042	0.9
303.1971	3.9
304.2008	0.7
305.2124	11.0
306.2157	1.9
317.1499	0.6
337.2037	0.9
348.1548	0.6
349.0913	0.8
349.1092	0.7
349.1320	1.1
349.2027	100.0
350.1263	1.1
350.2061	22.0
351.1103	1.4
351.1812	1.2
351.2187	3.2

Name: 6,11-dioxododecanoic Acid
PrecursorMZ: 227.12856
RT: 4.8655
ExactMass: 228.13615911
Spectrum_type: 2
charge: -1
Formula: C12H20O4
SMILES: CC(=O)CCCCC(=O)CCCCC(=O)O
Method: HCD
Collision_energy: [28.333334]
Isolation_window: 4.0
Ion_mode: N
Num Peaks: 82
57.0337	8.7
59.0130	15.7
69.0337	1.1
71.0130	1.3
71.0493	2.0
72.9922	1.1
73.0286	0.9
79.9566	1.6
80.9643	5.2
81.0336	0.7
83.0494	1.1
85.0288	1.2
87.0080	0.8
87.0442	0.7
95.0494	1.1
96.9592	0.8
97.0650	6.8
99.0442	1.0
108.0443	0.9
109.0650	2.2
110.0602	0.7
111.0443	0.9
111.0807	2.3
113.0346	0.7
115.0391	1.0
116.0709	1.7
119.0860	1.3
121.0648	0.9
122.9749	0.8
123.0443	0.7
123.0807	2.4
124.0396	1.1
125.0602	1.1
126.0551	1.5
127.0756	0.9
135.1169	1.1
136.0066	3.0
137.0598	0.7
137.0964	2.0
138.0553	1.0
139.0393	0.9
139.0757	1.1
139.1122	1.4
144.0450	1.0
149.0964	1.1
153.0662	0.8
155.1434	0.7
163.1121	1.0
165.0915	0.7
165.1278	1.7
167.1070	2.8
180.0027	1.6
181.1228	5.0
182.0186	6.7
183.0219	0.7
183.0655	0.7
183.1020	0.7
183.1384	3.6
185.1179	0.9
185.1543	0.6
209.1180	2.0
225.0770	0.6
225.1130	6.9
226.0092	2.9
226.0728	1.2
226.0855	1.5
226.1159	2.1
227.0192	1.6
227.0221	0.8
227.0354	0.8
227.0562	1.7
227.0797	0.8
227.0918	1.7
227.1286	100.0
227.1654	1.1
227.1757	0.6
227.2010	4.0
228.1031	1.5
228.1322	11.9
229.0708	2.6
229.1087	5.5
229.1448	4.6

Name: 6,7-dihydroxy-5-(3-hydroxy-2-(methoxymethyl)-5-methylphenoxy)-4-methyl-3H-2-benzofuran-1-one
PrecursorMZ: 345.09787
RT: 7.6992
ExactMass: 346.10525291
Spectrum_type: 2
charge: -1
Formula: C18H18O7
SMILES: CC1=CC(=C(C(=C1)OC2=C(C(=C3C(=C2C)COC3=O)O)O)COC)O
Method: HCD
Collision_energy: [28.333334]
Isolation_window: 4.0
Ion_mode: N
Num Peaks: 130
59.0128	26.5
59.0155	2.4
71.0126	4.4
72.9921	16.3
74.0235	2.1
75.0077	1.9
78.9581	4.7
80.9638	3.5
85.0285	3.0
87.0079	5.1
88.0396	4.9
89.0235	2.7
93.0336	5.0
96.0082	2.0
100.0385	1.8
101.0235	5.8
105.0184	23.0
107.0497	3.1
108.0205	2.0
109.0287	20.5
110.0229	2.4
111.0445	2.8
112.0387	1.7
113.0235	2.1
113.0340	1.9
114.0555	4.0
115.0028	3.0
116.0710	3.3
119.0493	2.0
121.0289	2.2
122.0355	2.0
123.0439	3.8
123.0801	1.8
124.0396	3.0
127.0498	1.8
128.0346	8.9
134.0600	2.3
135.0444	68.8
135.0541	1.8
136.0477	6.0
137.0242	2.1
137.0602	5.1
138.0544	1.6
139.0379	1.9
144.0659	6.0
145.0612	2.8
147.0440	2.3
148.0522	5.8
149.0603	14.2
151.0380	1.7
151.0758	41.5
152.0803	3.7
161.0442	1.8
161.0590	4.8
163.0755	2.3
171.0059	14.0
171.0767	1.8
172.0073	2.8
173.0436	2.8
179.0699	2.3
181.0497	12.8
185.0568	4.3
189.0551	7.7
191.0546	2.3
191.0701	1.8
194.0815	3.8
195.0652	2.9
197.0584	1.9
200.0924	2.9
205.0500	4.6
213.0914	3.5
225.0555	7.5
226.0585	2.0
227.1074	16.5
228.1109	2.6
229.0867	14.8
230.0894	2.0
232.0613	2.6
237.0924	5.1
238.0709	2.7
238.0936	2.0
239.0692	1.8
239.1076	40.0
240.1106	6.6
241.0870	17.8
242.0904	3.0
243.1243	2.2
253.0855	1.7
255.1027	31.2
256.0951	2.8
256.1058	11.7
257.1185	18.4
258.1146	9.8
259.1169	1.9
259.1452	1.8
271.0960	1.9
281.0811	4.0
282.0839	1.9
283.0978	8.4
285.0761	1.8
299.0924	15.2
300.0929	5.7
300.1225	3.0
301.1082	100.0
302.1113	20.3
303.0852	2.0
303.1160	2.2
307.0810	2.5
325.0710	3.7
327.0839	1.8
343.0804	35.4
343.1080	3.8
343.1121	2.1
343.1796	5.1
344.0884	16.7
344.1050	4.3
344.1097	3.7
344.1450	3.2
345.0593	5.4
345.0980	72.9
345.1530	7.5
345.1591	6.9
345.1919	5.7
346.0986	14.3
346.1028	14.3
346.1575	2.5
347.0720	9.5
347.1026	3.1
347.1091	5.6
347.1684	4.6

Name: 6,7-dihydroxy-5-)3-hydroxy-2-(methoxymethyl)-5-methylphenoxy(-4-methyl-3H-2-benzofuran-1-one
PrecursorMZ: 345.09827
RT: 1.3567
ExactMass: 346.10525291
Spectrum_type: 2
charge: -1
Formula: C18H18O7
SMILES: CC1=CC(=C(C(=C1)OC2=C(C(=C3C(=C2C)COC3=O)O)O)COC)O
Method: HCD
Collision_energy: [28.333334]
Isolation_window: 4.0
Ion_mode: N
Num Peaks: 41
59.0129	4.7
61.9875	5.2
85.0287	2.2
87.0080	2.5
103.0392	2.1
105.0187	2.4
107.0490	4.6
109.0285	8.3
121.0285	3.1
123.0445	3.0
135.0444	93.4
136.0481	6.1
137.0600	16.0
151.0393	3.1
151.0506	2.4
159.1020	2.4
163.0394	46.9
164.0434	4.5
165.0551	13.9
172.0761	2.4
181.0500	41.5
182.0539	3.7
197.0448	5.9
255.0637	2.3
271.1921	2.1
301.1088	2.3
315.0884	4.0
325.2017	3.3
327.0879	2.2
343.1091	2.4
343.2126	29.2
344.1148	5.4
344.2159	7.5
345.0984	100.0
345.1902	2.7
345.2284	8.7
345.2803	6.9
346.0980	21.5
346.1325	3.4
347.1136	7.6
347.1885	3.5

Name: 6-((3E,6E)-2,5-dihydroxy-4,6-dimethyl-7-(1,2,4-trimethyl-3,6-dioxabicyclo(3.1.0)hexan-4-yl)hepta-3,6-dien-2-yl)-4-methoxy-3,5-dimethylpyran-2-one
PrecursorMZ: 469.20131
RT: 5.9454
ExactMass: 434.23045342
Spectrum_type: 2
charge: -1
Formula: C24H34O7
SMILES: CC1C2(C(O2)C(O1)(C)/C=C(\C)/C(/C(=C/C(C)(C3=C(C(=C(C(=O)O3)C)OC)C)O)/C)O)C
Method: HCD
Collision_energy: [28.333334]
Isolation_window: 4.0
Ion_mode: N
Num Peaks: 3
96.9592	23.3
469.2017	100.0
470.2051	25.5

Name: 6-)(3E,6E)-2,5-dihydroxy-4,6-dimethyl-7-(1,2,4-trimethyl-3,6-dioxabicyclo)3.1.0(hexan-4-yl)hepta-3,6-dien-2-yl(-4-methoxy-3,5-dimethylpyran-2-one
PrecursorMZ: 469.2009
RT: 1.3167
ExactMass: 434.23045342
Spectrum_type: 2
charge: -1
Formula: C24H34O7
SMILES: CC1C2(C(O2)C(O1)(C)/C=C(\C)/C(/C(=C/C(C)(C3=C(C(=C(C(=O)O3)C)OC)C)O)/C)O)C
Method: HCD
Collision_energy: [28.333334]
Isolation_window: 4.0
Ion_mode: N
Num Peaks: 14
52.1320	2.1
52.1348	4.4
52.2463	1.0
61.9874	4.7
94.9798	0.8
96.9590	14.5
135.0443	1.0
202.0284	3.2
241.1075	1.4
389.2436	1.2
451.1914	0.9
469.2012	100.0
470.2048	24.3
471.2030	4.7

Name: 6-)3,4,5-Trihydroxy-6-(hydroxymethyl)oxan-2-yl(oxycyclohexane-1,2,3,4,5-pentol
PrecursorMZ: 341.10906
RT: 6.8149
ExactMass: 342.11621151
Spectrum_type: 2
charge: -1
Formula: C12H22O11
SMILES: C(C1C(C(C(C(O1)OC2C(C(C(C(C2O)O)O)O)O)O)O)O)O
Method: HCD
Collision_energy: [28.333334]
Isolation_window: 4.0
Ion_mode: N
Num Peaks: 27
59.0130	21.2
61.9876	3.5
71.0130	21.2
72.9921	3.0
85.0286	5.4
87.0078	7.7
89.0235	51.9
101.0235	27.3
113.0236	14.3
119.0341	16.6
124.0759	6.7
125.0237	3.1
131.0344	3.3
143.0343	7.4
161.0450	21.2
179.0555	39.0
210.1124	4.5
235.0601	4.2
254.1032	4.7
298.0923	3.1
339.1766	2.9
341.0705	5.4
341.1090	100.0
341.1959	14.7
342.1105	11.3
343.0808	5.2
343.2141	4.8

Name: 6-Amino-3-ethyl-4-(4-hydroxy-3-methoxyphenyl)-1,4-dihydropyrano(2,3-c)pyrazole-5-carbonitrile
PrecursorMZ: 311.11484
RT: 4.614
ExactMass: 312.12224039
Spectrum_type: 2
charge: -1
Formula: C16H16N4O3
SMILES: CCC1=C2C(C(=C(OC2=NN1)N)C#N)C3=CC(=C(C=C3)O)OC
Method: HCD
Collision_energy: [28.333334]
Isolation_window: 4.0
Ion_mode: N
Num Peaks: 32
59.0131	1.8
75.0079	10.5
83.0492	2.6
93.0337	2.5
94.0289	1.9
96.9592	2.9
113.0347	1.6
119.0494	7.5
127.0502	2.6
179.0566	1.4
193.0726	12.9
194.0754	1.4
197.0713	2.6
215.0824	1.5
217.0728	13.1
218.0788	2.2
254.0939	4.9
269.1044	5.1
281.0684	2.2
282.0840	2.8
295.0830	3.0
296.0914	12.1
297.0951	2.2
309.1461	1.4
310.1439	2.2
311.0838	3.1
311.1149	100.0
311.1662	2.8
312.1186	18.0
312.1558	2.6
313.0907	1.8
313.1288	11.6

Name: 6-Amino-4-(4-hydroxy-3-methoxyphenyl)-3-isopropyl-2,4-dihydropyrano(2,3-c)pyrazole-5-carbonitrile
PrecursorMZ: 325.13069
RT: 4.7038
ExactMass: 326.13789045
Spectrum_type: 2
charge: -1
Formula: C17H18N4O3
SMILES: CC(C)C1=C2C(C(=C(OC2=NN1)N)C#N)C3=CC(=C(C=C3)O)OC
Method: HCD
Collision_energy: [28.333334]
Isolation_window: 4.0
Ion_mode: N
Num Peaks: 17
96.9591	3.4
115.9199	6.2
133.0398	3.8
149.0713	19.4
175.0507	55.5
176.0546	4.9
183.0117	3.8
323.1279	3.0
323.1877	6.2
323.6274	4.2
324.1896	3.7
325.0384	2.6
325.1842	100.0
326.1873	19.6
327.0879	3.2
327.1811	2.7
327.2181	5.5

Name: 6-Amino-4-(4-hydroxy-3-methoxyphenyl)-3-methyl-1,4-dihydropyrano)2,3-c(pyrazole-5-carbonitrile
PrecursorMZ: 297.09809
RT: 1.7658
ExactMass: 298.10659032
Spectrum_type: 2
charge: -1
Formula: C15H14N4O3
SMILES: CC1=C2C(C(=C(OC2=NN1)N)C#N)C3=CC(=C(C=C3)O)OC
Method: HCD
Collision_energy: [28.333334]
Isolation_window: 4.0
Ion_mode: N
Num Peaks: 26
59.0130	3.1
61.9875	100.0
87.0078	3.3
109.0289	3.0
111.0443	3.3
114.0552	4.2
121.0282	2.7
139.0394	5.9
165.0185	5.6
169.0498	4.9
177.0550	3.6
183.0652	4.9
253.1079	54.1
254.1111	8.5
254.2125	2.5
295.0790	2.5
296.0816	3.0
296.1170	7.3
297.0645	2.3
297.0997	12.7
297.1496	6.5
297.2435	6.5
298.0963	7.0
298.1323	10.5
299.1156	3.1
299.1883	2.6

Name: 6-Amino-5-formamido-1,3-dimethyluracil
PrecursorMZ: 197.06752
RT: 0.9551
ExactMass: 198.07529019
Spectrum_type: 2
charge: -1
Formula: C7H10N4O3
SMILES: CN1C(=C(C(=O)N(C1=O)C)NC=O)N
Method: HCD
Collision_energy: [28.333334]
Isolation_window: 4.0
Ion_mode: N
Num Peaks: 17
85.0399	1.2
87.0555	1.2
97.0398	3.8
110.0350	1.2
140.0455	1.0
154.0489	21.3
169.0146	2.2
169.0725	14.1
178.9828	1.0
182.0437	2.7
195.0517	1.0
195.9054	2.3
196.0135	5.1
197.0675	100.0
198.0710	7.7
199.1325	1.2
199.1699	1.7

Name: 6-DEOXY-L-GALACTOSE
PrecursorMZ: 163.06027
RT: 4.4007
Spectrum_type: 2
charge: -1
SMILES: C[C@H]1[C@H]([C@H]([C@@H](C(O1)O)O)O)O
Method: HCD
Collision_energy: [28.333334]
Isolation_window: 4.0
Ion_mode: N
Num Peaks: 21
55.0180	7.6
57.0335	2.2
59.0129	44.4
61.9874	4.4
71.0129	9.7
72.9921	9.8
73.0285	46.5
75.0078	21.3
83.0128	4.9
85.0285	10.4
85.9999	2.9
101.0234	20.8
119.0494	2.2
121.0285	100.0
131.0340	15.3
149.0087	4.0
162.0551	1.9
163.0604	35.3
163.1119	12.6
164.0631	2.5
165.0186	11.9

Name: 6-Ethyl-2,4-dihydroxy-3-methylbenzaldehyde
PrecursorMZ: 179.07077
RT: 8.2906
ExactMass: 180.078644241
Spectrum_type: 2
charge: -1
Formula: C10H12O3
SMILES: CCC1=CC(=C(C(=C1C=O)O)C)O
Method: HCD
Collision_energy: [28.333334]
Isolation_window: 4.0
Ion_mode: N
Num Peaks: 22
71.0129	2.1
72.0082	22.9
74.0239	2.6
89.0234	3.0
93.0337	19.4
106.0415	2.0
107.0493	2.0
108.9334	2.3
119.0494	38.8
133.0651	13.9
134.0603	1.9
135.0450	4.4
135.0808	55.6
136.0396	5.2
136.0841	5.5
163.0394	74.8
164.0427	3.6
177.0413	1.9
179.0558	2.6
179.0709	6.3
180.0660	100.0
181.0697	6.9

Name: 6-Hydroxy-6-methyloctanoic acid
PrecursorMZ: 173.11765
RT: 5.1793
ExactMass: 174.125594432
Spectrum_type: 2
charge: -1
Formula: C9H18O3
SMILES: CCC(C)(CCCCC(=O)O)O
Method: HCD
Collision_energy: [28.333334]
Isolation_window: 4.0
Ion_mode: N
Num Peaks: 52
57.0337	0.8
59.0130	1.3
71.0129	1.6
71.0494	1.1
72.9923	1.2
73.0286	2.6
79.9567	0.7
80.9641	0.8
83.0493	1.0
85.0285	1.9
85.0650	1.0
87.0079	2.2
88.0395	72.5
89.0428	2.6
93.0336	0.7
96.0446	0.8
96.9592	2.9
97.0286	2.1
97.0650	0.7
98.0318	1.1
99.0079	1.0
99.0442	1.0
101.0236	0.9
102.0550	0.7
110.0237	0.8
111.0443	4.4
113.0236	1.2
113.0963	3.6
114.0187	0.9
116.0709	1.2
127.0756	0.9
127.1120	9.1
127.9971	1.1
128.1154	0.6
129.0549	2.3
130.0324	3.8
130.0656	1.0
155.0343	3.9
155.1069	2.1
171.0658	0.8
171.1022	2.8
171.1383	1.0
172.0972	11.5
173.0452	10.1
173.0812	1.7
173.1177	100.0
173.1490	0.8
173.9860	8.1
174.0545	0.7
174.1211	10.0
175.0242	1.0
175.0756	3.0

Name: 6-Hydroxy-7,7-dimethyl-6,8-dihydroimidazo(1,2-a)(1,3,5)triazine-2,4-dione
PrecursorMZ: 197.06739
RT: 6.452416666666666
ExactMass: 198.07529019
Spectrum_type: 2
charge: -1
Formula: C7H10N4O3
SMILES: CC1(C(N2C(=NC(=O)NC2=O)N1)O)C
Method: HCD
Collision_energy: [28.333334]
Isolation_window: 4.0
Ion_mode: N
Num Peaks: 31
59.0130	3.5
72.0446	17.0
80.9643	7.5
83.0243	3.5
85.0400	4.0
97.0399	4.0
98.0351	10.3
108.0446	4.2
109.0399	4.0
112.0144	3.3
127.0505	100.0
128.0541	5.4
135.0553	7.4
137.0241	3.8
137.0965	3.4
140.0458	47.0
152.0169	5.6
152.0345	46.2
153.0379	3.7
153.0409	16.4
153.0549	8.6
153.0914	11.1
154.0501	4.3
154.0615	41.3
155.1070	8.8
197.0107	7.2
197.0452	5.1
197.0675	45.4
197.0823	3.4
198.0404	3.0
199.0974	6.6

Name: 6-Hydroxyhexanoic Acid
PrecursorMZ: 131.07058
RT: 5.3739
ExactMass: 132.078644241
Spectrum_type: 2
charge: -1
Formula: C6H12O3
SMILES: C(CCC(=O)O)CCO
Method: HCD
Collision_energy: [28.333334]
Isolation_window: 4.0
Ion_mode: N
Num Peaks: 15
57.0337	3.0
71.0493	15.8
79.9564	2.5
83.0493	2.5
85.0650	100.0
86.0682	6.2
87.0441	2.0
87.0806	3.8
113.0599	4.5
115.9198	7.4
129.0550	5.3
131.0706	62.2
132.0738	4.8
132.8669	3.7
132.8994	20.8

Name: 6-Hydroxymelatonin
PrecursorMZ: 495.22564
RT: 4.8276
ExactMass: 248.11609238
Spectrum_type: 2
charge: -1
Formula: C13H16N2O3
SMILES: CC(=O)NCCC1=CNC2=CC(=C(C=C21)OC)O
Method: HCD
Collision_energy: [28.333334]
Isolation_window: 4.0
Ion_mode: N
Num Peaks: 25
112.0508	16.3
171.9829	10.0
183.1246	33.7
225.0917	12.8
225.1355	15.4
338.1767	7.8
353.1864	7.6
354.1913	5.4
355.2029	53.0
356.2057	9.5
371.1728	11.1
379.1682	5.3
381.1823	49.2
382.1857	9.1
449.2202	10.7
450.2238	9.1
451.2357	48.1
452.2393	14.6
493.3184	10.2
494.2132	8.0
495.2257	100.0
495.3345	31.4
496.2295	27.8
496.3362	7.9
497.1673	20.3

Name: 6-Hydroxymellein
PrecursorMZ: 193.0502
RT: 0.6628499999999999
ExactMass: 194.0579088
Spectrum_type: 2
charge: -1
Formula: C10H10O4
SMILES: C[C@@H]1CC2=C(C(=CC(=C2)O)O)C(=O)O1
Method: HCD
Collision_energy: [28.333334]
Isolation_window: 4.0
Ion_mode: N
Num Peaks: 33
79.9563	1.3
80.9642	1.9
83.0130	1.6
94.0289	1.5
107.0494	0.9
108.0446	0.9
109.0285	0.7
121.0649	0.7
123.0444	6.8
137.0597	0.8
147.0445	1.3
148.0758	1.4
149.0237	1.0
149.0601	8.7
150.0547	3.9
150.0914	1.3
151.0394	31.8
151.0756	2.6
151.0871	1.0
165.0550	1.3
175.0394	2.6
175.0757	0.9
191.0345	1.2
191.0700	2.6
192.0651	3.2
193.0148	1.5
193.0191	1.4
193.0501	100.0
193.0865	3.6
194.0540	10.9
194.0795	2.1
195.0294	26.0
195.0673	7.2

Name: 6-Methoxy-7-(3-methylbut-2-enoxy)chromen-2-one
PrecursorMZ: 259.09752
RT: 5.306
ExactMass: 260.10485899
Spectrum_type: 2
charge: -1
Formula: C15H16O4
SMILES: CC(=CCOC1=C(C=C2C=CC(=O)OC2=C1)OC)C
Method: HCD
Collision_energy: [28.333334]
Isolation_window: 4.0
Ion_mode: N
Num Peaks: 52
59.0130	5.0
79.9565	40.7
80.9643	28.4
136.0761	35.9
143.0495	47.8
144.0532	5.5
147.0555	2.2
155.0496	7.9
157.0652	5.6
169.0651	3.7
171.0446	28.3
171.0807	6.2
172.0482	3.3
173.0602	76.5
174.0638	8.0
177.0665	2.8
181.0653	13.8
183.0808	2.3
184.0524	4.4
185.0967	81.3
186.0999	11.8
187.0761	3.9
197.0610	2.7
199.0761	18.4
200.0806	2.4
201.0549	10.0
215.0712	20.0
215.1068	11.1
216.0430	2.8
216.0747	3.2
216.1392	2.1
217.0877	3.8
229.0869	11.7
233.1179	6.1
241.1091	4.0
257.0664	4.2
257.1350	9.6
257.1470	14.5
257.1756	3.0
257.6490	7.4
258.1560	18.9
258.6565	7.1
259.0397	59.8
259.0979	100.0
259.1556	17.0
259.1593	6.2
259.6649	2.7
260.0432	4.9
260.1008	16.7
260.1683	2.4
261.1661	6.1
261.1703	3.2

Name: 6-Methylmercaptopurine
PrecursorMZ: 165.02206
RT: 1.7472
ExactMass: 166.03131738
Spectrum_type: 2
charge: -1
Formula: C6H6N4S
SMILES: CSC1=NC=NC2=C1NC=N2
Method: HCD
Collision_energy: [28.333334]
Isolation_window: 4.0
Ion_mode: N
Num Peaks: 45
57.0337	4.4
59.0129	4.5
63.9616	10.9
66.0341	2.4
71.0130	5.4
72.0082	16.8
72.9922	38.8
73.0286	4.3
75.0079	9.3
76.9694	10.3
79.9564	13.1
87.0079	15.8
89.0235	14.4
101.0235	82.1
102.0269	2.8
119.0354	4.2
119.0494	29.2
120.0448	8.7
120.0531	2.5
121.0287	14.3
121.0650	37.4
122.0241	3.2
122.0604	23.1
122.0684	2.5
123.0445	3.0
123.0554	3.6
140.0244	4.0
145.0499	5.6
147.0444	57.4
148.0477	4.9
149.9985	37.4
163.0253	2.8
163.0608	39.2
164.0348	4.1
164.0714	55.5
165.0223	100.0
165.0413	25.3
165.0553	23.2
165.0751	3.9
166.0130	10.0
166.0254	4.0
166.0405	9.0
166.0515	8.3
167.0201	6.5
167.0353	41.2

Name: 6-O-Caffeoylarbutin
PrecursorMZ: 433.11388
RT: 1.3472
ExactMass: 434.12129689
Spectrum_type: 2
charge: -1
Formula: C21H22O10
SMILES: C1=CC(=CC=C1O)O[C@H]2[C@@H]([C@H]([C@@H]([C@H](O2)COC(=O)/C=C/C3=CC(=C(C=C3)O)O)O)O)O
Method: HCD
Collision_energy: [28.333334]
Isolation_window: 4.0
Ion_mode: N
Num Peaks: 34
59.0128	3.1
61.9874	2.4
72.9921	6.3
85.9985	2.4
87.0077	2.0
96.9590	6.6
109.0285	5.2
110.9746	2.3
129.0181	2.2
135.0441	6.3
137.0598	13.0
165.0553	2.4
173.0449	2.4
179.0344	3.2
181.0498	82.4
182.0535	5.3
191.0341	2.2
191.0556	3.0
195.0663	2.2
209.0448	2.6
215.0704	2.2
239.0556	13.3
241.0710	5.4
251.0551	5.5
257.0452	1.9
259.0607	2.7
391.2867	2.0
431.1804	13.2
432.1735	5.1
433.1127	100.0
433.2901	3.0
434.1148	22.8
435.1298	42.5
435.3203	4.9

Name: 6-formyl-10-(hydroxymethyl)-5-methoxy-3-methylidene-2-oxo-2H,3H,3aH,4H,5H,8H,9H,11aH-cyclodeca(b)furan-4-yl 2-methylbutanoate
PrecursorMZ: 391.17667
RT: 3.0473
ExactMass: 392.18350323
Spectrum_type: 2
charge: -1
Formula: C21H28O7
SMILES: CCC(C)C(=O)OC1C2C(C=C(CC/C=C(\C1OC)/C=O)CO)OC(=O)C2=C
Method: HCD
Collision_energy: [28.333334]
Isolation_window: 4.0
Ion_mode: N
Num Peaks: 55
61.9875	32.2
79.9564	1.5
80.9643	3.7
87.0080	0.8
96.9592	3.8
109.0286	1.5
110.9750	4.7
111.0445	1.1
123.0445	0.9
125.0237	0.9
125.0600	8.0
127.0757	16.5
128.0794	0.7
135.0446	1.6
137.0241	0.7
137.0600	1.7
139.0400	0.8
153.0549	1.0
157.0651	0.8
179.0710	1.0
181.0501	3.1
191.1080	0.9
193.0508	0.8
195.0658	3.6
207.0660	1.5
207.1033	0.8
208.0745	0.8
209.0813	0.8
257.0480	2.5
259.0973	1.2
277.1085	1.6
279.0887	1.3
279.1250	0.9
299.1646	1.3
315.1604	1.4
317.1035	1.3
327.0868	1.6
333.1375	0.8
343.1557	2.2
361.1663	11.0
362.1695	2.5
375.1834	1.7
389.1290	0.8
390.0823	0.9
390.1268	3.0
391.0699	0.7
391.1034	9.4
391.1345	1.8
391.1774	100.0
392.1036	2.7
392.1351	0.8
392.1800	22.1
393.0688	19.5
393.1196	4.7
393.1928	47.6

Name: 6:2 FTSA
PrecursorMZ: 426.96833
RT: 0.5260499999999999
ExactMass: 427.9751813
Spectrum_type: 2
charge: -1
Formula: C8H5F13O3S
SMILES: C(CS(=O)(=O)O)C(C(C(C(C(C(F)(F)F)(F)F)(F)F)(F)F)(F)F)(F)F
Method: HCD
Collision_energy: [28.333334]
Isolation_window: 4.0
Ion_mode: N
Num Peaks: 21
79.9565	17.3
80.9643	57.2
82.9601	1.9
96.9591	1.2
282.9811	0.9
292.9835	1.0
302.9870	0.7
338.9891	0.6
366.9498	0.6
386.9563	4.1
406.9622	41.7
407.9656	3.9
408.9608	1.3
425.1990	1.9
426.8474	0.7
426.9683	100.0
427.0870	0.7
427.2153	7.6
427.9713	9.2
428.2176	1.5
428.9653	3.1

Name: 6a,7,8,12a-Tetrahydroxy-3-methyl-2,3,4,5,6,7-hexahydrobenzo)a(anthracene-1,12-dione
PrecursorMZ: 343.11908
RT: 0.5983
ExactMass: 344.12598835
Spectrum_type: 2
charge: -1
Formula: C19H20O6
SMILES: CC1CC2=C(C(=O)C1)C3(C(=O)C4=C(C(C3(CC2)O)O)C(=CC=C4)O)O
Method: HCD
Collision_energy: [28.333334]
Isolation_window: 4.0
Ion_mode: N
Num Peaks: 50
59.0129	1.9
73.0286	14.8
79.9565	1.3
80.9642	1.7
81.0339	1.5
87.0078	1.6
96.9592	13.1
119.0492	2.1
121.0287	2.8
122.0364	2.3
123.0443	14.5
135.0445	1.6
137.0600	9.4
147.0443	3.3
149.0604	2.9
149.0967	1.9
161.0602	4.9
162.0679	1.7
163.0393	1.5
205.0501	13.5
206.0530	1.8
219.0662	1.3
225.0917	27.4
226.0950	4.6
257.1188	2.4
267.1028	8.3
268.1061	1.6
285.1132	2.3
299.0940	2.1
299.1288	36.1
300.1320	7.3
301.1076	1.6
323.1867	4.4
341.1064	2.4
341.1988	3.6
342.1010	4.9
342.1356	3.9
343.0831	10.1
343.1194	100.0
343.1574	16.0
343.2066	3.4
343.2517	2.1
344.0832	2.0
344.1214	22.4
344.1598	3.7
345.0644	1.6
345.0999	61.8
345.1359	7.3
345.1721	3.3
345.2147	1.5

Name: 7,9,11,13-Tetrahydroxy-5-methyl-19-oxapentacyclo)8.8.1.01,10.02,7.012,17(nonadeca-12(17),13,15-triene-3,18-dione
PrecursorMZ: 359.11397
RT: 2.6833
ExactMass: 360.12090297
Spectrum_type: 2
charge: -1
Formula: C19H20O7
SMILES: CC1CC(=O)C2C(C1)(CC(C34C2(O3)C(=O)C5=C(C4O)C(=CC=C5)O)O)O
Method: HCD
Collision_energy: [28.333334]
Isolation_window: 4.0
Ion_mode: N
Num Peaks: 48
59.0130	23.0
71.0128	2.0
85.0286	2.2
87.0078	7.4
88.0394	1.9
89.0234	2.1
103.0392	5.0
115.0393	1.9
125.0963	2.0
128.0346	2.9
131.0344	2.1
131.0709	2.3
135.0440	2.0
169.0864	3.5
181.1230	1.9
195.0653	5.7
209.1542	3.3
243.1020	2.5
253.1450	2.1
255.1026	61.1
256.1067	11.5
270.0889	2.4
271.0961	2.0
271.1559	5.2
277.1812	2.8
295.1909	3.6
297.1151	1.9
313.2022	1.9
315.1241	44.9
315.1767	2.8
316.1254	8.2
321.1711	1.9
323.1864	3.2
339.1813	10.0
340.1838	2.1
341.1029	3.3
341.1972	6.0
357.1265	3.0
357.1921	60.2
358.1254	4.3
358.1948	18.5
359.1139	100.0
359.1682	8.8
359.2085	22.3
360.1162	22.1
360.1740	2.1
360.2114	3.8
361.1133	4.9

Name: 7,9-Dimethoxy-6-(4-methoxyphenyl)-(1,3)dioxolo(4,5-g)chromen-8-one
PrecursorMZ: 355.08236
RT: 5.9578
ExactMass: 356.08960285
Spectrum_type: 2
charge: -1
Formula: C19H16O7
SMILES: COC1=CC=C(C=C1)C2=C(C(=O)C3=C(C4=C(C=C3O2)OCO4)OC)OC
Method: HCD
Collision_energy: [28.333334]
Isolation_window: 4.0
Ion_mode: N
Num Peaks: 46
59.0129	16.7
61.9875	5.8
71.0129	5.2
72.9922	3.5
87.0079	4.2
101.0236	4.3
103.0390	4.1
109.0286	12.2
114.0553	6.3
115.0392	4.1
128.0349	4.3
135.0444	12.2
137.0599	10.1
161.0238	43.7
163.0394	5.9
173.0237	14.7
181.0496	7.9
189.0553	17.2
291.1968	4.8
293.0836	3.5
293.1765	5.3
293.2130	4.8
295.0613	13.5
309.2079	7.7
311.0926	17.0
311.1874	4.9
311.2237	11.0
335.1879	5.8
337.0712	3.6
337.2028	11.5
339.1848	4.2
353.1006	3.9
353.1619	4.4
353.1977	69.5
354.0963	5.0
354.2008	20.6
355.0822	100.0
355.1756	30.6
355.2136	73.1
356.0806	17.3
356.1196	5.2
356.1803	5.9
356.2167	13.3
357.0978	6.2
357.1924	33.0
357.2286	10.0

Name: 7-(2,6-Dimethyl-8-(2-methyl-1-oxobutoxy)-1,2,6,7,8,8a-hexahydronaphthalen-1-yl)-3,5-dihydroxyheptanoic acid
PrecursorMZ: 421.26035
RT: 1.3811
ExactMass: 422.26683893
Spectrum_type: 2
charge: -1
Formula: C24H38O6
SMILES: CCC(C)C(=O)OC1CC(C=C2C1C(C(C=C2)C)CCC(CC(CC(=O)O)O)O)C
Method: HCD
Collision_energy: [28.333334]
Isolation_window: 4.0
Ion_mode: N
Num Peaks: 154
57.0337	3.8
59.0130	11.0
61.9875	4.1
69.0337	3.6
69.4100	0.9
71.0130	4.3
71.0494	3.4
72.9922	1.4
73.0286	2.6
74.0239	2.5
80.9645	1.1
83.0494	4.1
85.0286	1.6
85.0652	0.9
87.0079	1.6
87.0443	2.0
88.0395	2.3
89.0235	1.2
94.0289	2.3
95.0492	1.4
96.0083	2.0
97.0287	1.4
97.0650	2.1
98.0241	1.0
101.0236	2.2
107.0493	1.2
109.0286	1.9
109.0650	2.0
110.0239	0.9
111.0447	1.0
111.0807	1.4
112.0509	2.3
113.0236	1.3
113.0349	1.8
113.0598	1.1
114.0552	5.9
115.0392	5.1
115.0757	1.3
116.0710	1.5
123.0807	1.9
124.0396	1.4
124.0761	1.3
125.0604	0.9
126.0553	1.3
127.0507	2.5
128.0345	4.7
129.0549	1.5
129.0912	1.1
130.0865	3.4
135.0445	2.7
136.0762	0.8
138.0557	1.0
143.0711	1.0
145.0506	1.2
145.0611	2.2
149.0602	1.0
149.0971	0.9
154.0615	1.6
155.0714	1.9
161.0238	2.9
164.0709	1.1
167.0706	2.6
167.1077	1.0
173.0451	1.0
180.0657	2.2
206.1299	1.0
222.0890	1.4
230.0811	1.1
237.1495	1.4
239.1653	1.4
245.2287	1.0
249.1855	1.7
255.1587	1.2
259.1814	0.8
261.1260	0.8
261.1875	1.4
263.2034	0.9
275.2033	1.0
289.1828	1.2
289.2181	3.9
293.2140	1.2
303.1982	1.2
305.2147	0.9
315.2345	1.6
317.2495	1.3
319.1925	4.5
320.1964	1.1
321.2090	1.1
333.2083	4.5
333.2455	2.5
335.2243	4.6
335.2608	1.3
341.2125	1.0
343.2299	1.5
347.2258	1.0
349.2391	1.7
359.2226	3.1
359.2609	2.3
361.2394	3.9
361.2784	1.4
375.2545	2.0
376.2002	1.1
376.2571	2.0
377.2323	3.7
377.2715	16.2
378.2335	1.1
378.2411	2.1
378.2748	4.8
379.2434	1.6
379.2494	5.0
379.2893	7.6
385.2399	1.7
387.2149	1.2
403.2108	2.2
403.2517	7.4
404.2541	2.0
405.2207	4.6
405.2289	3.3
405.2683	2.2
405.2724	1.6
405.2756	2.8
419.2433	3.5
419.2513	2.9
419.2943	1.1
420.1895	5.4
420.1969	2.9
420.2026	1.5
420.2074	1.0
420.2413	1.5
420.2471	6.6
420.2507	5.6
421.0978	1.4
421.1690	2.2
421.1770	4.2
421.2186	18.9
421.2268	9.9
421.2613	100.0
422.1393	1.7
422.2007	5.6
422.2053	1.5
422.2148	1.8
422.2202	4.2
422.2647	25.4
422.2690	13.9
423.1544	1.1
423.1686	1.3
423.1771	1.0
423.1874	3.1
423.1985	2.0
423.2220	2.0
423.2339	10.2
423.2389	28.5
423.2720	6.8
423.2791	34.1

Name: 7-(2-Hydroxypropan-2-yl)-1,4a-dimethyl-2,3,4,5,6,7,8,8a-octahydronaphthalen-1-ol
PrecursorMZ: 239.20109
RT: 1.18435
ExactMass: 240.208930132
Spectrum_type: 2
charge: -1
Formula: C15H28O2
SMILES: CC12CCCC(C1CC(CC2)C(C)(C)O)(C)O
Method: HCD
Collision_energy: [28.333334]
Isolation_window: 4.0
Ion_mode: N
Num Peaks: 27
79.9563	0.4
91.0210	0.8
96.9591	2.7
149.0087	0.2
195.1383	0.7
223.0278	9.8
223.2065	0.2
224.0282	1.9
225.0247	0.8
238.0779	1.2
238.5790	0.3
239.0665	4.4
239.2012	3.9
239.5680	1.3
240.0748	1.0
240.2047	0.6
241.0386	0.2
241.0720	1.6
241.0748	0.2
241.1195	0.5
241.1505	0.3
241.1659	0.7
241.1762	0.6
241.2168	100.0
241.2566	0.4
241.2683	0.7
241.2827	0.3

Name: 7-(3-(allyloxy)-2-hydroxypropyl)-8-((2-hydroxypropyl)amino)-3-methyl-1H-purine-2,6(3H,7H)-dione
PrecursorMZ: 352.16266
RT: 6.0836
ExactMass: 353.16991885
Spectrum_type: 2
charge: -1
Formula: C15H23N5O5
SMILES: CC(CNC1=NC2=C(N1CC(COCC=C)O)C(=O)NC(=O)N2C)O
Method: HCD
Collision_energy: [28.333334]
Isolation_window: 4.0
Ion_mode: N
Num Peaks: 14
58.0288	9.9
61.9874	10.0
70.0289	20.1
114.0552	17.9
129.0662	22.3
141.0660	10.5
168.0772	54.6
178.0503	16.7
178.0983	18.4
222.0888	17.8
352.1627	100.0
353.0997	10.7
353.1653	11.5
353.2053	9.0

Name: 7-)2,6-Dimethyl-8-(2-methyl-1-oxobutoxy)-1,2,6,7,8,8a-hexahydronaphthalen-1-yl(-3,5-dihydroxyheptanoic acid
PrecursorMZ: 421.26014
RT: 0.7305
ExactMass: 422.26683893
Spectrum_type: 2
charge: -1
Formula: C24H38O6
SMILES: CCC(C)C(=O)OC1CC(C=C2C1C(C(C=C2)C)CCC(CC(CC(=O)O)O)O)C
Method: HCD
Collision_energy: [28.333334]
Isolation_window: 4.0
Ion_mode: N
Num Peaks: 96
57.0337	3.1
59.0130	12.8
61.9875	19.1
69.0337	2.2
71.0129	5.1
71.0493	3.8
72.9921	1.8
73.0286	4.0
75.0079	2.1
79.9565	2.0
80.9643	1.5
83.0494	5.3
85.0286	2.4
85.0649	1.7
87.0079	3.3
87.0442	3.1
88.0394	1.6
95.0494	1.5
96.9592	6.3
97.0287	2.1
97.0650	3.1
99.0442	1.6
101.0235	5.0
101.0600	1.4
109.0285	1.8
109.0651	2.3
111.0444	1.9
113.0234	1.9
114.0552	5.0
115.0393	5.1
115.0756	1.7
116.0709	1.6
123.0443	1.4
123.0807	2.1
125.0236	1.4
125.0597	1.9
127.0393	1.8
127.0756	1.5
128.0344	1.8
129.0551	1.7
129.0915	1.9
130.0868	2.6
135.0442	1.7
137.0602	1.5
137.0966	1.6
141.0551	1.4
145.0499	1.9
167.0706	2.2
171.1029	1.6
201.1128	1.5
207.0654	2.1
221.0810	3.1
236.0696	3.1
237.1496	1.7
239.1649	1.8
249.1852	1.8
255.1600	1.8
261.1868	1.6
289.1816	2.2
289.2180	2.1
293.2122	1.6
294.1107	2.6
308.1271	1.4
315.2328	1.7
319.1925	2.4
333.2076	8.8
333.2445	2.6
334.2108	1.6
335.2602	1.6
338.0999	1.5
341.2490	1.7
359.2595	4.6
361.2379	2.3
361.2764	3.4
375.2535	3.4
376.2572	3.0
377.2332	1.8
377.2711	21.4
378.2741	6.0
379.2478	1.8
379.2874	13.9
385.2405	1.5
387.2550	1.3
403.2503	10.0
404.2527	2.4
405.2668	7.8
419.2694	7.7
420.1325	2.0
420.1701	1.4
420.2493	6.5
421.1473	4.5
421.2610	100.0
422.1440	3.2
422.2647	25.2
423.1673	13.1
423.2789	67.2

Name: 7-Hydroxy-1,4a-dimethyl-9-oxo-7-propan-2-yl-2,3,4,4b,5,6,10,10a-octahydrophenanthrene-1-carboxylic acid
PrecursorMZ: 333.2067
RT: 4.5729
ExactMass: 334.21440943
Spectrum_type: 2
charge: -1
Formula: C20H30O4
SMILES: CC(C)C1(CCC2C(=C1)C(=O)CC3C2(CCCC3(C)C(=O)O)C)O
Method: HCD
Collision_energy: [28.333334]
Isolation_window: 4.0
Ion_mode: N
Num Peaks: 26
59.0127	2.5
96.9591	10.0
253.1442	2.8
259.1701	2.1
261.1851	1.1
285.1854	2.5
287.2011	4.5
288.2038	1.1
289.2169	39.0
290.2203	8.1
313.2378	1.9
321.2060	1.0
329.2354	0.9
331.2485	26.4
332.1172	1.5
332.2523	10.6
333.1014	11.1
333.1395	1.6
333.1724	2.2
333.1777	2.2
333.2068	100.0
334.1016	1.4
334.2101	20.9
335.1215	1.4
335.1842	3.6
335.2221	3.2

Name: 7-Hydroxy-3-(4'-methoxyphenyl)coumarin
PrecursorMZ: 267.06637
RT: 1.0855
ExactMass: 268.07355886
Spectrum_type: 2
charge: -1
Formula: C16H12O4
SMILES: COC1=CC=C(C=C1)C2=CC3=C(C=C(C=C3)O)OC2=O
Method: HCD
Collision_energy: [28.333334]
Isolation_window: 4.0
Ion_mode: N
Num Peaks: 12
224.0478	6.7
225.0558	10.7
239.0713	21.5
251.0567	9.2
252.0424	23.5
253.0482	4.7
254.0592	5.3
266.0832	12.8
267.0663	100.0
268.0708	22.4
269.0815	13.8
269.2487	82.3

Name: 7-Hydroxy-3-(hydroxymethyl)-5-methylisochromen-1-one
PrecursorMZ: 205.05007
RT: 2.3373
ExactMass: 206.0579088
Spectrum_type: 2
charge: -1
Formula: C11H10O4
SMILES: CC1=CC(=CC2=C1C=C(OC2=O)CO)O
Method: HCD
Collision_energy: [28.333334]
Isolation_window: 4.0
Ion_mode: N
Num Peaks: 48
58.0290	5.9
59.0130	9.5
70.0290	4.8
73.0287	2.6
88.0395	3.5
91.0544	1.9
93.0334	1.4
97.0286	6.6
107.0494	1.4
117.0701	5.3
119.0493	2.6
131.0494	1.4
133.0288	22.6
133.0652	8.8
134.0238	2.1
134.0323	1.7
134.0604	1.8
135.0445	1.8
147.0445	9.7
149.0601	1.5
159.0446	25.2
160.0503	2.4
160.0759	2.2
161.0246	1.7
161.0602	76.5
161.0958	2.0
162.0548	4.2
162.0643	5.6
162.0916	5.2
163.0394	3.9
163.0758	5.5
163.1115	1.6
164.0711	31.4
175.0393	1.7
177.0544	1.6
203.0712	1.4
203.0920	2.1
203.1284	2.9
204.0662	15.0
205.0503	100.0
205.0871	4.0
206.0531	11.1
206.0820	15.8
207.0303	1.3
207.0516	8.5
207.0664	9.5
207.0996	2.7
207.1031	1.5

Name: 7-Hydroxy-5-methyl-2-(2-oxopropyl)-8-(3,4,5-trihydroxy-6-(hydroxymethyl)-2-oxanyl)-1-benzopyran-4-one
PrecursorMZ: 393.11884
RT: 7.1663
ExactMass: 394.12638228
Spectrum_type: 2
charge: -1
Formula: C19H22O9
SMILES: CC1=CC(=C(C2=C1C(=O)C=C(O2)CC(=O)C)C3C(C(C(C(O3)CO)O)O)O)O
Method: HCD
Collision_energy: [28.333334]
Isolation_window: 4.0
Ion_mode: N
Num Peaks: 7
109.0649	15.6
305.1401	27.6
349.1287	67.6
391.2839	21.5
393.1154	100.0
393.1532	11.2
394.1180	19.0

Name: 7-Methoxy-6-(1,2,3-trihydroxy-3-methylbutyl)-2H-1-benzopyran-2-one
PrecursorMZ: 293.10316
RT: 2.839
ExactMass: 294.11033829
Spectrum_type: 2
charge: -1
Formula: C15H18O6
SMILES: CC(C)(C(C(C1=C(C=C2C(=C1)C=CC(=O)O2)OC)O)O)O
Method: HCD
Collision_energy: [28.333334]
Isolation_window: 4.0
Ion_mode: N
Num Peaks: 15
79.9566	4.8
96.9592	7.8
189.0179	4.6
190.0266	36.9
221.1537	6.3
236.1052	6.6
261.0760	5.5
291.1408	11.9
291.6447	10.1
292.1509	11.7
292.6532	4.1
293.1032	100.0
293.1778	6.9
294.1065	16.8
295.2263	4.6

Name: 7-Methoxy-6-(1,2,3-trihydroxy-3-methylbutyl)chromen-2-one
PrecursorMZ: 293.10329
RT: 0.64775
ExactMass: 294.11033829
Spectrum_type: 2
charge: -1
Formula: C15H18O6
SMILES: CC(C)(C(C(C1=C(C=C2C(=C1)C=CC(=O)O2)OC)O)O)O
Method: HCD
Collision_energy: [28.333334]
Isolation_window: 4.0
Ion_mode: N
Num Peaks: 59
59.0130	3.4
61.9875	6.5
75.0078	8.1
79.9564	4.8
85.0285	2.8
87.0077	2.8
95.0491	3.0
97.0286	4.8
109.0286	4.4
109.0651	2.7
111.0442	6.5
113.0233	3.1
122.0365	6.4
124.0523	4.6
125.0601	3.4
128.0345	3.6
135.0445	5.4
137.0600	15.5
138.0681	6.1
139.0757	30.8
151.0756	3.4
161.0961	2.7
163.0761	2.9
179.1184	6.7
187.1121	22.5
188.1162	2.6
189.0916	3.5
190.0499	4.5
190.0996	3.4
193.0499	4.5
203.1075	4.2
204.1013	2.8
205.0862	5.6
205.1228	19.7
207.1027	5.4
221.1543	2.7
231.1024	8.8
233.0810	3.5
234.0393	4.0
236.1057	2.6
247.0967	5.3
248.0921	5.3
248.1273	3.1
249.0761	6.3
249.1128	16.3
250.1120	4.2
251.0921	5.2
275.0562	2.9
291.0872	10.2
292.0860	13.6
292.1213	2.9
293.0672	45.1
293.1031	100.0
293.1792	4.3
294.0657	9.6
294.1037	20.4
295.0822	51.2
295.1222	18.2
295.2278	2.6

Name: 7-Methoxy-8-(3-prop-1-en-2-yloxiran-2-yl)chromen-2-one
PrecursorMZ: 257.08148
RT: 1.235
ExactMass: 258.08920892
Spectrum_type: 2
charge: -1
Formula: C15H14O4
SMILES: CC(=C)C1C(O1)C2=C(C=CC3=C2OC(=O)C=C3)OC
Method: HCD
Collision_energy: [28.333334]
Isolation_window: 4.0
Ion_mode: N
Num Peaks: 72
58.0289	3.0
59.0129	10.4
69.4705	1.1
73.0286	8.5
79.9563	13.2
80.9642	3.0
87.0078	3.9
87.0441	1.6
93.0336	4.9
96.9591	47.7
98.9549	3.2
101.0235	1.2
106.0414	16.0
107.0493	31.7
108.0207	5.7
108.0525	2.3
109.0287	1.2
111.0443	1.2
112.9361	2.0
113.0234	2.1
115.0755	3.5
121.0285	9.2
123.0442	1.1
123.0804	1.4
125.0601	1.7
135.0443	1.3
137.0234	1.2
138.0314	2.8
139.0754	1.1
149.0598	1.2
151.0393	1.5
153.0552	1.8
167.0563	2.4
167.0709	1.2
171.0815	1.3
177.0550	2.3
179.0564	1.2
193.0510	1.5
194.0614	3.7
205.0882	1.4
205.5906	1.3
210.5291	1.5
211.0605	1.1
212.0958	2.3
212.5980	1.3
213.0916	100.0
214.0950	14.7
214.1232	1.5
215.0718	1.6
218.0228	1.6
255.0508	2.4
255.0806	7.4
255.2327	69.6
255.5828	4.9
256.0544	1.5
256.0801	5.7
256.1190	1.3
256.2362	17.3
257.0819	81.0
257.1722	1.5
257.2365	1.9
257.2388	1.3
257.5821	1.9
258.0232	43.7
258.0858	12.0
258.0881	11.2
258.5942	1.8
259.0152	5.8
259.0634	16.1
259.0875	1.0
259.1006	21.9
259.1369	2.1

Name: 7-Methoxyflavonol
PrecursorMZ: 267.06611
RT: 1.1652
ExactMass: 268.07355886
Spectrum_type: 2
charge: -1
Formula: C16H12O4
SMILES: COC1=CC2=C(C=C1)C(=O)C(=C(O2)C3=CC=CC=C3)O
Method: HCD
Collision_energy: [28.333334]
Isolation_window: 4.0
Ion_mode: N
Num Peaks: 50
59.0130	1.4
72.9921	3.5
80.9642	5.6
87.0078	1.9
96.9591	2.9
109.0285	1.4
123.0079	0.9
123.0441	1.6
137.0236	10.3
137.0598	1.0
138.0548	1.1
139.0391	1.4
151.0758	1.1
163.0756	1.4
165.0546	1.4
177.0538	1.1
179.0709	1.0
181.0496	0.9
193.0496	1.0
195.0653	2.9
207.0655	1.3
209.0450	0.9
211.0759	2.6
223.0767	4.4
224.0473	5.6
225.0552	11.9
225.0765	1.0
226.0599	2.1
227.0346	2.0
237.0384	5.4
238.0631	4.8
239.0709	25.0
240.0738	3.6
251.0551	4.5
252.0424	19.3
253.0470	3.0
254.0582	6.0
265.0731	1.5
265.1475	8.9
266.0338	1.2
266.0598	1.8
266.0842	5.4
266.1502	1.8
267.0189	1.4
267.0662	100.0
267.0869	6.1
267.1268	1.1
268.0482	3.1
268.0707	14.0
269.0635	44.8

Name: 7-Methoxyrosmanol
PrecursorMZ: 359.18693
RT: 4.6558
ExactMass: 360.19367399
Spectrum_type: 2
charge: -1
Formula: C21H28O5
SMILES: CC(C)C1=C(C(=C2C(=C1)[C@@H]([C@@H]3[C@@H]4[C@@]2(CCCC4(C)C)C(=O)O3)OC)O)O
Method: HCD
Collision_energy: [28.333334]
Isolation_window: 4.0
Ion_mode: N
Num Peaks: 70
59.0130	1.0
69.1702	0.9
69.7746	0.7
72.9922	0.9
73.0287	0.6
79.9565	35.8
80.9643	2.7
81.9523	1.0
87.0079	1.7
96.9593	2.2
106.0422	0.7
107.0494	2.2
109.0288	0.9
111.0443	0.6
116.0709	0.7
119.0493	3.5
121.0288	2.0
130.0865	0.7
133.0650	1.0
134.0602	0.7
135.0443	0.7
163.0395	0.7
253.1593	0.6
254.1562	0.9
256.0743	0.7
269.1912	3.7
270.1948	0.7
271.0989	0.6
271.1448	0.7
271.2069	90.1
271.2671	0.6
272.2102	17.8
273.2142	1.1
279.1748	1.8
297.1861	9.2
298.1893	1.9
315.0902	1.5
315.1245	1.0
315.1968	6.1
316.1221	0.6
316.1996	1.3
328.1594	0.6
341.1761	23.6
342.1791	5.4
357.1975	2.1
357.2641	1.4
357.6995	1.6
358.0926	1.5
358.1326	2.0
358.1351	2.0
358.1676	0.9
358.2033	1.1
358.2067	1.8
358.7062	1.0
359.0812	1.3
359.1144	4.9
359.1871	100.0
359.2793	5.4
360.1126	2.0
360.1192	3.0
360.1515	1.5
360.1901	21.2
360.2832	1.3
361.0931	4.5
361.1308	1.6
361.1658	0.8
361.1913	1.4
361.1954	1.5
361.2000	1.9
361.2619	0.8

Name: 7-Methyluric acid
PrecursorMZ: 181.03593
RT: 4.9794
ExactMass: 182.04399007
Spectrum_type: 2
charge: -1
Formula: C6H6N4O3
SMILES: CN1C2=C(NC(=O)NC2=O)NC1=O
Method: HCD
Collision_energy: [28.333334]
Isolation_window: 4.0
Ion_mode: N
Num Peaks: 13
69.4648	4.2
110.0351	6.6
112.0507	4.9
136.0759	14.2
137.0096	10.0
138.0298	16.8
138.0916	4.9
156.0410	5.6
166.0128	6.3
180.0654	6.4
181.0360	100.0
182.0379	5.6
183.1129	4.4

Name: 7-Sulfocholic acid
PrecursorMZ: 487.23665
RT: 3.0715
ExactMass: 488.2443894
Spectrum_type: 2
charge: -1
Formula: C24H40O8S
SMILES: C[C@H](CCC(=O)O)[C@H]1CC[C@@H]2[C@@]1([C@H](C[C@H]3[C@H]2[C@@H](C[C@H]4[C@@]3(CC[C@H](C4)O)C)OS(=O)(=O)O)O)C
Method: HCD
Collision_energy: [28.333334]
Isolation_window: 4.0
Ion_mode: N
Num Peaks: 27
53.9149	0.5
54.0235	0.3
54.0264	0.9
54.1359	1.8
54.1389	4.3
54.2474	0.5
54.2503	1.1
79.9564	0.4
87.0077	0.3
96.9591	32.5
98.9549	1.3
173.0445	0.4
195.0517	2.0
319.1912	6.7
320.1945	4.1
321.1972	0.5
331.1912	0.6
332.1945	0.8
333.2067	0.6
407.2803	0.3
485.2216	12.6
486.2254	19.3
487.0903	0.5
487.2368	100.0
487.3849	0.6
488.2404	24.9
489.2386	4.8

Name: 7-ethenyl-1,4a,7-trimethyl-3,4,6,8,8a,9,10,10a-octahydro-2H-phenanthrene-1-carboxylic acid
PrecursorMZ: 301.21734
RT: 0.5615
ExactMass: 302.224580195
Spectrum_type: 2
charge: -1
Formula: C20H30O2
SMILES: CC12CCCC(C1CCC3C2=CCC(C3)(C)C=C)(C)C(=O)O
Method: HCD
Collision_energy: [28.333334]
Isolation_window: 4.0
Ion_mode: N
Num Peaks: 17
61.9875	0.8
221.1542	1.6
299.2021	12.8
299.2579	7.3
300.0495	2.5
300.2056	6.3
300.2615	2.4
301.0718	2.5
301.1113	3.7
301.1617	1.0
301.2174	100.0
302.0696	1.4
302.1125	0.8
302.2206	19.9
303.0513	1.2
303.0876	1.7
303.2328	12.7

Name: 7-hydroxy-2-(4-hydroxyphenyl)-5-)(2S,3R,4S,5S,6R)-3,4,5-trihydroxy-6-(hydroxymethyl)oxan-2-yl(oxy-2,3-dihydrochromen-4-one
PrecursorMZ: 433.1139
RT: 4.9509
ExactMass: 434.12129689
Spectrum_type: 2
charge: -1
Formula: C21H22O10
SMILES: C1C(OC2=C(C1=O)C(=CC(=C2)O)O[C@H]3[C@@H]([C@H]([C@@H]([C@H](O3)CO)O)O)O)C4=CC=C(C=C4)O
Method: HCD
Collision_energy: [28.333334]
Isolation_window: 4.0
Ion_mode: N
Num Peaks: 10
135.0442	55.7
165.0912	14.3
179.0338	15.2
209.0812	43.4
253.0713	90.9
254.0747	10.4
389.1239	41.6
390.1268	11.5
433.1141	100.0
434.1177	22.5

Name: 7-hydroxy-3,4-dihydro-2H-1-benzopyran-4-one
PrecursorMZ: 163.03914
RT: 4.3534
ExactMass: 164.047344113
Spectrum_type: 2
charge: -1
Formula: C9H8O3
SMILES: C1COC2=C(C1=O)C=CC(=C2)O
Method: HCD
Collision_energy: [28.333334]
Isolation_window: 4.0
Ion_mode: N
Num Peaks: 13
91.0543	8.1
92.0496	15.8
94.0290	2.3
120.0445	7.4
121.0285	100.0
135.0441	3.3
161.0434	13.3
162.0189	3.2
162.0451	2.2
163.0255	2.6
163.0396	2.4
164.0340	2.8
165.0186	13.4

Name: 7beta,18-Dihydroxykaurenolide
PrecursorMZ: 377.19697
RT: 1.0056
ExactMass: 332.19875937
Spectrum_type: 2
charge: -1
Formula: C20H28O4
SMILES: C[C@@]12CCC[C@@]3([C@H]1[C@H]([C@@H]([C@]45[C@H]2CC[C@H](C4)C(=C)C5)O)OC3=O)CO
Method: HCD
Collision_energy: [28.333334]
Isolation_window: 4.0
Ion_mode: N
Num Peaks: 4
125.0600	3.8
377.1977	100.0
378.2010	23.3
379.1751	14.9

Name: 8-(2-(3,4-dihydroxy-2,5-dimethoxyoxolan-3-yl)ethyl)-4a,7,8-trimethylspiro(2,3,5,6,7,8a-hexahydro-1H-naphthalene-4,2'-oxirane)-2,3-diol
PrecursorMZ: 429.24954
RT: 1.4322
ExactMass: 430.25666817
Spectrum_type: 2
charge: -1
Formula: C22H38O8
SMILES: CC1CCC2(C(C1(C)CCC3(C(C(OC3OC)OC)O)O)CC(C(C24CO4)O)O)C
Method: HCD
Collision_energy: [28.333334]
Isolation_window: 4.0
Ion_mode: N
Num Peaks: 97
57.0337	2.4
59.0130	6.5
69.0337	1.7
71.0130	2.7
71.0493	1.9
73.0286	2.1
83.0493	3.7
85.0286	1.6
85.0647	1.0
87.0442	2.7
88.0394	1.2
97.0287	1.2
97.0652	2.2
99.0438	1.0
101.0235	2.4
101.0600	1.1
109.0652	1.8
111.0807	1.6
113.0232	1.1
113.0598	2.2
113.0961	1.1
114.0553	2.3
115.0393	5.0
121.1010	0.9
123.0808	1.2
125.0598	1.0
125.0961	0.9
127.0756	2.2
128.0346	2.0
129.0549	1.7
129.0913	2.1
131.0342	1.4
137.0962	1.1
139.1116	1.0
141.0914	1.4
143.0702	1.4
145.0500	3.0
153.0911	1.0
155.0710	1.4
155.1070	1.5
157.0867	2.6
159.1020	3.6
163.1122	1.1
165.1280	1.3
171.1021	1.6
173.0811	1.5
175.0970	5.4
181.1229	7.5
182.1262	1.7
183.1020	1.8
185.1178	1.9
187.0967	1.0
191.1431	1.2
199.0971	1.2
199.1336	1.2
201.1122	2.7
203.1280	1.3
207.1390	1.2
209.1186	2.2
209.1542	6.9
225.1125	2.3
227.1289	2.5
235.1330	1.6
237.1492	1.4
239.1642	1.1
243.1231	1.3
245.1401	2.4
253.1442	3.5
255.1614	1.4
271.1555	3.1
273.1721	1.2
278.0937	2.9
289.1648	1.3
340.0939	2.7
349.2372	1.2
367.2495	2.9
383.2856	1.6
384.2466	1.0
385.2569	1.9
393.2264	2.4
395.2460	1.9
397.2235	2.1
409.2203	0.9
409.2664	2.7
410.2184	1.7
410.2641	1.1
411.2362	10.6
412.2391	2.4
413.2549	5.1
427.2282	10.7
427.2701	15.1
428.1455	1.0
428.2282	17.1
428.2783	6.0
429.2479	100.0
430.2511	22.0
431.2670	44.2

Name: 8-)(4-fluorobenzyl)sulfanyl(-9-(4-methylphenyl)-1,9-dihydro-6H-purin-6-one
PrecursorMZ: 365.08761
RT: 2.6419
ExactMass: 366.09506045
Spectrum_type: 2
charge: -1
Formula: C19H15FN4OS
SMILES: CC1=CC=C(C=C1)N2C3=C(C(=O)NC=N3)N=C2SCC4=CC=C(C=C4)F
Method: HCD
Collision_energy: [28.333334]
Isolation_window: 4.0
Ion_mode: N
Num Peaks: 18
61.9875	6.5
87.0077	6.9
109.0286	7.3
135.0443	23.2
149.0227	6.3
181.0496	19.8
203.0702	12.3
265.0720	10.2
303.0857	6.5
305.0665	6.8
319.0817	22.8
345.0993	6.8
363.1100	49.9
364.1104	26.0
365.0863	100.0
365.1205	8.7
366.0876	25.1
367.1030	12.1

Name: 8-)2-(3,4-dihydroxy-2,5-dimethoxyoxolan-3-yl)ethyl(-4a,7,8-trimethylspiro)2,3,5,6,7,8a-hexahydro-1H-naphthalene-4,2'-oxirane(-2,3-diol
PrecursorMZ: 429.24929
RT: 2.7192
ExactMass: 430.25666817
Spectrum_type: 2
charge: -1
Formula: C22H38O8
SMILES: CC1CCC2(C(C1(C)CCC3(C(C(OC3OC)OC)O)O)CC(C(C24CO4)O)O)C
Method: HCD
Collision_energy: [28.333334]
Isolation_window: 4.0
Ion_mode: N
Num Peaks: 96
57.0337	1.3
59.0129	1.5
61.9871	0.6
71.0129	0.9
71.0493	0.9
83.0492	1.0
87.0441	2.6
97.0647	0.9
101.0594	0.6
109.0283	0.7
109.0645	0.6
111.0806	1.1
113.0597	2.2
113.0958	0.7
121.1013	1.0
127.0755	1.4
129.0540	0.6
129.0911	2.2
131.0704	0.7
135.0443	1.3
139.1119	1.2
141.0908	0.9
143.0706	0.9
145.0490	0.6
152.9941	0.5
155.1069	0.9
157.0860	1.5
159.1017	2.2
163.1124	0.8
165.0400	0.7
165.1276	1.2
171.0649	0.6
173.0812	0.9
175.0968	9.8
176.1002	0.7
181.1226	10.0
182.1261	3.2
183.1019	0.9
183.1400	0.8
189.0769	0.7
191.0550	0.7
191.1437	1.6
199.1335	0.7
201.1126	3.2
202.1157	1.0
207.1382	1.2
209.1200	1.5
209.1540	11.0
210.1572	1.5
225.1130	2.1
226.1167	0.8
227.1286	4.0
227.1634	1.0
228.1316	0.5
235.1334	2.3
243.1234	2.0
244.1258	0.6
245.1391	3.7
246.1417	0.6
253.1441	9.3
254.1477	0.8
255.1588	1.1
269.1394	1.3
271.1549	3.2
287.1487	0.5
289.1654	2.1
299.1846	0.6
315.1792	0.6
349.2369	1.1
351.2539	0.8
367.2489	1.3
379.2154	0.9
385.2594	0.7
393.2283	2.6
394.2307	0.7
395.2451	3.1
397.2229	3.1
398.2264	0.7
409.2151	1.4
410.2232	1.4
411.2389	10.5
412.2420	2.0
413.2543	7.3
427.2302	18.7
428.1348	0.7
428.2350	17.1
429.1248	1.0
429.1511	1.0
429.2491	100.0
429.2994	0.6
429.3687	0.8
430.1236	1.0
430.2524	24.4
431.1143	2.8
431.1651	0.8
431.2647	41.9

Name: 8-Acetamido-2-methyl-7-oxononanoic acid
PrecursorMZ: 242.13968
RT: 0.5675
ExactMass: 243.14705815
Spectrum_type: 2
charge: -1
Formula: C12H21NO4
SMILES: CC(CCCCC(=O)C(C)NC(=O)C)C(=O)O
Method: HCD
Collision_energy: [28.333334]
Isolation_window: 4.0
Ion_mode: N
Num Peaks: 26
59.0129	0.7
82.0652	0.4
85.0286	0.2
85.0649	0.6
100.0758	0.6
101.0598	0.5
128.0709	0.3
128.1074	0.3
154.1228	0.2
170.1543	11.9
171.1579	1.2
197.1543	4.9
198.1100	0.6
198.1493	100.0
198.1788	0.6
198.1873	0.7
198.1983	0.2
198.2397	0.3
199.1526	10.7
200.1551	0.6
241.1445	0.5
241.1805	0.9
241.2169	1.0
242.1394	6.3
242.1839	0.2
243.1429	0.7

Name: 8-Hydroxy-2,7,7,11,15-pentamethyl-5,12,16-trioxapentacyclo(9.8.0.0(2),.0,.0(1)(3),(1))nonadec-13(18)-ene-3,17-dione
PrecursorMZ: 375.18131
RT: 0.908
ExactMass: 376.18858861
Spectrum_type: 2
charge: -1
Formula: C21H28O6
SMILES: CC1CC2=C(CC3C(O2)(CCC4(C3(C(=O)C5C(C4(C)C)O5)C)O)C)C(=O)O1
Method: HCD
Collision_energy: [28.333334]
Isolation_window: 4.0
Ion_mode: N
Num Peaks: 165
59.0125	0.3
69.2622	0.4
79.9564	1.4
80.9644	0.4
83.0493	0.3
85.0650	0.4
87.0073	0.3
95.0492	0.6
96.9592	1.8
97.0284	0.3
97.4661	0.3
99.0806	2.8
101.0599	1.3
109.0286	0.8
109.0648	0.4
110.0001	0.4
111.0073	0.3
111.0443	1.4
113.0233	0.3
113.0598	0.6
123.0444	0.5
123.0804	0.3
125.0238	0.7
125.0599	6.8
127.0387	0.3
127.0756	1.1
135.0438	0.3
137.0232	0.3
137.0600	0.5
139.0394	0.5
139.0757	3.9
141.0550	3.2
149.0966	1.0
151.0397	0.3
151.0755	0.5
153.0188	0.5
153.0549	0.8
155.0710	0.6
163.0390	0.3
163.0758	0.7
165.0549	1.2
165.0915	0.4
167.0708	0.9
169.0500	0.4
175.1118	0.3
177.0550	0.5
178.0630	0.7
179.0708	1.6
181.0499	0.7
181.0868	0.3
181.1228	0.4
183.0652	0.5
189.1277	0.5
191.0705	0.3
191.1074	0.6
193.0505	0.6
193.0861	0.6
194.0577	0.4
195.0658	5.2
200.0328	0.5
205.0504	0.4
205.0867	1.3
205.1228	0.7
206.0938	0.3
207.0658	0.7
207.1386	1.2
208.0732	0.3
209.0818	0.5
209.1174	0.7
210.0530	0.3
211.0607	1.2
219.0682	0.4
219.1024	0.4
219.1384	0.4
220.0737	0.4
221.0815	3.4
221.1148	0.5
223.0627	0.3
223.1003	1.0
223.1337	6.3
231.1026	0.4
231.1380	0.4
233.0815	0.3
233.1182	0.7
235.0975	0.6
235.1330	0.6
236.0328	0.8
237.1131	4.9
239.0556	0.7
243.1023	0.3
245.0815	0.6
245.1181	0.4
247.0245	0.7
247.0966	0.6
247.1340	0.8
248.1052	0.4
249.0408	0.5
249.0769	0.8
249.1134	1.3
251.0939	0.4
251.1289	1.6
259.0982	0.7
261.0772	0.4
261.1133	0.9
262.1196	0.5
263.0952	0.5
263.1288	15.2
264.1330	0.7
265.0713	0.3
265.1089	0.5
265.1450	0.3
267.1241	0.3
272.1048	0.3
273.1134	0.4
275.0931	0.7
275.1292	1.5
275.1647	0.4
279.1235	0.8
280.1313	0.6
281.1393	2.4
287.0922	0.4
289.0729	0.6
289.1084	0.3
289.1451	0.7
290.0794	1.0
290.1159	0.9
291.1231	0.7
293.1389	0.7
301.1440	0.4
306.0748	7.0
306.1101	0.6
307.0787	1.2
308.0903	5.1
308.1268	1.2
315.1975	0.5
317.1390	1.2
319.1188	1.0
319.1555	1.1
331.1195	0.3
331.1552	0.6
331.1923	1.0
333.1363	0.5
333.1714	0.7
333.2043	0.4
333.2082	0.7
347.1513	0.3
357.1708	0.4
359.1872	1.7
373.1281	0.5
373.1684	1.8
373.2055	1.4
374.0937	0.7
374.1299	1.8
374.1704	2.1
374.2113	0.7
375.1074	5.3
375.1442	6.1
375.1830	24.7
376.1088	1.4
376.1471	1.1
376.1854	5.2
377.0887	0.9
377.0955	0.8
377.1598	5.4
377.1978	100.0

Name: 8-Hydroxy-5,8a-dimethyl-3-methylidene-3a,4,4a,8,9,9a-hexahydrobenzo(f)(1)benzofuran-2,7-dione
PrecursorMZ: 261.11314
RT: 0.8812
ExactMass: 262.12050905
Spectrum_type: 2
charge: -1
Formula: C15H18O4
SMILES: CC1=CC(=O)C(C2(C1CC3C(C2)OC(=O)C3=C)C)O
Method: HCD
Collision_energy: [28.333334]
Isolation_window: 4.0
Ion_mode: N
Num Peaks: 10
125.0602	6.7
177.0553	10.0
203.0339	4.4
217.1233	10.6
235.0602	4.5
261.1133	100.0
262.1175	16.8
263.0563	7.9
263.0935	5.2
263.1287	7.5

Name: 8-beta-D-Glucopyranosyl-5,7-dihydroxy-2-(2-methylpropyl)-4H-1-benzopyran-4-one
PrecursorMZ: 395.13455
RT: 2.0023
ExactMass: 396.14203234
Spectrum_type: 2
charge: -1
Formula: C19H24O9
SMILES: CC(C)CC1=CC(=O)C2=C(O1)C(=C(C=C2O)O)[C@H]3[C@@H]([C@H]([C@@H]([C@H](O3)CO)O)O)O
Method: HCD
Collision_energy: [28.333334]
Isolation_window: 4.0
Ion_mode: N
Num Peaks: 31
59.0128	2.4
61.9874	3.3
71.0129	4.1
73.0285	21.3
85.9987	1.8
109.0285	2.6
134.8936	1.5
135.0441	3.9
136.9905	2.4
197.0965	2.1
215.1071	6.5
217.1228	1.8
235.1131	1.5
253.1226	4.0
259.1338	4.3
271.1337	9.2
272.1375	1.5
289.1442	11.3
290.1483	1.7
307.1540	3.2
333.1340	16.3
334.1396	2.5
351.1435	1.5
377.1234	15.5
378.1290	3.5
393.1128	1.6
394.1083	1.7
394.1526	1.8
395.1347	100.0
396.1391	23.4
397.1449	3.5

Name: 8-hydroxyquinolin-2(1H)-one
PrecursorMZ: 202.0505
RT: 1.4306
ExactMass: 161.047678466
Spectrum_type: 2
charge: -1
Formula: C9H7NO2
SMILES: C1=CC2=C(C(=C1)O)NC(=O)C=C2
Method: HCD
Collision_energy: [28.333334]
Isolation_window: 4.0
Ion_mode: N
Num Peaks: 57
58.0290	3.1
59.0130	28.5
71.0129	8.7
73.0285	2.3
83.0129	3.1
84.0445	1.5
85.0284	2.3
87.0078	3.2
87.0442	2.7
88.0395	5.0
99.0443	1.5
100.0395	13.5
101.0236	1.0
101.0599	1.6
112.0396	1.7
113.0600	1.0
113.0963	1.0
114.0552	2.8
116.0707	1.5
122.0239	1.9
123.0443	2.0
126.0550	1.2
127.0391	2.0
128.0346	1.9
129.1023	1.6
130.0503	4.6
130.0865	5.2
139.1121	1.0
140.0710	1.6
142.0504	1.9
156.0658	1.0
156.1020	1.7
157.0862	1.1
157.1225	2.6
157.1340	9.4
158.0604	100.0
158.0819	1.5
158.1177	1.0
159.0640	10.7
165.0410	4.1
185.1172	1.4
200.0926	2.7
200.1283	1.2
201.0410	1.1
201.0760	1.5
201.1260	28.6
202.0505	78.7
202.0698	4.1
202.1082	6.1
202.1269	3.2
202.1459	1.0
203.0018	2.1
203.0544	11.5
203.0939	4.2
203.1284	18.4
204.0659	2.6
204.0874	1.1

Name: 9'-Methylprotocetraric acid
PrecursorMZ: 419.09829
RT: 5.6914
ExactMass: 388.07943208
Spectrum_type: 2
charge: -1
Formula: C19H16O9
SMILES: CC1=CC(=C(C2=C1C(=O)OC3=C(O2)C(=C(C(=C3COC)O)C(=O)O)C)C=O)O
Method: HCD
Collision_energy: [28.333334]
Isolation_window: 4.0
Ion_mode: N
Num Peaks: 23
61.9874	8.1
109.0284	8.6
135.0442	53.1
151.0755	14.8
159.0442	4.0
179.0340	11.6
195.0656	41.2
196.0692	4.2
197.0443	4.0
221.0448	3.9
239.0557	91.5
240.0589	10.6
254.0579	4.4
269.0818	33.9
270.0861	4.6
275.0922	3.9
357.0603	3.3
357.0980	3.5
375.1082	45.9
376.1114	9.4
419.0981	100.0
420.1017	21.7
421.1137	7.7

Name: 9,10-DiHOME
PrecursorMZ: 313.23831
RT: 2.5787
ExactMass: 314.24570956
Spectrum_type: 2
charge: -1
Formula: C18H34O4
SMILES: CCCCC/C=C\CC(C(CCCCCCCC(=O)O)O)O
Method: HCD
Collision_energy: [28.333334]
Isolation_window: 4.0
Ion_mode: N
Num Peaks: 7
183.1387	4.4
201.1122	7.6
297.2435	6.4
313.1446	4.3
313.2386	43.4
314.2417	7.7
315.2539	100.0

Name: 9,12,13-Trihydroxy-10,15-octadecadienoic acid
PrecursorMZ: 327.21749
RT: 2.9597
ExactMass: 328.22497412
Spectrum_type: 2
charge: -1
Formula: C18H32O5
SMILES: CC/C=C/CC(C(/C=C/C(CCCCCCCC(=O)O)O)O)O
Method: HCD
Collision_energy: [28.333334]
Isolation_window: 4.0
Ion_mode: N
Num Peaks: 21
83.0493	5.3
109.0651	4.9
129.0912	19.2
141.0918	6.5
171.1019	6.0
185.1177	38.5
197.1179	34.9
201.1128	9.8
209.1179	85.8
210.1214	10.7
213.1121	6.8
227.1285	10.3
241.1234	4.5
283.0977	6.1
291.1962	10.2
309.2070	11.6
327.0901	5.2
327.2177	100.0
328.2208	18.2
329.1028	12.9
329.2333	60.4

Name: 9,12,13-Trihydroxy-10E-octadecenoic acid
PrecursorMZ: 329.23327
RT: 2.648
ExactMass: 330.24062418
Spectrum_type: 2
charge: -1
Formula: C18H34O5
SMILES: CCCCCC(C(/C=C/C(CCCCCCCC(=O)O)O)O)O
Method: HCD
Collision_energy: [28.333334]
Isolation_window: 4.0
Ion_mode: N
Num Peaks: 15
59.0129	5.6
171.1021	5.8
185.1173	3.9
187.0970	3.4
199.1333	3.4
201.1132	3.7
293.2121	4.0
311.2229	15.9
327.2178	8.6
328.0823	7.8
328.2204	7.0
329.2334	100.0
330.2367	18.1
331.1926	5.7
331.2485	19.8

Name: 9,12,13-Trihydroxyoctadeca-10,15-dienoic acid
PrecursorMZ: 327.21803
RT: 0.6262
ExactMass: 328.22497412
Spectrum_type: 2
charge: -1
Formula: C18H32O5
SMILES: CCC=CCC(C(C=CC(CCCCCCCC(=O)O)O)O)O
Method: HCD
Collision_energy: [28.333334]
Isolation_window: 4.0
Ion_mode: N
Num Peaks: 145
57.0337	1.0
59.0130	3.8
69.0338	0.6
71.0129	1.1
71.0493	1.4
73.0286	1.8
83.0493	2.2
84.0207	0.5
85.0286	2.9
85.0649	1.0
87.0078	0.8
87.0442	1.3
88.0395	0.7
91.0392	0.7
95.0491	0.6
97.0285	0.5
97.0649	1.0
99.0446	0.6
99.0807	1.3
101.0236	0.5
109.0649	1.0
111.0440	0.7
111.0806	0.9
113.0962	1.4
114.0551	0.4
115.0392	0.9
115.0754	0.5
116.0709	1.1
123.0806	1.0
125.0600	0.9
125.0963	1.7
127.0757	0.8
127.1119	1.0
128.0345	1.0
129.0549	4.5
129.0912	1.7
130.0865	1.3
135.0807	0.9
137.0600	0.5
137.0964	2.2
139.0759	0.5
139.1121	2.0
141.0913	1.0
143.0707	0.7
151.0758	0.5
151.1122	0.5
153.0912	0.7
155.1071	2.4
157.0865	1.1
163.1122	0.5
165.0907	0.5
165.1279	0.6
167.1070	0.7
169.0863	1.6
169.1224	0.6
171.1020	9.4
172.1060	0.5
175.1484	0.4
179.1066	0.5
179.1435	0.6
181.0861	0.8
181.1223	1.0
183.1016	0.9
183.1384	2.9
185.1179	2.3
187.0969	1.2
191.1066	0.7
193.1231	1.0
193.1590	0.5
195.0290	1.0
195.1017	1.1
195.1379	0.6
197.0813	0.5
197.1175	2.5
199.1337	1.6
201.1127	4.9
207.1386	0.6
209.0456	1.3
209.1178	3.7
210.1219	0.5
211.1334	4.7
213.1122	1.1
221.1547	0.4
223.1337	0.6
223.1695	0.6
225.1493	1.0
227.1294	0.9
229.1440	1.7
233.1547	0.8
235.1339	0.5
235.1705	0.5
237.1488	0.8
239.1647	1.2
247.2062	0.7
251.1280	0.7
251.1648	2.1
253.1805	0.7
255.1596	0.5
265.1810	1.8
265.2172	0.4
266.1859	0.5
267.1612	0.4
267.1963	0.6
268.0953	5.5
269.0981	0.9
269.1755	1.2
273.1858	0.9
282.1108	0.4
283.1916	3.1
284.1944	0.5
285.1456	0.4
289.1813	0.8
290.1846	0.6
291.1966	3.1
292.2003	0.5
293.2122	0.9
295.1192	0.6
295.1558	0.4
307.1922	1.1
308.1948	1.1
309.1727	0.6
309.2070	7.9
310.2100	1.5
311.1866	0.4
311.2229	2.2
325.2028	7.1
326.0959	0.8
326.1352	5.9
326.1724	0.6
326.2054	7.0
327.1085	3.8
327.1455	3.6
327.1839	6.6
327.2178	100.0
327.2824	0.5
327.2986	0.7
328.1166	1.1
328.1475	0.8
328.1865	1.5
328.2210	20.2
329.1063	0.5
329.1238	0.5
329.1661	0.5
329.1971	7.3
329.2329	52.2

Name: 9,12,15-Octadecatrienoic acid, 3-(hexopyranosyloxy)-2-hydroxypropyl ester, (9Z,12Z,15Z)-
PrecursorMZ: 559.31265
RT: 3.1470000000000002
ExactMass: 514.31418304
Spectrum_type: 2
charge: -1
Formula: C27H46O9
SMILES: CC/C=C\C/C=C\C/C=C\CCCCCCCC(=O)OCC(COC1C(C(C(C(O1)CO)O)O)O)O
Method: HCD
Collision_energy: [28.333334]
Isolation_window: 4.0
Ion_mode: N
Num Peaks: 9
89.0234	3.3
101.0236	2.6
253.0930	17.5
277.2174	100.0
278.2207	17.6
279.2333	13.7
281.2476	2.8
513.3068	6.3
559.3364	4.2

Name: 9-(2,3-Dihydroxypropoxy)-9-oxononanoic acid
PrecursorMZ: 261.13435
RT: 4.72675
ExactMass: 262.14163842
Spectrum_type: 2
charge: -1
Formula: C12H22O6
SMILES: C(CCCC(=O)O)CCCC(=O)OCC(CO)O
Method: HCD
Collision_energy: [28.333334]
Isolation_window: 4.0
Ion_mode: N
Num Peaks: 15
69.3507	3.4
87.0079	4.0
97.0649	3.3
125.0964	78.9
126.0997	5.0
136.0760	42.9
137.0797	3.3
169.0864	5.1
187.0970	100.0
188.1004	9.8
259.1192	3.2
261.1343	35.2
261.1610	6.5
262.0964	2.8
262.1381	3.0

Name: 9-(3,5-difluorophenyl)-6-phenyl-5,6,7,9-tetrahydro)1,2,4(triazolo)5,1-b(quinazolin-8(4H)-one
PrecursorMZ: 377.12128
RT: 4.9396
ExactMass: 378.12921747
Spectrum_type: 2
charge: -1
Formula: C21H16F2N4O
SMILES: C1C(CC(=O)C2=C1NC3=NC=NN3C2C4=CC(=CC(=C4)F)F)C5=CC=CC=C5
Method: HCD
Collision_energy: [28.333334]
Isolation_window: 4.0
Ion_mode: N
Num Peaks: 13
100.0029	5.6
214.0732	3.9
216.0884	25.1
240.0883	9.1
244.0837	10.0
257.1153	100.0
258.1182	13.1
283.0951	6.6
301.1046	4.2
315.1208	13.1
345.0952	24.0
377.1218	31.6
378.1227	6.7

Name: 9-(Ethoxymethyl)-4-formyl-3,8-dihydroxy-1,6-dimethyl-11-oxo-11H-dibenzo(b,e)(1,4)dioxepin-7-carboxylic acid
PrecursorMZ: 401.0874
RT: 2.0768
ExactMass: 402.09508215
Spectrum_type: 2
charge: -1
Formula: C20H18O9
SMILES: CCOCC1=C(C(=C(C2=C1OC(=O)C3=C(O2)C(=C(C=C3C)O)C=O)C)C(=O)O)O
Method: HCD
Collision_energy: [28.333334]
Isolation_window: 4.0
Ion_mode: N
Num Peaks: 23
78.9581	3.1
79.9563	2.4
80.9642	6.3
121.0285	100.0
122.0318	7.7
130.0862	2.6
164.0711	2.2
181.0652	5.5
209.0452	4.3
225.0551	12.8
265.2535	5.0
294.2798	3.0
313.0713	39.9
314.0749	6.1
357.0603	8.2
399.1812	2.2
400.1859	2.3
401.0871	60.5
401.1813	6.7
401.2454	6.3
402.0884	13.4
402.2653	6.5
403.0939	2.9

Name: 9-(Methoxycarbonyl)-9-decenoic acid
PrecursorMZ: 227.1286
RT: 4.9463
ExactMass: 228.13615911
Spectrum_type: 2
charge: -1
Formula: C12H20O4
SMILES: COC(=O)C(=C)CCCCCCCC(=O)O
Method: HCD
Collision_energy: [28.333334]
Isolation_window: 4.0
Ion_mode: N
Num Peaks: 33
57.0337	6.1
59.0130	7.9
69.0337	2.7
71.0494	2.3
80.9642	3.4
85.0649	2.1
95.0493	2.0
96.0082	2.9
97.0650	5.1
109.0650	2.6
111.0806	4.8
121.0652	1.8
123.0808	1.7
129.0661	1.8
139.0756	2.0
141.0913	2.5
144.0450	5.1
165.1277	3.0
167.1069	1.7
180.0029	6.1
181.1228	3.9
182.0187	32.7
183.0223	2.8
183.1385	3.8
185.1543	2.6
209.1177	3.0
225.1135	2.9
226.0092	14.8
227.0059	1.9
227.1287	100.0
228.1323	13.6
229.1111	2.4
229.1445	21.8

Name: 9-(Octanoyloxy)octadecanoic acid
PrecursorMZ: 425.36327
RT: 0.88075
ExactMass: 426.37091007
Spectrum_type: 2
charge: -1
Formula: C26H50O4
SMILES: CCCCCCCCCC(CCCCCCCC(=O)O)OC(=O)CCCCCCC
Method: HCD
Collision_energy: [28.333334]
Isolation_window: 4.0
Ion_mode: N
Num Peaks: 66
59.0104	3.6
59.0130	25.2
59.0154	2.1
69.1588	1.4
73.0286	13.3
78.9577	2.5
87.0442	34.4
88.0476	1.4
96.9588	3.7
115.0754	10.6
143.1068	6.6
149.0599	6.4
152.9950	6.8
164.0710	4.8
199.1690	2.0
225.2220	1.5
248.0802	2.6
281.2840	1.7
299.2583	1.6
309.2791	4.3
309.3159	5.1
323.3318	2.1
327.2901	9.8
328.2949	2.2
335.3311	1.7
336.3353	2.2
337.3109	20.2
337.3475	24.7
338.3141	4.9
338.3510	5.6
341.3057	1.9
351.3268	8.8
352.3306	2.3
355.3217	31.9
356.3250	8.3
363.3267	1.9
364.3300	3.7
365.3422	34.0
366.3460	8.0
369.3372	11.8
370.3409	2.6
381.3375	5.8
382.3410	11.4
383.3530	100.0
384.3564	26.3
385.3598	2.2
389.2689	2.0
392.1841	1.3
423.4213	20.4
424.3517	2.1
424.4250	14.9
425.1789	2.9
425.1982	1.5
425.2416	2.8
425.2490	2.0
425.2606	1.3
425.3633	32.5
425.4264	2.3
426.2412	1.5
426.3020	6.0
426.3667	9.1
427.1785	2.6
427.2130	27.2
427.2577	1.4
427.3730	2.9
427.3792	1.7

Name: 9-HOTrE
PrecursorMZ: 293.21228
RT: 1.4012
ExactMass: 294.21949481
Spectrum_type: 2
charge: -1
Formula: C18H30O3
SMILES: CC/C=C\C/C=C\C=C\C(CCCCCCCC(=O)O)O
Method: HCD
Collision_energy: [28.333334]
Isolation_window: 4.0
Ion_mode: N
Num Peaks: 24
57.0337	1.4
59.0130	1.7
96.9592	2.9
113.0964	2.9
125.0963	3.3
141.1277	1.2
149.0967	1.5
171.1022	1.8
185.1179	7.6
197.1176	1.7
199.1695	1.3
249.2224	1.7
275.2014	3.0
277.2174	1.5
291.1976	1.3
292.0845	1.3
293.0659	5.0
293.1039	3.5
293.2122	100.0
294.1023	1.3
294.2155	20.5
295.0818	2.6
295.1168	1.3
295.2278	27.7

Name: 9-Hydroxy-10,12-Octadecadienoic Acid
PrecursorMZ: 295.22795
RT: 0.5515
ExactMass: 296.23514488
Spectrum_type: 2
charge: -1
Formula: C18H32O3
SMILES: CCCCCC=CC=CC(CCCCCCCC(=O)O)O
Method: HCD
Collision_energy: [28.333334]
Isolation_window: 4.0
Ion_mode: N
Num Peaks: 29
59.0130	1.1
61.9875	0.8
96.9592	0.6
113.0963	1.1
171.1019	7.1
172.1057	0.7
179.1430	0.6
183.1027	1.3
183.1384	5.2
185.1175	1.2
195.1384	12.6
196.1419	1.4
223.1698	0.5
225.1491	0.5
275.2015	0.7
277.2171	21.0
278.2204	4.4
279.2320	1.0
293.2120	3.2
294.2145	1.6
295.0808	1.0
295.1171	1.7
295.1573	0.7
295.2277	100.0
295.2971	0.6
296.1217	0.6
296.2311	18.8
297.1531	1.7
297.2431	23.9

Name: 9-Methoxycarbonyldec-9-enoic acid
PrecursorMZ: 227.12861
RT: 1.8478
ExactMass: 228.13615911
Spectrum_type: 2
charge: -1
Formula: C12H20O4
SMILES: COC(=O)C(=C)CCCCCCCC(=O)O
Method: HCD
Collision_energy: [28.333334]
Isolation_window: 4.0
Ion_mode: N
Num Peaks: 41
59.0130	0.5
61.9875	0.7
71.0494	1.4
73.0286	1.0
74.0238	1.6
88.0395	1.2
96.0445	0.6
97.0650	1.9
98.0238	0.5
105.0183	0.7
111.0807	0.9
123.0806	0.6
126.0189	0.5
126.0549	0.5
127.0392	0.5
155.0816	0.8
165.0547	0.5
165.0669	0.5
165.1279	5.9
166.1316	0.6
167.1435	31.0
183.1385	15.7
184.1421	1.8
185.0809	0.9
185.1551	0.5
209.1179	5.4
210.1208	0.6
211.1336	28.0
226.0380	0.6
226.0711	0.9
227.0231	0.6
227.0691	2.3
227.1287	38.3
227.2008	0.9
228.0888	0.8
228.1321	4.7
229.0742	1.8
229.0965	0.5
229.1442	100.0
229.1820	0.7
229.1919	0.7

Name: 9-Octadecynoic Acid
PrecursorMZ: 279.2324
RT: 1.0210666666666666
ExactMass: 280.240230259
Spectrum_type: 2
charge: -1
Formula: C18H32O2
SMILES: CCCCCCCCC#CCCCCCCCC(=O)O
Method: HCD
Collision_energy: [28.333334]
Isolation_window: 4.0
Ion_mode: N
Num Peaks: 33
59.0129	0.6
69.5396	0.5
69.7250	0.5
69.8151	0.4
79.9564	2.1
96.9591	10.5
121.0287	0.6
134.0363	0.7
141.1277	2.1
142.1310	0.5
178.0994	0.6
235.1691	0.5
261.2222	0.6
277.1458	0.4
277.1821	0.5
277.2168	4.3
277.6479	1.4
278.1475	0.7
278.1849	0.5
278.2201	2.4
279.0549	0.7
279.1170	0.9
279.1613	1.2
279.1659	1.3
279.1690	1.2
279.1816	0.5
279.2326	100.0
279.2969	0.6
280.1242	13.6
280.2360	19.3
280.6259	4.2
281.1307	4.5
281.2480	15.7

Name: 9-Oxononanoic acid
PrecursorMZ: 171.102
RT: 2.8486
ExactMass: 172.109944368
Spectrum_type: 2
charge: -1
Formula: C9H16O3
SMILES: C(CCCC=O)CCCC(=O)O
Method: HCD
Collision_energy: [28.333334]
Isolation_window: 4.0
Ion_mode: N
Num Peaks: 4
71.0493	21.7
127.1121	100.0
153.0916	17.7
171.1021	92.4

Name: 9-Pahsa
PrecursorMZ: 537.48909
RT: 0.97456
ExactMass: 538.49611058
Spectrum_type: 2
charge: -1
Formula: C34H66O4
SMILES: CCCCCCCCCCCCCCCC(=O)OC(CCCCCCCCC)CCCCCCCC(=O)O
Method: HCD
Collision_energy: [28.333334]
Isolation_window: 4.0
Ion_mode: N
Num Peaks: 20
59.7041	3.4
59.7222	2.6
69.0562	2.4
96.9593	2.0
253.2180	1.9
255.2330	100.0
256.2364	15.9
281.2487	22.8
282.2519	4.9
299.2591	16.7
300.2621	2.4
461.4727	2.5
493.4432	1.5
536.3159	3.5
536.4833	1.9
537.3287	57.6
537.4906	43.1
538.3317	17.6
538.4941	15.0
539.3322	7.4

Name: 9-hydroxy-10E,12Z-octadecadienoic acid
PrecursorMZ: 295.22729
RT: 1.2315
ExactMass: 296.23514488
Spectrum_type: 2
charge: -1
Formula: C18H32O3
SMILES: CCCCC/C=C\C=C\C(CCCCCCCC(=O)O)O
Method: HCD
Collision_energy: [28.333334]
Isolation_window: 4.0
Ion_mode: N
Num Peaks: 47
59.0129	0.5
70.4149	0.2
79.9562	0.4
96.9591	1.2
111.0806	0.4
139.1119	1.3
149.0086	3.7
155.1434	0.8
171.1018	1.7
183.1028	1.5
183.1383	10.7
184.1418	1.2
195.1383	2.5
196.1419	0.3
207.1739	0.5
223.1697	1.2
235.1700	1.1
251.1646	0.8
253.2533	2.0
264.9843	2.9
277.2169	5.0
278.2201	1.1
279.2328	0.5
281.0157	2.2
282.9943	0.5
293.1795	1.2
293.2121	0.8
294.1823	2.8
294.2146	0.7
295.1130	0.3
295.1795	0.9
295.2275	32.2
296.1192	0.9
296.2309	6.6
297.0469	13.5
297.1230	0.4
297.1537	1.5
297.1719	0.6
297.1874	0.6
297.2432	100.0
297.2689	0.8
297.2730	0.6
297.2771	0.4
297.2990	0.4
297.3133	0.7
299.0259	4.6
315.0575	6.9

Name: 9S,11,15S-trihydroxy-thrombox-13E-enoic acid
PrecursorMZ: 371.24362
RT: 4.8265
ExactMass: 372.25118886
Spectrum_type: 2
charge: -1
Formula: C20H36O6
SMILES: CCCCC[C@@H](/C=C/C1[C@H]([C@H](CC(O1)O)O)CCCCCCC(=O)O)O
Method: HCD
Collision_energy: [28.333334]
Isolation_window: 4.0
Ion_mode: N
Num Peaks: 77
57.0337	2.1
59.0129	5.6
71.0129	2.8
73.0285	2.5
74.0237	4.2
83.0491	2.8
85.0651	1.8
87.0077	2.5
88.0393	2.7
93.0336	3.4
98.0238	2.3
99.0077	2.1
99.0442	2.2
101.0233	6.0
109.0286	1.9
114.0551	8.2
115.0391	3.9
116.0709	2.8
127.0503	2.6
130.0865	16.9
131.0704	3.8
135.0443	2.7
153.0915	1.7
155.1071	2.4
159.1023	2.5
164.0709	3.0
170.0037	2.5
171.1021	4.4
181.1225	2.4
187.1335	1.8
196.0973	5.7
201.1128	1.8
208.0609	2.2
215.0920	1.9
241.0729	2.3
255.0647	2.3
259.1450	3.7
273.1862	2.1
291.2315	2.2
301.1811	10.0
303.1342	3.0
307.2256	2.2
307.2291	1.7
309.2438	6.4
325.2382	6.8
326.2415	5.3
327.1930	10.1
327.2532	9.5
328.1956	2.0
328.2545	2.1
335.1598	3.7
335.2218	3.0
345.1707	34.1
346.1742	4.9
351.2161	2.6
352.2200	2.3
353.2334	16.4
354.2380	3.5
369.2277	20.1
370.0985	1.8
370.1359	2.8
370.2288	20.8
371.1159	1.9
371.1229	2.7
371.1694	2.3
371.2060	5.2
371.2109	5.9
371.2445	100.0
372.1086	2.0
372.1492	3.9
372.1803	8.5
372.2467	23.4
373.0739	2.2
373.1332	2.0
373.1425	2.2
373.2186	3.6
373.2620	11.2

Name: AG 30
PrecursorMZ: 204.02955
RT: 5.372
ExactMass: 205.0375077
Spectrum_type: 2
charge: -1
Formula: C10H7NO4
SMILES: C1=CC(=C(C=C1/C=C(\C#N)/C(=O)O)O)O
Method: HCD
Collision_energy: [28.333334]
Isolation_window: 4.0
Ion_mode: N
Num Peaks: 19
104.0495	1.1
117.0336	2.8
131.0367	1.2
132.0446	8.0
133.0477	0.6
158.0238	0.5
159.0318	5.4
160.0117	0.7
160.0181	0.5
160.0395	100.0
160.0671	0.6
161.0430	9.4
162.0449	0.4
178.0500	1.7
202.1276	0.6
203.1291	1.0
204.0295	3.3
205.0352	0.4
205.1590	0.6

Name: Abscisic Acid
PrecursorMZ: 263.12886
RT: 6.5562
ExactMass: 264.13615911
Spectrum_type: 2
charge: -1
Formula: C15H20O4
SMILES: CC1=CC(=O)CC([C@]1(/C=C/C(=C\C(=O)O)/C)O)(C)C
Method: HCD
Collision_energy: [28.333334]
Isolation_window: 4.0
Ion_mode: N
Num Peaks: 112
58.0291	0.9
59.0130	9.6
69.0341	0.7
69.1845	0.9
71.0130	3.8
72.9922	2.4
73.0286	3.0
74.0239	1.1
75.0079	1.1
79.9565	20.9
80.9643	1.9
83.0130	0.7
83.0494	1.0
84.0446	0.9
85.0286	3.3
86.0603	0.7
87.0079	2.8
87.0443	1.2
88.0393	0.8
89.0235	3.0
92.0497	1.2
94.0290	1.8
96.9592	4.6
97.0286	1.1
98.0240	0.9
99.0442	1.8
100.0398	0.7
101.0236	3.6
109.0288	1.2
109.0398	0.8
111.0443	1.1
112.0396	0.7
113.0235	2.3
114.0553	1.8
115.0392	2.9
116.0168	1.9
116.0709	5.5
122.0604	1.1
123.0447	0.7
124.0397	0.9
125.0600	0.7
126.0551	0.8
127.0395	0.9
128.0346	1.1
129.0187	0.8
129.0549	0.7
130.0865	0.8
131.0344	0.8
135.0460	1.3
136.0761	23.6
137.0605	0.8
137.0797	4.6
138.0914	1.0
143.0345	0.9
144.0661	0.7
146.0816	1.4
148.0760	1.0
149.0603	1.0
150.0555	1.3
161.0454	1.4
163.0507	2.3
163.0873	1.1
164.1075	3.3
174.0917	1.2
175.0736	1.1
175.0760	1.2
177.0191	0.9
177.0912	1.8
178.0177	0.8
188.1076	1.5
189.0292	2.1
201.1277	0.8
202.9983	1.8
212.5756	15.2
213.0773	3.1
213.5758	1.3
218.0673	1.1
218.1294	1.1
218.1547	1.0
219.0666	1.3
219.1033	1.0
219.1387	42.3
220.1423	6.7
221.0800	2.0
221.1552	1.0
221.1891	1.0
235.1085	0.7
235.1109	0.7
245.1169	1.4
253.1634	1.0
261.1330	1.0
261.1607	4.4
262.0729	0.7
262.1218	4.3
262.1663	4.2
262.6023	5.0
262.6702	1.4
263.0766	2.2
263.0971	24.4
263.1287	100.0
263.1510	2.7
263.1749	2.0
263.6098	2.8
264.0981	5.1
264.1319	16.0
264.1616	1.0
265.0738	2.7
265.0940	1.7
265.1320	1.0
265.1417	1.0
265.1450	1.1
265.1814	1.0

Name: Acamprosate
PrecursorMZ: 180.03273
RT: 1.1772
ExactMass: 181.04087901
Spectrum_type: 2
charge: -1
Formula: C5H11NO4S
SMILES: CC(=O)NCCCS(=O)(=O)O
Method: HCD
Collision_energy: [28.333334]
Isolation_window: 4.0
Ion_mode: N
Num Peaks: 4
79.9563	100.0
108.9334	21.7
116.0707	72.8
180.0328	90.9

Name: Acetaminophen
PrecursorMZ: 150.05532
RT: 6.435
ExactMass: 151.06332853
Spectrum_type: 2
charge: -1
Formula: C8H9NO2
SMILES: CC(=O)NC1=CC=C(C=C1)O
Method: HCD
Collision_energy: [28.333334]
Isolation_window: 4.0
Ion_mode: N
Num Peaks: 5
108.0446	100.0
136.0158	17.0
150.0014	14.8
150.0551	75.4
151.0394	31.0

Name: Acetosyringone
PrecursorMZ: 195.06567
RT: 2.1971666666666665
ExactMass: 196.07355886
Spectrum_type: 2
charge: -1
Formula: C10H12O4
SMILES: CC(=O)C1=CC(=C(C(=C1)OC)O)OC
Method: HCD
Collision_energy: [28.333334]
Isolation_window: 4.0
Ion_mode: N
Num Peaks: 11
66.0340	63.0
80.9643	19.7
96.0446	48.5
121.0651	59.6
151.0395	40.7
151.0760	44.4
194.0004	79.5
195.0318	30.8
195.0659	100.0
195.9952	22.1
196.0966	23.4

Name: Acetyl-L-Carnitine
PrecursorMZ: 202.10801
RT: 6.0324
ExactMass: 203.11575802
Spectrum_type: 2
charge: -1
Formula: C9H17NO4
SMILES: CC(=O)O[C@H](CC(=O)[O-])C[N+](C)(C)C
Method: HCD
Collision_energy: [28.333334]
Isolation_window: 4.0
Ion_mode: N
Num Peaks: 49
59.0129	3.4
71.0130	4.1
72.0082	3.1
74.0239	10.1
87.0556	4.5
88.0395	29.2
97.0288	4.6
114.0189	3.5
114.0552	2.9
115.0757	4.4
116.0499	4.8
116.0709	39.9
125.0712	2.6
127.0505	2.6
127.0871	4.9
129.0660	3.1
129.1025	17.8
130.0865	100.0
131.0901	5.7
139.1122	2.7
140.1073	3.3
141.1026	4.9
142.0870	5.1
143.0818	2.8
150.5635	4.1
156.1023	6.4
157.1340	28.8
158.0606	5.0
158.1181	38.9
159.1216	3.0
160.0399	8.1
160.0762	5.6
170.0816	20.1
171.0757	6.5
173.0926	90.8
174.0961	4.5
201.0882	2.8
201.1245	63.4
202.0513	4.1
202.0714	5.2
202.0737	3.1
202.0880	4.7
202.1081	56.7
202.1265	4.8
202.1451	5.1
203.0826	7.5
203.1030	41.7
204.0660	24.0
204.1029	4.2

Name: Acetylgenistin
PrecursorMZ: 473.10851
RT: 3.2802
ExactMass: 474.11621151
Spectrum_type: 2
charge: -1
Formula: C23H22O11
SMILES: CC(=O)C1=C(C(=O)C2=C(C=C(C=C2O1)O[C@H]3C(C([C@@H](C(O3)CO)O)O)O)O)C4=CC=C(C=C4)O
Method: HCD
Collision_energy: [28.333334]
Isolation_window: 4.0
Ion_mode: N
Num Peaks: 6
268.0374	64.3
269.0439	22.9
471.2415	39.9
472.2449	22.3
473.1087	100.0
474.1108	20.9

Name: Acetylserine
PrecursorMZ: 146.04516
RT: 5.886
ExactMass: 147.05315777
Spectrum_type: 2
charge: -1
Formula: C5H9NO4
SMILES: CC(=O)N[C@@H](CO)C(=O)O
Method: HCD
Collision_energy: [28.333334]
Isolation_window: 4.0
Ion_mode: N
Num Peaks: 12
57.0338	4.5
70.0289	16.6
72.0444	4.3
74.0238	100.0
84.0446	38.4
98.0238	28.0
101.0599	37.6
104.0344	10.1
116.0345	35.2
145.0499	8.9
146.0243	5.3
146.0450	12.2

Name: Acid red 88
PrecursorMZ: 377.06025
RT: 1.22805
ExactMass: 400.04937236
Spectrum_type: 2
charge: -1
Formula: C20H13N2NaO4S
SMILES: C1=CC=C2C(=C1)C=CC(=C2N=NC3=CC=C(C4=CC=CC=C43)S(=O)(=O)[O-])O.[Na+]
Method: HCD
Collision_energy: [28.333334]
Isolation_window: 4.0
Ion_mode: N
Num Peaks: 10
79.9564	2.3
80.9642	3.1
96.9593	2.0
297.1034	37.4
298.1071	7.0
313.0984	10.8
314.1015	2.2
377.0603	100.0
378.0642	21.1
379.0601	4.0

Name: Aconitic Acid
PrecursorMZ: 173.00857
RT: 4.8535
ExactMass: 174.01643791
Spectrum_type: 2
charge: -1
Formula: C6H6O6
SMILES: C(C(=CC(=O)O)C(=O)O)C(=O)O
Method: HCD
Collision_energy: [28.333334]
Isolation_window: 4.0
Ion_mode: N
Num Peaks: 46
59.0128	0.3
69.0336	10.3
71.0129	1.1
85.0285	3.4
87.0332	0.1
87.0442	15.2
87.0553	0.1
88.0392	0.1
99.0079	0.3
99.9247	0.4
111.0077	0.8
113.0235	10.8
114.0184	0.1
115.0028	0.5
115.9200	0.1
127.0393	0.3
129.0187	0.8
129.0550	0.2
131.0341	7.5
131.0817	0.9
146.0238	0.2
154.9468	0.9
156.9434	0.2
156.9712	0.1
156.9789	0.2
156.9866	0.6
156.9922	0.5
157.0135	100.0
157.0349	0.6
157.0404	0.7
157.0483	0.3
157.0556	0.1
157.0764	0.2
171.0189	1.7
171.1026	0.2
171.9100	0.3
172.0229	0.2
172.9571	0.2
173.0083	0.2
173.0234	0.2
173.0478	0.1
174.0190	0.4
174.9924	0.1
174.9996	0.1
175.0241	22.1
175.0563	0.2

Name: Adenosine Monophosphate
PrecursorMZ: 346.05572
RT: 8.345033333333333
ExactMass: 347.0630848
Spectrum_type: 2
charge: -1
Formula: C10H14N5O7P
SMILES: C1=NC(=C2C(=N1)N(C=N2)[C@H]3[C@@H]([C@@H]([C@H](O3)COP(=O)(O)O)O)O)N
Method: HCD
Collision_energy: [28.333334]
Isolation_window: 4.0
Ion_mode: N
Num Peaks: 71
59.0130	2.9
71.0130	2.2
72.9922	1.8
74.0238	0.9
78.9582	100.0
79.9564	0.9
80.9644	1.9
85.0286	1.6
87.0079	3.9
88.0394	1.5
89.0236	1.6
96.9687	34.1
99.0444	1.3
101.0236	5.7
109.0288	1.2
111.0443	1.5
112.0396	1.0
113.0235	1.4
114.0187	1.0
114.0553	2.5
115.0028	0.9
115.0393	1.4
116.0709	3.6
124.0398	1.3
128.0345	3.1
129.0550	5.0
134.0464	10.8
135.0436	2.3
138.9794	2.1
146.0455	1.2
147.0557	12.3
150.9796	4.2
153.0915	3.5
171.0058	2.8
171.1019	3.8
186.0769	1.0
189.0552	0.9
192.9904	1.8
199.1341	1.1
211.0010	4.0
215.0914	4.0
229.1078	1.1
243.1237	2.0
247.1088	13.6
248.1121	1.1
257.1294	2.1
258.1136	1.1
265.1810	1.3
272.1770	1.1
283.1549	1.0
301.1184	2.5
301.2536	1.5
309.1711	2.3
327.1448	4.6
327.1821	2.5
328.1048	1.3
328.1497	1.3
344.1400	1.8
344.1827	1.3
345.0870	1.3
345.1552	23.9
345.1932	7.5
345.2431	1.1
346.0559	56.1
346.1198	2.3
346.1587	3.9
346.1940	1.5
346.1979	1.9
347.0593	6.4
347.1065	2.5
347.1585	6.2

Name: Adenosine, cyclic 2',3'-(hydrogen phosphate), ion(1-)
PrecursorMZ: 328.04494
RT: 5.83
ExactMass: 328.04469509
Spectrum_type: 2
charge: -1
Formula: C10H11N5O6P-
SMILES: C1=NC(=C2C(=N1)N(C=N2)[C@H]3[C@H]4[C@@H]([C@H](O3)CO)OP(=O)(O4)[O-])N
Method: HCD
Collision_energy: [28.333334]
Isolation_window: 4.0
Ion_mode: N
Num Peaks: 10
128.0343	4.7
130.0868	4.5
134.0463	100.0
135.0510	4.6
189.0424	5.3
311.1591	3.0
326.1874	12.3
327.1835	5.4
328.0454	11.3
329.1156	4.2

Name: Aeginetic acid 5-O-beta-D-quinovoside
PrecursorMZ: 413.21807
RT: 7.4417
ExactMass: 414.22536804
Spectrum_type: 2
charge: -1
Formula: C21H34O8
SMILES: C[C@@H]1[C@H]([C@@H]([C@H]([C@@H](O1)O[C@@]2(CCCC([C@@]2(/C=C/C(=C/C(=O)O)/C)O)(C)C)C)O)O)O
Method: HCD
Collision_energy: [28.333334]
Isolation_window: 4.0
Ion_mode: N
Num Peaks: 55
59.0129	3.0
71.0130	1.8
83.0492	1.7
97.0650	1.4
109.0286	1.6
114.0554	1.5
115.0392	3.3
125.0963	1.3
128.0343	2.6
129.0549	1.3
135.0445	2.4
143.0706	1.2
171.1022	1.4
181.1228	1.2
213.1248	2.2
243.1218	1.4
253.1449	1.4
289.2150	1.9
307.2290	1.3
315.1968	1.3
317.2115	1.5
333.2071	5.1
334.2122	1.2
335.2230	1.8
349.2021	1.7
351.2177	6.8
352.2212	1.5
353.1968	1.1
353.2343	1.2
361.2029	1.2
367.2127	1.2
368.2172	1.1
369.2288	5.7
370.2326	1.1
377.1966	6.1
378.1977	1.3
379.2127	5.8
393.1873	1.4
394.1956	1.2
395.2073	19.7
396.2110	4.3
397.2239	11.8
411.1909	1.8
411.1978	9.3
411.2416	2.1
411.2492	2.3
412.2042	7.4
413.1681	1.5
413.1771	3.1
413.2183	100.0
414.1320	2.1
414.1671	1.5
414.2215	21.5
415.1923	1.9
415.2349	59.7

Name: Afzelechin
PrecursorMZ: 273.07664
RT: 0.7179
ExactMass: 274.08412354
Spectrum_type: 2
charge: -1
Formula: C15H14O5
SMILES: C1[C@@H]([C@H](OC2=CC(=CC(=C21)O)O)C3=CC=C(C=C3)O)O
Method: HCD
Collision_energy: [28.333334]
Isolation_window: 4.0
Ion_mode: N
Num Peaks: 64
57.9748	7.7
59.0129	5.0
61.9874	3.7
71.0128	2.2
72.9922	3.5
73.0286	2.3
85.0284	3.2
87.0077	11.0
89.0233	2.1
101.0238	2.3
107.0493	9.1
109.0286	8.2
111.0442	4.0
112.0392	4.0
113.0234	2.2
115.0029	3.7
121.0285	4.2
122.0366	5.9
123.0441	3.9
124.0395	3.7
125.0601	2.4
127.0391	2.2
128.0341	2.7
129.0184	2.5
137.0602	2.5
139.0390	3.6
147.0442	2.4
149.0235	4.6
151.0393	5.4
156.0660	4.6
167.0705	2.4
169.0504	3.2
175.0391	2.6
185.0443	2.7
185.0602	3.3
187.0401	2.3
187.0754	6.3
189.0553	2.7
193.0503	4.7
201.0551	7.0
203.0707	3.1
211.0604	5.5
213.0550	2.6
227.0297	3.7
227.0711	6.8
228.0308	3.7
228.0662	4.1
229.0518	11.9
229.0862	26.0
230.0816	7.2
231.0658	21.4
231.1012	3.0
243.0666	3.0
255.0473	2.7
271.0584	11.1
271.0836	8.5
272.0551	3.4
272.0805	10.6
273.0401	15.0
273.0762	100.0
274.0418	3.6
274.0804	17.9
275.0558	54.0
275.0910	13.8

Name: Aigialomycin D
PrecursorMZ: 333.13474
RT: 0.5669500000000001
ExactMass: 334.14163842
Spectrum_type: 2
charge: -1
Formula: C18H22O6
SMILES: C[C@H]1C/C=C/[C@H]([C@H](CC/C=C/C2=C(C(=CC(=C2)O)O)C(=O)O1)O)O
Method: HCD
Collision_energy: [28.333334]
Isolation_window: 4.0
Ion_mode: N
Num Peaks: 85
59.0128	0.4
80.9642	1.0
87.0078	0.5
96.9592	0.8
97.0282	0.4
109.0649	0.4
111.0443	0.7
113.0232	0.6
125.0596	2.4
127.0392	0.4
135.0810	0.5
137.0231	0.4
137.0595	0.5
163.0755	1.9
165.0547	0.4
179.0575	1.4
179.0707	0.8
180.0419	0.5
180.0652	1.6
181.0501	1.3
191.0703	0.4
193.0496	0.8
203.0702	0.4
205.0494	0.5
205.0862	0.8
207.0656	2.4
208.0685	0.4
219.0659	0.6
220.0596	1.4
221.0460	0.9
221.0812	0.8
231.0655	0.9
233.0815	1.3
243.1380	0.4
245.0816	0.9
245.1186	0.7
245.1539	1.0
246.1134	0.8
247.0598	0.5
247.0963	0.5
247.1207	0.9
248.0931	0.7
249.0761	1.4
259.0606	0.6
261.0762	0.4
261.1118	0.4
263.1157	3.9
264.0980	1.5
271.0973	0.5
271.1333	1.4
273.0769	0.9
274.1193	0.5
287.0926	0.6
287.1257	0.6
287.2013	1.9
288.2046	0.7
289.1073	1.4
289.1437	1.1
289.1809	0.4
291.0870	0.6
300.0998	0.7
315.0868	0.4
315.1233	2.0
331.0819	1.7
331.1183	4.1
331.1554	0.9
331.1910	1.9
332.0814	1.2
332.1188	2.1
332.1526	1.0
332.1867	10.3
333.0973	21.7
333.1338	100.0
333.1704	7.5
334.1001	4.5
334.1370	19.8
334.1717	1.4
334.2029	0.9
334.2387	2.2
335.0779	1.6
335.1147	3.4
335.1494	49.9
335.1837	1.5
335.2165	0.4
335.2319	0.4

Name: Ala-Ile
PrecursorMZ: 201.12365
RT: 5.9862
ExactMass: 202.13174244
Spectrum_type: 2
charge: -1
Formula: C9H18N2O3
SMILES: CC[C@H](C)[C@@H](C(=O)O)NC(=O)[C@H](C)N
Method: HCD
Collision_energy: [28.333334]
Isolation_window: 4.0
Ion_mode: N
Num Peaks: 24
74.0239	7.8
87.0554	2.5
99.0443	5.8
100.0395	26.8
116.0709	11.0
127.0867	2.6
129.1026	22.6
130.0866	52.3
139.1121	46.0
140.1158	3.7
141.1025	18.4
155.0816	5.8
157.1340	14.8
173.0926	100.0
183.1021	25.6
184.1053	3.0
200.0923	39.8
201.0952	2.7
201.1108	45.4
201.1258	25.4
202.0718	2.3
202.1153	4.9
202.1274	2.5
203.1034	33.1

Name: Ala-Val
PrecursorMZ: 187.10826
RT: 5.771625
ExactMass: 188.11609238
Spectrum_type: 2
charge: -1
Formula: C8H16N2O3
SMILES: C[C@@H](C(=O)N[C@@H](C(C)C)C(=O)O)N
Method: HCD
Collision_energy: [28.333334]
Isolation_window: 4.0
Ion_mode: N
Num Peaks: 22
59.0129	2.1
70.0290	2.6
72.0446	3.1
87.0555	4.1
88.0395	1.9
114.0188	2.0
114.0553	3.3
116.0708	21.9
125.0600	2.4
125.0964	2.5
126.0918	3.9
143.0710	4.0
143.1182	59.3
144.1217	4.1
169.0615	6.0
185.1180	2.5
186.0412	2.5
186.0758	2.6
187.0610	4.8
187.1084	100.0
188.0926	2.5
188.1116	9.5

Name: Alanine + DCA
PrecursorMZ: 462.32258
RT: 1.0651
ExactMass: 463.32977354
Spectrum_type: 2
charge: -1
Formula: C27H45NO5
SMILES: C[C@H](CCC(=O)N[C@@H](C)C(=O)O)[C@H]1CC[C@@H]2[C@@]1([C@H](C[C@H]3[C@H]2CC[C@H]4[C@@]3(CC[C@H](C4)O)C)O)C
Method: HCD
Collision_energy: [28.333334]
Isolation_window: 4.0
Ion_mode: N
Num Peaks: 8
84.0445	71.8
128.0346	9.4
461.2548	5.0
461.3641	18.7
462.1583	4.9
462.3216	100.0
463.3264	30.6
464.3348	5.0

Name: Alanylnorvaline
PrecursorMZ: 187.10826
RT: 5.7724
ExactMass: 188.11609238
Spectrum_type: 2
charge: -1
Formula: C8H16N2O3
SMILES: CCCC(C(=O)O)NC(=O)C(C)N
Method: HCD
Collision_energy: [28.333334]
Isolation_window: 4.0
Ion_mode: N
Num Peaks: 14
70.0290	4.4
72.0446	7.0
114.0186	6.5
116.0708	23.3
125.0963	15.6
126.0918	4.0
143.1182	58.6
144.1216	4.4
169.0613	15.7
186.0770	5.5
187.0729	3.9
187.1087	100.0
188.0930	4.4
188.1119	7.9

Name: Alloursodeoxycholic acid
PrecursorMZ: 391.28529
RT: 6.2807
ExactMass: 392.29265975
Spectrum_type: 2
charge: -1
Formula: C24H40O4
SMILES: CC(CCC(=O)O)C1CCC2C1(CCC3C2C(CC4C3(CCC(C4)O)C)O)C
Method: HCD
Collision_energy: [28.333334]
Isolation_window: 4.0
Ion_mode: N
Num Peaks: 9
345.2797	2.7
355.2640	0.7
365.3059	1.0
389.2697	4.2
390.2731	8.8
391.2852	100.0
391.3915	0.7
392.2885	24.9
393.2917	2.8

Name: Aloesaponarin I
PrecursorMZ: 311.05641
RT: 6.7796
ExactMass: 312.0633881
Spectrum_type: 2
charge: -1
Formula: C17H12O6
SMILES: CC1=C2C(=CC(=C1C(=O)OC)O)C(=O)C3=C(C2=O)C(=CC=C3)O
Method: HCD
Collision_energy: [28.333334]
Isolation_window: 4.0
Ion_mode: N
Num Peaks: 9
205.0505	9.0
251.0721	5.1
267.0663	100.0
268.0695	16.5
269.0813	16.4
269.2489	6.2
311.0555	78.3
312.0584	13.4
313.0713	16.2

Name: Aloesin
PrecursorMZ: 393.11935
RT: 2.259
ExactMass: 394.12638228
Spectrum_type: 2
charge: -1
Formula: C19H22O9
SMILES: CC1=CC(=C(C2=C1C(=O)C=C(O2)CC(=O)C)[C@H]3[C@@H]([C@H]([C@@H]([C@H](O3)CO)O)O)O)O
Method: HCD
Collision_energy: [28.333334]
Isolation_window: 4.0
Ion_mode: N
Num Peaks: 16
61.9874	16.4
85.9986	10.3
101.0234	4.2
116.9276	5.4
125.0233	4.0
137.0601	7.0
139.0390	7.1
151.0395	7.0
181.0501	40.2
199.0607	21.6
211.0605	13.4
231.1029	6.2
292.8918	4.1
375.1116	6.0
393.1195	100.0
394.1223	20.2

Name: Alpha-Lactose
PrecursorMZ: 387.11488
RT: 3.9041
ExactMass: 342.11621151
Spectrum_type: 2
charge: -1
Formula: C12H22O11
SMILES: C([C@@H]1[C@@H]([C@@H]([C@H]([C@@H](O1)O[C@@H]2[C@H](O[C@@H]([C@@H]([C@H]2O)O)O)CO)O)O)O)O
Method: HCD
Collision_energy: [28.333334]
Isolation_window: 4.0
Ion_mode: N
Num Peaks: 22
59.0129	19.0
61.9875	9.9
71.0129	20.3
87.0078	3.9
89.0234	55.9
90.0267	3.8
101.0235	16.3
113.0235	16.4
119.0341	23.2
128.0345	3.2
131.0345	3.5
143.0341	5.9
149.0450	3.6
161.0449	7.1
179.0555	26.4
180.0590	3.0
341.1089	100.0
342.1122	34.5
343.1143	18.2
386.1133	3.4
387.1095	3.5
389.1239	11.3

Name: Alphitolic Acid
PrecursorMZ: 471.34849
RT: 0.5694
ExactMass: 472.35526001
Spectrum_type: 2
charge: -1
Formula: C30H48O4
SMILES: CC(=C)[C@@H]1CC[C@]2([C@H]1[C@H]3CC[C@H]4[C@]([C@@]3(CC2)C)(CC[C@@H]5[C@@]4(C[C@H]([C@@H](C5(C)C)O)O)C)C)C(=O)O
Method: HCD
Collision_energy: [28.333334]
Isolation_window: 4.0
Ion_mode: N
Num Peaks: 26
52.3706	2.0
52.3734	4.7
52.4821	0.6
52.4849	1.4
61.9875	1.3
96.9593	1.2
135.0302	0.5
151.0253	0.9
152.9958	1.0
241.2169	2.5
242.2204	3.0
317.2119	4.0
318.2150	0.6
319.2279	1.9
469.3311	0.8
470.2612	2.2
470.3310	1.4
471.2061	5.7
471.2934	2.2
471.3486	100.0
471.4895	0.6
472.2099	1.6
472.3521	31.0
473.2194	3.5
473.2879	3.2
473.3546	4.0

Name: Altenusin
PrecursorMZ: 289.07161
RT: 4.287
ExactMass: 290.07903816
Spectrum_type: 2
charge: -1
Formula: C15H14O6
SMILES: CC1=CC(=C(C=C1C2=C(C(=CC(=C2)OC)O)C(=O)O)O)O
Method: HCD
Collision_energy: [28.333334]
Isolation_window: 4.0
Ion_mode: N
Num Peaks: 25
84.0444	4.7
109.0284	22.5
111.0441	3.1
115.9196	2.4
116.9274	7.0
135.0442	100.0
136.0476	6.8
179.0341	12.2
227.0725	3.1
228.0885	3.2
229.0500	6.8
243.0650	2.6
245.0808	3.2
246.0982	8.7
271.0616	2.5
271.1193	4.5
272.0780	6.0
287.0799	3.0
287.9822	3.1
288.0778	2.6
289.0745	26.4
289.1304	6.2
290.0887	27.5
291.0684	4.7
291.0936	2.4

Name: Altholactone
PrecursorMZ: 231.06581
RT: 0.8104
ExactMass: 232.07355886
Spectrum_type: 2
charge: -1
Formula: C13H12O4
SMILES: C1=CC=C(C=C1)[C@@H]2[C@H]([C@H]3[C@@H](O2)C=CC(=O)O3)O
Method: HCD
Collision_energy: [28.333334]
Isolation_window: 4.0
Ion_mode: N
Num Peaks: 60
59.0129	2.4
71.0129	2.5
72.9922	2.7
73.0107	2.1
79.9564	2.2
83.0491	1.7
84.0448	1.7
85.0285	1.8
87.0077	7.2
88.0393	1.7
97.0284	1.9
97.0647	3.0
99.0442	2.1
109.0286	2.8
111.0262	1.7
111.0439	2.7
112.0394	7.6
113.0235	2.4
113.0426	6.4
113.0595	1.9
115.0026	2.9
117.0006	5.4
123.0441	2.0
125.0236	1.9
125.0599	3.4
139.0391	5.6
141.0548	2.7
142.0344	3.4
143.0348	1.6
143.0710	1.6
145.0659	1.5
151.0392	9.5
159.0450	2.2
162.0373	3.1
168.0656	3.8
169.0498	4.6
185.0454	1.7
185.0624	2.4
186.0233	1.6
186.0774	2.0
187.0415	2.1
187.0606	3.2
187.0754	16.4
189.0549	9.2
197.0718	2.8
211.0252	1.5
212.0560	2.2
213.0565	1.6
229.0349	1.9
229.0538	5.7
229.0724	2.5
230.0134	2.7
230.0670	9.4
230.9995	3.1
231.0671	100.0
231.1742	3.0
232.0698	13.6
233.0454	12.2
233.0659	2.0
233.0858	2.2

Name: Aminoisobutyric acid
PrecursorMZ: 102.05499
RT: 8.5748
ExactMass: 103.06332853
Spectrum_type: 2
charge: -1
Formula: C4H9NO2
SMILES: CC(C)(C(=O)O)N
Method: HCD
Collision_energy: [28.333334]
Isolation_window: 4.0
Ion_mode: N
Num Peaks: 7
57.0337	3.7
59.0129	21.1
69.2468	2.1
73.0285	11.0
101.0597	8.5
102.0550	100.0
103.0583	4.5

Name: Andrographolide
PrecursorMZ: 395.20751
RT: 7.4379
ExactMass: 350.20932405
Spectrum_type: 2
charge: -1
Formula: C20H30O5
SMILES: C[C@@]12CC[C@H]([C@@]([C@H]1CCC(=C)[C@H]2C/C=C/3\[C@@H](COC3=O)O)(C)CO)O
Method: HCD
Collision_energy: [28.333334]
Isolation_window: 4.0
Ion_mode: N
Num Peaks: 34
59.0129	10.2
69.2635	3.5
71.0128	3.3
101.0235	2.9
112.0396	3.9
114.0551	5.0
115.0394	2.7
128.0345	7.6
135.0443	3.7
181.0499	3.1
297.0859	11.9
315.1968	4.5
333.2070	8.1
335.1875	4.4
335.2237	4.0
339.1682	3.1
349.2022	4.0
351.2178	9.7
353.2344	5.6
359.1868	6.0
361.2007	4.0
377.1975	19.6
378.2006	4.6
379.2135	9.5
393.1915	10.7
394.1225	3.9
394.1610	3.9
394.1952	8.1
395.1601	8.9
395.2082	100.0
396.1645	5.9
396.2123	18.8
397.1811	12.9
397.2253	42.3

Name: Androsterone Sulfate
PrecursorMZ: 369.17469
RT: 0.9136666666666666
ExactMass: 370.18139523
Spectrum_type: 2
charge: -1
Formula: C19H30O5S
SMILES: C[C@]12CC[C@H](C[C@@H]1CC[C@@H]3[C@@H]2CC[C@]4([C@H]3CCC4=O)C)OS(=O)(=O)O
Method: HCD
Collision_energy: [28.333334]
Isolation_window: 4.0
Ion_mode: N
Num Peaks: 15
96.9461	0.2
96.9592	27.6
97.9583	0.2
98.9549	1.5
367.1589	17.6
368.1621	9.2
369.0783	0.4
369.0985	0.8
369.1744	100.0
369.2466	0.4
369.2735	0.6
369.3004	0.3
369.4126	0.2
370.1776	20.3
371.1752	3.5

Name: Anserine
PrecursorMZ: 239.11446
RT: 4.7682
ExactMass: 240.12224039
Spectrum_type: 2
charge: -1
Formula: C10H16N4O3
SMILES: CN1C=NC=C1C[C@@H](C(=O)O)NC(=O)CCN
Method: HCD
Collision_energy: [28.333334]
Isolation_window: 4.0
Ion_mode: N
Num Peaks: 17
58.0289	18.7
61.9874	16.3
87.0553	10.2
116.9279	1.9
117.9275	1.5
151.0503	4.2
166.0977	25.7
168.0770	100.0
169.0810	6.8
195.1243	6.3
237.8709	4.0
238.8697	5.1
239.1145	93.6
239.8705	2.2
240.1178	10.9
240.8700	4.8
241.0009	1.7

Name: Antibiotic AGI-B4
PrecursorMZ: 317.06661
RT: 0.644
ExactMass: 318.07395278
Spectrum_type: 2
charge: -1
Formula: C16H14O7
SMILES: COC(=O)C1C(C=CC2=C1C(=O)C3=C(C=C(C=C3O2)CO)O)O
Method: HCD
Collision_energy: [28.333334]
Isolation_window: 4.0
Ion_mode: N
Num Peaks: 57
59.0129	5.9
72.9921	3.9
73.0109	4.1
87.0078	9.3
96.9590	3.0
109.0286	9.6
110.0236	3.0
113.0232	3.2
116.9275	3.5
123.0444	4.4
124.0395	4.5
125.0235	4.5
128.0343	7.5
135.0442	8.9
136.0394	5.0
137.0599	3.2
139.0392	3.3
140.0106	6.7
146.0453	4.4
149.0235	9.8
151.0395	3.2
181.0494	6.6
213.0560	5.1
215.0706	3.5
219.0665	3.4
221.0445	3.0
229.0868	9.6
231.0656	2.9
231.1020	3.7
245.0814	3.0
256.0734	4.2
257.0798	5.3
259.0622	4.0
271.0615	3.0
271.0975	20.5
272.0927	53.3
273.0740	14.0
273.0967	2.9
274.0765	3.0
274.1074	3.0
275.0920	7.5
277.0716	4.9
297.0775	4.3
299.0554	19.3
299.0896	3.8
300.0588	3.6
301.0696	4.7
315.0870	53.8
316.0518	4.3
316.0843	60.7
317.0658	100.0
317.1002	24.4
318.0681	19.3
318.1001	8.6
319.0827	69.0
319.1181	3.1
319.1592	6.1

Name: Aphidicolin
PrecursorMZ: 337.23849
RT: 2.0343
ExactMass: 338.24570956
Spectrum_type: 2
charge: -1
Formula: C20H34O4
SMILES: C[C@]12CC[C@H]([C@@]([C@@H]1CC[C@@H]3[C@@]24CC[C@@]([C@H](C3)C4)(CO)O)(C)CO)O
Method: HCD
Collision_energy: [28.333334]
Isolation_window: 4.0
Ion_mode: N
Num Peaks: 13
96.9591	6.4
128.0344	9.9
319.2279	100.0
320.2314	18.3
336.1123	12.6
337.0924	24.9
337.1330	8.3
337.1705	5.9
337.2382	58.1
338.2422	12.0
339.1067	12.3
339.1993	37.8
339.3261	19.6

Name: Arabinitol, L-
PrecursorMZ: 151.0603
RT: 1.7499
ExactMass: 152.06847348
Spectrum_type: 2
charge: -1
Formula: C5H12O5
SMILES: C([C@@H](C([C@H](CO)O)O)O)O
Method: HCD
Collision_energy: [28.333334]
Isolation_window: 4.0
Ion_mode: N
Num Peaks: 43
59.0129	100.0
59.0192	0.9
60.0162	2.7
71.0127	1.1
73.0285	1.6
75.0078	2.5
80.0496	0.8
87.0442	0.9
89.0234	1.2
103.0214	1.0
107.0493	1.0
108.0196	2.5
108.0444	9.3
109.0034	2.2
109.0286	0.9
109.0398	1.6
109.0760	2.1
122.0237	1.2
122.0601	2.1
123.0444	3.2
123.0556	2.0
124.0396	1.0
125.0348	1.2
126.0088	1.2
131.0338	1.8
132.9952	1.0
135.0555	1.3
136.0155	2.3
149.0448	9.8
150.0190	0.9
150.0300	1.4
150.0416	3.0
150.0554	4.7
150.0666	1.2
151.0256	17.7
151.0393	7.2
151.0507	5.6
152.0348	2.7
152.0710	2.5
153.0201	1.0
153.0301	1.0
153.0548	1.3
153.0663	5.0

Name: Arabinose
PrecursorMZ: 149.04463
RT: 1.7421
ExactMass: 150.05282342
Spectrum_type: 2
charge: -1
Formula: C5H10O5
SMILES: C([C@H]([C@H]([C@@H](C=O)O)O)O)O
Method: HCD
Collision_energy: [28.333334]
Isolation_window: 4.0
Ion_mode: N
Num Peaks: 23
59.0129	6.3
71.0130	7.1
73.0285	15.6
75.0077	27.4
85.0285	18.9
87.0077	9.0
89.0233	30.4
103.0391	15.1
107.0492	13.3
108.0193	14.0
117.0184	4.7
121.0286	6.4
129.0185	8.1
131.0340	11.0
147.0190	12.1
147.0292	12.3
148.9235	4.3
149.0241	5.1
149.0447	100.0
149.0598	22.8
150.0564	6.8
151.0254	79.5
151.0391	35.7

Name: Asciminib
PrecursorMZ: 448.09982
RT: 5.7845
ExactMass: 449.1066235
Spectrum_type: 2
charge: -1
Formula: C20H18ClF2N5O3
SMILES: C1CN(C[C@@H]1O)C2=C(C=C(C=N2)C(=O)NC3=CC=C(C=C3)OC(F)(F)Cl)C4=CC=NN4
Method: HCD
Collision_energy: [28.333334]
Isolation_window: 4.0
Ion_mode: N
Num Peaks: 3
85.0033	2.4
85.9986	100.0
135.0441	3.0

Name: Aspartic Acid + Cholic Acid
PrecursorMZ: 522.3073
RT: 7.1416
ExactMass: 523.31451739
Spectrum_type: 2
charge: -1
Formula: C28H45NO8
SMILES: C[C@H](CCC(=O)N[C@@H](CC(=O)O)C(=O)O)[C@H]1CC[C@@H]2[C@@]1([C@H](C[C@H]3[C@H]2[C@@H](C[C@H]4[C@@]3(CC[C@H](C4)O)C)O)O)C
Method: HCD
Collision_energy: [28.333334]
Isolation_window: 4.0
Ion_mode: N
Num Peaks: 15
71.0130	6.1
88.0396	13.0
115.0028	11.4
128.0345	4.9
173.0448	5.8
181.0362	16.2
406.2976	8.1
407.2800	13.6
478.3173	7.5
521.1641	7.2
521.3013	5.0
522.2289	5.2
522.3072	100.0
523.3116	31.5
524.3164	5.4

Name: Asterric Acid
PrecursorMZ: 347.07739
RT: 1.1395
ExactMass: 348.08451746
Spectrum_type: 2
charge: -1
Formula: C17H16O8
SMILES: CC1=CC(=C(C(=C1)OC2=C(C=C(C=C2OC)O)C(=O)OC)C(=O)O)O
Method: HCD
Collision_energy: [28.333334]
Isolation_window: 4.0
Ion_mode: N
Num Peaks: 8
61.9875	100.0
284.0558	10.9
303.0876	92.8
304.0901	15.0
345.2799	18.4
347.0773	72.3
347.1138	9.2
348.0769	11.0

Name: Astringin
PrecursorMZ: 405.11901
RT: 7.3835
ExactMass: 406.12638228
Spectrum_type: 2
charge: -1
Formula: C20H22O9
SMILES: C1=CC(=C(C=C1/C=C/C2=CC(=CC(=C2)O[C@H]3[C@@H]([C@H]([C@@H]([C@H](O3)CO)O)O)O)O)O)O
Method: HCD
Collision_energy: [28.333334]
Isolation_window: 4.0
Ion_mode: N
Num Peaks: 50
59.0130	10.8
71.0130	5.4
72.9923	4.4
73.0287	2.8
79.9565	4.3
80.9643	11.9
85.0286	4.1
87.0079	6.8
89.0234	4.7
96.9595	4.5
101.0238	4.0
109.0285	5.5
110.0240	3.2
111.0443	3.5
113.0235	6.8
114.0188	4.1
114.0552	3.4
123.0444	4.3
124.0396	2.8
125.0236	4.2
128.0346	11.3
130.0866	5.0
135.0443	8.3
137.0601	22.1
151.0393	3.8
164.0708	3.2
169.0500	5.7
175.0398	3.3
179.0343	3.7
181.0501	100.0
182.0546	6.8
183.0325	4.0
211.0605	30.9
212.0637	3.3
223.0608	3.6
225.0761	6.0
241.1194	4.7
243.0988	3.3
283.1100	4.4
327.0962	3.2
361.1315	3.3
371.0886	3.6
403.1110	8.5
404.0979	6.8
404.1461	6.4
405.1189	97.4
405.2098	8.8
406.1185	30.3
407.1379	22.6
407.1778	3.1

Name: Austdiol
PrecursorMZ: 235.06092
RT: 0.6527
ExactMass: 236.06847348
Spectrum_type: 2
charge: -1
Formula: C12H12O5
SMILES: CC1=CC2=C(C(=O)[C@]([C@H](C2=CO1)O)(C)O)C=O
Method: HCD
Collision_energy: [28.333334]
Isolation_window: 4.0
Ion_mode: N
Num Peaks: 50
79.9563	3.6
80.9642	54.8
96.9592	2.1
123.0445	1.1
135.0444	8.8
137.0599	1.1
145.0651	1.1
147.0443	5.6
147.0809	4.2
149.0600	5.1
151.0396	1.3
161.0602	2.0
163.0394	1.3
163.0757	6.6
165.0549	3.4
165.0915	1.3
173.0603	4.5
175.0396	1.1
176.0110	1.4
176.0474	2.0
177.0549	1.9
189.0552	14.6
189.0912	2.3
190.0510	2.8
190.0599	1.9
190.0847	1.1
191.0349	6.0
191.0570	1.0
191.0709	53.9
191.1059	1.7
192.0764	5.4
192.1153	3.8
193.0500	7.7
193.0864	6.0
218.0943	1.5
219.0666	1.1
233.0125	4.3
233.0460	10.1
233.0821	18.1
234.0155	1.2
234.0456	3.0
234.0836	4.7
235.0240	3.3
235.0614	100.0
235.0966	22.6
236.0639	13.1
236.1051	32.7
237.0429	11.8
237.0789	63.3
237.1133	6.1

Name: Avocadyne
PrecursorMZ: 283.22784
RT: 1.3288
ExactMass: 284.23514488
Spectrum_type: 2
charge: -1
Formula: C17H32O3
SMILES: C#CCCCCCCCCCCCC(CC(CO)O)O
Method: HCD
Collision_energy: [28.333334]
Isolation_window: 4.0
Ion_mode: N
Num Peaks: 19
57.0337	2.4
59.0130	9.9
73.0286	59.8
85.0285	6.2
207.1749	6.5
221.1909	6.7
235.2066	3.6
247.2066	18.9
248.2100	3.6
263.2018	3.0
265.2174	2.1
281.2475	7.0
282.1427	2.9
282.2526	3.1
283.2290	27.1
283.2648	100.0
284.2319	4.8
284.2682	19.6
285.2438	3.7

Name: Axillarin
PrecursorMZ: 345.06138
RT: 4.6217
ExactMass: 346.0688674
Spectrum_type: 2
charge: -1
Formula: C17H14O8
SMILES: COC1=C(C2=C(C=C1O)OC(=C(C2=O)OC)C3=CC(=C(C=C3)O)O)O
Method: HCD
Collision_energy: [28.333334]
Isolation_window: 4.0
Ion_mode: N
Num Peaks: 24
61.9874	4.9
109.0285	32.2
110.0313	1.7
116.9277	3.3
128.0342	2.2
135.0441	4.8
147.0443	25.3
148.0477	2.3
179.0343	3.1
182.0450	2.1
191.0342	43.2
192.0378	4.5
235.0245	7.0
239.0714	5.0
255.0657	9.7
256.0690	1.8
257.0817	15.7
258.0846	2.1
299.0569	2.8
301.0713	3.7
343.0449	1.7
345.0610	100.0
346.0644	19.2
347.0740	4.5

Name: Azd-1283
PrecursorMZ: 469.15575
RT: 6.8485
ExactMass: 470.16239112
Spectrum_type: 2
charge: -1
Formula: C23H26N4O5S
SMILES: CCOC(=O)C1=C(N=C(C(=C1)C#N)N2CCC(CC2)C(=O)NS(=O)(=O)CC3=CC=CC=C3)C
Method: HCD
Collision_energy: [28.333334]
Isolation_window: 4.0
Ion_mode: N
Num Peaks: 13
52.1298	4.4
59.0130	4.4
85.0286	5.6
87.0077	25.2
115.0391	3.6
127.0393	7.4
129.0186	5.5
141.0187	4.0
145.0497	8.1
159.0291	54.2
365.1077	4.9
469.1559	100.0
470.1586	19.6

Name: Azd-6482
PrecursorMZ: 407.17187
RT: 0.6524
ExactMass: 408.17975526
Spectrum_type: 2
charge: -1
Formula: C22H24N4O4
SMILES: CC1=CN2C(=O)C=C(N=C2C(=C1)[C@@H](C)NC3=CC=CC=C3C(=O)O)N4CCOCC4
Method: HCD
Collision_energy: [28.333334]
Isolation_window: 4.0
Ion_mode: N
Num Peaks: 23
96.9592	6.4
165.0186	3.3
179.0351	1.2
195.0292	1.1
207.0293	8.1
221.1180	1.6
236.0687	100.0
237.0721	13.3
250.0842	1.2
265.1084	1.5
276.1000	1.7
280.0591	3.0
294.1109	53.3
295.1142	8.2
338.1009	37.4
339.1045	6.1
405.2630	6.4
406.2680	3.0
407.1714	96.8
407.2809	6.6
408.1747	23.0
408.2844	1.8
409.1880	14.3

Name: B-Raf inhibitor
PrecursorMZ: 551.23823
RT: 4.9511
ExactMass: 552.24605874
Spectrum_type: 2
charge: -1
Formula: C29H31F3N6O2
SMILES: CCN1CCN(CC1)CC2=C(C=C(C=C2)NC(=O)C3=CC(=C(C=C3)C)OC4=NC=NC5=C4C=C(N5)C)C(F)(F)F
Method: HCD
Collision_energy: [28.333334]
Isolation_window: 4.0
Ion_mode: N
Num Peaks: 20
82.0288	8.4
130.0865	32.5
134.0603	17.9
179.0456	14.1
205.0615	23.0
315.2537	10.9
476.2029	19.0
476.7058	7.2
498.2165	6.7
529.2254	99.3
529.7269	65.2
530.2283	25.8
549.3274	44.6
550.3303	30.4
551.2383	81.9
551.3355	100.0
551.7401	49.6
552.2411	20.3
552.3414	34.1
553.3383	52.0

Name: Bacosine
PrecursorMZ: 455.35261
RT: 0.9733
ExactMass: 456.36034539
Spectrum_type: 2
charge: -1
Formula: C30H48O3
SMILES: CC(=C)[C@@H]1CC[C@]2([C@H]1[C@H]3CC[C@@H]4[C@]5(CC[C@H](C([C@@H]5CC[C@]4([C@@]3(CC2)C(=O)O)C)(C)C)O)C)C
Method: HCD
Collision_energy: [28.333334]
Isolation_window: 4.0
Ion_mode: N
Num Peaks: 7
50.5934	2.0
50.5960	4.5
50.7075	1.4
97.4650	1.1
455.3530	100.0
456.3563	31.4
457.3597	3.9

Name: Barasertib
PrecursorMZ: 586.19867
RT: 5.3023
ExactMass: 587.20574689
Spectrum_type: 2
charge: -1
Formula: C26H31FN7O6P
SMILES: CCN(CCCOC1=CC2=C(C=C1)C(=NC=N2)NC3=NNC(=C3)CC(=O)NC4=CC(=CC=C4)F)CCOP(=O)(O)O
Method: HCD
Collision_energy: [28.333334]
Isolation_window: 4.0
Ion_mode: N
Num Peaks: 37
65.1313	2.0
65.1351	3.9
88.0393	15.2
96.9592	3.3
111.0440	2.7
129.0548	3.8
171.0657	3.6
172.0605	3.2
173.0447	13.7
182.0815	8.5
200.0929	2.7
215.0553	9.5
226.0715	4.1
228.0872	10.0
244.0822	16.1
262.0928	16.1
286.0928	10.8
304.1035	12.9
377.1084	4.3
388.1237	2.5
406.1352	7.6
424.1464	2.3
437.1283	2.0
448.1458	14.6
449.1498	2.2
466.1565	5.8
478.1555	3.3
496.1661	7.1
497.1554	2.4
508.1671	3.6
526.1766	10.4
527.1802	2.2
568.1856	3.2
585.2150	12.0
586.1988	100.0
587.2026	22.4
588.2054	2.9

Name: Barbatic acid
PrecursorMZ: 359.11318
RT: 6.2824
ExactMass: 360.12090297
Spectrum_type: 2
charge: -1
Formula: C19H20O7
SMILES: CC1=CC(=C(C(=C1C(=O)OC2=C(C(=C(C(=C2)C)C(=O)O)O)C)O)C)OC
Method: HCD
Collision_energy: [28.333334]
Isolation_window: 4.0
Ion_mode: N
Num Peaks: 18
59.0129	23.4
124.0758	7.6
146.0602	14.9
148.0765	3.8
150.0916	7.3
195.0649	5.1
215.1185	8.0
243.1140	24.5
243.1497	6.8
244.1158	4.9
255.1021	57.6
256.1065	11.1
271.1454	16.6
287.1401	10.2
315.1337	88.2
316.1358	16.2
359.1177	100.0
360.1212	21.7

Name: Barceloneic Acid A
PrecursorMZ: 319.08267
RT: 0.6739
ExactMass: 320.08960285
Spectrum_type: 2
charge: -1
Formula: C16H16O7
SMILES: CC1=CC(=C(C(=C1)OC2=C(C=C(C=C2O)OC)CO)C(=O)O)O
Method: HCD
Collision_energy: [28.333334]
Isolation_window: 4.0
Ion_mode: N
Num Peaks: 93
57.0337	1.3
59.0130	2.1
72.9922	1.5
79.9564	5.5
80.9643	6.4
87.0078	4.9
95.0491	1.4
96.9592	16.5
97.0286	2.9
99.0078	1.2
99.0441	1.1
109.0286	1.8
111.0442	2.9
113.0236	2.8
123.0442	1.7
125.0600	2.4
127.0391	1.5
135.0443	1.2
137.0234	1.8
137.0599	1.3
139.0394	1.9
149.0599	1.2
151.0396	1.9
151.0758	2.4
153.0550	1.2
161.0599	1.3
163.0755	1.3
169.0500	1.3
175.0395	4.9
177.0551	1.9
187.0753	1.2
189.0556	1.5
191.0727	3.5
193.0139	1.4
193.0500	2.3
195.0662	3.7
203.0705	2.3
205.0505	2.0
205.0863	1.6
207.0664	1.4
215.0715	2.0
217.0498	2.2
217.0856	1.5
219.0659	11.1
220.0701	1.6
221.0813	1.7
229.0882	1.5
231.0665	3.2
231.1021	2.9
233.0817	2.5
245.0816	2.0
247.0617	1.5
247.0969	2.6
249.1126	1.1
257.0818	2.6
259.0610	6.3
259.0972	1.2
260.0661	1.5
273.0770	3.2
273.1101	2.4
274.1106	2.0
275.0562	1.2
275.0924	6.4
275.1290	2.1
276.0934	1.4
277.0757	2.0
277.1068	2.1
299.0569	5.4
300.0605	2.1
301.0706	2.0
303.1603	4.2
317.0663	12.6
317.1038	27.5
317.1384	18.7
317.2114	1.2
317.6248	5.1
318.0667	4.4
318.1039	12.7
318.1375	10.8
318.6323	1.9
319.0821	100.0
319.1192	46.6
319.1570	10.2
319.1935	3.6
319.2283	2.6
320.0840	16.5
320.1200	13.1
320.1538	4.2
321.0601	3.5
321.0976	34.3
321.1345	55.9
321.1724	5.7
321.2101	2.1

Name: Benzenesulfonic Acid
PrecursorMZ: 156.99593
RT: 1.8083
ExactMass: 158.00376522
Spectrum_type: 2
charge: -1
Formula: C6H6O3S
SMILES: C1=CC=C(C=C1)S(=O)(=O)O
Method: HCD
Collision_energy: [28.333334]
Isolation_window: 4.0
Ion_mode: N
Num Peaks: 9
79.9563	2.3
93.0336	5.0
113.0058	2.8
156.9958	100.0
157.1226	66.1
157.9992	6.1
158.1260	6.1
158.9109	2.2
158.9911	2.4

Name: Benzoate
PrecursorMZ: 121.02859
RT: 3.0102
ExactMass: 121.028954398
Spectrum_type: 2
charge: -1
Formula: C7H5O2-
SMILES: C1=CC=C(C=C1)C(=O)[O-]
Method: HCD
Collision_energy: [28.333334]
Isolation_window: 4.0
Ion_mode: N
Num Peaks: 5
93.0337	4.1
119.0243	5.6
120.0450	4.9
121.0287	100.0
122.0319	9.1

Name: Benzoic acid + 1O, 1MeO, O-Hex
PrecursorMZ: 329.08754
RT: 7.1718
ExactMass: 330.09508215
Spectrum_type: 2
charge: -1
Formula: C14H18O9
SMILES: COC1=C(C=CC(=C1)C(=O)OC2C(C(C(C(O2)CO)O)O)O)O
Method: HCD
Collision_energy: [28.333334]
Isolation_window: 4.0
Ion_mode: N
Num Peaks: 10
108.0207	13.6
123.0443	17.8
128.0346	3.6
152.0106	14.2
167.0342	100.0
168.0376	8.1
241.1225	3.2
285.1133	4.1
329.0932	4.0
330.1666	6.3

Name: Benzothiazole-2-sulfonic acid
PrecursorMZ: 213.96352
RT: 0.997375
ExactMass: 214.97108537
Spectrum_type: 2
charge: -1
Formula: C7H5NO3S2
SMILES: C1=CC=C2C(=C1)N=C(S2)S(=O)(=O)O
Method: HCD
Collision_energy: [28.333334]
Isolation_window: 4.0
Ion_mode: N
Num Peaks: 15
87.0079	5.0
125.0601	5.5
134.0062	29.0
141.0185	2.5
150.0013	8.3
172.9575	2.6
213.1856	17.9
213.9635	100.0
214.1890	2.8
214.9665	9.1
215.0093	7.5
215.0922	5.4
215.1288	2.6
215.9585	6.5
216.0316	2.5

Name: Bergenin
PrecursorMZ: 363.04968
RT: 8.4903
ExactMass: 328.07943208
Spectrum_type: 2
charge: -1
Formula: C14H16O9
SMILES: COC1=C(C=C2C(=C1O)[C@H]3[C@@H]([C@H]([C@@H]([C@H](O3)CO)O)O)OC2=O)O
Method: HCD
Collision_energy: [28.333334]
Isolation_window: 4.0
Ion_mode: N
Num Peaks: 3
362.0490	100.0
363.0523	29.6
364.0493	35.1

Name: Betamethasone Dipropionate
PrecursorMZ: 549.25037
RT: 1.9145
ExactMass: 504.25233168
Spectrum_type: 2
charge: -1
Formula: C28H37FO7
SMILES: CCC(=O)OCC(=O)[C@]1([C@H](C[C@@H]2[C@@]1(C[C@@H]([C@]3([C@H]2CCC4=CC(=O)C=C[C@@]43C)F)O)C)C)OC(=O)CC
Method: HCD
Collision_energy: [28.333334]
Isolation_window: 4.0
Ion_mode: N
Num Peaks: 22
97.4637	4.7
462.2070	4.7
475.2114	7.4
476.2181	12.8
477.2283	5.0
488.2201	11.2
489.2248	14.1
490.2371	100.0
491.2406	29.7
503.2459	8.8
504.2493	12.1
505.2606	67.6
506.2634	18.3
547.4351	24.7
548.2412	7.2
548.4398	13.7
549.2502	94.7
549.4541	29.3
550.2536	28.0
550.4567	7.5
551.3053	5.6
551.4059	4.9

Name: Betulinic Acid
PrecursorMZ: 455.35332
RT: 0.9739
ExactMass: 456.36034539
Spectrum_type: 2
charge: -1
Formula: C30H48O3
SMILES: CC(=C)[C@@H]1CC[C@]2([C@H]1[C@H]3CC[C@@H]4[C@]5(CC[C@@H](C([C@@H]5CC[C@]4([C@@]3(CC2)C)C)(C)C)O)C)C(=O)O
Method: HCD
Collision_energy: [28.333334]
Isolation_window: 4.0
Ion_mode: N
Num Peaks: 4
50.5961	4.5
455.3535	100.0
456.3568	33.6
457.3612	4.1

Name: Bimatoprost
PrecursorMZ: 460.27106
RT: 4.8734
ExactMass: 415.27225866
Spectrum_type: 2
charge: -1
Formula: C25H37NO4
SMILES: CCNC(=O)CCC/C=C\C[C@H]1[C@H](C[C@H]([C@@H]1/C=C/[C@H](CCC2=CC=CC=C2)O)O)O
Method: HCD
Collision_energy: [28.333334]
Isolation_window: 4.0
Ion_mode: N
Num Peaks: 5
51.1425	4.4
414.2650	4.4
460.2710	100.0
461.2752	26.2
462.2803	3.9

Name: Bis(2-ethylhexyl) phosphate
PrecursorMZ: 321.21938
RT: 0.9302666666666667
ExactMass: 322.22729659
Spectrum_type: 2
charge: -1
Formula: C16H35O4P
SMILES: CCCCC(CC)COP(=O)(O)OCC(CC)CCCC
Method: HCD
Collision_energy: [28.333334]
Isolation_window: 4.0
Ion_mode: N
Num Peaks: 11
78.9580	53.5
209.0942	14.3
210.0978	1.1
320.1918	0.6
321.0970	0.8
321.1396	0.7
321.2193	100.0
321.3152	2.1
322.2226	17.1
323.2240	1.4
323.2586	2.1

Name: Bms-309403
PrecursorMZ: 473.1872
RT: 8.181866666666666
ExactMass: 474.1943427
Spectrum_type: 2
charge: -1
Formula: C31H26N2O3
SMILES: CCC1=C(C(=NN1C2=CC=CC=C2C3=CC(=CC=C3)OCC(=O)O)C4=CC=CC=C4)C5=CC=CC=C5
Method: HCD
Collision_energy: [28.333334]
Isolation_window: 4.0
Ion_mode: N
Num Peaks: 8
59.0130	48.6
83.0126	41.5
89.0234	51.0
101.0236	56.2
119.0336	48.8
159.0656	58.3
253.0926	100.0
473.1869	95.8

Name: Boc-L-Valine
PrecursorMZ: 216.1237
RT: 8.6850625
ExactMass: 217.13140809
Spectrum_type: 2
charge: -1
Formula: C10H19NO4
SMILES: CC(C)[C@@H](C(=O)O)NC(=O)OC(C)(C)C
Method: HCD
Collision_energy: [28.333334]
Isolation_window: 4.0
Ion_mode: N
Num Peaks: 8
98.0602	30.7
99.0443	17.3
116.0709	10.8
198.1131	76.2
199.1165	6.4
216.0877	7.6
216.1238	100.0
217.1271	12.5

Name: Bonactin
PrecursorMZ: 399.2388
RT: 7.0153
ExactMass: 400.24610348
Spectrum_type: 2
charge: -1
Formula: C21H36O7
SMILES: CCC(CC1CCC(O1)C(C)C(=O)OC(C)CC2CCC(O2)C(C)C(=O)O)O
Method: HCD
Collision_energy: [28.333334]
Isolation_window: 4.0
Ion_mode: N
Num Peaks: 36
59.0122	0.9
69.5010	0.8
114.0541	0.8
128.0342	1.1
183.1389	0.9
222.0282	1.8
237.1487	0.9
275.2368	1.5
291.2329	0.8
317.2127	1.4
318.2153	0.9
319.2277	8.9
320.2309	2.0
335.2230	2.1
336.2259	1.2
337.2382	5.8
338.2404	1.0
353.2331	1.7
354.2369	0.8
355.2480	1.4
361.2023	1.4
362.2065	1.1
363.2183	8.4
364.2221	2.3
379.2132	6.5
380.2160	3.7
381.2287	32.1
382.2322	7.0
383.2457	1.2
397.2240	26.5
398.1420	1.3
398.2281	16.2
399.2393	100.0
400.2426	22.2
401.2114	3.7
401.2531	4.9

Name: Bq-123
PrecursorMZ: 609.30383
RT: 4.9501
ExactMass: 610.3114977
Spectrum_type: 2
charge: -1
Formula: C31H42N6O7
SMILES: CC(C)C[C@H]1C(=O)N[C@@H](C(=O)N[C@@H](C(=O)N2CCC[C@H]2C(=O)N[C@@H](C(=O)N1)C(C)C)CC(=O)O)CC3=CNC4=CC=CC=C43
Method: HCD
Collision_energy: [28.333334]
Isolation_window: 4.0
Ion_mode: N
Num Peaks: 32
67.6984	2.1
67.7025	4.5
69.1711	1.7
78.9580	8.2
87.0442	4.6
127.0503	8.1
145.0610	3.3
152.9949	4.7
165.0540	2.1
166.0616	2.1
167.0453	3.5
171.0057	4.1
183.0642	6.9
184.0718	2.3
281.2483	8.0
282.2509	2.0
283.2647	2.8
367.1778	2.1
424.1985	4.9
437.2541	4.0
442.2098	13.1
443.2116	3.5
481.2449	3.7
506.3232	5.3
507.3269	1.8
508.3408	1.7
565.3143	8.0
566.3182	3.0
608.2652	3.8
609.3043	100.0
610.3071	32.4
611.3058	4.2

Name: Bromosporine
PrecursorMZ: 403.11977
RT: 4.1394
ExactMass: 404.12667431
Spectrum_type: 2
charge: -1
Formula: C17H20N6O4S
SMILES: CCOC(=O)NC1=CC(=NN2C1=NN=C2C)C3=CC(=C(C=C3)C)NS(=O)(=O)C
Method: HCD
Collision_energy: [28.333334]
Isolation_window: 4.0
Ion_mode: N
Num Peaks: 11
61.9806	0.7
61.9873	100.0
61.9939	0.7
119.0338	0.7
142.0498	0.6
160.0599	0.7
250.0924	1.5
340.1221	0.6
341.1065	1.1
403.1197	9.7
404.1064	1.8

Name: Budesonide
PrecursorMZ: 475.23372
RT: 5.2183
ExactMass: 430.2355388
Spectrum_type: 2
charge: -1
Formula: C25H34O6
SMILES: CCCC1O[C@@H]2C[C@H]3[C@@H]4CCC5=CC(=O)C=C[C@@]5([C@H]4[C@H](C[C@@]3([C@@]2(O1)C(=O)CO)C)O)C
Method: HCD
Collision_energy: [28.333334]
Isolation_window: 4.0
Ion_mode: N
Num Peaks: 6
331.2270	5.0
387.2541	19.4
431.2451	12.5
475.2336	100.0
476.2375	25.1
477.2489	55.8

Name: Butanediamide, 2,3-dihydroxy-N,N'-di-2-propenyl-
PrecursorMZ: 227.10319
RT: 5.2117
ExactMass: 228.111007
Spectrum_type: 2
charge: -1
Formula: C10H16N2O4
SMILES: C=CCNC(=O)C(C(C(=O)NCC=C)O)O
Method: HCD
Collision_energy: [28.333334]
Isolation_window: 4.0
Ion_mode: N
Num Peaks: 79
57.0336	1.8
59.0130	4.4
69.0338	6.0
71.0495	2.4
72.9922	2.0
74.0237	2.4
82.0289	11.7
83.0493	2.6
84.0447	2.9
85.0648	1.9
87.0078	1.9
95.0493	2.6
96.9591	1.7
98.0238	6.2
99.0443	3.0
109.0649	4.0
110.0238	1.7
111.0805	5.8
112.0395	5.4
112.0508	2.3
112.0759	2.7
114.0551	1.8
116.0708	12.2
123.0441	2.4
123.0804	2.7
124.0396	1.7
125.0348	3.7
126.0551	13.5
127.0504	2.1
127.0867	10.9
128.0342	2.1
130.0863	1.9
138.0551	4.3
139.0754	3.9
141.0914	3.2
155.0818	4.1
155.1183	2.7
163.1116	2.2
165.1276	5.4
167.1182	4.6
183.0795	4.8
183.1132	100.0
183.1368	4.4
183.1394	2.6
184.1167	9.8
185.1535	1.7
185.1656	11.1
191.1067	1.6
209.1177	39.4
210.0766	1.6
210.1208	4.9
211.1332	4.3
225.1117	1.6
225.1607	5.4
226.0711	3.0
226.1075	14.1
226.1629	1.9
227.0354	7.6
227.0517	4.5
227.0546	5.8
227.0572	5.4
227.0671	1.8
227.1032	97.0
227.1282	69.9
227.1645	1.8
227.2010	9.0
228.0191	3.6
228.0869	3.0
228.1061	10.7
228.1264	3.9
228.1308	8.4
229.0704	9.1
229.1059	3.6
229.1087	3.9
229.1188	2.0
229.1413	10.3
229.1443	21.0
229.1560	27.3
229.1585	5.5

Name: Butanoic acid, 2-methyl-, (10Z)-6-formyl-2,3,3a,4,5,8,9,11a-octahydro-5-hydroxy-10-(hydroxymethyl)-3-methylene-2-oxocyclodeca)b(furan-4-yl ester
PrecursorMZ: 423.16654
RT: 0.9993
ExactMass: 378.16785316
Spectrum_type: 2
charge: -1
Formula: C20H26O7
SMILES: CCC(C)C(=O)OC1C2C(C=C(CCC=C(C1O)C=O)CO)OC(=O)C2=C
Method: HCD
Collision_energy: [28.333334]
Isolation_window: 4.0
Ion_mode: N
Num Peaks: 67
59.0130	1.4
61.9874	1.0
72.9921	1.2
79.9563	1.6
80.9643	1.7
87.0079	1.0
96.9592	16.9
99.0442	1.2
109.0286	1.9
111.0442	1.1
125.0597	1.5
135.0444	1.7
141.0548	1.1
153.0189	1.1
165.0187	2.5
169.0166	2.0
173.0448	1.2
179.0343	1.4
181.0528	4.8
191.0708	1.2
195.0306	1.4
195.0654	2.3
197.0450	1.2
207.0294	6.9
211.0608	5.6
221.0795	1.3
225.0766	0.9
235.0608	1.3
236.0688	97.4
237.0725	13.0
237.1124	1.0
238.0745	1.0
239.0564	1.0
248.0687	1.0
249.0764	2.5
251.1288	2.4
263.1301	1.3
266.0794	2.6
267.1239	1.1
276.1006	1.4
280.0586	3.8
281.1031	1.4
283.1180	0.9
293.0670	1.1
293.1399	1.0
294.1110	53.1
295.1146	9.0
305.1389	1.4
323.1496	2.1
333.2068	1.1
335.1502	3.3
337.1655	1.3
338.1010	36.2
339.1042	7.0
340.1146	1.3
343.2130	2.8
345.2275	1.2
349.1667	1.2
363.1808	1.3
365.1235	1.0
421.2658	1.7
422.1526	1.2
423.1671	100.0
423.2835	1.4
424.1709	22.4
425.1294	2.7
425.1819	22.1

Name: Butanoic acid, 2-methyl-, (3aS,6R,7S,8S,8aR)-octahydro-7-hydroxy-6-methyl-3-methylene-2,5-dioxo-7-((2E)-1-oxo-2-buten-1-yl)-2H-cyclohepta(b)furan-8-yl ester
PrecursorMZ: 377.16086
RT: 3.1634
ExactMass: 378.16785316
Spectrum_type: 2
charge: -1
Formula: C20H26O7
SMILES: CCC(C)C(=O)O[C@H]1[C@H]2[C@@H](CC(=O)[C@@H]([C@]1(C(=O)/C=C/C)O)C)C(=C)C(=O)O2
Method: HCD
Collision_energy: [28.333334]
Isolation_window: 4.0
Ion_mode: N
Num Peaks: 73
63.9615	2.5
79.9564	15.6
80.9642	7.8
89.0057	5.1
96.9592	37.8
99.0443	18.2
99.0807	2.5
111.0077	2.3
111.0441	2.4
115.0868	3.6
116.0709	3.7
119.0163	3.8
125.0600	7.7
130.0866	11.7
147.0443	3.2
149.0600	5.3
153.0550	5.1
164.0710	10.9
175.0398	4.4
177.0551	5.3
179.0708	2.5
181.0500	20.9
193.0491	2.4
195.0657	31.6
196.0696	3.2
198.1490	3.4
205.1225	3.2
207.1029	3.4
207.1384	3.6
211.1458	2.5
213.1239	2.2
216.1386	2.2
217.0493	2.3
219.1025	2.1
228.1716	10.9
231.1014	2.6
233.1181	20.1
234.1234	3.8
237.1131	17.6
238.1150	2.4
241.1188	2.5
251.1287	32.9
252.1318	4.1
277.1075	7.8
278.1149	5.6
285.1812	3.6
286.1857	1.9
289.1831	2.8
295.1187	7.3
295.2280	4.0
297.2432	4.9
315.1601	14.0
316.1632	3.3
332.1911	13.0
345.1681	2.9
359.1503	4.1
375.1866	15.5
375.2908	100.0
376.1024	4.2
376.1441	3.8
376.1804	13.9
376.1852	7.6
376.2243	24.9
376.2944	43.3
377.1611	62.7
377.2016	32.8
377.2224	5.7
377.2939	6.1
378.1184	7.2
378.1637	14.3
378.2037	8.7
379.1745	4.1
379.2135	14.8

Name: Butanoic acid, 2-methyl-, (3aS,6R,7S,8S,8aR)-octahydro-7-hydroxy-6-methyl-3-methylene-2,5-dioxo-7-)(2E)-1-oxo-2-buten-1-yl(-2H-cyclohepta)b(furan-8-yl ester
PrecursorMZ: 377.16113
RT: 0.5982000000000001
ExactMass: 378.16785316
Spectrum_type: 2
charge: -1
Formula: C20H26O7
SMILES: CCC(C)C(=O)O[C@H]1[C@H]2[C@@H](CC(=O)[C@@H]([C@]1(C(=O)/C=C/C)O)C)C(=C)C(=O)O2
Method: HCD
Collision_energy: [28.333334]
Isolation_window: 4.0
Ion_mode: N
Num Peaks: 72
59.0117	2.3
61.9862	13.2
61.9898	5.1
75.0064	6.7
79.9550	5.6
80.9628	6.6
85.0273	1.7
87.0064	3.6
96.9577	4.3
109.0270	2.4
111.0428	4.6
113.0584	5.7
114.0536	2.7
125.0220	2.7
125.0584	3.2
127.0740	2.8
130.0852	1.7
139.0395	2.7
149.0588	1.6
151.0394	2.1
153.0555	2.0
165.0549	3.6
167.0346	3.2
167.0704	3.4
179.0345	2.2
179.0709	4.3
181.0501	9.3
193.0501	5.9
195.0662	2.6
197.0816	4.4
207.0663	2.8
209.0451	2.3
221.1180	3.2
223.0599	1.6
235.0613	9.8
237.1132	1.7
251.1292	1.9
259.1816	9.4
264.1004	92.3
265.1044	15.8
269.0668	22.7
270.0703	3.0
271.1461	1.8
293.2124	3.2
295.2286	3.0
301.1911	2.4
303.1722	1.9
308.0903	24.7
309.0942	3.9
319.1915	11.9
320.1948	2.2
335.1940	4.0
347.1516	2.7
361.1649	2.6
361.2041	3.6
375.1853	10.4
375.2809	8.6
376.1114	4.2
376.1451	3.3
376.1854	9.6
376.2880	3.5
377.0949	9.0
377.1244	6.4
377.1640	100.0
377.2023	32.8
377.2875	2.1
378.1242	5.8
378.1667	20.0
378.2048	9.6
379.1051	12.5
379.1785	52.5
379.2166	41.2

Name: Butylparaben
PrecursorMZ: 193.08626
RT: 4.6732
ExactMass: 194.094294304
Spectrum_type: 2
charge: -1
Formula: C11H14O3
SMILES: CCCCOC(=O)C1=CC=C(C=C1)O
Method: HCD
Collision_energy: [28.333334]
Isolation_window: 4.0
Ion_mode: N
Num Peaks: 81
63.9615	0.9
66.0339	0.2
67.0180	0.3
74.0238	2.0
79.9564	1.3
80.9642	6.6
81.9522	0.5
82.0287	0.2
82.9600	1.1
84.0444	0.2
91.0543	0.4
93.0335	0.2
94.0288	0.3
96.9591	0.3
97.4058	0.3
107.0492	0.2
108.0447	0.3
109.0286	0.3
110.0318	0.4
112.0508	0.3
119.0490	0.4
120.0448	0.3
121.0286	0.9
121.0650	0.2
122.0601	0.2
131.0494	0.3
133.0651	0.6
147.0442	0.4
147.0805	0.9
148.0427	1.0
148.0752	0.3
148.0856	0.3
149.0599	0.3
149.0712	0.3
149.0963	10.4
150.0221	5.1
150.0551	1.2
150.1005	1.0
151.0392	0.4
151.0502	1.9
151.0755	0.3
151.0867	0.4
157.0648	0.8
164.0169	0.3
164.0710	0.3
175.0440	0.2
175.0757	34.4
175.1070	0.2
176.0791	3.6
177.0817	0.2
184.0012	0.5
191.0696	0.3
191.9972	0.2
192.0026	0.4
192.0049	0.3
192.0166	1.8
192.0325	0.7
192.0657	2.4
192.5182	0.4
192.9960	0.2
192.9987	0.3
193.0174	0.4
193.0267	4.3
193.0361	0.9
193.0386	2.1
193.0498	0.5
193.0571	0.6
193.0863	100.0
193.1149	0.4
193.1174	0.5
193.1229	1.1
193.1767	0.2
194.0120	0.9
194.0312	0.2
194.0463	1.5
194.0496	0.2
194.0897	12.1
194.9950	0.4
195.0319	0.7
195.0918	0.7
195.1128	0.4

Name: Butyrolactone II
PrecursorMZ: 355.08255
RT: 1.4548
ExactMass: 356.08960285
Spectrum_type: 2
charge: -1
Formula: C19H16O7
SMILES: COC(=O)[C@]1(C(=C(C(=O)O1)O)C2=CC=C(C=C2)O)CC3=CC=C(C=C3)O
Method: HCD
Collision_energy: [28.333334]
Isolation_window: 4.0
Ion_mode: N
Num Peaks: 45
61.9875	5.8
85.9986	1.3
99.9249	4.0
108.0208	1.5
109.0286	3.1
111.0192	0.8
115.9198	3.7
116.9277	3.9
135.0445	1.4
137.0601	7.2
145.0289	1.1
145.0651	1.1
147.0447	2.7
155.0091	1.0
161.0238	33.7
162.0272	2.7
163.0396	5.7
173.0239	11.7
173.0450	1.6
174.0305	1.8
181.0501	8.3
189.0552	11.1
190.0592	1.0
201.0551	1.0
211.9648	1.0
233.0451	0.9
247.0609	1.4
267.1027	1.4
291.9918	4.3
292.9939	1.3
293.0816	1.5
295.0612	18.4
296.0641	2.6
310.0023	1.6
311.0927	7.7
312.0958	1.7
335.9810	0.9
337.0715	3.3
338.0747	0.9
353.9928	7.4
354.9941	2.0
355.0822	100.0
355.1777	0.9
356.0847	18.5
357.0896	3.1

Name: Butyrolactone Ii
PrecursorMZ: 355.08253
RT: 3.0398
ExactMass: 356.08960285
Spectrum_type: 2
charge: -1
Formula: C19H16O7
SMILES: COC(=O)[C@]1(C(=C(C(=O)O1)O)C2=CC=C(C=C2)O)CC3=CC=C(C=C3)O
Method: HCD
Collision_energy: [28.333334]
Isolation_window: 4.0
Ion_mode: N
Num Peaks: 20
61.9876	2.3
97.4067	2.3
109.0284	2.2
133.0288	4.3
133.0651	2.2
137.0241	2.6
149.0237	5.0
159.0442	2.3
161.0598	2.2
176.0350	2.8
177.0189	14.3
177.0548	3.4
202.0264	2.1
205.0504	4.2
327.0877	7.3
353.2364	2.6
354.0983	18.0
355.0824	100.0
356.0863	20.6
357.0885	2.5

PrecursorMZ: 353.19667
RT: 6.0242
Spectrum_type: 2
charge: -1
SMILES: CC(=O)OC1C(O)C(C)(O)C(/C=C/C(=O)O)C2(C)CCCC(C)(C)C12
Method: HCD
Collision_energy: [28.333334]
Isolation_window: 4.0
Ion_mode: N
Num Peaks: 57
59.0129	3.1
61.9875	1.9
69.6074	1.3
71.0129	1.5
74.0238	1.7
87.0077	2.0
88.0394	1.5
96.9591	3.1
114.0550	5.0
116.0707	1.8
127.0504	2.1
128.0344	3.1
130.0865	13.7
135.0444	1.5
139.0060	3.9
151.0251	2.1
151.0392	1.4
164.0704	2.1
170.9962	2.9
173.0448	1.8
191.0556	2.8
192.0884	6.5
221.0809	1.6
247.2061	1.4
277.1809	1.7
289.1799	2.0
291.1965	2.4
293.0833	1.6
308.1336	2.4
309.2074	2.9
335.1865	1.5
337.2022	1.4
351.2177	1.9
352.1015	2.1
352.1184	3.4
352.1435	1.7
352.1492	4.0
352.1535	2.4
352.1775	5.9
352.1823	4.5
353.0887	2.7
353.1323	4.9
353.1378	2.9
353.1448	2.5
353.1483	2.7
353.1969	100.0
353.2443	7.0
354.1236	1.5
354.1280	4.8
354.1321	2.1
354.2004	21.8
354.2493	1.7
355.0786	4.4
355.1082	1.9
355.1570	2.8
355.2080	3.1
355.2130	4.5

PrecursorMZ: 201.07649
RT: 1.0832
Spectrum_type: 2
charge: -1
SMILES: CCC(C)(O)C1(C(=O)O)COC(=O)C1
Method: HCD
Collision_energy: [28.333334]
Isolation_window: 4.0
Ion_mode: N
Num Peaks: 62
55.0181	7.6
57.0337	5.3
59.0130	26.0
71.0129	6.9
71.0493	5.9
72.0445	6.1
73.0286	15.3
82.0288	4.4
83.0493	6.3
84.0445	12.8
85.0285	8.5
87.0079	18.0
87.0442	10.2
95.0493	5.1
96.0446	52.9
97.0286	8.9
97.0650	7.2
99.0082	5.2
99.0442	26.8
101.0598	7.9
111.0079	5.1
111.0444	4.9
111.0808	8.6
113.0234	5.3
113.0348	4.2
113.0600	6.7
115.0394	4.6
124.0395	17.3
125.0236	5.7
125.0602	6.5
127.0395	8.4
127.0758	6.8
128.0345	8.9
137.0603	6.7
137.0962	9.3
139.0393	35.9
139.0757	11.9
141.0547	6.9
154.0866	5.1
155.0714	10.7
155.0904	13.4
155.1070	100.0
156.1118	14.4
157.0864	12.0
168.0296	73.6
169.0331	5.6
171.1022	12.9
181.0501	6.1
183.0655	4.9
199.0608	54.0
199.0797	21.4
199.0973	94.2
200.0573	12.5
200.0971	12.9
200.1285	4.7
201.0764	92.7
201.1128	34.3
202.0154	4.2
202.0795	8.4
203.0556	6.5
203.0924	12.8
203.1286	8.8

Name: CU-Cpt22
PrecursorMZ: 361.12932
RT: 8.8201
ExactMass: 362.13655304
Spectrum_type: 2
charge: -1
Formula: C19H22O7
SMILES: CCCCCCOC(=O)C1=CC(=O)C(=C2C(=C1)C=C(C(=C2O)O)OC)O
Method: HCD
Collision_energy: [28.333334]
Isolation_window: 4.0
Ion_mode: N
Num Peaks: 19
119.0493	17.1
121.0651	21.5
128.0343	15.3
135.0444	21.4
150.0555	34.0
165.0550	49.0
227.1443	19.8
229.1597	33.6
273.1497	19.2
281.1146	22.6
317.1408	26.3
343.1150	11.1
360.1101	41.9
361.0857	17.8
361.0925	17.2
361.1304	100.0
362.1348	22.1
363.1070	11.5
363.2181	17.5

Name: Caprine
PrecursorMZ: 130.08654
RT: 7.1494
ExactMass: 131.094628657
Spectrum_type: 2
charge: -1
Formula: C6H13NO2
SMILES: CCCC[C@@H](C(=O)O)N
Method: HCD
Collision_energy: [28.333334]
Isolation_window: 4.0
Ion_mode: N
Num Peaks: 27
57.0337	4.9
59.0130	4.3
69.0337	1.1
69.3625	1.0
69.6466	0.8
71.0130	1.0
71.0493	11.9
73.0286	0.9
79.9565	2.9
85.0287	1.5
85.0650	29.0
87.0442	100.0
87.0806	1.8
88.0395	1.9
88.0476	1.8
112.0395	1.6
113.0236	6.9
113.0600	3.3
128.0346	1.0
129.0550	3.9
129.0914	5.2
130.0660	0.8
130.0866	91.7
131.0342	21.7
131.0706	18.4
131.0901	6.9
132.0450	1.1

Name: Carglumic Acid
PrecursorMZ: 189.05124
RT: 4.9549
ExactMass: 190.05897142
Spectrum_type: 2
charge: -1
Formula: C6H10N2O5
SMILES: C(CC(=O)O)[C@@H](C(=O)O)NC(=O)N
Method: HCD
Collision_energy: [28.333334]
Isolation_window: 4.0
Ion_mode: N
Num Peaks: 32
75.0078	1.8
85.0286	2.6
87.0078	6.3
99.0442	2.4
101.0601	1.6
102.0552	11.3
103.0027	2.9
110.0239	4.9
111.0079	5.9
115.0028	2.4
115.9198	1.3
125.0237	6.2
127.0394	2.1
128.0345	29.6
129.0185	1.4
130.0138	3.2
143.9150	1.4
144.0294	1.7
146.0452	100.0
147.0311	1.5
147.0490	4.8
171.0292	8.3
187.0258	1.9
187.0961	1.6
188.0348	10.9
189.0387	3.1
189.0526	1.7
190.0349	4.3
190.0509	1.5
191.0190	2.4
191.0362	2.5
191.0557	5.9

Name: Catalpol
PrecursorMZ: 361.11387
RT: 4.8198
ExactMass: 362.12129689
Spectrum_type: 2
charge: -1
Formula: C15H22O10
SMILES: C1=CO[C@H]([C@H]2[C@@H]1[C@@H]([C@H]3[C@@]2(O3)CO)O)O[C@H]4[C@@H]([C@H]([C@@H]([C@H](O4)CO)O)O)O
Method: HCD
Collision_energy: [28.333334]
Isolation_window: 4.0
Ion_mode: N
Num Peaks: 20
61.9874	34.9
83.0493	28.8
109.0287	22.9
123.0441	32.2
135.0442	71.8
137.0595	20.2
139.0389	18.8
155.0706	83.6
161.0962	18.5
181.0500	35.9
199.0601	32.5
207.1023	32.2
243.0503	45.2
315.0867	49.0
316.0894	18.2
329.0874	100.0
360.1096	39.6
361.0946	80.5
361.1083	70.3
363.1122	19.7

Name: Catalposide
PrecursorMZ: 481.13554
RT: 1.4757
ExactMass: 482.14242626
Spectrum_type: 2
charge: -1
Formula: C22H26O12
SMILES: C1=CO[C@H]([C@H]2[C@@H]1[C@@H]([C@H]3[C@@]2(O3)CO)OC(=O)C4=CC=C(C=C4)O)O[C@H]5[C@@H]([C@H]([C@@H]([C@H](O5)CO)O)O)O
Method: HCD
Collision_energy: [28.333334]
Isolation_window: 4.0
Ion_mode: N
Num Peaks: 13
125.0237	7.3
301.0716	18.7
319.0826	14.0
343.0823	88.6
344.0858	14.4
361.0931	100.0
362.0964	18.0
373.0925	46.1
374.0964	9.8
391.1040	31.1
463.1232	8.4
481.1350	79.2
482.1386	18.1

Name: Catechin
PrecursorMZ: 289.07155
RT: 3.68
ExactMass: 290.07903816
Spectrum_type: 2
charge: -1
Formula: C15H14O6
SMILES: C1[C@@H]([C@H](OC2=CC(=CC(=C21)O)O)C3=CC(=C(C=C3)O)O)O
Method: HCD
Collision_energy: [28.333334]
Isolation_window: 4.0
Ion_mode: N
Num Peaks: 27
59.0128	2.7
61.9874	3.8
87.0076	2.7
109.0285	33.6
111.0076	2.9
111.0441	2.9
116.9274	2.8
135.0442	100.0
136.0470	6.9
137.0600	9.3
179.0340	9.4
187.0388	2.8
188.0471	5.9
202.0623	3.1
203.0705	8.1
227.0712	9.8
229.0501	52.4
230.0543	9.0
243.0658	4.5
245.0814	88.6
246.0848	13.3
287.0794	7.0
288.0865	2.7
289.0708	59.8
289.0967	4.5
290.0718	8.0
291.0899	6.6

Name: Catechin 7-O-apiofuranoside
PrecursorMZ: 421.11401
RT: 1.8958
ExactMass: 422.12129689
Spectrum_type: 2
charge: -1
Formula: C20H22O10
SMILES: C1[C@@H]([C@H](OC2=CC(=CC(=C21)O)O[C@H]3[C@@H]([C@](CO3)(CO)O)O)C4=CC(=C(C=C4)O)O)O
Method: HCD
Collision_energy: [28.333334]
Isolation_window: 4.0
Ion_mode: N
Num Peaks: 30
59.0128	1.9
87.0076	1.3
109.0285	3.0
113.0234	1.1
125.0233	3.0
135.0441	5.0
137.0235	8.0
137.0598	8.2
149.0598	1.1
153.0546	1.2
161.0235	1.0
167.0342	1.1
179.0341	3.5
181.0498	56.4
182.0534	4.8
185.0444	1.9
197.0442	1.3
227.0554	10.2
229.0504	1.1
239.0540	1.7
319.0820	1.3
361.1067	1.9
403.1023	1.2
419.0964	1.5
419.1476	1.8
420.0993	2.9
420.1369	2.1
421.1136	100.0
422.1154	22.4
423.1237	10.6

Name: Ccg-203971
PrecursorMZ: 407.11691
RT: 1.0949
ExactMass: 408.1240702
Spectrum_type: 2
charge: -1
Formula: C23H21ClN2O3
SMILES: C1CC(CN(C1)C(=O)C2=CC=CC(=C2)C3=CC=CO3)C(=O)NC4=CC=C(C=C4)Cl
Method: HCD
Collision_energy: [28.333334]
Isolation_window: 4.0
Ion_mode: N
Num Peaks: 35
79.9564	1.4
80.9645	1.3
96.9592	5.1
99.0079	0.8
125.0602	2.0
177.1036	0.8
179.0684	1.1
179.0848	1.0
181.0497	0.8
195.0659	1.1
196.0375	1.4
207.1507	0.9
251.1292	1.9
266.0788	1.0
267.1241	1.0
277.2281	2.8
282.0751	1.8
321.2183	3.8
324.1220	1.4
340.1169	3.9
351.1480	1.4
405.1879	5.7
405.2353	2.2
406.1408	0.9
406.1898	2.1
406.2421	1.7
407.1175	100.0
407.1630	4.6
407.2068	6.5
407.2502	1.9
408.1195	23.6
408.1652	1.1
408.2102	1.8
409.1238	5.0
409.1865	16.0

Name: Cdk12-IN-3
PrecursorMZ: 469.22758
RT: 4.5862
ExactMass: 470.23541387
Spectrum_type: 2
charge: -1
Formula: C23H28F2N8O
SMILES: CC(C)N1C=NC2=C(N=C(N=C21)N3CCCC[C@H]3CCO)NCC4=NC5=C(N4)C=CC(=C5F)F
Method: HCD
Collision_energy: [28.333334]
Isolation_window: 4.0
Ion_mode: N
Num Peaks: 32
52.1349	2.1
52.1377	4.7
52.1426	1.0
52.1454	2.3
52.2492	1.1
52.3589	1.2
52.3616	3.1
59.0130	1.6
69.2405	1.2
73.0285	1.4
78.9582	1.8
79.9566	1.1
87.0442	1.0
96.9592	35.0
98.9548	1.0
255.2328	2.1
273.1717	1.0
425.3070	3.4
426.3116	1.1
467.2115	2.0
467.2993	1.9
467.3198	3.5
467.3421	1.9
468.2158	3.3
468.3039	1.6
468.3242	2.1
469.2279	100.0
469.2979	52.8
470.2310	26.2
470.3017	15.4
471.2425	68.4
471.3098	4.4

Name: Cellobiose
PrecursorMZ: 387.11473
RT: 4.9474
ExactMass: 342.11621151
Spectrum_type: 2
charge: -1
Formula: C12H22O11
SMILES: C([C@@H]1[C@H]([C@@H]([C@H]([C@@H](O1)O[C@@H]2[C@H](OC([C@@H]([C@H]2O)O)O)CO)O)O)O)O
Method: HCD
Collision_energy: [28.333334]
Isolation_window: 4.0
Ion_mode: N
Num Peaks: 24
59.0129	18.0
61.9875	100.0
71.0129	29.7
73.0285	20.8
89.0234	43.4
96.9590	22.7
97.0286	19.4
101.0234	59.4
113.0234	14.4
116.9274	7.1
119.0339	17.5
143.0343	15.5
161.0448	83.3
162.0485	10.5
179.0555	31.0
221.0664	6.0
288.1194	6.0
341.1093	27.3
342.1122	5.8
343.1230	6.5
385.1690	6.4
388.0453	10.5
388.1753	6.6
389.1671	9.4

Name: Centaureidin
PrecursorMZ: 359.07734
RT: 5.1048
ExactMass: 360.08451746
Spectrum_type: 2
charge: -1
Formula: C18H16O8
SMILES: COC1=C(C=C(C=C1)C2=C(C(=O)C3=C(O2)C=C(C(=C3O)OC)O)OC)O
Method: HCD
Collision_energy: [28.333334]
Isolation_window: 4.0
Ion_mode: N
Num Peaks: 3
287.1286	61.5
317.1394	75.2
359.0772	100.0

Name: Centrolobol
PrecursorMZ: 345.1708
RT: 4.6603
ExactMass: 300.17254462
Spectrum_type: 2
charge: -1
Formula: C19H24O3
SMILES: C1=CC(=CC=C1CCCC[C@H](CCC2=CC=C(C=C2)O)O)O
Method: HCD
Collision_energy: [28.333334]
Isolation_window: 4.0
Ion_mode: N
Num Peaks: 43
59.0130	3.0
71.0130	1.8
72.9923	2.3
80.9643	1.6
83.0493	1.5
87.0442	1.4
109.0284	1.4
114.0552	2.2
135.0448	1.6
171.1019	2.3
200.0713	4.0
226.0872	1.3
255.1589	1.8
257.1917	2.5
259.1703	3.2
265.1816	3.0
281.2126	2.3
283.1923	4.7
284.1954	1.6
299.1677	1.3
299.2221	2.3
300.1265	3.3
301.1843	6.5
302.1791	1.4
303.1974	1.7
325.2020	6.8
326.2048	2.3
343.1216	2.2
343.1655	1.8
343.2127	63.4
343.2465	2.8
344.1175	6.1
344.1561	1.8
344.2160	21.1
345.1013	3.6
345.1714	100.0
345.2249	11.5
345.2645	3.5
346.0955	2.1
346.1322	5.2
346.1740	21.3
347.1501	5.3
347.1859	7.6

Name: Cetraric acid
PrecursorMZ: 401.08769
RT: 2.4455
ExactMass: 402.09508215
Spectrum_type: 2
charge: -1
Formula: C20H18O9
SMILES: CCOCC1=C(C(=C(C2=C1OC(=O)C3=C(O2)C(=C(C=C3C)O)C=O)C)C(=O)O)O
Method: HCD
Collision_energy: [28.333334]
Isolation_window: 4.0
Ion_mode: N
Num Peaks: 17
109.0285	16.6
135.0441	16.5
149.0603	6.1
165.0545	5.5
175.0757	14.9
177.0549	21.0
203.0708	60.4
204.0748	6.8
221.0450	10.9
247.0609	60.3
248.0643	8.6
291.0510	17.3
295.0982	6.5
399.1055	4.0
401.0876	100.0
402.0905	22.4
403.1013	5.6

Name: Cgmp
PrecursorMZ: 344.03974
RT: 6.8778
ExactMass: 345.04743474
Spectrum_type: 2
charge: -1
Formula: C10H12N5O7P
SMILES: C1[C@@H]2[C@H]([C@H]([C@@H](O2)N3C=NC4=C3N=C(NC4=O)N)O)OP(=O)(O1)O
Method: HCD
Collision_energy: [28.333334]
Isolation_window: 4.0
Ion_mode: N
Num Peaks: 6
133.0146	9.0
150.0413	100.0
151.0459	5.4
343.1122	6.0
344.0404	23.1
344.1373	4.8

Name: Chaulmoogric Acid
PrecursorMZ: 279.23309
RT: 0.5409
ExactMass: 280.240230259
Spectrum_type: 2
charge: -1
Formula: C18H32O2
SMILES: C1C[C@@H](C=C1)CCCCCCCCCCCCC(=O)O
Method: HCD
Collision_energy: [28.333334]
Isolation_window: 4.0
Ion_mode: N
Num Peaks: 16
59.0130	21.1
60.0163	1.2
205.1593	4.2
206.1629	1.5
233.1911	3.9
234.1945	1.8
277.1812	77.1
277.2128	2.7
278.1845	35.0
278.2183	0.8
279.1261	3.8
279.1898	4.4
279.2330	100.0
280.2363	19.3
281.1038	1.5
281.2486	43.2

Name: Chelidamic Acid
PrecursorMZ: 182.009
RT: 4.3602
ExactMass: 183.01677226
Spectrum_type: 2
charge: -1
Formula: C7H5NO5
SMILES: C1=C(NC(=CC1=O)C(=O)O)C(=O)O
Method: HCD
Collision_energy: [28.333334]
Isolation_window: 4.0
Ion_mode: N
Num Peaks: 13
59.0130	2.8
65.0137	2.3
68.9949	7.3
94.0289	100.0
95.0322	6.1
112.9847	29.2
137.0602	2.1
138.0189	87.7
139.0224	5.5
181.0511	3.4
182.0093	3.6
182.0473	10.4
183.0294	5.3

Name: Chenodeoxycholic Acid
PrecursorMZ: 391.28557
RT: 2.0279
ExactMass: 392.29265975
Spectrum_type: 2
charge: -1
Formula: C24H40O4
SMILES: C[C@H](CCC(=O)O)[C@H]1CC[C@@H]2[C@@]1(CC[C@H]3[C@H]2[C@@H](C[C@H]4[C@@]3(CC[C@H](C4)O)C)O)C
Method: HCD
Collision_energy: [28.333334]
Isolation_window: 4.0
Ion_mode: N
Num Peaks: 12
61.9875	4.8
96.9592	42.1
311.2231	7.3
313.2386	9.0
345.2795	5.9
389.2667	3.4
391.1796	26.4
391.2859	100.0
392.1836	6.2
392.2893	26.3
393.1235	3.2
393.1958	42.3

Name: Chlorophene
PrecursorMZ: 217.04195
RT: 2.9294
ExactMass: 218.0498427
Spectrum_type: 2
charge: -1
Formula: C13H11ClO
SMILES: C1=CC=C(C=C1)CC2=C(C=CC(=C2)Cl)O
Method: HCD
Collision_energy: [28.333334]
Isolation_window: 4.0
Ion_mode: N
Num Peaks: 3
215.1650	13.9
217.0420	100.0
218.0457	14.2

Name: Chol-11-enic acid
PrecursorMZ: 371.25926
RT: 2.534
ExactMass: 372.26644501
Spectrum_type: 2
charge: -1
Formula: C24H36O3
SMILES: CC(CCC(=O)O)[C@H]1CCC2[C@@]1(C=CC3C2CC[C@H]4[C@@]3(CCC(=O)C4)C)C
Method: HCD
Collision_energy: [28.333334]
Isolation_window: 4.0
Ion_mode: N
Num Peaks: 17
307.3005	0.3
369.2442	1.1
369.3012	0.7
370.2478	0.8
370.2518	0.3
370.3048	0.4
371.2595	9.9
371.3078	0.3
371.3145	0.7
372.2630	2.7
373.1472	0.2
373.1770	0.7
373.1965	0.6
373.2749	100.0
373.3534	0.5
373.3737	0.7
373.4015	0.2

Name: Chrysin
PrecursorMZ: 253.04997
RT: 0.8006
ExactMass: 254.0579088
Spectrum_type: 2
charge: -1
Formula: C15H10O4
SMILES: C1=CC=C(C=C1)C2=CC(=O)C3=C(C=C(C=C3O2)O)O
Method: HCD
Collision_energy: [28.333334]
Isolation_window: 4.0
Ion_mode: N
Num Peaks: 8
61.9872	0.9
252.9954	0.6
253.0498	100.0
253.0932	0.6
253.1047	0.6
254.0530	15.5
255.0526	1.4
255.2322	1.3

Name: Chrysosplenetin
PrecursorMZ: 373.09267
RT: 4.3197
ExactMass: 374.10016753
Spectrum_type: 2
charge: -1
Formula: C19H18O8
SMILES: COC1=C(C=CC(=C1)C2=C(C(=O)C3=C(C(=C(C=C3O2)OC)OC)O)OC)O
Method: HCD
Collision_energy: [28.333334]
Isolation_window: 4.0
Ion_mode: N
Num Peaks: 35
59.0129	8.2
61.9874	9.2
108.0208	1.7
109.0284	6.5
123.0442	4.2
135.0443	7.3
149.0599	5.2
160.0520	3.3
161.0599	14.1
181.0500	3.2
209.0799	2.3
219.0649	2.2
254.0578	8.8
255.0652	3.6
267.0694	2.1
267.1004	1.9
268.0738	2.1
269.0817	66.7
270.0873	21.9
271.0925	3.0
283.0968	3.6
285.1130	22.6
286.1157	4.0
311.0554	6.1
311.0921	4.3
329.1026	31.6
330.1057	6.0
331.1177	2.0
354.0257	4.6
355.0817	2.1
372.0365	6.9
373.0538	2.4
373.0925	100.0
374.0951	20.3
375.1073	15.9

Name: Cilazapril
PrecursorMZ: 416.2191
RT: 0.5898
ExactMass: 417.2263711
Spectrum_type: 2
charge: -1
Formula: C22H31N3O5
SMILES: CCOC(=O)[C@H](CCC1=CC=CC=C1)N[C@H]2CCCN3CCC[C@H](N3C2=O)C(=O)O
Method: HCD
Collision_energy: [28.333334]
Isolation_window: 4.0
Ion_mode: N
Num Peaks: 16
78.9579	1.0
96.9590	17.9
98.9547	2.7
98.9631	0.5
99.0551	0.6
137.0345	1.4
138.0381	0.7
141.0657	0.5
173.0553	0.5
414.2034	21.8
415.2158	100.0
415.2655	1.2
415.3319	0.5
416.2194	24.6
417.2166	7.4
418.2256	1.0

Name: Citramalic acid, (-)-
PrecursorMZ: 147.02886
RT: 3.9617
ExactMass: 148.03717335
Spectrum_type: 2
charge: -1
Formula: C5H8O5
SMILES: C[C@@](CC(=O)O)(C(=O)O)O
Method: HCD
Collision_energy: [28.333334]
Isolation_window: 4.0
Ion_mode: N
Num Peaks: 13
71.0127	14.7
75.0077	93.1
85.0284	16.9
87.0076	24.0
89.0233	67.4
103.0389	61.2
115.0025	18.0
129.0182	11.4
146.0237	15.1
147.0196	5.7
147.0288	100.0
148.0322	7.1
148.0605	4.7

Name: Citrate
PrecursorMZ: 191.01891
RT: 9.6972
ExactMass: 189.00352749
Spectrum_type: 2
charge: -1
Formula: C6H5O7-3
SMILES: C(C(=O)[O-])C(CC(=O)[O-])(C(=O)[O-])O
Method: HCD
Collision_energy: [28.333334]
Isolation_window: 4.0
Ion_mode: N
Num Peaks: 20
57.0336	3.1
78.9580	3.0
82.0400	2.9
85.0285	24.9
87.0077	36.6
106.0402	2.6
111.0078	100.0
112.0112	5.2
120.0558	5.5
121.0286	6.4
129.0184	8.1
147.0078	9.7
147.0666	4.1
148.0510	6.5
165.0185	3.6
173.0089	3.0
174.9001	5.2
191.0191	16.0
191.0555	5.4
192.9106	10.1

Name: Citreorosein
PrecursorMZ: 285.04064
RT: 1.0737
ExactMass: 286.04773803
Spectrum_type: 2
charge: -1
Formula: C15H10O6
SMILES: C1=C(C=C(C2=C1C(=O)C3=C(C2=O)C(=CC(=C3)O)O)O)CO
Method: HCD
Collision_energy: [28.333334]
Isolation_window: 4.0
Ion_mode: N
Num Peaks: 11
211.0399	10.3
223.0400	4.8
239.0350	3.9
241.0506	45.9
242.0539	5.8
283.2284	6.9
283.2644	23.7
284.2672	6.7
285.0406	100.0
286.0438	16.2
287.0566	3.5

Name: Clinofibrate
PrecursorMZ: 467.24406
RT: 5.3199
ExactMass: 468.25118886
Spectrum_type: 2
charge: -1
Formula: C28H36O6
SMILES: CCC(C)(C(=O)O)OC1=CC=C(C=C1)C2(CCCCC2)C3=CC=C(C=C3)OC(C)(CC)C(=O)O
Method: HCD
Collision_energy: [28.333334]
Isolation_window: 4.0
Ion_mode: N
Num Peaks: 56
51.9146	2.1
51.9174	4.5
52.0261	0.6
52.0289	1.4
59.0129	0.8
74.0239	1.0
78.9582	2.9
96.9687	1.4
114.0554	1.0
119.0494	3.0
122.0602	0.9
124.0761	0.8
128.0347	0.7
130.0865	0.6
151.0504	1.0
165.0554	1.0
195.0520	5.1
253.1347	0.8
255.1505	6.2
256.1541	1.3
350.1874	3.7
351.1911	0.9
361.2536	1.8
362.1886	1.0
377.2487	1.3
378.2194	2.5
379.2217	0.8
379.2652	5.2
380.2696	1.2
405.2448	2.5
406.2484	0.7
421.2404	1.2
421.2545	0.7
422.2091	5.7
423.1940	0.7
423.2061	1.3
423.2559	5.0
423.3125	1.5
424.2585	1.3
449.2343	3.6
449.2925	1.0
450.2387	0.9
465.3171	2.9
465.3290	1.4
466.1989	8.2
466.2185	0.7
466.3230	1.5
467.1925	2.4
467.2449	100.0
467.3020	6.6
468.2490	30.4
468.3041	1.7
469.1670	0.8
469.2494	3.8
469.2615	3.5
469.3173	2.2

Name: Coatline B
PrecursorMZ: 451.1244
RT: 7.6457
ExactMass: 452.13186158
Spectrum_type: 2
charge: -1
Formula: C21H24O11
SMILES: C1=CC(=C(C=C1C[C@H](C(=O)C2=C(C(=C(C=C2)O)[C@H]3[C@@H]([C@H]([C@@H]([C@H](O3)CO)O)O)O)O)O)O)O
Method: HCD
Collision_energy: [28.333334]
Isolation_window: 4.0
Ion_mode: N
Num Peaks: 76
50.1237	2.4
50.1263	3.9
50.2379	0.9
59.0129	3.8
71.0130	2.4
72.9922	1.8
74.0239	0.9
75.0079	1.0
79.9564	1.9
80.9643	3.2
85.0287	1.7
87.0079	2.3
88.0394	1.2
89.0235	1.7
96.0081	1.2
96.9592	2.0
97.0287	1.3
99.0079	0.9
99.0443	0.9
101.0234	1.7
105.0183	1.2
109.0287	3.4
110.0244	0.9
111.0079	1.0
111.0443	1.4
113.0236	2.4
114.0551	2.6
115.0027	1.6
119.0495	1.4
121.0289	1.0
123.0444	1.9
124.0397	1.0
125.0236	5.2
127.0403	1.2
127.0496	1.3
128.0346	5.9
129.0182	1.0
130.0502	1.1
130.0865	1.0
131.0344	0.9
135.0289	1.0
135.0444	4.0
137.0237	14.2
137.0601	11.1
138.0273	1.2
139.0392	1.5
143.0347	1.9
145.0615	0.9
146.0453	1.5
149.0601	1.2
151.0399	1.1
155.0344	0.9
155.0818	1.4
161.0602	1.0
163.0392	1.1
165.0550	1.3
167.0340	1.1
173.0450	1.1
179.0344	1.9
181.0167	1.0
181.0500	56.2
182.0539	5.6
185.0214	1.1
191.0557	2.1
209.0452	2.0
257.0665	13.0
258.0705	1.7
269.0652	2.2
319.0821	2.8
409.2117	1.6
449.1195	2.8
449.1861	1.1
450.1408	3.5
451.1247	100.0
452.1261	25.6
453.1300	5.7

Name: Collagen proline hydroxylase inhibitor
PrecursorMZ: 353.12533
RT: 0.6876
ExactMass: 354.13280507
Spectrum_type: 2
charge: -1
Formula: C18H18N4O4
SMILES: CCCN(CC)C(=O)C1=CN=C2C(=C1)C=CC3=C2NC=C(C3=O)[N+](=O)[O-]
Method: HCD
Collision_energy: [28.333334]
Isolation_window: 4.0
Ion_mode: N
Num Peaks: 52
59.0130	8.4
71.0129	3.6
72.9922	3.6
79.9564	13.5
80.9643	8.9
87.0078	5.0
88.0395	4.7
96.9591	25.7
97.0283	3.7
99.0442	3.7
111.0442	7.5
114.0552	5.5
115.0391	3.5
116.0710	4.1
125.0601	4.2
128.0345	8.4
130.0865	12.2
161.0963	3.4
166.0865	8.3
191.0735	8.2
210.0764	3.4
259.1451	3.4
273.1712	3.5
291.1250	6.1
291.1630	8.2
292.0595	4.4
293.1762	3.8
307.1563	5.9
309.1419	4.7
309.1724	4.6
309.2071	15.1
311.1533	3.4
311.2200	6.3
335.1505	4.8
351.1096	7.8
351.1472	41.6
351.1809	5.0
352.1107	11.4
352.1487	25.4
352.1859	4.1
353.0878	9.2
353.1272	100.0
353.1621	24.2
353.1981	25.3
354.1262	19.5
354.1634	9.4
354.2013	6.5
355.0476	6.8
355.1030	3.8
355.1443	17.5
355.1770	13.0
355.2143	12.2

Name: Corchorifatty acid F
PrecursorMZ: 327.21775
RT: 4.6568
ExactMass: 328.22497412
Spectrum_type: 2
charge: -1
Formula: C18H32O5
SMILES: CC/C=C\CC(C(/C=C/C(CCCCCCCC(=O)O)O)O)O
Method: HCD
Collision_energy: [28.333334]
Isolation_window: 4.0
Ion_mode: N
Num Peaks: 77
57.0338	1.5
59.0129	2.6
71.0131	1.2
79.9565	2.8
80.9642	1.5
83.0493	1.1
84.0207	1.1
85.0286	10.4
87.0443	1.5
93.0335	1.2
96.9592	4.5
97.0649	1.7
99.0806	2.2
109.0650	1.1
125.0965	1.2
127.1122	2.1
135.0443	1.1
137.0968	1.4
139.1122	3.9
153.0552	1.3
157.0862	1.1
157.1227	1.0
171.1021	13.0
173.1177	8.8
181.0504	3.0
183.1035	1.3
183.1385	17.0
184.1424	1.7
185.1177	1.4
195.1381	1.2
197.1176	1.8
199.1333	1.0
201.1128	2.9
209.1183	1.6
211.1336	10.9
223.1701	2.3
226.0870	3.7
229.1445	7.3
233.1547	1.3
237.0912	1.0
239.1076	11.5
239.1636	1.7
240.1110	1.9
241.1805	1.1
249.1495	1.0
251.1652	7.6
265.1810	1.2
269.1760	4.1
283.0977	4.9
284.0992	1.1
289.1809	3.8
290.1842	2.4
291.1967	2.4
293.2130	1.0
307.1909	1.0
307.2279	1.1
309.2065	5.5
310.2105	1.0
311.2222	1.9
325.1857	7.7
325.2393	2.6
325.6220	2.6
326.1104	1.8
326.1337	1.1
326.1901	6.5
326.2425	1.0
327.0880	9.8
327.1272	6.2
327.1842	4.7
327.2177	100.0
327.2615	2.1
328.0882	2.6
328.1273	1.8
328.2208	19.5
329.1035	3.8
329.1448	2.1
329.2333	66.5

Name: Cortisone
PrecursorMZ: 359.18645
RT: 0.7618
ExactMass: 360.19367399
Spectrum_type: 2
charge: -1
Formula: C21H28O5
SMILES: C[C@]12CCC(=O)C=C1CC[C@@H]3[C@@H]2C(=O)C[C@]4([C@H]3CC[C@@]4(C(=O)CO)O)C
Method: HCD
Collision_energy: [28.333334]
Isolation_window: 4.0
Ion_mode: N
Num Peaks: 12
135.0443	11.7
271.2079	7.2
315.1246	11.4
315.1969	62.2
316.2002	13.3
317.2481	7.6
359.1130	7.5
359.1511	7.8
359.1869	100.0
360.1902	22.1
361.1649	9.9
361.2361	8.5

Name: Corymbosin
PrecursorMZ: 357.09398
RT: 8.7992
ExactMass: 358.10525291
Spectrum_type: 2
charge: -1
Formula: C19H18O7
SMILES: COC1=CC(=C2C(=C1)OC(=CC2=O)C3=CC(=C(C(=C3)OC)OC)OC)O
Method: HCD
Collision_energy: [28.333334]
Isolation_window: 4.0
Ion_mode: N
Num Peaks: 70
59.0128	3.0
71.0129	3.8
74.0238	3.7
78.9582	4.5
87.0078	4.5
88.0396	4.3
89.0235	48.4
96.9686	4.4
108.0446	3.0
109.0288	9.2
114.0551	8.0
122.0600	4.4
124.0397	3.5
127.0506	3.9
128.0345	9.3
130.0866	6.0
131.0819	6.6
135.0445	14.0
138.0553	12.4
145.0974	18.2
146.0451	4.6
149.0603	5.9
153.0663	9.7
155.0822	3.8
161.0602	4.9
170.0219	4.8
173.1040	3.7
179.0821	48.8
180.0860	4.5
181.0500	6.5
181.0977	3.2
197.0562	9.8
209.0930	3.4
216.0425	9.8
223.0729	3.5
226.0831	4.1
239.0702	4.1
241.0837	6.6
255.0662	20.3
255.1351	8.8
256.1379	3.1
269.0829	8.0
271.0978	26.9
271.2148	3.3
285.0728	7.9
299.0558	11.0
313.0718	4.1
313.1073	4.3
313.1496	3.0
315.0883	17.7
315.2036	4.7
355.1605	4.6
355.1983	11.9
356.0192	4.9
356.1092	5.2
356.1536	12.0
356.2555	6.1
357.0949	100.0
357.1388	14.0
357.1753	7.0
357.1855	4.2
357.2246	7.2
357.2817	5.0
358.0946	24.0
358.0999	13.4
358.1647	5.0
359.0764	27.6
359.1146	5.8
359.1519	3.0
359.2313	3.6

Name: Corynanthine
PrecursorMZ: 399.19277
RT: 1.9413
ExactMass: 354.1943427
Spectrum_type: 2
charge: -1
Formula: C21H26N2O3
SMILES: COC(=O)[C@@H]1[C@H](CC[C@@H]2[C@@H]1C[C@H]3C4=C(CCN3C2)C5=CC=CC=C5N4)O
Method: HCD
Collision_energy: [28.333334]
Isolation_window: 4.0
Ion_mode: N
Num Peaks: 10
61.9875	12.4
129.1025	31.9
225.0919	35.1
226.0954	4.9
249.1608	19.5
267.1019	4.0
355.2030	100.0
356.2061	24.5
399.1930	36.8
400.1962	9.2

Name: Cphpc
PrecursorMZ: 339.15601
RT: 5.7198
ExactMass: 340.16343649
Spectrum_type: 2
charge: -1
Formula: C16H24N2O6
SMILES: C1C[C@@H](N(C1)C(=O)CCCCC(=O)N2CCC[C@@H]2C(=O)O)C(=O)O
Method: HCD
Collision_energy: [28.333334]
Isolation_window: 4.0
Ion_mode: N
Num Peaks: 41
59.0130	10.0
86.0602	20.2
87.0078	6.5
112.0397	7.9
114.0553	11.2
116.0709	6.1
122.0603	11.7
124.0397	8.0
124.0759	8.8
128.0348	6.1
134.0604	8.0
136.0761	82.4
137.0601	63.5
138.0553	10.9
138.0918	6.7
142.0868	29.0
148.0761	66.7
184.0608	9.1
190.0869	74.2
196.0607	7.0
209.0930	32.7
259.1453	15.1
277.1558	100.0
278.1396	17.5
278.1614	9.0
295.1657	13.2
320.1611	6.2
321.1442	14.8
322.1258	6.9
337.1387	8.0
337.2005	6.4
338.1288	6.9
338.1334	10.4
339.0723	6.2
339.1145	7.2
339.1563	28.5
339.1993	37.3
340.1064	7.0
340.1440	6.9
340.1480	12.8
341.1977	18.6

Name: Cryptochlorogenic acid
PrecursorMZ: 353.08903
RT: 3.4485
ExactMass: 354.09508215
Spectrum_type: 2
charge: -1
Formula: C16H18O9
SMILES: C1[C@H](C([C@@H](CC1(C(=O)O)O)O)OC(=O)/C=C/C2=CC(=C(C=C2)O)O)O
Method: HCD
Collision_energy: [28.333334]
Isolation_window: 4.0
Ion_mode: N
Num Peaks: 28
59.0127	2.3
71.0128	2.2
85.0091	2.1
85.0283	2.4
87.0078	2.1
89.0234	2.2
101.0233	2.3
110.0236	1.9
111.0077	1.6
113.0232	4.1
129.0182	7.1
133.0132	2.6
145.0304	2.5
165.0395	9.9
173.0444	1.9
181.0495	6.1
191.0356	6.3
191.0546	2.8
232.0508	1.6
233.0465	5.9
263.0572	4.0
292.0715	1.8
293.0674	6.4
351.0715	2.7
352.0932	26.0
353.0887	100.0
354.0915	13.1
355.0952	5.4

Name: Culpin
PrecursorMZ: 241.12303
RT: 2.849
ExactMass: 242.130679813
Spectrum_type: 2
charge: -1
Formula: C16H18O2
SMILES: CC(=CCC1=CC(=C(C=C1O)C#CC(=C)C)O)C
Method: HCD
Collision_energy: [28.333334]
Isolation_window: 4.0
Ion_mode: N
Num Peaks: 87
59.0129	0.3
60.2807	0.2
68.9971	0.2
72.9921	0.2
81.0335	0.2
83.0492	1.3
85.0286	0.1
87.0078	0.5
88.0394	0.2
89.0233	0.4
92.0257	0.1
93.0336	0.7
95.0129	0.4
95.0492	0.2
99.0441	0.9
106.0407	0.4
106.9798	1.0
107.0495	0.4
108.0207	0.7
109.0291	0.3
109.0647	0.1
114.0551	3.3
115.0584	0.1
119.0493	0.6
121.0285	7.5
121.0648	0.6
122.0313	0.4
123.0078	0.3
123.0442	0.4
125.0235	0.3
125.0600	0.1
127.0390	0.3
128.0344	0.1
130.0415	0.1
133.0648	0.1
134.0732	0.2
135.0442	0.6
135.0806	0.4
136.0160	0.3
137.0235	0.5
137.0597	0.5
139.0392	0.8
145.0651	0.6
147.0443	1.9
147.0807	0.2
148.0481	0.2
149.0599	4.1
150.0634	0.4
151.0394	0.2
151.0756	0.1
153.0547	0.3
153.0910	0.4
155.0702	0.1
165.0549	0.3
173.0962	0.3
179.0705	0.4
180.1020	0.2
181.0497	0.5
181.0859	0.1
196.0597	0.2
197.0814	0.8
198.1137	0.2
199.0597	0.3
199.1126	0.5
211.0778	0.1
223.0603	0.2
223.1121	0.3
224.0558	0.2
225.0923	0.1
226.0989	0.2
239.1076	1.8
240.1106	0.6
240.9988	0.3
241.0712	2.0
241.0859	1.2
241.1231	100.0
241.1640	0.4
241.1744	0.8
241.1886	0.2
241.2349	0.2
242.0715	0.6
242.1030	2.7
242.1258	16.1
243.0486	1.8
243.1062	0.1
243.1282	0.9
255.1022	0.4

Name: Curvulin
PrecursorMZ: 237.07648
RT: 3.7176
ExactMass: 238.08412354
Spectrum_type: 2
charge: -1
Formula: C12H14O5
SMILES: CCOC(=O)CC1=C(C(=CC(=C1)O)O)C(=O)C
Method: HCD
Collision_energy: [28.333334]
Isolation_window: 4.0
Ion_mode: N
Num Peaks: 193
57.0337	2.5
59.0130	1.8
67.0180	0.8
69.0336	1.1
69.0703	1.4
69.1894	1.0
69.1940	1.0
69.5047	0.9
70.9952	1.1
71.0130	2.0
72.9745	2.0
72.9922	2.6
73.0286	1.0
75.0079	0.9
79.9564	8.0
80.9643	9.8
81.0337	2.5
81.9522	0.7
83.0129	0.9
83.0494	0.7
85.0286	1.4
86.9902	1.1
87.0079	28.8
88.0114	0.8
89.0235	2.6
91.0179	1.1
91.0391	0.8
93.0336	2.3
94.0289	4.3
94.9799	1.6
95.0493	1.6
95.9513	0.9
96.9592	8.0
97.0286	2.6
97.4654	1.0
99.0078	0.7
99.0443	0.8
101.0236	0.8
106.9800	1.3
107.0493	1.3
108.0208	0.7
108.0447	2.2
109.0287	3.0
109.0649	1.1
111.0443	1.5
112.0395	0.8
113.0236	4.8
114.9851	4.5
119.0494	1.0
120.0445	0.8
121.0286	1.3
121.0651	3.6
122.0363	0.7
122.0605	2.4
123.0080	0.8
123.0444	3.3
123.0807	4.9
124.0397	1.0
125.0235	1.8
125.0347	0.9
125.0600	0.9
126.0186	1.1
127.0393	1.0
131.0494	0.7
132.9957	0.9
133.0652	1.5
134.0241	1.6
134.0604	0.8
135.0445	1.7
135.0808	0.8
136.0396	1.0
136.0520	0.7
136.0760	0.8
137.0239	1.4
137.0479	0.9
137.0600	6.1
138.0553	2.2
139.0393	1.1
139.0758	1.2
142.9803	0.7
145.0287	1.5
147.0446	0.9
147.0807	1.3
148.0161	1.1
148.0522	5.2
148.0760	1.0
149.0601	100.0
149.0957	2.2
150.0315	14.3
150.0553	1.0
150.0642	7.9
151.0395	1.7
151.0759	3.9
151.1121	2.1
153.0550	1.3
153.1027	0.7
160.0397	4.4
160.9906	1.1
161.0239	0.7
161.0601	2.0
162.0190	28.4
162.0553	0.8
163.0224	2.4
163.0393	1.7
163.0758	3.0
164.0703	2.0
164.1075	1.5
165.0551	13.6
165.0913	1.9
166.0327	0.8
166.0487	1.0
167.0345	3.1
167.0708	1.4
172.0397	1.5
173.0238	9.8
173.0589	0.9
174.0271	1.0
175.0398	1.0
175.0758	7.4
176.0712	0.8
176.0805	0.6
176.1076	1.0
177.0551	7.4
177.0911	1.7
178.0500	1.0
178.0611	1.5
179.0347	1.2
179.0707	1.0
180.0422	6.8
183.0660	1.6
189.0552	1.3
191.0346	0.8
191.0709	12.6
191.0895	1.8
191.1065	4.6
192.0671	2.6
192.0738	4.4
192.0763	2.3
192.1000	0.9
192.1025	0.7
193.0501	10.1
193.0864	10.6
193.1220	1.9
194.0229	0.9
194.0433	0.9
194.0466	1.3
194.0524	0.7
194.0801	2.8
194.0826	2.3
194.1172	2.6
195.0293	0.9
195.0658	3.9
195.1017	1.8
195.1141	0.9
195.1382	2.5
197.0815	1.1
204.9789	1.0
206.0121	1.1
207.0297	2.4
207.0658	4.9
208.0968	1.2
209.0451	24.8
209.0809	1.0
219.0662	2.3
221.0456	0.8
221.0482	1.3
221.0818	0.8
224.0322	1.7
235.0619	6.4
235.0996	4.3
235.1345	1.1
236.0026	4.0
236.0237	2.6
236.0589	4.3
236.0938	2.4
236.1086	2.1
236.9862	10.2
237.0073	2.2
237.0418	15.3
237.0768	53.2
237.1117	6.2
237.1148	5.6
237.1493	0.8
237.9886	1.1
238.0362	8.5
238.0393	2.4
238.0741	18.3
238.0774	8.2
238.1098	2.2
239.0230	5.3
239.0563	33.3
239.0915	11.7
239.1283	3.4

Name: Cyclo(his-pro)
PrecursorMZ: 233.10382
RT: 4.8428
ExactMass: 234.1116757
Spectrum_type: 2
charge: -1
Formula: C11H14N4O2
SMILES: C1C[C@H]2C(=O)N[C@H](C(=O)N2C1)CC3=CN=CN3
Method: HCD
Collision_energy: [28.333334]
Isolation_window: 4.0
Ion_mode: N
Num Peaks: 11
67.0292	18.9
151.0505	7.2
153.0660	68.8
165.0661	13.2
167.0452	8.4
188.0708	24.8
190.0982	7.9
233.1040	100.0
233.1531	9.9
234.1076	12.7
235.1202	21.5

Name: Cyclopentaneacetic acid, 3-oxo-2-pentyl-
PrecursorMZ: 211.13352
RT: 5.3716
ExactMass: 212.1412445
Spectrum_type: 2
charge: -1
Formula: C12H20O3
SMILES: CCCCCC1C(CCC1=O)CC(=O)O
Method: HCD
Collision_energy: [28.333334]
Isolation_window: 4.0
Ion_mode: N
Num Peaks: 40
57.0336	1.4
59.0130	2.8
71.0494	9.3
79.9565	3.4
80.9645	1.8
83.0493	1.8
85.0286	3.0
96.9591	1.8
110.0237	2.5
111.0554	2.3
112.0396	2.2
123.0809	3.5
124.0838	1.7
125.0964	1.6
139.1121	1.9
147.0805	1.7
149.0603	1.4
150.0556	1.7
151.0393	2.4
165.0915	3.0
165.1280	3.1
166.0955	2.4
167.1435	100.0
168.1470	11.4
191.0708	4.3
192.0745	4.3
209.0813	8.4
210.0852	9.0
210.1272	3.2
211.0277	3.4
211.0610	1.4
211.1335	44.6
211.1693	2.7
212.0548	1.9
212.0917	1.4
212.1377	6.1
213.1128	1.4
213.1492	4.3
229.1443	55.6
230.1476	7.0

Name: Cynarine
PrecursorMZ: 515.11924
RT: 2.7844
ExactMass: 516.1267762
Spectrum_type: 2
charge: -1
Formula: C25H24O12
SMILES: C1[C@H]([C@@H]([C@@H](C[C@]1(C(=O)O)OC(=O)/C=C/C2=CC(=C(C=C2)O)O)OC(=O)/C=C/C3=CC(=C(C=C3)O)O)O)O
Method: HCD
Collision_energy: [28.333334]
Isolation_window: 4.0
Ion_mode: N
Num Peaks: 49
57.2340	2.2
57.2372	3.5
59.0129	4.0
71.0130	2.1
109.0284	15.0
128.0346	2.1
135.0442	13.3
145.0285	2.5
149.0602	2.3
155.0342	2.6
161.0238	5.9
161.0599	21.8
162.0633	2.0
173.0447	32.4
179.0342	6.0
187.0393	12.6
189.0183	2.3
191.0552	6.0
205.0499	5.7
229.0500	3.4
231.0294	13.9
240.0424	3.9
255.0659	100.0
256.0692	14.7
269.0821	2.4
271.0979	7.4
281.0454	6.3
297.0761	14.8
298.0799	2.6
299.0569	4.2
315.0870	8.8
335.0771	15.1
341.0663	30.5
342.0692	4.5
359.0770	30.1
360.0795	5.1
361.0922	5.1
471.1270	3.3
497.2695	2.4
513.3020	12.4
514.1769	2.4
514.2723	2.6
514.3096	3.1
515.1187	88.9
515.2859	20.6
516.1190	21.2
516.2820	5.1
517.1191	3.8
517.2964	3.4

Name: Cytarabine
PrecursorMZ: 242.07826
RT: 2.5773
ExactMass: 243.08552052
Spectrum_type: 2
charge: -1
Formula: C9H13N3O5
SMILES: C1=CN(C(=O)N=C1N)[C@H]2[C@H]([C@@H]([C@H](O2)CO)O)O
Method: HCD
Collision_energy: [28.333334]
Isolation_window: 4.0
Ion_mode: N
Num Peaks: 50
59.0130	2.4
61.9875	23.8
66.0089	2.7
67.0292	3.2
71.0129	2.2
73.0286	3.7
81.0449	6.8
83.0605	1.7
91.0292	3.8
95.0241	2.0
96.0447	2.0
99.0079	2.8
108.0068	2.0
109.0399	100.0
110.0242	2.2
110.0352	11.3
110.0433	4.2
111.0191	2.3
112.0395	1.8
113.0348	2.3
116.0709	2.6
127.0505	6.1
140.0345	4.7
145.0974	2.3
152.0458	10.3
153.0299	51.1
153.0913	2.3
154.0341	2.7
169.0861	3.8
171.0771	5.1
181.1227	4.3
183.0407	7.0
196.0961	2.1
197.9897	3.4
199.1334	8.7
207.1024	4.1
223.1110	2.0
224.1040	4.2
225.1128	17.9
226.1175	1.8
241.0733	4.1
241.1178	2.7
241.2173	2.1
242.0790	26.2
242.1172	6.3
243.0631	12.4
243.0848	3.7
243.1221	40.9
244.0825	2.2
244.1281	6.6

Name: Cytidine 2',3'-cyclic monophosphate
PrecursorMZ: 304.03399
RT: 6.946
ExactMass: 305.04128673
Spectrum_type: 2
charge: -1
Formula: C9H12N3O7P
SMILES: C1=CN(C(=O)N=C1N)[C@H]2[C@@H]3C([C@H](O2)CO)OP(=O)(O3)O
Method: HCD
Collision_energy: [28.333334]
Isolation_window: 4.0
Ion_mode: N
Num Peaks: 5
110.0351	100.0
111.0384	4.0
116.9278	2.4
304.0336	7.7
305.0904	5.4

Name: Cytidine 2',3'-cyclic phosphate
PrecursorMZ: 304.03347
RT: 6.9239
ExactMass: 305.04128673
Spectrum_type: 2
charge: -1
Formula: C9H12N3O7P
SMILES: C1=CN(C(=O)N=C1N)C2[C@H]3[C@@H]([C@H](O2)CO)OP(=O)(O3)O
Method: HCD
Collision_energy: [28.333334]
Isolation_window: 4.0
Ion_mode: N
Num Peaks: 10
59.0130	2.7
85.0285	4.9
87.0078	2.7
110.0349	100.0
111.0077	3.4
111.0383	4.6
113.0233	3.6
303.0700	4.2
304.0335	9.5
305.0882	16.8

Name: Czc-24832
PrecursorMZ: 363.10447
RT: 2.3442
ExactMass: 364.11177314
Spectrum_type: 2
charge: -1
Formula: C15H17FN6O2S
SMILES: CC(C)(C)NS(=O)(=O)C1=CN=CC(=C1)C2=CN3C(=NC(=N3)N)C(=C2)F
Method: HCD
Collision_energy: [28.333334]
Isolation_window: 4.0
Ion_mode: N
Num Peaks: 6
61.9874	100.0
228.0860	4.1
240.0876	9.7
300.1086	52.2
301.1114	7.7
363.1014	4.9

Name: D-Alanine
PrecursorMZ: 88.03927
RT: 3.4944
ExactMass: 89.047678466
Spectrum_type: 2
charge: -1
Formula: C3H7NO2
SMILES: C[C@H](C(=O)O)N
Method: HCD
Collision_energy: [28.333334]
Isolation_window: 4.0
Ion_mode: N
Num Peaks: 8
59.0128	3.6
71.0127	2.9
85.9985	12.4
87.0076	2.6
88.0393	100.0
89.0134	4.7
89.0232	2.4
89.0425	3.5

Name: D-Glucose, 2-(acetylamino)-2-deoxy-
PrecursorMZ: 220.08234
RT: 2.7482
ExactMass: 221.0899372
Spectrum_type: 2
charge: -1
Formula: C8H15NO6
SMILES: CC(=O)N[C@@H](C=O)[C@H]([C@@H]([C@@H](CO)O)O)O
Method: HCD
Collision_energy: [28.333334]
Isolation_window: 4.0
Ion_mode: N
Num Peaks: 39
58.0051	2.9
59.0130	100.0
71.0129	26.6
72.9922	5.7
73.0286	6.3
83.0129	5.6
84.0445	2.9
85.0285	10.9
87.0078	15.8
87.0441	3.9
89.0235	42.3
97.0035	3.0
97.0286	3.0
100.0395	48.7
101.0235	59.0
113.0236	10.8
114.0552	6.3
118.0499	2.9
119.0341	45.0
121.0764	2.7
126.0554	3.5
130.0500	2.6
130.9302	5.5
131.0343	8.9
142.0502	4.1
143.0346	3.4
149.0448	2.7
156.0658	4.2
159.0292	8.1
160.0610	3.4
161.0448	8.9
178.0716	5.5
201.0402	4.7
219.0511	15.8
219.0849	2.9
220.0263	2.5
221.0120	3.2
221.0663	44.8
222.0980	25.7

Name: D-Glucose, 4-O-alpha-D-glucopyranosyl-
PrecursorMZ: 377.08538
RT: 9.2036
ExactMass: 342.11621151
Spectrum_type: 2
charge: -1
Formula: C12H22O11
SMILES: C(C1C(C(C(C(O1)OC(C(CO)O)C(C(C=O)O)O)O)O)O)O
Method: HCD
Collision_energy: [28.333334]
Isolation_window: 4.0
Ion_mode: N
Num Peaks: 4
161.0446	73.1
375.2903	100.0
376.2937	44.4
377.0856	95.7

Name: D-Lyxose
PrecursorMZ: 149.04477
RT: 7.6988
ExactMass: 150.05282342
Spectrum_type: 2
charge: -1
Formula: C5H10O5
SMILES: C1[C@H]([C@@H]([C@@H](C(O1)O)O)O)O
Method: HCD
Collision_energy: [28.333334]
Isolation_window: 4.0
Ion_mode: N
Num Peaks: 34
57.0337	10.0
58.0052	1.9
59.0130	100.0
60.0164	3.5
69.0336	2.3
69.3410	2.0
71.0130	17.1
72.9922	3.3
73.0286	14.5
75.0079	4.1
79.9564	4.3
83.0129	13.2
85.0286	4.6
87.0442	5.1
89.0235	9.4
94.0290	2.8
97.4635	1.5
101.0235	46.2
101.0601	2.4
102.0269	2.7
103.0395	1.7
107.0493	11.0
110.0351	1.8
113.0237	3.5
121.0289	1.5
123.0447	2.7
131.0343	4.9
134.0368	2.6
147.0657	1.8
149.0452	14.7
149.0603	26.0
150.0541	4.1
150.0643	2.0
151.0396	8.0

Name: D-Malic acid
PrecursorMZ: 133.01344
RT: 4.352
ExactMass: 134.02152329
Spectrum_type: 2
charge: -1
Formula: C4H6O5
SMILES: C([C@H](C(=O)O)O)C(=O)O
Method: HCD
Collision_energy: [28.333334]
Isolation_window: 4.0
Ion_mode: N
Num Peaks: 8
71.0130	31.0
72.9923	7.3
87.0442	25.9
89.0236	5.8
115.0028	100.0
116.0062	4.5
131.0344	11.1
133.0134	46.5

Name: D-Mannosamine
PrecursorMZ: 178.07151
RT: 5.4343
ExactMass: 179.07937252
Spectrum_type: 2
charge: -1
Formula: C6H13NO5
SMILES: C([C@@H]1[C@H]([C@@H]([C@@H](C(O1)O)N)O)O)O
Method: HCD
Collision_energy: [28.333334]
Isolation_window: 4.0
Ion_mode: N
Num Peaks: 40
59.0130	56.4
65.0136	4.8
71.0129	41.6
80.0497	5.2
84.9898	6.8
85.0288	8.2
87.0080	9.9
88.0394	10.3
89.0234	48.3
90.9226	34.2
98.0602	4.9
101.0235	9.0
108.9332	100.0
112.0395	26.1
113.0236	9.9
119.0342	5.0
126.0091	6.3
130.0501	35.5
133.0650	4.9
133.9291	4.9
134.9126	21.2
135.0445	5.1
136.0873	5.9
150.0093	5.6
153.0201	8.3
160.0608	86.7
161.0450	7.9
161.0643	6.5
176.8424	11.6
177.0202	40.4
177.0416	8.0
177.0765	9.0
177.0917	5.7
178.0245	4.9
178.0718	68.1
178.8416	17.9
178.9025	23.3
179.0338	17.3
179.0566	28.7
180.0656	4.9

Name: D-Mannose
PrecursorMZ: 179.0551
RT: 2.0691
ExactMass: 180.0633881
Spectrum_type: 2
charge: -1
Formula: C6H12O6
SMILES: C([C@@H]1[C@H]([C@@H]([C@@H](C(O1)O)O)O)O)O
Method: HCD
Collision_energy: [28.333334]
Isolation_window: 4.0
Ion_mode: N
Num Peaks: 49
59.0128	69.7
61.9873	4.7
71.0127	9.9
72.9920	10.0
73.0284	12.1
75.0077	16.8
83.0240	4.0
85.0284	8.0
87.0077	17.3
89.0233	30.7
90.9223	12.2
91.0290	14.6
93.0004	8.3
94.0287	3.9
101.0233	3.9
102.0087	5.0
108.9329	39.4
115.0389	3.7
117.0183	14.7
126.0086	9.2
131.0335	5.5
133.0496	4.2
134.9123	7.3
135.0286	10.1
135.0440	14.1
136.0392	4.3
136.0760	4.4
137.0226	3.7
137.0598	4.0
138.0298	24.3
153.0197	7.4
161.0444	23.6
165.9933	6.6
176.0342	10.8
177.0197	25.5
177.0395	25.4
178.0260	5.2
178.0499	4.2
178.8413	15.8
178.9022	13.1
179.0228	14.5
179.0361	8.3
179.0553	94.9
179.0686	7.7
180.0282	9.7
180.8396	6.1
181.0169	23.3
181.0358	100.0
181.0488	7.4

Name: D-Ornithine
PrecursorMZ: 131.08161
RT: 4.9655
ExactMass: 132.08987763
Spectrum_type: 2
charge: -1
Formula: C5H12N2O2
SMILES: C(C[C@H](C(=O)O)N)CN
Method: HCD
Collision_energy: [28.333334]
Isolation_window: 4.0
Ion_mode: N
Num Peaks: 5
130.0400	1.4
130.0864	21.2
131.0816	100.0
132.0653	1.6
132.0852	5.0

Name: D-Psicose
PrecursorMZ: 179.05552
RT: 3.6849
ExactMass: 180.0633881
Spectrum_type: 2
charge: -1
Formula: C6H12O6
SMILES: C1[C@H]([C@H]([C@H](C(O1)(CO)O)O)O)O
Method: HCD
Collision_energy: [28.333334]
Isolation_window: 4.0
Ion_mode: N
Num Peaks: 18
58.0051	4.2
59.0130	82.1
71.0130	58.1
72.9922	4.6
75.0079	31.0
85.0286	8.1
87.0079	16.4
89.0235	100.0
90.0267	3.6
95.0130	3.0
101.0235	21.2
113.0235	16.5
115.0393	5.3
119.0341	13.7
136.0396	3.6
159.0292	4.8
177.0398	27.8
178.0436	3.2

Name: D-Ribose
PrecursorMZ: 149.04485
RT: 2.5389
ExactMass: 150.05282342
Spectrum_type: 2
charge: -1
Formula: C5H10O5
SMILES: C1[C@H]([C@H]([C@H](C(O1)O)O)O)O
Method: HCD
Collision_energy: [28.333334]
Isolation_window: 4.0
Ion_mode: N
Num Peaks: 20
59.0130	10.0
71.0129	2.0
72.9922	3.5
73.0286	8.2
75.0079	54.0
86.0000	3.5
87.0079	3.3
88.0156	3.2
89.0235	3.3
103.0392	8.5
119.0342	2.5
131.0342	17.7
136.0160	2.6
149.0449	100.0
149.0580	3.2
149.9787	2.3
150.0474	5.5
151.0255	5.5
151.0393	5.8
151.0509	2.0

Name: D-Tagatose
PrecursorMZ: 161.04488
RT: 3.6904
ExactMass: 180.0633881
Spectrum_type: 2
charge: -1
Formula: C6H12O6
SMILES: C1[C@H]([C@@H]([C@@H](C(O1)(CO)O)O)O)O
Method: HCD
Collision_energy: [28.333334]
Isolation_window: 4.0
Ion_mode: N
Num Peaks: 24
57.0337	3.0
59.0130	23.8
71.0130	100.0
72.0162	3.3
72.9922	3.7
73.0286	12.5
74.0238	8.7
83.0128	5.4
85.0286	59.1
87.0079	3.0
88.0396	8.7
89.0235	12.0
95.0130	25.1
97.0287	4.9
101.0235	10.6
113.0236	67.1
114.0269	3.4
116.0708	13.8
131.0342	17.6
142.0504	10.3
159.0657	10.9
160.0409	3.2
160.0606	15.5
161.0451	14.8

Name: D-Tryptophan
PrecursorMZ: 203.08195
RT: 7.5846
ExactMass: 204.08987763
Spectrum_type: 2
charge: -1
Formula: C11H12N2O2
SMILES: C1=CC=C2C(=C1)C(=CN2)C[C@H](C(=O)O)N
Method: HCD
Collision_energy: [28.333334]
Isolation_window: 4.0
Ion_mode: N
Num Peaks: 13
72.0082	32.0
74.0238	31.7
116.0497	88.6
117.0529	7.5
141.0915	6.4
142.0655	26.5
159.0920	25.1
186.0556	5.5
201.1132	4.0
203.0794	19.8
203.0818	100.0
204.0855	12.0
205.1590	3.4

Name: D-Xylose
PrecursorMZ: 149.04607
RT: 7.7382
ExactMass: 150.05282342
Spectrum_type: 2
charge: -1
Formula: C5H10O5
SMILES: C1[C@H]([C@@H]([C@H](C(O1)O)O)O)O
Method: HCD
Collision_energy: [28.333334]
Isolation_window: 4.0
Ion_mode: N
Num Peaks: 33
57.0337	9.0
59.0130	100.0
60.0164	3.1
69.5682	2.7
71.0130	17.0
72.9922	4.5
73.0286	12.8
75.0078	7.6
79.9564	7.4
80.9643	8.3
83.0130	12.4
85.0286	6.1
87.0443	4.6
89.0235	12.9
94.0290	2.3
101.0235	42.9
101.0599	9.0
102.0271	2.6
107.0493	4.8
108.0196	8.4
113.0237	4.0
123.0446	2.3
124.0066	6.5
131.0340	7.1
134.0362	3.3
137.0352	2.3
147.0656	5.3
149.0453	22.4
149.0604	18.3
150.0555	3.0
151.0258	24.9
151.0395	5.9
151.0608	2.8

Name: D-gluconate
PrecursorMZ: 177.0396
RT: 4.6488
ExactMass: 195.05047769
Spectrum_type: 2
charge: -1
Formula: C6H11O7-
SMILES: C([C@H]([C@H]([C@@H]([C@H](C(=O)[O-])O)O)O)O)O
Method: HCD
Collision_energy: [28.333334]
Isolation_window: 4.0
Ion_mode: N
Num Peaks: 124
58.0288	0.7
59.0066	0.7
59.0129	100.0
59.0153	1.5
59.0177	0.7
60.0163	2.0
63.9616	0.6
65.0136	1.9
65.9977	0.9
66.0087	0.7
67.0294	0.6
69.4148	0.6
71.0129	3.0
72.9921	2.5
73.0285	3.2
75.0078	2.1
79.9564	4.3
80.0496	0.9
80.9642	3.6
81.0448	1.1
82.0401	2.5
83.0245	0.6
85.0285	1.3
87.0078	3.0
87.0442	0.8
88.0394	2.4
89.0234	7.5
90.0339	0.7
91.0294	0.9
92.0245	0.7
93.0343	0.6
94.0288	1.3
95.0240	0.8
95.9512	1.8
96.9591	3.1
101.0235	1.7
103.0027	1.0
105.0458	0.6
106.0401	2.3
107.0242	0.7
107.0492	1.0
108.0207	1.1
108.0447	1.1
108.0557	1.0
109.0408	0.6
115.0390	0.8
116.0167	2.1
117.0106	0.8
117.0183	17.4
118.0223	0.7
118.0401	1.6
119.0504	0.7
120.0208	0.6
120.0572	0.7
121.0529	0.6
122.0366	0.9
122.9749	0.7
124.0521	0.6
130.0513	2.1
131.0494	0.7
132.0455	0.8
133.0295	0.9
133.0404	1.4
133.0527	1.9
133.0650	1.3
134.0242	5.4
134.0360	4.1
134.0604	7.5
134.0727	1.4
135.0288	1.2
135.0311	1.4
135.0448	3.5
135.0570	1.5
135.0680	0.8
135.0807	1.6
136.0526	1.0
137.0608	0.8
147.0441	1.1
148.0530	1.5
149.0608	1.4
150.0570	1.1
150.0688	1.3
151.0528	0.8
175.0240	0.9
175.0274	0.7
175.0391	1.8
175.0413	0.8
175.0606	3.8
175.0641	4.0
175.0816	0.6
175.0968	1.6
175.1006	1.0
176.0144	2.4
176.0185	2.0
176.0344	34.2
176.0379	7.6
176.0567	1.4
176.0591	4.5
176.0689	1.1
176.0716	1.2
176.9854	0.6
177.0187	1.5
177.0388	7.4
177.0429	4.3
177.0547	3.6
177.0576	1.8
177.0762	1.2
177.0788	2.3
178.0141	2.1
178.0503	2.1
178.0536	3.0
178.0863	1.2
178.0900	2.9
178.8431	0.6
179.0200	0.6
179.0236	1.0
179.0343	3.7
179.0384	1.8
179.0587	0.9
179.0680	1.0
179.0703	1.1
179.0732	1.5
179.0833	1.1
179.1182	5.3

Name: DL-Cysteic acid
PrecursorMZ: 167.9966
RT: 4.24
ExactMass: 169.0044935
Spectrum_type: 2
charge: -1
Formula: C3H7NO5S
SMILES: C(C(C(=O)O)N)S(=O)(=O)O
Method: HCD
Collision_energy: [28.333334]
Isolation_window: 4.0
Ion_mode: N
Num Peaks: 30
65.0136	7.9
65.9976	5.4
71.0130	14.4
80.9642	37.6
86.0239	9.9
96.9592	30.3
102.0089	3.4
123.0442	6.8
124.0394	2.7
124.9833	7.1
126.0088	3.6
140.0246	9.3
141.0199	10.9
142.0047	3.6
148.9726	4.9
150.9699	32.5
166.0153	6.6
166.0403	9.2
166.0537	6.0
166.9828	8.6
166.9955	2.5
167.0355	88.6
167.9966	100.0
168.0197	7.8
168.0309	32.6
168.9793	7.2
169.0147	12.2
169.0388	5.0
169.0527	3.0
170.0335	3.3

Name: DL-Dopa
PrecursorMZ: 196.0611
RT: 0.7353
ExactMass: 197.06880783
Spectrum_type: 2
charge: -1
Formula: C9H11NO4
SMILES: C1=CC(=C(C=C1CC(C(=O)O)N)O)O
Method: HCD
Collision_energy: [28.333334]
Isolation_window: 4.0
Ion_mode: N
Num Peaks: 86
59.0129	5.3
66.0341	6.0
72.9922	23.7
73.0285	2.3
80.9643	22.3
84.0447	4.5
87.0078	3.8
94.0289	74.0
95.0322	2.9
95.0494	3.6
96.0082	10.0
96.0445	3.5
97.0649	2.2
98.0237	4.1
101.0599	12.6
107.0494	4.0
108.0446	8.9
109.0287	5.0
109.0398	6.9
109.0651	6.6
110.0238	2.9
110.0352	2.4
110.0604	6.5
111.0443	10.0
112.0394	4.9
114.0555	3.5
121.0652	3.1
122.0603	40.2
123.0443	22.6
123.0554	4.5
123.0805	4.2
124.0396	25.4
124.0755	2.3
125.0234	2.8
125.0600	7.5
126.0551	4.5
128.0346	3.0
134.0604	6.7
135.0445	14.9
135.0808	5.6
136.0393	2.9
136.0758	2.7
137.0237	2.3
137.0600	2.7
138.0318	4.6
138.0549	2.4
149.0601	4.7
150.0548	6.9
150.0915	4.2
151.0395	78.7
151.0499	3.6
151.0756	13.5
151.0871	5.6
152.0165	2.5
152.0341	3.5
152.0450	5.7
152.0709	19.9
152.0816	2.8
152.1075	3.2
153.0552	28.5
153.0661	3.2
153.0915	23.3
154.0502	35.3
154.0865	20.3
166.0503	14.6
177.0553	2.2
179.0346	8.3
179.0705	3.5
180.0662	2.8
194.0552	7.4
194.0807	7.2
195.0297	100.0
195.0503	5.4
195.0658	27.4
195.1027	3.2
196.0143	3.1
196.0330	10.4
196.0601	24.4
196.0966	8.3
197.0122	5.9
197.0452	38.6
197.0648	3.8
197.0809	27.1
197.1164	3.8
198.0399	23.5
198.0764	37.2

Name: DL-Glutamic acid
PrecursorMZ: 146.04518
RT: 4.5273
ExactMass: 147.05315777
Spectrum_type: 2
charge: -1
Formula: C5H9NO4
SMILES: C(CC(=O)O)C(C(=O)O)N
Method: HCD
Collision_energy: [28.333334]
Isolation_window: 4.0
Ion_mode: N
Num Peaks: 6
102.0551	100.0
103.0586	5.5
128.0345	66.8
129.0380	4.2
146.0451	58.1
147.0483	4.2

Name: DL-Histidine
PrecursorMZ: 154.06142
RT: 12.1811
ExactMass: 155.069476538
Spectrum_type: 2
charge: -1
Formula: C6H9N3O2
SMILES: C1=C(NC=N1)CC(C(=O)O)N
Method: HCD
Collision_energy: [28.333334]
Isolation_window: 4.0
Ion_mode: N
Num Peaks: 15
59.0130	100.0
74.0028	4.6
93.0449	10.6
101.0136	38.7
110.0715	5.3
124.9835	16.2
126.0092	10.4
128.0246	33.7
137.0347	13.2
153.0194	3.9
154.0615	60.9
154.0864	3.4
154.9467	24.2
155.0349	5.0
172.9567	3.5

Name: DL-Methionine sulfoxide
PrecursorMZ: 164.03805
RT: 3.8977
ExactMass: 165.04596439
Spectrum_type: 2
charge: -1
Formula: C5H11NO3S
SMILES: CS(=O)CCC(C(=O)O)N
Method: HCD
Collision_energy: [28.333334]
Isolation_window: 4.0
Ion_mode: N
Num Peaks: 16
60.9744	10.4
63.9616	57.2
72.0082	17.3
76.9694	54.5
79.9564	69.7
80.9643	9.1
100.0395	92.7
118.9920	5.0
119.0495	5.1
121.0284	8.0
147.0444	7.5
149.0144	9.3
162.0765	7.6
164.0380	100.0
164.0695	5.6
165.0413	9.4

Name: DL-histidine
PrecursorMZ: 154.06142
RT: 6.4903
ExactMass: 155.069476538
Spectrum_type: 2
charge: -1
Formula: C6H9N3O2
SMILES: C1=C(NC=N1)CC(C(=O)O)N
Method: HCD
Collision_energy: [28.333334]
Isolation_window: 4.0
Ion_mode: N
Num Peaks: 8
83.0241	5.9
111.0191	45.2
112.0393	5.4
136.0506	12.7
152.0347	16.5
153.0399	9.2
154.0614	100.0
155.0653	6.2

Name: DL-panthenol
PrecursorMZ: 204.12336
RT: 2.2259
ExactMass: 205.13140809
Spectrum_type: 2
charge: -1
Formula: C9H19NO4
SMILES: CC(C)(CO)C(C(=O)NCCCO)O
Method: HCD
Collision_energy: [28.333334]
Isolation_window: 4.0
Ion_mode: N
Num Peaks: 6
71.0493	29.8
74.0602	11.5
102.0550	51.0
204.1234	100.0
205.1287	8.8
205.1590	56.6

Name: Dalbergione, 4-Methoxy-4'-Hydroxy-
PrecursorMZ: 269.08183
RT: 2.7068
ExactMass: 270.08920892
Spectrum_type: 2
charge: -1
Formula: C16H14O4
SMILES: COC1=CC(=O)C(=CC1=O)C(C=C)C2=CC=C(C=C2)O
Method: HCD
Collision_energy: [28.333334]
Isolation_window: 4.0
Ion_mode: N
Num Peaks: 31
109.0285	10.4
135.0441	0.9
137.0599	1.3
159.0443	2.4
179.1065	0.6
181.0498	5.1
182.0531	0.8
223.0754	0.7
223.0970	0.9
224.0475	2.7
225.0553	3.0
226.0596	0.8
227.0353	0.9
238.0621	0.7
239.0707	3.8
240.0745	1.4
251.0716	3.4
252.0426	9.2
252.0747	0.7
253.0481	4.4
253.0880	1.1
254.0581	29.0
255.0619	4.7
256.0739	0.8
267.0657	26.0
268.0706	11.1
269.0346	0.8
269.0818	100.0
269.1416	0.7
270.0852	15.7
271.0977	17.9

Name: Daphnetin
PrecursorMZ: 177.01846
RT: 3.062
ExactMass: 178.02660867
Spectrum_type: 2
charge: -1
Formula: C9H6O4
SMILES: C1=CC(=C(C2=C1C=CC(=O)O2)O)O
Method: HCD
Collision_energy: [28.333334]
Isolation_window: 4.0
Ion_mode: N
Num Peaks: 21
71.0240	58.2
80.9640	9.9
87.0076	16.2
87.0442	12.7
90.9226	27.9
105.0181	9.7
108.9330	94.0
121.0284	35.7
131.0341	9.9
133.0285	100.0
134.9125	20.7
135.0443	12.5
149.0235	19.7
176.8423	38.5
176.8946	15.7
177.0188	89.6
177.0395	29.2
177.9025	27.6
178.8413	35.9
178.9026	28.7
194.9050	29.1

Name: Daprodustat
PrecursorMZ: 392.18318
RT: 5.5642
ExactMass: 393.18998559
Spectrum_type: 2
charge: -1
Formula: C19H27N3O6
SMILES: C1CCC(CC1)N2C(=O)C(C(=O)N(C2=O)C3CCCCC3)C(=O)NCC(=O)O
Method: HCD
Collision_energy: [28.333334]
Isolation_window: 4.0
Ion_mode: N
Num Peaks: 30
59.0129	7.7
74.0240	12.6
96.0083	9.9
102.0552	23.5
109.0161	16.1
113.0350	8.1
114.0553	15.6
115.0868	24.5
116.0709	12.9
127.0504	7.7
128.0346	84.8
129.1027	18.3
130.0867	10.4
144.0775	11.1
146.0452	21.6
146.0602	8.0
164.0711	13.4
180.0661	11.1
244.0614	11.3
245.1295	19.2
245.1652	9.2
257.0924	9.6
263.1403	33.7
264.1423	8.2
347.1342	10.9
348.1950	10.9
374.1729	22.8
391.1562	22.7
392.1847	100.0
393.1805	54.2

Name: Deacetylgedunin
PrecursorMZ: 439.21273
RT: 0.7773
ExactMass: 440.21988874
Spectrum_type: 2
charge: -1
Formula: C26H32O6
SMILES: C[C@@]12CC[C@@H]3[C@]4(C=CC(=O)C([C@@H]4C[C@H]([C@]3([C@@]15[C@H](O5)C(=O)O[C@H]2C6=COC=C6)C)O)(C)C)C
Method: HCD
Collision_energy: [28.333334]
Isolation_window: 4.0
Ion_mode: N
Num Peaks: 20
59.0127	2.9
97.0285	4.8
111.0442	14.5
195.0654	2.7
217.1233	3.1
259.1341	4.1
283.1704	2.9
285.1134	10.6
296.0918	2.6
328.1680	6.2
329.1760	71.4
330.1795	14.4
354.1323	3.6
355.1396	2.7
437.2188	3.0
438.2284	7.9
439.2134	100.0
440.2172	27.6
441.1561	2.3
441.2230	11.2

Name: Deoxyphomalone
PrecursorMZ: 237.11296
RT: 1.3708
ExactMass: 238.12050905
Spectrum_type: 2
charge: -1
Formula: C13H18O4
SMILES: CCCC(=O)C1=C(C=C(C(=C1O)CC)O)OC
Method: HCD
Collision_energy: [28.333334]
Isolation_window: 4.0
Ion_mode: N
Num Peaks: 51
57.0337	6.5
67.0179	3.0
79.0544	11.2
79.9565	5.9
80.9643	6.4
95.0495	3.1
97.0285	3.9
107.0493	3.5
113.0236	3.7
121.0651	18.0
123.0444	6.0
123.0806	9.2
124.0395	3.0
133.0649	4.1
135.0443	4.2
135.0807	8.1
137.0473	11.1
149.0601	4.6
149.0965	12.5
150.0316	10.3
151.0757	7.1
153.0548	4.3
165.0552	7.7
167.0708	4.6
175.1121	4.5
177.0916	3.9
179.0346	5.5
179.0711	2.7
180.0426	3.8
191.1070	5.2
192.0657	7.8
192.1141	2.9
193.0501	3.4
193.0861	10.9
193.1229	44.5
194.1273	4.7
195.0659	5.3
197.0451	8.0
209.0453	15.1
223.0279	5.2
236.0022	4.7
236.0551	3.7
236.1038	11.7
237.0776	26.6
237.1130	100.0
238.0173	6.6
238.0728	3.0
238.0798	3.7
238.1165	14.0
239.0554	24.5
239.0922	7.4

Name: Deoxyribose
PrecursorMZ: 133.04951
RT: 2.5822
ExactMass: 134.0579088
Spectrum_type: 2
charge: -1
Formula: C5H10O4
SMILES: C1[C@@H]([C@H](OC1O)CO)O
Method: HCD
Collision_energy: [28.333334]
Isolation_window: 4.0
Ion_mode: N
Num Peaks: 13
59.0129	5.8
71.0129	4.5
72.9920	9.6
75.0077	95.6
87.0440	16.5
89.0233	8.1
115.0027	5.8
115.0388	5.1
117.0182	10.8
131.0898	8.7
133.0497	7.6
134.8935	7.8
135.0288	100.0

Name: Deoxyuridine
PrecursorMZ: 227.06701
RT: 5.0968
ExactMass: 228.07462149
Spectrum_type: 2
charge: -1
Formula: C9H12N2O5
SMILES: C1[C@@H]([C@H](O[C@H]1N2C=CC(=O)NC2=O)CO)O
Method: HCD
Collision_energy: [28.333334]
Isolation_window: 4.0
Ion_mode: N
Num Peaks: 17
66.0341	4.3
94.0289	50.8
95.0321	2.4
111.0189	2.7
112.0396	3.5
125.8993	2.4
136.0397	12.8
137.0345	2.8
184.0610	100.0
185.0644	8.4
209.1186	3.1
225.7955	1.8
227.0673	24.9
227.1286	25.3
227.2013	5.2
228.0699	2.6
228.1315	2.8

Name: Derrusnin
PrecursorMZ: 355.0824
RT: 2.3912
ExactMass: 356.08960285
Spectrum_type: 2
charge: -1
Formula: C19H16O7
SMILES: COC1=CC2=C(C(=C1)OC)C(=C(C(=O)O2)C3=CC4=C(C=C3)OCO4)OC
Method: HCD
Collision_energy: [28.333334]
Isolation_window: 4.0
Ion_mode: N
Num Peaks: 70
59.0129	1.9
73.0285	1.4
74.0239	1.8
82.0290	1.0
87.0078	1.4
88.0394	1.4
93.0336	1.2
107.0493	2.7
109.0287	3.0
111.0078	1.7
112.0394	1.5
114.0552	4.5
116.0709	2.4
119.0494	1.1
121.0286	2.6
123.0443	1.6
127.0503	2.4
128.0344	1.2
130.0866	21.7
131.0493	1.0
133.0288	5.5
133.0651	2.8
135.0443	2.3
137.0237	2.5
137.0600	1.5
149.0238	4.6
149.0604	1.6
151.0390	1.2
159.0445	1.9
161.0598	1.9
163.0400	1.5
164.0708	1.3
165.0186	1.7
175.0393	1.1
177.0188	14.7
177.0548	4.0
178.0233	1.9
179.0580	1.4
180.1025	2.4
187.0396	1.9
197.1293	2.5
202.0266	3.1
205.0501	5.1
223.1088	9.3
283.0981	1.9
285.0766	1.3
310.1408	1.1
310.2128	4.3
311.0924	1.9
313.0720	1.9
327.0874	8.5
328.0906	1.2
353.1253	1.2
353.1979	1.1
353.2350	4.1
354.1249	2.2
354.1660	2.5
354.2034	25.8
355.0823	100.0
355.1286	1.4
355.2072	5.3
355.2548	5.5
355.3208	9.8
356.0850	20.7
356.1234	1.3
356.3238	1.9
357.0865	2.4
357.0921	2.5
357.1321	1.4
357.2277	1.1

Name: Diaminopimelic Acid
PrecursorMZ: 189.08753
RT: 3.0686
ExactMass: 190.09535693
Spectrum_type: 2
charge: -1
Formula: C7H14N2O4
SMILES: C(CC(C(=O)O)N)CC(C(=O)O)N
Method: HCD
Collision_energy: [28.333334]
Isolation_window: 4.0
Ion_mode: N
Num Peaks: 30
59.0130	3.8
72.0084	1.2
74.0239	8.8
84.0446	1.7
86.0238	1.3
88.0395	4.1
99.0554	2.1
100.0031	8.8
101.0711	20.8
116.0709	2.8
127.0504	4.9
127.0867	1.3
128.0245	1.1
145.0611	100.0
146.0628	4.4
146.0730	1.6
147.0555	1.4
187.0263	1.3
187.1097	2.8
187.1333	2.6
188.0346	4.6
188.0928	1.0
189.0300	1.3
189.0673	2.0
189.0877	19.8
190.0352	3.0
190.0603	1.8
190.0921	1.4
191.0336	3.1
191.0585	1.3

Name: Dichloroacetic Acid
PrecursorMZ: 126.93503
RT: 1.6478
ExactMass: 127.9431847
Spectrum_type: 2
charge: -1
Formula: C2H2Cl2O2
SMILES: C(C(=O)O)(Cl)Cl
Method: HCD
Collision_energy: [28.333334]
Isolation_window: 4.0
Ion_mode: N
Num Peaks: 5
82.9451	100.0
84.9422	38.5
85.0286	9.6
125.8990	17.6
126.9042	14.1

Name: Dideoxycytidine
PrecursorMZ: 210.08788
RT: 6.0532
ExactMass: 211.09569129
Spectrum_type: 2
charge: -1
Formula: C9H13N3O3
SMILES: C1C[C@@H](O[C@@H]1CO)N2C=CC(=NC2=O)N
Method: HCD
Collision_energy: [28.333334]
Isolation_window: 4.0
Ion_mode: N
Num Peaks: 3
58.0290	42.2
168.0772	100.0
210.0879	64.7

Name: Diethyl Phthalate
PrecursorMZ: 221.08145
RT: 1.5444666666666667
ExactMass: 222.08920892
Spectrum_type: 2
charge: -1
Formula: C12H14O4
SMILES: CCOC(=O)C1=CC=CC=C1C(=O)OCC
Method: HCD
Collision_energy: [28.333334]
Isolation_window: 4.0
Ion_mode: N
Num Peaks: 10
69.0337	10.9
71.0493	23.7
79.9563	11.0
80.9643	7.6
121.0287	11.4
134.0365	6.9
177.0912	7.2
221.0822	15.6
222.0801	100.0
223.0834	6.1

Name: Diethyl phosphate
PrecursorMZ: 153.03147
RT: 3.4483
ExactMass: 154.03949583
Spectrum_type: 2
charge: -1
Formula: C4H11O4P
SMILES: CCOP(=O)(O)OCC
Method: HCD
Collision_energy: [28.333334]
Isolation_window: 4.0
Ion_mode: N
Num Peaks: 7
78.9581	82.7
94.0290	7.8
108.0446	13.3
125.0001	100.0
153.0210	7.7
153.0316	24.1
155.0342	6.6

Name: Digoxigenin
PrecursorMZ: 389.23383
RT: 4.8523
ExactMass: 390.24062418
Spectrum_type: 2
charge: -1
Formula: C23H34O5
SMILES: C[C@]12CC[C@@H](C[C@H]1CC[C@@H]3[C@@H]2C[C@H]([C@]4([C@@]3(CC[C@@H]4C5=CC(=O)OC5)O)C)O)O
Method: HCD
Collision_energy: [28.333334]
Isolation_window: 4.0
Ion_mode: N
Num Peaks: 53
59.0130	2.9
72.9920	1.2
74.0238	2.2
75.0078	1.4
78.9582	18.3
83.0493	1.2
87.0077	1.0
88.0394	1.2
96.9688	12.3
114.0551	2.4
116.0707	1.3
119.0495	4.0
121.0653	4.4
128.0346	2.0
130.0870	1.4
135.0442	1.3
147.0446	8.1
147.0809	1.7
164.0713	1.9
165.0550	2.5
173.0599	1.0
229.1595	1.5
231.1755	1.4
243.1757	1.6
245.1908	1.1
299.2380	6.1
300.2424	2.2
301.2538	16.7
302.2575	3.2
309.2216	1.3
327.2333	16.9
328.2362	3.7
345.2438	23.0
345.2802	1.4
346.2474	5.1
353.2129	2.2
365.3061	1.1
371.2228	14.3
372.2271	3.2
387.2179	1.3
388.1063	1.4
388.1468	3.8
388.2169	2.4
388.2672	1.2
389.1285	5.3
389.2327	100.0
390.1167	2.6
390.1580	1.6
390.2363	24.6
391.1040	1.6
391.1490	2.6
391.2296	7.1
391.2857	69.3

Name: Dihomo-Gamma-Linolenic Acid
PrecursorMZ: 305.24819
RT: 1.1152
ExactMass: 306.255880323
Spectrum_type: 2
charge: -1
Formula: C20H34O2
SMILES: CCCCC/C=C\C/C=C\C/C=C\CCCCCCC(=O)O
Method: HCD
Collision_energy: [28.333334]
Isolation_window: 4.0
Ion_mode: N
Num Peaks: 21
59.0130	0.5
69.1321	0.3
73.0285	1.8
96.9592	0.6
287.2390	0.4
289.1811	0.5
303.2323	0.7
304.2360	1.2
305.1763	0.8
305.1896	0.7
305.2185	2.0
305.2484	100.0
305.3053	0.4
305.3216	0.8
306.2227	0.3
306.2518	20.9
307.1959	0.7
307.2258	0.3
307.2569	1.9
307.2588	0.8
307.2631	8.1

Name: Dihydroagathic acid
PrecursorMZ: 335.22238
RT: 1.3539
ExactMass: 336.2300595
Spectrum_type: 2
charge: -1
Formula: C20H32O4
SMILES: CC(CC[C@H]1C(=C)CC[C@@H]2[C@@]1(CCC[C@@]2(C)C(=O)O)C)CC(=O)O
Method: HCD
Collision_energy: [28.333334]
Isolation_window: 4.0
Ion_mode: N
Num Peaks: 3
291.2325	2.9
335.2227	100.0
336.2257	18.7

Name: Dihydrocaffeic acid 3-sulfate
PrecursorMZ: 261.00711
RT: 3.1863
ExactMass: 262.01472383
Spectrum_type: 2
charge: -1
Formula: C9H10O7S
SMILES: C1=CC(=C(C=C1CCC(=O)O)OS(=O)(=O)O)O
Method: HCD
Collision_energy: [28.333334]
Isolation_window: 4.0
Ion_mode: N
Num Peaks: 13
79.9562	3.2
80.9639	1.6
135.0441	1.9
137.0600	2.2
181.0499	6.4
182.0537	0.6
201.9935	1.0
260.9496	0.7
261.0071	100.0
261.0538	0.7
261.0641	0.9
262.0102	10.7
263.0031	2.6

Name: Dihydroorotate
PrecursorMZ: 157.02458
RT: 6.3504
ExactMass: 157.02493165
Spectrum_type: 2
charge: -1
Formula: C5H5N2O4-
SMILES: C1C(NC(=O)NC1=O)C(=O)[O-]
Method: HCD
Collision_energy: [28.333334]
Isolation_window: 4.0
Ion_mode: N
Num Peaks: 27
60.0082	0.8
70.0289	25.2
71.0129	1.9
71.0241	4.0
85.0284	1.1
86.0238	1.3
96.0081	2.2
110.0602	1.2
111.0191	4.8
112.0394	6.2
112.0507	1.5
112.0759	4.2
113.0347	100.0
113.0510	0.8
114.0187	17.6
114.0380	4.1
114.0548	1.0
115.0220	0.8
115.0390	2.4
116.0708	0.8
156.0659	4.8
157.0247	10.0
157.0499	8.3
157.0861	5.0
157.1224	1.2
158.1177	5.1
159.0657	2.5

Name: Dihydrorobinetin
PrecursorMZ: 303.05137
RT: 4.2672
ExactMass: 304.05830272
Spectrum_type: 2
charge: -1
Formula: C15H12O7
SMILES: C1=CC2=C(C=C1O)OC(C(C2=O)O)C3=CC(=C(C(=C3)O)O)O
Method: HCD
Collision_energy: [28.333334]
Isolation_window: 4.0
Ion_mode: N
Num Peaks: 27
75.0077	3.3
85.0284	2.9
101.0233	2.3
109.0283	2.3
110.0239	2.1
129.0183	7.8
135.0441	3.4
137.0598	1.7
149.0599	1.6
151.0391	3.2
172.0291	7.0
173.0254	32.8
174.0290	1.6
181.0495	3.6
195.0649	2.4
239.0554	5.0
239.1296	1.6
301.1325	3.2
301.9658	1.6
302.0563	22.2
302.0934	1.9
303.0519	100.0
303.1435	2.9
304.0527	10.3
304.0823	2.8
305.0584	4.1
305.0889	2.3

Name: Dinoprost
PrecursorMZ: 353.23351
RT: 4.7676
ExactMass: 354.24062418
Spectrum_type: 2
charge: -1
Formula: C20H34O5
SMILES: CCCCC[C@@H](/C=C/[C@H]1[C@@H](C[C@@H]([C@@H]1C/C=C\CCCC(=O)O)O)O)O
Method: HCD
Collision_energy: [28.333334]
Isolation_window: 4.0
Ion_mode: N
Num Peaks: 6
309.2428	16.8
335.2233	13.3
352.2215	14.8
353.2348	100.0
354.2369	20.8
355.2502	26.3

Name: Dinoseb
PrecursorMZ: 239.06684
RT: 1.9905
ExactMass: 240.07462149
Spectrum_type: 2
charge: -1
Formula: C10H12N2O5
SMILES: CCC(C)C1=C(C(=CC(=C1)[N+](=O)[O-])[N+](=O)[O-])O
Method: HCD
Collision_energy: [28.333334]
Isolation_window: 4.0
Ion_mode: N
Num Peaks: 5
223.0285	8.4
239.0672	100.0
239.5685	25.4
240.0745	19.0
241.0710	4.4

Name: Dinoterb
PrecursorMZ: 239.06708
RT: 0.7061
ExactMass: 240.07462149
Spectrum_type: 2
charge: -1
Formula: C10H12N2O5
SMILES: CC(C)(C)C1=C(C(=CC(=C1)[N+](=O)[O-])[N+](=O)[O-])O
Method: HCD
Collision_energy: [28.333334]
Isolation_window: 4.0
Ion_mode: N
Num Peaks: 20
69.0341	0.5
72.9688	0.8
151.0764	0.4
179.0708	0.7
194.0456	0.3
207.0405	3.1
208.0439	0.3
209.0691	1.2
223.0284	0.3
224.0440	0.4
238.8593	0.9
239.0167	0.7
239.0269	0.6
239.0671	100.0
239.1064	0.5
239.1177	0.7
239.2359	0.4
240.0704	11.0
241.0721	1.0
241.2162	0.3

Name: Dipalmitoylphosphatidylethanolamine
PrecursorMZ: 690.50836
RT: 1.6688
ExactMass: 691.51520532
Spectrum_type: 2
charge: -1
Formula: C37H74NO8P
SMILES: CCCCCCCCCCCCCCCC(=O)OCC(COP(=O)(O)OCCN)OC(=O)CCCCCCCCCCCCCCC
Method: HCD
Collision_energy: [28.333334]
Isolation_window: 4.0
Ion_mode: N
Num Peaks: 6
78.9582	42.1
152.9952	36.6
171.0059	55.4
690.5089	100.0
691.5114	37.3
692.5246	41.6

Name: Dipalmitoylphosphatidylglycerol
PrecursorMZ: 721.50256
RT: 2.4197
ExactMass: 722.50978558
Spectrum_type: 2
charge: -1
Formula: C38H75O10P
SMILES: CCCCCCCCCCCCCCCC(=O)OCC(COP(=O)(O)OCC(CO)O)OC(=O)CCCCCCCCCCCCCCC
Method: HCD
Collision_energy: [28.333334]
Isolation_window: 4.0
Ion_mode: N
Num Peaks: 42
59.0129	1.4
78.9581	12.9
79.9497	1.5
80.0611	2.3
80.1695	1.5
96.9686	1.3
152.9951	23.2
153.9982	0.9
171.0058	7.1
225.2223	2.2
227.0321	1.6
227.2012	9.2
228.2045	2.3
239.2015	1.3
241.2172	65.9
242.2205	19.9
243.2233	4.1
255.2329	100.0
256.2363	18.0
257.2389	1.0
267.2331	4.1
268.2369	2.5
269.2487	45.6
270.2521	12.6
271.2282	10.0
271.2556	1.2
281.2487	5.4
282.2520	2.5
283.2645	6.8
284.2672	1.8
375.2317	1.2
389.2476	0.9
403.2628	1.8
464.2845	6.5
465.2853	1.5
465.2908	1.7
495.3077	1.5
719.5220	39.6
720.5256	52.1
721.5079	63.8
722.5097	24.0
723.5110	3.4

Name: Dipropyl phthalate
PrecursorMZ: 249.11298
RT: 5.049
ExactMass: 250.12050905
Spectrum_type: 2
charge: -1
Formula: C14H18O4
SMILES: CCCOC(=O)C1=CC=CC=C1C(=O)OCCC
Method: HCD
Collision_energy: [28.333334]
Isolation_window: 4.0
Ion_mode: N
Num Peaks: 4
135.0440	15.2
205.1231	100.0
248.0799	20.8
249.0657	23.8

Name: Diprotin A
PrecursorMZ: 340.22402
RT: 3.0147
ExactMass: 341.23145648
Spectrum_type: 2
charge: -1
Formula: C17H31N3O4
SMILES: CC[C@H](C)[C@@H](C(=O)N1CCC[C@H]1C(=O)N[C@@H]([C@@H](C)CC)C(=O)O)N
Method: HCD
Collision_energy: [28.333334]
Isolation_window: 4.0
Ion_mode: N
Num Peaks: 10
114.0552	81.1
130.0865	9.3
225.1608	18.2
281.0453	10.2
296.2334	7.9
339.2001	100.0
340.2307	27.6
341.0648	8.1
341.2032	11.3
342.2400	11.5

Name: Dipteryxin
PrecursorMZ: 313.07211
RT: 1.0903
ExactMass: 314.07903816
Spectrum_type: 2
charge: -1
Formula: C17H14O6
SMILES: COC1=CC=C(C=C1)C2=COC3=C(C(=C(C=C3C2=O)OC)O)O
Method: HCD
Collision_energy: [28.333334]
Isolation_window: 4.0
Ion_mode: N
Num Peaks: 41
70.0288	2.3
72.9921	1.9
109.0286	6.4
125.0347	2.6
135.0447	2.4
142.0654	2.6
171.0559	10.1
193.0505	4.1
203.0345	1.9
205.0509	3.3
225.1039	5.3
240.0429	2.2
253.0506	1.8
254.0579	5.1
255.0656	3.3
267.0667	3.4
268.0374	8.0
268.1098	10.4
269.0452	2.2
269.0823	35.6
269.1133	2.5
269.2487	3.3
270.0846	6.4
271.0969	1.8
281.0458	13.7
282.0533	24.5
283.0608	23.4
284.0647	3.7
298.0488	3.9
311.0517	3.7
312.0601	2.2
312.0990	18.8
313.0719	100.0
313.1027	5.3
313.1620	1.9
313.1982	2.5
313.2393	3.7
314.0747	17.4
314.1084	3.7
314.2093	1.8
315.0876	10.4

Name: Diterpene deriv 329
PrecursorMZ: 319.22771
RT: 0.7472
ExactMass: 320.23514488
Spectrum_type: 2
charge: -1
Formula: C20H32O3
SMILES: CC1CCC2(C(C1(C)CCC(C)CC(=O)O)CC(=O)C=C2C)C
Method: HCD
Collision_energy: [28.333334]
Isolation_window: 4.0
Ion_mode: N
Num Peaks: 22
69.3200	0.6
96.9592	2.9
273.2225	1.5
274.2253	0.9
275.1753	0.7
275.2380	100.0
275.2877	0.6
275.3005	0.8
276.2414	18.8
277.2438	1.2
317.2119	1.2
318.1046	0.7
318.2151	0.6
319.0816	2.8
319.1203	1.5
319.1648	0.6
319.2280	75.8
319.3053	0.5
320.2314	15.6
321.0621	0.7
321.0983	1.7
321.2088	8.0

Name: Dl-Phenylalanine
PrecursorMZ: 164.07063
RT: 0.6608
ExactMass: 165.078978594
Spectrum_type: 2
charge: -1
Formula: C9H11NO2
SMILES: C1=CC=C(C=C1)CC(C(=O)O)N
Method: HCD
Collision_energy: [28.333334]
Isolation_window: 4.0
Ion_mode: N
Num Peaks: 30
65.0135	6.8
72.0080	26.8
80.9640	8.5
108.0441	3.8
116.9199	4.8
119.0491	13.3
120.0444	5.3
121.0284	29.9
122.0599	7.6
147.0440	94.4
148.0473	7.5
149.0086	2.7
162.0181	3.4
162.0303	3.1
162.8925	4.4
163.0247	8.1
163.0381	5.1
163.0605	3.1
163.0752	3.7
164.0346	3.8
164.0706	100.0
165.0194	7.9
165.0405	28.6
165.0553	8.1
165.0736	7.2
165.9559	2.6
166.0146	11.2
166.0400	10.6
166.0518	7.9
166.0853	3.4

Name: Docusate
PrecursorMZ: 421.22657
RT: 0.74725
ExactMass: 422.23382472
Spectrum_type: 2
charge: -1
Formula: C20H38O7S
SMILES: CCCCC(CC)COC(=O)CC(C(=O)OCC(CC)CCCC)S(=O)(=O)O
Method: HCD
Collision_energy: [28.333334]
Isolation_window: 4.0
Ion_mode: N
Num Peaks: 10
80.9544	0.6
80.9564	0.7
80.9643	100.0
80.9742	0.7
81.9637	0.6
82.9601	1.8
227.1281	0.7
421.2271	36.6
422.2303	8.3
423.2271	1.3

Name: Dodecylbenzenesulphonic acid
PrecursorMZ: 325.18433
RT: 0.5172
ExactMass: 326.19156599
Spectrum_type: 2
charge: -1
Formula: C18H30O3S
SMILES: CCCCCCCCCCCCC1=CC=CC=C1S(=O)(=O)O
Method: HCD
Collision_energy: [28.333334]
Isolation_window: 4.0
Ion_mode: N
Num Peaks: 13
183.0111	1.8
197.0268	1.0
230.0256	0.4
283.2644	2.2
325.1048	0.8
325.1204	0.5
325.1845	100.0
325.2484	0.5
325.2651	0.8
325.3110	0.5
325.6677	0.4
326.1877	20.2
327.1827	3.3

Name: Donepezil
PrecursorMZ: 378.20284
RT: 4.5926
ExactMass: 379.21474379
Spectrum_type: 2
charge: -1
Formula: C24H29NO3
SMILES: COC1=C(C=C2C(=C1)CC(C2=O)CC3CCN(CC3)CC4=CC=CC=C4)OC
Method: HCD
Collision_energy: [28.333334]
Isolation_window: 4.0
Ion_mode: N
Num Peaks: 14
73.0398	8.2
130.0866	24.6
147.0446	9.9
164.0711	44.7
169.0976	6.9
186.1242	50.2
216.1390	9.9
233.1661	7.2
290.1877	7.3
300.1924	6.0
334.1774	28.5
335.1808	7.1
378.2037	100.0
379.2090	28.4

Name: Dopac
PrecursorMZ: 203.08189
RT: 4.7338
ExactMass: 168.04225873
Spectrum_type: 2
charge: -1
Formula: C8H8O4
SMILES: C1=CC(=C(C=C1CC(=O)O)O)O
Method: HCD
Collision_energy: [28.333334]
Isolation_window: 4.0
Ion_mode: N
Num Peaks: 80
59.0129	6.9
71.0128	3.3
71.0492	2.8
72.0081	33.9
72.9921	4.3
73.0286	3.8
74.0238	39.1
79.9564	18.2
80.9642	8.9
83.0491	2.4
85.0284	3.8
87.0077	6.9
87.0441	2.2
95.0492	2.8
96.9594	1.8
97.0284	3.5
97.0649	2.9
98.0600	2.6
99.0440	2.5
101.0235	2.7
111.0443	1.9
112.0758	2.2
113.0234	3.0
113.0600	3.4
114.0187	12.0
114.0551	5.8
116.0496	100.0
116.0707	2.0
117.0335	1.8
117.0529	7.3
127.0755	2.4
129.0556	2.0
129.1023	9.6
130.0652	4.2
130.0863	7.2
132.0447	3.2
138.0663	1.7
139.0392	3.1
139.0757	3.1
140.0705	2.2
141.0551	2.4
142.0654	28.9
143.0693	3.4
145.0496	2.4
157.0866	3.3
157.1224	1.7
157.1418	2.2
158.0251	1.9
158.0450	6.3
158.0601	12.4
159.0443	3.3
159.0554	1.8
159.0652	1.9
159.0920	27.0
160.0394	10.1
160.0758	2.8
160.0958	3.0
161.0237	3.3
161.0461	4.0
161.0600	4.0
161.0715	1.7
174.0550	5.3
185.0450	1.8
186.0398	3.3
186.0553	10.5
201.0400	2.0
201.0768	8.5
201.1125	7.7
201.1316	3.6
202.0289	17.3
202.0494	2.9
202.0850	1.9
203.0330	4.0
203.0547	10.0
203.0820	94.2
203.1279	2.0
204.0306	5.5
204.0658	21.2
204.0851	10.6
205.0686	1.8

Name: Ecdysone
PrecursorMZ: 509.31163
RT: 5.9271
ExactMass: 464.31378912
Spectrum_type: 2
charge: -1
Formula: C27H44O6
SMILES: C[C@@H]([C@H]1CC[C@@]2([C@@]1(CC[C@H]3C2=CC(=O)[C@H]4[C@@]3(C[C@@H]([C@@H](C4)O)O)C)C)O)[C@@H](CCC(C)(C)O)O
Method: HCD
Collision_energy: [28.333334]
Isolation_window: 4.0
Ion_mode: N
Num Peaks: 18
56.5918	3.2
56.8157	4.2
59.0128	2.5
253.1443	2.6
431.3169	4.6
447.3105	2.9
449.3279	3.5
465.3234	3.4
473.2884	2.4
475.3064	10.3
491.3018	15.0
492.3066	4.1
493.3170	21.9
508.2165	2.8
508.3004	3.7
509.3119	74.2
510.3150	23.2
511.3274	100.0

Name: Edoxudin
PrecursorMZ: 255.09858
RT: 6.8906
ExactMass: 256.10592162
Spectrum_type: 2
charge: -1
Formula: C11H16N2O5
SMILES: CCC1=CN(C(=O)NC1=O)[C@H]2C[C@@H]([C@H](O2)CO)O
Method: HCD
Collision_energy: [28.333334]
Isolation_window: 4.0
Ion_mode: N
Num Peaks: 5
59.0130	1.0
121.0762	1.1
165.0663	4.1
255.2330	100.0
256.2364	15.5

Name: Elesclomol
PrecursorMZ: 399.09525
RT: 3.4616
ExactMass: 400.10276824
Spectrum_type: 2
charge: -1
Formula: C19H20N4O2S2
SMILES: CN(C(=S)C1=CC=CC=C1)NC(=O)CC(=O)NN(C)C(=S)C2=CC=CC=C2
Method: HCD
Collision_energy: [28.333334]
Isolation_window: 4.0
Ion_mode: N
Num Peaks: 33
59.0128	0.8
71.0131	0.9
72.9921	0.8
75.0079	5.4
85.0285	1.7
87.0079	2.4
89.0235	1.0
97.0284	0.7
99.0080	1.3
111.0080	1.1
115.0197	0.8
128.0345	3.1
129.0185	8.7
143.0153	1.8
159.0291	2.0
165.0402	1.4
177.0399	2.4
191.0550	1.9
195.0506	16.1
196.0540	1.1
202.0401	1.1
203.0366	4.9
220.0507	2.2
221.0470	8.8
279.0524	1.0
381.0448	0.9
381.0866	0.7
397.0997	0.8
398.0992	25.2
399.0956	100.0
399.2031	0.8
400.0971	13.0
401.1032	2.6

Name: Elmycin A
PrecursorMZ: 343.11886
RT: 4.7391
ExactMass: 344.12598835
Spectrum_type: 2
charge: -1
Formula: C19H20O6
SMILES: C[C@H]1CC2=C(C3C(=O)C4=C([C@@H]([C@]3([C@@H](C2)O)O)O)C(=CC=C4)O)C(=O)C1
Method: HCD
Collision_energy: [28.333334]
Isolation_window: 4.0
Ion_mode: N
Num Peaks: 87
59.0127	3.4
72.9924	1.7
73.0287	2.3
85.0281	1.6
87.0079	2.5
88.0389	1.6
95.0493	2.5
98.0239	6.5
114.0554	3.3
116.0710	4.1
118.0654	7.9
121.0288	2.2
127.0504	4.8
128.0347	3.0
130.0866	3.8
133.0288	1.8
133.0647	1.6
135.0439	1.6
138.0551	1.5
142.0503	2.1
145.0654	2.2
147.0444	1.6
156.0660	2.4
159.0445	3.2
160.0523	7.2
161.0602	13.5
164.0714	2.0
171.1023	1.8
172.0765	1.8
175.0394	1.8
181.0616	7.8
189.1026	2.1
192.0420	1.9
192.0791	5.1
203.0344	2.0
205.0502	100.0
206.0538	11.5
223.0590	2.6
223.0774	1.7
225.0922	6.3
237.0765	39.3
238.0789	4.9
239.1067	2.0
241.1233	14.0
242.1265	2.1
249.0924	2.8
253.1223	1.8
265.0871	4.7
266.0904	4.5
267.1029	47.5
268.1063	8.1
283.0983	3.3
284.1049	1.8
285.1137	3.0
293.0822	4.9
297.1134	1.7
298.1106	1.9
298.1428	3.5
299.0939	2.8
299.1289	15.0
300.1344	12.3
302.0802	1.6
309.0759	1.9
310.0806	2.8
311.0927	7.4
315.1238	5.6
325.1087	6.0
341.1182	2.1
341.1991	5.3
342.0963	3.8
342.1067	4.0
342.1296	1.6
342.1673	2.1
342.1991	1.8
342.2034	4.5
343.1195	58.0
343.2125	17.8
343.2536	2.2
344.1206	12.4
344.1232	19.8
344.2129	3.1
345.0940	4.9
345.1014	2.6
345.1292	2.0
345.1341	2.5
345.1723	4.6
345.2297	4.1

Name: Emtricitabine
PrecursorMZ: 246.03494
RT: 3.4152
ExactMass: 247.04269053
Spectrum_type: 2
charge: -1
Formula: C8H10FN3O3S
SMILES: C1[C@H](O[C@H](S1)CO)N2C=C(C(=NC2=O)N)F
Method: HCD
Collision_energy: [28.333334]
Isolation_window: 4.0
Ion_mode: N
Num Peaks: 13
110.0151	1.9
137.0350	1.7
138.9965	1.6
143.0077	2.1
152.0258	100.0
153.0294	5.8
166.0073	8.6
170.0365	6.2
184.0012	2.1
186.0138	13.9
245.0228	1.4
247.0635	2.4
248.0789	12.7

Name: Endothall
PrecursorMZ: 185.04504
RT: 5.2521
ExactMass: 186.05282342
Spectrum_type: 2
charge: -1
Formula: C8H10O5
SMILES: C1C[C@H]2[C@@H]([C@@H]([C@@H]1O2)C(=O)O)C(=O)O
Method: HCD
Collision_energy: [28.333334]
Isolation_window: 4.0
Ion_mode: N
Num Peaks: 28
55.0181	2.2
59.0129	0.6
65.0138	0.9
68.9949	1.0
95.0493	0.7
97.0649	100.0
97.0779	0.6
98.0682	6.5
112.9847	2.6
125.0963	17.2
125.9361	2.2
127.9313	0.7
141.0550	12.4
141.0913	1.1
142.0404	0.9
142.0582	0.9
166.9836	0.7
169.0862	0.9
183.0289	0.6
184.0616	1.1
184.0976	0.6
185.0464	1.2
185.0806	0.8
185.1178	1.9
185.1539	1.1
186.0296	2.9
187.0260	1.0
187.0969	16.4

Name: Ent-kauran-17,19-dioic acid
PrecursorMZ: 333.20676
RT: 2.913
ExactMass: 334.21440943
Spectrum_type: 2
charge: -1
Formula: C20H30O4
SMILES: CC12CCCC(C1CCC34C2CCC(C3)C(C4)C(=O)O)(C)C(=O)O
Method: HCD
Collision_energy: [28.333334]
Isolation_window: 4.0
Ion_mode: N
Num Peaks: 10
69.2338	1.3
97.4642	1.1
97.4665	0.9
331.1914	1.1
332.1117	1.0
332.1941	0.9
333.1406	1.2
333.2069	100.0
334.2103	21.6
335.2185	2.3

Name: Enterodiol
PrecursorMZ: 301.14449
RT: 3.053
ExactMass: 302.15180918
Spectrum_type: 2
charge: -1
Formula: C18H22O4
SMILES: C1=CC(=CC(=C1)O)C[C@@H](CO)[C@@H](CC2=CC(=CC=C2)O)CO
Method: HCD
Collision_energy: [28.333334]
Isolation_window: 4.0
Ion_mode: N
Num Peaks: 5
253.1235	46.3
254.1267	7.5
271.1339	9.5
301.1445	100.0
302.1476	22.3

Name: Enterolactone
PrecursorMZ: 297.1126
RT: 0.584
ExactMass: 298.12050905
Spectrum_type: 2
charge: -1
Formula: C18H18O4
SMILES: C1[C@H]([C@@H](C(=O)O1)CC2=CC(=CC=C2)O)CC3=CC(=CC=C3)O
Method: HCD
Collision_energy: [28.333334]
Isolation_window: 4.0
Ion_mode: N
Num Peaks: 34
93.0335	0.4
107.0491	14.4
108.0524	1.0
109.0647	0.3
119.0491	6.4
120.0519	0.5
121.0285	0.7
121.0647	5.5
122.0684	0.4
131.0491	1.5
132.0577	0.5
133.0649	1.1
143.0487	0.4
145.0648	1.9
146.0728	0.7
147.0440	1.1
165.0546	6.4
166.0582	0.5
183.1380	0.4
189.0546	9.6
190.0582	1.1
251.1071	1.6
252.1104	0.3
253.1226	25.5
254.1260	4.3
297.0428	0.6
297.0597	0.4
297.1125	100.0
297.1423	2.2
297.1812	0.5
297.2412	1.4
298.1158	18.5
298.1457	0.4
299.1182	1.4

Name: Epigallocatechin
PrecursorMZ: 305.06677
RT: 2.5044
ExactMass: 306.07395278
Spectrum_type: 2
charge: -1
Formula: C15H14O7
SMILES: C1[C@H]([C@H](OC2=CC(=CC(=C21)O)O)C3=CC(=C(C(=C3)O)O)O)O
Method: HCD
Collision_energy: [28.333334]
Isolation_window: 4.0
Ion_mode: N
Num Peaks: 19
61.9875	87.1
109.0290	9.0
135.0445	100.0
161.0602	49.0
189.0547	7.4
199.0760	6.6
215.0710	6.8
217.0507	6.9
217.0869	9.9
218.0572	6.7
219.0657	14.2
233.0817	7.7
243.0664	17.3
261.0767	49.0
262.0798	6.5
304.0831	6.9
305.0667	32.6
306.0698	6.7
307.0817	14.1

Name: Erythrono-1,4-lactone
PrecursorMZ: 117.01826
RT: 7.7205
ExactMass: 118.02660867
Spectrum_type: 2
charge: -1
Formula: C4H6O4
SMILES: C1[C@H]([C@H](C(=O)O1)O)O
Method: HCD
Collision_energy: [28.333334]
Isolation_window: 4.0
Ion_mode: N
Num Peaks: 11
60.9922	10.3
73.0285	71.5
99.0076	7.0
99.9247	18.5
116.0243	7.6
116.9275	100.0
117.0185	14.2
117.9276	12.8
118.0290	4.8
118.0400	5.4
119.0160	6.2

Name: Esculin
PrecursorMZ: 339.0735
RT: 7.1549
ExactMass: 340.07943208
Spectrum_type: 2
charge: -1
Formula: C15H16O9
SMILES: C1=CC(=O)OC2=CC(=C(C=C21)O[C@H]3[C@@H]([C@H]([C@@H]([C@H](O3)CO)O)O)O)O
Method: HCD
Collision_energy: [28.333334]
Isolation_window: 4.0
Ion_mode: N
Num Peaks: 47
59.0129	3.0
71.0129	2.8
72.9921	1.3
73.0286	1.2
75.0078	7.7
85.0286	4.3
87.0079	3.9
89.0234	3.9
93.0334	1.1
96.9593	1.5
99.0078	1.9
101.0040	1.4
101.0234	1.9
111.0078	1.5
112.0159	2.3
113.0237	2.0
114.0552	1.8
125.0231	1.1
127.0503	1.1
128.0346	1.5
129.0185	10.2
141.0550	3.0
143.0150	1.5
147.0292	2.5
151.0506	2.5
165.0398	18.3
171.0653	1.6
173.0259	2.3
173.0447	2.6
177.0404	1.2
190.0392	2.8
191.0363	11.3
191.0549	1.8
193.0612	1.2
249.0420	2.0
277.1279	1.2
337.1153	8.4
338.0776	24.8
338.1169	1.7
339.0736	100.0
339.1773	2.2
339.1968	1.3
340.0730	5.8
340.0770	10.9
340.1077	1.3
340.1162	8.8
341.0758	1.6

Name: Ethyl 2,4-dimethyl-5-(4-((((oxolan-2-YL)methyl)carbamoyl)methyl)piperidine-1-carbonyl)-1H-pyrrole-3-carboxylate
PrecursorMZ: 418.23483
RT: 6.8719
ExactMass: 419.24202116
Spectrum_type: 2
charge: -1
Formula: C22H33N3O5
SMILES: CCOC(=O)C1=C(NC(=C1C)C(=O)N2CCC(CC2)CC(=O)NCC3CCCO3)C
Method: HCD
Collision_energy: [28.333334]
Isolation_window: 4.0
Ion_mode: N
Num Peaks: 7
114.0550	19.4
116.0705	20.3
134.0965	20.2
257.1657	22.4
259.1811	30.7
418.2350	100.0
419.2385	27.8

Name: Ethyl 2-(2-acetyl-3,5-dihydroxyphenyl)acetate
PrecursorMZ: 237.07677
RT: 0.7099
ExactMass: 238.08412354
Spectrum_type: 2
charge: -1
Formula: C12H14O5
SMILES: CCOC(=O)CC1=C(C(=CC(=C1)O)O)C(=O)C
Method: HCD
Collision_energy: [28.333334]
Isolation_window: 4.0
Ion_mode: N
Num Peaks: 74
59.0131	0.5
69.0339	0.4
79.9566	0.4
80.9644	0.6
83.0129	0.8
85.0285	2.1
94.0289	2.2
97.0289	0.6
109.0286	2.3
111.0082	0.5
111.0445	0.5
113.0238	0.8
115.0392	5.8
120.0447	0.6
121.0286	3.8
123.0443	3.0
125.0237	1.4
132.0811	3.3
135.0441	1.1
137.0240	0.8
137.0601	0.5
139.0393	1.8
147.0444	1.0
148.0519	1.1
149.0352	0.7
149.0404	0.6
149.0601	100.0
149.0801	0.6
149.0847	0.6
150.0635	9.3
151.0394	0.6
151.0651	0.5
154.0264	0.4
160.0397	0.5
160.0761	1.1
161.0600	0.6
162.0190	1.0
163.0395	0.5
163.0758	0.8
165.0187	0.8
165.0545	0.6
167.0343	0.4
173.0604	0.4
175.0757	2.2
176.0704	1.5
177.0550	0.9
179.0344	0.9
179.0711	0.4
182.0210	0.9
183.0294	0.7
189.0550	0.7
191.0346	0.4
191.0704	0.7
192.0785	0.4
193.0494	0.9
193.0865	60.5
194.0902	6.5
195.0927	0.6
204.0666	1.0
205.0505	1.1
207.0659	4.0
208.0684	0.4
219.0661	0.4
235.0606	1.5
235.1702	1.1
236.0575	1.0
236.0915	2.8
237.0375	0.8
237.0765	53.6
237.1260	0.5
238.0804	6.8
238.1079	1.0
239.0536	3.4
239.0828	0.9

Name: Ethyl 4-((3-methoxyphenyl)carbamoyl)-3-methyl-2-oxo-1-oxa-8-azaspiro(4.5)dec-3-ene-8-carboxylate
PrecursorMZ: 387.15634
RT: 0.6868
ExactMass: 388.16343649
Spectrum_type: 2
charge: -1
Formula: C20H24N2O6
SMILES: CCOC(=O)N1CCC2(CC1)C(=C(C(=O)O2)C)C(=O)NC3=CC(=CC=C3)OC
Method: HCD
Collision_energy: [28.333334]
Isolation_window: 4.0
Ion_mode: N
Num Peaks: 12
313.0832	0.7
326.1406	0.7
340.1540	0.8
341.1637	2.1
369.1460	1.2
387.0537	0.6
387.0731	0.6
387.1566	100.0
387.2392	0.6
387.2602	0.7
388.1599	21.1
389.1620	2.2

Name: Ethyl 4-((4-pyrazol-1-ylphenyl)methylcarbamoylamino)benzoate
PrecursorMZ: 399.12312
RT: 1.5328
ExactMass: 364.15354051
Spectrum_type: 2
charge: -1
Formula: C20H20N4O3
SMILES: CCOC(=O)C1=CC=C(C=C1)NC(=O)NCC2=CC=C(C=C2)N3C=CC=N3
Method: HCD
Collision_energy: [28.333334]
Isolation_window: 4.0
Ion_mode: N
Num Peaks: 10
79.9565	19.5
96.9591	21.8
274.0386	19.6
397.1716	18.9
398.1722	10.0
399.1236	100.0
399.1848	92.5
400.1357	21.0
400.1882	18.3
401.2086	23.4

Name: Ethyl 5-)2-oxo-2-(2,3,4-trihydroxyphenyl)ethyl(furan-2-carboxylate
PrecursorMZ: 305.06684
RT: 1.4284
ExactMass: 306.07395278
Spectrum_type: 2
charge: -1
Formula: C15H14O7
SMILES: CCOC(=O)C1=CC=C(O1)CC(=O)C2=C(C(=C(C=C2)O)O)O
Method: HCD
Collision_energy: [28.333334]
Isolation_window: 4.0
Ion_mode: N
Num Peaks: 46
59.0129	2.3
61.9874	5.7
67.0180	7.8
94.0289	2.3
109.0286	3.6
116.0708	22.2
121.0287	2.9
135.0444	5.3
136.0762	3.9
147.0446	2.0
149.0605	2.6
158.0606	1.7
161.0600	6.8
166.0871	2.0
168.0659	1.8
174.0317	5.3
175.0394	8.9
184.0973	7.3
187.0395	5.1
189.0550	8.2
201.0553	55.6
201.0928	1.7
202.0589	7.4
219.1023	1.8
225.0557	2.6
241.0505	2.6
243.0676	1.8
245.0455	30.9
246.0489	4.3
261.0761	2.4
261.1101	1.7
263.0926	2.3
287.0557	3.5
288.1239	2.5
303.1352	4.8
304.0551	2.6
304.0862	2.3
304.1150	5.1
305.0670	100.0
305.1032	5.1
305.1452	1.7
306.0710	14.5
306.1023	3.8
306.1344	52.5
307.0835	9.5
307.1407	3.8

Name: Ethyl Caffeate
PrecursorMZ: 207.06547
RT: 4.2481
ExactMass: 208.07355886
Spectrum_type: 2
charge: -1
Formula: C11H12O4
SMILES: CCOC(=O)/C=C/C1=CC(=C(C=C1)O)O
Method: HCD
Collision_energy: [28.333334]
Isolation_window: 4.0
Ion_mode: N
Num Peaks: 25
57.0334	4.9
79.9562	4.4
80.9641	10.4
85.0285	8.7
97.4647	11.4
119.0490	4.8
121.0285	100.0
121.0647	4.9
133.0649	64.2
134.0597	7.7
134.0684	4.8
135.0442	11.4
145.0648	19.5
162.0551	4.5
163.0389	5.4
163.0755	37.2
164.0701	20.3
165.0544	6.5
205.1592	25.9
206.0805	6.8
206.1625	6.0
207.0652	43.1
208.0619	8.3
208.0956	6.5
209.0454	16.1

Name: Ethyl Hematommate
PrecursorMZ: 223.06065
RT: 3.4958
ExactMass: 224.06847348
Spectrum_type: 2
charge: -1
Formula: C11H12O5
SMILES: CCOC(=O)C1=C(C(=C(C=C1C)O)C=O)O
Method: HCD
Collision_energy: [28.333334]
Isolation_window: 4.0
Ion_mode: N
Num Peaks: 84
59.0130	2.5
72.9923	1.9
79.9564	16.1
80.9643	20.2
81.9520	1.4
85.0286	4.4
87.0079	2.1
95.0494	5.5
96.9592	5.7
97.0286	4.4
106.9800	3.7
107.0493	1.9
108.0447	1.7
109.0284	2.0
109.0652	1.5
111.0080	1.5
111.0443	9.8
113.0237	4.7
119.0495	1.4
121.0287	2.8
121.0653	1.3
123.0079	2.1
123.0445	3.0
124.0062	1.2
124.0393	1.4
125.0236	13.1
133.0652	1.5
135.0445	3.4
135.0810	2.8
136.0395	1.3
136.0758	1.3
137.0237	8.8
137.0601	9.6
138.0552	1.2
139.0393	5.7
148.0759	2.0
149.0601	3.1
150.0550	2.9
151.0395	3.9
151.0758	2.2
153.0548	2.9
157.0501	1.8
159.0445	4.1
160.0486	1.8
161.0601	4.7
163.0394	2.5
163.0760	1.3
164.0472	1.3
165.0189	9.9
167.0346	2.8
175.0397	1.4
177.0553	6.8
178.0505	2.9
178.0861	3.3
179.0352	2.9
179.0708	17.0
180.0649	6.2
181.0501	7.1
181.0854	2.4
183.0295	10.9
191.0370	1.6
192.0661	4.6
193.0167	2.1
193.0502	2.3
205.0503	20.6
206.0473	2.9
221.0465	2.3
221.0664	1.9
221.0852	8.3
222.0464	5.1
222.0615	3.0
222.0800	55.4
222.9912	1.2
223.0276	74.5
223.0612	100.0
223.0818	4.9
223.0977	2.5
224.0297	5.6
224.0617	10.3
224.0935	1.3
224.9890	2.8
225.0060	2.3
225.0419	25.9
225.0762	10.0

Name: Ethyl beta-D-glucuronide
PrecursorMZ: 221.06644
RT: 4.5941
ExactMass: 222.07395278
Spectrum_type: 2
charge: -1
Formula: C8H14O7
SMILES: CCO[C@H]1[C@@H]([C@H]([C@@H]([C@H](O1)C(=O)O)O)O)O
Method: HCD
Collision_energy: [28.333334]
Isolation_window: 4.0
Ion_mode: N
Num Peaks: 7
85.0286	60.0
91.0392	4.2
129.0185	100.0
130.0219	4.4
179.0346	3.1
220.0268	3.3
221.0662	15.3

Name: Ethyl chrysanthemate
PrecursorMZ: 195.13861
RT: 5.3646
ExactMass: 196.146329876
Spectrum_type: 2
charge: -1
Formula: C12H20O2
SMILES: CCOC(=O)C1C(C1(C)C)C=C(C)C
Method: HCD
Collision_energy: [28.333334]
Isolation_window: 4.0
Ion_mode: N
Num Peaks: 49
59.0130	7.7
69.0322	7.7
80.9643	6.1
81.0336	100.0
94.0289	16.7
95.0243	5.8
95.0493	16.3
96.0081	5.3
97.4650	6.3
107.0604	5.8
108.0446	14.4
109.0284	6.4
110.9843	9.3
113.0963	21.3
122.0604	5.6
123.0443	8.2
123.0555	25.1
124.0520	38.0
125.0234	7.0
125.0595	5.8
134.0241	7.4
135.0445	6.4
136.0397	5.4
150.0552	15.2
150.0915	8.6
151.0391	5.7
151.0870	14.1
151.1121	7.7
152.0346	18.6
152.0710	19.2
153.0549	6.5
153.0663	5.6
154.0494	5.7
165.0659	7.1
176.8944	7.5
180.1150	5.2
194.0012	5.4
194.0455	10.6
194.0808	11.8
194.9053	46.6
195.0654	6.5
195.0778	6.9
195.1382	24.0
195.9058	6.7
196.0592	14.0
196.0977	5.4
197.0672	24.2
197.0821	8.7
197.1164	7.2

Name: Ethylmalonic acid
PrecursorMZ: 131.03543
RT: 7.5235
ExactMass: 132.04225873
Spectrum_type: 2
charge: -1
Formula: C5H8O4
SMILES: CCC(C(=O)O)C(=O)O
Method: HCD
Collision_energy: [28.333334]
Isolation_window: 4.0
Ion_mode: N
Num Peaks: 13
65.0135	1.9
69.0337	4.0
71.0130	1.7
87.0441	100.0
88.0475	5.6
91.0292	1.9
113.0235	6.5
115.0028	2.9
130.0403	2.0
130.0864	78.7
131.0342	23.2
131.0899	5.7
132.0559	1.9

Name: Ethylparaben
PrecursorMZ: 165.05507
RT: 6.2781
ExactMass: 166.062994177
Spectrum_type: 2
charge: -1
Formula: C9H10O3
SMILES: CCOC(=O)C1=CC=C(C=C1)O
Method: HCD
Collision_energy: [28.333334]
Isolation_window: 4.0
Ion_mode: N
Num Peaks: 14
59.0130	3.5
93.0337	3.1
107.0494	1.6
119.0494	57.1
120.0527	4.5
121.0290	4.0
121.0651	100.0
122.0684	8.4
147.0444	4.8
150.0178	2.2
165.0412	27.7
165.0552	37.3
166.0587	4.0
167.0339	2.1

Name: Eugenitol
PrecursorMZ: 205.05011
RT: 1.5483
ExactMass: 206.0579088
Spectrum_type: 2
charge: -1
Formula: C11H10O4
SMILES: CC1=CC(=O)C2=C(O1)C=C(C(=C2O)C)O
Method: HCD
Collision_energy: [28.333334]
Isolation_window: 4.0
Ion_mode: N
Num Peaks: 76
58.0289	2.1
59.0129	4.3
70.0290	1.5
71.0130	0.4
73.0286	1.3
80.9642	0.5
81.0335	0.5
88.0395	0.8
91.0545	0.6
93.0336	0.8
97.0286	2.6
107.0494	0.8
113.0237	0.5
117.0702	5.5
118.0736	0.5
119.0494	1.3
121.0288	0.8
121.0650	0.8
123.0319	1.9
123.0443	0.5
131.0495	0.6
133.0288	20.7
133.0651	6.5
134.0321	1.6
134.0603	0.6
134.0688	0.5
135.0442	0.8
135.0808	0.6
137.0601	0.7
146.0367	0.7
147.0445	3.7
149.0239	0.5
149.0603	0.9
150.0316	0.6
159.0446	24.4
160.0489	2.2
160.0757	0.8
161.0246	1.8
161.0304	0.4
161.0602	70.7
161.0964	0.9
162.0541	1.3
162.0644	6.8
162.0913	2.0
163.0395	1.4
163.0759	3.4
163.1125	0.6
164.0710	10.9
165.0547	0.5
165.0755	0.6
165.1029	0.8
175.0393	1.0
176.0346	2.0
177.0187	0.8
177.0551	0.5
187.0396	1.0
203.0711	1.0
203.0916	0.8
203.1286	1.4
204.0658	5.9
204.1008	0.5
204.1030	0.6
205.0108	0.5
205.0190	0.7
205.0502	100.0
205.0661	1.2
205.0863	4.1
205.1362	1.3
206.0536	10.9
206.0815	5.9
206.1188	0.5
207.0285	0.5
207.0516	1.6
207.0675	5.1
207.1021	0.9
207.1136	0.8

Name: Eupatilin
PrecursorMZ: 343.08211
RT: 4.7867
ExactMass: 344.08960285
Spectrum_type: 2
charge: -1
Formula: C18H16O7
SMILES: COC1=C(C=C(C=C1)C2=CC(=O)C3=C(O2)C=C(C(=C3O)OC)O)OC
Method: HCD
Collision_energy: [28.333334]
Isolation_window: 4.0
Ion_mode: N
Num Peaks: 10
91.0389	11.6
102.0550	20.7
123.0442	18.8
145.0288	21.7
146.0364	10.3
269.0814	9.3
341.2029	9.3
342.0972	10.8
343.0815	100.0
344.0828	23.0

Name: Eurycomanone
PrecursorMZ: 407.13473
RT: 1.5231
ExactMass: 408.14203234
Spectrum_type: 2
charge: -1
Formula: C20H24O9
SMILES: CC1=CC(=O)[C@H]([C@]2([C@H]1C[C@@H]3[C@]45[C@@H]2[C@]([C@@H](C(=C)[C@@]4([C@H](C(=O)O3)O)O)O)(OC5)O)C)O
Method: HCD
Collision_energy: [28.333334]
Isolation_window: 4.0
Ion_mode: N
Num Peaks: 36
59.0128	4.1
61.9874	14.4
73.0285	2.3
80.9640	3.0
85.9986	3.1
87.0077	3.8
96.9591	3.9
101.0235	2.4
109.0283	4.2
125.0235	5.9
127.0392	2.2
135.0443	7.2
137.0600	12.6
139.0390	4.6
151.0393	7.1
165.0549	7.7
167.0340	2.5
181.0499	66.6
181.0839	2.9
182.0531	6.1
185.0448	4.4
195.0658	3.2
199.0606	15.9
211.0606	3.6
225.0763	42.3
226.0798	4.6
245.1184	2.6
319.2637	2.9
389.1251	3.0
405.1182	8.0
406.1206	5.9
407.1343	100.0
407.2464	3.0
408.1382	23.7
409.1095	8.0
409.1900	4.9

Name: F01-1358A
PrecursorMZ: 361.16603
RT: 0.5476
ExactMass: 362.17293854
Spectrum_type: 2
charge: -1
Formula: C20H26O6
SMILES: CC1=C2COC(=O)C2=C(C(=C1OC)C/C=C(\C)/CCCC(C)C(=O)O)O
Method: HCD
Collision_energy: [28.333334]
Isolation_window: 4.0
Ion_mode: N
Num Peaks: 132
69.0336	1.2
72.9922	3.9
75.0078	6.4
79.9564	1.4
85.0286	1.5
85.0650	3.6
87.0441	1.7
95.0492	1.3
96.9591	3.0
97.0286	2.6
99.0806	3.0
101.0599	2.2
109.0286	1.8
109.0648	1.7
111.0083	1.1
111.0443	10.2
113.0599	3.0
118.9917	1.4
125.0237	2.1
125.0599	15.6
127.0756	2.3
137.0599	2.0
139.0397	1.2
139.0757	6.3
141.0550	7.1
149.0964	1.1
151.0758	1.7
153.0550	3.1
163.0762	1.3
164.0472	1.1
165.0550	4.2
165.0915	1.2
166.0264	4.9
166.0628	1.3
167.0340	2.8
167.0706	2.2
167.1066	1.4
168.9886	3.7
177.0547	1.8
177.0917	1.2
178.0633	1.7
179.0350	1.3
179.0708	5.6
181.0500	2.9
191.0344	1.1
191.0713	1.3
191.1074	2.7
192.0791	1.6
193.0510	1.3
193.0861	2.1
193.1225	2.2
194.0577	1.6
195.0657	31.0
196.0695	2.7
205.0503	1.3
205.0865	18.1
205.1215	1.6
206.0917	3.7
207.0659	5.0
207.1031	1.9
207.1388	2.0
208.0744	1.6
209.0825	1.8
209.1178	9.3
217.0868	1.4
219.1015	1.3
220.0734	1.1
221.0819	3.1
221.1171	1.2
223.0611	1.2
223.0988	1.4
223.1334	7.6
231.1031	1.3
233.0825	1.5
233.1179	4.3
235.0973	9.8
235.1325	1.9
236.1016	1.5
237.1129	3.6
247.0966	1.6
247.1339	4.3
248.1053	43.9
249.1124	28.7
250.0843	1.3
251.0923	11.1
251.1286	4.9
252.0958	1.5
259.1350	1.4
260.1407	1.3
261.1142	2.7
261.1472	1.2
263.1288	16.9
265.1443	3.9
266.1154	1.2
267.1241	2.2
275.1286	2.4
275.1642	1.1
276.1000	2.4
277.1068	2.1
278.1152	1.3
281.1398	1.8
292.0951	4.6
292.1309	1.4
294.1106	3.4
305.1028	3.4
317.1439	1.3
317.1757	28.3
317.2097	1.4
318.1790	5.8
318.9797	4.7
319.1900	2.5
342.1745	1.1
343.0820	1.1
345.1706	2.7
359.1490	3.4
359.1871	6.5
359.2802	13.6
360.1122	1.5
360.1511	2.6
360.1884	3.4
360.2838	4.8
361.0915	6.7
361.1341	5.1
361.1655	97.1
361.2036	16.0
362.0946	1.5
362.1678	20.2
362.2060	3.7
363.1459	8.3
363.1817	100.0
363.2167	3.2
363.3249	1.4

Name: FA 18:0+2O+SO4
PrecursorMZ: 395.21047
RT: 2.7667
ExactMass: 396.21817466
Spectrum_type: 2
charge: -1
Formula: C18H36O7S
SMILES: CCCCCCCCC(C(CCCCCCCC(=O)OS(=O)(=O)O)O)O
Method: HCD
Collision_energy: [28.333334]
Isolation_window: 4.0
Ion_mode: N
Num Peaks: 6
96.9591	100.0
98.9551	2.4
395.2107	93.5
396.2141	20.6
397.1677	4.6
397.2174	5.7

Name: Ferulic Acid Acyl-b-D-glucoside
PrecursorMZ: 355.1038
RT: 4.3445
ExactMass: 356.11073221
Spectrum_type: 2
charge: -1
Formula: C16H20O9
SMILES: COC1=C(C=CC(=C1)C=CC(=O)OC2C(C(C(C(O2)CO)O)O)O)O
Method: HCD
Collision_energy: [28.333334]
Isolation_window: 4.0
Ion_mode: N
Num Peaks: 30
59.0129	5.8
71.0129	3.0
78.9581	2.6
87.0078	2.1
89.0234	2.1
101.0236	4.1
109.0286	2.4
111.0441	2.6
113.0235	4.2
121.0285	2.2
128.0343	2.4
135.0444	3.2
137.0600	18.8
143.0343	2.8
170.0216	5.2
173.0450	4.4
181.0501	100.0
182.0535	8.9
191.0557	4.4
311.1868	1.9
353.1143	3.8
353.1983	2.6
354.0869	1.9
355.1039	23.2
355.1752	10.0
356.1050	5.8
356.1833	2.2
357.1056	4.8
357.1541	2.7
357.1931	11.3

Name: Fexofenadine
PrecursorMZ: 500.28065
RT: 5.9064
ExactMass: 501.28790873
Spectrum_type: 2
charge: -1
Formula: C32H39NO4
SMILES: CC(C)(C1=CC=C(C=C1)C(CCCN2CCC(CC2)C(C3=CC=CC=C3)(C4=CC=CC=C4)O)O)C(=O)O
Method: HCD
Collision_energy: [28.333334]
Isolation_window: 4.0
Ion_mode: N
Num Peaks: 11
188.1073	9.2
230.1548	4.6
258.1500	56.7
259.1531	6.7
378.2443	63.5
379.2469	15.3
456.2914	100.0
457.2948	32.0
458.2962	3.9
500.2818	19.3
501.2849	7.3

Name: Flavin Mononucleotide
PrecursorMZ: 455.09836
RT: 3.0129
ExactMass: 456.10461526
Spectrum_type: 2
charge: -1
Formula: C17H21N4O9P
SMILES: CC1=CC2=C(C=C1C)N(C3=NC(=O)NC(=O)C3=N2)C[C@@H]([C@@H]([C@@H](COP(=O)(O)O)O)O)O
Method: HCD
Collision_energy: [28.333334]
Isolation_window: 4.0
Ion_mode: N
Num Peaks: 13
135.0442	33.4
149.0236	17.2
179.0342	11.1
233.0448	12.1
275.0559	100.0
276.0593	13.8
311.0921	6.0
411.1086	17.3
412.1116	4.7
453.0809	4.9
454.0867	5.9
455.0980	73.0
456.1016	18.4

Name: Flavone base + 3O, C-Pen, C-Pen
PrecursorMZ: 533.13077
RT: 4.4043
ExactMass: 534.13734088
Spectrum_type: 2
charge: -1
Formula: C25H26O13
SMILES: C1C(C(C(C(O1)C2=C(C(=C3C(=C2O)C(=O)C=C(O3)C4=CC=C(C=C4)O)C5C(C(C(CO5)O)O)O)O)O)O)O
Method: HCD
Collision_energy: [28.333334]
Isolation_window: 4.0
Ion_mode: N
Num Peaks: 51
59.2386	1.6
71.0130	2.0
85.0285	1.8
87.0078	2.5
93.0336	4.0
109.0287	13.0
111.0441	2.7
113.0235	1.7
128.0344	3.6
135.0444	75.7
136.0479	5.7
137.0239	4.5
149.0601	67.3
150.0637	5.4
155.0342	6.5
161.0243	2.6
161.0602	35.2
162.0635	3.2
173.0450	100.0
173.0565	2.2
174.0482	6.9
179.0344	58.6
180.0379	4.8
187.0399	4.0
191.0556	63.1
192.0593	4.8
205.0498	5.7
231.0301	4.9
255.0661	28.0
256.0695	3.8
269.0824	5.5
270.0865	3.5
271.0978	25.6
272.1006	3.6
297.0773	4.4
313.0724	3.2
314.0751	2.3
315.0875	31.3
316.0910	4.8
341.0671	20.7
342.0708	3.3
353.0881	46.8
354.0915	7.5
359.0776	64.5
360.0811	10.4
367.1189	2.1
411.1094	2.5
532.1225	1.8
533.1298	46.8
534.1297	10.8
535.1581	9.3

Name: Flopropione
PrecursorMZ: 181.05001
RT: 4.1673
ExactMass: 182.0579088
Spectrum_type: 2
charge: -1
Formula: C9H10O4
SMILES: CCC(=O)C1=C(C=C(C=C1O)O)O
Method: HCD
Collision_energy: [28.333334]
Isolation_window: 4.0
Ion_mode: N
Num Peaks: 70
59.0130	5.3
66.0340	8.6
69.0337	2.5
73.0287	2.4
79.9565	4.7
81.0337	3.6
82.0291	2.7
83.0493	4.0
93.0339	2.7
94.0288	4.3
95.0242	2.4
95.0493	13.3
96.0447	3.6
97.0285	3.2
107.0493	4.8
108.0446	12.7
109.0287	12.9
109.0400	11.6
109.0650	9.4
110.0245	2.6
110.0604	8.8
111.0079	2.5
111.0443	6.0
113.0240	2.6
116.0710	4.1
119.0498	3.2
121.0286	4.4
121.0652	10.3
122.0240	12.2
122.0373	4.3
123.0320	13.0
123.0446	4.7
124.0396	2.4
124.0513	2.4
125.0237	5.3
135.0444	5.6
135.0808	4.8
136.0396	24.2
136.0758	9.9
137.0240	8.5
137.0479	8.1
137.0601	100.0
137.0710	7.0
137.0963	23.5
138.0551	14.2
138.0640	5.7
138.0916	6.8
139.0394	10.7
139.0756	20.9
151.0394	11.6
152.0709	2.5
153.0551	4.0
163.0394	3.0
165.0550	5.2
179.0344	4.2
179.0692	8.9
179.0829	3.5
179.1189	16.2
180.0310	8.6
180.0641	8.1
180.1221	2.5
181.0501	66.6
181.0856	16.6
181.1219	5.4
182.0277	13.6
182.0450	5.0
182.0539	3.4
182.0795	5.8
183.0297	5.3
183.0656	34.3

Name: Flucytosine
PrecursorMZ: 128.02563
RT: 5.596766666666667
ExactMass: 129.03383992
Spectrum_type: 2
charge: -1
Formula: C4H4FN3O
SMILES: C1=NC(=O)NC(=C1F)N
Method: HCD
Collision_energy: [28.333334]
Isolation_window: 4.0
Ion_mode: N
Num Peaks: 3
74.0238	9.4
85.0197	100.0
128.0257	40.6

Name: Formoterol
PrecursorMZ: 343.16612
RT: 1.3016
ExactMass: 344.17360725
Spectrum_type: 2
charge: -1
Formula: C19H24N2O4
SMILES: CC(CC1=CC=C(C=C1)OC)NCC(C2=CC(=C(C=C2)O)NC=O)O
Method: HCD
Collision_energy: [28.333334]
Isolation_window: 4.0
Ion_mode: N
Num Peaks: 24
61.9874	100.0
69.0336	6.3
96.0444	4.9
109.0285	4.8
118.0653	4.3
125.0711	6.1
135.0443	3.6
137.0234	4.7
147.0438	3.1
152.1072	4.7
164.0706	4.3
178.0866	3.6
195.1128	3.4
217.1344	4.5
273.1238	4.7
279.0872	6.3
299.1757	5.2
342.0961	7.0
342.1403	3.7
343.0803	8.1
343.1662	41.2
344.1162	3.4
344.1720	7.1
345.0981	11.7

Name: Furopinnarin
PrecursorMZ: 283.09796
RT: 4.843
ExactMass: 284.10485899
Spectrum_type: 2
charge: -1
Formula: C17H16O4
SMILES: CC(C)(C=C)C1=C2C(=C(C3=C1OC(=O)C=C3)OC)C=CO2
Method: HCD
Collision_energy: [28.333334]
Isolation_window: 4.0
Ion_mode: N
Num Peaks: 10
237.0922	11.3
238.0966	3.9
239.1076	100.0
240.1109	16.6
281.2486	20.2
282.2513	6.9
283.0977	22.1
283.2642	46.9
284.1009	4.1
284.2673	7.9

Name: GI254023X
PrecursorMZ: 390.24002
RT: 2.630933333333333
ExactMass: 391.24710654
Spectrum_type: 2
charge: -1
Formula: C21H33N3O4
SMILES: C[C@@H]([C@@H](CCCC1=CC=CC=C1)C(=O)N[C@H](C(=O)NC)C(C)(C)C)N(C=O)O
Method: HCD
Collision_energy: [28.333334]
Isolation_window: 4.0
Ion_mode: N
Num Peaks: 9
85.0285	13.3
111.0079	16.2
129.1026	11.1
130.0865	70.1
164.0715	10.7
259.1449	10.1
390.2402	100.0
391.1431	12.7
391.2397	21.7

Name: Galactinol
PrecursorMZ: 341.10844
RT: 8.4576
ExactMass: 342.11621151
Spectrum_type: 2
charge: -1
Formula: C12H22O11
SMILES: C([C@@H]1[C@@H]([C@@H]([C@H]([C@H](O1)OC2[C@H]([C@H](C([C@H]([C@@H]2O)O)O)O)O)O)O)O)O
Method: HCD
Collision_energy: [28.333334]
Isolation_window: 4.0
Ion_mode: N
Num Peaks: 51
59.0129	29.8
71.0129	35.8
72.9921	49.2
73.0286	5.0
75.0079	5.4
80.9643	3.7
85.0286	10.8
87.0078	21.1
88.0394	9.3
89.0234	69.2
96.9592	5.7
99.0082	3.8
101.0234	28.8
105.0183	9.7
108.0447	5.8
113.0234	25.9
115.0026	4.7
119.0340	17.7
124.0395	5.2
125.0239	4.1
128.0344	10.4
129.0184	5.9
131.0341	6.4
135.0449	3.8
143.0343	7.3
146.0453	5.1
151.0504	12.9
161.0084	18.1
161.0447	14.8
164.0707	8.0
165.0403	3.8
179.0555	32.0
180.0660	19.1
207.0772	24.9
235.1080	4.3
252.0522	3.9
253.1202	4.3
279.0989	8.3
297.1110	4.8
323.0904	6.1
323.0960	3.8
339.0723	12.3
339.2005	6.0
340.0738	18.9
340.0774	4.7
340.1093	7.9
340.1520	8.6
341.1058	100.0
342.0841	4.1
342.1202	12.2
343.1168	7.3

Name: Galbeta-Cer(d18:1/16:0)
PrecursorMZ: 698.55722
RT: 2.9143
ExactMass: 699.56491841
Spectrum_type: 2
charge: -1
Formula: C40H77NO8
SMILES: CCCCCCCCCCCCCCCC(=O)N[C@@H](CO[C@H]1C([C@H]([C@H](C(O1)CO)O)O)O)[C@@H](/C=C/CCCCCCCCCCCCC)O
Method: HCD
Collision_energy: [28.333334]
Isolation_window: 4.0
Ion_mode: N
Num Peaks: 20
59.0129	76.7
71.0129	45.2
77.6201	3.5
85.0284	7.8
89.0234	100.0
101.0234	48.9
113.0234	25.4
119.0340	43.8
131.0339	3.4
143.0338	4.7
161.0446	6.4
179.0552	19.0
237.2216	4.1
255.2321	4.0
280.2642	9.5
536.5048	13.2
537.5106	3.6
698.5581	85.1
699.5631	34.2
700.5707	16.2

Name: Gambogenic Acid
PrecursorMZ: 629.31164
RT: 4.888166666666667
ExactMass: 630.31926842
Spectrum_type: 2
charge: -1
Formula: C38H46O8
SMILES: CC(=CCC/C(=C/CC1=C(C(=C2C(=C1O)C(=O)C3=C[C@@H]4C[C@@H]5[C@@]3(O2)[C@](C4=O)(OC5(C)C)C/C=C(/C)\C(=O)O)CC=C(C)C)O)/C)C
Method: HCD
Collision_energy: [28.333334]
Isolation_window: 4.0
Ion_mode: N
Num Peaks: 8
134.0969	14.7
245.1657	33.3
247.1812	20.4
259.1818	26.2
291.1718	50.1
549.3458	29.5
593.3357	100.0
594.3406	32.5

Name: Gamma-Aminobutyric Acid
PrecursorMZ: 102.05499
RT: 7.1385
ExactMass: 103.06332853
Spectrum_type: 2
charge: -1
Formula: C4H9NO2
SMILES: C(CC(=O)O)CN
Method: HCD
Collision_energy: [28.333334]
Isolation_window: 4.0
Ion_mode: N
Num Peaks: 7
57.0337	3.7
59.0129	2.5
73.0285	2.4
84.0445	13.1
101.0236	2.9
102.0550	100.0
103.0584	4.7

Name: Gamma-Glutamylalanine
PrecursorMZ: 217.08266
RT: 4.8571
ExactMass: 218.09027155
Spectrum_type: 2
charge: -1
Formula: C8H14N2O5
SMILES: C[C@@H](C(=O)O)NC(=O)CC[C@@H](C(=O)O)N
Method: HCD
Collision_energy: [28.333334]
Isolation_window: 4.0
Ion_mode: N
Num Peaks: 15
87.0555	13.4
88.0395	84.2
89.0427	2.6
102.0551	6.5
128.0345	33.1
129.0382	2.2
129.1025	20.3
146.0446	2.8
155.0819	10.8
173.0925	47.2
174.0963	3.3
199.0719	47.8
200.0754	4.5
217.0827	100.0
218.0857	10.3

Name: Gamma-Glutamylglutamine
PrecursorMZ: 274.10439
RT: 8.680325
ExactMass: 275.11173527
Spectrum_type: 2
charge: -1
Formula: C10H17N3O6
SMILES: C(CC(=O)N[C@@H](CCC(=O)N)C(=O)O)[C@@H](C(=O)O)N
Method: HCD
Collision_energy: [28.333334]
Isolation_window: 4.0
Ion_mode: N
Num Peaks: 35
59.0130	7.2
71.0130	8.3
85.0285	3.6
87.0078	3.5
88.0394	5.3
89.0233	4.5
98.0238	32.0
101.0235	9.6
109.0285	3.5
110.0351	23.4
112.0508	18.4
113.0235	3.7
127.0504	10.2
128.0346	12.6
135.0445	4.7
138.0302	14.3
145.0612	23.7
152.0458	12.8
154.0615	100.0
155.0653	5.3
166.0617	8.6
173.0925	12.0
184.0723	17.6
194.0933	5.9
203.1035	5.6
230.1141	3.6
231.0664	3.4
238.0828	4.7
256.0946	13.7
273.0784	3.6
273.1147	3.7
274.0487	2.9
274.1049	34.1
275.0550	5.4
275.1274	12.6

Name: Geniposidic Acid
PrecursorMZ: 373.11364
RT: 7.3679
ExactMass: 374.12129689
Spectrum_type: 2
charge: -1
Formula: C16H22O10
SMILES: C1C=C([C@@H]2[C@H]1C(=CO[C@H]2O[C@H]3[C@@H]([C@H]([C@@H]([C@H](O3)CO)O)O)O)C(=O)O)CO
Method: HCD
Collision_energy: [28.333334]
Isolation_window: 4.0
Ion_mode: N
Num Peaks: 19
59.0129	8.6
71.0129	8.9
87.0076	7.8
89.0234	14.5
93.0335	5.7
101.0234	14.7
113.0234	7.7
119.0340	5.5
123.0442	100.0
124.0471	6.2
149.0600	54.8
150.0635	5.3
167.0706	22.7
211.0604	45.3
371.2134	9.9
373.1146	37.1
373.1850	14.1
374.1144	7.7
375.1017	5.9

Name: Genistein
PrecursorMZ: 269.04547
RT: 3.1688
ExactMass: 270.05282342
Spectrum_type: 2
charge: -1
Formula: C15H10O5
SMILES: C1=CC(=CC=C1C2=COC3=CC(=CC(=C3C2=O)O)O)O
Method: HCD
Collision_energy: [28.333334]
Isolation_window: 4.0
Ion_mode: N
Num Peaks: 7
197.0603	13.8
241.0505	100.0
242.0539	11.3
267.1582	6.1
269.0457	62.7
269.1762	17.8
270.0501	8.9

Name: Gentisic Acid 5-O-Beta-Dglucopyranoside
PrecursorMZ: 315.07203
RT: 6.2344
ExactMass: 316.07943208
Spectrum_type: 2
charge: -1
Formula: C13H16O9
SMILES: C1=CC(=C(C=C1O[C@H]2[C@@H]([C@H]([C@@H]([C@H](O2)CO)O)O)O)C(=O)O)O
Method: HCD
Collision_energy: [28.333334]
Isolation_window: 4.0
Ion_mode: N
Num Peaks: 24
71.0129	2.7
85.0286	2.6
95.0128	1.3
101.0235	1.7
108.0207	34.1
109.0289	14.5
113.0233	1.3
114.0548	1.2
151.0393	2.1
152.0106	64.0
153.0186	28.9
154.0228	1.7
163.0389	1.6
165.0185	2.5
184.0606	1.4
200.1399	1.1
313.1674	2.7
314.1252	4.0
314.1701	1.3
315.0719	100.0
315.1689	3.5
316.0751	13.7
317.0769	1.9
317.1967	1.6

Name: Gibberellin A1
PrecursorMZ: 347.1497
RT: 4.9909
ExactMass: 348.15728848
Spectrum_type: 2
charge: -1
Formula: C19H24O6
SMILES: C[C@@]12[C@H](CC[C@@]3([C@@H]1[C@@H]([C@]45[C@H]3CC[C@](C4)(C(=C)C5)O)C(=O)O)OC2=O)O
Method: HCD
Collision_energy: [28.333334]
Isolation_window: 4.0
Ion_mode: N
Num Peaks: 30
59.0129	5.4
73.0285	4.3
87.0442	3.6
96.9591	4.4
114.0549	5.6
157.0863	4.4
171.1019	8.0
201.1127	16.2
202.1161	4.7
241.1590	7.9
259.1704	12.8
271.1447	8.6
273.1126	7.6
285.1494	5.4
287.1392	3.8
303.1604	11.2
315.1351	23.1
316.1394	3.7
329.1399	4.6
345.2278	67.6
346.1438	3.4
346.2315	36.5
347.1506	100.0
347.2417	23.1
348.1165	3.8
348.1545	20.6
348.2451	4.1
349.1361	3.6
349.1654	4.0
349.2024	13.7

Name: Gibberellin A12
PrecursorMZ: 331.19141
RT: 1.5291
ExactMass: 332.19875937
Spectrum_type: 2
charge: -1
Formula: C20H28O4
SMILES: C[C@@]12CCC[C@@]([C@H]1[C@@H]([C@]34[C@H]2CC[C@H](C3)C(=C)C4)C(=O)O)(C)C(=O)O
Method: HCD
Collision_energy: [28.333334]
Isolation_window: 4.0
Ion_mode: N
Num Peaks: 4
287.2015	97.8
288.2054	24.6
331.1924	100.0
332.2014	19.7

Name: Gibberellin A14
PrecursorMZ: 347.1866
RT: 2.1532
ExactMass: 348.19367399
Spectrum_type: 2
charge: -1
Formula: C20H28O5
SMILES: C[C@@]12CC[C@@H]([C@@]([C@H]1[C@@H]([C@]34[C@H]2CC[C@H](C3)C(=C)C4)C(=O)O)(C)C(=O)O)O
Method: HCD
Collision_energy: [28.333334]
Isolation_window: 4.0
Ion_mode: N
Num Peaks: 41
59.0129	2.7
61.9875	11.1
71.0130	3.8
73.0287	1.3
85.0285	1.6
87.0079	1.4
89.0236	1.5
94.0289	1.4
101.0235	1.8
109.0286	1.6
113.0236	2.0
114.0551	1.1
128.0346	1.1
135.0440	1.3
138.0549	1.4
143.0343	14.9
148.0760	1.7
161.0447	2.0
198.0769	1.1
259.1172	1.3
289.1201	2.0
301.1805	3.3
302.1806	2.6
303.1969	25.1
304.1011	1.9
304.2008	4.8
305.0871	10.1
319.1916	7.5
331.1281	1.7
335.1876	2.1
345.1909	2.5
346.1056	2.2
346.1660	1.3
347.1173	2.6
347.1863	100.0
348.0988	2.9
348.1518	1.3
348.1898	22.0
349.0949	2.7
349.1403	3.3
349.2023	42.0

Name: Gibberellin A4
PrecursorMZ: 331.15524
RT: 3.1203
ExactMass: 332.16237386
Spectrum_type: 2
charge: -1
Formula: C19H24O5
SMILES: C[C@@]12[C@H](CC[C@@]3([C@@H]1[C@@H]([C@]45[C@H]3CC[C@H](C4)C(=C)C5)C(=O)O)OC2=O)O
Method: HCD
Collision_energy: [28.333334]
Isolation_window: 4.0
Ion_mode: N
Num Peaks: 20
59.0130	4.8
79.9565	6.3
80.9643	25.3
87.0079	4.1
96.9592	6.1
287.1654	19.8
288.1696	3.7
289.1199	6.3
329.2350	5.3
330.0953	5.7
331.0586	8.6
331.1216	28.4
331.1558	100.0
331.6238	9.1
332.0451	15.1
332.1194	10.1
332.1594	20.2
333.0999	3.4
333.1400	4.3
333.1760	4.6

Name: Gibberellin A54
PrecursorMZ: 347.1501
RT: 2.7938
ExactMass: 348.15728848
Spectrum_type: 2
charge: -1
Formula: C19H24O6
SMILES: CC12C(CC(C3(C1C(C45C3CCC(C4)C(=C)C5)C(=O)O)OC2=O)O)O
Method: HCD
Collision_energy: [28.333334]
Isolation_window: 4.0
Ion_mode: N
Num Peaks: 4
259.1710	7.4
303.1611	12.0
347.1511	100.0
348.1544	28.9

Name: Gibberellin A7
PrecursorMZ: 375.14501
RT: 6.43355
ExactMass: 330.1467238
Spectrum_type: 2
charge: -1
Formula: C19H22O5
SMILES: C[C@@]12[C@H](C=C[C@@]3([C@@H]1[C@@H]([C@]45[C@H]3CC[C@H](C4)C(=C)C5)C(=O)O)OC2=O)O
Method: HCD
Collision_energy: [28.333334]
Isolation_window: 4.0
Ion_mode: N
Num Peaks: 8
208.0606	9.6
287.1653	100.0
288.1688	21.7
331.1553	61.0
332.1595	10.6
375.1449	81.2
376.1498	17.4
377.1576	9.0

Name: Gibberellin A8
PrecursorMZ: 363.14518
RT: 1.4289
ExactMass: 364.1522031
Spectrum_type: 2
charge: -1
Formula: C19H24O7
SMILES: C[C@]12[C@H]3[C@@H]([C@@]45CC(=C)[C@@](C4)(CC[C@H]5[C@@]3(C[C@@H]([C@@H]1O)O)OC2=O)O)C(=O)O
Method: HCD
Collision_energy: [28.333334]
Isolation_window: 4.0
Ion_mode: N
Num Peaks: 16
58.0052	18.4
59.0129	6.5
61.9874	24.1
119.0858	16.9
159.0810	6.9
239.1441	5.6
257.1547	29.1
275.1654	65.8
276.1681	8.8
319.1555	18.1
361.1647	5.7
361.2237	6.9
363.1455	100.0
364.1487	24.6
365.1970	21.4
365.2349	8.0

Name: Ginkgolide A
PrecursorMZ: 407.13431
RT: 7.8294
ExactMass: 408.14203234
Spectrum_type: 2
charge: -1
Formula: C20H24O9
SMILES: C[C@@H]1C(=O)O[C@@H]2[C@]1([C@@]34C(=O)O[C@H]5[C@]3(C2)[C@@]6([C@@H](C5)C(C)(C)C)[C@H](C(=O)O[C@H]6O4)O)O
Method: HCD
Collision_energy: [28.333334]
Isolation_window: 4.0
Ion_mode: N
Num Peaks: 4
291.1234	13.2
335.1114	12.5
407.1346	100.0
408.1373	24.0

Name: Ginkgolide B
PrecursorMZ: 423.1297
RT: 2.6544
ExactMass: 424.13694696
Spectrum_type: 2
charge: -1
Formula: C20H24O10
SMILES: C[C@@H]1C(=O)O[C@@H]2[C@]1([C@@]34C(=O)O[C@H]5[C@]3([C@@H]2O)[C@@]6([C@@H](C5)C(C)(C)C)[C@H](C(=O)O[C@H]6O4)O)O
Method: HCD
Collision_energy: [28.333334]
Isolation_window: 4.0
Ion_mode: N
Num Peaks: 47
59.0128	2.9
85.0285	2.0
87.0077	2.0
87.0441	1.9
109.0283	2.0
113.0232	1.7
115.0390	1.4
123.0442	1.3
125.0233	2.9
129.0547	1.2
131.0341	5.1
135.0443	3.9
137.0236	3.4
137.0599	5.8
149.0599	3.4
155.0342	4.0
157.0501	2.4
167.0710	1.3
169.0498	8.5
175.0755	2.0
179.0343	3.6
181.0499	41.8
182.0534	4.4
187.0606	2.0
189.0547	1.5
197.0820	1.1
211.0604	6.5
217.0861	1.7
229.0711	17.0
230.0736	1.8
235.0603	3.0
241.0701	2.4
245.0822	1.1
261.1132	5.3
262.1173	1.1
301.1085	1.2
319.0833	1.1
323.1136	2.0
345.0983	2.2
363.1088	5.2
405.1193	8.9
406.1238	2.2
421.1129	5.9
422.1138	4.1
423.1302	100.0
424.1335	20.3
425.1352	3.0

Name: Ginnalin B
PrecursorMZ: 315.07226
RT: 8.0623
ExactMass: 316.07943208
Spectrum_type: 2
charge: -1
Formula: C13H16O9
SMILES: C1[C@@H]([C@H]([C@@H]([C@H](O1)COC(=O)C2=CC(=C(C(=C2)O)O)O)O)O)O
Method: HCD
Collision_energy: [28.333334]
Isolation_window: 4.0
Ion_mode: N
Num Peaks: 164
59.0130	18.7
69.0337	1.3
71.0130	11.2
72.9923	6.0
73.0285	2.5
74.0238	2.4
75.0079	2.0
78.9582	2.2
79.9565	7.7
80.9643	15.2
81.0338	1.4
83.0494	2.8
84.0446	1.6
85.0286	9.5
86.0240	1.8
87.0079	16.1
88.0396	3.0
89.0235	17.4
91.0392	49.7
92.0426	1.6
93.0337	25.7
94.0290	2.7
94.0370	1.6
95.0494	1.6
96.0082	2.6
96.0447	1.5
97.0286	3.1
97.0651	1.4
98.0239	2.4
98.0602	1.4
99.0079	2.5
99.0443	3.0
100.0032	1.2
100.0393	1.8
101.0235	2.6
102.0552	4.6
105.0186	1.6
107.0494	3.6
108.0447	4.9
109.0287	5.8
109.0399	4.4
109.0651	1.6
110.0240	3.4
110.0603	1.6
110.9845	2.2
111.0082	2.0
111.0443	8.0
112.0397	2.2
113.0236	2.3
114.0189	2.0
114.0552	7.0
115.0029	8.9
115.0392	1.5
116.0709	7.0
120.0810	1.3
121.0651	2.7
122.0604	1.5
123.0444	4.5
123.0556	2.3
124.0396	4.6
124.0760	2.0
125.0237	2.6
125.0348	1.5
125.0599	3.4
126.0551	2.0
127.0396	4.4
127.0500	1.9
128.0346	8.3
129.0184	1.4
130.0868	1.8
131.0343	1.3
135.0444	100.0
136.0392	2.1
136.0479	7.9
136.0753	1.7
137.0237	2.3
137.0599	2.1
138.0553	2.7
139.0394	2.7
139.0507	1.4
139.0756	1.6
141.0187	1.6
142.0504	1.7
142.0865	1.6
144.0659	2.1
146.0452	6.5
149.0601	3.5
150.0550	1.4
151.0393	5.9
152.0346	1.5
152.0471	5.1
152.0708	1.8
153.0552	16.2
153.0662	1.7
154.0489	2.5
154.0602	1.2
155.0343	2.3
157.0499	3.4
164.0706	2.1
165.0549	1.3
166.0502	1.5
167.0340	1.6
171.0771	3.4
173.0451	4.8
179.0342	2.7
180.0659	1.2
181.0497	1.6
183.0783	1.8
184.0598	2.1
186.0401	1.7
186.0765	1.2
191.0558	5.8
196.0376	1.3
196.0608	1.5
197.0448	1.5
198.0402	1.4
198.0762	13.5
199.0727	1.7
199.0745	1.7
207.1751	4.7
210.0770	1.5
214.0709	4.7
227.0674	1.4
227.0921	2.0
235.1705	1.7
239.1153	1.8
241.1223	2.2
251.1652	5.7
251.2382	5.9
252.2412	1.7
253.1797	1.8
254.1055	1.4
269.1758	5.1
270.0998	3.1
271.0818	21.9
272.0829	2.8
272.0853	3.2
272.1149	1.2
295.1566	2.5
295.2275	3.0
296.0862	1.2
296.1241	1.6
297.1723	2.8
298.0983	1.4
313.0969	3.4
313.1011	3.1
313.1412	1.5
313.1687	15.6
313.2384	11.2
314.0569	4.3
314.0908	10.3
314.1314	6.7
314.1707	4.8
314.2404	3.5
315.0721	74.0
315.1191	5.6
315.1255	5.1
315.1830	8.5
315.2524	4.0
316.0741	10.5
316.1091	6.6
317.0469	2.2
317.0844	6.0
317.1344	2.5

Name: Ginnalin C
PrecursorMZ: 315.07234
RT: 3.5945
ExactMass: 316.07943208
Spectrum_type: 2
charge: -1
Formula: C13H16O9
SMILES: C1[C@@H]([C@H]([C@@H]([C@H](O1)CO)O)O)OC(=O)C2=CC(=C(C(=C2)O)O)O
Method: HCD
Collision_energy: [28.333334]
Isolation_window: 4.0
Ion_mode: N
Num Peaks: 89
58.0401	0.9
59.0129	6.6
61.9875	9.2
67.0178	1.1
71.0129	9.9
72.9921	1.9
73.0286	1.3
75.0077	0.9
81.0335	1.3
83.0492	1.7
85.0286	5.9
87.0078	3.7
88.0395	2.9
89.0235	9.0
91.0392	5.9
93.0336	15.1
94.0370	0.9
97.0286	3.8
98.0238	1.1
99.0080	1.5
99.0442	2.0
101.0238	1.8
102.0549	0.9
108.0448	1.5
109.0286	4.1
111.0443	9.4
112.0394	1.0
113.0237	2.6
114.0186	1.2
114.0551	1.2
115.0028	2.3
123.0443	1.9
124.0398	1.4
125.0234	1.3
125.0598	0.9
127.0393	5.9
128.0344	4.1
131.0340	1.8
135.0444	11.1
137.0230	1.5
137.0600	1.0
139.0395	1.9
139.0753	0.9
141.0187	4.7
141.0552	3.6
145.0977	2.0
148.0398	3.9
149.0452	1.6
151.0390	1.2
151.0504	1.1
153.0553	2.6
155.0342	2.2
157.0501	1.9
165.0546	1.0
173.0449	18.0
174.0491	1.4
181.0496	1.2
181.1089	1.1
185.0448	0.9
187.0721	2.8
191.0554	12.6
192.0596	0.9
198.0761	3.6
208.0729	5.3
229.0346	1.9
254.1134	1.2
270.1001	1.1
271.0822	28.1
272.0856	3.6
275.1152	4.0
297.0599	1.4
298.1020	1.4
298.1389	0.9
313.0565	1.1
313.0920	2.3
313.1135	1.9
313.1643	1.0
314.0898	6.9
314.1351	2.4
314.1757	1.0
315.0723	100.0
315.1022	2.2
315.1465	5.1
316.0753	15.1
316.1081	2.8
316.1497	2.8
317.0532	1.4
317.0870	4.8
317.1351	1.9

Name: Glu-Thr
PrecursorMZ: 247.09345
RT: 4.7765
ExactMass: 248.10083623
Spectrum_type: 2
charge: -1
Formula: C9H16N2O6
SMILES: C[C@H]([C@@H](C(=O)O)NC(=O)[C@H](CCC(=O)O)N)O
Method: HCD
Collision_energy: [28.333334]
Isolation_window: 4.0
Ion_mode: N
Num Peaks: 32
73.0398	3.5
74.0238	10.4
98.0239	4.5
99.9249	21.7
100.9250	2.7
100.9327	4.9
102.0552	11.9
115.0869	5.3
115.9198	100.0
116.9199	12.0
116.9277	27.3
117.9185	2.4
117.9276	2.8
118.0501	26.8
128.0344	31.3
141.0662	6.1
144.0660	2.4
146.0450	5.8
159.0768	25.6
183.9701	20.0
184.9702	2.9
185.0561	19.8
202.1076	2.3
203.0671	10.0
203.1029	3.2
215.9603	4.6
227.9594	3.8
229.0828	12.0
245.9710	2.3
246.0977	8.2
247.0934	67.8
248.0966	7.7

Name: Glucaric Acid
PrecursorMZ: 209.02998
RT: 4.1805
ExactMass: 210.03756727
Spectrum_type: 2
charge: -1
Formula: C6H10O8
SMILES: [C@H]([C@@H]([C@@H](C(=O)O)O)O)([C@H](C(=O)O)O)O
Method: HCD
Collision_energy: [28.333334]
Isolation_window: 4.0
Ion_mode: N
Num Peaks: 29
59.0129	11.5
71.0129	8.9
79.9563	5.4
80.9642	58.6
84.0445	7.0
85.0286	100.0
87.0078	5.0
89.0236	8.5
103.0028	16.6
120.0443	5.8
121.0287	8.3
121.0649	7.1
123.0440	6.2
128.0346	54.9
129.0184	13.4
133.0135	13.5
147.0291	7.5
165.0549	25.7
166.0489	6.9
167.0343	7.6
191.0192	42.3
207.9909	6.1
208.0644	50.4
209.0106	7.1
209.0295	81.8
209.0457	5.9
210.0074	79.6
210.0374	6.8
211.0265	11.7

Name: Gluconapin
PrecursorMZ: 372.04266
RT: 5.594
ExactMass: 373.05012353
Spectrum_type: 2
charge: -1
Formula: C11H19NO9S2
SMILES: C=CCC/C(=N\OS(=O)(=O)O)/S[C@H]1[C@@H]([C@H]([C@@H]([C@H](O1)CO)O)O)O
Method: HCD
Collision_energy: [28.333334]
Isolation_window: 4.0
Ion_mode: N
Num Peaks: 11
74.9900	52.1
79.9565	10.5
95.9513	47.5
96.9591	100.0
130.0499	5.9
371.2432	9.5
372.0427	98.0
373.0466	13.4
373.2214	4.8
373.2629	5.9
374.0403	4.6

Name: Gluconic Acid
PrecursorMZ: 195.05051
RT: 3.3902
ExactMass: 196.05830272
Spectrum_type: 2
charge: -1
Formula: C6H12O7
SMILES: C([C@H]([C@H]([C@@H]([C@H](C(=O)O)O)O)O)O)O
Method: HCD
Collision_energy: [28.333334]
Isolation_window: 4.0
Ion_mode: N
Num Peaks: 73
59.0130	5.0
71.0129	3.2
72.9922	1.8
73.0286	0.8
75.0079	37.2
76.0113	0.8
80.9643	0.9
81.0337	0.5
83.0130	0.5
83.0494	0.8
85.0286	3.4
87.0079	8.9
89.0235	4.4
94.0289	4.9
97.0286	0.6
99.0079	9.2
101.0235	1.8
103.0028	6.1
106.0652	0.8
107.0493	2.1
108.0449	1.0
109.0286	2.3
110.0239	9.0
111.0082	0.6
113.0236	0.6
114.0553	0.5
115.0391	0.7
122.0604	0.4
123.0444	0.5
125.0236	1.3
127.0398	0.6
127.0506	1.6
129.0185	38.2
130.0218	2.4
134.0363	0.6
135.0112	1.9
136.0523	0.6
140.0462	0.7
141.0188	0.6
149.0601	0.8
150.0553	9.8
151.0395	1.7
151.0595	0.9
151.0758	1.7
151.0878	0.4
152.0346	1.2
152.0711	0.9
152.0810	0.6
152.9857	2.1
153.0185	0.8
153.0551	1.5
153.0915	2.4
154.0614	1.1
159.0292	3.0
175.0606	0.8
175.0760	0.7
177.0401	5.1
177.0559	0.8
178.0270	0.5
180.0277	0.8
193.0341	0.7
193.0510	0.5
193.0709	0.8
193.0862	4.0
194.0462	2.3
194.0809	0.5
195.0130	0.7
195.0304	3.4
195.0505	100.0
196.0137	0.8
196.0536	6.7
197.0096	0.7
197.0672	0.8

Name: Gluconolactone
PrecursorMZ: 177.03995
RT: 2.0311
ExactMass: 178.04773803
Spectrum_type: 2
charge: -1
Formula: C6H10O6
SMILES: C([C@@H]1[C@H]([C@@H]([C@H](C(=O)O1)O)O)O)O
Method: HCD
Collision_energy: [28.333334]
Isolation_window: 4.0
Ion_mode: N
Num Peaks: 74
57.0337	9.1
59.0130	32.2
69.0338	7.4
71.0129	22.5
72.9922	62.5
73.0286	40.4
75.0079	32.9
79.9564	5.4
83.0129	10.5
85.0286	37.2
86.0238	11.2
87.0078	35.7
87.0442	28.7
88.0395	15.2
89.0235	17.8
90.9226	8.2
94.0289	14.2
98.0239	13.6
99.0077	6.2
99.0441	7.8
101.0236	30.2
101.0599	5.4
104.0346	6.4
105.0006	9.3
107.0492	8.0
108.9332	20.1
113.0234	6.5
113.0600	5.9
115.0391	31.6
116.0166	9.3
117.0185	59.5
117.0550	7.1
125.0233	6.5
129.0187	6.2
129.0913	5.8
130.0502	24.9
131.0342	43.9
131.0706	4.9
133.0290	4.9
133.0502	8.6
133.0652	11.1
134.0603	18.6
135.0306	14.5
135.0444	53.9
135.0556	22.1
147.0444	15.5
149.0601	5.2
157.0500	5.1
157.0862	14.8
159.0449	5.7
162.0321	6.5
175.0240	7.0
175.0396	7.4
175.0614	68.0
175.0759	8.2
175.0972	71.5
175.1155	6.1
176.0358	7.2
176.0561	82.9
176.0699	9.2
176.1006	8.9
177.0196	100.0
177.0400	73.3
177.0555	45.0
177.0764	36.3
177.0911	6.6
178.0231	6.9
178.0494	27.6
178.0861	17.6
178.8434	14.3
178.9028	4.8
179.0344	62.6
179.0560	27.7
179.0709	15.9

Name: Glucose, (L)-
PrecursorMZ: 225.0609
RT: 3.8372
ExactMass: 180.0633881
Spectrum_type: 2
charge: -1
Formula: C6H12O6
SMILES: C([C@@H]([C@@H]([C@H]([C@@H](C=O)O)O)O)O)O
Method: HCD
Collision_energy: [28.333334]
Isolation_window: 4.0
Ion_mode: N
Num Peaks: 19
59.0130	46.3
71.0129	38.5
72.0164	3.6
75.0079	4.2
80.9642	3.6
85.0285	3.7
87.0078	3.7
89.0234	100.0
90.0267	8.9
101.0234	24.2
112.0507	5.6
113.0235	22.5
119.0341	33.5
136.0871	3.9
143.0341	3.8
161.0449	5.2
179.0555	16.5
226.0385	7.0
226.1095	3.4

Name: Glucose-6-Phosphate
PrecursorMZ: 259.02235
RT: 9.3373
ExactMass: 260.02971899
Spectrum_type: 2
charge: -1
Formula: C6H13O9P
SMILES: C([C@H]([C@H]([C@@H]([C@H](C=O)O)O)O)O)OP(=O)(O)O
Method: HCD
Collision_energy: [28.333334]
Isolation_window: 4.0
Ion_mode: N
Num Peaks: 7
71.0129	17.5
78.9581	25.6
96.9687	100.0
128.0346	15.4
166.9742	15.6
259.0219	13.5
259.1312	11.3

Name: Glutamic Acid + Cholic Acid
PrecursorMZ: 536.32266
RT: 5.9034
ExactMass: 537.33016746
Spectrum_type: 2
charge: -1
Formula: C29H47NO8
SMILES: C[C@H](CCC(=O)N[C@@H](CCC(=O)O)C(=O)O)[C@H]1CC[C@@H]2[C@@]1([C@H](C[C@H]3[C@H]2[C@@H](C[C@H]4[C@@]3(CC[C@H](C4)O)C)O)O)C
Method: HCD
Collision_energy: [28.333334]
Isolation_window: 4.0
Ion_mode: N
Num Peaks: 12
59.5932	3.8
102.0552	7.3
128.0345	38.7
146.0452	6.5
193.0498	2.9
407.2801	26.7
408.2828	6.5
492.3353	6.2
535.3294	13.2
536.3234	100.0
537.3303	36.2
538.3353	4.7

Name: Glutamic Acid + HDCA
PrecursorMZ: 520.32731
RT: 5.5631
ExactMass: 521.33525284
Spectrum_type: 2
charge: -1
Formula: C29H47NO7
SMILES: C[C@H](CCC(=O)N[C@@H](CCC(=O)O)C(=O)O)[C@H]1CC[C@@H]2[C@@]1(CC[C@H]3[C@H]2C[C@@H]([C@H]4[C@@]3(CC[C@H](C4)O)C)O)C
Method: HCD
Collision_energy: [28.333334]
Isolation_window: 4.0
Ion_mode: N
Num Peaks: 17
57.8125	2.0
57.8158	4.3
102.0550	7.6
128.0343	37.5
129.0375	1.9
146.0450	6.3
391.2852	25.3
392.2886	6.6
476.3390	7.8
477.3416	2.2
502.3157	2.9
518.3187	2.9
519.3309	15.0
520.1940	1.7
520.3281	100.0
521.3317	32.2
522.3345	4.6

Name: Glutamic Acid + betaMCA
PrecursorMZ: 536.32261
RT: 6.0425
ExactMass: 537.33016746
Spectrum_type: 2
charge: -1
Formula: C29H47NO8
SMILES: C[C@H](CCC(=O)N[C@@H](CCC(=O)O)C(=O)O)[C@H]1CC[C@@H]2[C@@]1(CC[C@H]3[C@H]2[C@H]([C@H]([C@H]4[C@@]3(CC[C@H](C4)O)C)O)O)C
Method: HCD
Collision_energy: [28.333334]
Isolation_window: 4.0
Ion_mode: N
Num Peaks: 12
59.5931	4.4
102.0551	7.9
128.0344	38.4
146.0452	6.2
407.2800	31.5
408.2833	8.0
492.3330	7.6
518.3143	4.5
535.3281	9.4
536.3229	100.0
537.3278	37.5
538.3307	6.1

Name: Glutamyl-valyl-phenylalanine
PrecursorMZ: 392.18309
RT: 6.0886
ExactMass: 393.18998559
Spectrum_type: 2
charge: -1
Formula: C19H27N3O6
SMILES: CC(C)[C@@H](C(=O)N[C@@H](CC1=CC=CC=C1)C(=O)O)NC(=O)[C@H](CCC(=O)O)N
Method: HCD
Collision_energy: [28.333334]
Isolation_window: 4.0
Ion_mode: N
Num Peaks: 8
116.0709	23.7
127.0505	38.3
128.0344	58.0
164.0710	99.4
226.1190	22.6
227.1039	34.3
374.1724	84.5
392.1846	100.0

Name: Glutamyltyrosine
PrecursorMZ: 309.10925
RT: 8.1887
ExactMass: 310.1164863
Spectrum_type: 2
charge: -1
Formula: C14H18N2O6
SMILES: C1=CC(=CC=C1C[C@@H](C(=O)O)NC(=O)CC[C@@H](C(=O)O)N)O
Method: HCD
Collision_energy: [28.333334]
Isolation_window: 4.0
Ion_mode: N
Num Peaks: 13
69.7379	7.7
85.0285	6.6
87.0079	42.9
89.0235	7.6
127.0507	18.0
128.0346	100.0
129.0188	6.6
167.0458	15.3
180.0664	43.1
291.0989	22.8
309.1133	13.5
311.0992	11.9
311.1683	13.0

Name: Glutaric Acid
PrecursorMZ: 131.03406
RT: 4.0748
ExactMass: 132.04225873
Spectrum_type: 2
charge: -1
Formula: C5H8O4
SMILES: C(CC(=O)O)CC(=O)O
Method: HCD
Collision_energy: [28.333334]
Isolation_window: 4.0
Ion_mode: N
Num Peaks: 5
87.0442	100.0
88.0476	5.1
113.0235	9.3
131.0341	46.2
132.0375	2.5

Name: GlyTouCan:G20889RB
PrecursorMZ: 571.28898
RT: 4.8401
ExactMass: 572.29616399
Spectrum_type: 2
charge: -1
Formula: C25H49O12P
SMILES: CCCCCCCCCCCCCCCC(=O)OC[C@H](COP(=O)(O)OC1[C@@H]([C@H](C([C@H]([C@H]1O)O)O)O)O)O
Method: HCD
Collision_energy: [28.333334]
Isolation_window: 4.0
Ion_mode: N
Num Peaks: 22
63.4747	2.1
63.4785	4.4
78.9581	10.9
96.9592	1.8
96.9686	3.3
152.9952	52.0
153.9983	1.5
223.0009	2.2
241.0117	35.8
241.2175	2.1
242.0151	2.5
255.2329	76.9
256.2364	12.1
315.0487	15.7
316.0513	1.3
391.2259	3.7
569.4107	2.6
570.4180	1.7
571.2893	100.0
571.4335	1.3
572.2933	24.7
573.2954	3.5

Name: GlyTouCan:G43769AW
PrecursorMZ: 341.109
RT: 11.1184
ExactMass: 342.11621151
Spectrum_type: 2
charge: -1
Formula: C12H22O11
SMILES: C1[C@H]([C@H]([C@@H](C(O1)(CO)O)O[C@@H]2[C@@H]([C@H]([C@@H]([C@H](O2)CO)O)O)O)O)O
Method: HCD
Collision_energy: [28.333334]
Isolation_window: 4.0
Ion_mode: N
Num Peaks: 12
59.0130	15.1
71.0130	17.4
89.0235	34.2
101.0235	11.7
113.0235	8.8
119.0342	11.9
161.0450	5.2
179.0556	14.7
339.3269	100.0
340.3303	33.1
341.1090	28.5
343.0837	5.0

Name: GlyTouCan:G76616MW
PrecursorMZ: 211.08189
RT: 8.80255
ExactMass: 212.08960285
Spectrum_type: 2
charge: -1
Formula: C7H16O7
SMILES: C([C@H]([C@H](C([C@@H]([C@H](CO)O)O)O)O)O)O
Method: HCD
Collision_energy: [28.333334]
Isolation_window: 4.0
Ion_mode: N
Num Peaks: 86
59.0130	28.3
66.0339	6.1
69.0337	4.4
71.0130	30.0
72.9922	9.2
73.0286	12.3
79.9564	14.0
80.9643	22.1
82.0288	4.5
83.0494	5.6
84.0446	18.0
85.0286	21.3
87.0078	8.7
89.0235	35.2
94.0289	10.2
95.0492	4.8
96.9592	20.1
97.0286	42.1
98.0238	4.6
99.0078	23.1
101.0235	46.5
107.0493	6.8
108.0449	4.9
109.0286	9.2
110.0240	9.4
111.0080	5.7
111.0442	6.0
112.0396	7.9
113.0236	10.8
114.0549	4.9
115.0389	6.1
119.0341	13.3
122.0603	10.0
123.0445	18.1
123.0555	7.5
123.0808	9.0
124.0397	10.2
125.0245	7.5
125.0342	7.4
125.0601	7.5
125.0965	5.0
128.0344	8.3
131.0343	9.8
132.0294	17.2
135.0444	10.0
136.9907	5.9
137.0601	5.7
138.0550	6.1
139.0394	7.0
140.0710	4.5
149.0461	6.2
149.0601	11.3
150.0553	5.9
151.0394	7.9
151.0761	5.5
152.0337	4.9
165.0549	5.7
166.0180	6.5
166.0498	8.6
166.0863	8.4
167.0343	10.9
167.0707	13.2
167.0824	8.8
168.0653	10.5
168.1018	6.9
169.0496	4.4
169.0864	6.0
183.0667	6.0
192.9807	5.1
193.0712	20.9
194.9960	8.1
209.0454	7.6
209.0807	4.8
210.0073	10.4
210.0748	12.0
210.9912	16.0
211.0259	5.6
211.0611	19.0
211.0820	100.0
211.9861	7.3
212.0549	10.0
212.0921	25.7
213.0060	14.3
213.0400	7.9
213.0736	18.7
213.1136	5.3

Name: GlyTouCan:G84153JO
PrecursorMZ: 835.53441
RT: 18.6077
ExactMass: 836.54147963
Spectrum_type: 2
charge: -1
Formula: C43H81O13P
SMILES: CCCCCCCCCCCCCCCCCC(=O)O[C@H](COC(=O)CCCCCCC/C=C\CCCCCC)COP(=O)(O)OC1C([C@@H](C(C(C1O)O)O)O)O
Method: HCD
Collision_energy: [28.333334]
Isolation_window: 4.0
Ion_mode: N
Num Peaks: 23
61.9876	8.3
71.0130	5.9
78.9581	36.6
96.9686	8.8
101.0236	6.9
152.9952	29.9
223.0012	12.0
241.0117	49.7
241.2177	11.9
255.2329	100.0
256.2368	23.4
279.2332	25.5
280.2364	10.8
281.2485	60.0
282.2520	12.1
297.0385	7.5
391.2246	10.5
553.2807	6.8
833.5106	19.2
834.5175	34.1
835.5336	93.2
836.5318	44.3
837.5494	10.9

Name: GlyTouCan:G92659QZ
PrecursorMZ: 457.15596
RT: 8.3541
ExactMass: 412.15807632
Spectrum_type: 2
charge: -1
Formula: C16H28O12
SMILES: CC(C)C(=O)OC[C@@H]1[C@H]([C@@H]([C@H]([C@H](O1)O[C@@H]2[C@@H]([C@H]([C@@H]([C@H](O2)CO)O)O)O)O)O)O
Method: HCD
Collision_energy: [28.333334]
Isolation_window: 4.0
Ion_mode: N
Num Peaks: 34
50.7937	2.0
50.7965	4.5
51.0204	3.7
59.0128	2.9
71.0129	5.6
71.0493	2.1
73.0286	4.3
83.0127	2.1
85.0284	2.0
89.0234	52.6
97.0286	2.8
101.0235	12.8
113.0235	5.2
115.0391	19.1
119.0340	2.4
131.0343	4.0
131.0705	2.7
133.0497	33.6
143.0339	3.1
161.0448	6.9
173.0451	4.8
181.0710	4.1
191.0554	3.3
217.0715	4.0
293.0878	12.6
337.1145	6.7
367.1250	15.3
368.1283	2.1
397.1351	24.5
398.1386	4.0
415.1457	15.6
457.1562	100.0
458.1598	17.7
459.1717	84.7

Name: Glyceric acid
PrecursorMZ: 105.01842
RT: 3.2409
ExactMass: 106.02660867
Spectrum_type: 2
charge: -1
Formula: C3H6O4
SMILES: C(C(C(=O)O)O)O
Method: HCD
Collision_energy: [28.333334]
Isolation_window: 4.0
Ion_mode: N
Num Peaks: 9
59.0130	49.0
59.9957	39.5
60.0082	33.1
60.0164	2.4
72.9922	37.3
75.0079	15.7
105.0185	100.0
105.9885	8.6
106.0222	3.1

Name: Glycerol
PrecursorMZ: 91.02113
RT: 2.0596
ExactMass: 92.047344113
Spectrum_type: 2
charge: -1
Formula: C3H8O3
SMILES: C(C(CO)O)O
Method: HCD
Collision_energy: [28.333334]
Isolation_window: 4.0
Ion_mode: N
Num Peaks: 16
59.9664	2.1
74.9899	47.1
74.9931	0.8
75.9613	5.9
75.9895	2.4
76.9691	0.8
90.0089	1.7
91.0212	13.2
91.0293	1.5
92.0496	1.2
93.0004	100.0
93.0077	0.7
93.0099	0.9
93.0334	1.0
93.9996	5.0
94.9973	0.9

Name: Glycine
PrecursorMZ: 74.02387
RT: 3.83
ExactMass: 75.032028402
Spectrum_type: 2
charge: -1
Formula: C2H5NO2
SMILES: C(C(=O)O)N
Method: HCD
Collision_energy: [28.333334]
Isolation_window: 4.0
Ion_mode: N
Num Peaks: 8
57.9925	1.1
72.0083	1.6
72.9923	2.6
73.0286	2.7
74.0028	1.5
74.0238	100.0
75.0079	17.8
75.0272	1.9

Name: Glycochenodeoxycholic Acid
PrecursorMZ: 448.30712
RT: 4.7523
ExactMass: 449.31412347
Spectrum_type: 2
charge: -1
Formula: C26H43NO5
SMILES: C[C@H](CCC(=O)NCC(=O)O)[C@H]1CC[C@@H]2[C@@]1(CC[C@H]3[C@H]2[C@@H](C[C@H]4[C@@]3(CC[C@H](C4)O)C)O)C
Method: HCD
Collision_energy: [28.333334]
Isolation_window: 4.0
Ion_mode: N
Num Peaks: 67
59.0130	2.7
71.0130	1.0
73.0286	1.3
74.0239	33.9
74.9901	4.9
78.9582	45.2
87.0079	0.9
93.0337	1.3
96.9688	25.3
97.0289	0.8
114.0552	1.4
123.0114	15.0
134.0367	1.2
164.0712	0.9
193.0500	1.6
214.0636	0.9
237.2217	1.0
253.0718	3.0
273.0775	1.2
280.2636	1.2
324.2549	2.0
357.1833	1.4
385.3124	1.2
386.3086	1.4
387.2940	0.9
401.3081	1.0
402.3023	1.0
402.3067	0.9
403.2858	5.2
403.2893	1.3
403.3264	2.1
404.2887	0.8
404.3213	2.4
405.3032	6.3
406.3074	1.3
431.2883	1.2
446.2929	4.0
447.1264	1.7
447.1345	3.9
447.1390	0.9
447.1873	1.2
447.1919	1.0
447.2727	2.6
447.2916	13.5
447.3148	21.8
448.1386	1.1
448.1792	1.5
448.1848	0.8
448.2057	0.8
448.2224	3.3
448.2472	3.8
448.2556	0.8
448.3082	100.0
448.3935	1.1
449.1470	0.9
449.1556	2.0
449.1739	2.1
449.2401	25.4
449.3036	17.7
449.3106	27.8
449.3276	80.0
450.1488	0.8
450.1775	1.2
450.2426	5.2
450.3019	2.9
450.3086	3.1
450.3326	13.8

Name: Glycodeoxycholic Acid
PrecursorMZ: 448.30705
RT: 4.6204
ExactMass: 449.31412347
Spectrum_type: 2
charge: -1
Formula: C26H43NO5
SMILES: C[C@H](CCC(=O)NCC(=O)O)[C@H]1CC[C@@H]2[C@@]1([C@H](C[C@H]3[C@H]2CC[C@H]4[C@@]3(CC[C@H](C4)O)C)O)C
Method: HCD
Collision_energy: [28.333334]
Isolation_window: 4.0
Ion_mode: N
Num Peaks: 27
72.9922	0.3
74.0152	0.3
74.0239	50.0
74.0326	0.3
75.0272	1.0
78.9581	0.7
87.0079	0.7
114.0552	0.8
128.0344	0.3
130.0865	0.5
142.0503	0.3
152.9953	0.6
164.0711	0.3
255.2333	0.5
281.2476	0.4
386.3073	2.2
387.3125	0.5
402.2997	0.3
404.3182	1.0
448.1790	0.8
448.2054	0.9
448.3073	100.0
448.4103	0.5
448.4379	0.7
449.2021	0.5
449.3107	28.2
450.3134	3.0

Name: Glycohyodeoxycholic acid
PrecursorMZ: 448.30695
RT: 1.1781
ExactMass: 449.31412347
Spectrum_type: 2
charge: -1
Formula: C26H43NO5
SMILES: C[C@H](CCC(=O)NCC(=O)O)[C@H]1CC[C@@H]2[C@@]1(CC[C@H]3[C@H]2C[C@@H]([C@H]4[C@@]3(CC[C@H](C4)O)C)O)C
Method: HCD
Collision_energy: [28.333334]
Isolation_window: 4.0
Ion_mode: N
Num Peaks: 16
61.9875	100.0
97.4066	6.5
149.0601	32.4
225.0077	8.1
355.2641	39.4
356.2694	9.4
373.2752	74.8
374.2790	14.5
391.2852	14.5
417.2650	6.8
447.3050	13.3
447.3504	28.0
448.3067	7.8
448.3541	8.4
449.2552	11.8
449.3338	12.4

Name: Glycolithocholic Acid
PrecursorMZ: 432.31148
RT: 4.4165
ExactMass: 433.31920885
Spectrum_type: 2
charge: -1
Formula: C26H43NO4
SMILES: C[C@H](CCC(=O)NCC(=O)O)[C@H]1CC[C@@H]2[C@@]1(CC[C@H]3[C@H]2CC[C@H]4[C@@]3(CC[C@H](C4)O)C)C
Method: HCD
Collision_energy: [28.333334]
Isolation_window: 4.0
Ion_mode: N
Num Peaks: 9
74.0238	58.3
78.9580	10.4
152.9950	32.3
239.2390	4.7
391.2857	6.3
432.3122	100.0
433.1891	5.6
433.3152	27.7
434.2615	13.3

Name: Glycoursodeoxycholic acid
PrecursorMZ: 448.30727
RT: 0.6524
ExactMass: 449.31412347
Spectrum_type: 2
charge: -1
Formula: C26H43NO5
SMILES: C[C@H](CCC(=O)NCC(=O)O)[C@H]1CC[C@@H]2[C@@]1(CC[C@H]3[C@H]2[C@H](C[C@H]4[C@@]3(CC[C@H](C4)O)C)O)C
Method: HCD
Collision_energy: [28.333334]
Isolation_window: 4.0
Ion_mode: N
Num Peaks: 37
59.0130	2.5
71.0129	0.8
71.0493	0.8
72.9922	0.7
73.0286	3.3
74.0238	42.2
75.0271	0.8
80.9642	0.9
83.0491	1.0
85.0287	0.7
87.0077	0.8
96.9592	6.7
114.0554	1.1
115.0395	0.9
129.0915	0.7
130.0862	1.0
135.0310	0.7
135.0447	0.7
253.2170	1.2
277.2169	0.9
386.3094	1.1
387.2981	0.6
403.2851	2.2
404.3231	0.6
405.3034	4.5
406.3081	0.7
419.3181	1.3
446.2924	9.7
447.2109	0.9
447.3139	19.0
448.1850	0.9
448.2191	1.7
448.2472	3.8
448.3076	100.0
449.3218	40.3
450.1636	1.2
450.3323	5.6

Name: Glycyl-L-glutamine
PrecursorMZ: 202.0828
RT: 8.4917
ExactMass: 203.0906059
Spectrum_type: 2
charge: -1
Formula: C7H13N3O4
SMILES: C(CC(=O)N)[C@@H](C(=O)O)NC(=O)CN
Method: HCD
Collision_energy: [28.333334]
Isolation_window: 4.0
Ion_mode: N
Num Peaks: 7
73.0398	57.2
87.0553	23.3
127.0504	54.8
140.0822	100.0
145.0613	32.4
184.0724	97.6
202.0835	89.6

Name: Glycyl-L-valine
PrecursorMZ: 173.09236
RT: 6.1317
ExactMass: 174.10044231
Spectrum_type: 2
charge: -1
Formula: C7H14N2O3
SMILES: CC(C)[C@@H](C(=O)O)NC(=O)CN
Method: HCD
Collision_energy: [28.333334]
Isolation_window: 4.0
Ion_mode: N
Num Peaks: 12
73.0397	16.1
93.0448	8.9
108.0320	7.4
116.0707	85.1
127.0758	13.0
129.1023	80.3
154.9464	20.6
171.1017	7.1
171.1384	16.7
173.0925	100.0
174.0547	8.8
174.9904	7.3

Name: Glycyl-glycyl-proline
PrecursorMZ: 228.09879
RT: 2.8999
ExactMass: 229.10625597
Spectrum_type: 2
charge: -1
Formula: C9H15N3O4
SMILES: C1C[C@H](N(C1)C(=O)CNC(=O)CN)C(=O)O
Method: HCD
Collision_energy: [28.333334]
Isolation_window: 4.0
Ion_mode: N
Num Peaks: 10
111.0265	1.1
113.0185	0.7
113.0220	0.7
113.0348	100.0
113.0511	0.7
114.0382	3.7
114.0551	3.7
184.1091	0.7
228.0987	28.4
229.1019	2.5

Name: Glycyrrhetinic Acid
PrecursorMZ: 469.33153
RT: 1.1986
ExactMass: 470.33960994
Spectrum_type: 2
charge: -1
Formula: C30H46O4
SMILES: C[C@]12CC[C@](C[C@H]1C3=CC(=O)[C@@H]4[C@]5(CC[C@@H](C([C@@H]5CC[C@]4([C@@]3(CC2)C)C)(C)C)O)C)(C)C(=O)O
Method: HCD
Collision_energy: [28.333334]
Isolation_window: 4.0
Ion_mode: N
Num Peaks: 25
50.1455	0.4
50.1482	0.8
52.0369	0.5
52.1466	2.1
52.1494	4.4
52.2581	0.6
52.2609	1.4
71.0493	1.9
391.3005	1.3
405.3168	1.0
407.3318	2.6
408.3332	0.8
409.3107	1.3
425.3420	1.2
439.3228	0.9
451.3218	17.5
452.3254	5.6
453.3295	0.7
467.3162	2.8
468.3200	11.9
469.1931	0.6
469.3319	100.0
469.4726	0.7
470.3352	31.4
471.3379	4.7

Name: Gmelinol
PrecursorMZ: 401.16068
RT: 4.7846
ExactMass: 402.16785316
Spectrum_type: 2
charge: -1
Formula: C22H26O7
SMILES: COC1=C(C=C(C=C1)[C@H]2[C@H]3CO[C@@H]([C@]3(CO2)O)C4=CC(=C(C=C4)OC)OC)OC
Method: HCD
Collision_energy: [28.333334]
Isolation_window: 4.0
Ion_mode: N
Num Peaks: 43
59.0130	6.9
61.9876	3.0
71.0130	3.4
72.9922	52.0
73.0286	3.0
85.0285	3.6
87.0080	2.7
91.0390	2.9
109.0285	3.4
114.0550	4.2
124.0757	2.7
128.0344	2.6
130.0865	3.1
135.0444	3.3
157.1227	3.3
171.1022	10.7
183.1380	2.7
209.0716	3.1
211.1335	3.8
251.1659	2.6
266.0940	6.9
291.1722	5.7
293.2126	2.6
310.0828	9.3
311.2233	2.6
327.2175	2.8
329.2331	4.4
356.1170	4.3
381.2284	4.4
383.2460	3.4
399.1957	3.8
399.2405	22.7
399.2795	8.0
400.1450	9.1
400.2348	8.0
400.2810	2.7
401.1631	100.0
401.2533	50.9
402.1230	3.0
402.1651	26.6
402.2633	10.1
403.1514	3.6
403.2710	24.7

Name: Grayanotoxin I
PrecursorMZ: 411.23893
RT: 7.4048
ExactMass: 412.24610348
Spectrum_type: 2
charge: -1
Formula: C22H36O7
SMILES: CC(=O)O[C@@H]1[C@H]2CC[C@@H]3[C@]1(C[C@H]([C@]4([C@H]([C@]3(C)O)C[C@@H](C4(C)C)O)O)O)C[C@@]2(C)O
Method: HCD
Collision_energy: [28.333334]
Isolation_window: 4.0
Ion_mode: N
Num Peaks: 31
59.0130	7.3
69.4484	4.6
114.0554	4.1
128.0345	4.9
305.2123	9.7
331.1914	4.5
331.2287	8.6
333.2073	4.5
349.2022	7.7
349.2394	8.7
351.2183	5.5
365.2349	3.8
367.2101	12.1
367.2493	6.6
369.2284	5.9
375.2186	9.7
377.1964	3.9
393.1896	5.5
393.2324	19.9
394.2350	4.7
395.2023	15.9
395.2466	5.9
409.2253	14.6
410.1813	5.2
410.2312	15.4
411.1999	56.5
411.2404	100.0
412.2042	12.0
412.2437	23.9
413.2180	85.2
413.2591	23.8

Name: Griseofulvin
PrecursorMZ: 351.06377
RT: 2.738
ExactMass: 352.071366
Spectrum_type: 2
charge: -1
Formula: C17H17ClO6
SMILES: C[C@@H]1CC(=O)C=C([C@]12C(=O)C3=C(O2)C(=C(C=C3OC)OC)Cl)OC
Method: HCD
Collision_energy: [28.333334]
Isolation_window: 4.0
Ion_mode: N
Num Peaks: 50
59.0129	3.1
61.9874	3.9
80.9642	5.3
85.0284	1.9
87.0078	2.3
89.0236	2.0
109.0285	20.2
128.0343	2.2
135.0443	6.4
136.0761	3.5
138.0913	2.1
151.0392	5.9
161.0599	16.4
179.0343	7.6
181.0499	2.5
191.0555	10.3
195.1019	1.9
245.1906	5.1
247.2064	2.8
253.0866	2.7
254.0581	3.6
263.2013	11.7
269.0822	8.7
271.0975	31.4
272.1013	4.6
289.1811	5.4
291.1961	4.3
305.0872	8.2
307.1916	17.0
308.1949	3.1
309.2070	6.9
315.0874	100.0
316.0904	14.8
317.0969	1.9
333.1710	2.3
349.0942	1.9
349.1391	7.0
349.2050	2.8
350.0919	2.6
350.1405	3.0
351.0398	3.2
351.1098	4.8
351.1812	39.3
351.2178	3.6
352.0663	2.8
352.1125	3.5
352.1848	8.6
353.0543	9.5
353.0949	2.9
353.1964	17.2

Name: Gsk0660
PrecursorMZ: 417.05909
RT: 4.4427
ExactMass: 418.06571403
Spectrum_type: 2
charge: -1
Formula: C19H18N2O5S2
SMILES: COC1=C(C=CC(=C1)NC2=CC=CC=C2)NS(=O)(=O)C3=C(SC=C3)C(=O)OC
Method: HCD
Collision_energy: [28.333334]
Isolation_window: 4.0
Ion_mode: N
Num Peaks: 15
78.9580	12.0
96.9591	8.6
109.0285	4.8
110.9843	25.8
135.0440	11.8
161.0233	7.4
189.0555	5.8
217.0865	31.3
233.0810	5.3
261.0764	46.5
262.0797	6.6
305.0663	100.0
306.0701	18.3
417.0792	9.1
419.0970	13.4

Name: Guanine
PrecursorMZ: 150.0414
RT: 7.0124
ExactMass: 151.0494098
Spectrum_type: 2
charge: -1
Formula: C5H5N5O
SMILES: C1=NC2=C(N1)C(=O)NC(=N2)N
Method: HCD
Collision_energy: [28.333334]
Isolation_window: 4.0
Ion_mode: N
Num Peaks: 5
107.0354	10.0
108.0195	9.3
126.0300	20.3
133.0148	100.0
150.0415	43.9

Name: Haematommic Acid
PrecursorMZ: 195.0293
RT: 0.9557
ExactMass: 196.03717335
Spectrum_type: 2
charge: -1
Formula: C9H8O5
SMILES: CC1=CC(=C(C(=C1C(=O)O)O)C=O)O
Method: HCD
Collision_energy: [28.333334]
Isolation_window: 4.0
Ion_mode: N
Num Peaks: 7
123.0443	25.2
151.0394	100.0
151.0753	7.0
152.0430	8.4
195.0294	54.6
195.0661	2.9
196.0333	5.9

Name: Harmalol
PrecursorMZ: 199.08715
RT: 7.4434
ExactMass: 200.094963011
Spectrum_type: 2
charge: -1
Formula: C12H12N2O
SMILES: CC1=NCCC2=C1NC3=C2C=CC(=C3)O
Method: HCD
Collision_energy: [28.333334]
Isolation_window: 4.0
Ion_mode: N
Num Peaks: 9
92.0496	38.9
94.0289	81.1
157.0512	24.6
171.0668	28.0
198.0792	36.6
199.0865	61.3
199.1332	23.7
199.1696	100.0
200.0717	23.0

Name: Hematein
PrecursorMZ: 299.05614
RT: 1.5801
ExactMass: 300.0633881
Spectrum_type: 2
charge: -1
Formula: C16H12O6
SMILES: C1C2=CC(=C(C=C2C3=C4C=CC(=O)C(=C4OCC31O)O)O)O
Method: HCD
Collision_energy: [28.333334]
Isolation_window: 4.0
Ion_mode: N
Num Peaks: 102
59.0129	3.2
71.0129	1.5
72.9922	3.5
73.0286	1.3
75.0079	1.2
78.9179	7.2
80.9159	8.8
80.9642	2.5
85.0286	1.6
86.9902	1.6
87.0078	5.8
88.0394	1.4
96.9592	3.1
97.0286	1.7
101.0238	1.2
103.0390	1.2
105.0185	1.2
109.0286	6.7
109.0648	1.3
110.0242	1.3
111.0442	1.5
113.0234	1.4
114.0551	1.3
115.0031	1.4
121.0651	1.2
123.0439	2.4
124.0066	1.8
124.0397	1.4
125.0236	2.3
125.0600	1.5
126.0554	1.6
127.0389	1.3
128.0345	1.9
129.0187	1.7
135.0442	1.9
137.0600	5.2
139.0388	2.6
139.0753	1.5
149.0601	2.4
151.0386	1.3
151.0752	1.7
151.0865	1.4
153.0550	1.9
153.0914	1.2
155.0344	1.3
163.0392	3.5
163.0756	1.2
165.0541	2.4
165.0659	3.4
167.0342	1.4
167.0707	1.6
168.0654	1.5
181.0499	5.0
189.0189	2.8
190.0266	1.7
191.0704	1.3
191.1066	1.3
193.0492	1.3
193.0848	1.2
195.0645	1.3
200.0571	1.4
211.0567	1.9
211.0938	1.2
216.0507	3.3
217.0698	1.5
218.0664	5.7
219.0491	2.8
220.7663	7.8
227.0726	2.0
235.0614	1.2
237.0767	1.5
240.0426	7.2
241.0473	1.3
253.0489	1.6
253.0718	2.5
253.1077	4.2
253.1444	2.0
255.0438	3.9
255.0651	4.0
255.0887	1.2
255.2325	1.4
256.0384	3.3
271.0612	6.6
281.0432	3.1
282.0523	1.3
284.0326	9.4
285.0365	1.4
297.0614	9.6
297.0973	7.1
297.1322	1.3
297.2422	2.1
297.6869	2.1
298.0601	6.3
298.0971	3.4
299.0546	100.0
299.1462	2.8
299.6850	3.5
300.0561	16.9
300.6848	2.8
301.0564	7.3
301.0921	7.5
301.1290	1.8

Name: Hemiphloin
PrecursorMZ: 433.11396
RT: 5.8213
ExactMass: 434.12129689
Spectrum_type: 2
charge: -1
Formula: C21H22O10
SMILES: C1[C@H](OC2=C(C1=O)C(=C(C(=C2)O)[C@H]3[C@@H]([C@H]([C@@H]([C@H](O3)CO)O)O)O)O)C4=CC=C(C=C4)O
Method: HCD
Collision_energy: [28.333334]
Isolation_window: 4.0
Ion_mode: N
Num Peaks: 5
285.0763	48.0
313.0715	81.2
315.0865	45.6
343.0822	84.2
433.1139	100.0

Name: Heptadecanoate
PrecursorMZ: 269.2484
RT: 0.5365
ExactMass: 269.248055291
Spectrum_type: 2
charge: -1
Formula: C17H33O2-
SMILES: CCCCCCCCCCCCCCCCC(=O)[O-]
Method: HCD
Collision_energy: [28.333334]
Isolation_window: 4.0
Ion_mode: N
Num Peaks: 12
225.2219	9.4
267.2328	8.6
268.1582	0.6
268.2362	3.8
269.1223	0.7
269.1874	0.5
269.2484	100.0
269.2964	0.6
269.3085	0.7
270.2518	17.5
271.2277	26.9
271.2526	1.1

Name: Hesperetin
PrecursorMZ: 301.07122
RT: 2.4972
ExactMass: 302.07903816
Spectrum_type: 2
charge: -1
Formula: C16H14O6
SMILES: COC1=C(C=C(C=C1)[C@@H]2CC(=O)C3=C(C=C(C=C3O2)O)O)O
Method: HCD
Collision_energy: [28.333334]
Isolation_window: 4.0
Ion_mode: N
Num Peaks: 30
79.9563	2.5
96.9591	7.8
125.0237	2.5
134.0363	1.2
141.1275	1.8
151.0027	3.8
164.0106	3.7
174.0313	1.3
196.0007	4.0
199.0392	1.5
201.0189	1.7
242.0582	2.8
253.2532	4.1
257.0815	1.7
281.2482	1.9
283.0612	1.1
286.0482	5.6
299.2588	100.0
300.1239	1.3
300.1409	2.3
300.2622	29.2
301.0391	1.4
301.0719	37.3
301.1287	30.7
301.2654	4.0
301.6306	11.3
302.0742	5.6
302.1291	5.4
302.6271	1.1
303.1088	1.8

Name: Hesperetin 3'-methyl ether
PrecursorMZ: 315.08766
RT: 1.5994
ExactMass: 316.09468823
Spectrum_type: 2
charge: -1
Formula: C17H16O6
SMILES: COC1=C(C=C(C=C1)[C@@H]2CC(=O)C3=C(C=C(C=C3O2)O)O)OC
Method: HCD
Collision_energy: [28.333334]
Isolation_window: 4.0
Ion_mode: N
Num Peaks: 46
59.0128	1.8
61.9874	1.8
71.0133	1.3
72.9926	1.3
85.0285	1.5
87.0078	1.5
89.0234	1.5
109.0286	9.3
123.0448	1.3
128.0344	1.5
135.0444	6.8
149.0601	4.3
151.0401	1.3
161.0606	1.6
179.0345	6.3
191.0345	3.1
193.0504	2.6
216.0425	3.7
229.0510	3.2
229.0855	1.5
237.1129	2.7
240.0424	2.2
241.0499	5.6
242.0566	2.4
243.0653	1.6
243.1011	1.8
253.0876	5.5
254.0917	1.7
255.0660	3.3
256.0738	2.6
269.0814	3.7
269.1413	1.4
270.0852	2.5
271.0977	81.5
272.1009	15.0
300.0639	1.6
313.0965	4.6
313.1295	2.0
313.1665	4.1
313.2023	1.9
314.0945	2.1
314.1275	4.0
315.0873	100.0
315.1829	4.4
316.0897	19.1
317.0947	4.0

Name: Hexacosanoic Acid
PrecursorMZ: 395.3889
RT: 1.0215666666666667
ExactMass: 396.396730897
Spectrum_type: 2
charge: -1
Formula: C26H52O2
SMILES: CCCCCCCCCCCCCCCCCCCCCCCCCC(=O)O
Method: HCD
Collision_energy: [28.333334]
Isolation_window: 4.0
Ion_mode: N
Num Peaks: 22
69.1908	0.6
97.4641	0.5
349.3475	2.5
350.3516	0.7
351.3632	0.7
393.3736	2.9
394.3774	4.7
395.2766	0.7
395.2818	0.7
395.3037	0.6
395.3514	5.6
395.3895	100.0
395.4730	0.6
395.4970	0.6
396.3542	1.6
396.3930	27.8
396.3975	1.4
397.3245	1.6
397.3319	0.8
397.3699	1.0
397.3763	0.9
397.3959	2.7

Name: Hexacyclinic acid
PrecursorMZ: 489.21302
RT: 2.6171
ExactMass: 490.22028266
Spectrum_type: 2
charge: -1
Formula: C26H34O9
SMILES: C[C@@H]1[C@H]([C@H]2[C@@H]([C@H]1OC(=O)C)C=C([C@@H]3[C@@H]2[C@H]4[C@@H](C3)[C@]5(CC[C@@H]6[C@H]([C@]([C@@H]4C(=O)O6)(O5)O)C)C)C(=O)O)O
Method: HCD
Collision_energy: [28.333334]
Isolation_window: 4.0
Ion_mode: N
Num Peaks: 65
54.3555	1.9
54.3585	4.5
54.4699	1.3
57.0337	4.1
59.0130	1.6
73.0285	1.5
79.9564	1.7
80.9642	2.1
83.0492	1.4
87.0078	1.5
95.0494	1.4
96.9591	13.8
107.0491	1.6
109.0651	1.7
111.0443	1.8
133.0646	1.5
135.0807	1.3
137.0602	1.6
149.0601	2.8
151.0755	1.9
169.0862	5.7
175.1120	2.6
215.1425	1.3
241.1596	2.9
247.0636	1.4
248.0789	1.9
253.1602	2.2
269.1909	13.5
270.1941	2.2
277.1440	1.2
281.1906	4.4
299.2010	6.5
300.2048	1.3
313.1803	1.3
325.1809	2.0
333.2081	1.6
334.2104	1.4
343.1912	6.6
344.1945	1.8
371.2225	2.0
373.2018	1.4
383.2235	4.3
397.2020	3.9
401.2341	9.7
402.2369	2.1
415.2132	4.5
427.2129	12.9
428.2163	3.3
445.2233	28.6
445.3294	3.2
445.3749	1.8
446.2273	7.6
461.3269	1.8
487.2752	2.7
487.3459	15.3
488.2051	4.2
488.2773	1.6
488.3503	8.5
489.2134	100.0
489.3225	10.4
489.3615	8.4
490.2168	27.4
490.3117	2.7
490.3630	2.7
491.2257	7.0

Name: Hexadecyl sulfate
PrecursorMZ: 321.21027
RT: 0.7663
ExactMass: 322.21778074
Spectrum_type: 2
charge: -1
Formula: C16H34O4S
SMILES: CCCCCCCCCCCCCCCCOS(=O)(=O)O
Method: HCD
Collision_energy: [28.333334]
Isolation_window: 4.0
Ion_mode: N
Num Peaks: 14
79.9570	0.3
96.9544	0.5
96.9592	29.6
97.4652	0.4
98.9551	0.4
199.1701	0.9
321.1340	0.5
321.1484	0.9
321.2105	100.0
321.2719	0.6
321.2892	0.6
322.2138	17.9
323.1534	0.5
323.2094	2.2

Name: Hexanoic Acid
PrecursorMZ: 115.0756
RT: 1.7089
ExactMass: 116.083729621
Spectrum_type: 2
charge: -1
Formula: C6H12O2
SMILES: CCCCCC(=O)O
Method: HCD
Collision_energy: [28.333334]
Isolation_window: 4.0
Ion_mode: N
Num Peaks: 7
71.0130	3.3
97.9303	1.4
99.9249	15.0
114.9334	7.9
115.9194	1.2
116.0247	1.3
116.9277	100.0

Name: Hexanoylglycine
PrecursorMZ: 172.09729
RT: 5.1614
ExactMass: 173.10519334
Spectrum_type: 2
charge: -1
Formula: C8H15NO3
SMILES: CCCCCC(=O)NCC(=O)O
Method: HCD
Collision_energy: [28.333334]
Isolation_window: 4.0
Ion_mode: N
Num Peaks: 5
72.0445	34.0
116.0708	77.7
128.1073	100.0
171.1385	37.4
172.0973	95.4

Name: Hexuronic Acid
PrecursorMZ: 193.03494
RT: 4.3048
ExactMass: 194.04265265
Spectrum_type: 2
charge: -1
Formula: C6H10O7
SMILES: C1(C(C(OC(C1O)O)C(=O)O)O)O
Method: HCD
Collision_energy: [28.333334]
Isolation_window: 4.0
Ion_mode: N
Num Peaks: 30
59.0129	1.8
71.0129	19.9
72.9922	6.6
73.0286	9.1
75.0079	6.6
87.0078	15.1
99.0079	16.7
105.0185	14.5
107.0495	1.9
113.0236	1.6
115.0030	4.1
117.0185	3.8
129.0185	5.4
129.0548	4.0
131.0342	3.5
142.9975	2.0
147.0292	8.2
151.0396	3.0
173.0450	7.0
175.0242	100.0
176.0276	6.9
176.8944	4.2
191.0200	3.5
191.0556	16.9
192.0309	1.4
192.0584	1.9
193.0350	26.8
194.0359	2.1
194.9054	11.5
195.0318	1.5

Name: Histidyltryptophyldiketopiperazine
PrecursorMZ: 322.13067
RT: 5.235966666666667
ExactMass: 323.1382248
Spectrum_type: 2
charge: -1
Formula: C17H17N5O2
SMILES: C1=CC=C2C(=C1)C(=CN2)CC3C(=O)NC(C(=O)N3)CC4=CN=CN4
Method: HCD
Collision_energy: [28.333334]
Isolation_window: 4.0
Ion_mode: N
Num Peaks: 17
67.0293	14.7
93.0449	12.9
113.0347	42.6
114.0552	14.6
116.0496	31.7
125.0349	26.2
136.0760	15.3
137.0348	24.0
193.0725	100.0
194.0764	9.5
205.0727	70.5
243.1353	9.5
321.1509	11.4
322.1313	65.0
323.1307	13.9
323.1654	10.8
323.1720	10.5

Name: Homopterocarpin
PrecursorMZ: 283.09746
RT: 4.6752
ExactMass: 284.10485899
Spectrum_type: 2
charge: -1
Formula: C17H16O4
SMILES: COC1=CC2=C(C=C1)[C@@H]3COC4=C([C@@H]3O2)C=CC(=C4)OC
Method: HCD
Collision_energy: [28.333334]
Isolation_window: 4.0
Ion_mode: N
Num Peaks: 38
59.0129	4.9
93.0336	25.8
96.9589	3.3
107.0493	3.0
110.0240	4.6
119.0493	9.7
132.0572	6.1
133.0651	52.7
134.0686	4.3
145.0649	4.7
147.0442	3.6
168.0786	3.6
177.0550	100.0
178.0586	10.9
197.0600	15.5
220.0611	16.9
222.0626	4.8
223.2064	5.1
239.1075	34.8
239.1647	3.0
240.1106	5.3
241.0830	13.8
241.1216	6.6
253.1442	14.1
255.1023	3.2
267.1960	4.1
281.2485	32.1
282.2517	10.4
283.0964	10.0
283.1299	4.1
283.1551	28.9
283.1913	8.5
283.2640	90.8
284.1574	4.5
284.2673	17.5
285.1132	15.7
285.1707	4.5
285.2069	10.5

Name: Homovanillic acid sulfate
PrecursorMZ: 261.00751
RT: 3.0121
ExactMass: 262.01472383
Spectrum_type: 2
charge: -1
Formula: C9H10O7S
SMILES: COC1=C(C=CC(=C1)CC(=O)O)OS(=O)(=O)O
Method: HCD
Collision_energy: [28.333334]
Isolation_window: 4.0
Ion_mode: N
Num Peaks: 9
96.9593	9.6
137.0599	8.8
177.0190	4.5
181.0502	6.4
217.0502	7.6
261.0076	100.0
261.0396	12.0
262.0114	9.1
262.0529	5.4

Name: Humulinone
PrecursorMZ: 377.19769
RT: 0.5775666666666667
ExactMass: 378.20423867
Spectrum_type: 2
charge: -1
Formula: C21H30O6
SMILES: CC(C)CC(=O)C1=C(C(C(C1=O)(C(=O)CC=C(C)C)O)(CC=C(C)C)O)O
Method: HCD
Collision_energy: [28.333334]
Isolation_window: 4.0
Ion_mode: N
Num Peaks: 64
79.9564	1.9
81.9522	1.5
96.9592	2.9
99.0807	4.1
101.0598	1.8
111.0441	1.4
125.0599	8.1
127.0755	2.1
139.0756	7.3
141.0549	4.9
149.0966	1.5
155.0705	1.6
165.0548	1.9
179.0707	2.5
195.0657	8.7
205.0865	1.1
207.1021	1.6
207.1387	2.3
211.0607	1.5
221.0816	6.0
223.1336	11.5
224.1379	1.8
233.1184	1.1
235.1338	1.4
236.0335	1.1
237.1129	9.2
238.1156	1.1
239.0552	1.8
247.1331	1.6
249.0757	1.3
249.1135	2.4
249.1491	1.0
251.1286	4.0
253.1446	1.3
263.1288	32.8
264.1324	5.1
265.1449	4.4
275.1284	1.6
280.1313	1.6
281.1390	5.5
283.1549	5.0
306.0753	2.6
307.0779	1.8
308.0910	19.6
308.1259	3.0
309.0937	3.7
310.1052	2.3
310.1424	1.1
319.1548	1.5
333.2074	1.1
359.1873	1.6
361.2022	1.6
375.1815	9.2
375.2212	3.4
376.1845	5.5
376.2238	1.8
377.1587	7.3
377.1975	100.0
377.2321	4.6
378.1622	1.9
378.2010	23.8
379.1735	6.8
379.2126	22.2
379.3142	1.2

Name: Hydrocortisone Butyrate
PrecursorMZ: 477.24942
RT: 5.264433333333334
ExactMass: 432.25118886
Spectrum_type: 2
charge: -1
Formula: C25H36O6
SMILES: CCCC(=O)O[C@@]1(CC[C@@H]2[C@@]1(C[C@@H]([C@H]3[C@H]2CCC4=CC(=O)CC[C@]34C)O)C)C(=O)CO
Method: HCD
Collision_energy: [28.333334]
Isolation_window: 4.0
Ion_mode: N
Num Peaks: 19
53.0291	4.8
59.0129	2.9
101.0599	3.3
111.0807	2.9
219.1389	3.5
331.2283	13.0
375.2194	4.3
389.2694	3.3
419.2067	4.1
433.2580	4.4
459.1994	3.5
475.2344	4.7
475.2913	3.6
476.2372	7.1
477.2491	100.0
478.2523	23.0
479.2450	4.3
479.2524	3.2
479.3050	4.0

Name: Hydroflumethiazide; reserpine
PrecursorMZ: 607.26589
RT: 4.7816
ExactMass: 608.27338086
Spectrum_type: 2
charge: -1
Formula: C33H40N2O9
SMILES: COC1C(CC2CN3CCC4=C(C3CC2C1C(=O)OC)NC5=C4C=CC(=C5)OC)OC(=O)C6=CC(=C(C(=C6)OC)OC)OC
Method: HCD
Collision_energy: [28.333334]
Isolation_window: 4.0
Ion_mode: N
Num Peaks: 29
67.4721	1.6
67.4762	2.9
78.9582	100.0
96.9593	1.4
96.9687	5.1
152.9952	30.3
153.9986	0.8
171.0058	62.3
172.0094	1.6
225.2221	1.5
227.0324	2.9
245.0431	3.1
245.1655	1.7
247.1819	1.0
273.1611	5.7
274.1642	0.7
305.1509	4.6
306.9994	1.1
361.2165	1.9
379.2259	27.0
380.2295	4.1
435.2532	1.8
453.2635	2.2
563.3246	7.4
564.3260	2.0
607.2665	67.4
608.2704	14.9
609.2647	1.7
609.2740	2.2

Name: Hydroquinone
PrecursorMZ: 109.02853
RT: 1.3213
ExactMass: 110.03677943
Spectrum_type: 2
charge: -1
Formula: C6H6O2
SMILES: C1=CC(=CC=C1O)O
Method: HCD
Collision_energy: [28.333334]
Isolation_window: 4.0
Ion_mode: N
Num Peaks: 21
64.0058	2.2
65.0135	2.6
66.0339	2.1
67.0292	15.3
68.0132	2.1
70.0037	3.8
81.0336	1.6
81.9923	2.0
82.0288	4.2
107.0239	2.7
108.0205	4.6
108.0445	5.9
108.9955	3.3
109.0285	100.0
109.0394	15.5
109.9986	28.7
110.0099	1.8
110.0237	7.3
110.0320	6.4
111.0077	2.0
111.0191	3.2

Name: Hydroxygardnutine
PrecursorMZ: 383.16123
RT: 8.1117
ExactMass: 338.16304257
Spectrum_type: 2
charge: -1
Formula: C20H22N2O3
SMILES: COC1=CC2=C(C=C1)C3=C(N2)C4CC\5C6COC3C6N4C/C5=C/CO
Method: HCD
Collision_energy: [28.333334]
Isolation_window: 4.0
Ion_mode: N
Num Peaks: 4
61.9874	18.2
207.0923	19.8
223.0874	34.6
323.1400	100.0

Name: Hydroxypyruvic acid
PrecursorMZ: 103.00284
RT: 4.4657
ExactMass: 104.0109586
Spectrum_type: 2
charge: -1
Formula: C3H4O4
SMILES: C(C(=O)C(=O)O)O
Method: HCD
Collision_energy: [28.333334]
Isolation_window: 4.0
Ion_mode: N
Num Peaks: 11
57.0338	1.6
59.0130	100.0
60.0082	10.0
60.0164	2.8
72.0082	8.2
74.0238	7.7
101.0236	1.9
101.0598	3.9
102.0552	6.1
103.0028	8.5
104.0345	7.7

Name: Hyocholic Acid
PrecursorMZ: 407.28046
RT: 4.7204
ExactMass: 408.28757437
Spectrum_type: 2
charge: -1
Formula: C24H40O5
SMILES: C[C@H](CCC(=O)O)[C@H]1CC[C@@H]2[C@@]1(CC[C@H]3[C@H]2[C@@H]([C@@H]([C@H]4[C@@]3(CC[C@H](C4)O)C)O)O)C
Method: HCD
Collision_energy: [28.333334]
Isolation_window: 4.0
Ion_mode: N
Num Peaks: 17
59.0130	20.1
79.9564	2.9
80.9641	3.3
96.9592	14.6
171.1022	4.3
347.2594	3.3
389.2718	4.0
405.2634	5.8
405.2839	15.3
406.2677	13.2
406.2800	20.7
407.1707	14.2
407.2808	100.0
408.2844	25.5
409.1824	15.7
409.1898	4.7
409.2639	2.6

Name: Hypoprotocetraric acid
PrecursorMZ: 343.08261
RT: 3.6843
ExactMass: 344.08960285
Spectrum_type: 2
charge: -1
Formula: C18H16O7
SMILES: CC1=CC(=C(C2=C1C(=O)OC3=C(O2)C(=C(C(=C3C)O)C(=O)O)C)C)O
Method: HCD
Collision_energy: [28.333334]
Isolation_window: 4.0
Ion_mode: N
Num Peaks: 44
59.0105	0.6
59.0130	18.6
93.0336	2.0
107.0493	0.5
109.0286	0.3
109.0649	0.4
119.0494	0.9
121.0283	0.4
121.0648	0.4
122.0363	1.5
123.0444	0.9
123.0806	1.5
133.0651	1.3
135.0444	63.3
135.0659	0.4
136.0522	0.5
137.0599	1.1
148.0520	0.7
149.0601	3.6
150.0681	1.6
151.0757	41.8
164.0473	0.6
177.0551	0.5
195.0657	2.4
229.0868	14.2
229.1200	1.4
237.0922	1.2
239.0563	2.1
239.1075	10.6
241.0868	15.1
255.1026	10.3
256.1060	1.7
257.1183	19.2
281.0825	0.4
283.0976	4.3
299.0925	1.5
301.0361	0.5
301.1081	100.0
301.1800	0.7
343.0825	4.6
344.0844	1.0
345.0101	0.4
345.0980	86.0
345.1858	0.5

Name: Hypoxanthine, 9-(2-deoxy-beta-D-erythro-pentofuranosyl)-
PrecursorMZ: 251.07828
RT: 5.6906
ExactMass: 252.08585488
Spectrum_type: 2
charge: -1
Formula: C10H12N4O4
SMILES: C1C(C(OC1N2C=NC3=C2N=CNC3=O)CO)O
Method: HCD
Collision_energy: [28.333334]
Isolation_window: 4.0
Ion_mode: N
Num Peaks: 36
59.0129	2.1
71.0128	0.8
84.0445	2.5
85.0285	0.7
87.0079	1.0
88.0393	1.2
94.0288	3.7
96.9591	1.2
100.0757	1.3
101.0234	0.7
102.0551	10.9
114.0551	1.0
126.0550	1.3
135.0303	100.0
136.0344	4.3
147.0443	1.2
161.0461	10.4
164.0709	2.3
179.0825	1.1
206.1182	1.3
208.0825	2.9
209.1541	1.0
210.1242	19.9
221.0919	0.9
232.0970	1.0
250.0681	1.0
250.1074	18.5
250.6067	1.4
251.0579	1.5
251.0782	91.5
251.1036	1.3
251.1080	3.0
252.0817	10.6
253.0837	1.5
253.1434	1.0
253.2174	0.7

Name: Icariside D2
PrecursorMZ: 299.11359
RT: 2.0668
ExactMass: 300.12090297
Spectrum_type: 2
charge: -1
Formula: C14H20O7
SMILES: C1=CC(=CC=C1CCO)O[C@H]2[C@@H]([C@H]([C@@H]([C@H](O2)CO)O)O)O
Method: HCD
Collision_energy: [28.333334]
Isolation_window: 4.0
Ion_mode: N
Num Peaks: 61
59.0130	12.4
72.9922	8.8
73.0286	13.1
75.0080	9.8
81.0336	6.8
83.0129	13.1
86.0238	17.9
87.0079	24.1
88.0395	45.7
95.0493	20.4
96.9591	7.6
97.0286	28.3
97.0397	10.0
109.0285	21.8
112.0396	8.8
113.0235	13.9
113.0600	38.1
115.0757	27.8
116.0709	7.5
123.0443	24.1
126.0551	7.6
127.1121	10.8
130.0866	20.9
139.0393	61.1
142.0866	13.2
165.1281	7.7
167.0343	34.8
168.0661	23.7
177.1279	31.7
179.1074	20.8
183.1135	10.2
193.1228	20.5
194.1301	9.9
205.0866	16.4
211.0244	29.5
211.1088	27.8
212.0925	12.2
219.1019	8.2
221.1180	71.3
222.1216	9.7
223.0976	19.8
237.1128	17.4
238.1202	20.9
281.1386	11.8
282.1109	16.6
297.1483	50.1
297.1532	26.4
297.2431	34.1
298.1001	11.7
298.1539	17.1
298.1571	11.0
298.2469	12.5
299.0768	33.0
299.1140	35.1
299.1514	21.2
299.1545	33.0
299.1885	12.1
299.2588	100.0
300.1513	8.7
300.2629	17.0
301.2028	7.9

Name: Ilomastat
PrecursorMZ: 387.20347
RT: 0.6331
ExactMass: 388.21105539
Spectrum_type: 2
charge: -1
Formula: C20H28N4O4
SMILES: CC(C)C[C@H](CC(=O)NO)C(=O)N[C@@H](CC1=CNC2=CC=CC=C21)C(=O)NC
Method: HCD
Collision_energy: [28.333334]
Isolation_window: 4.0
Ion_mode: N
Num Peaks: 38
59.0130	2.5
87.0079	2.6
114.0550	0.8
115.0392	16.0
116.0422	0.8
128.0348	0.9
130.0865	1.2
153.0916	0.9
171.1020	3.1
187.0968	1.9
209.1543	5.6
210.1579	0.9
227.1651	10.0
228.1687	1.0
253.1444	1.6
271.1552	15.0
272.1585	2.0
289.1652	0.7
299.1858	0.8
305.2123	0.8
307.1911	1.2
325.2015	0.8
343.2133	0.9
349.2031	0.9
351.1805	2.4
351.2188	1.0
367.2140	2.6
368.2174	1.3
369.1916	19.7
369.2267	1.2
370.1950	3.4
385.2250	9.6
386.2285	6.0
387.2020	100.0
388.2060	19.8
388.2412	0.9
389.2063	3.1
389.2697	1.2

Name: Indole-3-acetaldehyde
PrecursorMZ: 158.06031
RT: 1.2278
ExactMass: 159.068413911
Spectrum_type: 2
charge: -1
Formula: C10H9NO
SMILES: C1=CC=C2C(=C1)C(=CN2)CC=O
Method: HCD
Collision_energy: [28.333334]
Isolation_window: 4.0
Ion_mode: N
Num Peaks: 5
113.0600	16.4
128.0498	21.7
130.0654	33.1
158.0604	100.0
158.9110	28.7

Name: Irigenin
PrecursorMZ: 359.07752
RT: 7.1374
ExactMass: 360.08451746
Spectrum_type: 2
charge: -1
Formula: C18H16O8
SMILES: COC1=CC(=CC(=C1OC)O)C2=COC3=C(C2=O)C(=C(C(=C3)O)OC)O
Method: HCD
Collision_energy: [28.333334]
Isolation_window: 4.0
Ion_mode: N
Num Peaks: 12
61.9874	13.9
109.0287	19.2
135.0444	76.2
161.0599	25.9
179.0343	33.1
240.0431	20.6
255.0662	100.0
256.0695	18.6
271.0979	71.4
272.1003	11.9
315.0879	21.6
359.0769	20.6

Name: Irinotecan
PrecursorMZ: 585.27213
RT: 4.65225
ExactMass: 586.27913494
Spectrum_type: 2
charge: -1
Formula: C33H38N4O6
SMILES: CCC1=C2CN3C(=CC4=C(C3=O)COC(=O)[C@@]4(CC)O)C2=NC5=C1C=C(C=C5)OC(=O)N6CCC(CC6)N7CCCCC7
Method: HCD
Collision_energy: [28.333334]
Isolation_window: 4.0
Ion_mode: N
Num Peaks: 41
59.0128	3.4
60.1443	1.2
114.0552	2.3
120.0810	11.5
124.0759	5.6
128.0346	0.8
130.0866	1.5
136.0762	0.9
152.9950	1.1
161.0716	1.3
162.0793	2.0
164.0711	2.6
200.1437	0.9
215.1186	12.9
216.1220	1.4
241.1345	46.2
242.1379	6.1
243.1501	17.1
244.1534	1.8
245.1658	1.2
253.1350	1.9
255.1503	11.5
255.2327	2.9
269.1325	0.9
269.1658	1.6
285.1244	1.7
287.1402	100.0
288.1434	13.7
289.1541	2.2
374.2236	2.5
497.2942	2.4
498.2964	1.0
499.3071	1.3
540.2733	0.9
541.2823	30.6
542.2853	9.9
543.2977	15.2
584.3256	1.4
585.2722	14.9
586.2786	6.0
587.2897	10.2

Name: Iso-Nesteretal
PrecursorMZ: 257.10284
RT: 4.1966
Spectrum_type: 2
charge: -1
SMILES: C[C@]1(O2)O[C@]3(O)[C@]4([H])[C@@]1(C)O[C@@]2(C)[C@]4(C)O[C@]3(O)C
Method: HCD
Collision_energy: [28.333334]
Isolation_window: 4.0
Ion_mode: N
Num Peaks: 40
59.0123	3.8
85.0285	3.5
87.0077	7.0
109.0286	3.6
111.0437	3.3
114.0546	3.4
123.0443	16.1
125.0230	3.2
128.0344	5.3
135.0439	5.4
151.0759	6.2
151.1119	6.3
153.0548	9.3
157.0494	3.8
167.0341	4.7
169.1226	100.0
170.1260	9.3
179.0345	5.1
195.0653	7.9
196.0971	11.6
197.0449	10.2
213.0789	4.0
213.1118	46.7
214.1159	5.4
239.0543	9.4
255.0671	6.8
255.1038	29.8
255.2326	49.6
256.0674	7.1
256.1075	10.8
256.2360	10.9
257.0439	5.2
257.0666	67.3
257.1140	47.2
257.9895	3.6
258.0687	10.9
258.1179	5.2
258.9946	4.8
259.0428	12.1
259.0837	7.8

Name: Isobutyl 4-(3,4,5-trimethoxybenzamido)benzoate
PrecursorMZ: 386.16107
RT: 5.382
ExactMass: 387.16818752
Spectrum_type: 2
charge: -1
Formula: C21H25NO6
SMILES: CC(C)COC(=O)C1=CC=C(C=C1)NC(=O)C2=CC(=C(C(=C2)OC)OC)OC
Method: HCD
Collision_energy: [28.333334]
Isolation_window: 4.0
Ion_mode: N
Num Peaks: 49
59.0130	4.0
71.0129	2.9
74.0240	1.5
85.0289	1.6
87.0078	2.9
88.0396	1.6
101.0237	1.6
113.0597	2.9
114.0550	2.3
115.0395	1.9
128.0346	1.5
130.0866	12.2
131.0344	1.7
143.0492	2.6
155.0861	7.5
156.0659	35.2
157.0695	2.1
199.0761	26.0
200.0798	2.8
225.0562	3.2
229.0868	28.2
230.0903	4.3
266.1554	3.6
268.1709	42.9
269.1754	8.9
310.1449	13.4
311.1487	2.6
312.1607	75.5
313.1643	15.8
314.1707	1.7
340.1569	3.6
341.2333	1.6
342.1714	17.1
343.1741	3.3
345.1752	1.8
356.1508	5.8
367.2505	2.2
369.2290	1.6
384.2468	2.3
385.1135	10.1
385.1499	1.6
385.2230	18.1
385.2624	7.1
386.1242	2.6
386.1614	100.0
386.2255	2.9
387.1634	22.4
387.2402	18.6
388.1684	1.6

Name: Isobutyric Acid
PrecursorMZ: 87.04424
RT: 1.2647
ExactMass: 88.052429494
Spectrum_type: 2
charge: -1
Formula: C4H8O2
SMILES: CC(C)C(=O)O
Method: HCD
Collision_energy: [28.333334]
Isolation_window: 4.0
Ion_mode: N
Num Peaks: 3
85.0034	2.1
87.0442	100.0
88.0475	5.2

Name: Isocaproic acid
PrecursorMZ: 115.07558
RT: 4.9212
ExactMass: 116.083729621
Spectrum_type: 2
charge: -1
Formula: C6H12O2
SMILES: CC(C)CCC(=O)O
Method: HCD
Collision_energy: [28.333334]
Isolation_window: 4.0
Ion_mode: N
Num Peaks: 6
59.0130	17.5
71.0129	10.3
99.9249	15.2
114.9331	9.2
115.0756	70.7
116.9277	100.0

Name: Isocholic acid
PrecursorMZ: 407.28011
RT: 4.6685
ExactMass: 408.28757437
Spectrum_type: 2
charge: -1
Formula: C24H40O5
SMILES: C[C@H](CCC(=O)O)[C@H]1CC[C@@H]2[C@@]1([C@H](C[C@H]3[C@H]2[C@@H](C[C@H]4[C@@]3(CC[C@@H](C4)O)C)O)O)C
Method: HCD
Collision_energy: [28.333334]
Isolation_window: 4.0
Ion_mode: N
Num Peaks: 23
59.0129	11.0
78.9581	4.8
96.9591	6.3
102.0550	2.7
113.0346	1.6
128.0344	5.6
152.9950	11.9
217.0596	1.5
232.0838	4.2
279.2330	3.0
343.2648	1.9
345.2799	2.1
363.2903	2.3
389.2696	2.5
405.2627	6.5
406.2675	17.1
407.1340	2.7
407.1724	3.0
407.2801	100.0
408.2819	29.6
409.1879	3.2
409.2415	2.1
409.2904	3.2

Name: Isodeoxycholic acid
PrecursorMZ: 391.28562
RT: 3.0827
ExactMass: 392.29265975
Spectrum_type: 2
charge: -1
Formula: C24H40O4
SMILES: C[C@H](CCC(=O)O)[C@H]1CC[C@@H]2[C@@]1([C@H](C[C@H]3[C@H]2[C@@H](C[C@H]4[C@@]3(CCCC4)C)O)O)C
Method: HCD
Collision_energy: [28.333334]
Isolation_window: 4.0
Ion_mode: N
Num Peaks: 16
69.4735	0.5
327.2698	0.6
343.2643	0.8
345.2798	3.3
346.2826	0.8
347.2947	1.0
389.2695	0.9
390.2729	1.7
391.1809	0.8
391.2011	0.6
391.2857	100.0
391.3698	0.6
391.3910	0.7
392.2890	26.1
393.2919	3.3
409.2968	1.5

Name: Isodityrosine (Not validated)
PrecursorMZ: 359.12514
RT: 5.5733
ExactMass: 360.13213636
Spectrum_type: 2
charge: -1
Formula: C18H20N2O6
SMILES: C1=CC(=CC=C1CC(C(=O)O)N)OC2=C(C=CC(=C2)CC(C(=O)O)N)O
Method: HCD
Collision_energy: [28.333334]
Isolation_window: 4.0
Ion_mode: N
Num Peaks: 29
59.0130	8.0
71.0130	5.7
83.0495	6.0
87.0079	8.1
116.0707	6.4
122.0604	12.9
128.0343	5.5
132.0448	58.2
150.0554	26.5
152.0710	46.7
171.1026	6.5
185.1177	6.0
187.0961	6.1
199.1341	5.5
201.1116	13.2
297.1245	41.7
298.1282	8.8
315.1350	34.7
341.1986	9.6
357.1908	13.1
357.2293	8.1
358.1982	6.8
359.1294	7.5
359.2078	100.0
359.2444	6.1
360.1157	8.1
360.2118	17.3
361.1654	24.1
361.2233	38.7

Name: Isoleucylisoleucine
PrecursorMZ: 243.17086
RT: 3.0465
ExactMass: 244.17869263
Spectrum_type: 2
charge: -1
Formula: C12H24N2O3
SMILES: CCC(C)C(C(=O)NC(C(C)CC)C(=O)O)N
Method: HCD
Collision_energy: [28.333334]
Isolation_window: 4.0
Ion_mode: N
Num Peaks: 8
69.4701	3.3
130.0864	26.3
199.1809	30.7
200.1845	3.3
241.2168	6.1
243.1153	3.5
243.1711	100.0
244.1742	11.6

Name: Isomajdine
PrecursorMZ: 427.18753
RT: 6.6362
ExactMass: 428.19473662
Spectrum_type: 2
charge: -1
Formula: C23H28N2O6
SMILES: CC1C2CN3CCC4(C3CC2C(=CO1)C(=O)OC)C5=C(C(=C(C=C5)OC)OC)NC4=O
Method: HCD
Collision_energy: [28.333334]
Isolation_window: 4.0
Ion_mode: N
Num Peaks: 14
61.9875	12.9
149.0601	33.7
163.0391	10.2
239.0716	8.8
253.0871	33.2
255.1026	12.3
264.1481	13.4
296.1381	24.8
368.1745	31.0
369.1787	7.4
383.1981	78.7
384.2022	18.2
385.2137	100.0
429.2043	34.8

Name: Isotectorigenin, 7-methyl ether
PrecursorMZ: 327.08751
RT: 4.6337
ExactMass: 328.09468823
Spectrum_type: 2
charge: -1
Formula: C18H16O6
SMILES: COC1=CC=C(C=C1)C2=COC3=C(C2=O)C(=CC(=C3OC)OC)O
Method: HCD
Collision_energy: [28.333334]
Isolation_window: 4.0
Ion_mode: N
Num Peaks: 48
79.9564	2.0
80.9643	2.3
85.0285	1.6
93.0337	6.5
96.9592	6.2
109.0650	1.9
119.0494	3.0
132.0573	2.4
135.0443	7.7
145.0651	4.8
147.0807	1.7
153.0550	3.4
171.1021	2.7
173.1178	16.1
183.0116	1.9
183.1384	2.3
197.1177	1.5
209.0609	1.7
226.0872	4.3
237.0919	8.1
238.0950	1.4
239.1075	100.0
240.1108	15.9
251.1641	1.6
253.0871	1.4
265.0869	3.5
265.2165	2.0
283.0977	45.5
284.1011	6.6
289.1809	2.9
291.1967	1.6
307.1921	2.2
309.0776	2.0
309.2070	7.4
325.1263	3.0
325.1862	6.1
325.1989	6.7
325.6243	2.0
326.2022	2.6
327.0871	83.6
327.1268	41.3
327.1851	4.3
327.2173	75.0
328.0897	16.5
328.1297	8.1
328.2207	14.1
329.1025	4.8
329.2328	5.9

Name: Itoside A
PrecursorMZ: 451.12508
RT: 3.4505
ExactMass: 406.12638228
Spectrum_type: 2
charge: -1
Formula: C20H22O9
SMILES: C1=CC=C(C=C1)C(=O)O[C@@H]2[C@H]([C@@H]([C@H](O[C@H]2OC3=C(C=C(C=C3)O)CO)CO)O)O
Method: HCD
Collision_energy: [28.333334]
Isolation_window: 4.0
Ion_mode: N
Num Peaks: 19
50.1236	2.1
50.1263	4.3
50.2378	1.0
123.0445	0.9
125.0237	6.1
137.0237	12.9
137.0601	6.4
138.0272	1.0
143.0342	1.1
179.0347	1.2
181.0501	44.2
182.0533	3.7
257.0665	19.5
258.0693	2.1
269.0665	1.8
319.0823	4.4
451.1251	100.0
452.1284	23.7
453.1314	3.1

Name: Jaceidin
PrecursorMZ: 359.0776
RT: 6.8844
ExactMass: 360.08451746
Spectrum_type: 2
charge: -1
Formula: C18H16O8
SMILES: COC1=C(C=CC(=C1)C2=C(C(=O)C3=C(O2)C=C(C(=C3O)OC)O)OC)O
Method: HCD
Collision_energy: [28.333334]
Isolation_window: 4.0
Ion_mode: N
Num Peaks: 26
109.0286	30.8
110.0320	1.7
135.0444	23.5
136.0479	2.1
145.0288	2.9
149.0602	4.8
159.0444	1.7
161.0601	76.4
162.0637	7.5
179.0343	8.4
181.0496	1.7
205.0502	11.2
229.0509	1.6
231.0294	1.5
253.0866	3.1
255.0662	51.2
256.0697	8.4
269.0819	7.2
271.0978	21.6
272.1009	4.0
315.0876	18.0
316.0911	3.4
341.0674	2.1
359.0777	100.0
360.0809	18.4
361.0904	4.6

Name: Jaligonic acid
PrecursorMZ: 517.31737
RT: 5.135
ExactMass: 518.3243538
Spectrum_type: 2
charge: -1
Formula: C30H46O7
SMILES: C[C@@]1(CC[C@@]2(CC[C@@]3(C(=CC[C@H]4[C@]3(CC[C@@H]5[C@@]4(C[C@@H]([C@@H]([C@@]5(C)CO)O)O)C)C)[C@@H]2C1)C)C(=O)O)C(=O)O
Method: HCD
Collision_energy: [28.333334]
Isolation_window: 4.0
Ion_mode: N
Num Peaks: 26
57.4780	2.1
57.4813	4.5
57.5928	1.4
59.0129	1.0
75.0080	1.1
128.0344	1.3
134.0463	1.8
136.0761	1.7
245.1662	1.1
258.1375	1.8
437.3059	3.2
441.3002	1.6
455.3173	2.8
471.3120	1.0
473.3288	2.3
499.3066	7.0
500.3089	2.3
516.2260	1.4
516.2397	1.5
517.1931	1.3
517.2505	0.9
517.2571	2.0
517.3174	100.0
518.2180	1.5
518.3212	30.4
519.3315	13.5

Name: Kinetin
PrecursorMZ: 214.07287
RT: 15.7748
ExactMass: 215.08070993
Spectrum_type: 2
charge: -1
Formula: C10H9N5O
SMILES: C1=COC(=C1)CNC2=NC=NC3=C2NC=N3
Method: HCD
Collision_energy: [28.333334]
Isolation_window: 4.0
Ion_mode: N
Num Peaks: 34
61.9875	37.7
65.0136	72.2
65.9976	33.0
82.0402	32.3
83.0242	24.1
91.0293	25.7
105.0450	24.7
106.0401	68.4
118.0402	22.6
120.0557	29.7
121.0512	35.2
130.0403	28.3
131.0356	24.5
132.0559	36.6
133.0401	34.4
134.0352	30.7
144.0559	44.0
145.0513	36.8
146.0356	33.0
147.0671	31.1
148.0512	24.8
160.0508	51.0
171.0670	70.3
172.0628	33.4
173.0462	39.9
185.0827	23.9
186.0793	27.3
187.0618	100.0
189.0780	31.1
213.0780	24.5
213.1497	35.4
213.1855	51.9
214.0725	68.6
216.0887	41.0

Name: L,L-Diaminopimelic acid
PrecursorMZ: 189.08745
RT: 10.7311
ExactMass: 190.09535693
Spectrum_type: 2
charge: -1
Formula: C7H14N2O4
SMILES: C(C[C@@H](C(=O)O)N)C[C@@H](C(=O)O)N
Method: HCD
Collision_energy: [28.333334]
Isolation_window: 4.0
Ion_mode: N
Num Peaks: 6
87.0078	13.2
111.0079	17.3
128.0708	53.7
148.0512	13.1
171.0770	19.3
189.0879	100.0

Name: L-(-)-Sorbose
PrecursorMZ: 215.03235
RT: 8.6273
ExactMass: 180.0633881
Spectrum_type: 2
charge: -1
Formula: C6H12O6
SMILES: C([C@@H]([C@H]([C@@H](C(=O)CO)O)O)O)O
Method: HCD
Collision_energy: [28.333334]
Isolation_window: 4.0
Ion_mode: N
Num Peaks: 3
89.0235	100.0
153.0547	58.0
215.0095	60.8

Name: L-2-Aminoadipic Acid
PrecursorMZ: 160.06091
RT: 4.7192
ExactMass: 161.06880783
Spectrum_type: 2
charge: -1
Formula: C6H11NO4
SMILES: C(C[C@@H](C(=O)O)N)CC(=O)O
Method: HCD
Collision_energy: [28.333334]
Isolation_window: 4.0
Ion_mode: N
Num Peaks: 41
59.0130	14.2
60.9922	11.0
71.0130	25.2
72.9688	4.6
73.0286	23.1
83.0129	3.5
85.0286	6.7
87.0078	5.9
88.0395	3.2
96.0446	10.5
97.0285	9.9
97.0649	3.7
98.0602	16.3
99.0443	5.7
101.0235	21.2
113.0234	6.8
114.0551	4.5
115.0391	6.0
115.0754	4.3
115.9198	7.4
116.0246	8.1
116.0708	53.3
116.9587	3.5
118.0037	3.7
131.0342	2.9
142.0502	63.0
143.0344	10.1
143.0532	3.4
144.0659	5.4
158.0460	6.3
158.0814	7.8
159.0300	15.5
159.0657	22.9
160.0392	5.4
160.0608	100.0
161.0454	16.9
161.0638	6.2
161.9129	2.9
162.0193	4.0
162.0282	3.6
162.0765	17.0

Name: L-Alanyl-L-Glutamine
PrecursorMZ: 216.09864
RT: 3.5106
ExactMass: 217.10625597
Spectrum_type: 2
charge: -1
Formula: C8H15N3O4
SMILES: C[C@@H](C(=O)N[C@@H](CCC(=O)N)C(=O)O)N
Method: HCD
Collision_energy: [28.333334]
Isolation_window: 4.0
Ion_mode: N
Num Peaks: 43
59.0130	5.3
83.0494	1.4
86.0602	3.4
87.0555	14.2
88.0395	7.6
113.0713	1.2
114.9353	2.1
116.9339	2.6
127.0506	13.4
128.0346	1.8
145.0613	4.9
145.0976	100.0
146.1014	6.1
154.0979	33.8
154.9461	1.9
155.0818	1.3
155.1016	2.2
171.1133	4.6
171.1496	14.5
172.0108	2.1
172.1084	6.1
172.9571	2.6
173.0925	1.3
174.9915	1.9
180.0774	4.5
198.0880	37.1
199.0718	1.8
199.0911	3.1
214.1080	1.4
215.0092	3.8
215.1053	1.3
215.1398	60.9
216.0312	1.5
216.0989	61.4
216.1216	2.5
216.1428	6.7
216.1605	2.5
217.0026	2.4
217.0269	1.7
217.1014	4.8
217.1204	1.5
218.0668	1.2
218.1036	2.5

Name: L-Alanyl-L-alanine
PrecursorMZ: 159.07662
RT: 7.1873
ExactMass: 160.08479225
Spectrum_type: 2
charge: -1
Formula: C6H12N2O3
SMILES: C[C@@H](C(=O)N[C@@H](C)C(=O)O)N
Method: HCD
Collision_energy: [28.333334]
Isolation_window: 4.0
Ion_mode: N
Num Peaks: 15
60.9921	6.1
65.0137	3.3
72.0444	3.2
72.9687	4.4
87.0553	10.2
88.0394	67.4
98.0601	7.3
115.0867	44.7
130.0401	3.2
157.0510	3.6
157.1221	4.0
159.0660	5.1
159.0767	100.0
159.8930	4.6
160.0807	6.2

Name: L-Arabinose
PrecursorMZ: 149.04445
RT: 2.5312
ExactMass: 150.05282342
Spectrum_type: 2
charge: -1
Formula: C5H10O5
SMILES: C1[C@@H]([C@@H]([C@H](C(O1)O)O)O)O
Method: HCD
Collision_energy: [28.333334]
Isolation_window: 4.0
Ion_mode: N
Num Peaks: 8
59.0128	100.0
71.0128	13.6
73.0284	9.3
83.0127	14.3
89.0231	9.9
101.0233	53.4
131.0336	13.0
149.0444	56.1

Name: L-Arginine
PrecursorMZ: 173.10376
RT: 11.8331
ExactMass: 174.1116757
Spectrum_type: 2
charge: -1
Formula: C6H14N4O2
SMILES: C(C[C@@H](C(=O)O)N)CN=C(N)N
Method: HCD
Collision_energy: [28.333334]
Isolation_window: 4.0
Ion_mode: N
Num Peaks: 21
112.9847	1.3
114.0552	1.2
131.0817	100.0
132.0854	5.0
146.0238	2.6
154.9466	32.9
155.9462	3.2
156.0771	5.2
156.9426	1.5
171.0191	4.5
171.1018	2.2
171.1382	1.9
172.0137	1.9
172.0233	2.5
172.0396	2.1
172.9572	9.8
173.0231	5.0
173.1038	16.0
173.1175	1.8
174.0185	6.2
174.1066	1.0

Name: L-Ascorbic acid 2-glucoside
PrecursorMZ: 337.07769
RT: 7.4934
ExactMass: 338.08491139
Spectrum_type: 2
charge: -1
Formula: C12H18O11
SMILES: C([C@@H]1[C@H]([C@@H]([C@H]([C@H](O1)OC2=C([C@H](OC2=O)[C@H](CO)O)O)O)O)O)O
Method: HCD
Collision_energy: [28.333334]
Isolation_window: 4.0
Ion_mode: N
Num Peaks: 57
59.0130	60.4
60.0163	1.6
71.0130	5.0
72.9923	3.3
73.0287	1.5
75.0080	1.6
78.9581	2.1
79.9564	2.1
80.9643	7.6
85.0286	2.8
87.0079	4.9
88.0394	1.5
89.0234	3.9
96.9590	1.9
97.0285	1.9
99.0442	1.6
101.0235	2.7
109.0289	2.0
110.9845	1.8
111.0192	2.3
111.0446	2.1
112.0397	1.9
113.0235	4.3
114.0552	2.5
115.0028	100.0
116.0063	3.6
123.0442	1.8
124.0395	1.6
127.0396	1.7
128.0345	6.6
130.0869	1.6
135.0443	2.4
136.0395	2.3
137.0604	1.6
138.0550	1.6
139.0396	2.0
143.0346	2.0
171.1018	1.5
173.0454	3.5
181.0492	2.4
202.0539	3.6
247.1454	3.4
275.0932	1.5
277.0555	6.2
291.1356	2.0
292.0859	1.9
293.1038	2.4
335.0873	3.5
335.1298	3.3
336.0755	4.6
336.1132	5.9
337.0855	11.4
337.1312	1.9
338.0908	5.8
338.1315	7.0
339.0711	3.5
339.1107	12.4

Name: L-Aspartyl-L-phenylalanine
PrecursorMZ: 279.09873
RT: 6.3527
ExactMass: 280.10592162
Spectrum_type: 2
charge: -1
Formula: C13H16N2O5
SMILES: C1=CC=C(C=C1)C[C@@H](C(=O)O)NC(=O)[C@H](CC(=O)O)N
Method: HCD
Collision_energy: [28.333334]
Isolation_window: 4.0
Ion_mode: N
Num Peaks: 102
59.0130	12.8
70.0290	3.9
71.0130	17.3
71.0242	42.3
72.9922	3.6
74.0239	7.4
80.9642	4.7
84.0448	4.0
85.0285	4.0
87.0078	4.4
88.0395	32.6
91.0544	4.3
94.0289	14.4
96.0082	6.8
98.0240	4.5
99.0554	6.9
108.0446	19.8
110.0241	4.2
112.0508	11.0
113.0350	5.8
114.0189	3.8
114.0552	24.3
115.0028	47.7
116.0709	10.6
122.0604	8.9
124.0396	6.6
125.0351	3.1
127.0503	6.8
128.0345	11.9
128.0712	4.3
130.0866	15.5
132.0293	5.4
134.0466	4.1
135.0304	9.0
135.0444	4.3
136.0399	5.4
136.0761	4.1
145.0975	4.1
146.0605	13.2
147.0446	6.5
148.0395	6.9
148.0760	5.0
149.0462	17.0
149.0711	6.7
150.0416	3.4
150.0553	8.4
152.0709	3.9
154.0615	3.6
161.0708	4.6
162.0547	4.7
163.0871	55.6
164.0464	4.3
164.0710	58.7
164.0827	7.6
165.0751	4.1
166.0979	4.5
168.0774	12.2
177.0668	3.9
177.1392	4.5
179.0812	3.9
180.0655	10.7
188.0928	8.1
190.0859	5.0
192.1014	4.8
198.0408	4.6
204.1027	3.1
207.0771	3.6
212.1288	3.6
217.0978	3.4
234.1111	5.2
235.1084	54.9
236.1110	5.3
237.1248	6.8
255.6326	4.1
261.0879	11.0
261.1250	5.5
277.1179	4.7
277.1202	5.0
278.0985	3.4
278.1050	9.4
278.1219	14.6
278.1266	4.3
278.6244	4.2
279.0990	100.0
279.1349	26.7
279.2327	20.0
280.0141	3.9
280.0842	5.0
280.0934	3.5
280.0969	8.3
280.0996	9.3
280.1230	8.8
280.1269	5.6
280.1303	9.6
280.1592	7.3
281.0854	4.6
281.0886	15.5
281.1176	6.8
281.1212	17.3
281.1484	5.1
281.1527	3.7
281.2487	39.4

Name: L-Cysteic acid
PrecursorMZ: 167.99629
RT: 8.5377
ExactMass: 169.0044935
Spectrum_type: 2
charge: -1
Formula: C3H7NO5S
SMILES: C([C@@H](C(=O)O)N)S(=O)(=O)O
Method: HCD
Collision_energy: [28.333334]
Isolation_window: 4.0
Ion_mode: N
Num Peaks: 14
71.0129	42.0
80.9642	42.6
86.0238	10.9
100.0394	39.1
122.0319	11.7
148.9725	35.6
150.9698	55.3
166.0532	10.6
166.9832	48.5
167.0342	11.6
167.9966	71.7
168.0271	100.0
168.9803	34.1
184.9937	12.0

Name: L-Fucose
PrecursorMZ: 163.06046
RT: 4.3479
ExactMass: 164.06847348
Spectrum_type: 2
charge: -1
Formula: C6H12O5
SMILES: C[C@H]1[C@H]([C@H]([C@@H](C(O1)O)O)O)O
Method: HCD
Collision_energy: [28.333334]
Isolation_window: 4.0
Ion_mode: N
Num Peaks: 11
59.0130	60.5
71.0129	36.6
72.9922	24.5
73.0285	67.1
75.0079	47.9
101.0236	42.2
131.0342	29.3
149.0092	35.7
162.8931	24.2
163.0605	58.2
163.1123	100.0

Name: L-Glutamic Acid
PrecursorMZ: 146.04492
RT: 7.7525
ExactMass: 147.05315777
Spectrum_type: 2
charge: -1
Formula: C5H9NO4
SMILES: C(CC(=O)O)[C@@H](C(=O)O)N
Method: HCD
Collision_energy: [28.333334]
Isolation_window: 4.0
Ion_mode: N
Num Peaks: 11
85.0285	76.0
86.0319	4.3
88.0394	2.7
102.0550	100.0
103.0583	4.6
118.0401	6.4
128.0344	41.3
129.0379	2.6
145.0509	2.3
146.0243	2.4
146.0450	27.0

Name: L-Glutamine
PrecursorMZ: 145.06105
RT: 9.2139
ExactMass: 146.06914219
Spectrum_type: 2
charge: -1
Formula: C5H10N2O3
SMILES: C(CC(=O)N)[C@@H](C(=O)O)N
Method: HCD
Collision_energy: [28.333334]
Isolation_window: 4.0
Ion_mode: N
Num Peaks: 16
74.0239	16.9
83.0493	14.4
84.0445	39.2
101.0601	16.6
101.0710	21.9
102.0552	56.5
109.0399	51.7
118.0402	50.9
125.0350	19.9
127.0505	100.0
128.0345	72.7
144.0559	11.2
145.0505	12.9
145.0612	98.0
146.0244	16.0
146.0451	15.9

Name: L-Gulonic acid
PrecursorMZ: 177.03982
RT: 6.9709
ExactMass: 196.05830272
Spectrum_type: 2
charge: -1
Formula: C6H12O7
SMILES: C([C@@H]([C@H]([C@@H]([C@@H](C(=O)O)O)O)O)O)O
Method: HCD
Collision_energy: [28.333334]
Isolation_window: 4.0
Ion_mode: N
Num Peaks: 49
57.0337	2.4
59.0130	4.0
69.0337	2.5
71.0130	4.6
72.9922	45.9
73.0285	3.2
74.0239	10.7
75.0079	10.7
85.0286	100.0
86.0319	3.9
86.0602	1.6
87.0078	3.8
87.0442	4.5
87.0554	5.4
88.0395	9.3
89.0235	3.7
97.0286	22.4
99.0079	5.9
101.0233	1.9
101.0600	1.8
108.9332	1.9
113.0599	2.2
115.0391	3.1
117.0186	2.2
129.0185	39.8
130.0220	2.0
130.0501	1.8
131.0344	2.7
131.0454	19.1
131.0704	3.5
132.0485	1.8
132.0658	19.1
133.0695	2.1
141.0182	2.2
145.0501	2.7
145.0612	15.0
147.0293	4.0
159.0292	31.1
159.0653	4.2
175.0606	10.9
175.0731	2.6
176.0348	6.9
176.0563	1.7
176.8428	2.7
177.0063	1.8
177.0406	10.3
177.0768	8.0
178.8412	3.2
179.0560	3.8

Name: L-Gulonic acid, gamma-lactone
PrecursorMZ: 177.03985
RT: 4.4718
ExactMass: 178.04773803
Spectrum_type: 2
charge: -1
Formula: C6H10O6
SMILES: C([C@@H]([C@@H]1[C@@H]([C@@H](C(=O)O1)O)O)O)O
Method: HCD
Collision_energy: [28.333334]
Isolation_window: 4.0
Ion_mode: N
Num Peaks: 40
57.0336	1.9
59.0129	14.0
71.0129	10.6
72.9921	2.6
73.0285	1.5
75.0078	2.5
85.0286	7.8
87.0078	8.4
87.0442	6.3
88.0395	1.8
89.0234	14.8
97.0286	8.7
99.0078	2.6
101.0234	6.9
108.9332	1.7
113.0235	5.0
115.0028	3.5
115.0391	30.4
116.0424	1.4
117.0184	4.3
129.0185	16.3
131.0342	5.6
132.0294	1.5
133.0498	4.0
135.0444	3.6
141.0185	19.9
147.0293	2.1
158.0452	4.8
159.0292	100.0
160.0324	6.4
175.0246	1.8
175.0608	1.7
176.0345	6.7
176.0554	2.2
177.0192	3.9
177.0398	48.6
177.0537	1.7
178.0427	3.1
179.0335	2.9
179.0566	2.1

Name: L-Homoarginine
PrecursorMZ: 187.108
RT: 8.8995
ExactMass: 188.12732577
Spectrum_type: 2
charge: -1
Formula: C7H16N4O2
SMILES: C(CCN=C(N)N)C[C@@H](C(=O)O)N
Method: HCD
Collision_energy: [28.333334]
Isolation_window: 4.0
Ion_mode: N
Num Peaks: 13
72.0446	10.3
121.0510	18.5
125.0963	32.3
128.0343	6.2
131.0817	100.0
143.1180	19.9
144.0295	7.7
145.0974	8.1
185.9995	6.0
187.0961	13.7
187.1094	58.1
188.0928	8.0
188.1282	15.1

Name: L-Homoserine
PrecursorMZ: 118.05004
RT: 15.9133
ExactMass: 119.058243149
Spectrum_type: 2
charge: -1
Formula: C4H9NO3
SMILES: C(CO)[C@@H](C(=O)O)N
Method: HCD
Collision_energy: [28.333334]
Isolation_window: 4.0
Ion_mode: N
Num Peaks: 37
59.0130	8.2
60.9922	60.8
64.0184	16.2
65.0136	28.1
65.9977	11.4
68.0133	7.1
71.0492	4.4
72.0082	32.2
72.9688	20.0
73.0286	83.1
74.0239	48.5
76.9691	27.1
77.0137	13.6
89.0137	16.1
90.0088	40.3
91.0293	29.9
92.0132	11.8
92.0244	4.6
94.9797	21.9
99.0079	8.4
99.9249	15.0
116.0247	22.7
116.0708	68.1
116.9277	100.0
117.0190	28.6
117.0450	8.6
117.0743	5.8
117.9278	12.5
118.0291	10.8
118.0402	42.0
118.0500	23.2
119.0161	68.8
119.0243	46.4
119.0346	8.9
119.0494	11.5
119.0606	22.1
120.0559	38.4

Name: L-Hydroxyproline
PrecursorMZ: 130.05021
RT: 4.1246
ExactMass: 131.058243149
Spectrum_type: 2
charge: -1
Formula: C5H9NO3
SMILES: C1[C@H](CN[C@@H]1C(=O)O)O
Method: HCD
Collision_energy: [28.333334]
Isolation_window: 4.0
Ion_mode: N
Num Peaks: 19
57.0337	6.7
59.0130	8.8
71.0131	8.4
73.0286	10.7
84.0446	6.4
85.0286	30.6
85.0651	6.8
86.0239	11.4
87.0443	14.6
88.0396	25.5
113.0235	8.2
128.0345	56.4
129.0548	7.6
130.0405	8.9
130.0501	100.0
130.0865	69.3
130.9300	11.9
131.0345	20.4
131.0701	9.4

Name: L-Leucyl-L-alanine
PrecursorMZ: 201.12371
RT: 2.5889
ExactMass: 202.13174244
Spectrum_type: 2
charge: -1
Formula: C9H18N2O3
SMILES: C[C@@H](C(=O)O)NC(=O)[C@H](CC(C)C)N
Method: HCD
Collision_energy: [28.333334]
Isolation_window: 4.0
Ion_mode: N
Num Peaks: 13
72.0445	1.8
88.0394	73.3
89.0426	2.3
129.1024	2.8
140.1070	1.6
155.1180	1.2
156.1022	1.7
157.1338	23.0
158.1376	1.8
199.1084	3.8
199.1696	2.3
201.1238	100.0
202.1273	9.9

Name: L-Norvaline
PrecursorMZ: 116.07077
RT: 9.7648
ExactMass: 117.078978594
Spectrum_type: 2
charge: -1
Formula: C5H11NO2
SMILES: CCC[C@@H](C(=O)O)N
Method: HCD
Collision_energy: [28.333334]
Isolation_window: 4.0
Ion_mode: N
Num Peaks: 18
60.9922	49.7
72.0081	3.3
72.9688	21.2
73.0285	8.0
74.0237	4.3
89.0136	6.5
90.0088	4.6
99.9248	13.9
114.0551	4.0
114.9332	5.4
115.0290	3.6
116.0245	13.5
116.0708	70.0
116.9276	100.0
117.0187	2.7
117.0743	4.5
117.9278	7.9
118.0402	5.0

Name: L-Phenylalanyl-L-alanine
PrecursorMZ: 235.10843
RT: 4.7242
ExactMass: 236.11609238
Spectrum_type: 2
charge: -1
Formula: C12H16N2O3
SMILES: C[C@@H](C(=O)O)NC(=O)[C@H](CC1=CC=CC=C1)N
Method: HCD
Collision_energy: [28.333334]
Isolation_window: 4.0
Ion_mode: N
Num Peaks: 18
88.0394	80.8
89.0423	1.9
91.0542	3.2
97.4382	1.9
99.0554	22.9
126.0551	10.0
128.0346	3.1
136.0508	1.7
174.0917	4.6
190.0536	11.9
191.0824	2.7
192.0652	4.4
218.0820	2.0
235.1084	100.0
236.0018	1.6
236.0572	2.1
236.0920	3.1
236.1121	11.7

Name: L-Pyroglutamic Acid
PrecursorMZ: 128.03434
RT: 5.7902
ExactMass: 129.042593085
Spectrum_type: 2
charge: -1
Formula: C5H7NO3
SMILES: C1CC(=O)N[C@@H]1C(=O)O
Method: HCD
Collision_energy: [28.333334]
Isolation_window: 4.0
Ion_mode: N
Num Peaks: 8
82.0288	2.9
84.0444	0.9
85.0282	0.5
128.0147	0.6
128.0343	100.0
128.0543	0.8
129.0378	5.9
130.0864	1.5

Name: L-Pyroglutamic acid
PrecursorMZ: 128.03438
RT: 6.1148
ExactMass: 129.042593085
Spectrum_type: 2
charge: -1
Formula: C5H7NO3
SMILES: C1CC(=O)N[C@@H]1C(=O)O
Method: HCD
Collision_energy: [28.333334]
Isolation_window: 4.0
Ion_mode: N
Num Peaks: 33
57.0337	1.8
58.0289	1.6
59.0129	1.5
65.0136	4.9
73.0398	4.3
79.9564	2.0
82.0288	6.1
83.0492	2.1
84.0445	1.5
85.0285	6.4
85.0396	3.9
86.0238	2.4
88.0394	12.7
89.0134	2.4
109.0398	1.4
112.9981	2.0
126.0384	6.3
126.9863	3.0
127.0137	1.5
127.0392	3.6
127.0503	2.9
127.0755	1.5
128.0126	6.8
128.0344	100.0
128.0500	1.5
129.0191	1.4
129.0313	1.9
129.0381	6.1
129.0452	4.6
129.0546	2.4
130.0402	21.9
130.0654	2.1
130.0864	3.7

Name: L-Quebrachitol
PrecursorMZ: 193.07123
RT: 5.8118
ExactMass: 194.07903816
Spectrum_type: 2
charge: -1
Formula: C7H14O6
SMILES: COC1[C@@H]([C@H](C([C@@H]([C@H]1O)O)O)O)O
Method: HCD
Collision_energy: [28.333334]
Isolation_window: 4.0
Ion_mode: N
Num Peaks: 51
57.0337	1.6
58.0052	2.0
59.0130	31.2
69.0337	2.3
71.0130	30.5
72.9922	4.7
73.0286	17.9
75.0079	2.0
81.0337	2.2
83.0130	7.0
85.0286	24.0
87.0078	7.1
90.0340	2.5
94.0289	3.7
95.0130	4.0
97.0286	5.1
99.0079	20.2
101.0235	100.0
102.0268	4.0
109.0398	3.4
113.0236	27.3
114.0268	1.7
121.0763	4.4
122.0602	4.8
125.0235	1.7
129.0186	2.0
131.0342	39.5
132.0373	1.9
133.0653	1.8
135.0807	5.2
141.0187	1.8
148.0395	1.9
149.0237	3.4
149.0613	1.8
150.0010	2.0
150.0918	5.9
151.0758	4.9
161.0449	7.6
165.0663	1.6
176.8947	4.4
191.0559	5.2
191.0924	1.9
192.0297	3.4
192.9109	1.6
193.0141	3.7
193.0526	1.8
193.0713	45.1
194.0780	3.1
194.0821	12.9
194.9054	23.1
195.0639	3.4

Name: L-Saccharopin
PrecursorMZ: 275.12478
RT: 9.2158
ExactMass: 276.13213636
Spectrum_type: 2
charge: -1
Formula: C11H20N2O6
SMILES: C(CCNC(CCC(=O)O)C(=O)O)CC(C(=O)O)N
Method: HCD
Collision_energy: [28.333334]
Isolation_window: 4.0
Ion_mode: N
Num Peaks: 17
84.0445	3.6
128.0344	6.0
128.0710	3.5
129.0184	3.7
145.0976	6.7
146.0454	3.2
170.1183	3.0
178.0866	3.5
184.0979	3.2
196.0975	22.2
196.8942	3.8
213.1242	10.8
240.0871	3.5
256.8615	3.2
257.1143	100.0
258.1180	10.9
275.1251	16.4

Name: L-Theanine
PrecursorMZ: 173.09247
RT: 8.7222
ExactMass: 174.10044231
Spectrum_type: 2
charge: -1
Formula: C7H14N2O3
SMILES: CCNC(=O)CC[C@@H](C(=O)O)N
Method: HCD
Collision_energy: [28.333334]
Isolation_window: 4.0
Ion_mode: N
Num Peaks: 96
57.0337	1.4
58.0290	18.9
59.0130	9.9
69.0337	2.8
70.0290	1.5
71.0130	5.3
71.0493	1.0
72.0446	0.9
72.9922	1.2
73.0286	2.6
74.0239	2.4
79.9566	1.9
83.0494	6.1
83.0604	0.8
84.0446	8.1
85.0286	3.3
85.0650	1.8
86.0237	1.2
86.0603	1.0
87.0079	2.7
87.0443	1.3
88.0395	46.6
90.9705	1.9
93.0337	2.5
95.0494	1.0
95.0606	1.0
96.0446	1.6
96.9924	1.9
97.0650	1.0
98.0239	0.9
99.0443	1.8
100.0395	3.2
100.0757	0.8
101.0236	1.8
102.0554	1.2
109.0650	2.0
110.0238	1.0
110.0603	2.5
111.0079	2.7
111.0444	3.9
111.0559	1.6
111.0807	78.4
112.0396	4.5
112.0759	2.3
112.0841	6.7
113.0236	2.2
113.0600	1.0
113.0712	3.1
114.0188	10.5
114.0552	4.5
115.0028	8.8
116.0706	1.7
125.0712	1.8
126.0554	2.0
127.0504	1.2
127.0757	3.7
127.0869	4.9
128.0345	4.0
128.0709	7.0
128.1070	1.6
129.0550	4.2
129.0914	7.4
129.1025	9.9
130.0502	16.0
130.0864	3.0
131.0347	1.0
131.0818	81.8
132.0291	0.9
132.0855	4.2
154.9467	5.0
155.0341	1.7
155.0457	1.0
155.0706	2.7
155.0821	1.3
156.0295	3.6
156.0656	3.1
171.0775	0.8
171.1020	2.1
171.1384	4.7
172.0246	2.0
172.0608	11.1
172.0966	5.3
173.0455	8.2
173.0609	1.2
173.0808	42.1
173.0927	100.0
173.1171	2.3
174.0403	13.6
174.0548	1.5
174.0768	4.0
174.0848	2.2
174.0970	7.0
174.1132	1.6
175.0257	1.9
175.0613	4.2
175.0982	1.8

Name: L-Threonic Acid
PrecursorMZ: 135.02943
RT: 2.4503
ExactMass: 136.03717335
Spectrum_type: 2
charge: -1
Formula: C4H8O5
SMILES: C([C@@H]([C@H](C(=O)O)O)O)O
Method: HCD
Collision_energy: [28.333334]
Isolation_window: 4.0
Ion_mode: N
Num Peaks: 8
59.0130	4.9
71.0131	3.2
72.9922	10.6
75.0079	100.0
89.0236	3.3
117.0185	10.5
135.0291	88.3
136.0322	5.6

Name: L-Tryptophanylglycine
PrecursorMZ: 260.10406
RT: 6.27
ExactMass: 261.11134135
Spectrum_type: 2
charge: -1
Formula: C13H15N3O3
SMILES: C1=CC=C2C(=C1)C(=CN2)C[C@@H](C(=O)NCC(=O)O)N
Method: HCD
Collision_energy: [28.333334]
Isolation_window: 4.0
Ion_mode: N
Num Peaks: 92
59.0130	9.0
71.0130	5.9
73.0399	11.7
74.0239	19.6
84.0444	4.4
85.0284	5.0
85.0399	7.1
86.0238	10.2
87.0078	4.9
87.0554	7.4
88.0395	41.5
92.0497	9.4
94.0289	7.8
98.0351	4.2
108.0449	3.7
108.0559	48.1
110.0710	4.4
112.0392	4.2
113.0348	5.7
113.0713	15.4
114.0189	4.0
114.0552	24.4
116.0497	7.7
116.0709	41.4
120.0449	3.7
122.0604	7.1
124.0395	4.9
124.0759	6.5
125.0349	4.0
127.0506	5.9
128.0345	64.4
129.1027	9.6
130.0866	50.4
131.0453	16.2
131.0903	3.3
132.0653	4.2
134.0352	4.6
134.0605	5.5
134.0967	46.3
136.0762	33.2
138.0553	12.9
138.0920	4.3
139.0505	9.5
140.1077	5.6
141.0660	5.0
142.0860	4.3
143.0457	4.6
143.1182	8.7
147.0444	7.1
148.0397	55.4
149.0429	4.2
156.0654	6.2
161.0716	5.8
164.0460	4.2
164.0710	4.4
169.0977	21.7
170.0818	13.5
171.0924	6.9
176.0463	4.5
186.1244	15.0
187.1082	7.2
197.1294	4.4
200.0558	11.2
203.0816	6.2
214.1562	6.0
215.0820	15.2
215.1166	4.3
216.1148	18.0
216.1395	4.2
217.0985	5.3
218.0809	4.7
229.0972	4.2
230.1155	7.4
239.1036	4.4
241.1193	35.8
242.1223	3.9
244.1205	4.4
258.1470	23.0
259.1188	15.0
259.1466	18.6
259.1802	56.0
260.1039	100.0
260.1258	18.3
260.1842	10.7
261.0853	6.4
261.0888	4.0
261.1043	4.8
261.1234	13.0
261.1284	27.6
261.1616	4.2
262.0708	4.7
262.0933	14.3

Name: L-Tyrosyl-L-tyrosine
PrecursorMZ: 343.13013
RT: 5.2343
ExactMass: 344.13722174
Spectrum_type: 2
charge: -1
Formula: C18H20N2O5
SMILES: C1=CC(=CC=C1C[C@@H](C(=O)N[C@@H](CC2=CC=C(C=C2)O)C(=O)O)N)O
Method: HCD
Collision_energy: [28.333334]
Isolation_window: 4.0
Ion_mode: N
Num Peaks: 18
71.0241	12.5
74.0238	7.0
107.0496	13.8
116.0709	7.4
119.0496	7.8
130.0865	18.9
179.0820	10.1
180.0662	15.5
191.0823	12.9
212.1038	13.5
237.0878	17.0
299.1399	7.5
341.1990	9.8
342.1046	7.1
343.1304	100.0
343.2086	30.2
344.1347	23.3
345.1757	9.8

Name: L-Valine
PrecursorMZ: 116.07067
RT: 9.7088
ExactMass: 117.078978594
Spectrum_type: 2
charge: -1
Formula: C5H11NO2
SMILES: CC(C)[C@@H](C(=O)O)N
Method: HCD
Collision_energy: [28.333334]
Isolation_window: 4.0
Ion_mode: N
Num Peaks: 20
59.0128	1.3
60.9922	17.8
65.0136	1.4
72.9687	6.5
73.0285	2.1
73.0398	1.3
89.0135	3.0
90.0087	2.2
99.9248	16.4
114.9331	4.3
115.0293	1.2
115.9197	1.6
116.0245	5.1
116.0707	27.6
116.9275	100.0
117.0195	1.5
117.0448	1.5
117.0741	1.5
117.9277	6.4
118.0399	1.5

Name: L-alanyl-L-phenylalanine
PrecursorMZ: 235.10865
RT: 1.3345
ExactMass: 236.11609238
Spectrum_type: 2
charge: -1
Formula: C12H16N2O3
SMILES: C[C@@H](C(=O)N[C@@H](CC1=CC=CC=C1)C(=O)O)N
Method: HCD
Collision_energy: [28.333334]
Isolation_window: 4.0
Ion_mode: N
Num Peaks: 37
61.9875	5.0
87.0554	54.0
88.0395	3.0
88.0587	1.6
91.0544	1.6
109.0290	1.5
113.0234	1.8
135.0443	1.2
137.0714	1.5
147.0442	14.6
147.0555	3.0
149.0601	8.1
155.0450	1.2
160.0607	1.5
164.0710	7.3
189.0669	2.9
191.1182	4.2
192.0650	1.5
193.0864	4.2
205.0726	100.0
205.0890	1.5
206.0760	9.6
207.0511	2.1
216.0660	1.6
218.0452	1.4
233.1542	2.4
234.0759	6.1
235.0828	15.3
235.1078	73.6
235.1270	1.2
236.0563	3.2
236.0652	2.1
236.0917	17.4
236.1117	7.6
237.0779	3.2
237.0957	1.7
237.1238	1.6

Name: L-beta-Homothreonine
PrecursorMZ: 132.0656
RT: 9.9135
ExactMass: 133.07389321
Spectrum_type: 2
charge: -1
Formula: C5H11NO3
SMILES: C[C@H]([C@@H](CC(=O)O)N)O
Method: HCD
Collision_energy: [28.333334]
Isolation_window: 4.0
Ion_mode: N
Num Peaks: 15
65.0136	11.9
71.0129	25.3
84.0444	9.7
86.0601	19.9
88.0394	18.7
91.0292	19.0
114.0551	12.9
115.0026	28.4
130.0864	15.1
131.0354	20.7
131.0816	100.0
132.0558	9.8
132.0658	18.3
132.8668	14.3
133.0502	13.3

Name: L-m-tyrosine
PrecursorMZ: 180.06579
RT: 7.605
ExactMass: 181.07389321
Spectrum_type: 2
charge: -1
Formula: C9H11NO3
SMILES: C1=CC(=CC(=C1)O)C[C@@H](C(=O)O)N
Method: HCD
Collision_energy: [28.333334]
Isolation_window: 4.0
Ion_mode: N
Num Peaks: 61
59.0129	15.2
71.0129	8.7
72.0081	21.7
72.9921	3.0
73.0286	3.4
74.0238	2.5
75.0077	6.4
78.9849	9.3
79.9562	9.5
80.9642	40.4
83.0128	3.2
85.0284	6.6
87.0078	3.2
89.0233	11.9
90.9226	2.2
92.0495	12.7
93.0335	15.7
94.0288	8.9
96.0080	2.7
97.0284	3.3
99.0078	3.0
99.0441	2.5
101.0234	13.3
108.0446	4.9
108.9331	3.9
109.0286	2.3
115.0387	2.1
119.0492	34.9
120.0523	3.2
121.0285	3.1
131.0339	3.9
134.0603	2.1
135.0112	5.8
135.0444	20.3
135.0552	2.8
136.0395	100.0
136.0758	25.7
137.0255	3.7
137.0434	6.5
137.0600	10.3
137.0710	3.3
138.0412	9.7
138.0550	5.2
149.0709	4.7
161.0446	10.1
163.0066	2.7
163.0392	61.5
164.0428	6.5
178.0437	2.0
179.0012	6.1
179.0341	5.2
179.0558	19.0
179.0800	2.1
180.0296	5.2
180.0658	92.7
180.9835	2.3
181.0168	66.4
181.0334	2.7
181.0358	6.9
181.0500	7.4
181.0697	7.3

Name: Lactarorufin B
PrecursorMZ: 281.13927
RT: 5.8067
ExactMass: 282.1467238
Spectrum_type: 2
charge: -1
Formula: C15H22O5
SMILES: CC1(CC2C(C1)C(CC3=C(C2O)COC3=O)(C)O)CO
Method: HCD
Collision_energy: [28.333334]
Isolation_window: 4.0
Ion_mode: N
Num Peaks: 35
59.0129	7.4
61.9875	9.5
74.0238	8.2
85.0650	12.1
88.0392	5.5
107.0492	5.9
114.0552	5.8
123.0443	6.3
130.0865	8.5
151.0869	31.4
153.0661	17.8
164.0711	6.2
195.1384	6.0
219.1386	41.8
221.1175	10.4
221.1542	10.1
236.1367	8.9
237.0874	22.9
237.1492	80.6
238.1206	8.3
238.1523	8.2
239.1648	28.7
263.1290	42.8
264.1321	6.2
265.1432	6.3
281.1134	9.3
281.1394	100.0
281.1433	34.7
281.1746	6.6
281.2478	16.9
282.1077	17.8
282.1409	18.7
283.1193	9.3
283.1551	40.8
283.2640	66.4

Name: Lactobionic Acid
PrecursorMZ: 357.10402
RT: 2.9922
ExactMass: 358.11112613
Spectrum_type: 2
charge: -1
Formula: C12H22O12
SMILES: C([C@@H]1[C@@H]([C@@H]([C@H]([C@@H](O1)O[C@H]([C@@H](CO)O)[C@@H]([C@H](C(=O)O)O)O)O)O)O)O
Method: HCD
Collision_energy: [28.333334]
Isolation_window: 4.0
Ion_mode: N
Num Peaks: 6
75.0079	5.1
129.0185	2.3
147.0292	3.4
165.0398	100.0
166.0432	5.8
191.0553	2.3

Name: Laricitrin
PrecursorMZ: 331.04577
RT: 0.8133
ExactMass: 332.05321734
Spectrum_type: 2
charge: -1
Formula: C16H12O8
SMILES: COC1=CC(=CC(=C1O)O)C2=C(C(=O)C3=C(C=C(C=C3O2)O)O)O
Method: HCD
Collision_energy: [28.333334]
Isolation_window: 4.0
Ion_mode: N
Num Peaks: 39
59.0115	1.8
87.0061	2.9
109.0268	2.2
116.0147	5.4
126.0894	2.6
135.0423	1.9
140.0105	40.9
140.0204	2.6
141.0136	2.9
149.0215	2.4
155.0341	3.5
165.9898	4.7
170.0814	15.4
173.0427	1.8
181.0115	2.2
191.0553	3.1
205.1587	2.5
225.0896	3.4
227.1036	4.9
243.0999	2.8
272.0323	11.1
285.0758	2.4
285.1124	3.3
287.0574	2.9
287.0923	4.1
316.0220	71.0
317.0255	11.9
329.0660	3.1
329.0987	6.6
329.1422	2.5
330.0713	2.0
330.1006	2.5
331.0460	100.0
331.0825	22.9
331.1131	2.2
332.0492	17.3
332.0833	5.2
333.0599	4.6
333.0975	7.4

Name: Lauroylsarcosine
PrecursorMZ: 270.2076
RT: 1.3428
ExactMass: 271.21474379
Spectrum_type: 2
charge: -1
Formula: C15H29NO3
SMILES: CCCCCCCCCCCC(=O)N(C)CC(=O)O
Method: HCD
Collision_energy: [28.333334]
Isolation_window: 4.0
Ion_mode: N
Num Peaks: 7
88.0395	100.0
225.2225	5.6
226.2172	6.0
269.2125	21.2
269.2489	18.1
270.2078	31.8
271.2286	6.2

Name: Lauryl sulfate
PrecursorMZ: 265.14774
RT: 0.5247
ExactMass: 266.15518048
Spectrum_type: 2
charge: -1
Formula: C12H26O4S
SMILES: CCCCCCCCCCCCOS(=O)(=O)O
Method: HCD
Collision_energy: [28.333334]
Isolation_window: 4.0
Ion_mode: N
Num Peaks: 11
79.9567	0.4
96.9590	27.1
98.9548	0.5
265.0882	0.7
265.1004	0.5
265.1474	100.0
265.1942	0.7
265.2059	0.7
266.1506	12.9
267.1431	2.5
267.2319	1.1

Name: Lecanoric Acid
PrecursorMZ: 317.06618
RT: 1.3513
ExactMass: 318.07395278
Spectrum_type: 2
charge: -1
Formula: C16H14O7
SMILES: CC1=CC(=CC(=C1C(=O)OC2=CC(=C(C(=C2)C)C(=O)O)O)O)O
Method: HCD
Collision_energy: [28.333334]
Isolation_window: 4.0
Ion_mode: N
Num Peaks: 15
79.9564	7.2
80.9643	3.8
96.9591	12.5
123.0443	9.9
149.0236	10.4
167.0342	100.0
168.0376	8.6
315.1278	36.4
315.6296	19.6
316.1145	58.3
316.6153	16.0
317.1223	36.5
317.6223	10.7
318.0439	2.4
318.1254	5.5

Name: Lecocarpinolide H
PrecursorMZ: 277.10821
RT: 0.6669
ExactMass: 278.11542367
Spectrum_type: 2
charge: -1
Formula: C15H18O5
SMILES: C=C1[C@@H]2[C@@H](C/C(=C\CC/C(=C/[C@H]2OC1=O)/CO)/C=O)O
Method: HCD
Collision_energy: [28.333334]
Isolation_window: 4.0
Ion_mode: N
Num Peaks: 53
59.0130	1.3
72.9921	1.2
85.0649	1.6
87.0079	4.6
96.9590	1.1
105.0184	3.5
111.0441	2.4
116.0707	1.2
121.0286	1.3
130.0866	4.6
131.0902	2.8
136.0761	3.6
145.0666	2.1
147.0443	1.6
149.0602	11.2
150.0634	1.1
161.0600	1.7
164.0710	2.6
171.1018	1.1
171.1173	2.2
172.0967	2.9
173.1004	3.7
187.1121	1.2
188.0922	1.9
189.0568	1.2
189.0918	2.7
189.1280	13.5
190.1301	1.3
191.1051	1.2
195.1024	2.3
215.1076	3.7
216.1039	1.1
217.0840	1.2
230.1029	1.3
231.1018	1.8
232.0968	1.6
233.0822	2.7
233.1179	10.8
234.1168	2.3
235.0960	2.6
258.0989	4.1
259.0979	9.1
260.1008	1.6
275.1498	2.5
275.5756	4.1
276.0850	2.5
276.1123	1.4
277.0736	9.8
277.1080	100.0
278.0730	1.7
278.1107	16.5
279.0866	10.6
279.1169	1.4

Name: Lecocarpinolide J
PrecursorMZ: 391.1762
RT: 1.5839
ExactMass: 392.18350323
Spectrum_type: 2
charge: -1
Formula: C21H28O7
SMILES: CCC(C)C(=O)OC1C2C(/C=C(/CC/C=C(\C1OC)/C=O)\CO)OC(=O)C2=C
Method: HCD
Collision_energy: [28.333334]
Isolation_window: 4.0
Ion_mode: N
Num Peaks: 35
61.9874	6.2
85.9985	6.9
87.0077	4.9
109.0288	3.6
135.0441	6.1
137.0599	3.5
179.0344	3.5
179.0705	4.7
180.0655	3.9
181.0498	21.3
181.0864	3.4
197.0448	3.6
197.0822	3.3
245.1176	7.4
245.1666	3.1
285.1856	10.5
329.1098	3.0
329.1756	69.2
330.1782	15.3
347.0081	2.7
347.1855	14.5
348.1908	3.0
373.1653	11.1
374.1694	3.3
389.1273	2.7
390.0268	5.2
390.0878	5.3
390.1333	4.1
391.1045	32.5
391.1774	100.0
391.2818	5.8
392.1042	8.6
392.1798	26.7
393.1183	17.1
393.1707	4.3

Name: Leprapinic acid
PrecursorMZ: 351.08669
RT: 6.3687
ExactMass: 352.09468823
Spectrum_type: 2
charge: -1
Formula: C20H16O6
SMILES: COC1=CC=CC=C1/C(=C\2/C(=C(C(=O)O2)C3=CC=CC=C3)O)/C(=O)OC
Method: HCD
Collision_energy: [28.333334]
Isolation_window: 4.0
Ion_mode: N
Num Peaks: 15
59.0130	4.4
71.0129	2.9
80.9643	97.8
87.0079	4.3
89.0235	5.1
149.0714	4.2
186.0221	2.2
230.0128	2.9
261.0552	22.0
262.0575	2.3
287.1764	2.5
351.0866	100.0
352.0901	14.9
353.0874	4.6
353.1972	13.3

Name: Leptophylloside
PrecursorMZ: 423.13012
RT: 3.3631
ExactMass: 424.13694696
Spectrum_type: 2
charge: -1
Formula: C20H24O10
SMILES: CC(C)([C@H]1CC2=C(O1)C(=C3C(=C2)C=CC(=O)O3)O)O[C@H]4[C@@H]([C@H]([C@@H]([C@H](O4)CO)O)O)O
Method: HCD
Collision_energy: [28.333334]
Isolation_window: 4.0
Ion_mode: N
Num Peaks: 30
59.0129	4.2
85.0285	2.7
87.0079	2.0
87.0442	2.3
125.0235	2.6
131.0342	6.5
137.0240	2.9
137.0599	5.9
149.0602	4.2
155.0342	5.2
157.0500	2.5
169.0500	11.7
175.0758	2.9
181.0500	50.2
182.0533	4.5
187.0604	2.3
211.0606	9.8
229.0714	24.1
230.0749	2.2
235.0609	5.1
241.0716	2.2
261.1130	8.5
323.1148	2.4
345.0983	2.9
363.1082	5.3
405.1193	10.4
406.1223	2.5
423.1300	100.0
424.1334	23.1
425.1378	2.7

Name: Leu-phe
PrecursorMZ: 277.1553
RT: 2.0653
ExactMass: 278.16304257
Spectrum_type: 2
charge: -1
Formula: C15H22N2O3
SMILES: CC(C)C[C@@H](C(=O)N[C@@H](CC1=CC=CC=C1)C(=O)O)N
Method: HCD
Collision_energy: [28.333334]
Isolation_window: 4.0
Ion_mode: N
Num Peaks: 13
69.2326	5.0
91.0540	4.2
129.1023	45.8
130.0864	39.9
141.1024	22.7
147.0443	11.0
164.0708	10.7
233.1662	4.4
257.1300	3.7
277.0201	6.8
277.1555	100.0
277.1827	7.9
278.1588	14.4

Name: Lignicol
PrecursorMZ: 239.05567
RT: 1.1898
ExactMass: 240.0633881
Spectrum_type: 2
charge: -1
Formula: C11H12O6
SMILES: C[C@@H]1[C@H](C2=CC(=C(C(=C2C(=O)O1)O)OC)O)O
Method: HCD
Collision_energy: [28.333334]
Isolation_window: 4.0
Ion_mode: N
Num Peaks: 131
59.0129	3.5
61.9875	1.1
69.0335	1.1
71.0128	1.3
72.9921	6.9
73.0284	1.1
75.0077	1.9
79.9563	1.0
80.9641	3.3
83.0130	1.3
83.0493	1.4
85.0284	1.9
87.0078	5.1
91.0390	1.9
93.0336	2.3
95.0491	1.3
96.0443	0.9
96.9590	2.1
97.0285	4.7
99.0077	1.3
99.0440	1.2
101.0234	1.2
106.9797	1.6
107.0491	2.0
108.0447	2.8
109.0285	3.3
109.0649	2.2
110.0235	1.1
110.0600	1.7
111.0077	1.1
111.0442	3.1
112.0392	0.9
113.0234	2.4
113.0347	3.4
114.0187	1.6
116.0163	1.0
119.0495	1.5
121.0287	3.3
121.0650	3.0
122.0602	1.3
123.0440	6.0
123.0551	1.0
123.0803	1.2
124.0396	3.2
125.0234	2.7
125.0596	1.8
127.0390	1.8
131.0493	1.7
133.0650	2.0
135.0442	5.8
136.0388	1.2
137.0237	4.8
137.0600	3.9
138.0552	2.4
139.0392	3.7
147.0442	1.3
149.0231	1.0
149.0601	10.5
149.0709	1.1
150.0540	2.6
150.0913	1.7
151.0393	5.3
151.0756	8.2
152.0698	2.4
153.0550	2.9
154.0501	5.9
159.0108	1.1
161.0597	1.0
163.0390	2.3
164.0464	1.4
165.0184	1.3
165.0548	7.5
166.0484	2.3
166.0863	1.0
167.0341	6.6
167.0705	4.5
169.0501	1.9
175.0390	1.9
175.0753	1.5
176.0699	1.1
177.0187	1.1
177.0547	5.8
178.0502	1.5
179.0343	2.9
179.0703	2.6
181.0499	3.0
191.0339	1.0
193.0496	7.9
193.0845	5.0
193.1343	3.2
194.0285	2.3
194.0528	1.1
194.0809	8.9
194.1178	1.9
195.0284	1.1
195.0465	1.3
195.0654	9.6
195.1019	1.3
196.0424	1.4
196.0613	1.4
196.0974	1.3
197.0442	1.7
197.0796	2.2
208.0222	1.1
209.0445	3.5
209.0804	2.1
210.0760	2.9
211.0605	3.6
213.0550	1.5
220.0616	1.1
221.0448	4.9
223.0596	1.9
237.0399	3.9
237.0759	19.2
237.0943	5.1
237.1161	1.1
237.9840	0.9
238.0352	12.3
238.0724	17.2
239.0554	100.0
239.0917	3.0
239.1109	9.3
239.1646	1.0
240.0401	4.7
240.0591	9.5
240.0873	6.6
240.1073	0.9
240.9830	1.8
241.0481	3.7
241.0702	20.5
241.1249	4.0

Name: Limocitrin
PrecursorMZ: 345.06138
RT: 5.52
ExactMass: 346.0688674
Spectrum_type: 2
charge: -1
Formula: C17H14O8
SMILES: COC1=C(C=CC(=C1)C2=C(C(=O)C3=C(O2)C(=C(C=C3O)O)OC)O)O
Method: HCD
Collision_energy: [28.333334]
Isolation_window: 4.0
Ion_mode: N
Num Peaks: 9
61.9874	27.0
109.0285	29.5
147.0442	27.0
191.0343	43.5
235.0237	7.7
255.0666	9.4
257.0820	15.1
345.0612	100.0
346.0641	19.2

Name: Lincomycin
PrecursorMZ: 405.2068
RT: 1.0439
ExactMass: 406.21375798
Spectrum_type: 2
charge: -1
Formula: C18H34N2O6S
SMILES: CCC[C@@H]1C[C@H](N(C1)C)C(=O)N[C@@H]([C@@H]2[C@@H]([C@@H]([C@H]([C@H](O2)SC)O)O)O)[C@@H](C)O
Method: HCD
Collision_energy: [28.333334]
Isolation_window: 4.0
Ion_mode: N
Num Peaks: 16
138.0314	4.1
139.0029	2.7
152.0109	0.9
165.0183	1.3
166.0264	47.4
167.0296	3.6
269.0817	7.7
270.0851	1.2
317.1183	6.3
318.1215	1.9
321.1129	3.4
322.1168	1.0
387.1978	2.5
405.2072	100.0
406.2105	28.1
407.2139	3.3

Name: Lithocholenic acid
PrecursorMZ: 373.275
RT: 6.6202
ExactMass: 374.28209507
Spectrum_type: 2
charge: -1
Formula: C24H38O3
SMILES: C[C@H](CCC(=O)O)[C@H]1CC[C@@H]2[C@@]1(C=C[C@H]3[C@H]2CC[C@H]4[C@@]3(CC[C@H](C4)O)C)C
Method: HCD
Collision_energy: [28.333334]
Isolation_window: 4.0
Ion_mode: N
Num Peaks: 16
125.0348	2.2
297.2223	2.7
325.2541	3.4
345.2774	1.0
353.2489	2.5
355.2646	100.0
356.2680	24.2
357.2714	2.4
371.2604	1.6
373.1218	0.9
373.2752	59.4
374.2240	1.4
374.2782	15.1
375.2907	10.6
391.2859	15.6
392.2895	4.7

Name: Longilactone, delta-4(18)-Isomer, 2alpha-alcoho
PrecursorMZ: 413.18213
RT: 1.0292
ExactMass: 368.18350323
Spectrum_type: 2
charge: -1
Formula: C19H28O7
SMILES: C[C@H]1[C@H]([C@@H](C2[C@]3([C@@H]([C@H](CC(=C)C3[C@H]([C@@H]4[C@]2(C1C(=O)O4)C)O)O)O)C)O)O
Method: HCD
Collision_energy: [28.333334]
Isolation_window: 4.0
Ion_mode: N
Num Peaks: 22
59.0131	2.4
61.9875	7.3
130.0867	4.5
159.0658	2.0
167.0707	22.1
168.0742	2.1
223.0972	22.0
224.1006	2.1
239.0918	2.2
253.1080	100.0
254.1116	14.0
255.1242	3.4
263.1290	2.2
281.1390	2.1
326.1370	3.9
353.1617	3.1
368.2576	2.5
369.3369	3.5
411.2037	16.6
412.2061	6.7
413.1808	21.9
414.1854	5.5

Name: Mahureone D
PrecursorMZ: 527.33779
RT: 4.61445
ExactMass: 528.34508925
Spectrum_type: 2
charge: -1
Formula: C32H48O6
SMILES: CCCC(CC(=O)O)C1=C2C(CC(C1(C)C)CC=C(C)C)(C(=C(C(=O)O2)C(=O)CC(C)C)O)CC=C(C)C
Method: HCD
Collision_energy: [28.333334]
Isolation_window: 4.0
Ion_mode: N
Num Peaks: 12
96.9586	13.5
135.0427	5.7
391.2858	100.0
392.2892	22.8
525.3801	6.9
526.2590	6.1
526.3846	6.3
527.2692	30.1
527.3895	6.0
527.3948	4.6
528.2725	9.1
529.2841	14.9

Name: Malonic Acid
PrecursorMZ: 103.0027
RT: 1.1416
ExactMass: 104.0109586
Spectrum_type: 2
charge: -1
Formula: C3H4O4
SMILES: C(C(=O)O)C(=O)O
Method: HCD
Collision_energy: [28.333334]
Isolation_window: 4.0
Ion_mode: N
Num Peaks: 6
59.0129	100.0
60.0082	96.1
75.0077	16.3
99.9248	13.8
115.9197	93.9
116.9199	16.2

Name: Maltitol
PrecursorMZ: 343.12538
RT: 8.087399999999999
ExactMass: 344.13186158
Spectrum_type: 2
charge: -1
Formula: C12H24O11
SMILES: C([C@@H]1[C@H]([C@@H]([C@H]([C@H](O1)O[C@H]([C@@H](CO)O)[C@@H]([C@H](CO)O)O)O)O)O)O
Method: HCD
Collision_energy: [28.333334]
Isolation_window: 4.0
Ion_mode: N
Num Peaks: 3
165.1139	18.6
179.0931	100.0
269.1252	31.5

Name: Maltopentaose
PrecursorMZ: 827.26828
RT: 10.6551
ExactMass: 828.27468176
Spectrum_type: 2
charge: -1
Formula: C30H52O26
SMILES: C([C@@H]1[C@H]([C@@H]([C@H]([C@H](O1)O[C@@H]2[C@H](O[C@@H]([C@@H]([C@H]2O)O)O[C@@H]3[C@H](O[C@@H]([C@@H]([C@H]3O)O)O[C@@H]4[C@H](O[C@@H]([C@@H]([C@H]4O)O)O[C@H]([C@@H](CO)O)[C@@H]([C@H](C=O)O)O)CO)CO)CO)O)O)O)O
Method: HCD
Collision_energy: [28.333334]
Isolation_window: 4.0
Ion_mode: N
Num Peaks: 56
59.0129	13.3
69.1972	6.2
69.3201	4.3
71.0130	31.1
73.0286	20.6
78.9582	30.6
83.0130	7.1
87.0079	6.6
89.0235	37.5
96.9591	4.8
96.9686	5.8
97.0286	16.9
97.4633	4.4
101.0235	78.2
113.0236	20.6
115.0392	5.0
119.0342	18.0
125.0237	5.0
143.0342	16.9
152.9950	5.8
161.0449	100.0
162.0485	5.7
171.0060	6.7
179.0555	52.0
221.0664	41.9
241.0118	25.6
242.0145	5.3
255.2335	4.9
259.0225	15.0
263.0770	7.6
281.0880	11.0
323.0983	10.5
341.1089	38.2
342.1131	4.0
383.1198	37.7
384.1239	6.0
425.1306	10.8
443.1409	11.2
465.3050	12.3
485.1516	5.6
503.1623	20.5
504.1628	4.9
545.1729	26.6
546.1784	5.8
587.1836	13.8
605.1960	5.3
665.2155	8.5
707.2251	10.2
749.2400	4.2
825.5723	39.3
826.5701	18.0
827.2686	11.3
827.2784	5.9
827.5640	5.0
828.2774	4.4
829.2781	3.5

Name: Maltose
PrecursorMZ: 341.10854
RT: 4.6755
ExactMass: 342.11621151
Spectrum_type: 2
charge: -1
Formula: C12H22O11
SMILES: C([C@@H]1[C@H]([C@@H]([C@H]([C@H](O1)O[C@@H]2[C@H](OC([C@@H]([C@H]2O)O)O)CO)O)O)O)O
Method: HCD
Collision_energy: [28.333334]
Isolation_window: 4.0
Ion_mode: N
Num Peaks: 37
59.0129	12.7
71.0128	24.7
73.0285	13.0
83.0127	4.9
85.0284	5.3
87.0077	8.2
88.0392	6.6
89.0233	27.7
97.0285	13.0
101.0234	37.5
109.0283	9.5
113.0233	18.6
115.0392	4.9
119.0338	9.5
125.0234	3.8
128.0344	4.3
131.0338	5.0
135.0442	9.1
143.0341	9.6
161.0448	31.8
164.0704	5.9
179.0556	16.2
207.0777	19.2
208.0609	7.9
221.0640	4.9
239.0711	19.6
253.0866	4.5
255.1022	23.0
279.0992	7.8
297.1016	4.5
299.0927	7.9
323.0866	6.5
339.0741	4.9
340.0693	4.7
341.1002	100.0
342.0994	13.0
343.0804	44.7

Name: Maltotetraose
PrecursorMZ: 665.21444
RT: 10.2639
ExactMass: 666.22185834
Spectrum_type: 2
charge: -1
Formula: C24H42O21
SMILES: C([C@@H]1[C@H]([C@@H]([C@H]([C@H](O1)O[C@@H]2[C@H](O[C@@H]([C@@H]([C@H]2O)O)O[C@@H]3[C@H](O[C@@H]([C@@H]([C@H]3O)O)O[C@H]([C@@H](CO)O)[C@@H]([C@H](C=O)O)O)CO)CO)O)O)O)O
Method: HCD
Collision_energy: [28.333334]
Isolation_window: 4.0
Ion_mode: N
Num Peaks: 5
89.0231	33.7
101.0234	50.1
161.0447	100.0
179.0555	42.2
221.0671	33.0

Name: Mannitol
PrecursorMZ: 181.07112
RT: 8.36355
ExactMass: 182.07903816
Spectrum_type: 2
charge: -1
Formula: C6H14O6
SMILES: C([C@H]([C@H]([C@@H]([C@@H](CO)O)O)O)O)O
Method: HCD
Collision_energy: [28.333334]
Isolation_window: 4.0
Ion_mode: N
Num Peaks: 81
58.0052	1.0
59.0130	32.6
69.0337	1.6
69.2567	1.3
71.0130	52.6
72.0082	4.3
72.0164	2.2
72.9922	2.7
73.0286	23.0
79.9564	5.4
80.9643	11.8
81.0448	1.2
82.0287	1.1
83.0129	3.1
85.0286	12.0
87.0079	3.3
89.0235	64.5
90.0268	2.0
91.0391	1.6
92.0496	5.8
93.0337	4.0
94.0289	28.3
94.0399	1.0
95.0322	1.4
95.0486	1.0
96.0082	5.8
96.9591	1.1
97.0286	5.3
99.0078	2.2
99.0441	1.1
101.0235	61.7
102.0268	2.7
103.0393	1.4
106.9800	1.8
107.0492	1.0
108.0446	3.4
109.0286	1.1
110.0238	1.2
111.0443	1.0
113.0235	10.1
115.0392	5.3
119.0343	12.8
119.0493	13.4
120.0446	1.1
120.0528	1.1
121.0494	1.2
131.0342	4.5
135.0445	2.6
136.0396	43.6
136.0478	1.3
136.0757	2.8
136.0867	1.1
137.0434	3.2
137.0599	3.7
137.0711	1.4
138.0211	1.6
138.0553	3.7
138.0915	0.9
138.1028	2.0
139.0396	1.2
143.0340	1.2
149.0447	3.0
161.0448	2.1
162.0558	1.2
163.0393	12.3
163.0604	9.3
164.0443	1.2
164.9857	1.4
179.0559	2.1
180.0301	1.8
180.0657	19.1
180.9804	1.0
181.0173	10.6
181.0520	1.5
181.0712	100.0
181.0843	1.2
181.0973	2.0
182.0103	1.1
182.0434	1.4
182.0747	6.6
182.0927	11.9

Name: Mannuronic Acid
PrecursorMZ: 193.0349
RT: 1.6672
ExactMass: 194.04265265
Spectrum_type: 2
charge: -1
Formula: C6H10O7
SMILES: C(=O)[C@H]([C@H]([C@@H]([C@@H](C(=O)O)O)O)O)O
Method: HCD
Collision_energy: [28.333334]
Isolation_window: 4.0
Ion_mode: N
Num Peaks: 21
57.0338	6.8
59.0130	7.6
72.9922	6.0
75.0078	100.0
85.0286	18.1
99.0078	7.6
101.0234	5.0
129.0185	42.7
147.0291	84.4
165.0399	39.4
176.8945	16.5
191.0359	6.7
191.0556	11.4
192.0313	17.7
192.9112	4.7
193.0149	8.1
193.0349	79.8
193.0507	13.8
194.0200	4.5
194.0372	5.0
194.9053	78.5

Name: Marticin
PrecursorMZ: 375.07258
RT: 5.3869
ExactMass: 376.07943208
Spectrum_type: 2
charge: -1
Formula: C18H16O9
SMILES: CC12CC3=C(C(O1)CC(O2)C(=O)O)C(=C4C(=O)C=C(C(=O)C4=C3O)OC)O
Method: HCD
Collision_energy: [28.333334]
Isolation_window: 4.0
Ion_mode: N
Num Peaks: 17
111.0080	20.7
123.0079	35.0
165.0551	25.4
175.0762	8.0
201.0551	6.9
227.0359	8.1
233.0449	9.0
245.0456	10.8
269.0822	28.8
287.0922	31.2
313.0713	19.4
330.1029	8.3
331.0815	18.7
357.0620	35.3
374.0897	23.1
375.0727	100.0
376.0757	28.0

Name: Melilotic acid
PrecursorMZ: 165.05489
RT: 0.8225
ExactMass: 166.062994177
Spectrum_type: 2
charge: -1
Formula: C9H10O3
SMILES: C1=CC=C(C(=C1)CCC(=O)O)O
Method: HCD
Collision_energy: [28.333334]
Isolation_window: 4.0
Ion_mode: N
Num Peaks: 13
107.0491	2.3
119.0492	57.2
120.0524	5.0
121.0284	2.1
121.0649	100.0
122.0599	4.1
122.0682	8.1
147.0443	2.0
163.0606	2.9
165.0430	2.0
165.0548	44.2
166.0600	3.5
167.0345	2.7

Name: Meranzin hydrate
PrecursorMZ: 277.10817
RT: 6.2273
ExactMass: 278.11542367
Spectrum_type: 2
charge: -1
Formula: C15H18O5
SMILES: CC(C)(C(CC1=C(C=CC2=C1OC(=O)C=C2)OC)O)O
Method: HCD
Collision_energy: [28.333334]
Isolation_window: 4.0
Ion_mode: N
Num Peaks: 50
59.0129	7.0
72.9922	7.3
73.0285	4.9
74.0238	5.3
87.0078	4.6
93.0336	4.1
101.0601	5.0
109.0285	6.3
111.0443	5.3
114.0554	7.3
121.0286	4.6
128.0344	6.1
130.0866	6.8
134.0464	9.3
135.0443	6.6
136.0761	11.8
137.0602	4.4
144.0657	8.9
149.0601	16.9
161.0594	4.4
171.1021	4.7
173.0449	6.9
188.0708	4.3
189.0550	4.8
189.0917	7.6
189.1278	16.5
204.0663	6.1
215.0699	5.7
215.1067	5.3
232.0965	6.8
233.0809	14.5
233.1167	12.9
234.1139	4.6
235.0964	8.0
235.1337	5.6
259.0978	8.8
275.1708	6.5
276.0886	17.0
276.1685	4.4
277.0738	19.4
277.1080	100.0
277.1680	22.7
277.2152	14.9
277.6264	8.2
278.0718	3.9
278.1085	21.2
278.1791	8.8
279.0878	21.2
279.1239	8.3
279.2329	32.0

Name: Mestranol
PrecursorMZ: 309.17337
RT: 0.5571
ExactMass: 310.193280068
Spectrum_type: 2
charge: -1
Formula: C21H26O2
SMILES: C[C@]12CC[C@H]3[C@H]([C@@H]1CC[C@]2(C#C)O)CCC4=C3C=CC(=C4)OC
Method: HCD
Collision_energy: [28.333334]
Isolation_window: 4.0
Ion_mode: N
Num Peaks: 8
61.9875	1.9
96.9592	13.7
307.1297	0.9
307.6316	3.2
308.1350	2.4
309.1743	100.0
310.1775	15.6
311.1690	10.9

Name: Mesurol phenol sulfone
PrecursorMZ: 199.04288
RT: 1.1492666666666667
ExactMass: 200.05071541
Spectrum_type: 2
charge: -1
Formula: C9H12O3S
SMILES: CC1=CC(=CC(=C1S(=O)(=O)C)C)O
Method: HCD
Collision_energy: [28.333334]
Isolation_window: 4.0
Ion_mode: N
Num Peaks: 16
79.9561	2.0
135.0809	0.9
155.0704	0.5
183.0111	0.8
184.0193	1.9
197.0305	0.5
198.1492	1.0
199.0043	0.7
199.0429	100.0
199.0735	0.6
199.0807	0.6
199.1332	1.0
199.1698	1.8
200.0462	10.7
201.0374	2.3
216.0093	2.6

Name: Methionine sulfoxide, DL-
PrecursorMZ: 164.03788
RT: 9.3618
ExactMass: 165.04596439
Spectrum_type: 2
charge: -1
Formula: C5H11NO3S
SMILES: CS(=O)CCC(C(=O)O)N
Method: HCD
Collision_energy: [28.333334]
Isolation_window: 4.0
Ion_mode: N
Num Peaks: 21
60.9745	12.7
61.9874	6.7
63.9616	55.6
72.0082	19.1
75.0078	10.9
76.9693	59.1
79.9564	78.5
80.9643	9.1
82.0401	20.5
100.0395	100.0
121.0284	7.5
121.0400	7.3
121.0511	59.1
136.0508	9.0
149.0148	14.5
162.8929	33.4
163.0617	9.1
163.1123	7.7
164.0379	75.8
164.8949	12.6
165.0402	16.0

Name: Methyl 2-(4,5-dihydroxy-6-methoxy-3,6-dimethyl-2-oxocyclohex-3-en-1-yl)oxy-4-hydroxy-3,6-dimethylbenzoate
PrecursorMZ: 379.14012
RT: 4.3472
ExactMass: 380.14711772
Spectrum_type: 2
charge: -1
Formula: C19H24O8
SMILES: CC1=CC(=C(C(=C1C(=O)OC)OC2C(=O)C(=C(C(C2(C)OC)O)O)C)C)O
Method: HCD
Collision_energy: [28.333334]
Isolation_window: 4.0
Ion_mode: N
Num Peaks: 15
61.9874	11.1
200.0830	3.5
237.1286	4.2
243.1388	9.4
245.1546	3.5
255.1389	38.1
256.1425	8.2
273.1497	13.8
287.1296	9.2
317.1385	7.9
331.1189	17.2
349.1294	4.2
361.1288	5.0
379.1398	100.0
380.1441	20.4

Name: Methyl 2-methyl-5-oxo-4-(3,4,5-trimethoxyphenyl)-1,4,5,6,7,8-hexahydro-3-quinolinecarboxylate
PrecursorMZ: 386.16114
RT: 6.861
ExactMass: 387.16818752
Spectrum_type: 2
charge: -1
Formula: C21H25NO6
SMILES: CC1=C(C(C2=C(N1)CCCC2=O)C3=CC(=C(C(=C3)OC)OC)OC)C(=O)OC
Method: HCD
Collision_energy: [28.333334]
Isolation_window: 4.0
Ion_mode: N
Num Peaks: 102
57.0337	1.4
59.0130	7.7
71.0130	3.3
72.9922	2.4
73.0286	2.8
74.0238	1.7
79.9564	1.6
80.9643	2.3
83.0493	1.9
85.0287	2.6
87.0079	3.7
87.0442	2.3
88.0395	1.6
89.0236	2.5
94.0287	1.1
97.0286	1.2
97.0652	1.3
98.0238	1.6
99.0078	1.2
99.0442	1.4
101.0236	2.9
109.0285	1.1
110.0237	1.2
111.0442	1.1
112.0397	1.6
113.0237	2.4
113.0600	2.4
114.0553	3.8
115.0392	3.0
116.0708	2.7
124.0395	1.6
124.0760	2.6
128.0347	2.7
129.0549	1.3
130.0502	1.3
130.0867	11.9
131.0343	11.1
134.0968	2.0
135.0445	1.9
136.0760	2.8
138.0549	1.2
143.0495	2.9
145.0501	2.0
149.0598	1.1
152.0712	1.0
154.0863	1.4
155.0860	6.2
156.0660	33.2
157.0697	2.3
164.0372	1.1
164.0712	1.2
171.1021	1.2
180.0658	1.1
182.0814	1.8
199.0761	23.6
200.0797	3.1
201.1126	1.9
203.1282	1.2
209.0929	2.1
210.0922	1.2
210.0940	1.5
225.0560	2.9
225.1651	1.1
229.0868	28.1
230.0902	3.6
245.1658	1.9
259.1818	4.2
261.1609	1.2
266.1555	2.7
268.1709	39.1
269.1750	7.0
283.1098	1.2
291.1715	1.4
294.0990	1.2
310.1451	11.1
311.1484	2.2
312.1608	66.5
313.1643	13.4
314.1667	1.1
323.2229	1.1
338.3534	1.5
340.1548	3.2
341.2332	2.3
342.1716	16.1
343.1732	3.2
356.1509	6.0
357.1546	1.2
367.2119	1.9
369.2296	2.6
384.2111	2.5
384.3566	3.6
385.1139	2.5
385.1615	11.0
385.2235	17.5
386.1614	100.0
386.2219	3.6
387.1262	2.3
387.1648	25.6
387.2403	19.6
388.1710	3.7
388.2443	1.9
388.2471	1.8

Name: Methyl 2-methyl-5-oxo-4-(3,4,5-trimethoxyphenyl)-1,4,5,6,7,8-hexahydroquinoline-3-carboxylate
PrecursorMZ: 386.16129
RT: 1.6631
ExactMass: 387.16818752
Spectrum_type: 2
charge: -1
Formula: C21H25NO6
SMILES: CC1=C(C(C2=C(N1)CCCC2=O)C3=CC(=C(C(=C3)OC)OC)OC)C(=O)OC
Method: HCD
Collision_energy: [28.333334]
Isolation_window: 4.0
Ion_mode: N
Num Peaks: 14
61.9875	13.6
130.0868	9.7
155.0859	6.2
156.0659	29.3
199.0759	20.8
229.0868	26.9
268.1707	30.9
269.1753	6.3
310.1458	10.0
312.1606	55.5
313.1649	11.2
342.1707	12.7
386.1614	100.0
387.1645	23.1

Name: Methyl 3,12-dihydroxycholan-24-oate
PrecursorMZ: 465.3216
RT: 2.0759
ExactMass: 406.30830982
Spectrum_type: 2
charge: -1
Formula: C25H42O4
SMILES: CC(CCC(=O)OC)C1CCC2C1(C(CC3C2CCC4C3(CCC(C4)O)C)O)C
Method: HCD
Collision_energy: [28.333334]
Isolation_window: 4.0
Ion_mode: N
Num Peaks: 31
51.7010	1.8
51.7038	4.7
69.3455	1.7
69.4974	1.7
71.0129	1.4
72.9921	15.0
73.0285	4.0
74.0238	15.0
75.0077	1.7
87.0077	2.8
89.0234	3.6
116.0343	13.3
165.0411	1.4
401.3059	6.2
402.3090	1.8
419.3183	2.3
422.2097	2.4
435.3105	2.6
447.3111	1.7
463.3062	5.9
464.3028	19.5
464.3091	7.4
465.2141	2.4
465.2264	3.1
465.3222	100.0
466.1993	2.7
466.3257	28.8
467.3262	2.0
467.3306	5.6
467.3362	6.5
467.3424	7.2

Name: Methyl 3,4-Dihydroxybenzoate
PrecursorMZ: 167.03432
RT: 6.267
ExactMass: 168.04225873
Spectrum_type: 2
charge: -1
Formula: C8H8O4
SMILES: COC(=O)C1=CC(=C(C=C1)O)O
Method: HCD
Collision_energy: [28.333334]
Isolation_window: 4.0
Ion_mode: N
Num Peaks: 74
59.0130	2.5
71.0130	1.0
73.0286	1.1
80.0497	0.9
80.9643	3.7
81.0336	1.0
81.0447	0.8
82.0290	0.8
85.0286	0.9
91.0180	3.7
93.0337	2.6
95.0130	1.1
95.0494	2.0
96.0446	2.3
96.9592	2.9
97.0287	1.3
98.0352	1.1
107.0494	2.2
108.0208	35.5
108.0447	3.1
109.0160	1.3
109.0233	1.1
109.0294	2.9
110.0239	0.8
111.0079	0.9
111.0443	1.1
119.0494	7.4
120.0529	1.2
121.0292	1.3
121.0403	1.4
121.0651	17.1
121.0760	2.5
122.0603	5.4
122.0688	2.9
123.0084	1.2
123.0444	45.4
123.0546	2.0
123.0804	2.0
124.0159	1.0
124.0395	4.2
124.0480	3.5
124.0760	4.3
125.0237	1.3
125.0600	2.9
126.0551	0.9
135.0446	1.9
136.0399	1.1
136.0764	0.8
137.0238	0.8
137.0713	1.3
138.0553	3.0
139.0397	1.9
148.0393	0.9
150.0382	2.4
150.0553	1.0
151.0452	1.6
151.0633	0.9
152.0108	100.0
153.0143	7.8
165.0411	4.0
165.0551	7.3
165.0668	2.2
165.0911	2.0
166.0491	3.4
166.0860	2.7
167.0020	1.6
167.0041	1.6
167.0344	40.8
167.0713	2.2
167.0828	0.9
168.0358	4.0
168.0656	5.2
168.1139	1.2
169.0501	1.9

Name: Methyl 3,7,8-trihydroxy-3-methyl-10-oxo-1,4-dihydropyrano)4,3-b(chromene-9-carboxylate
PrecursorMZ: 321.06135
RT: 4.1659
ExactMass: 322.0688674
Spectrum_type: 2
charge: -1
Formula: C15H14O8
SMILES: CC1(CC2=C(CO1)C(=O)C3=C(O2)C=C(C(=C3C(=O)OC)O)O)O
Method: HCD
Collision_energy: [28.333334]
Isolation_window: 4.0
Ion_mode: N
Num Peaks: 13
61.9874	8.9
80.9639	8.6
135.0443	73.6
195.0648	8.3
203.0713	13.2
204.0701	6.4
215.0714	15.2
259.0609	15.9
277.0727	10.8
321.0299	6.5
321.0612	100.0
322.0636	18.7
323.0793	7.6

Name: Methyl 3-(3,4-dihydroxy-5-phenyloxolan-2-yl)-3-hydroxypropanoate
PrecursorMZ: 281.10318
RT: 1.4805
ExactMass: 282.11033829
Spectrum_type: 2
charge: -1
Formula: C14H18O6
SMILES: COC(=O)CC(C1C(C(C(O1)C2=CC=CC=C2)O)O)O
Method: HCD
Collision_energy: [28.333334]
Isolation_window: 4.0
Ion_mode: N
Num Peaks: 96
57.0336	3.3
59.0130	7.9
71.0492	3.0
72.9922	5.0
73.0286	9.4
74.0239	3.8
79.0545	5.6
80.9641	2.9
83.0496	3.2
85.0286	5.1
87.0079	7.4
88.0396	4.6
95.0493	3.4
96.0446	2.8
97.0286	4.9
99.0443	4.4
101.0237	3.3
107.0493	5.3
108.0446	7.8
109.0650	3.9
111.0443	4.4
112.0397	3.9
113.0237	6.1
113.0598	3.0
114.0553	3.1
116.0709	4.4
121.0289	6.3
121.0651	6.1
123.0445	7.6
123.0808	7.5
125.0237	3.1
125.0599	4.4
127.0390	3.1
128.0344	3.6
130.0866	7.7
133.0654	3.1
135.0443	2.8
135.0808	13.5
137.0602	6.5
139.0392	4.1
149.0602	3.6
149.0966	12.6
151.0396	3.2
151.0761	5.6
151.1120	6.0
153.0551	2.8
163.0760	4.8
164.0707	5.2
165.0554	3.8
167.0704	3.1
175.1123	4.3
177.0543	3.3
177.0914	3.8
179.0698	4.0
181.0838	4.0
181.0979	3.0
181.1004	4.1
192.0655	5.0
193.0837	4.2
193.0862	3.2
193.1227	43.8
194.1278	4.5
195.0658	3.5
204.1022	5.0
205.0865	2.8
206.0808	3.1
207.0658	4.0
219.0655	3.1
219.1025	2.7
220.1339	3.0
221.0821	3.2
221.1310	5.8
236.0563	5.9
236.0922	3.4
236.1276	4.2
237.0785	3.1
237.1127	69.9
238.1151	9.9
239.0919	3.5
239.1391	5.5
279.0876	9.5
279.1262	5.4
279.2332	45.2
280.0872	17.6
280.1216	7.3
280.2364	13.0
281.0678	9.6
281.1034	78.7
281.1406	8.9
281.2487	100.0
282.1030	16.1
282.1368	6.7
282.2522	18.4
283.0825	20.6
283.1267	24.3
283.2643	6.1

Name: Methyl 4-(2-(cyclohexanecarboxamido)acetamido)-3-methylbenzoate
PrecursorMZ: 367.14258
RT: 1.7985
ExactMass: 332.17360725
Spectrum_type: 2
charge: -1
Formula: C18H24N2O4
SMILES: CC1=C(C=CC(=C1)C(=O)OC)NC(=O)CNC(=O)C2CCCCC2
Method: HCD
Collision_energy: [28.333334]
Isolation_window: 4.0
Ion_mode: N
Num Peaks: 11
239.0797	18.5
275.2016	11.1
331.1663	100.0
332.1712	15.8
333.1798	21.9
335.2230	67.4
336.2259	41.8
337.2363	13.6
365.2337	43.5
366.2375	33.2
367.2127	26.0

Name: Methyl 4-(3-bromophenyl)-2,7,7-trimethyl-5-oxo-1,4,5,6,7,8-hexahydroquinoline-3-carboxylate
PrecursorMZ: 402.07168
RT: 4.7566
ExactMass: 403.07831
Spectrum_type: 2
charge: -1
Formula: C20H22BrNO3
SMILES: CC1=C(C(C2=C(N1)CC(CC2=O)(C)C)C3=CC(=CC=C3)Br)C(=O)OC
Method: HCD
Collision_energy: [28.333334]
Isolation_window: 4.0
Ion_mode: N
Num Peaks: 64
59.0128	0.6
64.9516	1.2
74.0238	1.8
74.9901	1.0
78.9581	2.6
79.9523	0.5
79.9563	14.3
80.9642	11.6
87.0078	0.5
96.9589	0.6
106.9798	11.5
118.0499	0.7
120.0114	0.8
124.9816	0.6
138.9520	58.9
139.9539	1.1
140.9477	2.5
140.9670	1.4
152.9948	2.3
171.0053	1.2
171.1018	0.7
171.9320	26.7
172.9400	12.3
173.9277	1.8
174.9359	0.9
181.0977	1.1
184.0975	0.7
216.0695	2.7
218.0848	1.2
225.2223	0.7
232.0816	0.9
241.2169	1.0
250.0573	1.5
283.0135	6.0
284.0168	0.9
285.0102	0.5
285.1601	1.2
294.0837	1.0
295.2277	2.8
296.0449	0.7
301.0236	2.6
310.0763	0.6
329.1501	1.7
329.2328	1.4
331.2490	2.2
340.0713	35.4
341.0740	5.5
342.0677	3.3
358.0453	9.0
358.0808	0.6
359.0483	1.4
359.2239	1.0
360.0411	0.8
384.0631	0.7
400.2289	0.9
401.1689	0.7
401.2539	0.7
401.7384	0.7
402.0718	100.0
402.1142	1.8
402.1575	0.9
403.0737	16.5
403.2440	2.2
404.0681	9.9

Name: Methyl 4-(4,6-dihydroxy-5-methoxy-2,5-dimethyl-3-oxocyclohexen-1-yl)oxy-2-hydroxy-3,6-dimethylbenzoate
PrecursorMZ: 379.13971
RT: 5.955
ExactMass: 380.14711772
Spectrum_type: 2
charge: -1
Formula: C19H24O8
SMILES: CC1=CC(=C(C(=C1C(=O)OC)O)C)OC2=C(C(=O)C(C(C2O)(C)OC)O)C
Method: HCD
Collision_energy: [28.333334]
Isolation_window: 4.0
Ion_mode: N
Num Peaks: 14
231.1375	16.4
237.1277	11.0
255.1386	23.9
273.1490	29.3
275.1285	13.6
291.1592	10.4
317.1403	17.9
319.1187	48.0
361.1298	19.2
379.1385	100.0
379.1770	12.8
379.2103	13.1
380.1404	22.4
381.2309	12.2

Name: Methyl 4-(6-bromo-2-oxo-1,2,3,4-tetrahydrobenzo)h(quinolin-4-yl)benzoate
PrecursorMZ: 408.0244
RT: 4.7046
ExactMass: 409.03136
Spectrum_type: 2
charge: -1
Formula: C21H16BrNO3
SMILES: COC(=O)C1=CC=C(C=C1)C2CC(=O)NC3=C2C=C(C4=CC=CC=C43)Br
Method: HCD
Collision_energy: [28.333334]
Isolation_window: 4.0
Ion_mode: N
Num Peaks: 30
61.9875	4.6
96.9592	100.0
98.9550	6.9
99.9249	27.9
102.0552	3.0
113.0347	4.4
115.9198	41.4
116.9198	4.0
116.9278	10.7
128.0346	3.5
131.0818	3.2
156.0769	3.2
180.9598	3.0
211.9653	25.4
212.9670	4.3
227.1159	4.3
242.9600	4.4
245.1264	9.2
247.1293	3.7
281.9712	6.2
317.1472	4.6
328.0131	14.3
329.0149	3.1
348.0829	3.6
407.1272	3.7
407.1764	3.4
408.0240	11.4
408.1011	5.5
408.1529	2.8
409.1468	2.8

Name: Methyl 4-)(3,4,5-trimethoxybenzoyl)amino(benzoate
PrecursorMZ: 344.11395
RT: 1.4522
ExactMass: 345.12123733
Spectrum_type: 2
charge: -1
Formula: C18H19NO6
SMILES: COC1=CC(=CC(=C1OC)OC)C(=O)NC2=CC=C(C=C2)C(=O)OC
Method: HCD
Collision_energy: [28.333334]
Isolation_window: 4.0
Ion_mode: N
Num Peaks: 23
61.9874	24.1
72.0448	2.8
74.0238	25.1
109.0284	3.2
123.0443	5.2
135.0442	11.1
152.0709	4.1
163.0394	7.9
178.0867	5.2
179.0344	11.9
180.0659	13.8
196.0609	20.2
222.0766	16.1
258.1130	2.8
282.1129	2.9
299.0198	2.8
300.1242	11.3
328.0224	19.3
329.0256	4.6
343.0457	19.4
344.1139	100.0
345.1183	21.0
345.2798	5.4

Name: Methyl 6-(acetyloxy)-1,7,11-trihydroxyabieta-8(14),9(11),12-trien-18-oate
PrecursorMZ: 419.20827
RT: 1.0864
ExactMass: 420.21480336
Spectrum_type: 2
charge: -1
Formula: C23H32O7
SMILES: CC(C)C1=CC2=C(C(=C1)O)C3(C(CCC(C3C(C2O)OC(=O)C)(C)C(=O)OC)O)C
Method: HCD
Collision_energy: [28.333334]
Isolation_window: 4.0
Ion_mode: N
Num Peaks: 22
61.9875	12.7
73.0287	29.0
135.0444	22.5
136.0527	11.9
151.0758	99.2
152.0791	7.4
269.1183	6.3
275.1299	7.4
299.1290	30.1
311.1291	8.1
331.1538	5.9
343.1920	32.2
344.1933	5.9
375.2182	26.7
376.2186	6.1
417.3396	22.1
418.2306	6.7
418.3426	7.5
419.2047	100.0
419.3537	72.9
420.2056	24.4
420.3579	21.7

Name: Methyl Asterrate
PrecursorMZ: 361.09282
RT: 3.9057
ExactMass: 362.10016753
Spectrum_type: 2
charge: -1
Formula: C18H18O8
SMILES: CC1=CC(=C(C(=C1)OC2=C(C=C(C=C2OC)O)C(=O)OC)C(=O)OC)O
Method: HCD
Collision_energy: [28.333334]
Isolation_window: 4.0
Ion_mode: N
Num Peaks: 22
109.0287	4.0
115.9197	3.6
116.0166	2.6
135.0442	92.7
136.0475	8.1
137.0599	9.4
137.0712	4.9
139.0391	5.6
179.0340	15.3
181.0497	100.0
182.0534	8.9
189.0552	2.9
199.0719	17.2
217.0867	3.7
256.0946	5.6
299.0921	8.2
317.1026	45.5
318.1064	8.2
360.0021	2.9
360.0847	3.4
361.0932	29.3
362.0941	5.8

Name: Methyl Salicylate
PrecursorMZ: 151.03934
RT: 6.7438
ExactMass: 152.047344113
Spectrum_type: 2
charge: -1
Formula: C8H8O3
SMILES: COC(=O)C1=CC=CC=C1O
Method: HCD
Collision_energy: [28.333334]
Isolation_window: 4.0
Ion_mode: N
Num Peaks: 4
108.0196	27.8
123.0443	4.9
151.0256	100.0
151.0394	26.7

Name: Methyl cholate
PrecursorMZ: 421.29603
RT: 0.577
ExactMass: 422.30322444
Spectrum_type: 2
charge: -1
Formula: C25H42O5
SMILES: C[C@H](CCC(=O)OC)[C@H]1CC[C@@H]2[C@@]1([C@H](C[C@H]3[C@H]2[C@@H](C[C@H]4[C@@]3(CC[C@H](C4)O)C)O)O)C
Method: HCD
Collision_energy: [28.333334]
Isolation_window: 4.0
Ion_mode: N
Num Peaks: 3
375.2905	100.0
376.2940	85.7
377.2968	22.7

Name: Methyl citrate
PrecursorMZ: 205.03498
RT: 4.8947
ExactMass: 206.04265265
Spectrum_type: 2
charge: -1
Formula: C7H10O7
SMILES: COC(=O)CC(CC(=O)O)(C(=O)O)O
Method: HCD
Collision_energy: [28.333334]
Isolation_window: 4.0
Ion_mode: N
Num Peaks: 24
71.0493	10.9
85.0286	20.3
87.0078	26.8
97.0651	10.2
99.0078	8.6
99.0443	17.6
101.0234	14.1
111.0079	11.3
115.0388	6.2
115.0755	19.8
117.0185	5.9
125.0236	100.0
126.0269	7.0
129.0185	17.9
141.0549	40.4
142.0583	4.2
143.0341	7.4
159.0655	10.5
185.0450	65.2
186.0487	8.4
187.0242	19.5
203.0555	56.9
204.0586	6.9
205.0348	41.2

Name: Methyl deoxycholate
PrecursorMZ: 405.30121
RT: 1.1745
ExactMass: 406.30830982
Spectrum_type: 2
charge: -1
Formula: C25H42O4
SMILES: C[C@H](CCC(=O)OC)[C@H]1CC[C@@H]2[C@@]1([C@H](C[C@H]3[C@H]2CC[C@H]4[C@@]3(CC[C@H](C4)O)C)O)C
Method: HCD
Collision_energy: [28.333334]
Isolation_window: 4.0
Ion_mode: N
Num Peaks: 14
61.9875	13.0
328.1643	9.0
355.2644	100.0
356.2676	23.3
372.1918	6.1
373.2751	87.4
374.2780	26.1
391.2858	23.5
392.2887	5.3
404.2188	23.2
405.2221	5.8
405.2678	15.2
407.2431	8.7
417.2653	11.6

Name: Methyl palmitoleate
PrecursorMZ: 267.23288
RT: 2.033
ExactMass: 268.240230259
Spectrum_type: 2
charge: -1
Formula: C17H32O2
SMILES: CCCCCC/C=C\CCCCCCCC(=O)OC
Method: HCD
Collision_energy: [28.333334]
Isolation_window: 4.0
Ion_mode: N
Num Peaks: 50
59.0130	3.1
72.9922	2.3
73.0287	1.7
85.0286	1.8
87.0078	2.1
88.0394	1.6
97.0286	1.7
107.0494	2.2
109.0286	1.6
111.0441	1.6
116.0706	2.2
123.0445	1.9
123.0808	1.7
125.0600	1.5
135.0445	1.5
137.0240	1.7
137.0601	2.8
138.0551	2.2
139.0391	1.6
151.0759	2.5
153.0549	1.6
163.0758	1.8
179.0708	1.4
179.1070	1.6
179.1436	1.7
181.0860	1.7
207.0659	2.0
208.0609	1.7
222.1183	1.8
223.0954	2.5
223.1342	4.0
225.1495	1.6
237.1494	2.7
266.0701	2.0
266.1062	3.4
266.1480	2.1
267.0891	9.8
267.1253	12.9
267.1602	19.6
267.2330	100.0
268.0831	5.7
268.1241	3.3
268.1620	3.2
268.2364	16.7
269.0669	8.6
269.1054	4.6
269.1405	5.0
269.1757	4.7
269.2132	3.3
269.2485	48.9

Name: Methyldopa
PrecursorMZ: 210.0764
RT: 3.0489
ExactMass: 211.0844579
Spectrum_type: 2
charge: -1
Formula: C10H13NO4
SMILES: C[C@](CC1=CC(=C(C=C1)O)O)(C(=O)O)N
Method: HCD
Collision_energy: [28.333334]
Isolation_window: 4.0
Ion_mode: N
Num Peaks: 38
69.0336	4.1
84.0445	0.8
85.0284	1.5
109.0160	0.8
109.0284	0.7
109.0398	1.6
121.0287	0.7
122.0601	1.8
123.0552	1.0
123.0805	1.1
124.0395	0.7
126.0552	0.7
128.0343	0.8
137.0346	1.7
137.0606	0.7
138.0550	0.5
140.0343	0.8
148.0759	0.7
164.0707	1.7
165.0544	0.8
166.0496	1.0
166.0861	1.4
167.0703	1.5
167.1181	1.9
168.0653	2.7
168.1020	0.8
208.0616	2.7
208.0971	0.9
209.0458	0.7
210.0422	0.7
210.0764	100.0
210.1100	1.2
210.9993	1.3
211.0604	3.5
211.0804	12.1
212.0553	1.2
212.0914	1.3
212.0947	1.0

Name: Methylprednisolone Succinate
PrecursorMZ: 473.21803
RT: 0.9145
ExactMass: 474.22536804
Spectrum_type: 2
charge: -1
Formula: C26H34O8
SMILES: C[C@H]1C[C@H]2[C@@H]3CC[C@@]([C@]3(C[C@@H]([C@@H]2[C@@]4(C1=CC(=O)C=C4)C)O)C)(C(=O)COC(=O)CCC(=O)O)O
Method: HCD
Collision_energy: [28.333334]
Isolation_window: 4.0
Ion_mode: N
Num Peaks: 74
52.5784	1.9
52.5812	5.0
52.8052	2.0
63.9615	3.9
69.0946	2.1
79.9565	4.4
80.9643	3.9
87.0078	1.2
87.0442	1.4
96.9592	30.4
97.0285	1.5
99.0443	4.1
111.0442	4.5
125.0601	3.1
129.0549	2.3
163.0756	2.1
165.0550	1.6
177.0916	4.8
179.0707	1.9
181.0499	1.8
193.0505	1.7
194.0574	1.3
195.0656	3.3
207.0659	1.8
209.0807	1.7
221.0821	1.5
231.0663	1.5
233.1181	22.7
234.1218	3.2
235.0963	1.2
235.1343	2.4
245.0815	2.1
247.1348	2.2
249.1131	16.8
250.1171	2.0
251.1290	4.7
263.1287	3.7
267.1241	1.5
275.1290	29.2
276.1325	5.1
278.1163	4.5
287.1293	1.2
289.1056	1.4
292.1318	2.5
303.1599	3.3
315.1601	2.0
317.2115	7.0
318.2154	5.7
325.1286	1.3
329.1755	4.7
343.1541	1.9
343.1888	1.7
345.1703	5.5
346.1743	1.3
347.1870	3.0
359.1498	2.1
360.1568	1.3
361.1648	2.8
363.1816	11.8
364.1841	2.1
377.1592	5.1
429.2298	1.5
455.2064	2.5
471.1981	3.2
471.2441	9.8
471.3250	1.3
472.1418	1.4
472.2112	7.1
472.2414	9.1
473.2174	100.0
474.1585	2.1
474.2208	25.9
475.1371	2.4
475.2335	40.7

Name: Mevalonic Acid
PrecursorMZ: 147.06556
RT: 0.9871
ExactMass: 148.07355886
Spectrum_type: 2
charge: -1
Formula: C6H12O4
SMILES: CC(CCO)(CC(=O)O)O
Method: HCD
Collision_energy: [28.333334]
Isolation_window: 4.0
Ion_mode: N
Num Peaks: 4
59.0130	100.0
71.0493	23.6
105.0183	4.1
147.0655	51.0

Name: Miglitol
PrecursorMZ: 206.10301
RT: 1.8678
ExactMass: 207.11067264
Spectrum_type: 2
charge: -1
Formula: C8H17NO5
SMILES: C1[C@@H]([C@H]([C@@H]([C@H](N1CCO)CO)O)O)O
Method: HCD
Collision_energy: [28.333334]
Isolation_window: 4.0
Ion_mode: N
Num Peaks: 42
58.0289	11.2
59.0130	90.6
71.0129	50.5
72.0445	8.0
73.0286	28.2
84.0445	6.8
85.0285	84.2
86.0318	4.3
87.0078	4.5
87.0442	6.4
89.0235	32.8
96.0447	6.1
97.0286	10.9
99.0442	11.9
101.0235	8.3
110.0603	4.4
113.0235	6.9
114.0551	27.1
115.0392	8.4
126.0551	11.9
127.0393	13.2
128.0709	8.6
130.0502	17.6
131.0341	6.5
132.0658	68.1
140.0709	4.9
144.0657	8.2
145.0501	7.3
146.0814	15.3
158.0815	4.8
162.0767	14.2
163.0606	7.7
164.0711	5.6
164.0921	15.7
187.0604	4.1
188.0921	7.4
204.0871	5.0
205.0714	50.4
206.0826	4.3
206.1029	100.0
207.0863	3.9
207.1063	9.8

Name: Mono(2-ethyl-5-carboxypentyl) adipate
PrecursorMZ: 287.15007
RT: 1.8032
ExactMass: 288.15728848
Spectrum_type: 2
charge: -1
Formula: C14H24O6
SMILES: CCC(CCCC(=O)O)COC(=O)CCCCC(=O)O
Method: HCD
Collision_energy: [28.333334]
Isolation_window: 4.0
Ion_mode: N
Num Peaks: 43
57.0337	1.4
59.0130	5.9
61.9875	3.9
71.0129	3.7
71.0493	1.6
73.0286	2.8
83.0493	3.0
87.0442	1.8
95.0492	1.7
97.0287	1.8
97.0649	1.8
101.0601	2.4
109.0650	6.0
111.0806	3.2
113.0600	4.6
115.0392	19.3
115.0752	1.7
125.0599	1.3
127.0755	1.6
129.0548	3.9
135.0812	2.1
141.0551	1.8
143.1070	1.5
145.0498	10.1
145.0861	3.6
147.1174	2.6
153.0912	1.4
155.0706	3.1
155.1068	1.4
181.0863	2.5
240.0875	1.4
269.1393	2.8
271.1553	5.9
285.1705	5.4
286.0946	2.1
286.1749	2.1
287.1128	5.7
287.1499	44.4
287.1849	3.5
288.1114	2.1
288.1533	7.6
289.0998	2.5
289.1657	100.0

Name: Mono(2-ethylhexyl) adipate
PrecursorMZ: 257.17596
RT: 0.5911
ExactMass: 258.18310931
Spectrum_type: 2
charge: -1
Formula: C14H26O4
SMILES: CCCCC(CC)COC(=O)CCCCC(=O)O
Method: HCD
Collision_energy: [28.333334]
Isolation_window: 4.0
Ion_mode: N
Num Peaks: 37
59.0130	0.4
79.9565	0.5
81.0337	6.6
83.0392	0.7
83.0493	100.0
83.0571	0.4
83.0600	0.4
83.0752	0.3
84.0526	4.9
96.9592	1.9
109.0284	0.4
121.0287	0.4
127.0392	9.8
127.1121	0.8
128.0426	0.6
145.0499	3.2
176.0349	0.7
179.0711	0.6
205.0883	1.2
205.5898	1.8
206.0887	0.4
213.0916	5.7
214.0953	0.8
238.0770	1.4
255.2328	7.6
255.6346	0.5
256.2363	2.3
257.0459	0.7
257.0819	5.9
257.1324	0.4
257.1756	11.3
257.2125	0.8
258.0870	1.2
258.1795	1.4
259.0279	0.8
259.0610	1.0
259.1011	2.1

Name: Mono-2-ethyl-5-carboxypentyl terephthalate
PrecursorMZ: 307.11962
RT: 0.668
ExactMass: 308.12598835
Spectrum_type: 2
charge: -1
Formula: C16H20O6
SMILES: CCC(CCCC(=O)O)COC(=O)C1=CC=C(C=C1)C(=O)O
Method: HCD
Collision_energy: [28.333334]
Isolation_window: 4.0
Ion_mode: N
Num Peaks: 21
80.9643	1.1
87.0078	1.5
90.9850	2.3
96.9591	0.9
121.0286	44.6
122.0319	3.6
124.0759	0.9
136.0760	2.3
138.0917	0.9
165.0186	100.0
165.0473	0.7
166.0219	8.0
168.0657	1.0
178.9649	0.9
182.0816	1.6
307.0837	1.3
307.1185	19.9
307.1623	1.9
308.1216	3.1
309.0996	2.6
309.1711	1.0

Name: Monobutyl phthalate
PrecursorMZ: 221.0815
RT: 1.6047666666666667
ExactMass: 222.08920892
Spectrum_type: 2
charge: -1
Formula: C12H14O4
SMILES: CCCCOC(=O)C1=CC=CC=C1C(=O)O
Method: HCD
Collision_energy: [28.333334]
Isolation_window: 4.0
Ion_mode: N
Num Peaks: 16
69.0337	23.5
71.0493	49.8
79.9564	100.0
80.9643	8.5
96.9593	12.4
108.0445	6.9
121.0287	22.9
126.9043	15.1
134.0365	11.7
149.0964	8.1
177.0915	8.7
178.1233	6.5
220.8771	7.2
221.0840	65.3
222.0866	7.9
223.0624	9.1

Name: Monoethyl phthalate
PrecursorMZ: 193.04996
RT: 6.752800000000001
ExactMass: 194.0579088
Spectrum_type: 2
charge: -1
Formula: C10H10O4
SMILES: CCOC(=O)C1=CC=CC=C1C(=O)O
Method: HCD
Collision_energy: [28.333334]
Isolation_window: 4.0
Ion_mode: N
Num Peaks: 20
59.0130	3.0
71.0129	5.5
73.0286	3.2
79.9564	10.0
80.9642	69.3
85.0284	2.8
87.0079	7.2
101.0235	9.6
122.0239	3.9
131.0496	3.2
147.0444	6.2
149.0270	30.0
149.0600	33.3
150.0642	3.3
191.0558	10.4
191.0917	3.4
193.0178	22.5
193.0500	100.0
193.0709	10.3
194.0537	11.7

Name: Monoisobutyl phthalate
PrecursorMZ: 221.08148
RT: 1.5777
ExactMass: 222.08920892
Spectrum_type: 2
charge: -1
Formula: C12H14O4
SMILES: CC(C)COC(=O)C1=CC=CC=C1C(=O)O
Method: HCD
Collision_energy: [28.333334]
Isolation_window: 4.0
Ion_mode: N
Num Peaks: 14
69.0337	46.2
71.0494	95.4
79.9564	100.0
80.9644	16.9
96.9593	19.9
121.0287	44.6
126.9042	19.0
134.0366	23.0
149.0962	11.2
177.0913	15.7
220.8772	10.7
221.0837	72.6
222.0800	58.0
223.0636	10.4

Name: Monomethylphylodulcin
PrecursorMZ: 299.09235
RT: 1.3
ExactMass: 300.09977361
Spectrum_type: 2
charge: -1
Formula: C17H16O5
SMILES: COC1=C(C=C(C=C1)[C@H]2CC3=C(C(=CC=C3)O)C(=O)O2)OC
Method: HCD
Collision_energy: [28.333334]
Isolation_window: 4.0
Ion_mode: N
Num Peaks: 47
59.0129	2.1
61.9868	1.7
72.9922	1.8
78.9575	1.6
87.0078	4.4
93.0336	5.3
107.0491	1.8
109.0285	15.8
115.0027	3.8
121.0285	1.9
123.0442	2.6
133.0649	2.4
135.0443	5.5
137.0592	1.6
139.0392	2.0
145.0651	1.8
148.0520	4.2
149.0589	1.6
161.0598	2.8
165.0542	1.6
181.0498	3.5
183.1377	1.8
237.0925	1.7
239.0716	7.4
240.0788	35.9
241.0822	5.7
253.0865	4.0
254.0859	2.0
255.0618	2.7
255.0665	2.6
255.1024	100.0
256.0667	2.2
256.1054	17.6
257.0831	3.4
297.0733	7.1
297.1039	1.7
297.2429	9.6
298.0769	3.8
298.1085	1.7
298.2464	2.3
299.0926	78.3
299.2588	35.3
300.0518	4.3
300.0937	19.6
300.2621	5.6
301.0550	14.3
301.1071	4.0

Name: Mops
PrecursorMZ: 208.0648
RT: 19.0505
ExactMass: 209.07217913
Spectrum_type: 2
charge: -1
Formula: C7H15NO4S
SMILES: C1COCCN1CCCS(=O)(=O)O
Method: HCD
Collision_energy: [28.333334]
Isolation_window: 4.0
Ion_mode: N
Num Peaks: 8
61.9875	34.3
79.9564	5.3
162.0553	18.8
165.0551	8.3
206.0463	9.1
208.0644	100.0
209.0675	7.0
209.9486	39.6

Name: Muconic Acid
PrecursorMZ: 141.01859
RT: 6.8315
ExactMass: 142.02660867
Spectrum_type: 2
charge: -1
Formula: C6H6O4
SMILES: C(=C/C(=O)O)\C=C\C(=O)O
Method: HCD
Collision_energy: [28.333334]
Isolation_window: 4.0
Ion_mode: N
Num Peaks: 8
69.0337	25.1
96.0446	11.9
97.0286	39.6
97.0651	11.1
141.0194	14.8
142.0403	21.6
142.0504	100.0
143.0707	26.3

Name: Mupirocin
PrecursorMZ: 499.29152
RT: 7.3927
ExactMass: 500.29853298
Spectrum_type: 2
charge: -1
Formula: C26H44O9
SMILES: C[C@H]([C@H]1[C@@H](O1)C[C@H]2CO[C@H]([C@@H]([C@@H]2O)O)C/C(=C/C(=O)OCCCCCCCCC(=O)O)/C)[C@H](C)O
Method: HCD
Collision_energy: [28.333334]
Isolation_window: 4.0
Ion_mode: N
Num Peaks: 17
55.4784	4.1
59.0129	4.3
128.0341	4.1
181.1225	6.8
209.1538	5.5
243.1233	4.3
253.1451	3.9
261.1346	6.2
455.3023	4.3
463.2698	4.3
481.2806	12.6
483.2964	4.6
497.2725	10.1
498.2804	21.8
499.2926	100.0
500.2966	28.1
501.3093	42.7

Name: Muronic acid
PrecursorMZ: 365.23293
RT: 2.0546
ExactMass: 366.24062418
Spectrum_type: 2
charge: -1
Formula: C21H34O5
SMILES: CC(=O)CCCCCCCCCCCCC[C@@H]1C(C(=C)C(=O)O1)C(=O)O
Method: HCD
Collision_energy: [28.333334]
Isolation_window: 4.0
Ion_mode: N
Num Peaks: 6
247.1704	4.1
275.2010	10.5
335.2226	100.0
336.2258	20.8
365.2333	67.9
366.2374	14.3

Name: Mycophenolic acid IV
PrecursorMZ: 387.18152
RT: 4.5631
ExactMass: 388.18858861
Spectrum_type: 2
charge: -1
Formula: C22H28O6
SMILES: CC1=C2COC(=O)C2=C(C(=C1OC)C/C=C(\C)/CC/C=C(\C)/CCC(=O)O)O
Method: HCD
Collision_energy: [28.333334]
Isolation_window: 4.0
Ion_mode: N
Num Peaks: 6
323.1656	3.1
341.1761	12.1
342.1793	2.0
387.1818	100.0
388.1850	24.1
389.1885	3.4

Name: Mycosporine
PrecursorMZ: 306.11957
RT: 5.5373
ExactMass: 261.12123733
Spectrum_type: 2
charge: -1
Formula: C11H19NO6
SMILES: COC1=C(C[C@](CC1=O)(CO)O)NC(CO)CO
Method: HCD
Collision_energy: [28.333334]
Isolation_window: 4.0
Ion_mode: N
Num Peaks: 88
58.0289	1.0
59.0130	2.9
69.5847	0.7
71.0130	8.3
72.9922	0.9
74.0239	1.2
80.0498	0.7
82.0288	1.3
83.0130	1.1
84.0446	0.9
85.0286	1.6
87.0078	1.4
88.0394	0.9
89.0235	87.6
90.0269	2.9
94.0289	5.5
95.0129	0.7
96.0445	1.1
97.0286	0.7
97.4653	1.0
98.0603	0.7
99.0079	2.4
100.0395	10.4
101.0235	1.1
108.0447	1.9
109.0286	1.1
111.0442	0.7
112.0396	8.4
113.0235	0.7
113.0348	0.7
114.0554	1.8
116.0496	1.0
116.0709	1.3
122.0603	1.7
124.0158	1.1
124.0396	7.4
124.0761	0.7
126.0553	2.1
128.0346	1.5
130.0866	2.5
134.0606	0.7
136.0397	2.4
136.0761	4.5
137.0600	1.0
138.0552	0.9
138.0918	2.8
139.0395	1.1
140.0346	0.7
142.0503	2.4
150.0313	0.8
154.0503	8.8
155.0537	0.7
156.0661	0.8
164.0708	0.8
166.0503	1.4
168.0666	0.8
172.0797	0.8
174.0920	0.8
180.0656	1.8
182.0817	4.1
184.0613	0.9
202.0718	2.0
233.1298	0.7
234.0983	6.2
235.1085	0.7
241.0983	0.8
261.1608	5.9
262.1652	1.1
263.1770	1.8
264.1089	10.0
265.1124	1.1
274.0931	0.7
304.1399	5.2
305.0884	4.1
305.0927	2.4
305.1174	1.0
305.1467	2.8
305.1500	1.4
305.1536	2.7
305.1942	1.1
305.1975	3.8
306.1198	100.0
307.0865	0.8
307.0922	1.0
307.1232	11.9
307.1663	5.4
308.1190	0.8
308.1227	2.6

Name: Mycosporine glutaminol
PrecursorMZ: 301.14094
RT: 0.6387
ExactMass: 302.14778643
Spectrum_type: 2
charge: -1
Formula: C13H22N2O6
SMILES: COC1=C(CC(CC1=O)(CO)O)NC(CCC(=O)N)CO
Method: HCD
Collision_energy: [28.333334]
Isolation_window: 4.0
Ion_mode: N
Num Peaks: 87
59.0129	4.3
71.0129	2.4
72.9921	2.3
73.0286	2.5
74.0238	7.4
75.0078	1.6
83.0493	1.8
84.0447	1.6
87.0078	5.0
88.0395	9.3
98.0238	2.8
101.0236	6.5
102.0551	1.8
109.0161	1.7
112.0395	4.0
114.0552	3.6
115.0027	2.2
115.0392	1.5
116.0709	10.5
125.0963	2.4
126.0552	3.7
127.0394	1.8
127.0505	4.2
128.0345	40.2
129.0381	1.9
130.0866	100.0
131.0901	4.3
133.0498	1.6
135.0808	3.1
136.0758	1.8
140.0710	3.1
142.0502	2.1
143.1180	2.7
145.0500	4.5
156.0661	7.3
159.0658	1.8
166.0863	1.5
167.0455	2.6
168.0295	1.8
169.0612	3.8
169.0976	2.4
170.0453	14.6
171.1016	1.5
171.1498	2.9
172.0975	2.3
180.1025	1.8
184.0613	1.4
186.1140	1.6
187.1089	4.4
193.1219	1.9
197.1294	6.3
201.1266	1.5
202.1080	6.8
210.0767	2.7
212.0925	3.6
213.1251	2.0
214.1067	1.5
215.1407	1.6
223.1088	6.8
227.1419	3.1
229.1568	1.6
239.1396	2.8
241.1196	18.4
243.1131	1.5
255.1267	1.5
256.1558	2.4
257.1147	1.5
257.1512	2.9
257.1762	5.7
259.1298	3.8
259.1488	2.0
281.1137	2.4
283.1299	34.4
283.1584	1.5
284.1349	3.8
285.1440	3.2
299.1223	6.6
299.1533	3.1
299.2582	1.7
300.1128	5.4
300.1482	4.6
301.1402	62.4
301.1674	10.2
302.1260	5.9
302.1617	18.3
303.1491	7.7
303.1829	2.3

Name: Myristyl sulfate
PrecursorMZ: 293.17836
RT: 1.0863
ExactMass: 294.18648061
Spectrum_type: 2
charge: -1
Formula: C14H30O4S
SMILES: CCCCCCCCCCCCCCOS(=O)(=O)O
Method: HCD
Collision_energy: [28.333334]
Isolation_window: 4.0
Ion_mode: N
Num Peaks: 18
69.6738	0.8
69.8757	0.7
79.9562	6.2
80.9642	2.7
96.9591	2.3
220.1462	1.1
221.1541	2.5
236.1049	2.9
291.1626	0.8
292.1670	1.0
293.1103	0.8
293.1790	100.0
293.2083	1.4
293.2471	0.8
294.1380	4.6
294.1822	15.4
295.1763	2.8
295.1813	0.8

Name: N,N'-Diacetyl-L-cystine
PrecursorMZ: 323.03771
RT: 6.5289
ExactMass: 324.04497858
Spectrum_type: 2
charge: -1
Formula: C10H16N2O6S2
SMILES: CC(=O)N[C@@H](CSSC[C@@H](C(=O)O)NC(=O)C)C(=O)O
Method: HCD
Collision_energy: [28.333334]
Isolation_window: 4.0
Ion_mode: N
Num Peaks: 10
98.0603	54.4
100.0396	65.1
116.0170	41.5
128.0345	100.0
142.0501	52.8
162.0224	60.1
193.9945	26.6
322.1154	28.7
323.0367	25.7
325.1833	24.7

Name: N,N-Dimethylarginine
PrecursorMZ: 201.13522
RT: 9.4245
ExactMass: 202.14297583
Spectrum_type: 2
charge: -1
Formula: C8H18N4O2
SMILES: CN(C)C(=NCCC[C@@H](C(=O)O)N)N
Method: HCD
Collision_energy: [28.333334]
Isolation_window: 4.0
Ion_mode: N
Num Peaks: 16
55.0293	10.0
61.9875	5.5
113.0709	2.5
114.0553	3.4
116.9278	3.4
126.1030	1.8
131.0818	100.0
132.0855	5.1
156.0772	1.7
170.0929	25.7
171.0966	1.7
199.1329	2.9
199.1699	3.0
201.1350	16.6
202.0504	2.7
202.1377	1.6

Name: N-((2S)-3-cyclohexyl-1-(((2S,3S)-3-methyl-1-oxo-1-spiro(indene-1,4'-piperidine)-1'-ylpentan-2-yl)amino)-1-oxopropan-2-yl)-1,2-oxazole-5-carboxamide
PrecursorMZ: 591.31933
RT: 4.9681
ExactMass: 546.32060583
Spectrum_type: 2
charge: -1
Formula: C32H42N4O4
SMILES: CC[C@H](C)[C@@H](C(=O)N1CCC2(CC1)C=CC3=CC=CC=C23)NC(=O)[C@H](CC4CCCCC4)NC(=O)C5=CC=NO5
Method: HCD
Collision_energy: [28.333334]
Isolation_window: 4.0
Ion_mode: N
Num Peaks: 43
59.0129	5.2
65.7041	4.2
97.0159	5.9
120.0810	84.8
121.0844	11.8
122.0966	3.9
124.0760	66.7
125.0795	6.1
134.0968	17.1
152.0710	4.7
164.0711	21.9
165.1029	4.5
219.1502	4.7
243.1502	27.0
244.1530	7.7
245.1658	47.9
246.1686	5.7
247.1821	12.9
253.1709	26.6
254.1746	9.4
255.1505	8.1
255.1857	5.7
257.1661	11.8
259.1816	20.3
289.1553	13.9
291.1714	46.9
292.1753	7.4
376.2394	4.8
377.2443	4.7
378.2548	29.7
379.2586	8.3
422.2459	9.6
503.3402	4.6
545.3133	8.0
546.3163	17.1
547.3289	55.9
548.3333	18.0
549.3442	5.1
589.3011	6.8
590.3089	30.9
591.3195	100.0
592.3232	36.4
593.3313	10.9

Name: N-((3,4-dimethoxyphenyl)carbonyl)-beta-alanylmethionine
PrecursorMZ: 383.12816
RT: 3.0335
ExactMass: 384.13550766
Spectrum_type: 2
charge: -1
Formula: C17H24N2O6S
SMILES: COC1=C(C=C(C=C1)C(=O)NCCC(=O)NC(CCSC)C(=O)O)OC
Method: HCD
Collision_energy: [28.333334]
Isolation_window: 4.0
Ion_mode: N
Num Peaks: 19
58.0290	59.5
59.0130	12.7
74.0062	29.7
87.0078	24.0
114.0552	18.8
116.0168	96.8
128.0342	8.8
192.0662	13.4
206.0819	29.2
207.0886	16.0
239.0798	35.9
339.1383	63.6
340.1410	11.4
365.1692	9.2
382.2012	13.8
383.1278	100.0
384.1298	20.4
384.2013	11.5
385.0676	24.7

Name: N-()trans-4-)(4-oxoquinazolin-3(4H)-yl)methyl(cyclohexylcarbonyl)-L-phenylalanine
PrecursorMZ: 432.19242
RT: 4.6054
ExactMass: 433.20015635
Spectrum_type: 2
charge: -1
Formula: C25H27N3O4
SMILES: C1CC(CCC1CN2C=NC3=CC=CC=C3C2=O)C(=O)N[C@@H](CC4=CC=CC=C4)C(=O)O
Method: HCD
Collision_energy: [28.333334]
Isolation_window: 4.0
Ion_mode: N
Num Peaks: 16
132.0446	20.5
134.9985	5.9
158.0603	100.0
159.0638	10.4
249.1025	6.9
263.1186	11.0
264.1261	13.5
265.1339	20.7
295.2271	9.7
309.1238	16.0
311.2225	15.1
312.2257	6.6
432.1925	73.4
433.1962	21.7
433.2960	5.1
434.2080	9.1

Name: N-(1H-indol-2-ylcarbonyl)-L-isoleucine
PrecursorMZ: 273.12445
RT: 6.9075
ExactMass: 274.13174244
Spectrum_type: 2
charge: -1
Formula: C15H18N2O3
SMILES: CC[C@@H](C)[C@@H](C(=O)O)NC(=O)C1=CC2=CC=CC=C2N1
Method: HCD
Collision_energy: [28.333334]
Isolation_window: 4.0
Ion_mode: N
Num Peaks: 12
59.0130	8.6
110.0239	9.8
110.0603	6.7
116.0497	46.4
116.0707	10.1
128.0709	32.8
173.0716	22.7
210.0766	5.9
255.1131	13.3
272.1165	6.2
273.1241	100.0
274.1277	19.5

Name: N-(1H-indol-2-ylcarbonyl)norvaline
PrecursorMZ: 259.10862
RT: 7.8071
ExactMass: 260.11609238
Spectrum_type: 2
charge: -1
Formula: C14H16N2O3
SMILES: CCCC(C(=O)O)NC(=O)C1=CC2=CC=CC=C2N1
Method: HCD
Collision_energy: [28.333334]
Isolation_window: 4.0
Ion_mode: N
Num Peaks: 8
186.0911	8.0
215.1186	86.0
216.1222	12.1
241.0980	14.3
257.2389	28.4
259.1087	100.0
260.1131	13.9
261.1501	8.5

Name: N-(2-((4-butyl-8-methyl-2-oxo-2H-chromen-7-yl)oxy)propanoyl)-L-methionine
PrecursorMZ: 434.16458
RT: 1.3401
ExactMass: 435.17155882
Spectrum_type: 2
charge: -1
Formula: C22H29NO6S
SMILES: CCCCC1=CC(=O)OC2=C1C=CC(=C2C)OC(C)C(=O)N[C@@H](CCSC)C(=O)O
Method: HCD
Collision_energy: [28.333334]
Isolation_window: 4.0
Ion_mode: N
Num Peaks: 7
74.0238	2.4
96.9591	2.3
433.3339	3.5
434.1648	100.0
434.7758	2.9
435.1679	26.5
436.1694	6.4

Name: N-(2-(1H-indol-3-yl)ethyl)-4-methyl-1-phenyl-1H-pyrazole-5-carboxamide
PrecursorMZ: 343.15598
RT: 0.9017
ExactMass: 344.16371127
Spectrum_type: 2
charge: -1
Formula: C21H20N4O
SMILES: CC1=C(N(N=C1)C2=CC=CC=C2)C(=O)NCCC3=CNC4=CC=CC=C43
Method: HCD
Collision_energy: [28.333334]
Isolation_window: 4.0
Ion_mode: N
Num Peaks: 51
59.0129	0.5
69.4922	0.6
96.9592	1.7
97.0285	0.7
99.0807	0.6
101.0599	0.9
109.0286	0.5
111.0442	1.5
113.0235	0.6
125.0600	9.3
126.0637	0.7
127.0757	0.7
163.0755	1.1
173.0963	0.9
181.0501	1.3
185.0058	1.2
189.0912	0.8
195.0660	2.7
205.0504	0.7
217.0868	0.8
229.0863	0.5
233.1174	0.6
235.0975	0.7
243.1024	1.1
245.0816	0.7
259.0969	0.6
273.1128	0.5
299.0924	1.2
299.1286	0.7
299.1604	0.9
301.1083	1.3
315.1592	0.5
341.1997	25.6
342.0640	0.6
342.0696	1.0
342.1022	2.2
342.1356	1.0
342.2011	9.7
343.0484	0.6
343.0830	10.1
343.1201	9.4
343.1551	100.0
343.1922	1.5
343.2425	0.7
344.0827	2.0
344.1178	3.7
344.1576	20.7
345.0656	0.7
345.0977	12.7
345.1339	4.8
345.1700	16.2

Name: N-(2-(2-hydroxyethoxy)-2-(thiophen-2-yl)ethyl)-1-isopropyl-3,5-dimethyl-1H-pyrazole-4-sulfonamide
PrecursorMZ: 386.12069
RT: 8.9897
ExactMass: 387.12864863
Spectrum_type: 2
charge: -1
Formula: C16H25N3O4S2
SMILES: CC1=C(C(=NN1C(C)C)C)S(=O)(=O)NCC(C2=CC=CS2)OCCO
Method: HCD
Collision_energy: [28.333334]
Isolation_window: 4.0
Ion_mode: N
Num Peaks: 9
102.0553	5.9
128.0345	100.0
146.0453	29.4
238.0834	5.8
239.0674	36.9
257.0776	6.2
368.1107	10.9
386.1204	57.3
387.1297	8.5

Name: N-(2-(5-methoxy-2-methyl-1H-indol-3-yl)ethyl)-4-methyl-3-nitrobenzamide
PrecursorMZ: 366.1461
RT: 4.8696
ExactMass: 367.15320616
Spectrum_type: 2
charge: -1
Formula: C20H21N3O4
SMILES: CC1=C(C=C(C=C1)C(=O)NCCC2=C(NC3=C2C=C(C=C3)OC)C)[N+](=O)[O-]
Method: HCD
Collision_energy: [28.333334]
Isolation_window: 4.0
Ion_mode: N
Num Peaks: 11
73.0397	9.8
74.0240	9.2
131.0452	10.3
180.0656	12.4
202.0984	11.6
237.0882	25.1
365.1985	40.2
366.1483	100.0
367.1549	30.1
367.2078	18.5
368.1503	11.8

Name: N-(2-(7-chloro-2-methyl-1H-indol-3-yl)ethyl)-3,4-dimethoxybenzamide
PrecursorMZ: 371.11701
RT: 2.42645
ExactMass: 372.1240702
Spectrum_type: 2
charge: -1
Formula: C20H21ClN2O3
SMILES: CC1=C(C2=C(N1)C(=CC=C2)Cl)CCNC(=O)C3=CC(=C(C=C3)OC)OC
Method: HCD
Collision_energy: [28.333334]
Isolation_window: 4.0
Ion_mode: N
Num Peaks: 7
79.9564	11.2
215.0017	21.9
291.1603	7.7
371.1172	100.0
372.1201	16.2
373.1159	4.2
373.2749	3.3

Name: N-(2-(butylcarbamoyl)phenyl)-1-(2,2-dimethylpropanoyl)piperidine-4-carboxamide
PrecursorMZ: 386.24498
RT: 4.6184
ExactMass: 387.25219192
Spectrum_type: 2
charge: -1
Formula: C22H33N3O3
SMILES: CCCCNC(=O)C1=CC=CC=C1NC(=O)C2CCN(CC2)C(=O)C(C)(C)C
Method: HCD
Collision_energy: [28.333334]
Isolation_window: 4.0
Ion_mode: N
Num Peaks: 8
191.1545	9.9
217.1707	49.3
299.2495	11.7
342.2552	100.0
343.2584	23.5
386.2452	84.7
387.1094	12.3
387.2484	20.6

Name: N-(2-chloro-4-methylphenyl)-2-(4-(N-methylcarbamoyl)-2-oxohydroquinolyl)acetam ide
PrecursorMZ: 382.09624
RT: 1.5764
ExactMass: 383.1036691
Spectrum_type: 2
charge: -1
Formula: C20H18ClN3O3
SMILES: CC1=CC(=C(C=C1)NC(=O)CN2C3=CC=CC=C3C(=CC2=O)C(=O)NC)Cl
Method: HCD
Collision_energy: [28.333334]
Isolation_window: 4.0
Ion_mode: N
Num Peaks: 26
61.9874	5.2
76.9693	5.4
79.9564	100.0
80.9642	26.2
83.0128	4.9
96.9591	15.4
116.0708	3.9
120.9592	74.4
130.0863	3.4
146.9748	6.5
215.0015	5.9
232.0643	18.8
335.3318	9.6
337.3462	6.3
380.2218	10.1
381.1181	7.2
381.2273	5.7
381.3377	28.4
382.0962	93.1
382.3391	6.7
383.1007	20.9
383.1519	16.5
383.1910	30.7
383.3528	12.6
384.1021	4.0
384.1962	3.4

Name: N-(2-cyclopropyl-2-hydroxy-2-(thiophen-2-yl)ethyl)naphthalene-1-sulfonamide
PrecursorMZ: 372.07265
RT: 6.0069
ExactMass: 373.08063582
Spectrum_type: 2
charge: -1
Formula: C19H19NO3S2
SMILES: C1CC1C(CNS(=O)(=O)C2=CC=CC3=CC=CC=C32)(C4=CC=CS4)O
Method: HCD
Collision_energy: [28.333334]
Isolation_window: 4.0
Ion_mode: N
Num Peaks: 16
185.0216	23.6
222.0678	9.1
222.0922	9.5
238.0869	9.3
248.0718	21.3
250.0657	8.8
253.0875	20.2
266.0823	63.6
267.0871	11.5
284.0949	8.9
310.0724	7.6
312.0884	9.2
328.0814	8.6
372.0726	100.0
373.0744	21.8
374.0877	39.0

Name: N-(2-ethyl-6-methylphenyl)-2-((9-methyl-6-oxo-6,9-dihydro-1H-purin-8-yl)sulfanyl)acetamide
PrecursorMZ: 356.11971
RT: 8.077
ExactMass: 357.12594604
Spectrum_type: 2
charge: -1
Formula: C17H19N5O2S
SMILES: CCC1=CC=CC(=C1NC(=O)CSC2=NC3=C(N2C)N=CNC3=O)C
Method: HCD
Collision_energy: [28.333334]
Isolation_window: 4.0
Ion_mode: N
Num Peaks: 3
135.0290	100.0
137.0598	25.6
181.0499	93.7

Name: N-(3,5-dichlorophenyl)-1-(methylsulfonyl)piperidine-3-carboxamide
PrecursorMZ: 349.01863
RT: 8.5517
ExactMass: 350.0258689
Spectrum_type: 2
charge: -1
Formula: C13H16Cl2N2O3S
SMILES: CS(=O)(=O)N1CCCC(C1)C(=O)NC2=CC(=CC(=C2)Cl)Cl
Method: HCD
Collision_energy: [28.333334]
Isolation_window: 4.0
Ion_mode: N
Num Peaks: 12
90.9325	50.4
128.0346	53.0
146.0451	53.1
185.9707	28.1
201.9650	69.4
241.0135	28.1
287.0192	33.0
312.9979	100.0
313.9961	34.6
331.0085	96.4
349.0189	98.4
350.0182	32.5

Name: N-(3-(5-(2-hydroxypropan-2-yl)-1,2,4-oxadiazol-3-yl)benzyl)-2-(pyridin-2-yl)pyrimidine-5-carboxamide
PrecursorMZ: 415.15292
RT: 3.8769
ExactMass: 416.15968852
Spectrum_type: 2
charge: -1
Formula: C22H20N6O3
SMILES: CC(C)(C1=NC(=NO1)C2=CC=CC(=C2)CNC(=O)C3=CN=C(N=C3)C4=CC=CC=N4)O
Method: HCD
Collision_energy: [28.333334]
Isolation_window: 4.0
Ion_mode: N
Num Peaks: 16
61.9875	9.9
167.1070	5.2
333.1702	6.6
379.1792	19.0
381.1924	100.0
415.1204	10.2
415.1539	30.1
415.1597	34.4
416.1564	7.1
416.1616	10.0
416.1660	7.7
417.1562	11.3
417.1632	13.5
417.1679	45.0
417.2070	42.6
417.2123	5.5

Name: N-(3-(7-hydroxy-4,8-dimethyl-2-oxo-2H-chromen-3-yl)propanoyl)glycyl-D-leucine
PrecursorMZ: 431.18261
RT: 4.6577
ExactMass: 432.18965124
Spectrum_type: 2
charge: -1
Formula: C22H28N2O7
SMILES: CC1=C(C(=O)OC2=C1C=CC(=C2C)O)CCC(=O)NCC(=O)N[C@H](CC(C)C)C(=O)O
Method: HCD
Collision_energy: [28.333334]
Isolation_window: 4.0
Ion_mode: N
Num Peaks: 12
99.0079	16.6
125.0238	30.1
129.0184	30.3
155.0343	98.4
262.1081	17.4
306.0982	100.0
307.1011	18.3
429.2812	20.5
430.2275	30.1
431.1846	61.6
432.1848	25.8
433.2609	19.0

Name: N-(3-Cyclopropyl-1-methyl-1H-pyrazol-5-yl)-7-(3,5-dimethylisoxazol-4-yl)-6-methoxy-2-methyl-9H-pyrimido(4,5-b)indol-4-amine
PrecursorMZ: 442.19891
RT: 5.3138
ExactMass: 443.20697307
Spectrum_type: 2
charge: -1
Formula: C24H25N7O2
SMILES: CC1=C(C(=NO1)C)C2=C(C=C3C(=C2)NC4=C3C(=NC(=N4)C)NC5=CC(=NN5C)C6CC6)OC
Method: HCD
Collision_energy: [28.333334]
Isolation_window: 4.0
Ion_mode: N
Num Peaks: 64
59.0129	11.2
71.0131	4.0
72.9927	2.7
74.0239	5.6
78.9582	7.3
87.0082	2.9
88.0395	4.7
94.0289	3.7
96.0081	3.2
108.0447	2.8
109.0289	3.5
113.0347	3.3
114.0552	16.0
116.0708	6.4
120.0810	5.5
124.0760	10.6
127.0509	5.1
128.0346	11.9
130.0865	8.5
134.0968	4.1
135.0444	3.8
138.0554	4.9
145.0621	2.7
161.0599	8.5
164.0709	4.0
179.0701	6.0
205.0502	61.8
206.0534	6.7
223.0606	7.8
245.1659	10.3
247.1814	2.7
259.1816	6.1
275.1404	2.8
276.1237	15.0
277.1268	2.9
286.0695	3.1
289.1559	6.5
291.1710	12.0
293.1509	100.0
294.1540	14.5
319.1300	41.6
320.1340	7.1
336.1582	5.6
378.7030	4.7
379.2029	2.6
399.1933	33.9
400.1946	7.8
425.1725	18.3
426.1771	4.5
440.2481	2.6
440.7396	3.0
441.1773	10.0
441.1818	5.2
441.1900	5.3
441.2427	12.0
441.2497	2.9
441.2883	9.3
441.7485	5.4
442.1983	78.2
442.3209	2.9
443.2015	23.0
443.3043	3.8
444.1935	3.1
444.1998	5.7

Name: N-(3-Hydroxybutanoyl)homoserine lactone
PrecursorMZ: 186.07678
RT: 1.6478
ExactMass: 187.0844579
Spectrum_type: 2
charge: -1
Formula: C8H13NO4
SMILES: CC(CC(=O)NC1CCOC1=O)O
Method: HCD
Collision_energy: [28.333334]
Isolation_window: 4.0
Ion_mode: N
Num Peaks: 13
84.0445	5.8
113.0347	2.7
114.0914	1.0
140.0704	1.0
142.0506	0.9
142.0865	13.5
143.0705	0.9
146.0816	1.6
185.0563	0.9
186.0766	100.0
187.0606	7.3
187.0797	9.2
188.0923	14.2

Name: N-(3-Oxobutanoyl)-DL-homoserine lactone
PrecursorMZ: 184.06072
RT: 4.873
ExactMass: 185.06880783
Spectrum_type: 2
charge: -1
Formula: C8H11NO4
SMILES: CC(=O)CC(=O)NC1CCOC1=O
Method: HCD
Collision_energy: [28.333334]
Isolation_window: 4.0
Ion_mode: N
Num Peaks: 6
59.0129	35.2
112.0394	90.0
124.0394	68.1
140.0706	36.8
166.9833	43.4
184.0607	100.0

Name: N-(3-ethyl-4-oxo(3-hydroquinazolin-7-yl))(3,4,5-trimethoxyphenyl)carboxamide
PrecursorMZ: 382.14116
RT: 1.3257
ExactMass: 383.14812078
Spectrum_type: 2
charge: -1
Formula: C20H21N3O5
SMILES: CCN1C=NC2=C(C1=O)C=CC(=C2)NC(=O)C3=CC(=C(C(=C3)OC)OC)OC
Method: HCD
Collision_energy: [28.333334]
Isolation_window: 4.0
Ion_mode: N
Num Peaks: 8
61.9875	25.3
184.0762	100.0
185.0794	13.5
317.1147	4.5
338.1511	50.3
339.1535	8.7
382.1412	70.7
383.1454	15.0

Name: N-(3-fluoro-4-methylphenyl)-2-)(9-methyl-6-oxo-6,9-dihydro-1H-purin-8-yl)sulfanyl(acetamide
PrecursorMZ: 346.07771
RT: 4.7303
ExactMass: 347.08522404
Spectrum_type: 2
charge: -1
Formula: C15H14FN5O2S
SMILES: CC1=C(C=C(C=C1)NC(=O)CSC2=NC3=C(N2C)N=CNC3=O)F
Method: HCD
Collision_energy: [28.333334]
Isolation_window: 4.0
Ion_mode: N
Num Peaks: 13
61.9874	20.2
85.0284	10.5
109.0287	2.3
116.9273	3.3
129.0184	39.4
204.0696	3.0
216.0507	100.0
217.0540	9.4
258.1124	3.4
345.1033	4.2
346.0771	34.3
346.9853	4.6
347.0772	8.0

Name: N-(4-(2,4-dioxo-1,4-dihydroquinazolin-3(2H)-yl)butanoyl)-L-leucine
PrecursorMZ: 360.15691
RT: 4.6729
ExactMass: 361.16377084
Spectrum_type: 2
charge: -1
Formula: C18H23N3O5
SMILES: CC(C)C[C@@H](C(=O)O)NC(=O)CCCN1C(=O)C2=CC=CC=C2NC1=O
Method: HCD
Collision_energy: [28.333334]
Isolation_window: 4.0
Ion_mode: N
Num Peaks: 8
74.0238	52.2
114.0551	18.5
137.0713	8.6
155.0819	37.1
160.0759	23.0
204.0660	22.7
360.1567	100.0
361.1596	17.3

Name: N-(4-Hydroxy-2-isopropyl-5-methylphenyl)-3,4,5-trimethoxybenzamide
PrecursorMZ: 358.16612
RT: 1.076
ExactMass: 359.1732729
Spectrum_type: 2
charge: -1
Formula: C20H25NO5
SMILES: CC1=CC(=C(C=C1O)C(C)C)NC(=O)C2=CC(=C(C(=C2)OC)OC)OC
Method: HCD
Collision_energy: [28.333334]
Isolation_window: 4.0
Ion_mode: N
Num Peaks: 38
57.0337	1.6
61.9874	1.6
69.1361	1.3
71.0493	2.8
111.0442	1.4
127.1121	1.2
141.1276	1.7
169.1225	1.1
171.1382	1.0
199.0062	1.1
211.1699	1.2
232.0976	1.8
237.2213	1.5
255.2329	1.4
256.2375	1.3
272.2021	0.9
297.2433	1.7
311.2593	1.3
313.2748	4.6
314.2782	1.0
315.1602	1.1
316.1916	2.0
356.1966	6.1
357.0932	1.0
357.0978	2.3
357.1355	4.0
357.1707	3.0
357.1780	5.7
357.2647	34.7
358.0934	1.9
358.1664	100.0
358.2582	1.3
358.2644	8.1
359.1142	1.2
359.1704	21.3
360.1114	1.1
360.1158	1.2
360.1831	4.4

Name: N-(5-(5-Cyanothiophen-2-yl)-2-methylphenyl)-4-methylbenzenesulfonamide
PrecursorMZ: 367.05856
RT: 7.247966666666667
ExactMass: 368.0653201
Spectrum_type: 2
charge: -1
Formula: C19H16N2O2S2
SMILES: CC1=CC=C(C=C1)S(=O)(=O)NC2=C(C=CC(=C2)C3=CC=C(S3)C#N)C
Method: HCD
Collision_energy: [28.333334]
Isolation_window: 4.0
Ion_mode: N
Num Peaks: 6
277.0634	13.1
279.0791	37.8
323.0685	37.6
367.0587	100.0
367.3578	21.2
368.0615	21.2

Name: N-(5-Chloro-2-methylphenyl)-4-(2-oxo-2-(pyrrolidin-1-YL)ethyl)piperidine-1-carboxamide
PrecursorMZ: 362.16431
RT: 6.1553
ExactMass: 363.1713548
Spectrum_type: 2
charge: -1
Formula: C19H26ClN3O2
SMILES: CC1=C(C=C(C=C1)Cl)NC(=O)N2CCC(CC2)CC(=O)N3CCCC3
Method: HCD
Collision_energy: [28.333334]
Isolation_window: 4.0
Ion_mode: N
Num Peaks: 37
59.0130	5.8
71.0130	3.6
74.0239	4.6
85.0110	4.7
88.0396	4.0
89.0058	28.0
94.0291	6.3
101.0059	9.2
114.0552	12.9
116.0710	5.7
119.0164	30.4
120.0811	3.8
124.0757	3.7
128.0345	8.1
130.0864	7.6
148.0760	7.2
164.0711	5.7
171.1021	13.8
194.0825	3.3
196.1350	4.0
198.1496	16.4
222.1491	5.3
229.0984	3.7
248.1651	5.2
257.1279	3.2
261.1251	7.7
266.1750	3.4
284.1869	8.6
300.1646	8.7
317.1510	9.5
318.1753	36.6
319.1770	5.2
361.1398	27.0
362.1661	100.0
363.1281	4.2
363.1695	20.7
364.1580	8.0

Name: N-(5-Chloro-2-methylphenyl)-4-)2-oxo-2-(pyrrolidin-1-YL)ethyl(piperidine-1-carboxamide
PrecursorMZ: 362.16412
RT: 2.2775
ExactMass: 363.1713548
Spectrum_type: 2
charge: -1
Formula: C19H26ClN3O2
SMILES: CC1=C(C=C(C=C1)Cl)NC(=O)N2CCC(CC2)CC(=O)N3CCCC3
Method: HCD
Collision_energy: [28.333334]
Isolation_window: 4.0
Ion_mode: N
Num Peaks: 34
61.9874	15.4
85.0107	3.2
85.9987	1.8
89.0056	22.8
94.0287	2.3
101.0056	7.9
103.0213	2.6
119.0162	28.2
171.1018	3.2
196.1338	3.3
198.1491	13.1
206.0815	2.9
210.1501	1.7
222.1495	3.7
223.1334	2.0
236.1647	2.4
243.1054	1.6
248.1651	3.6
250.0720	1.7
255.1056	1.5
266.1757	2.5
284.1868	8.2
299.1248	1.8
300.1638	6.7
301.1384	1.6
318.1740	31.4
319.1764	5.3
361.1301	2.0
361.2204	3.9
362.1289	4.7
362.1645	100.0
363.1232	2.7
363.1678	16.9
364.1657	3.2

Name: N-(Phenylmethyl)aspartic acid
PrecursorMZ: 222.07694
RT: 5.6126
ExactMass: 223.0844579
Spectrum_type: 2
charge: -1
Formula: C11H13NO4
SMILES: C1=CC=C(C=C1)CNC(CC(=O)O)C(=O)O
Method: HCD
Collision_energy: [28.333334]
Isolation_window: 4.0
Ion_mode: N
Num Peaks: 35
59.0129	17.6
70.0290	9.4
71.0127	9.8
73.0398	52.6
110.0349	8.9
110.0715	18.7
120.0812	12.9
122.0598	8.6
123.0555	10.9
144.0447	23.8
147.0316	30.0
147.0438	13.7
154.0615	19.8
162.0554	42.4
164.0711	16.2
168.0771	9.5
176.0700	10.4
178.0854	10.4
179.0829	13.1
204.0656	9.6
220.1383	22.3
220.1773	9.1
221.0931	36.5
221.1261	12.9
221.1503	12.1
222.0285	47.8
222.0759	100.0
223.0279	15.3
223.0793	16.5
223.0822	10.2
223.1094	14.0
224.0721	8.0
224.0900	13.0
224.1021	19.3
224.1237	10.8

Name: N-(hexadecanoyl)-sphinganine
PrecursorMZ: 538.52067
RT: 1.0690538461538461
ExactMass: 539.52774506
Spectrum_type: 2
charge: -1
Formula: C34H69NO3
SMILES: CCCCCCCCCCCCCCC[C@H]([C@H](CO)NC(=O)CCCCCCCCCCCCCCC)O
Method: HCD
Collision_energy: [28.333334]
Isolation_window: 4.0
Ion_mode: N
Num Peaks: 41
59.8338	1.6
59.8372	4.9
59.9487	1.5
87.0442	6.8
96.9593	1.5
223.2065	4.2
225.2227	1.9
237.2223	12.9
238.2254	2.1
239.2381	10.2
240.2410	2.1
241.2174	2.4
251.2383	1.5
253.2539	5.1
254.2497	3.3
255.2327	7.0
266.2490	18.4
267.2520	2.6
268.2638	1.2
280.2647	46.3
281.2169	1.7
281.2680	8.1
282.2444	5.5
294.2801	5.8
296.2593	6.8
297.2628	1.2
300.2903	1.3
312.2547	1.3
490.4999	14.9
491.5033	4.5
506.4943	11.8
507.4988	4.0
536.5036	3.0
537.3055	12.8
537.5058	5.8
538.3011	4.1
538.5214	100.0
539.3048	8.5
539.5245	34.1
540.3086	2.7
540.5275	4.5

Name: N-)(2R)-1-oxo-3-phenyl-1-(1,3,4-thiadiazol-2-ylamino)propan-2-yl(-4-propan-2-ylcyclohexane-1-carboxamide
PrecursorMZ: 399.18577
RT: 0.59685
ExactMass: 400.19329732
Spectrum_type: 2
charge: -1
Formula: C21H28N4O2S
SMILES: CC(C)C1CCC(CC1)C(=O)N[C@H](CC2=CC=CC=C2)C(=O)NC3=NN=CS3
Method: HCD
Collision_energy: [28.333334]
Isolation_window: 4.0
Ion_mode: N
Num Peaks: 11
96.9590	0.5
397.1681	1.0
398.1714	0.7
399.0750	0.7
399.0983	0.4
399.1843	100.0
399.2713	0.6
399.2928	0.7
399.3247	0.3
400.1874	22.4
401.1979	9.7

Name: N-)(4-methoxyphenoxy)acetyl(tryptophan
PrecursorMZ: 367.13015
RT: 1.1642166666666667
ExactMass: 368.13722174
Spectrum_type: 2
charge: -1
Formula: C20H20N2O5
SMILES: COC1=CC=C(C=C1)OCC(=O)NC(CC2=CNC3=CC=CC=C32)C(=O)O
Method: HCD
Collision_energy: [28.333334]
Isolation_window: 4.0
Ion_mode: N
Num Peaks: 32
58.0287	1.3
61.9875	4.5
74.0238	14.9
87.0077	1.4
109.0284	2.2
116.0344	9.3
116.0495	5.3
121.0286	6.5
128.0343	1.7
135.0445	1.7
137.0594	1.2
159.0921	2.2
163.0394	39.3
164.0429	4.1
176.0712	5.2
181.0505	1.9
194.0816	1.6
201.1033	3.6
203.0822	38.4
204.0856	4.0
206.0820	1.3
220.0613	5.7
238.0719	26.7
239.0751	2.8
245.0936	4.5
323.1419	5.7
324.1475	1.3
365.1281	2.6
366.1251	3.4
367.1321	100.0
368.1360	24.3
369.1288	2.5

Name: N-)2-(5-methoxy-2-methyl-1H-indol-3-yl)ethyl(-4-methyl-3-nitrobenzamide
PrecursorMZ: 366.14573
RT: 4.7836
ExactMass: 367.15320616
Spectrum_type: 2
charge: -1
Formula: C20H21N3O4
SMILES: CC1=C(C=C(C=C1)C(=O)NCCC2=C(NC3=C2C=C(C=C3)OC)C)[N+](=O)[O-]
Method: HCD
Collision_energy: [28.333334]
Isolation_window: 4.0
Ion_mode: N
Num Peaks: 18
71.0242	7.0
73.0397	8.6
74.0238	10.4
85.0396	6.0
107.0492	7.1
131.0453	11.6
180.0658	10.0
193.0977	9.2
202.0979	9.9
237.0876	27.2
260.1047	7.8
263.0677	8.5
322.1556	8.7
365.1356	25.3
365.2324	11.8
366.1454	100.0
367.1486	19.7
367.2493	19.9

Name: N-)3-(methylsulfanyl)-1-()1,2,4(triazolo)4,3-a(pyridin-3-yl)propyl(-1H-indole-3-carboxamide
PrecursorMZ: 364.12433
RT: 2.7529
ExactMass: 365.13103142
Spectrum_type: 2
charge: -1
Formula: C19H19N5OS
SMILES: CSCCC(C1=NN=C2N1C=CC=C2)NC(=O)C3=CNC4=CC=CC=C43
Method: HCD
Collision_energy: [28.333334]
Isolation_window: 4.0
Ion_mode: N
Num Peaks: 10
61.9873	6.4
71.0127	8.3
128.0341	7.5
154.0498	10.4
182.0449	54.3
191.0552	40.5
269.0138	6.2
363.0587	9.4
364.1244	100.0
365.1286	16.0

Name: N-Acetyl-D-Galactosamine
PrecursorMZ: 220.08238
RT: 2.5474
ExactMass: 221.0899372
Spectrum_type: 2
charge: -1
Formula: C8H15NO6
SMILES: CC(=O)N[C@@H]1[C@H]([C@H]([C@H](OC1O)CO)O)O
Method: HCD
Collision_energy: [28.333334]
Isolation_window: 4.0
Ion_mode: N
Num Peaks: 72
57.0337	5.2
59.0130	39.9
61.9875	4.6
71.0130	20.5
72.9922	9.7
73.0286	9.1
74.0238	11.0
75.0078	12.9
83.0129	6.1
83.0492	4.8
84.0446	10.8
85.0285	11.3
87.0079	52.3
88.0396	6.3
89.0235	55.5
91.0389	4.8
99.0078	4.4
99.0442	3.6
100.0395	19.0
101.0235	27.3
101.0599	14.7
103.0026	4.2
112.0395	4.4
113.0236	4.8
114.0552	8.7
115.0390	4.1
116.0345	8.0
116.0709	58.1
117.0183	3.9
117.0746	5.7
119.0342	11.6
120.9957	12.0
124.0396	7.0
128.0345	5.8
129.0185	7.7
130.0502	16.9
131.0340	5.8
131.0454	4.4
132.0659	20.3
133.0648	8.0
141.0548	3.4
147.0292	22.0
148.0611	6.1
157.0502	11.9
157.0759	3.9
159.0557	18.2
160.0397	13.5
161.0451	9.6
174.0406	7.8
174.1128	4.1
175.0601	3.1
175.0743	3.6
176.0709	3.4
177.0529	10.3
177.0688	7.2
177.0905	6.9
190.0714	10.4
200.0924	15.1
201.0760	6.0
203.0554	4.9
218.0693	12.4
218.1027	16.4
219.0308	4.7
219.0501	11.9
219.0878	43.0
219.1051	3.1
220.0830	42.3
221.0466	8.1
221.0660	100.0
221.0830	6.1
221.1022	3.2
222.0758	9.3

Name: N-Acetyl-DL-alanine
PrecursorMZ: 130.05012
RT: 5.4696
ExactMass: 131.058243149
Spectrum_type: 2
charge: -1
Formula: C5H9NO3
SMILES: CC(C(=O)O)NC(=O)C
Method: HCD
Collision_energy: [28.333334]
Isolation_window: 4.0
Ion_mode: N
Num Peaks: 6
71.0493	2.3
85.0649	9.7
88.0394	100.0
89.0427	4.1
130.0501	8.6
131.0705	7.8

Name: N-Acetyl-DL-methionine
PrecursorMZ: 190.05363
RT: 4.7336
ExactMass: 191.06161445
Spectrum_type: 2
charge: -1
Formula: C7H13NO3S
SMILES: CC(=O)NC(CCSC)C(=O)O
Method: HCD
Collision_energy: [28.333334]
Isolation_window: 4.0
Ion_mode: N
Num Peaks: 23
59.0129	4.2
79.9564	50.9
80.9642	83.4
84.0445	16.2
85.0285	3.7
87.0078	3.7
98.0601	19.2
109.0286	26.7
112.0393	11.1
142.0501	76.1
143.0540	4.0
144.0446	11.9
145.0394	66.8
146.0428	5.8
148.0429	100.0
149.0469	5.2
184.0010	15.8
189.1126	4.2
190.0534	47.1
191.0011	40.9
191.0577	5.7
192.0169	54.4
192.0648	4.4

Name: N-Acetyl-DL-serine
PrecursorMZ: 146.04498
RT: 5.89175
ExactMass: 147.05315777
Spectrum_type: 2
charge: -1
Formula: C5H9NO4
SMILES: CC(=O)NC(CO)C(=O)O
Method: HCD
Collision_energy: [28.333334]
Isolation_window: 4.0
Ion_mode: N
Num Peaks: 12
57.0335	3.4
70.0288	19.6
72.0445	8.1
74.0237	100.0
84.0444	44.9
98.0236	30.0
102.0550	4.4
104.0343	12.1
116.0343	41.2
145.0499	3.5
146.0449	15.8
148.0397	4.5

Name: N-Acetyl-L-histidine
PrecursorMZ: 196.07228
RT: 6.519685714285714
ExactMass: 197.08004122
Spectrum_type: 2
charge: -1
Formula: C8H11N3O3
SMILES: CC(=O)N[C@@H](CC1=CN=CN1)C(=O)O
Method: HCD
Collision_energy: [28.333334]
Isolation_window: 4.0
Ion_mode: N
Num Peaks: 11
59.0130	9.9
97.0400	4.4
110.0715	100.0
111.0749	5.0
132.0560	5.6
134.0716	8.9
152.0825	6.7
154.0615	71.4
155.0654	4.4
196.0724	53.3
197.0763	4.5

Name: N-Acetyl-L-proline
PrecursorMZ: 156.06595
RT: 1.5017
ExactMass: 157.07389321
Spectrum_type: 2
charge: -1
Formula: C7H11NO3
SMILES: CC(=O)N1CCC[C@H]1C(=O)O
Method: HCD
Collision_energy: [28.333334]
Isolation_window: 4.0
Ion_mode: N
Num Peaks: 8
84.0444	2.4
114.0551	100.0
115.0585	4.6
116.0709	1.1
155.0707	5.1
156.0657	23.2
157.0692	1.7
158.0815	1.1

Name: N-Acetyltyramine
PrecursorMZ: 178.08674
RT: 2.1533
ExactMass: 179.094628657
Spectrum_type: 2
charge: -1
Formula: C10H13NO2
SMILES: CC(=O)NCCC1=CC=C(C=C1)O
Method: HCD
Collision_energy: [28.333334]
Isolation_window: 4.0
Ion_mode: N
Num Peaks: 8
58.0289	7.4
93.0336	12.8
107.0494	99.9
108.0525	7.0
119.0494	13.5
121.0287	8.4
178.0867	100.0
179.0902	9.1

Name: N-Benzyl-DL-aspartic acid
PrecursorMZ: 222.07686
RT: 2.8043
ExactMass: 223.0844579
Spectrum_type: 2
charge: -1
Formula: C11H13NO4
SMILES: C1=CC=C(C=C1)CNC(CC(=O)O)C(=O)O
Method: HCD
Collision_energy: [28.333334]
Isolation_window: 4.0
Ion_mode: N
Num Peaks: 36
59.0130	25.0
71.0129	12.4
73.0287	4.1
74.0239	62.6
85.0285	5.9
86.0239	16.7
87.0078	5.1
89.0235	18.8
94.0289	10.2
100.0395	9.1
101.0235	15.1
108.0449	3.6
109.0287	18.3
113.0235	6.4
114.0552	3.7
115.0394	3.6
119.0341	9.7
124.0395	3.4
131.0343	3.0
132.0812	8.0
147.0444	48.7
148.0483	3.3
149.0601	6.9
160.0759	3.1
176.0710	5.0
178.0714	17.3
178.0869	30.4
179.0695	6.3
180.0645	3.6
181.0716	4.0
221.0659	16.4
222.0770	100.0
222.0962	4.6
223.0608	8.2
223.0807	15.9
224.0926	3.8

Name: N-Carbamyltryptophan
PrecursorMZ: 246.08828
RT: 1.9734
ExactMass: 247.09569129
Spectrum_type: 2
charge: -1
Formula: C12H13N3O3
SMILES: C1=CC=C2C(=C1)C(=CN2)CC(C(=O)O)NC(=O)N
Method: HCD
Collision_energy: [28.333334]
Isolation_window: 4.0
Ion_mode: N
Num Peaks: 8
61.9875	23.1
116.0496	9.2
159.0923	6.2
166.0504	7.0
203.0822	100.0
204.0853	10.1
245.0656	4.8
248.0800	5.4

Name: N-Desethyl Sunitinib
PrecursorMZ: 369.17392
RT: 0.5649
ExactMass: 370.18050415
Spectrum_type: 2
charge: -1
Formula: C20H23FN4O2
SMILES: CCNCCNC(=O)C1=C(NC(=C1C)/C=C\2/C3=C(C=CC(=C3)F)NC2=O)C
Method: HCD
Collision_energy: [28.333334]
Isolation_window: 4.0
Ion_mode: N
Num Peaks: 34
59.0129	1.0
79.9562	2.1
80.9641	0.8
87.0078	1.0
96.9591	16.4
98.9548	0.7
109.0286	0.6
125.0597	0.6
130.0866	0.5
231.1749	0.7
275.1649	2.0
276.1683	0.5
324.1267	0.5
325.1083	1.4
327.1240	0.5
367.1589	18.5
367.2105	2.4
367.2882	0.5
368.0824	0.5
368.1166	1.6
368.1596	9.4
369.0617	0.8
369.0975	5.8
369.1741	100.0
369.2528	0.8
369.2701	0.6
369.3025	1.0
370.1035	1.7
370.1354	1.2
370.1762	21.5
370.3005	1.2
371.0762	0.9
371.1132	4.4
371.1899	48.8

Name: N-Formylmethionine
PrecursorMZ: 176.03817
RT: 6.1196
ExactMass: 177.04596439
Spectrum_type: 2
charge: -1
Formula: C6H11NO3S
SMILES: CSCC[C@@H](C(=O)O)NC=O
Method: HCD
Collision_energy: [28.333334]
Isolation_window: 4.0
Ion_mode: N
Num Peaks: 33
63.9616	24.3
72.0082	4.8
74.0238	7.9
74.0603	2.9
84.0446	9.2
88.0394	3.1
94.0289	9.1
102.0553	4.0
114.0375	44.4
114.0550	6.5
128.0344	6.3
130.0865	3.9
130.1062	8.5
131.0453	3.6
131.0606	2.7
131.0818	3.6
132.0460	3.6
134.0604	6.0
146.0452	20.6
146.0601	3.3
174.0551	7.0
174.0960	16.2
175.0497	4.2
176.0380	100.0
176.0552	7.5
176.0683	6.3
176.0711	9.6
177.0187	7.4
177.0422	8.0
177.0667	4.9
178.0343	2.8
178.0503	3.8
178.0853	3.0

Name: N-Fructosyl pyroglutamate
PrecursorMZ: 290.08815
RT: 2.8623
ExactMass: 291.0954165
Spectrum_type: 2
charge: -1
Formula: C11H17NO8
SMILES: C1CC(=O)N(C1C(=O)O)CC2(C(C(C(O2)CO)O)O)O
Method: HCD
Collision_energy: [28.333334]
Isolation_window: 4.0
Ion_mode: N
Num Peaks: 37
59.0129	1.8
71.0129	1.9
85.0286	1.9
87.0079	2.5
89.0236	2.0
101.0235	5.0
116.0709	2.7
126.0554	1.6
128.0345	100.0
129.0382	4.9
130.0866	9.9
139.0756	4.0
168.0665	1.6
170.0452	13.3
171.1020	2.1
200.0560	52.1
201.0590	4.9
209.1543	3.3
212.0560	2.8
217.0703	1.5
227.1647	7.0
230.0667	7.7
232.0373	5.0
247.0603	1.8
253.1444	1.5
254.0671	2.2
271.1553	9.3
272.0771	3.8
288.1057	1.6
288.1506	3.6
289.0577	5.3
289.0931	3.8
289.1660	52.3
290.0884	41.6
290.1692	7.6
291.0950	4.8
291.1444	2.3

Name: N-Hydroxy-3,4,5-trimethoxybenzamide
PrecursorMZ: 226.0719
RT: 3.0227
ExactMass: 227.07937252
Spectrum_type: 2
charge: -1
Formula: C10H13NO5
SMILES: COC1=CC(=CC(=C1OC)OC)C(=O)NO
Method: HCD
Collision_energy: [28.333334]
Isolation_window: 4.0
Ion_mode: N
Num Peaks: 84
59.0130	19.1
71.0129	7.4
72.9923	4.5
80.9643	16.8
83.0494	4.0
84.0445	5.7
85.0286	11.7
87.0077	8.2
89.0234	5.3
94.0288	6.1
96.0446	68.8
97.0286	5.3
97.0479	4.7
98.0238	5.0
99.0443	4.0
108.0447	3.3
109.0286	3.3
110.0240	15.5
110.0603	9.0
111.0077	4.9
113.0234	7.5
113.0347	7.4
114.0552	14.7
115.0029	7.5
115.0392	6.7
116.0709	8.3
121.0651	6.5
122.0604	4.7
124.0396	100.0
125.0431	10.3
127.0392	4.7
128.0346	5.6
136.0758	6.2
136.9903	3.7
137.0347	7.3
137.0602	8.4
137.0964	12.5
138.0011	19.9
138.0914	14.3
139.0398	5.3
139.0757	8.2
142.0864	4.0
143.0344	3.8
152.0169	77.9
153.0203	5.0
154.0504	6.2
163.0093	3.5
163.0756	3.9
163.1121	9.1
164.0709	24.8
165.0551	6.0
165.0911	6.1
166.0868	5.6
168.0659	4.2
180.0655	8.9
181.0495	4.5
181.0856	13.6
181.1221	4.8
182.0277	64.8
182.0814	78.9
182.1168	11.3
183.0310	6.0
183.0652	12.1
183.0844	6.0
183.1015	6.4
184.0591	3.6
184.0971	10.6
208.0592	3.5
209.0458	5.7
209.0813	3.7
210.0756	5.3
224.0915	7.9
225.0090	16.0
225.0395	4.1
225.0752	19.7
225.1102	12.7
226.0356	4.2
226.0713	79.0
226.1046	19.8
227.0224	5.8
227.0550	25.9
227.0909	25.7
228.0869	50.7
228.1216	16.9

Name: N-Methyl-L-glutamic acid
PrecursorMZ: 160.06092
RT: 3.8735
ExactMass: 161.06880783
Spectrum_type: 2
charge: -1
Formula: C6H11NO4
SMILES: CN[C@@H](CCC(=O)O)C(=O)O
Method: HCD
Collision_energy: [28.333334]
Isolation_window: 4.0
Ion_mode: N
Num Peaks: 34
59.0130	30.8
60.9922	14.0
61.9875	3.8
65.0136	3.6
65.9976	8.2
71.0129	4.7
72.9688	3.0
85.0286	3.3
97.0649	5.1
101.0234	5.4
113.0599	3.2
114.0551	9.3
115.0754	7.0
115.9198	5.1
116.0245	24.6
116.0708	65.1
118.0039	6.7
131.0348	4.5
141.0550	9.6
142.0501	100.0
143.0538	5.3
158.0349	3.1
158.0458	18.9
159.0190	4.4
159.0304	17.6
159.0442	3.0
159.0655	96.6
159.1016	8.5
160.0601	39.9
161.0347	5.5
161.0462	6.7
161.0815	3.2
162.0188	7.7
162.0304	5.6

Name: N-Methyltyramine sulfate
PrecursorMZ: 230.04874
RT: 2.5315000000000003
ExactMass: 231.05652907
Spectrum_type: 2
charge: -1
Formula: C9H13NO4S
SMILES: CNCCC1=CC=C(C=C1)OS(=O)(=O)O
Method: HCD
Collision_energy: [28.333334]
Isolation_window: 4.0
Ion_mode: N
Num Peaks: 20
59.0130	19.7
79.9563	30.2
80.9642	64.6
89.0057	46.6
96.9591	24.3
106.9799	8.9
114.0551	10.9
124.0395	29.7
126.0551	14.1
186.0587	100.0
187.0616	10.4
228.1330	12.4
229.0356	22.1
229.0657	38.3
230.0488	95.5
231.0460	30.0
231.0694	58.0
231.5703	13.4
232.0278	54.5
232.0598	16.9

Name: N-Methyltyrosine
PrecursorMZ: 194.08165
RT: 7.5218
ExactMass: 195.08954328
Spectrum_type: 2
charge: -1
Formula: C10H13NO3
SMILES: CNC(CC1=CC=C(C=C1)O)C(=O)O
Method: HCD
Collision_energy: [28.333334]
Isolation_window: 4.0
Ion_mode: N
Num Peaks: 32
59.0130	5.7
71.0130	4.4
86.0238	33.8
88.0395	4.3
93.0337	9.5
94.0289	29.2
95.0605	12.8
101.0234	4.3
106.0413	3.8
108.0446	14.8
119.0494	33.8
122.0240	4.4
122.0477	3.9
123.0554	5.2
124.0397	8.2
134.0608	4.2
148.0761	5.5
150.0554	14.2
150.0918	10.7
151.0326	7.2
151.0869	11.6
152.0822	4.6
163.0394	76.3
164.0448	6.5
176.0708	5.2
193.0480	10.2
193.0978	8.3
194.0582	5.6
194.0815	100.0
195.0845	11.4
195.1123	10.3
196.0605	5.5

Name: N-Tert-butyl-1'-(4,5,6,7-tetrahydro-1H-indazole-3-carbonyl)-4,5-dihydrospiro(1,4-benzodiazepine-3,3'-pyrrolidin)-2-amine
PrecursorMZ: 419.25617
RT: 1.1646333333333334
ExactMass: 420.26375967
Spectrum_type: 2
charge: -1
Formula: C24H32N6O
SMILES: CC(C)(C)N=C1C2(CCN(C2)C(=O)C3=NNC4=C3CCCC4)NCC5=CC=CC=C5N1
Method: HCD
Collision_energy: [28.333334]
Isolation_window: 4.0
Ion_mode: N
Num Peaks: 14
78.9580	28.2
97.4667	1.1
104.9738	1.0
110.9783	1.0
110.9842	51.4
167.0106	53.8
168.0139	1.6
251.2377	22.5
252.2412	3.5
253.2536	6.2
387.2303	1.7
419.2568	100.0
420.2602	23.2
421.2723	29.3

Name: N-acetyl-D-tryptophan
PrecursorMZ: 245.0928
RT: 2.4345
ExactMass: 246.10044231
Spectrum_type: 2
charge: -1
Formula: C13H14N2O3
SMILES: CC(=O)N[C@H](CC1=CNC2=CC=CC=C21)C(=O)O
Method: HCD
Collision_energy: [28.333334]
Isolation_window: 4.0
Ion_mode: N
Num Peaks: 37
61.9874	52.1
72.0080	12.6
74.0237	14.3
88.0391	4.7
92.0493	4.8
100.0393	12.0
109.0397	12.7
116.0495	19.6
130.0652	24.0
142.0651	13.8
145.0972	16.2
147.0553	6.6
153.0296	16.3
156.0804	5.7
172.0759	5.6
173.0711	28.3
173.1075	10.2
183.0915	4.7
184.0582	7.2
184.0748	6.9
185.1076	21.0
199.0869	60.8
200.0901	8.4
201.1029	22.5
202.0615	4.6
203.0800	22.2
215.0823	10.9
217.0976	66.8
229.0975	72.4
243.0622	4.9
243.1709	12.1
245.0655	5.8
245.0921	39.3
246.0964	8.8
247.0736	4.7
247.0779	4.8
247.1082	100.0

Name: N-acetylgalactosamine 4-sulfate
PrecursorMZ: 300.03945
RT: 6.5364
ExactMass: 301.04675223
Spectrum_type: 2
charge: -1
Formula: C8H15NO9S
SMILES: CC(=O)N[C@@H](C=O)[C@H]([C@H]([C@@H](CO)O)OS(=O)(=O)O)O
Method: HCD
Collision_energy: [28.333334]
Isolation_window: 4.0
Ion_mode: N
Num Peaks: 11
79.9563	19.3
80.9643	35.7
96.9592	73.8
138.9699	43.4
198.9914	66.4
220.0737	13.1
282.0290	21.6
299.0767	13.3
299.2595	12.9
300.0396	100.0
302.0452	24.1

Name: N-acetylmuramic acid
PrecursorMZ: 292.10385
RT: 2.8782
ExactMass: 293.11106656
Spectrum_type: 2
charge: -1
Formula: C11H19NO8
SMILES: C[C@H](C(=O)O)O[C@H]([C@H](C=O)NC(=O)C)[C@@H]([C@@H](CO)O)O
Method: HCD
Collision_energy: [28.333334]
Isolation_window: 4.0
Ion_mode: N
Num Peaks: 8
83.0129	5.5
89.0235	100.0
90.0268	3.3
140.0344	4.2
142.0502	10.5
202.0718	2.6
291.1097	3.8
292.1067	2.3

Name: N-acetylornithine
PrecursorMZ: 173.09207
RT: 5.0208
ExactMass: 174.10044231
Spectrum_type: 2
charge: -1
Formula: C7H14N2O3
SMILES: CC(=O)N[C@@H](CCCN)C(=O)O
Method: HCD
Collision_energy: [28.333334]
Isolation_window: 4.0
Ion_mode: N
Num Peaks: 9
129.1022	2.9
131.0814	100.0
132.0850	3.3
154.9462	4.6
172.9566	0.8
173.0232	0.8
173.0922	4.7
174.0183	1.0
174.0871	2.6

Name: N-acetylphenylalanylvaline
PrecursorMZ: 305.15058
RT: 2.7553
ExactMass: 306.15795719
Spectrum_type: 2
charge: -1
Formula: C16H22N2O4
SMILES: CC(C)C(C(=O)O)NC(=O)C(CC1=CC=CC=C1)NC(=O)C
Method: HCD
Collision_energy: [28.333334]
Isolation_window: 4.0
Ion_mode: N
Num Peaks: 26
58.0290	5.3
79.9564	6.1
80.9643	7.9
115.0868	24.8
116.0708	8.3
129.1028	6.5
138.9526	4.4
140.0710	7.8
147.0445	14.4
156.0659	4.6
157.0976	51.2
164.0711	43.9
202.1236	4.6
219.1500	32.8
260.0921	4.7
261.1613	6.6
262.0618	4.2
304.0805	5.4
305.0304	7.8
305.1136	5.5
305.1508	100.0
306.0653	4.7
306.0998	6.6
306.1549	18.3
307.0841	5.6
307.1266	4.1

Name: N-carbamoyl-beta-alanine
PrecursorMZ: 131.04542
RT: 6.7904285714285715
ExactMass: 132.05349212
Spectrum_type: 2
charge: -1
Formula: C4H8N2O3
SMILES: C(CNC(=O)N)C(=O)O
Method: HCD
Collision_energy: [28.333334]
Isolation_window: 4.0
Ion_mode: N
Num Peaks: 5
87.0443	82.8
88.0393	32.3
131.0351	35.5
132.8671	100.0
132.8995	71.4

Name: N-carbamoylaspartic acid
PrecursorMZ: 175.03538
RT: 8.9234
ExactMass: 176.04332136
Spectrum_type: 2
charge: -1
Formula: C5H8N2O5
SMILES: C([C@@H](C(=O)O)NC(=O)N)C(=O)O
Method: HCD
Collision_energy: [28.333334]
Isolation_window: 4.0
Ion_mode: N
Num Peaks: 17
65.0137	1.9
69.1697	2.3
71.0129	2.7
87.0079	2.1
88.0395	21.0
106.0400	1.8
114.0189	3.7
115.0029	8.0
132.0294	100.0
132.0558	2.8
133.0328	4.5
134.0352	1.9
148.0506	2.2
158.0451	1.6
173.0453	1.6
175.0618	1.8
177.0399	1.5

Name: N-cyclohexyl-2-(4-((6-ethoxy-2-oxo-2H-chromen-4-yl)methyl)piperazin-1-yl)acetamide
PrecursorMZ: 472.24567
RT: 5.4758
ExactMass: 427.24710654
Spectrum_type: 2
charge: -1
Formula: C24H33N3O4
SMILES: CCOC1=CC2=C(C=C1)OC(=O)C=C2CN3CCN(CC3)CC(=O)NC4CCCCC4
Method: HCD
Collision_energy: [28.333334]
Isolation_window: 4.0
Ion_mode: N
Num Peaks: 36
52.4731	4.4
59.0130	4.9
112.0396	2.2
114.0551	3.2
120.0810	2.9
122.0603	7.1
124.0759	15.2
128.0344	5.4
130.0866	3.0
134.0967	36.8
135.1000	3.6
136.0760	3.5
138.0551	2.9
150.0554	4.0
168.0659	10.2
243.1499	3.2
245.1654	3.3
257.1657	9.0
258.1694	3.7
259.1816	53.8
260.1849	10.1
291.1717	6.2
356.2344	6.7
368.2355	4.3
384.2659	3.8
426.2383	2.6
427.2450	2.6
428.2568	13.4
429.2587	2.7
470.2283	8.0
471.2303	12.0
471.3014	3.1
472.2461	100.0
473.1853	2.2
473.2488	26.4
474.2637	3.6

Name: N-methyl-L-glutamic acid
PrecursorMZ: 160.06084
RT: 6.259
ExactMass: 161.06880783
Spectrum_type: 2
charge: -1
Formula: C6H11NO4
SMILES: CN[C@@H](CCC(=O)O)C(=O)O
Method: HCD
Collision_energy: [28.333334]
Isolation_window: 4.0
Ion_mode: N
Num Peaks: 21
59.0129	8.1
60.9922	6.0
71.0129	21.4
72.9688	4.9
85.0285	8.2
89.0233	4.1
98.0238	58.9
101.0234	7.8
114.0552	17.1
115.0757	5.0
116.0706	3.4
129.0187	6.2
131.0340	4.1
142.0502	59.3
143.0542	3.3
159.0296	13.2
159.0657	4.9
159.8932	2.9
161.0449	100.0
161.0813	2.8
162.0556	3.0

Name: N-methyl-L-tryptophan
PrecursorMZ: 217.098
RT: 6.757722222222222
ExactMass: 218.105527694
Spectrum_type: 2
charge: -1
Formula: C12H14N2O2
SMILES: CN[C@@H](CC1=CNC2=CC=CC=C21)C(=O)O
Method: HCD
Collision_energy: [28.333334]
Isolation_window: 4.0
Ion_mode: N
Num Peaks: 30
72.0083	2.6
74.0238	15.8
86.0238	8.4
88.0395	14.2
116.0497	24.2
117.0528	2.2
124.0398	3.9
127.0866	2.1
129.1025	17.9
130.0867	4.8
142.0655	6.6
143.1182	10.4
154.9466	3.5
155.0819	7.8
155.1183	13.2
169.0976	4.1
172.9573	4.8
173.0926	100.0
174.0958	7.4
186.0556	2.5
187.1083	71.2
188.1119	6.1
200.0825	3.3
216.0313	3.1
217.0282	2.9
217.0980	42.1
217.1193	73.8
218.0482	2.7
218.1002	5.4
218.1225	7.3

Name: N-oleoyl leucine
PrecursorMZ: 394.33203
RT: 1.965
ExactMass: 395.3399443
Spectrum_type: 2
charge: -1
Formula: C24H45NO3
SMILES: CCCCCCCC/C=C\CCCCCCCC(=O)N[C@@H](CC(C)C)C(=O)O
Method: HCD
Collision_energy: [28.333334]
Isolation_window: 4.0
Ion_mode: N
Num Peaks: 20
128.1073	0.9
130.0662	0.6
130.0864	100.0
130.1069	0.7
131.0899	11.0
132.0915	0.8
152.9953	0.7
345.2433	1.4
349.3461	0.9
350.3426	3.9
351.3448	0.8
377.2693	0.7
392.3172	3.8
393.2326	0.6
393.3204	17.5
394.3322	58.5
395.2808	1.6
395.3351	14.9
396.3435	2.3
396.3478	6.0

Name: Naphthalene-1-sulfonate
PrecursorMZ: 207.01135
RT: 1.2612
ExactMass: 207.01159025
Spectrum_type: 2
charge: -1
Formula: C10H7O3S-
SMILES: C1=CC=C2C(=C1)C=CC=C2S(=O)(=O)[O-]
Method: HCD
Collision_energy: [28.333334]
Isolation_window: 4.0
Ion_mode: N
Num Peaks: 26
69.5617	0.6
79.9560	2.0
85.0285	1.0
107.0366	0.6
136.0759	1.8
143.0493	7.0
144.0529	0.8
164.1072	0.9
178.0862	0.6
191.0581	1.7
192.0417	0.6
205.1591	8.5
206.0810	0.8
206.1628	1.8
206.9710	0.7
206.9790	0.6
207.0115	100.0
207.0518	0.6
207.1380	1.1
207.1402	0.7
207.1746	0.6
208.0146	11.1
208.0642	0.8
208.0959	0.7
209.0058	2.7
209.1528	0.7

Name: Naringenin
PrecursorMZ: 271.06116
RT: 2.217
ExactMass: 272.06847348
Spectrum_type: 2
charge: -1
Formula: C15H12O5
SMILES: C1[C@H](OC2=CC(=CC(=C2C1=O)O)O)C3=CC=C(C=C3)O
Method: HCD
Collision_energy: [28.333334]
Isolation_window: 4.0
Ion_mode: N
Num Peaks: 26
59.0129	3.5
69.2849	4.3
79.9564	4.7
93.0337	18.6
96.9592	19.7
98.9550	3.9
107.0129	10.8
119.0494	33.6
131.0497	7.6
151.0030	68.4
152.0068	5.0
169.0136	5.4
177.0186	9.9
225.2220	4.1
231.0503	4.7
269.0951	6.7
269.1421	39.0
269.2119	10.7
269.2483	10.9
269.5998	5.0
269.6437	13.4
270.0912	6.5
270.1412	4.8
271.0612	100.0
271.2278	24.0
272.0644	15.4

Name: Neoandrographolide
PrecursorMZ: 479.26544
RT: 1.0371
ExactMass: 480.27231823
Spectrum_type: 2
charge: -1
Formula: C26H40O8
SMILES: C[C@]1(CCC[C@@]2([C@@H]1CCC(=C)[C@H]2CCC3=CCOC3=O)C)CO[C@H]4[C@@H]([C@H]([C@@H]([C@H](O4)CO)O)O)O
Method: HCD
Collision_energy: [28.333334]
Isolation_window: 4.0
Ion_mode: N
Num Peaks: 54
53.2503	2.5
53.2532	5.1
53.2548	1.3
53.2572	1.2
53.3646	1.4
53.4771	1.0
57.0337	2.3
59.0129	2.7
61.9875	4.7
71.0130	1.6
71.0493	1.2
73.0285	1.4
78.9582	1.9
83.0493	1.7
85.0286	0.9
87.0079	1.3
87.0444	1.0
95.0494	1.2
97.0648	1.4
101.0236	1.2
113.0600	0.8
114.0551	1.1
115.0390	1.9
128.0343	0.8
129.0547	1.0
130.0865	0.9
137.0965	1.5
143.0707	0.8
145.0500	0.9
297.2242	1.0
315.2325	2.4
319.1926	1.2
355.2648	0.8
373.2752	0.9
399.2504	0.9
417.2638	11.1
418.2672	2.4
419.2783	0.9
433.2978	0.8
435.2726	14.3
436.2763	3.7
437.2884	1.8
459.2721	1.0
461.2451	5.7
461.3006	0.8
462.2482	1.5
463.2535	1.0
463.3107	1.0
477.2838	6.1
478.2880	6.7
479.2596	100.0
480.2624	26.4
481.2788	15.0
481.3234	5.9

Name: Nicotinate
PrecursorMZ: 122.02362
RT: 1.1345
ExactMass: 122.02420337
Spectrum_type: 2
charge: -1
Formula: C6H4NO2-
SMILES: C1=CC(=CN=C1)C(=O)[O-]
Method: HCD
Collision_energy: [28.333334]
Isolation_window: 4.0
Ion_mode: N
Num Peaks: 7
78.0338	9.7
121.0032	11.4
121.0284	39.3
121.0648	35.6
122.0236	100.0
123.0269	8.3
124.0390	9.1

Name: Nonactic acid
PrecursorMZ: 201.11274
RT: 5.2126
ExactMass: 202.12050905
Spectrum_type: 2
charge: -1
Formula: C10H18O4
SMILES: CC(CC1CCC(O1)C(C)C(=O)O)O
Method: HCD
Collision_energy: [28.333334]
Isolation_window: 4.0
Ion_mode: N
Num Peaks: 27
59.0130	8.7
71.0129	3.4
73.0286	21.6
87.0443	58.7
96.9591	3.6
97.0650	6.1
109.0650	3.7
113.0348	8.6
114.0380	4.3
121.1015	12.3
127.0756	23.6
138.0551	4.1
139.0756	4.6
139.1120	6.6
141.0912	4.6
153.0913	5.7
155.1071	7.0
159.0656	7.8
171.1023	11.1
183.1021	9.6
185.1176	6.4
200.0559	5.1
201.0871	8.9
201.1127	100.0
202.1124	7.3
202.1299	10.7
203.1286	86.8

Name: Nonanoate
PrecursorMZ: 157.12244
RT: 1.7966
ExactMass: 157.122854781
Spectrum_type: 2
charge: -1
Formula: C9H17O2-
SMILES: CCCCCCCCC(=O)[O-]
Method: HCD
Collision_energy: [28.333334]
Isolation_window: 4.0
Ion_mode: N
Num Peaks: 16
69.0743	0.9
69.3643	0.8
84.0081	0.9
97.4661	0.8
112.0395	1.1
113.0599	0.7
113.0962	2.4
115.0755	0.9
154.0865	3.9
156.0656	0.7
156.1020	2.3
157.0863	1.2
157.1225	100.0
157.1493	0.7
158.1259	9.5
159.1017	2.1

Name: Nordihydroguaretic acid
PrecursorMZ: 603.29642
RT: 4.0968
ExactMass: 302.15180918
Spectrum_type: 2
charge: -1
Formula: C18H22O4
SMILES: CC(CC1=CC(=C(C=C1)O)O)C(C)CC2=CC(=C(C=C2)O)O
Method: HCD
Collision_energy: [28.333334]
Isolation_window: 4.0
Ion_mode: N
Num Peaks: 4
271.1340	100.0
272.1370	15.0
301.1447	93.5
302.1477	16.4

Name: Norlichexanthone
PrecursorMZ: 257.04553
RT: 0.6067
ExactMass: 258.05282342
Spectrum_type: 2
charge: -1
Formula: C14H10O5
SMILES: CC1=CC(=CC2=C1C(=O)C3=C(C=C(C=C3O2)O)O)O
Method: HCD
Collision_energy: [28.333334]
Isolation_window: 4.0
Ion_mode: N
Num Peaks: 25
161.0605	0.3
177.0186	0.3
179.0343	0.7
185.0603	1.2
187.0395	0.4
211.0398	0.4
213.0550	1.1
214.0267	1.8
215.0333	0.4
217.0491	0.4
229.0503	3.5
230.0538	0.4
231.0660	1.2
255.0628	1.1
255.2329	9.0
256.0642	0.4
256.2360	1.7
256.9886	0.7
257.0019	0.5
257.0454	100.0
257.0899	0.7
257.1015	0.6
257.9391	0.3
258.0488	13.9
259.0613	8.7

Name: Nornotatic acid
PrecursorMZ: 361.09277
RT: 5.2354
ExactMass: 330.07395278
Spectrum_type: 2
charge: -1
Formula: C17H14O7
SMILES: CC1=CC(=C(C2=C1C(=O)OC3=C(O2)C(=C(C(=C3)O)C(=O)O)C)C)O
Method: HCD
Collision_energy: [28.333334]
Isolation_window: 4.0
Ion_mode: N
Num Peaks: 43
59.0128	3.0
85.0283	1.6
96.9591	2.8
109.0285	30.3
110.0319	1.9
119.0494	1.0
121.0284	2.0
122.0364	1.1
123.0807	1.0
133.0651	1.6
135.0442	100.0
136.0475	7.6
137.0598	10.0
149.0600	1.0
151.0756	16.4
152.0790	1.6
163.0392	1.2
163.0756	7.7
177.0544	1.6
179.0341	8.5
180.0375	1.0
181.0498	21.4
182.0534	2.2
195.0657	5.1
207.0657	7.9
221.0447	1.7
239.0556	7.9
255.0659	1.1
255.1024	11.4
256.0696	1.1
256.1051	1.5
257.0818	4.5
271.0967	2.5
272.1005	1.3
273.1129	14.9
274.1166	2.1
317.1025	4.3
343.0822	1.3
359.0768	1.1
360.0776	1.6
361.0928	95.2
362.0962	17.1
363.0993	2.2

Name: Notatic acid
PrecursorMZ: 343.08268
RT: 0.6829
ExactMass: 344.08960285
Spectrum_type: 2
charge: -1
Formula: C18H16O7
SMILES: CC1=CC(=C(C2=C1C(=O)OC3=C(O2)C(=C(C(=C3)O)C(=O)O)C)C)OC
Method: HCD
Collision_energy: [28.333334]
Isolation_window: 4.0
Ion_mode: N
Num Peaks: 35
59.0129	7.9
93.0336	19.4
109.0287	2.3
119.0493	5.8
121.0652	2.1
122.0364	3.0
128.0346	2.1
135.0446	2.6
148.0524	2.3
149.0601	14.0
161.0601	16.7
162.0637	1.8
226.0632	4.3
227.0711	9.0
227.1054	2.5
237.0924	4.5
239.0711	20.5
240.0751	4.0
255.1025	58.5
256.1062	10.7
257.0840	2.1
257.1316	2.7
299.0925	100.0
300.0956	18.0
301.1017	2.3
341.1257	3.1
341.1614	3.7
342.1251	2.4
343.0798	5.6
343.1395	4.7
343.1765	5.1
344.0765	3.4
344.1798	1.8
345.0953	1.8
345.1556	5.6

Name: Npc240528
PrecursorMZ: 485.32732
RT: 1.3233
ExactMass: 486.33452456
Spectrum_type: 2
charge: -1
Formula: C30H46O5
SMILES: CC(=C)[C@@H]1CC[C@]2(C1C3CCC4[C@]([C@@]3(CC2)C)(CCC5[C@@]4([C@H]([C@@H](C5(C)C)O)C(=O)O)C)C)C(=O)O
Method: HCD
Collision_energy: [28.333334]
Isolation_window: 4.0
Ion_mode: N
Num Peaks: 26
51.9255	0.7
53.9238	2.1
53.9267	4.5
54.0382	1.4
71.0493	1.2
73.0286	1.0
96.9593	1.2
393.3165	0.9
421.3125	0.9
423.3278	3.0
425.3069	1.7
437.3060	1.5
441.3390	1.4
467.3168	16.8
468.3203	4.8
483.3111	1.0
484.1870	0.8
484.3091	0.7
484.3159	1.9
485.1822	0.8
485.2711	1.2
485.3276	100.0
485.4731	0.7
486.3310	31.6
487.2002	1.2
487.3361	4.4

Name: Nuc-1031
PrecursorMZ: 579.14649
RT: 6.9828
ExactMass: 580.15345715
Spectrum_type: 2
charge: -1
Formula: C25H27F2N4O8P
SMILES: C[C@@H](C(=O)OCC1=CC=CC=C1)NP(=O)(OC[C@@H]2[C@H](C([C@@H](O2)N3C=CC(=NC3=O)N)(F)F)O)OC4=CC=CC=C4
Method: HCD
Collision_energy: [28.333334]
Isolation_window: 4.0
Ion_mode: N
Num Peaks: 10
78.9580	54.5
96.9685	5.8
133.0145	7.9
134.0462	81.7
150.0412	59.0
195.0056	24.5
346.0551	7.0
444.0936	16.6
579.1462	100.0
580.1467	18.5

Name: Nuclease, ribo-
PrecursorMZ: 225.09914
RT: 5.2231
ExactMass: 226.10659032
Spectrum_type: 2
charge: -1
Formula: C9H14N4O3
SMILES: C1=C(NC=N1)CC(C(=O)O)NC(=O)CCN
Method: HCD
Collision_energy: [28.333334]
Isolation_window: 4.0
Ion_mode: N
Num Peaks: 18
80.9642	38.7
88.0395	7.3
94.0287	12.9
99.0442	24.1
110.0237	7.3
110.0714	46.6
136.0873	6.5
143.0342	22.9
154.0615	71.6
163.0984	8.3
181.0167	11.0
224.0285	8.0
224.0540	8.7
225.0071	100.0
225.0988	78.1
226.1006	9.1
226.9857	14.9
227.2018	7.6

Name: O-Succinylhomoserine
PrecursorMZ: 218.06674
RT: 3.7346
ExactMass: 219.07428713
Spectrum_type: 2
charge: -1
Formula: C8H13NO6
SMILES: C(COC(=O)CCC(=O)O)[C@@H](C(=O)O)N
Method: HCD
Collision_energy: [28.333334]
Isolation_window: 4.0
Ion_mode: N
Num Peaks: 95
59.0130	8.0
71.0130	6.4
71.0493	2.9
72.9922	13.7
73.0286	3.0
74.0238	3.7
75.0079	3.2
82.0288	4.5
83.0493	5.1
84.0446	7.2
85.0286	16.0
87.0078	23.2
87.0443	3.1
88.0395	27.5
89.0236	7.0
96.0082	7.4
98.0237	2.7
99.0079	2.0
99.0444	3.5
100.0395	5.0
101.0234	6.8
102.0551	21.8
103.0028	4.1
104.0343	2.6
110.0603	4.3
111.0078	5.2
111.0443	23.2
112.0395	4.0
112.0760	2.0
113.0236	2.1
113.0346	2.4
113.0597	3.5
114.0550	5.7
115.0028	3.6
115.0391	2.0
116.0345	2.8
118.0502	2.9
126.0552	7.7
127.0394	7.6
128.0345	57.5
128.0708	3.8
129.0186	6.2
129.0379	2.7
129.0549	15.0
130.0500	3.0
130.0866	4.6
131.0344	7.1
132.0294	2.8
138.0550	3.8
139.0394	4.5
144.0659	3.0
145.0499	3.7
145.0975	5.5
146.0451	100.0
147.0487	5.0
154.0486	12.5
154.0590	3.8
155.0343	14.9
155.0707	2.0
155.0818	2.6
156.0289	3.0
156.0659	44.7
157.0500	4.4
157.0691	3.3
158.0451	16.4
170.0450	4.4
172.0609	17.7
173.0450	24.2
173.0807	3.5
173.0935	9.4
174.0549	2.4
174.0766	8.4
175.0616	6.0
176.0558	2.4
181.0136	2.4
182.0455	7.9
190.0714	2.0
198.0401	24.3
199.0244	84.9
199.0417	3.4
199.0749	7.2
200.0290	7.7
200.0560	72.4
201.0397	4.6
201.0592	5.2
216.0506	32.4
217.0351	68.6
217.0528	4.9
217.0714	9.5
218.0365	5.5
218.0665	30.0
219.0512	25.3
219.0692	2.0
219.0850	5.2
220.0824	2.5

Name: O-Sulfo-L-serine
PrecursorMZ: 184.00085
RT: 8.582
ExactMass: 184.99940812
Spectrum_type: 2
charge: -1
Formula: C3H7NO6S
SMILES: C([C@@H](C(=O)O)N)OS(=O)(=O)O
Method: HCD
Collision_energy: [28.333334]
Isolation_window: 4.0
Ion_mode: N
Num Peaks: 6
121.0512	5.8
166.9828	9.5
184.0009	100.0
185.0055	5.1
185.9991	4.1
186.0248	4.2

PrecursorMZ: 247.11854
RT: 2.707
Spectrum_type: 2
charge: -1
SMILES: O=C(O)CCCCCCCC(O)C(O)C(=O)O
Method: HCD
Collision_energy: [28.333334]
Isolation_window: 4.0
Ion_mode: N
Num Peaks: 17
61.9875	32.7
72.9922	7.7
75.0078	53.8
87.0077	2.6
87.0442	5.7
131.0341	20.1
133.0497	33.4
146.0816	4.9
171.1019	17.6
185.1177	4.6
201.1126	2.6
246.0981	5.6
246.9947	5.5
247.1186	100.0
248.0813	5.5
248.1214	11.2
248.9728	6.0

Name: Obscurolide A1
PrecursorMZ: 290.10337
RT: 3.0711
ExactMass: 291.11067264
Spectrum_type: 2
charge: -1
Formula: C15H17NO5
SMILES: CC(/C=C/C1C(CC(=O)O1)NC2=CC=C(C=C2)C(=O)O)O
Method: HCD
Collision_energy: [28.333334]
Isolation_window: 4.0
Ion_mode: N
Num Peaks: 61
59.0130	8.9
71.0492	2.3
72.9924	2.3
84.0448	2.0
85.0285	3.0
87.0079	3.3
97.0289	2.0
98.0603	4.2
108.0447	2.8
114.0552	6.1
115.0392	5.6
122.0603	2.4
124.0069	3.1
124.0396	1.9
126.0553	5.9
127.0393	6.2
128.0346	4.0
131.0496	3.0
133.0401	2.1
134.0604	3.5
136.0761	6.3
146.0603	6.9
147.0320	9.1
147.0443	1.8
162.0554	100.0
163.0590	10.2
176.0710	12.8
186.0919	4.0
188.0710	5.4
188.1076	7.0
189.0789	3.7
202.0872	1.9
204.1025	13.7
213.0521	2.2
213.1029	1.9
218.0817	2.7
228.1034	2.4
230.0819	10.1
233.0688	2.0
244.0972	2.3
245.1317	2.2
246.0786	1.8
246.1139	6.8
247.1082	3.8
248.0927	61.1
249.0962	9.0
289.0877	2.9
289.0936	2.4
289.1196	10.2
289.1549	4.9
289.2023	2.2
290.0389	2.3
290.0738	2.7
290.1034	66.4
291.1050	10.4
291.1092	8.4
291.1360	3.2
291.1713	5.9
291.1994	2.5
292.0836	4.7
292.1200	3.4

Name: Octylparaben
PrecursorMZ: 249.14921
RT: 14.5144
ExactMass: 250.15689456
Spectrum_type: 2
charge: -1
Formula: C15H22O3
SMILES: CCCCCCCCOC(=O)C1=CC=C(C=C1)O
Method: HCD
Collision_energy: [28.333334]
Isolation_window: 4.0
Ion_mode: N
Num Peaks: 10
91.0181	1.2
93.0336	26.5
94.0368	1.7
127.1119	2.9
137.0236	54.0
138.0270	4.7
150.0314	1.3
249.1495	100.0
250.1529	16.0
251.1552	1.3

Name: Oleanolic acid acetate
PrecursorMZ: 497.36388
RT: 1.0383
ExactMass: 498.37091007
Spectrum_type: 2
charge: -1
Formula: C32H50O4
SMILES: CC(=O)O[C@@H]1CC[C@]2(C(C1(C)C)CC[C@@]3(C2CC=C4[C@]3(CC[C@@]5(C4CC(CC5)(C)C)C(=O)O)C)C)C
Method: HCD
Collision_energy: [28.333334]
Isolation_window: 4.0
Ion_mode: N
Num Peaks: 15
55.2611	2.0
55.2641	4.8
55.3756	1.5
96.9592	1.9
241.2165	2.4
437.3428	1.0
495.3515	1.0
496.2812	1.5
496.3584	4.7
497.2981	6.7
497.3640	100.0
498.2995	2.2
498.3672	33.3
499.3091	4.7
499.3723	4.5

Name: Olivetonide
PrecursorMZ: 247.09742
RT: 1.3225
ExactMass: 248.10485899
Spectrum_type: 2
charge: -1
Formula: C14H16O4
SMILES: CCCCCC1=CC2=CC(=CC(=C2C(=O)O1)O)O
Method: HCD
Collision_energy: [28.333334]
Isolation_window: 4.0
Ion_mode: N
Num Peaks: 22
71.0130	78.7
71.0494	7.9
80.9644	8.7
100.0397	13.9
118.9800	9.7
147.0807	10.8
149.0964	28.6
167.1065	7.2
175.1127	7.1
184.0013	21.2
193.0863	13.0
203.0711	6.5
203.1075	7.5
204.1024	30.2
205.0862	7.5
246.0777	7.2
247.0599	8.0
247.0977	100.0
248.0787	57.0
248.0999	8.8
248.5816	13.9
249.0782	23.8

Name: Olmesartan Medoxomil
PrecursorMZ: 557.21482
RT: 1.587
ExactMass: 558.2226827
Spectrum_type: 2
charge: -1
Formula: C29H30N6O6
SMILES: CCCC1=NC(=C(N1CC2=CC=C(C=C2)C3=CC=CC=C3C4=NNN=N4)C(=O)OCC5=C(OC(=O)O5)C)C(C)(C)O
Method: HCD
Collision_energy: [28.333334]
Isolation_window: 4.0
Ion_mode: N
Num Peaks: 23
109.0286	11.1
121.0649	8.5
123.0442	14.8
134.0971	8.2
135.0443	21.0
137.0600	93.1
149.0603	19.8
242.1185	24.5
245.1658	38.4
254.1556	8.3
259.1819	7.9
270.1504	11.1
367.2031	11.9
411.1925	53.9
412.1963	12.1
423.2279	9.4
439.2253	34.8
440.2306	9.7
451.2243	19.2
495.2135	7.7
513.2247	12.5
557.2148	100.0
558.2186	30.2

Name: Ononetin
PrecursorMZ: 257.08158
RT: 2.5423
ExactMass: 258.08920892
Spectrum_type: 2
charge: -1
Formula: C15H14O4
SMILES: COC1=CC=C(C=C1)CC(=O)C2=C(C=C(C=C2)O)O
Method: HCD
Collision_energy: [28.333334]
Isolation_window: 4.0
Ion_mode: N
Num Peaks: 23
59.0129	5.2
93.0335	2.0
96.9590	1.4
107.0127	1.9
108.0208	1.6
109.0285	19.6
135.0077	2.2
136.0157	5.5
147.0443	1.5
151.0392	8.7
163.0394	2.2
211.2063	2.4
213.0915	2.6
239.0710	5.4
242.0578	3.1
255.1911	1.7
255.1960	1.8
255.2327	100.0
256.2361	27.3
257.0818	90.3
257.2115	6.9
257.2390	2.7
258.0852	14.8

Name: Ophthalmate
PrecursorMZ: 288.12013
RT: 8.8509
ExactMass: 288.1195603
Spectrum_type: 2
charge: -1
Formula: C11H18N3O6-
SMILES: CC[C@@H](C(=O)NCC(=O)[O-])NC(=O)CC[C@@H](C(=O)[O-])[NH3+]
Method: HCD
Collision_energy: [28.333334]
Isolation_window: 4.0
Ion_mode: N
Num Peaks: 132
59.0130	18.8
67.0294	5.3
69.0338	5.9
69.2838	6.8
71.0130	16.5
72.9922	16.5
73.0287	8.4
75.0080	6.2
78.9582	9.2
79.9565	24.8
80.9643	41.3
81.0449	6.6
83.0494	8.5
84.0445	6.2
85.0286	12.1
87.0079	38.5
88.0395	18.3
89.0236	9.4
94.0288	5.1
95.0244	4.1
95.0494	7.8
97.0286	6.2
97.0652	5.9
97.4666	6.3
98.0238	5.7
98.0601	6.7
99.0079	7.9
99.0443	8.6
100.0396	6.6
101.0236	10.5
102.0552	31.5
108.0450	4.2
109.0286	6.1
110.0240	6.3
111.0079	41.1
111.0443	12.0
111.0808	5.2
112.0398	4.2
112.0509	57.6
113.0236	18.3
113.0349	7.3
113.0601	7.2
114.0552	8.5
115.0030	7.1
115.0392	7.4
116.0709	42.6
123.0443	8.5
123.0556	5.6
124.0395	8.8
124.0509	5.2
125.0236	12.5
125.0345	7.4
125.0602	6.3
126.0553	5.2
127.0392	7.9
127.0504	12.1
128.0346	37.0
129.0189	4.7
130.0866	6.8
135.0443	7.6
137.0599	6.8
138.0550	5.1
139.0395	20.7
139.0756	6.3
141.0550	5.8
142.0501	10.3
142.0615	15.3
143.0341	5.6
144.0771	8.0
146.0452	9.1
153.0551	6.1
154.0980	7.1
155.0342	10.0
155.0459	6.3
156.0662	4.6
157.0503	9.1
160.0611	16.8
165.0552	4.0
166.0618	8.8
170.0220	8.3
170.0454	4.3
170.0818	9.7
171.0294	5.1
171.0770	5.6
180.0777	38.1
181.0505	4.8
181.0837	4.4
184.0727	5.6
185.0575	8.3
188.0941	26.3
192.0776	14.1
196.0733	9.4
197.0453	5.5
198.0883	100.0
199.0923	9.2
200.0552	7.2
201.0401	4.4
202.0834	7.1
206.0128	5.1
208.0283	6.0
208.1097	8.7
209.0117	5.2
210.0896	25.9
215.0547	7.7
226.1210	6.3
227.0544	11.4
228.0996	33.3
240.0996	10.0
242.0222	5.3
252.0999	5.9
258.1088	6.8
270.1082	30.9
271.0463	6.1
286.0957	5.0
286.1877	4.6
287.0402	25.8
287.0785	24.8
287.1167	17.0
287.1536	6.3
287.1875	9.5
287.5412	6.6
288.0451	11.1
288.0816	17.3
288.1174	31.3
288.5410	4.2
289.0563	84.5
289.0933	5.6
289.0990	10.6
289.1026	10.3
289.1615	5.2
290.0599	6.5
290.0883	8.3

Name: Ophthalmic acid
PrecursorMZ: 288.12007
RT: 9.3395
ExactMass: 289.12738533
Spectrum_type: 2
charge: -1
Formula: C11H19N3O6
SMILES: CC[C@@H](C(=O)NCC(=O)O)NC(=O)CC[C@@H](C(=O)O)N
Method: HCD
Collision_energy: [28.333334]
Isolation_window: 4.0
Ion_mode: N
Num Peaks: 116
59.0130	7.4
61.9875	8.1
67.0293	7.3
69.7440	2.3
70.0289	5.2
71.0130	5.5
72.9922	9.0
73.0285	3.0
79.9564	6.4
80.9643	12.8
83.0494	2.9
84.0445	3.7
85.0285	7.6
87.0078	18.9
88.0394	4.2
89.0235	5.1
94.0402	14.8
95.0241	5.4
95.0486	8.1
96.9592	5.4
96.9686	3.7
97.0285	4.0
97.4649	3.3
98.0240	5.5
99.0078	3.2
99.0443	3.7
100.0395	2.3
101.0235	4.1
102.0552	14.4
103.0028	2.9
109.0287	3.6
109.0649	3.1
111.0081	4.9
111.0443	6.2
111.0806	6.2
112.0395	4.3
112.0508	55.7
113.0236	4.1
113.0607	3.0
114.0552	3.7
115.0028	3.0
115.0391	2.3
116.0709	3.4
121.0652	5.0
123.0441	4.2
124.0397	3.0
124.0508	6.3
125.0237	4.3
125.0599	2.8
127.0392	3.2
127.0504	4.6
128.0345	9.6
136.0872	77.7
137.0600	5.2
137.0911	5.3
139.0395	5.8
139.0757	9.0
140.0709	2.2
142.0613	2.5
142.0865	5.5
144.0771	7.1
145.0972	4.1
146.0454	3.7
148.0871	3.3
154.0978	7.4
155.0346	3.8
155.0707	4.2
157.0500	3.2
159.0770	2.9
165.0549	2.8
170.0453	3.1
176.9862	4.2
180.0773	100.0
181.0495	3.4
181.0810	9.4
182.0815	2.9
183.0656	13.1
185.0564	21.5
187.1081	7.8
192.0774	15.5
198.0881	93.8
199.0579	3.4
199.0592	4.2
199.0912	7.4
200.0922	2.8
201.0405	2.4
201.0761	2.9
202.0830	29.8
206.9966	9.7
208.0282	3.7
209.0123	2.6
210.0885	16.9
215.1399	11.8
218.1031	5.8
226.0726	2.7
226.1193	5.1
227.0555	27.8
228.0997	5.5
240.0987	5.1
245.0655	13.2
270.1096	39.0
271.0451	4.8
271.1132	4.9
286.1417	4.4
287.0413	9.6
287.0781	9.7
287.1490	3.3
287.1862	5.5
288.0727	6.0
288.1202	54.7
288.9696	15.1
289.0554	18.1
289.1245	7.1
289.1612	2.7
290.0538	8.8
290.0886	3.0

Name: Orcinol Glucoside
PrecursorMZ: 285.09803
RT: 3.0888
ExactMass: 286.10525291
Spectrum_type: 2
charge: -1
Formula: C13H18O7
SMILES: CC1=CC(=CC(=C1)O[C@H]2[C@@H]([C@H]([C@@H]([C@H](O2)CO)O)O)O)O
Method: HCD
Collision_energy: [28.333334]
Isolation_window: 4.0
Ion_mode: N
Num Peaks: 38
59.0130	11.8
71.0130	3.9
72.9923	6.8
73.0286	5.2
85.0286	6.7
86.0239	5.1
87.0079	13.9
97.0287	4.6
99.0443	8.3
101.0235	4.6
111.0444	6.2
113.0233	4.0
123.0443	5.0
125.0237	6.3
125.0599	6.5
137.0602	6.4
137.0713	5.6
139.0393	7.5
153.0551	5.9
193.0505	4.5
211.0607	6.1
225.0768	5.6
253.0720	4.3
283.1552	6.9
283.2643	100.0
284.0843	10.3
284.1174	6.6
284.2679	30.7
285.0625	19.0
285.0980	63.6
285.1345	5.7
285.1489	12.4
285.2082	6.0
285.2434	83.1
286.0691	6.6
286.1016	8.9
286.2466	13.4
287.0752	20.0

Name: Oridonin
PrecursorMZ: 363.18148
RT: 0.5579
ExactMass: 364.18858861
Spectrum_type: 2
charge: -1
Formula: C20H28O6
SMILES: CC1(CC[C@@H]([C@]23[C@@H]1[C@@H]([C@]([C@]45[C@H]2CC[C@H]([C@H]4O)C(=C)C5=O)(OC3)O)O)O)C
Method: HCD
Collision_energy: [28.333334]
Isolation_window: 4.0
Ion_mode: N
Num Peaks: 73
85.0649	2.3
87.0439	1.0
96.9591	1.2
99.0806	1.6
101.0598	1.1
109.0643	0.9
111.0441	3.5
113.0597	0.8
125.0598	4.4
127.0756	1.2
137.0597	1.3
139.0753	2.3
141.0547	3.7
153.0547	1.3
165.0548	1.4
168.9882	1.7
179.0705	2.1
181.0498	2.4
191.1065	1.4
193.0859	1.3
193.1222	1.1
195.0654	13.2
196.0689	1.2
205.0865	1.0
207.0655	4.3
207.1368	1.2
209.1175	5.8
210.1239	1.4
219.1013	0.8
223.0619	1.2
223.0973	2.6
223.1331	2.9
233.1170	1.8
235.0970	1.3
237.1128	4.5
239.1286	1.3
247.1346	0.9
248.1053	2.1
249.1127	12.6
250.1160	2.1
251.0909	1.1
251.1285	3.7
253.1438	0.9
261.1122	1.3
263.1286	6.8
264.1337	1.7
265.1441	1.0
266.1154	0.9
267.1232	2.1
269.1032	1.0
269.1383	1.4
275.1284	1.6
276.0998	1.4
281.1393	3.6
294.1104	3.6
296.0898	0.9
317.1751	1.8
318.1775	0.9
318.9793	3.6
319.1907	1.6
345.1707	2.3
347.1853	1.4
361.1650	13.1
361.2038	2.8
362.1673	5.5
362.2053	1.0
363.1461	5.3
363.1812	100.0
363.3274	1.0
364.1473	1.0
364.1840	20.5
365.1582	4.1
365.1971	25.2

Name: Orotic Acid
PrecursorMZ: 155.00914
RT: 5.5102
ExactMass: 156.01710661
Spectrum_type: 2
charge: -1
Formula: C5H4N2O4
SMILES: C1=C(NC(=O)NC1=O)C(=O)O
Method: HCD
Collision_energy: [28.333334]
Isolation_window: 4.0
Ion_mode: N
Num Peaks: 20
79.9564	1.0
94.9799	3.8
109.0160	1.1
109.0479	0.9
110.0240	0.7
111.0033	0.7
111.0191	100.0
111.0352	0.7
112.0152	1.3
112.0225	4.7
113.0348	1.6
124.0395	1.4
136.9903	0.6
153.0218	0.8
153.8680	1.4
154.0500	2.1
155.0008	11.4
155.0095	2.0
155.8651	1.0
157.0863	18.3

Name: Oxaceprol
PrecursorMZ: 172.0607
RT: 6.0895
ExactMass: 173.06880783
Spectrum_type: 2
charge: -1
Formula: C7H11NO4
SMILES: CC(=O)N1C[C@@H](C[C@H]1C(=O)O)O
Method: HCD
Collision_energy: [28.333334]
Isolation_window: 4.0
Ion_mode: N
Num Peaks: 20
71.0129	75.0
82.0288	53.1
83.0492	15.4
88.0394	63.2
99.0442	27.1
100.0394	67.1
113.0346	23.0
116.0706	15.2
126.0550	15.4
127.0395	19.5
128.0705	19.7
130.0497	24.4
155.0343	21.5
170.0817	16.2
171.0657	37.7
171.1018	50.1
171.1381	23.4
172.0608	100.0
173.0449	55.6
173.0808	32.6

Name: Oxfenicine
PrecursorMZ: 166.05027
RT: 4.521
ExactMass: 167.058243149
Spectrum_type: 2
charge: -1
Formula: C8H9NO3
SMILES: C1=CC(=CC=C1[C@@H](C(=O)O)N)O
Method: HCD
Collision_energy: [28.333334]
Isolation_window: 4.0
Ion_mode: N
Num Peaks: 12
66.0340	8.5
79.9563	27.8
80.9643	8.8
82.0289	19.2
121.0286	52.9
122.0603	30.6
124.0396	27.4
165.0215	39.4
165.0547	21.0
166.0154	9.1
166.0507	35.9
167.0376	100.0

Name: Oxindole-3-acetic acid
PrecursorMZ: 190.05043
RT: 1.2784
ExactMass: 191.058243149
Spectrum_type: 2
charge: -1
Formula: C10H9NO3
SMILES: C1=CC=C2C(=C1)C(C(=O)N2)CC(=O)O
Method: HCD
Collision_energy: [28.333334]
Isolation_window: 4.0
Ion_mode: N
Num Peaks: 55
59.0130	2.4
69.0336	1.2
71.0129	1.1
72.9921	0.8
73.0286	1.5
75.0079	1.0
79.9565	0.9
80.9642	13.6
83.0493	2.6
85.0286	2.7
87.0078	2.1
87.0442	1.5
88.0397	1.0
89.0235	1.6
97.0286	0.8
99.0444	0.9
101.0235	1.9
102.0550	1.1
103.0391	1.1
113.0236	1.8
115.0392	0.9
116.0492	0.8
117.0183	1.5
122.0240	0.9
126.0996	2.4
127.0393	1.2
127.0759	1.0
128.0349	1.7
128.0497	3.1
131.0361	3.0
132.0451	1.2
144.0447	28.9
144.0657	1.2
145.0490	4.0
146.0604	100.0
147.0444	0.9
147.0640	9.3
162.0555	1.1
171.0299	0.9
171.0655	0.9
172.0397	5.0
188.0995	2.1
189.0396	2.5
189.0560	1.5
189.0762	8.4
189.1130	5.1
190.0505	34.5
190.0708	1.8
191.0015	3.9
191.0184	0.9
191.0355	0.8
191.0553	9.8
191.0710	0.9
192.0326	1.7
192.0661	34.2

Name: P-Cresol sulfate
PrecursorMZ: 187.00658
RT: 0.7492
ExactMass: 188.01432991
Spectrum_type: 2
charge: -1
Formula: C7H8O4S
SMILES: CC1=CC=C(C=C1)OS(=O)(=O)O
Method: HCD
Collision_energy: [28.333334]
Isolation_window: 4.0
Ion_mode: N
Num Peaks: 19
59.0128	4.8
79.9565	19.3
80.9642	6.5
102.0551	4.9
107.0494	61.1
125.0966	5.6
127.9314	5.9
141.0917	4.0
169.0502	3.9
185.1178	9.1
185.1539	6.8
186.0299	16.7
187.0066	100.0
187.0250	9.3
187.0614	4.4
187.0969	8.0
187.1335	4.9
188.0097	8.9
188.0348	20.3

Name: PE(14:0/0:0)
PrecursorMZ: 424.24676
RT: 5.0803
ExactMass: 425.25423961
Spectrum_type: 2
charge: -1
Formula: C19H40NO7P
SMILES: CCCCCCCCCCCCCC(=O)OC[C@H](COP(=O)(O)OCCN)O
Method: HCD
Collision_energy: [28.333334]
Isolation_window: 4.0
Ion_mode: N
Num Peaks: 24
59.0135	2.0
78.9581	8.8
87.0441	1.9
96.9591	3.6
140.0110	5.7
152.9948	3.2
196.0374	9.5
214.0485	1.7
225.2221	1.7
227.2012	100.0
228.2046	14.1
379.2868	5.0
405.2679	1.6
407.2853	1.5
422.2660	4.3
423.1648	4.3
423.2763	18.7
424.2414	6.3
424.2448	34.2
425.1771	1.2
425.2487	9.9
425.2891	7.8
426.2508	1.2
426.2926	1.2

Name: PE(14:0/16:0)
PrecursorMZ: 662.47611
RT: 1.4741
ExactMass: 663.48390519
Spectrum_type: 2
charge: -1
Formula: C35H70NO8P
SMILES: CCCCCCCCCCCCCCCC(=O)O[C@H](COC(=O)CCCCCCCCCCCCC)COP(=O)(O)OCCN
Method: HCD
Collision_energy: [28.333334]
Isolation_window: 4.0
Ion_mode: N
Num Peaks: 34
69.1542	0.6
73.6063	1.0
73.6110	1.9
73.7223	0.7
78.9581	10.0
96.9685	0.6
110.9843	1.8
125.0001	0.8
152.9950	22.7
153.9984	0.7
171.0059	0.7
213.1852	1.0
225.2218	0.7
227.2011	18.8
228.2044	2.1
241.2169	100.0
241.2682	0.6
242.2203	13.7
243.2223	0.6
255.2327	8.2
256.2355	1.1
347.1970	0.8
350.2376	0.6
361.2154	1.0
420.2521	2.4
421.2486	0.6
438.2615	0.7
629.4675	0.7
644.4577	0.7
660.4960	2.2
661.4973	6.4
662.4768	47.5
663.4724	27.0
664.4707	5.9

Name: PE(15:0/0:0)
PrecursorMZ: 438.26279
RT: 5.00454
ExactMass: 439.26988968
Spectrum_type: 2
charge: -1
Formula: C20H42NO7P
SMILES: CCCCCCCCCCCCCCC(=O)OC[C@H](COP(=O)(O)OCCN)O
Method: HCD
Collision_energy: [28.333334]
Isolation_window: 4.0
Ion_mode: N
Num Peaks: 36
59.0129	1.0
69.4984	0.8
78.9581	17.5
96.9687	1.7
114.0553	1.0
115.0392	1.0
136.0761	0.8
140.0111	6.0
152.9951	40.8
153.9984	2.0
154.9997	0.8
171.0059	1.3
196.0375	10.6
197.0413	0.8
214.0482	2.2
239.2380	3.2
240.2414	1.2
241.0992	0.9
241.1668	0.7
241.2172	100.0
242.2205	15.9
243.2229	0.9
366.1832	1.0
377.2097	0.7
395.2816	1.7
421.2591	1.3
436.2847	10.8
437.2444	3.2
437.2552	2.0
437.2685	13.9
437.2853	5.8
437.2949	1.9
438.2128	1.2
438.2623	40.9
439.2698	21.4
440.2730	3.4

Name: PE(15:0/15:0)
PrecursorMZ: 662.47636
RT: 2.0394
ExactMass: 663.48390519
Spectrum_type: 2
charge: -1
Formula: C35H70NO8P
SMILES: CCCCCCCCCCCCCCC(=O)OC[C@H](COP(=O)(O)OCCN)OC(=O)CCCCCCCCCCCCCC
Method: HCD
Collision_energy: [28.333334]
Isolation_window: 4.0
Ion_mode: N
Num Peaks: 15
73.6062	2.2
73.6110	4.2
73.7225	1.3
73.8349	1.3
78.9580	67.4
96.9686	5.2
110.9841	1.3
152.9949	49.8
171.0055	78.4
172.0088	1.5
588.4399	1.2
661.4797	3.3
662.4766	100.0
663.4796	34.6
664.4915	34.8

Name: PE(15:0/17:0)
PrecursorMZ: 690.50734
RT: 1.9002
ExactMass: 691.51520532
Spectrum_type: 2
charge: -1
Formula: C37H74NO8P
SMILES: CCCCCCCCCCCCCCCCC(=O)O[C@H](COC(=O)CCCCCCCCCCCCCC)COP(=O)(O)OCCN
Method: HCD
Collision_energy: [28.333334]
Isolation_window: 4.0
Ion_mode: N
Num Peaks: 20
69.3956	1.1
76.7208	2.4
76.7257	4.2
76.8372	1.6
76.9496	1.6
78.9580	70.9
96.9686	5.6
97.4671	0.8
152.9950	52.2
153.9986	1.1
170.9939	1.0
171.0055	89.4
172.0088	1.6
255.2338	0.8
616.4701	1.1
688.4894	1.9
689.4951	4.2
690.5077	100.0
691.5112	39.4
692.5221	42.2

Name: PE(16:0/0:0); (M-H)- C21H43N1O7P1
PrecursorMZ: 452.27858
RT: 5.00204
Spectrum_type: 2
charge: -1
Method: HCD
Collision_energy: [28.333334]
Isolation_window: 4.0
Ion_mode: N
Num Peaks: 18
50.2544	1.5
78.9581	3.2
114.0550	1.0
140.0112	2.8
152.9953	0.9
196.0375	10.0
214.0481	2.0
241.2172	1.9
255.2329	100.0
256.2364	17.1
257.2390	1.2
319.1915	1.4
451.3021	1.8
451.3283	1.4
452.2787	35.1
453.2844	7.8
454.2839	0.9
454.2910	1.2

Name: PE(16:0/0:0); )M-H(- C21H43N1O7P1
PrecursorMZ: 452.27857
RT: 0.60582
Spectrum_type: 2
charge: -1
SMILES: N/A
Method: HCD
Collision_energy: [28.333334]
Isolation_window: 4.0
Ion_mode: N
Num Peaks: 24
50.2518	0.7
50.2544	1.5
50.3660	0.4
61.9876	0.6
78.9581	4.2
96.9591	1.0
140.0111	3.3
152.9952	1.1
196.0376	10.6
197.0417	0.6
214.0481	2.2
255.1771	0.7
255.1890	0.5
255.2329	100.0
255.2774	0.6
255.2883	0.7
256.2363	16.6
257.2389	1.3
452.1443	0.4
452.2786	34.6
453.1184	0.4
453.2822	8.0
453.3299	0.4
454.2835	0.9

Name: PE(16:0/18:2); (M-H)- C39H73N1O8P1
PrecursorMZ: 714.50855
RT: 0.8966
Spectrum_type: 2
charge: -1
Method: HCD
Collision_energy: [28.333334]
Isolation_window: 4.0
Ion_mode: N
Num Peaks: 24
78.9582	7.3
79.3874	1.0
79.3926	1.9
79.5041	0.7
79.6165	0.7
96.9686	0.7
152.9952	24.4
241.2173	2.7
253.2176	1.6
255.1777	0.7
255.2330	100.0
255.2891	0.7
256.2363	12.2
257.2387	0.7
279.2331	18.4
280.2362	2.8
281.2487	7.0
458.2685	1.5
476.2781	0.8
712.4885	0.9
713.4958	1.9
714.5088	42.4
715.5103	18.2
716.5233	19.1

Name: PE(18:0/18:2(9Z,12Z))
PrecursorMZ: 742.53916
RT: 0.8888
ExactMass: 743.54650544
Spectrum_type: 2
charge: -1
Formula: C41H78NO8P
SMILES: CCCCCCCCCCCCCCCCCC(=O)OC[C@H](COP(=O)(O)OCCN)OC(=O)CCCCCCC/C=C\C/C=C\CCCCC
Method: HCD
Collision_energy: [28.333334]
Isolation_window: 4.0
Ion_mode: N
Num Peaks: 18
78.9581	16.6
152.9951	49.3
255.2330	18.7
277.2172	12.3
279.2328	46.3
280.2361	20.8
281.2485	100.0
282.2520	23.8
283.2642	41.4
284.2672	7.7
464.2845	6.2
740.5237	40.6
741.5275	44.1
742.5377	78.3
743.5300	25.9
743.5426	8.7
744.5299	25.5
744.5506	5.1

Name: PE(18:1(9Z)/0:0)
PrecursorMZ: 478.29404
RT: 1.3582
ExactMass: 479.3011898
Spectrum_type: 2
charge: -1
Formula: C23H46NO7P
SMILES: CCCCCCCC/C=C\CCCCCCCC(=O)OC[C@H](COP(=O)(O)OCCN)O
Method: HCD
Collision_energy: [28.333334]
Isolation_window: 4.0
Ion_mode: N
Num Peaks: 18
53.1452	4.5
69.1745	5.3
78.9582	50.1
89.0235	9.3
97.4649	3.8
152.9952	53.1
182.0219	8.3
238.0485	7.7
239.2378	12.5
281.2483	10.7
283.2641	6.0
375.2314	8.1
393.2416	6.5
477.2591	5.0
477.3229	16.7
478.2941	100.0
479.2943	22.6
480.2792	21.5

Name: PE(18:1(9Z)/18:2(9Z,12Z))
PrecursorMZ: 740.52379
RT: 0.9086
ExactMass: 741.53085538
Spectrum_type: 2
charge: -1
Formula: C41H76NO8P
SMILES: CCCCCCCC/C=C\CCCCCCCC(=O)OC[C@H](COP(=O)(O)OCCN)OC(=O)CCCCCCC/C=C\C/C=C\CCCCC
Method: HCD
Collision_energy: [28.333334]
Isolation_window: 4.0
Ion_mode: N
Num Peaks: 12
78.9581	10.6
152.9952	40.7
279.2330	100.0
280.2360	25.3
281.2486	76.4
282.2523	9.4
283.2642	6.1
738.5135	9.3
739.5118	24.8
740.5231	55.5
741.5277	23.2
742.5341	26.5

Name: PE(18:1/0:0); (M-H)- C23H45N1O7P1
PrecursorMZ: 478.29389
RT: 4.9622
Spectrum_type: 2
charge: -1
Method: HCD
Collision_energy: [28.333334]
Isolation_window: 4.0
Ion_mode: N
Num Peaks: 21
53.1451	2.2
59.0129	3.8
71.0129	1.6
74.0238	1.5
78.9580	7.6
140.0111	4.7
152.9952	1.8
196.0374	13.7
214.0486	2.6
279.2331	1.9
280.2375	2.0
281.2484	100.0
282.2519	17.3
283.2641	35.0
433.2970	3.6
434.2985	1.5
435.3157	5.5
477.2853	14.8
478.2933	50.6
479.2982	20.7
480.3104	20.0

Name: PE(18:1/0:0); )M-H(- C23H45N1O7P1
PrecursorMZ: 478.2942
RT: 0.5872
Spectrum_type: 2
charge: -1
SMILES: N/A
Method: HCD
Collision_energy: [28.333334]
Isolation_window: 4.0
Ion_mode: N
Num Peaks: 47
53.1423	0.8
53.1451	2.1
53.2567	0.6
59.0130	1.1
61.9873	0.5
71.0128	0.9
72.9921	0.8
78.9580	6.0
79.9564	1.0
87.0078	0.8
89.0233	1.9
96.9591	8.6
98.9549	0.6
140.0111	3.4
152.9950	2.6
162.0314	0.6
171.0054	0.9
196.0374	10.9
197.0404	0.6
214.0479	2.7
241.2172	1.9
255.2328	5.4
279.2330	5.1
280.2364	2.5
281.1843	0.7
281.1969	0.5
281.2484	100.0
281.2996	0.6
281.3124	0.6
282.2518	18.5
283.2554	0.8
397.2951	0.6
433.3329	1.1
435.3492	1.9
461.3260	0.9
476.2776	4.4
476.3460	1.5
477.1342	0.6
477.2574	3.3
477.3395	2.0
478.1495	0.6
478.2937	43.7
479.1347	0.5
479.2088	0.9
479.2810	7.8
479.3421	5.8
480.2855	1.5

Name: PE(18:1/18:2); (M-H)- C41H75N1O8P1
PrecursorMZ: 740.52399
RT: 0.9291666666666667
Spectrum_type: 2
charge: -1
Method: HCD
Collision_energy: [28.333334]
Isolation_window: 4.0
Ion_mode: N
Num Peaks: 24
78.9581	10.6
82.2778	1.2
82.2834	2.5
82.3949	1.0
82.5074	1.0
96.9686	0.8
152.9951	39.0
153.9985	1.4
171.0054	1.0
277.2165	1.6
279.2330	100.0
280.2364	26.1
281.2486	77.0
282.2519	8.9
283.2637	4.0
458.2684	2.3
460.2842	2.5
476.2797	0.9
478.2910	1.2
738.5089	10.6
739.5124	18.8
740.5239	59.3
741.5276	23.1
742.5384	24.9

Name: PE(18:2/0:0); (M-H)- C23H43N1O7P1
PrecursorMZ: 476.2784
RT: 4.9773499999999995
Spectrum_type: 2
charge: -1
Method: HCD
Collision_energy: [28.333334]
Isolation_window: 4.0
Ion_mode: N
Num Peaks: 14
52.9212	2.2
78.9581	8.7
140.0110	5.8
152.9951	2.7
196.0375	17.6
214.0479	3.6
277.2171	1.8
279.2329	100.0
280.2363	18.4
281.2486	47.6
433.2958	1.9
476.2785	45.1
477.2849	18.7
478.2934	24.0

Name: PE(18:2/18:2); (M-H)- C41H73N1O8P1
PrecursorMZ: 738.50723
RT: 1.5704500000000001
Spectrum_type: 2
charge: -1
Method: HCD
Collision_energy: [28.333334]
Isolation_window: 4.0
Ion_mode: N
Num Peaks: 35
78.9580	8.2
82.0538	0.8
82.0594	1.4
82.1655	0.3
82.1709	0.6
82.2832	0.6
96.9685	0.6
97.4100	0.4
152.9950	30.1
153.9985	0.5
171.0055	0.6
241.2171	0.9
255.2328	2.4
256.2365	0.7
269.2493	0.4
277.2174	2.1
278.2212	0.8
279.2326	100.0
279.2959	0.7
280.2360	15.4
281.2482	14.9
283.2636	0.5
402.2400	0.6
433.2356	0.4
458.2679	3.3
459.2710	0.8
460.2828	0.8
476.2785	1.0
480.2794	0.9
481.2814	0.5
736.5181	4.0
737.5199	6.8
738.5084	37.5
739.5117	15.9
740.5220	15.8

Name: PG(16:0/16:0)
PrecursorMZ: 721.50281
RT: 0.886
ExactMass: 722.50978558
Spectrum_type: 2
charge: -1
Formula: C38H75O10P
SMILES: CCCCCCCCCCCCCCCC(=O)OC[C@H](COP(=O)(O)OC[C@H](CO)O)OC(=O)CCCCCCCCCCCCCCC
Method: HCD
Collision_energy: [28.333334]
Isolation_window: 4.0
Ion_mode: N
Num Peaks: 9
152.9951	6.1
227.2009	4.4
255.2328	100.0
256.2362	16.6
281.2487	2.6
720.5182	6.6
721.5037	34.9
722.5077	15.3
723.5131	2.3

Name: PG(16:0/18:1); (M-H)- C40H76O10P1
PrecursorMZ: 747.51735
RT: 2.0899
Spectrum_type: 2
charge: -1
Method: HCD
Collision_energy: [28.333334]
Isolation_window: 4.0
Ion_mode: N
Num Peaks: 21
78.9581	5.1
83.0605	2.1
152.9950	13.4
171.0058	4.0
227.0314	1.5
241.2166	3.0
255.2326	100.0
256.2361	18.5
267.2339	2.0
269.2482	7.1
270.2514	1.6
279.2315	3.7
280.2362	1.8
281.2483	46.5
282.2517	8.4
283.2637	2.2
745.5367	3.9
746.5327	9.6
747.5186	55.1
748.5217	22.5
749.5347	9.3

Name: PG(18:0/18:1(9Z))
PrecursorMZ: 775.54765
RT: 2.1587
ExactMass: 776.55673577
Spectrum_type: 2
charge: -1
Formula: C42H81O10P
SMILES: CCCCCCCCCCCCCCCCCC(=O)OC[C@H](COP(=O)(O)OC[C@H](CO)O)OC(=O)CCCCCCC/C=C\CCCCCCCC
Method: HCD
Collision_energy: [28.333334]
Isolation_window: 4.0
Ion_mode: N
Num Peaks: 16
61.9808	0.6
61.9821	0.6
61.9874	100.0
61.9927	0.5
61.9941	0.7
74.0237	1.6
97.4060	0.6
281.2486	0.8
430.2980	0.5
711.5386	0.8
712.5521	7.0
713.5543	3.1
714.5654	1.7
775.5488	0.8
776.5162	1.4
777.5109	0.5

Name: PI Cer(d18:0/16:0(2OH)); (M-H)- C40H79N1O12P1
PrecursorMZ: 796.5353
RT: 4.742966666666667
Spectrum_type: 2
charge: -1
Method: HCD
Collision_energy: [28.333334]
Isolation_window: 4.0
Ion_mode: N
Num Peaks: 26
78.9581	50.3
88.5011	2.5
88.5072	4.3
88.6125	1.0
88.6187	1.8
89.0234	0.6
96.9687	9.8
223.0013	0.6
241.0117	69.1
242.0151	4.0
255.2327	0.9
259.0223	39.7
260.0260	2.5
542.3076	0.7
584.3194	0.9
616.4718	0.8
634.4811	1.2
795.3870	1.7
795.5224	0.8
795.5387	0.6
796.5358	100.0
796.6509	1.2
796.8457	0.7
797.4040	0.9
797.5391	41.9
798.5420	6.8

Name: Padmatin
PrecursorMZ: 317.06641
RT: 4.1062
ExactMass: 318.07395278
Spectrum_type: 2
charge: -1
Formula: C16H14O7
SMILES: COC1=CC(=C2C(=C1)O[C@@H]([C@H](C2=O)O)C3=CC(=C(C=C3)O)O)O
Method: HCD
Collision_energy: [28.333334]
Isolation_window: 4.0
Ion_mode: N
Num Peaks: 26
61.9874	12.2
108.0445	13.8
109.0285	9.6
110.0239	7.1
116.9276	9.7
125.0234	11.0
135.0442	24.9
137.0235	44.3
139.0390	6.9
179.0345	12.1
199.0238	6.0
214.0634	7.1
227.0709	7.1
229.0867	44.0
255.0665	6.1
271.0611	6.1
272.0644	6.0
272.0931	10.7
273.0760	18.8
315.0844	9.5
315.1964	6.6
316.0816	19.8
317.0661	100.0
317.0985	6.7
318.0675	18.2
319.0841	19.0

Name: Parabanic acid
PrecursorMZ: 112.99844
RT: 2.4695
ExactMass: 114.00654193
Spectrum_type: 2
charge: -1
Formula: C3H2N2O3
SMILES: C1(=O)C(=O)NC(=O)N1
Method: HCD
Collision_energy: [28.333334]
Isolation_window: 4.0
Ion_mode: N
Num Peaks: 12
68.9949	100.0
71.0130	5.7
72.0082	3.3
85.0034	5.3
111.0190	4.3
112.0144	6.2
112.9851	11.2
112.9984	24.8
114.0187	3.7
114.0551	3.7
114.9008	8.7
114.9329	3.7

Name: Paraxanthine
PrecursorMZ: 179.05588
RT: 7.7505
ExactMass: 180.06472551
Spectrum_type: 2
charge: -1
Formula: C7H8N4O2
SMILES: CN1C=NC2=C1C(=O)N(C(=O)N2)C
Method: HCD
Collision_energy: [28.333334]
Isolation_window: 4.0
Ion_mode: N
Num Peaks: 81
59.0130	26.6
63.9615	1.4
66.0340	1.9
69.0337	2.2
69.8601	1.3
71.0130	16.0
72.9922	3.9
73.0287	4.1
75.0079	3.2
78.9850	10.6
79.9564	6.7
80.9643	5.1
81.0336	5.4
83.0130	6.6
83.0492	1.2
85.0286	30.5
86.0238	1.7
86.0321	1.3
87.0079	7.4
87.0442	2.1
88.0396	2.7
89.0235	39.8
90.0269	1.4
93.0337	24.6
94.0289	15.7
95.0494	1.7
97.0286	10.5
99.0080	2.0
99.0444	3.3
101.0236	6.6
107.0494	2.1
108.0446	7.6
109.0287	3.5
109.0398	1.3
109.0650	1.5
110.0239	1.2
113.0235	2.2
114.0551	1.2
115.0392	3.2
119.0344	1.5
119.0494	2.7
121.0287	3.1
123.0445	2.4
125.0235	1.9
129.0188	1.6
131.0342	23.2
133.0652	1.5
134.0604	12.0
135.0445	30.7
135.0550	1.7
135.0808	1.9
136.0396	5.2
136.0484	1.9
136.0760	51.5
137.0237	28.9
137.0602	12.9
137.0711	1.8
137.0797	1.4
143.0342	1.6
149.0601	2.1
150.0553	1.3
151.0393	2.1
152.0708	3.9
159.0294	1.4
159.0659	1.4
161.0449	61.2
162.0478	4.0
163.0390	1.6
177.0400	3.7
177.0556	2.4
177.0766	6.6
178.0500	3.1
178.0863	1.2
179.0351	10.1
179.0557	100.0
179.0691	4.4
179.0821	1.8
180.0321	2.1
180.0667	27.9
181.0141	8.7
181.0492	8.3

Name: Parcetasal
PrecursorMZ: 358.0931
RT: 1.0558333333333334
ExactMass: 313.09502258
Spectrum_type: 2
charge: -1
Formula: C17H15NO5
SMILES: CC(=O)NC1=CC=C(C=C1)OC2(OC3=CC=CC=C3C(=O)O2)C
Method: HCD
Collision_energy: [28.333334]
Isolation_window: 4.0
Ion_mode: N
Num Peaks: 9
121.0287	9.7
122.0365	30.7
147.0444	3.2
167.0215	3.2
314.1041	7.1
357.1735	4.4
358.0934	100.0
359.0966	21.5
359.1898	4.3

Name: Paulownin
PrecursorMZ: 369.09746
RT: 1.2001
ExactMass: 370.10525291
Spectrum_type: 2
charge: -1
Formula: C20H18O7
SMILES: C1[C@@H]2[C@H](OC[C@@]2([C@H](O1)C3=CC4=C(C=C3)OCO4)O)C5=CC6=C(C=C5)OCO6
Method: HCD
Collision_energy: [28.333334]
Isolation_window: 4.0
Ion_mode: N
Num Peaks: 79
69.0336	0.9
69.1432	1.6
69.4899	1.1
84.0206	9.7
89.0418	1.6
93.0334	1.0
96.9590	5.1
97.0287	1.2
108.0207	9.6
109.0289	3.2
119.0492	1.1
121.0285	10.6
122.0363	0.9
133.0285	0.8
133.0651	1.4
135.0441	1.5
136.0157	7.7
137.0237	6.4
143.0494	1.1
145.0285	0.8
147.0441	2.5
148.0513	0.7
149.0087	2.5
149.0228	1.5
150.0312	1.7
151.0389	0.8
159.0443	3.0
160.0523	1.3
161.0600	7.7
162.0313	1.0
162.0670	1.1
163.0391	3.4
163.0757	3.7
165.0185	10.2
166.0223	0.9
171.0446	1.6
172.0514	0.8
173.0603	2.0
175.0392	2.8
176.0469	2.8
177.0182	1.1
177.0537	0.8
178.0269	1.2
182.0210	1.3
189.0549	8.8
190.0621	3.3
191.0342	3.1
191.0707	7.1
193.0498	1.9
201.0550	2.6
202.0272	1.6
204.0422	4.0
217.0496	1.1
219.0657	15.9
220.0695	1.9
220.1462	1.7
223.0279	5.7
281.0798	0.9
282.0886	1.0
283.0971	2.4
293.0817	0.8
293.2118	1.6
311.0922	5.7
312.0957	1.1
323.0926	1.2
339.0871	5.3
340.0945	13.9
341.1003	4.8
369.0978	100.0
369.1724	10.7
369.2632	2.2
370.1010	20.6
370.1721	2.0
370.1773	1.5
371.0637	1.9
371.0679	0.9
371.1051	1.5
371.1096	1.1
371.1909	4.3

Name: Perfluoroheptanoic acid
PrecursorMZ: 362.96969
RT: 0.5206
ExactMass: 363.9768954
Spectrum_type: 2
charge: -1
Formula: C7HF13O2
SMILES: C(=O)(C(C(C(C(C(C(F)(F)F)(F)F)(F)F)(F)F)(F)F)(F)F)O
Method: HCD
Collision_energy: [28.333334]
Isolation_window: 4.0
Ion_mode: N
Num Peaks: 34
96.9591	8.5
99.0804	0.9
118.9916	22.3
125.0598	2.5
139.0751	1.7
141.0546	1.5
165.0549	0.8
168.9886	54.4
169.9919	1.8
195.0657	2.8
209.1178	1.2
223.1335	2.2
235.1334	1.7
247.1327	0.8
248.1054	1.4
249.1126	4.4
263.1287	7.1
264.1308	1.2
265.1441	1.6
292.1298	3.3
317.1750	1.5
318.9795	100.0
319.9828	6.2
361.1659	6.5
361.2045	14.2
362.1691	1.0
362.2055	5.7
362.9700	4.2
363.1813	18.8
363.2212	11.2
364.1843	4.4
364.2228	2.2
365.1807	0.9
365.2363	1.6

Name: Perfluorohexanoic Acid
PrecursorMZ: 312.97269
RT: 0.5309
ExactMass: 313.98008905
Spectrum_type: 2
charge: -1
Formula: C6HF11O2
SMILES: C(=O)(C(C(C(C(C(F)(F)F)(F)F)(F)F)(F)F)(F)F)O
Method: HCD
Collision_energy: [28.333334]
Isolation_window: 4.0
Ion_mode: N
Num Peaks: 29
75.0077	0.5
91.0212	1.5
118.9916	18.9
183.0111	2.3
205.0503	0.7
246.9806	1.3
267.0654	0.7
268.9224	0.6
268.9827	100.0
269.0440	0.7
269.0799	0.5
269.9860	5.3
311.0541	0.6
311.0929	1.2
311.1073	0.6
311.1685	82.2
311.2268	0.8
311.2927	2.6
312.1715	19.1
312.2946	0.6
312.9728	4.4
313.0714	1.6
313.1078	1.8
313.1668	4.7
313.2382	1.1
313.2742	0.6
314.1094	0.6
314.1708	1.0
315.0871	1.2

Name: Phenol sulfate
PrecursorMZ: 172.99066
RT: 0.8786
ExactMass: 173.99867984
Spectrum_type: 2
charge: -1
Formula: C6H6O4S
SMILES: C1=CC=C(C=C1)OS(=O)(=O)O
Method: HCD
Collision_energy: [28.333334]
Isolation_window: 4.0
Ion_mode: N
Num Peaks: 3
79.9565	12.9
93.0336	85.6
172.9907	100.0

Name: Phenylalanine Arginine Beta-Naphthylamide
PrecursorMZ: 445.23596
RT: 5.2453
ExactMass: 446.24302422
Spectrum_type: 2
charge: -1
Formula: C25H30N6O2
SMILES: C1=CC=C(C=C1)C[C@@H](C(=O)N[C@@H](CCCN=C(N)N)C(=O)NC2=CC3=CC=CC=C3C=C2)N
Method: HCD
Collision_energy: [28.333334]
Isolation_window: 4.0
Ion_mode: N
Num Peaks: 9
425.2115	10.2
441.2042	16.6
443.2200	34.5
443.3010	12.5
444.2261	10.7
445.2357	100.0
446.2408	26.8
447.2219	7.0
463.2456	14.3

Name: Phenylethyl beta-D-glucopyranoside
PrecursorMZ: 283.11876
RT: 5.4735
ExactMass: 284.12598835
Spectrum_type: 2
charge: -1
Formula: C14H20O6
SMILES: C1=CC=C(C=C1)CCO[C@H]2[C@@H]([C@H]([C@@H]([C@H](O2)CO)O)O)O
Method: HCD
Collision_energy: [28.333334]
Isolation_window: 4.0
Ion_mode: N
Num Peaks: 12
137.0964	3.5
239.1286	26.9
240.1320	3.6
281.2485	8.0
282.2530	2.1
283.0863	2.0
283.1191	16.4
283.1550	4.5
283.2642	100.0
284.1220	2.3
284.2676	18.7
285.1704	11.4

Name: Phlorizine
PrecursorMZ: 435.12961
RT: 1.7505
ExactMass: 436.13694696
Spectrum_type: 2
charge: -1
Formula: C21H24O10
SMILES: C1=CC(=CC=C1CCC(=O)C2=C(C=C(C=C2OC3C(C(C(C(O3)CO)O)O)O)O)O)O
Method: HCD
Collision_energy: [28.333334]
Isolation_window: 4.0
Ion_mode: N
Num Peaks: 33
59.0128	4.4
85.9988	4.8
87.0078	3.1
96.9592	2.8
109.0286	6.2
115.0028	3.5
125.0236	4.0
135.0443	6.3
137.0234	3.1
137.0600	7.0
139.0506	2.8
167.0706	3.3
179.0334	3.5
181.0499	40.7
182.0538	4.7
185.0445	5.3
191.0556	2.8
193.0492	3.2
199.0605	3.4
211.0607	5.1
239.0563	2.9
241.0714	4.6
253.0709	6.9
273.1125	3.3
317.1014	3.4
433.1557	79.7
433.2600	4.1
434.1631	33.3
434.2195	8.3
435.1289	100.0
435.2732	6.6
436.1322	23.4
437.1511	10.4

Name: Phomalone
PrecursorMZ: 253.10823
RT: 0.8325
ExactMass: 254.11542367
Spectrum_type: 2
charge: -1
Formula: C13H18O5
SMILES: CCCC(=O)C1=C(C=C(C(=C1O)CCO)O)OC
Method: HCD
Collision_energy: [28.333334]
Isolation_window: 4.0
Ion_mode: N
Num Peaks: 109
59.0129	7.5
61.9874	1.7
69.0336	1.7
71.0129	2.0
72.9922	7.9
73.0286	2.5
85.0287	3.7
87.0079	9.4
87.0442	4.9
88.0395	5.0
89.0235	5.9
94.0289	9.6
95.0493	1.4
96.9593	4.6
97.0286	5.3
99.0079	1.7
99.0444	1.7
101.0236	2.1
107.0491	2.6
108.0446	1.8
109.0287	2.0
110.0239	2.2
111.0441	3.1
113.0237	2.5
115.0392	1.4
119.0494	21.1
120.0527	2.0
121.0287	2.0
121.0651	17.3
122.0601	1.4
123.0315	1.5
123.0444	5.0
123.0556	1.4
123.0810	1.5
124.0396	19.8
125.0234	5.4
127.0392	3.1
128.0343	5.1
135.0306	15.3
135.0442	3.4
137.0237	2.2
137.0603	7.9
138.0553	1.6
139.0393	2.8
146.0242	4.2
147.0812	1.9
148.0761	1.5
149.0604	4.7
150.0555	1.9
151.0393	3.6
153.0551	2.7
155.0344	1.8
161.0455	2.0
162.0197	1.5
162.0553	1.8
163.0264	2.4
163.0394	2.5
163.0758	4.4
164.0346	9.0
164.0700	3.3
165.0551	100.0
165.0910	2.9
166.0595	7.3
166.0868	1.8
167.0345	1.6
167.0705	1.4
173.0601	1.8
174.0559	1.5
176.0223	18.4
179.0697	7.9
179.0828	1.9
180.0288	2.5
180.0655	8.8
181.0497	7.7
183.0654	1.6
190.0504	2.7
191.0546	1.5
191.0710	6.9
192.0655	3.2
193.0258	2.4
193.0496	5.1
193.0866	2.1
207.0642	4.1
208.0250	6.3
208.0651	1.5
208.0966	3.0
209.0452	1.4
209.0808	18.0
210.0754	7.9
210.1265	4.5
211.0591	4.4
235.0608	2.7
237.1498	1.5
251.0556	4.5
251.0767	21.9
252.0561	5.4
252.0863	13.7
253.0502	74.9
253.0728	66.3
253.1104	14.0
253.2171	15.2
254.0693	28.2
254.1053	6.9
254.2199	2.8
255.0259	40.0
255.0516	22.3
255.0872	15.0
255.1605	3.7
255.2329	58.9

Name: Phytolaccagenic acid
PrecursorMZ: 515.33721
RT: 2.7819
ExactMass: 516.34508925
Spectrum_type: 2
charge: -1
Formula: C31H48O6
SMILES: C[C@@]1(CC[C@@]2(CC[C@@]3(C(=CC[C@H]4[C@]3(CC[C@@H]5[C@@]4(CC[C@@H]([C@@]5(C)CO)O)C)C)[C@@H]2C1)C)C(=O)O)C(=O)OC
Method: HCD
Collision_energy: [28.333334]
Isolation_window: 4.0
Ion_mode: N
Num Peaks: 5
57.2579	4.0
57.2613	5.3
515.3439	100.0
516.3466	33.4
517.3391	3.3

Name: Piceatannol
PrecursorMZ: 243.06598
RT: 1.3695
ExactMass: 244.07355886
Spectrum_type: 2
charge: -1
Formula: C14H12O4
SMILES: C1=CC(=C(C=C1/C=C/C2=CC(=CC(=C2)O)O)O)O
Method: HCD
Collision_energy: [28.333334]
Isolation_window: 4.0
Ion_mode: N
Num Peaks: 41
59.0129	1.1
68.9972	0.6
87.0077	1.4
99.0442	1.0
109.0284	1.4
109.0647	0.8
113.0233	0.7
121.0283	0.9
125.0233	0.7
127.0391	0.7
135.0448	0.9
137.0600	1.4
139.0392	2.7
159.0446	0.6
171.0802	0.7
173.0602	1.1
181.0501	1.1
187.0759	2.1
197.0817	0.7
199.0598	0.9
199.0763	1.9
200.0471	0.7
214.0270	0.8
215.0707	5.6
216.0744	0.9
225.0555	3.1
226.0611	1.2
228.0423	18.8
229.0455	2.4
241.0500	1.3
241.0719	3.5
241.1243	6.1
242.0665	0.7
242.0790	0.6
242.1047	0.6
242.1260	1.5
242.9992	0.6
243.0266	1.3
243.0665	100.0
244.0694	14.4
245.0670	1.5

Name: Picras-4-en-16-one, 1,2,11,12,14,15-hexahydroxy-, (1beta,2alpha,9xi,11beta,12alpha,15beta)-
PrecursorMZ: 397.18749
RT: 0.6367
ExactMass: 398.19406791
Spectrum_type: 2
charge: -1
Formula: C20H30O8
SMILES: C[C@H]1[C@H]([C@@H](C2[C@@]3([C@]1([C@H](C(=O)O[C@@H]3CC4=C(C[C@@H]([C@H]([C@]24C)O)O)C)O)O)C)O)O
Method: HCD
Collision_energy: [28.333334]
Isolation_window: 4.0
Ion_mode: N
Num Peaks: 54
59.0130	1.9
83.0494	1.2
87.0078	1.1
87.0443	2.1
101.0233	1.2
113.0600	2.8
114.0553	1.4
115.0392	1.6
128.0346	2.3
137.0963	1.1
153.0918	1.2
261.1130	3.7
268.0957	1.4
273.1861	3.9
273.2217	1.3
291.1973	2.3
291.2326	1.1
307.2272	1.4
309.2075	2.5
317.2123	3.0
333.2065	2.5
335.1868	33.4
335.2226	3.3
336.1904	6.6
337.1992	1.7
351.2175	3.8
353.1972	4.5
353.2348	3.4
354.2016	1.1
355.2130	1.3
361.1651	1.4
361.2036	2.9
363.2186	1.7
377.1972	2.0
379.1765	16.7
379.2154	7.0
380.1764	3.7
380.2263	1.5
381.1880	1.2
381.2294	4.2
395.2088	18.0
396.1359	2.6
396.2139	6.7
397.1098	5.5
397.1429	1.6
397.1873	100.0
397.2264	32.5
398.1031	1.5
398.1492	1.4
398.1905	19.8
398.2299	7.4
399.1455	5.3
399.2006	12.4
399.2405	14.5

Name: Pinastric acid
PrecursorMZ: 351.08635
RT: 6.4866
ExactMass: 352.09468823
Spectrum_type: 2
charge: -1
Formula: C20H16O6
SMILES: COC1=CC=C(C=C1)C2=C(/C(=C(/C3=CC=CC=C3)\C(=O)OC)/OC2=O)O
Method: HCD
Collision_energy: [28.333334]
Isolation_window: 4.0
Ion_mode: N
Num Peaks: 10
80.9642	90.4
87.0077	12.9
89.0235	7.5
235.0605	9.0
261.0547	20.1
350.1810	9.5
351.0865	100.0
352.0906	14.5
352.1414	9.5
353.1979	20.4

Name: Pinolenic acid
PrecursorMZ: 277.21713
RT: 1.2565
ExactMass: 278.224580195
Spectrum_type: 2
charge: -1
Formula: C18H30O2
SMILES: CCCCC/C=C\C/C=C\CC/C=C\CCCC(=O)O
Method: HCD
Collision_energy: [28.333334]
Isolation_window: 4.0
Ion_mode: N
Num Peaks: 3
277.2172	100.0
278.2207	19.2
279.2329	45.8

Name: Pipecolic Acid
PrecursorMZ: 128.07095
RT: 3.1855
ExactMass: 129.078978594
Spectrum_type: 2
charge: -1
Formula: C6H11NO2
SMILES: C1CCNC(C1)C(=O)O
Method: HCD
Collision_energy: [28.333334]
Isolation_window: 4.0
Ion_mode: N
Num Peaks: 3
128.0709	100.0
129.0744	6.7
130.0864	3.0

Name: Piperine
PrecursorMZ: 284.12913
RT: 1.1134076923076923
ExactMass: 285.13649347
Spectrum_type: 2
charge: -1
Formula: C17H19NO3
SMILES: C1CCN(CC1)C(=O)/C=C/C=C/C2=CC3=C(C=C2)OCO3
Method: HCD
Collision_energy: [28.333334]
Isolation_window: 4.0
Ion_mode: N
Num Peaks: 12
61.9874	1.6
129.0548	2.1
154.0657	3.2
184.0763	2.3
198.0554	1.8
222.1279	1.6
240.1379	1.7
283.2643	100.0
284.1292	6.5
284.2677	19.7
285.1323	1.4
285.2703	2.3

Name: Pizotifen
PrecursorMZ: 294.13773
RT: 1.0552
ExactMass: 295.13947085
Spectrum_type: 2
charge: -1
Formula: C19H21NS
SMILES: CN1CCC(=C2C3=C(CCC4=CC=CC=C42)SC=C3)CC1
Method: HCD
Collision_energy: [28.333334]
Isolation_window: 4.0
Ion_mode: N
Num Peaks: 11
79.9562	7.9
80.9643	3.0
96.9591	37.1
220.1464	3.5
221.1541	9.2
236.1048	8.7
293.1791	100.0
294.1379	80.9
294.1816	18.2
295.1402	13.4
295.1764	4.0

Name: Plumieride
PrecursorMZ: 515.14015
RT: 1.8974
ExactMass: 470.14242626
Spectrum_type: 2
charge: -1
Formula: C21H26O12
SMILES: C[C@@H](C1=C[C@@]2(C=C[C@H]3[C@@H]2[C@@H](OC=C3C(=O)OC)O[C@H]4[C@@H]([C@H]([C@@H]([C@H](O4)CO)O)O)O)OC1=O)O
Method: HCD
Collision_energy: [28.333334]
Isolation_window: 4.0
Ion_mode: N
Num Peaks: 11
78.9580	4.8
96.9685	2.6
181.0362	5.5
197.0216	58.4
198.0249	2.9
215.0323	15.2
216.0358	0.7
333.0959	100.0
333.1791	0.7
334.0990	10.4
335.0986	1.5

Name: Poliothrysoside
PrecursorMZ: 451.12454
RT: 0.6859
ExactMass: 406.12638228
Spectrum_type: 2
charge: -1
Formula: C20H22O9
SMILES: C1=CC=C(C=C1)C(=O)OC[C@@H]2[C@H]([C@@H]([C@H]([C@@H](O2)OC3=C(C=C(C=C3)O)CO)O)O)O
Method: HCD
Collision_energy: [28.333334]
Isolation_window: 4.0
Ion_mode: N
Num Peaks: 37
50.1236	2.1
50.1262	4.3
50.2377	1.0
59.0127	1.4
87.0077	0.8
96.9591	1.0
109.0287	1.1
109.0648	0.5
113.0234	1.0
119.0490	0.7
121.0283	0.6
123.0439	0.6
125.0234	3.9
135.0443	1.4
137.0235	12.0
137.0599	8.3
138.0266	0.8
138.0632	0.6
139.0392	0.7
141.0185	0.5
143.0339	0.9
179.0341	0.8
181.0499	46.7
182.0532	4.4
197.0449	0.6
209.0449	1.5
257.0663	13.3
258.0704	1.4
269.0663	2.0
319.0816	2.7
433.1155	0.6
449.1418	0.9
450.1528	1.1
450.9934	0.6
451.1245	100.0
452.1270	22.2
453.1285	3.9

Name: Polygalic acid
PrecursorMZ: 487.30676
RT: 5.1722
ExactMass: 488.31378912
Spectrum_type: 2
charge: -1
Formula: C29H44O6
SMILES: C[C@@]12CC[C@@H]3[C@@]([C@H]1CCC4=C2CC[C@@]5([C@H]4CC(CC5)(C)C)C(=O)O)(C[C@@H]([C@@H]([C@@]3(C)C(=O)O)O)O)C
Method: HCD
Collision_energy: [28.333334]
Isolation_window: 4.0
Ion_mode: N
Num Peaks: 24
54.1390	4.2
54.1437	2.0
54.1466	4.5
96.9592	4.7
122.0603	7.8
136.0757	1.9
171.1023	2.2
255.1502	11.2
256.1555	2.3
258.1375	3.3
380.2348	22.2
381.2381	5.2
424.2265	3.4
442.2363	2.1
443.3173	5.6
485.3307	2.9
486.2254	25.2
486.2901	2.7
487.2369	100.0
487.3069	99.9
488.2403	27.2
488.3100	31.2
489.2408	5.3
489.3210	37.7

Name: Porphobilinogen
PrecursorMZ: 225.08778
RT: 5.0612
ExactMass: 226.09535693
Spectrum_type: 2
charge: -1
Formula: C10H14N2O4
SMILES: C1=C(C(=C(N1)CN)CC(=O)O)CCC(=O)O
Method: HCD
Collision_energy: [28.333334]
Isolation_window: 4.0
Ion_mode: N
Num Peaks: 11
84.0448	15.9
112.0394	19.9
125.0713	55.7
138.0555	17.2
152.0707	16.4
163.0871	16.6
181.0977	76.8
183.1129	18.4
224.0555	21.1
225.0885	100.0
227.1037	19.7

Name: Portentol
PrecursorMZ: 355.17434
RT: 7.8008
ExactMass: 310.17802393
Spectrum_type: 2
charge: -1
Formula: C17H26O5
SMILES: C[C@@H]1[C@H](O[C@@]2([C@@H]([C@@H]1O)C)[C@H]([C@@H]3[C@H](C(=O)[C@]2(C(=O)O3)C)C)C)C
Method: HCD
Collision_energy: [28.333334]
Isolation_window: 4.0
Ion_mode: N
Num Peaks: 7
61.9875	15.3
113.0348	13.7
196.1086	9.8
294.1570	8.7
337.1626	17.0
355.1737	100.0
356.1792	18.6

Name: Pravastatin
PrecursorMZ: 423.23899
RT: 7.411
ExactMass: 424.24610348
Spectrum_type: 2
charge: -1
Formula: C23H36O7
SMILES: CC[C@H](C)C(=O)O[C@H]1C[C@@H](C=C2[C@H]1[C@H]([C@H](C=C2)C)CC[C@H](C[C@H](CC(=O)O)O)O)O
Method: HCD
Collision_energy: [28.333334]
Isolation_window: 4.0
Ion_mode: N
Num Peaks: 13
59.0130	13.5
157.0611	15.3
332.1346	9.6
363.2164	9.3
405.2339	24.4
407.2000	9.7
422.1699	51.3
423.1945	48.7
423.2383	100.0
424.1953	11.7
424.2408	21.3
425.1682	10.7
425.2163	73.6

Name: Prazosin
PrecursorMZ: 382.1515
RT: 4.8427
ExactMass: 383.15935417
Spectrum_type: 2
charge: -1
Formula: C19H21N5O4
SMILES: COC1=C(C=C2C(=C1)C(=NC(=N2)N3CCN(CC3)C(=O)C4=CC=CO4)N)OC
Method: HCD
Collision_energy: [28.333334]
Isolation_window: 4.0
Ion_mode: N
Num Peaks: 9
59.0130	21.3
61.9874	9.0
71.0131	10.7
89.0235	22.6
91.0391	60.8
200.0713	27.0
290.1035	100.0
291.1062	14.4
382.1531	29.3

Name: Proglumide
PrecursorMZ: 369.15854
RT: 1.8676
ExactMass: 334.18925731
Spectrum_type: 2
charge: -1
Formula: C18H26N2O4
SMILES: CCCN(CCC)C(=O)C(CCC(=O)O)NC(=O)C1=CC=CC=C1
Method: HCD
Collision_energy: [28.333334]
Isolation_window: 4.0
Ion_mode: N
Num Peaks: 4
208.0976	31.5
331.1666	32.5
332.1703	28.6
333.1821	100.0

Name: Prolylhydroxyproline
PrecursorMZ: 227.10314
RT: 4.8203
ExactMass: 228.111007
Spectrum_type: 2
charge: -1
Formula: C10H16N2O4
SMILES: C1C[C@H](NC1)C(=O)N2C[C@@H](C[C@H]2C(=O)O)O
Method: HCD
Collision_energy: [28.333334]
Isolation_window: 4.0
Ion_mode: N
Num Peaks: 16
82.0288	11.8
84.0443	2.3
112.0394	6.3
112.0758	2.2
113.0346	30.8
116.0706	5.8
127.0502	1.8
127.0867	10.8
155.0816	2.7
183.0782	2.0
183.1131	100.0
184.1166	9.2
226.0706	1.8
227.1032	98.7
228.1062	10.1
229.0855	7.1

Name: Propanedioic acid, )(4-hydroxyphenyl)methyl(-
PrecursorMZ: 209.0452
RT: 4.6826
ExactMass: 210.05282342
Spectrum_type: 2
charge: -1
Formula: C10H10O5
SMILES: C1=CC(=CC=C1CC(C(=O)O)C(=O)O)O
Method: HCD
Collision_energy: [28.333334]
Isolation_window: 4.0
Ion_mode: N
Num Peaks: 8
59.0130	7.3
61.9875	3.9
93.0336	5.4
121.0651	8.1
165.0551	100.0
166.0587	8.9
209.0446	6.1
209.9488	2.9

Name: Propionylglycine
PrecursorMZ: 130.05015
RT: 5.1079
ExactMass: 131.058243149
Spectrum_type: 2
charge: -1
Formula: C5H9NO3
SMILES: CCC(=O)NCC(=O)O
Method: HCD
Collision_energy: [28.333334]
Isolation_window: 4.0
Ion_mode: N
Num Peaks: 8
71.0493	4.4
74.0239	100.0
85.0650	13.6
86.0602	6.5
130.0502	13.3
130.0866	5.1
130.9305	6.0
131.0704	11.0

Name: Propyl Gallate
PrecursorMZ: 211.06083
RT: 3.0284666666666666
ExactMass: 212.06847348
Spectrum_type: 2
charge: -1
Formula: C10H12O5
SMILES: CCCOC(=O)C1=CC(=C(C(=C1)O)O)O
Method: HCD
Collision_energy: [28.333334]
Isolation_window: 4.0
Ion_mode: N
Num Peaks: 145
57.0337	2.6
59.0130	28.5
66.0339	1.3
69.0337	3.4
71.0130	2.4
71.0493	2.6
72.9922	6.5
73.0286	4.1
79.0545	4.6
81.0336	4.6
82.0291	1.8
83.0130	4.3
83.0493	4.3
85.0286	6.2
87.0080	4.2
93.0337	2.6
93.0701	5.6
95.0129	2.1
95.0494	11.5
96.0083	1.8
96.0447	1.3
96.9592	1.5
97.0286	7.9
97.0650	3.9
98.0238	4.3
99.0079	15.2
99.0443	8.5
101.0234	1.4
105.0702	2.9
107.0493	7.3
108.0449	1.9
109.0163	10.1
109.0285	11.9
109.0651	3.8
110.0240	21.9
110.9901	1.4
111.0078	5.2
111.0196	2.5
111.0443	13.3
112.0398	2.0
113.0236	12.5
113.0599	3.3
114.0554	2.0
121.0285	2.5
121.0651	9.7
122.0373	1.7
122.0604	2.5
122.0685	2.2
123.0322	1.6
123.0444	33.5
123.0807	48.3
124.0394	4.4
124.0486	4.2
124.0509	5.4
124.0758	3.2
124.0842	3.7
125.0059	9.6
125.0238	7.6
125.0601	26.5
125.0964	5.2
126.0551	1.9
127.0394	4.4
134.0603	2.1
135.0443	5.4
135.0808	1.4
137.0233	7.0
137.0601	10.9
137.0963	2.3
138.0311	1.4
138.0551	5.3
138.0916	1.4
139.0394	11.5
139.0759	7.5
139.0868	1.3
140.0707	2.8
140.1073	1.4
141.0546	3.3
148.0763	1.5
149.0602	7.4
149.0965	5.5
150.0551	1.3
151.0031	2.4
151.0395	10.0
151.0636	2.8
151.0756	8.7
152.0469	2.8
152.0833	5.3
153.0188	4.3
153.0552	5.3
158.0213	1.5
163.0397	2.1
165.0552	10.6
165.0912	8.6
165.1031	1.5
166.0327	1.9
166.0491	15.5
166.0855	4.2
167.0171	1.7
167.0344	12.5
167.0558	1.9
167.0707	44.2
167.1070	15.6
168.0400	3.9
168.0654	2.3
168.0752	2.0
168.1017	8.1
168.9959	1.5
169.0500	7.3
169.0865	9.2
170.0454	1.7
178.0509	1.9
179.0344	3.1
179.0704	1.6
181.0500	6.3
183.0657	2.8
193.0502	5.2
193.1235	1.5
194.0437	9.8
194.9815	7.7
195.0293	1.8
195.0473	2.0
195.0662	1.5
209.0456	5.4
209.0674	35.6
209.0826	8.5
210.0054	13.2
210.0391	5.2
210.0706	9.3
210.0766	10.0
210.1113	4.2
211.0071	2.1
211.0269	4.0
211.0447	3.1
211.0609	100.0
211.0945	17.3
211.0978	4.2
211.1335	22.3
212.0586	10.7
212.0657	3.2
212.0931	5.3
212.1375	3.1
213.0223	1.4
213.0404	12.4
213.0601	2.3
213.0763	59.9

Name: Prostacyclin
PrecursorMZ: 351.21768
RT: 4.7015
ExactMass: 352.22497412
Spectrum_type: 2
charge: -1
Formula: C20H32O5
SMILES: CCCCC[C@@H](/C=C/[C@H]1[C@@H](C[C@H]2[C@@H]1C/C(=C/CCCC(=O)O)/O2)O)O
Method: HCD
Collision_energy: [28.333334]
Isolation_window: 4.0
Ion_mode: N
Num Peaks: 25
59.0130	5.9
74.0238	14.0
78.9581	12.2
79.9563	14.1
80.9643	8.4
96.9592	11.3
106.9798	5.2
116.0344	4.1
138.0223	8.6
203.0825	13.4
222.0756	4.5
307.2273	23.2
308.2299	4.4
309.2441	8.4
349.2036	8.9
350.1343	5.1
350.1660	69.6
350.2060	8.6
351.0404	4.4
351.1362	18.2
351.1753	6.7
351.2180	100.0
352.2207	22.7
353.0571	4.3
353.2339	22.0

Name: Prostaglandin D2
PrecursorMZ: 351.21793
RT: 5.1548
ExactMass: 352.22497412
Spectrum_type: 2
charge: -1
Formula: C20H32O5
SMILES: CCCCC[C@@H](/C=C/[C@@H]1[C@H]([C@H](CC1=O)O)C/C=C\CCCC(=O)O)O
Method: HCD
Collision_energy: [28.333334]
Isolation_window: 4.0
Ion_mode: N
Num Peaks: 16
59.0130	2.9
96.9592	3.4
166.0866	7.3
259.1449	3.8
291.1715	5.1
319.1913	3.7
321.2072	20.2
322.2107	3.8
349.2022	12.2
350.2054	16.4
351.1174	4.5
351.1840	4.4
351.2182	100.0
352.2219	22.0
353.1713	3.4
353.2356	4.7

Name: Prostaglandin H2
PrecursorMZ: 351.21772
RT: 5.9182
ExactMass: 352.22497412
Spectrum_type: 2
charge: -1
Formula: C20H32O5
SMILES: CCCCC[C@@H](/C=C/[C@H]1[C@H]2C[C@@H]([C@@H]1C/C=C\CCCC(=O)O)OO2)O
Method: HCD
Collision_energy: [28.333334]
Isolation_window: 4.0
Ion_mode: N
Num Peaks: 58
58.0051	0.6
59.0130	1.1
69.0079	0.7
71.0129	0.5
73.0286	1.0
80.9642	0.6
94.9800	2.1
96.9592	0.8
114.0553	0.8
122.0604	0.8
124.0759	0.6
136.0759	0.8
137.0601	0.5
150.0553	0.6
151.0633	1.1
152.0708	0.5
166.0867	2.4
184.0975	0.7
216.1391	0.6
232.1343	0.5
254.0670	1.4
259.1454	2.6
274.1641	0.6
275.2020	0.6
277.1560	1.1
277.2170	1.0
287.2021	1.0
288.1999	0.9
289.2172	1.3
291.1707	1.5
293.1515	0.6
303.1975	0.5
305.2124	3.5
306.2153	1.6
307.2279	4.5
308.2305	1.1
309.1797	0.8
315.1966	0.7
331.1913	0.6
333.2074	7.7
334.2102	1.6
335.2236	0.6
349.2036	3.7
350.1291	0.6
350.1746	0.6
350.2062	4.8
351.1083	0.8
351.1130	0.6
351.1241	0.9
351.1471	1.0
351.2180	100.0
351.3085	0.6
352.1084	0.5
352.1441	0.8
352.2212	21.3
353.1711	2.5
353.2301	3.3
377.1988	0.5

Name: Protocatechuic Acid
PrecursorMZ: 153.01856
RT: 0.8916
ExactMass: 154.02660867
Spectrum_type: 2
charge: -1
Formula: C7H6O4
SMILES: C1=CC(=C(C=C1C(=O)O)O)O
Method: HCD
Collision_energy: [28.333334]
Isolation_window: 4.0
Ion_mode: N
Num Peaks: 42
58.9952	3.1
59.0130	18.8
66.0341	6.2
67.0181	19.0
74.0026	1.8
78.9850	1.7
79.9564	3.7
80.0494	1.6
80.9643	5.4
81.0337	35.8
82.0370	1.8
84.9745	2.1
96.9592	2.1
101.0137	10.5
108.0204	1.6
108.0450	2.9
109.0286	100.0
109.0406	1.8
110.0238	3.2
110.0324	5.6
111.0079	37.0
111.0443	2.1
124.0226	2.0
124.9835	2.0
126.0091	7.3
128.0247	12.3
136.0157	10.2
151.0258	2.4
151.0394	17.0
151.0509	2.4
152.0350	3.0
152.0437	2.5
152.0712	3.3
152.9857	16.4
153.0189	6.4
153.0306	3.0
153.0551	1.7
154.0259	1.6
154.0501	4.8
154.9468	5.6
154.9981	4.6
155.0349	3.5

Name: Provitamin C
PrecursorMZ: 193.03458
RT: 8.97365
ExactMass: 194.04265265
Spectrum_type: 2
charge: -1
Formula: C6H10O7
SMILES: C([C@H]([C@@H]([C@H](C(=O)C(=O)O)O)O)O)O
Method: HCD
Collision_energy: [28.333334]
Isolation_window: 4.0
Ion_mode: N
Num Peaks: 18
59.0129	48.9
71.0129	46.1
72.9921	100.0
73.0285	13.4
75.0078	11.5
85.0285	40.1
87.0078	9.9
89.0234	45.6
96.9591	83.9
101.0234	33.4
103.0027	25.0
113.0234	65.1
131.0340	13.4
133.0133	11.2
191.0554	65.7
192.0582	13.4
193.0347	15.1
195.0254	17.4

Name: Pseudo-anisatin
PrecursorMZ: 297.13454
RT: 0.7718
ExactMass: 298.14163842
Spectrum_type: 2
charge: -1
Formula: C15H22O6
SMILES: C[C@H]1C[C@H]([C@@]2([C@]13CC(=O)[C@@]([C@@]2(COC(=O)C3)C)(C)O)O)O
Method: HCD
Collision_energy: [28.333334]
Isolation_window: 4.0
Ion_mode: N
Num Peaks: 97
59.0129	12.0
71.0130	5.7
72.9922	9.7
73.0285	5.1
83.0494	4.7
85.0287	5.4
87.0079	14.4
88.0395	4.6
89.0236	4.9
97.0288	5.4
97.0649	6.6
99.0443	4.3
101.0228	3.7
109.0284	4.2
111.0442	7.2
111.0806	4.8
113.0235	5.3
114.0552	9.3
116.0708	7.5
123.0442	5.6
123.0800	3.7
125.0237	6.3
125.0599	6.0
129.0541	3.8
130.0865	19.0
135.0443	5.3
137.0237	9.8
137.0601	5.2
139.0763	3.9
149.0235	4.7
149.0599	4.4
156.0660	9.4
165.0546	5.1
166.0864	4.8
167.0345	4.1
167.0695	4.4
173.0439	5.4
177.0546	5.2
181.0499	4.3
183.1380	4.6
189.1270	4.4
191.1434	10.5
193.0506	7.0
193.1225	4.1
193.1599	4.5
207.1371	6.3
208.1340	3.8
209.1177	4.5
209.1542	34.2
210.1554	3.8
211.1328	4.9
217.1596	4.6
233.0454	13.6
233.1175	6.2
233.1537	5.6
234.0491	6.8
235.1338	35.0
235.1696	11.1
236.1371	5.4
237.1491	11.3
251.1272	8.6
251.1652	19.4
252.1226	6.2
252.1664	6.0
253.0885	13.2
253.1429	53.8
253.1791	58.4
254.1468	7.3
254.1817	9.1
255.1025	42.8
255.1243	5.0
255.1591	11.1
279.1220	19.9
279.1582	16.5
281.1404	4.9
281.1746	9.5
282.0523	4.6
295.0794	56.0
295.1176	18.2
295.1533	24.8
295.1891	8.9
296.0827	49.3
296.1173	10.5
296.1537	11.7
297.0706	24.0
297.0978	19.3
297.1331	79.3
297.1687	93.1
297.2048	12.1
297.2413	7.5
298.0703	4.7
298.0981	4.7
298.1315	24.3
298.1692	23.6
299.0755	100.0
299.1483	49.2
299.1846	40.8

Name: Pseurotin
PrecursorMZ: 430.15016
RT: 1.5838
ExactMass: 431.15801676
Spectrum_type: 2
charge: -1
Formula: C22H25NO8
SMILES: CC/C=C\[C@@H]([C@@H](C1=C(C(=O)[C@@]2(O1)C([C@@](NC2=O)(C(=O)C3=CC=CC=C3)OC)O)C)O)O
Method: HCD
Collision_energy: [28.333334]
Isolation_window: 4.0
Ion_mode: N
Num Peaks: 13
96.9591	33.8
98.9549	9.9
176.0706	5.7
412.1402	63.4
413.1436	14.4
428.1441	3.6
429.1528	16.7
429.1959	98.3
430.1513	65.4
430.2007	22.7
431.1558	14.9
431.2109	100.0
432.2140	16.2

Name: Psicose
PrecursorMZ: 179.0556
RT: 3.0769
ExactMass: 180.0633881
Spectrum_type: 2
charge: -1
Formula: C6H12O6
SMILES: C([C@H]([C@H]([C@H](C(=O)CO)O)O)O)O
Method: HCD
Collision_energy: [28.333334]
Isolation_window: 4.0
Ion_mode: N
Num Peaks: 19
58.0051	2.7
59.0130	61.2
71.0130	62.8
72.0082	12.0
72.9922	3.6
85.0286	4.3
87.0078	2.4
89.0235	79.1
90.0269	2.7
93.0337	11.9
94.0289	8.1
101.0235	9.1
113.0236	11.1
119.0494	20.0
163.0395	47.2
179.0565	3.3
180.0323	4.5
180.0661	100.0
181.0697	6.3

Name: Puerol B
PrecursorMZ: 311.09251
RT: 2.3169
ExactMass: 312.09977361
Spectrum_type: 2
charge: -1
Formula: C18H16O5
SMILES: COC1=CC(=C(C=C1)C2=CC(=O)OC2CC3=CC=C(C=C3)O)O
Method: HCD
Collision_energy: [28.333334]
Isolation_window: 4.0
Ion_mode: N
Num Peaks: 24
59.0127	1.0
114.0553	2.6
133.0288	1.4
159.0444	2.3
161.0602	10.2
162.0637	1.1
205.0503	100.0
206.0537	10.7
207.0559	0.9
266.0911	0.9
309.1423	0.9
309.2066	1.1
310.0805	1.8
310.0964	1.3
310.1381	1.2
311.0853	2.9
311.1155	2.1
311.1689	15.0
311.2178	1.4
311.2246	1.6
312.1768	2.4
313.0951	1.2
313.1690	1.2
313.2364	1.5

Name: Purine
PrecursorMZ: 119.0345
RT: 5.133625
ExactMass: 120.043596145
Spectrum_type: 2
charge: -1
Formula: C5H4N4
SMILES: C1=C2C(=NC=N1)N=CN2
Method: HCD
Collision_energy: [28.333334]
Isolation_window: 4.0
Ion_mode: N
Num Peaks: 29
59.0130	93.2
65.0134	4.9
65.9977	8.0
73.0285	10.1
76.9691	6.8
90.0090	3.4
90.0169	8.0
91.0292	9.7
92.0246	3.9
93.0086	6.0
99.9249	6.4
101.0233	3.5
116.9277	65.1
117.0198	22.3
117.0279	25.7
117.0447	3.9
117.9278	19.1
118.0043	3.6
118.0289	93.9
118.0400	16.5
118.9257	5.5
119.0160	22.0
119.0242	100.0
119.0340	39.6
120.0192	13.6
120.0277	4.6
120.0559	5.5
121.0037	9.4
121.0287	20.5

Name: Purpurein
PrecursorMZ: 423.16658
RT: 1.4189
ExactMass: 424.17333247
Spectrum_type: 2
charge: -1
Formula: C21H28O9
SMILES: C1CCC(C(C1)O)O[C@H]2[C@@H]([C@H]([C@@H]([C@H](O2)CO)O)O)OC(=O)/C=C/C3=CC=C(C=C3)O
Method: HCD
Collision_energy: [28.333334]
Isolation_window: 4.0
Ion_mode: N
Num Peaks: 98
57.0338	2.6
59.0130	10.2
69.0336	1.9
69.5509	1.7
71.0130	4.3
71.0495	2.1
72.9923	4.7
73.0286	3.9
74.0238	2.6
75.0078	2.0
78.9581	2.4
79.9564	5.4
80.9643	5.4
83.0494	4.0
85.0285	3.7
87.0079	3.7
87.0443	2.6
88.0396	3.0
89.0236	2.4
95.0494	2.3
96.9592	36.2
97.0287	3.3
97.0649	2.3
99.0443	5.3
101.0236	3.6
109.0286	3.0
109.0652	2.5
111.0442	3.5
112.0401	1.8
113.0236	3.3
113.0347	2.0
113.0597	1.8
114.0552	12.3
115.0392	4.5
116.0709	3.5
121.0647	1.8
123.0450	3.5
123.0807	2.1
124.0764	1.7
125.0242	2.3
125.0601	4.3
127.0404	2.8
127.0498	3.0
128.0345	6.9
130.0866	5.0
131.0349	1.7
135.0450	2.6
135.0812	1.7
137.0232	1.9
137.0604	2.0
141.0556	2.1
145.0503	3.2
149.0605	2.9
151.0398	1.7
151.0763	1.9
163.0761	1.7
164.0714	1.8
165.0189	2.6
165.0552	1.7
171.1020	2.1
179.0701	2.5
181.0501	2.3
191.0711	2.4
195.0644	3.0
207.0294	5.3
207.0643	2.0
209.1169	2.3
221.0794	2.8
236.0689	62.9
237.0726	8.6
248.0702	2.0
249.0758	4.3
250.0858	2.0
263.1291	3.0
279.1225	2.4
280.0575	2.2
293.0671	2.3
294.1112	29.2
295.1144	5.5
338.1012	20.8
339.1041	4.4
343.2129	6.4
345.2283	2.6
365.1241	6.0
379.2525	5.2
381.2203	1.8
381.2702	3.1
405.2340	1.8
421.1955	1.7
421.2192	2.6
422.1425	6.0
422.1968	4.6
423.1659	100.0
423.2365	11.9
424.1661	26.7
425.1283	5.8
425.1812	26.3
425.2548	7.7

Name: Purpurogallin
PrecursorMZ: 219.02927
RT: 0.7583
ExactMass: 220.03717335
Spectrum_type: 2
charge: -1
Formula: C11H8O5
SMILES: C1=CC2=CC(=C(C(=C2C(=O)C(=C1)O)O)O)O
Method: HCD
Collision_energy: [28.333334]
Isolation_window: 4.0
Ion_mode: N
Num Peaks: 75
59.0130	0.7
71.0130	0.9
72.9921	1.0
75.0079	0.6
79.9563	3.3
80.9642	4.8
85.0286	0.6
87.0078	2.7
87.0443	0.7
89.0234	1.6
97.0287	0.7
97.0649	0.6
99.0078	6.0
101.0236	0.9
104.0344	0.6
109.0285	8.1
111.0078	0.5
111.0442	0.8
115.0390	0.7
116.0499	0.6
118.9798	0.5
119.0493	0.9
129.0181	0.9
129.0369	0.8
131.0492	0.6
133.0649	2.8
135.0444	0.7
139.0389	0.8
140.0163	0.7
141.0551	1.6
146.0452	3.2
147.0198	0.6
147.0443	100.0
148.0477	9.0
149.0239	1.0
149.0600	8.9
150.0633	0.7
155.0704	0.7
159.0441	1.5
161.0233	0.8
173.0271	0.8
173.0448	1.2
173.0603	0.5
174.0552	2.4
175.0393	56.9
175.0753	1.8
176.0424	4.8
176.0691	2.1
177.0207	0.7
177.0549	48.9
177.0881	0.6
185.0448	0.8
193.0500	4.3
199.0601	0.8
201.0395	0.5
216.0659	0.8
217.0165	0.7
217.0338	0.9
217.0512	0.8
217.0694	3.3
217.0870	0.8
218.0128	0.6
218.0471	1.1
218.0653	0.9
218.0852	1.8
219.0294	8.9
219.0491	2.4
219.0660	8.9
219.1741	0.6
220.0269	1.1
220.0592	2.9
221.0127	3.6
221.0449	20.0
221.0627	0.8
221.0811	1.4

Name: Pyrogallin
PrecursorMZ: 203.03459
RT: 0.7371
ExactMass: 204.04225873
Spectrum_type: 2
charge: -1
Formula: C11H8O4
SMILES: C1=CC(=O)C(=C2C(=C1)C=CC(=C2O)O)O
Method: HCD
Collision_energy: [28.333334]
Isolation_window: 4.0
Ion_mode: N
Num Peaks: 36
59.0130	4.9
72.9922	1.3
73.0286	1.4
75.0078	2.3
85.0285	2.1
87.0078	2.7
95.0492	1.5
116.0496	1.2
117.0337	2.1
129.0550	3.3
131.0342	1.2
133.0288	2.4
139.0758	1.6
139.1121	1.5
141.0916	1.8
157.0499	5.4
157.0862	3.2
159.0445	22.3
160.0393	1.6
160.0487	1.5
161.0236	7.0
161.0601	1.1
177.0197	1.8
185.0819	1.4
190.0268	2.7
201.0399	1.7
201.0756	2.1
201.1103	4.2
203.0346	100.0
203.0533	4.4
203.0734	1.4
203.0911	5.9
204.0385	12.1
204.0661	1.6
205.0137	7.7
205.0517	4.0

Name: Pyroglutamylisoleucine
PrecursorMZ: 241.11889
RT: 2.0918
ExactMass: 242.12665706
Spectrum_type: 2
charge: -1
Formula: C11H18N2O4
SMILES: CCC(C)C(C(=O)O)NC(=O)C1CCC(=O)N1
Method: HCD
Collision_energy: [28.333334]
Isolation_window: 4.0
Ion_mode: N
Num Peaks: 17
82.0288	12.5
96.9590	7.6
130.0863	13.7
141.1025	10.5
150.0552	40.1
197.1289	95.6
198.1325	9.9
199.1814	6.5
240.0872	21.6
241.0014	6.8
241.0735	16.5
241.1186	100.0
241.2166	21.6
242.1053	6.9
242.1225	6.7
243.1131	21.5
243.1723	22.4

Name: Pyrrolidone carboxylic acid
PrecursorMZ: 188.05565
RT: 8.3698
ExactMass: 129.042593085
Spectrum_type: 2
charge: -1
Formula: C5H7NO3
SMILES: C1CC(=O)NC1C(=O)O
Method: HCD
Collision_energy: [28.333334]
Isolation_window: 4.0
Ion_mode: N
Num Peaks: 7
98.0235	35.0
125.0964	62.3
126.0553	56.3
144.0656	34.8
170.0449	100.0
171.0294	37.9
188.0560	61.3

Name: Quercetin 3,4'-dimethyl ether
PrecursorMZ: 329.06654
RT: 2.7347
ExactMass: 330.07395278
Spectrum_type: 2
charge: -1
Formula: C17H14O7
SMILES: COC1=C(C=C(C=C1)C2=C(C(=O)C3=C(C=C(C=C3O2)O)O)OC)O
Method: HCD
Collision_energy: [28.333334]
Isolation_window: 4.0
Ion_mode: N
Num Peaks: 10
61.9874	5.4
201.0551	6.6
283.0604	16.3
284.0663	11.2
285.0766	9.6
311.0559	69.7
312.0592	10.8
328.0575	22.1
329.0663	100.0
330.0696	18.5

Name: Quercetin 3-O-rhamnoside
PrecursorMZ: 447.08713
RT: 1.7658
ExactMass: 448.10056145
Spectrum_type: 2
charge: -1
Formula: C21H20O11
SMILES: CC1C(C(C(C(O1)OC2=C(OC3=CC(=CC(=C3C2=O)O)O)C4=CC(=C(C=C4)O)O)O)O)O
Method: HCD
Collision_energy: [28.333334]
Isolation_window: 4.0
Ion_mode: N
Num Peaks: 13
116.0341	3.6
163.0394	16.5
203.0822	13.9
220.0613	4.1
237.0338	9.9
238.0719	15.5
245.0938	4.0
323.1399	7.1
367.1302	57.5
368.1338	12.1
447.0865	100.0
448.0874	19.2
449.0847	5.4

Name: Quinate
PrecursorMZ: 383.11969
RT: 2.9574
ExactMass: 192.0633881
Spectrum_type: 2
charge: -1
Formula: C7H12O6
SMILES: C1[C@H](C([C@@H](CC1(C(=O)O)O)O)O)O
Method: HCD
Collision_energy: [28.333334]
Isolation_window: 4.0
Ion_mode: N
Num Peaks: 8
191.0190	0.6
191.0265	0.6
191.0555	100.0
191.0841	0.5
191.0916	0.8
192.0589	8.3
193.0602	0.7
383.1193	0.6

Name: RS-17053
PrecursorMZ: 411.18419
RT: 1.0186
ExactMass: 448.1684336
Spectrum_type: 2
charge: -1
Formula: C24H30Cl2N2O2
SMILES: CC(C)(CC1=CNC2=C1C=C(C=C2)Cl)NCCOC3=CC=CC=C3OCC4CC4.Cl
Method: HCD
Collision_energy: [28.333334]
Isolation_window: 4.0
Ion_mode: N
Num Peaks: 29
69.1653	0.6
69.1952	0.8
79.9563	2.7
80.9642	1.6
96.9544	1.3
96.9591	55.8
97.4663	0.5
98.9548	1.7
229.0169	0.4
351.1644	1.0
363.6568	1.5
364.1614	0.7
367.1579	1.1
371.1693	1.8
371.6726	0.7
409.1310	0.7
409.1671	0.9
409.1740	1.1
409.2106	0.5
409.2658	0.7
410.1254	1.7
410.1752	1.5
410.1847	0.9
411.1842	100.0
411.3300	0.5
411.6505	1.0
412.1873	23.4
413.1539	6.5
413.2029	31.5

Name: Rauwolscine
PrecursorMZ: 399.19262
RT: 6.6068
ExactMass: 354.1943427
Spectrum_type: 2
charge: -1
Formula: C21H26N2O3
SMILES: COC(=O)[C@@H]1[C@H](CC[C@H]2[C@@H]1C[C@H]3C4=C(CCN3C2)C5=CC=CC=C5N4)O
Method: HCD
Collision_energy: [28.333334]
Isolation_window: 4.0
Ion_mode: N
Num Peaks: 14
61.9874	6.5
69.1358	5.0
97.4646	5.6
129.1025	30.3
223.0764	6.4
225.0918	25.4
226.0958	5.3
249.1610	16.5
353.1868	19.8
354.1909	12.3
355.2029	100.0
356.2062	17.9
399.1932	31.1
400.1955	5.7

Name: Repaglinide
PrecursorMZ: 487.23692
RT: 4.845
ExactMass: 452.26750763
Spectrum_type: 2
charge: -1
Formula: C27H36N2O4
SMILES: CCOC1=C(C=CC(=C1)CC(=O)N[C@@H](CC(C)C)C2=CC=CC=C2N3CCCCC3)C(=O)O
Method: HCD
Collision_energy: [28.333334]
Isolation_window: 4.0
Ion_mode: N
Num Peaks: 78
53.9148	0.4
54.0263	0.5
54.1359	2.0
54.1388	4.5
54.2474	0.5
54.2503	1.1
59.0130	0.7
69.4466	0.3
71.0129	0.4
73.0285	0.4
74.0238	0.6
79.9565	0.4
87.0077	0.5
88.0394	0.3
94.9801	0.3
96.9543	0.3
96.9591	27.6
98.9549	1.2
101.0235	0.3
109.0285	0.4
114.0551	1.3
115.0392	0.5
127.0503	0.3
128.0344	0.7
130.0866	0.6
135.0445	0.3
136.0759	0.7
138.0551	0.3
139.0061	1.3
140.0454	0.4
151.0253	0.6
152.9855	0.7
161.0602	0.7
165.0539	0.3
171.1021	0.3
173.0450	0.8
181.0365	0.3
191.0555	0.6
195.0516	0.4
259.1451	0.3
273.1703	0.4
275.1862	0.3
305.1504	0.3
315.0859	0.4
319.1925	0.4
320.1947	0.3
323.2129	0.5
327.2169	1.2
329.2338	0.6
331.1911	4.0
332.1946	4.7
333.2063	4.6
334.2106	1.0
353.1325	0.3
397.1147	0.4
411.1931	0.3
413.2552	0.3
485.2223	7.3
485.3108	2.5
486.2265	10.9
486.3135	1.2
487.0547	0.3
487.0906	0.7
487.0969	0.7
487.1191	0.4
487.1250	0.9
487.1740	1.1
487.2370	100.0
487.2907	1.6
487.3148	1.7
487.3512	0.5
487.3847	0.7
488.1792	0.3
488.2404	24.1
488.3189	0.3
489.1465	0.5
489.2381	4.7
489.3187	0.4

Name: Res-1214-1
PrecursorMZ: 347.07695
RT: 2.9497
ExactMass: 348.08451746
Spectrum_type: 2
charge: -1
Formula: C17H16O8
SMILES: CC1=CC(=C(C(=C1)OC2=C(C=C(C=C2O)OC)C(=O)OC)C(=O)O)O
Method: HCD
Collision_energy: [28.333334]
Isolation_window: 4.0
Ion_mode: N
Num Peaks: 27
59.0129	4.6
61.9873	3.1
99.9249	2.6
109.0285	39.2
110.0320	2.5
115.9198	3.4
116.9276	2.4
121.0285	4.2
135.0440	2.0
137.0598	14.6
149.0599	49.8
150.0634	4.5
153.0183	6.9
165.0185	9.6
181.0499	99.7
182.0532	8.6
186.0401	4.8
193.0499	17.9
194.0538	2.0
243.0642	2.3
257.0450	5.6
302.9615	2.6
303.0871	6.4
347.0776	100.0
348.0401	2.1
348.0800	16.8
349.0883	2.8

Name: Resolvin D3
PrecursorMZ: 375.2184
RT: 0.9194
ExactMass: 376.22497412
Spectrum_type: 2
charge: -1
Formula: C22H32O5
SMILES: CC/C=C\C[C@@H](/C=C/C=C\C[C@H](/C=C/C=C/C=C\[C@H](CCC(=O)O)O)O)O
Method: HCD
Collision_energy: [28.333334]
Isolation_window: 4.0
Ion_mode: N
Num Peaks: 15
80.9641	18.1
96.9590	8.6
219.1386	21.4
231.1752	13.3
249.1494	34.5
250.1528	6.1
295.2040	5.7
297.1120	6.4
374.2071	6.9
375.1100	15.1
375.1832	10.4
375.2196	100.0
376.2224	21.1
377.0736	6.3
377.2354	41.0

Name: Reversine
PrecursorMZ: 392.21994
RT: 4.6814
ExactMass: 393.22770851
Spectrum_type: 2
charge: -1
Formula: C21H27N7O
SMILES: C1CCC(CC1)NC2=NC(=NC3=C2NC=N3)NC4=CC=C(C=C4)N5CCOCC5
Method: HCD
Collision_energy: [28.333334]
Isolation_window: 4.0
Ion_mode: N
Num Peaks: 46
58.9952	6.6
59.0129	2.8
74.0238	3.7
78.9581	2.5
114.0552	6.0
115.0867	5.0
116.0708	33.8
119.0493	4.4
128.0346	7.3
129.1027	3.9
130.0865	53.1
131.0899	3.4
138.0551	2.6
153.0659	2.7
155.0818	2.9
167.0824	2.3
169.0978	2.3
180.0655	3.2
181.0498	3.6
185.1654	8.1
218.1179	3.8
229.1552	9.9
232.1341	6.1
242.1873	24.1
243.1904	2.8
249.1130	15.9
261.1250	8.6
267.1239	7.8
271.1658	3.3
275.1401	5.0
286.1782	3.4
301.1769	6.0
331.1533	2.6
348.2278	3.4
349.1656	2.7
361.1622	3.5
391.1488	6.0
391.2015	6.1
391.2853	35.7
392.1447	9.2
392.1789	6.4
392.2204	100.0
392.2891	8.0
393.1582	10.5
393.2214	16.1
394.1586	3.9

Name: Rhein
PrecursorMZ: 283.02458
RT: 4.2218
ExactMass: 284.03208797
Spectrum_type: 2
charge: -1
Formula: C15H8O6
SMILES: C1=CC2=C(C(=C1)O)C(=O)C3=C(C2=O)C=C(C=C3O)C(=O)O
Method: HCD
Collision_energy: [28.333334]
Isolation_window: 4.0
Ion_mode: N
Num Peaks: 15
116.9275	42.2
167.0494	5.1
183.0445	12.2
195.0444	20.3
213.0550	18.9
239.0346	100.0
240.0371	13.8
257.0454	31.8
258.0494	5.5
281.2482	28.8
282.2517	6.1
283.0246	10.4
283.2638	48.8
284.0462	12.5
284.2663	8.2

Name: Rhodinyl acetate
PrecursorMZ: 197.15421
RT: 0.5594
ExactMass: 198.16197994
Spectrum_type: 2
charge: -1
Formula: C12H22O2
SMILES: CC(CCCC(=C)C)CCOC(=O)C
Method: HCD
Collision_energy: [28.333334]
Isolation_window: 4.0
Ion_mode: N
Num Peaks: 18
134.8642	0.3
140.0838	0.6
155.1433	1.0
177.8940	0.3
195.1386	3.8
195.9055	1.5
196.1421	1.1
196.9027	0.7
197.1165	0.7
197.1241	0.7
197.1542	100.0
197.1845	0.5
197.1920	0.8
197.2027	0.2
197.2482	0.2
198.1575	12.9
199.1335	0.6
199.1703	8.2

Name: Rhodiocyanoside A
PrecursorMZ: 258.09848
RT: 0.6612
ExactMass: 259.10558726
Spectrum_type: 2
charge: -1
Formula: C11H17NO6
SMILES: C/C(=C/CO[C@H]1[C@@H]([C@H]([C@@H]([C@H](O1)CO)O)O)O)/C#N
Method: HCD
Collision_energy: [28.333334]
Isolation_window: 4.0
Ion_mode: N
Num Peaks: 57
59.0130	35.6
61.9875	12.8
71.0129	11.1
72.9920	6.5
73.0286	13.5
75.0078	11.0
83.0130	17.6
83.0493	15.8
85.0285	12.8
87.0077	10.7
87.0440	6.4
88.0392	6.4
89.0234	8.0
95.0493	9.1
97.0287	9.1
99.0442	9.3
102.0552	10.0
109.0286	7.9
111.0443	10.9
112.0398	7.9
113.0236	11.8
113.0348	79.7
113.0599	28.6
114.0553	8.7
115.0389	6.4
123.0443	8.6
124.0392	6.8
125.0343	12.8
125.0600	9.0
127.0387	9.8
128.0342	8.8
137.0604	8.5
138.0553	6.9
139.0388	9.2
141.0543	6.3
151.0502	8.2
151.1119	7.0
153.0546	7.8
153.0656	35.7
166.0857	6.5
167.0702	6.3
168.0654	7.4
186.1245	8.0
199.0830	9.0
209.0671	10.4
214.1199	19.7
256.1763	7.5
256.2362	35.7
257.0739	28.0
257.1021	11.1
257.1365	21.3
257.1907	7.2
258.0739	16.7
258.1426	7.5
259.0804	17.8
259.1078	100.0
260.0889	17.0

Name: Roccellin
PrecursorMZ: 451.12421
RT: 3.782
ExactMass: 452.13186158
Spectrum_type: 2
charge: -1
Formula: C21H24O11
SMILES: CC1=CC(=O)C2=C(C(=C(C=C2O1)O[C@H]3[C@@H]([C@H]([C@@H]([C@H](O3)COC(=O)C)O)O)OC(=O)C)C)O
Method: HCD
Collision_energy: [28.333334]
Isolation_window: 4.0
Ion_mode: N
Num Peaks: 14
50.1261	4.3
61.9874	15.3
109.0284	2.3
135.0444	5.2
137.0236	4.2
137.0599	7.3
181.0498	57.3
182.0531	4.9
257.0662	22.6
258.0691	2.9
269.0656	2.9
451.1248	100.0
452.1272	21.3
453.1302	5.6

Name: Rosmanol
PrecursorMZ: 345.17055
RT: 2.1603
ExactMass: 346.17802393
Spectrum_type: 2
charge: -1
Formula: C20H26O5
SMILES: CC(C)C1=C(C(=C2C(=C1)[C@@H]([C@@H]3[C@@H]4[C@@]2(CCCC4(C)C)C(=O)O3)O)O)O
Method: HCD
Collision_energy: [28.333334]
Isolation_window: 4.0
Ion_mode: N
Num Peaks: 8
283.1339	27.5
284.1382	5.9
285.1501	10.5
309.1491	14.2
327.1601	100.0
328.1635	21.6
345.1710	55.1
346.1733	11.8

Name: Rosmarinic Acid
PrecursorMZ: 359.07648
RT: 7.44045
ExactMass: 360.08451746
Spectrum_type: 2
charge: -1
Formula: C18H16O8
SMILES: C1=CC(=C(C=C1C[C@H](C(=O)O)OC(=O)/C=C/C2=CC(=C(C=C2)O)O)O)O
Method: HCD
Collision_energy: [28.333334]
Isolation_window: 4.0
Ion_mode: N
Num Peaks: 3
161.0237	100.0
197.0449	41.6
359.0739	32.1

Name: Rubinaphthin A
PrecursorMZ: 365.08818
RT: 1.2095500000000001
ExactMass: 366.09508215
Spectrum_type: 2
charge: -1
Formula: C17H18O9
SMILES: C1=CC=C2C(=C1)C(=CC(=C2O)C(=O)O)O[C@H]3[C@@H]([C@H]([C@@H]([C@H](O3)CO)O)O)O
Method: HCD
Collision_energy: [28.333334]
Isolation_window: 4.0
Ion_mode: N
Num Peaks: 14
61.9876	2.3
149.0237	5.7
175.0030	2.1
187.0389	3.2
193.0503	5.3
215.0346	3.1
231.0302	2.8
233.0454	20.6
234.0480	2.5
363.0713	6.2
364.0754	3.5
365.0880	100.0
366.0913	18.4
367.0927	3.0

Name: Rutarin
PrecursorMZ: 423.1299
RT: 2.2954
ExactMass: 424.13694696
Spectrum_type: 2
charge: -1
Formula: C20H24O10
SMILES: CC(C)([C@@H]1CC2=C(O1)C(=C3C(=C2)C=CC(=O)O3)O[C@H]4[C@@H]([C@H]([C@@H]([C@H](O4)CO)O)O)O)O
Method: HCD
Collision_energy: [28.333334]
Isolation_window: 4.0
Ion_mode: N
Num Peaks: 57
59.0129	4.2
85.0285	1.7
87.0079	2.7
99.0442	1.4
109.0285	3.0
109.0646	1.3
111.0443	1.5
113.0234	2.0
123.0441	2.2
125.0236	4.4
131.0340	3.2
135.0441	4.4
137.0235	6.5
137.0599	10.0
149.0600	3.6
151.0393	2.0
153.0550	2.6
155.0341	3.8
157.0497	1.3
163.0390	1.7
167.0338	2.0
169.0499	6.5
179.0342	8.9
179.0692	1.6
180.0377	1.4
181.0499	83.3
182.0533	8.8
185.0449	5.3
189.0550	3.8
193.0494	1.7
196.0373	1.3
197.0443	3.7
197.0810	2.7
211.0605	3.7
223.0611	1.4
227.0542	3.2
229.0710	10.7
235.0608	4.0
239.0553	1.6
241.0690	3.0
243.0661	2.8
259.0969	2.2
295.0967	2.3
301.0719	1.4
303.0866	1.4
319.0814	1.5
323.1133	1.8
351.1233	3.1
361.1015	1.6
363.1079	1.8
379.1187	2.8
405.1192	5.3
421.1137	38.7
422.1170	26.2
423.1299	100.0
424.1337	21.2
425.1372	2.7

Name: SB290157
PrecursorMZ: 411.20389
RT: 2.2526
ExactMass: 412.21105539
Spectrum_type: 2
charge: -1
Formula: C22H28N4O4
SMILES: C1=CC=C(C=C1)C(COCC(=O)N[C@@H](CCCN=C(N)N)C(=O)O)C2=CC=CC=C2
Method: HCD
Collision_energy: [28.333334]
Isolation_window: 4.0
Ion_mode: N
Num Peaks: 5
96.9591	71.0
410.2330	8.8
411.2050	100.0
412.2086	18.5
413.1594	9.0

Name: SLCA-Sulfolithocholic acid
PrecursorMZ: 455.24694
RT: 2.797675
ExactMass: 456.25456017
Spectrum_type: 2
charge: -1
Formula: C24H40O6S
SMILES: CC(CCC(=O)O)C1CCC2C1(CCC3C2CCC4C3(CCC(C4)OS(=O)(=O)O)C)C
Method: HCD
Collision_energy: [28.333334]
Isolation_window: 4.0
Ion_mode: N
Num Peaks: 9
50.5843	4.3
96.9591	27.7
453.2328	6.7
454.2355	14.1
455.2475	100.0
455.3430	10.1
456.2514	26.4
457.2523	4.3
457.3297	9.9

Name: SUDCA-Sulfoursodeoxycholic acid
PrecursorMZ: 471.24262
RT: 2.591
ExactMass: 472.24947478
Spectrum_type: 2
charge: -1
Formula: C24H40O7S
SMILES: CC(CCC(=O)O)C1CCC2C1(CCC3C2C(CC4C3(CCC(C4)OS(=O)(=O)O)C)O)C
Method: HCD
Collision_energy: [28.333334]
Isolation_window: 4.0
Ion_mode: N
Num Peaks: 12
52.3588	1.9
52.3616	4.5
52.4732	1.2
61.9875	2.9
96.9592	16.3
151.0255	2.6
469.2268	15.4
469.3236	1.4
470.2308	11.2
471.2423	100.0
472.2459	24.7
473.2401	4.4

Name: Saccharin
PrecursorMZ: 181.99085
RT: 1.1970666666666667
ExactMass: 182.9990142
Spectrum_type: 2
charge: -1
Formula: C7H5NO3S
SMILES: C1=CC=C2C(=C1)C(=O)NS2(=O)=O
Method: HCD
Collision_energy: [28.333334]
Isolation_window: 4.0
Ion_mode: N
Num Peaks: 5
105.9594	2.9
181.9909	100.0
182.9941	8.2
183.1384	1.6
183.9857	2.3

Name: Salicyl Alcohol
PrecursorMZ: 123.04422
RT: 4.7023
ExactMass: 124.052429494
Spectrum_type: 2
charge: -1
Formula: C7H8O2
SMILES: C1=CC=C(C(=C1)CO)O
Method: HCD
Collision_energy: [28.333334]
Isolation_window: 4.0
Ion_mode: N
Num Peaks: 3
122.0364	79.2
123.0447	43.9
123.9013	100.0

Name: Salicylaldehyde
PrecursorMZ: 121.02859
RT: 1.5756000000000001
ExactMass: 122.03677943
Spectrum_type: 2
charge: -1
Formula: C7H6O2
SMILES: C1=CC=C(C(=C1)C=O)O
Method: HCD
Collision_energy: [28.333334]
Isolation_window: 4.0
Ion_mode: N
Num Peaks: 15
69.0812	0.3
91.0180	0.4
93.0337	1.2
95.0129	0.4
108.0208	2.0
120.9855	0.3
121.0051	0.2
121.0102	0.7
121.0144	0.4
121.0286	100.0
121.0429	0.6
121.0468	0.6
121.0524	0.3
121.0771	0.2
122.0319	7.8

Name: Salviaflaside
PrecursorMZ: 521.12966
RT: 7.8691
ExactMass: 522.13734088
Spectrum_type: 2
charge: -1
Formula: C24H26O13
SMILES: C1=CC(=C(C=C1C[C@H](C(=O)O)OC(=O)/C=C/C2=CC(=C(C=C2)O)O[C@H]3[C@@H]([C@H]([C@@H]([C@H](O3)CO)O)O)O)O)O
Method: HCD
Collision_energy: [28.333334]
Isolation_window: 4.0
Ion_mode: N
Num Peaks: 6
161.0236	100.0
179.0343	24.1
197.0444	20.2
323.0775	34.1
359.0763	50.4
521.1310	20.4

Name: Santin
PrecursorMZ: 343.08211
RT: 4.4497
ExactMass: 344.08960285
Spectrum_type: 2
charge: -1
Formula: C18H16O7
SMILES: COC1=CC=C(C=C1)C2=C(C(=O)C3=C(O2)C=C(C(=C3O)OC)O)OC
Method: HCD
Collision_energy: [28.333334]
Isolation_window: 4.0
Ion_mode: N
Num Peaks: 32
59.0130	12.3
72.9923	9.5
74.0238	12.7
75.0079	17.8
79.9565	13.7
85.0286	11.7
87.0078	10.3
96.9593	29.3
115.0755	9.3
120.9957	29.9
130.0865	20.6
146.0363	9.9
151.0394	11.8
193.0498	9.8
255.1045	12.1
257.0827	19.7
271.0968	10.0
281.0816	9.6
297.1136	11.9
299.0925	98.9
300.0956	18.5
341.1631	22.5
341.2066	14.6
341.6715	15.0
342.2393	12.8
343.0826	45.1
343.1231	14.7
343.2123	100.0
344.0879	11.4
344.1564	17.4
344.2147	18.2
345.2280	41.5

Name: Scensidin
PrecursorMZ: 399.03952
RT: 0.9038
ExactMass: 368.0218289
Spectrum_type: 2
charge: -1
Formula: C17H14Cl2O5
SMILES: CC1=C2C(=CC(=C1Cl)OC)OC3=C(C(=C(C=C3OC2=O)OC)Cl)C
Method: HCD
Collision_energy: [28.333334]
Isolation_window: 4.0
Ion_mode: N
Num Peaks: 30
61.9874	4.4
74.0238	4.3
87.0078	5.0
88.0396	4.8
94.0289	4.0
96.9592	37.2
114.0551	5.3
116.0709	4.4
128.0345	9.3
130.0866	5.5
153.0187	95.4
154.0222	6.1
164.0713	6.6
232.9761	3.8
283.0625	3.9
301.0720	4.6
319.0823	50.7
320.0852	8.4
397.1060	4.0
397.1598	4.2
397.2243	6.3
398.1608	15.1
399.0396	100.0
399.1494	37.3
399.2404	4.5
400.0431	17.3
400.1713	10.9
401.0390	3.7
401.1261	4.4
401.2153	3.7

Name: Sebacate dianion
PrecursorMZ: 201.11252
RT: 6.4161
ExactMass: 200.10485899
Spectrum_type: 2
charge: -1
Formula: C10H16O4-2
SMILES: C(CCCCC(=O)[O-])CCCC(=O)[O-]
Method: HCD
Collision_energy: [28.333334]
Isolation_window: 4.0
Ion_mode: N
Num Peaks: 28
83.0492	1.0
85.0284	1.8
85.0648	1.3
97.0651	1.4
99.0442	2.6
99.0806	0.9
100.0394	2.9
109.0649	5.2
111.0806	1.8
116.0707	3.1
127.0758	1.0
128.0344	1.0
129.1025	1.7
130.0864	3.1
137.0965	1.0
139.1119	63.3
140.1154	5.5
153.0908	1.0
156.1101	0.8
157.1222	1.3
157.1337	3.5
173.0923	9.1
183.1019	9.2
184.1050	1.1
200.0920	4.4
201.1122	100.0
202.1157	10.1
203.1030	3.7

Name: Secobarbital
PrecursorMZ: 237.12396
RT: 2.1679
ExactMass: 238.13174244
Spectrum_type: 2
charge: -1
Formula: C12H18N2O3
SMILES: CCCC(C)C1(C(=O)NC(=O)NC1=O)CC=C
Method: HCD
Collision_energy: [28.333334]
Isolation_window: 4.0
Ion_mode: N
Num Peaks: 15
79.9563	3.6
80.9641	1.8
94.0289	100.0
95.0321	3.5
96.9591	2.1
112.0394	20.9
124.0395	3.3
164.1073	23.0
165.1111	1.7
208.0973	16.7
209.1009	1.3
236.0954	5.0
237.1247	4.4
238.1080	7.3
239.0678	6.1

Name: Secodihydro-hydramicromelin B
PrecursorMZ: 325.09306
RT: 2.9223
ExactMass: 326.10016753
Spectrum_type: 2
charge: -1
Formula: C15H18O8
SMILES: CC1(C(C(OC1=O)C2=C(C=C(C(=C2)CCC(=O)O)O)OC)O)O
Method: HCD
Collision_energy: [28.333334]
Isolation_window: 4.0
Ion_mode: N
Num Peaks: 18
59.0130	3.4
61.9875	18.9
124.0160	5.3
135.0443	100.0
136.0473	8.2
137.0601	9.6
150.0315	3.2
151.0393	11.1
181.0500	55.3
182.0537	5.9
194.0820	4.2
235.0608	10.8
323.1284	7.2
324.1201	3.3
325.0924	43.2
326.0949	8.2
326.1330	3.4
327.1066	4.3

Name: Secologanin
PrecursorMZ: 433.13555
RT: 6.1419
ExactMass: 388.13694696
Spectrum_type: 2
charge: -1
Formula: C17H24O10
SMILES: COC(=O)C1=CO[C@H]([C@@H]([C@@H]1CC=O)C=C)O[C@H]2[C@@H]([C@H]([C@@H]([C@H](O2)CO)O)O)O
Method: HCD
Collision_energy: [28.333334]
Isolation_window: 4.0
Ion_mode: N
Num Peaks: 13
59.0129	18.6
71.0130	71.0
85.0285	32.1
87.0078	14.7
89.0236	37.5
97.0287	10.3
101.0235	47.8
113.0235	35.4
143.0341	10.9
161.0450	28.5
271.0827	10.8
433.1361	100.0
434.1404	24.9

Name: Secosterigmatocystin
PrecursorMZ: 361.09282
RT: 2.3893
ExactMass: 362.10016753
Spectrum_type: 2
charge: -1
Formula: C18H18O8
SMILES: COC1=C2C(=C(C(=C1)O)C(CO)C(CO)O)OC3=CC=CC(=C3C2=O)O
Method: HCD
Collision_energy: [28.333334]
Isolation_window: 4.0
Ion_mode: N
Num Peaks: 26
72.9921	73.8
73.9955	1.4
107.0492	6.4
123.0440	1.2
135.0442	3.6
136.0518	1.3
147.0445	1.4
174.0311	1.8
207.0657	2.0
229.0870	1.8
243.1022	38.9
244.1056	5.9
255.1023	37.4
256.1056	6.1
281.0818	11.7
282.0855	1.7
299.0920	2.1
317.1027	10.4
318.1050	1.7
325.0710	1.6
343.0821	34.8
344.0853	6.5
359.9976	1.3
361.0928	100.0
362.0958	20.3
363.1071	4.0

Name: Securiterpenoside
PrecursorMZ: 277.09255
RT: 6.4068
ExactMass: 278.10016753
Spectrum_type: 2
charge: -1
Formula: C11H18O8
SMILES: C=C(CCO[C@H]1[C@@H]([C@H]([C@@H]([C@H](O1)CO)O)O)O)C(=O)O
Method: HCD
Collision_energy: [28.333334]
Isolation_window: 4.0
Ion_mode: N
Num Peaks: 16
59.0130	6.0
71.0129	8.7
85.0284	7.9
88.0395	5.7
97.0285	5.8
101.0234	6.0
113.0235	7.5
114.0550	7.5
115.0391	100.0
116.0707	16.5
128.0343	12.5
277.0922	20.7
277.1200	11.0
278.1244	5.2
279.0644	14.8
279.0993	5.6

Name: Ser-Tyr
PrecursorMZ: 267.09866
RT: 6.2557
ExactMass: 268.10592162
Spectrum_type: 2
charge: -1
Formula: C12H16N2O5
SMILES: C1=CC(=CC=C1C[C@@H](C(=O)O)NC(=O)[C@H](CO)N)O
Method: HCD
Collision_energy: [28.333334]
Isolation_window: 4.0
Ion_mode: N
Num Peaks: 22
59.0130	10.6
73.0399	54.8
74.0238	12.1
94.0289	11.3
114.0552	13.2
119.0495	13.2
128.0342	11.1
130.0866	13.9
131.0452	15.5
136.0763	9.8
137.0712	33.9
180.0656	39.5
193.0980	45.7
223.1097	10.0
224.0677	9.5
237.0880	94.3
238.0915	11.4
265.1491	9.5
267.0989	100.0
268.1035	12.2
269.1164	19.4
269.2495	14.2

Name: Sinapaldehyde
PrecursorMZ: 207.06561
RT: 2.3816
ExactMass: 208.07355886
Spectrum_type: 2
charge: -1
Formula: C11H12O4
SMILES: COC1=CC(=CC(=C1O)OC)/C=C/C=O
Method: HCD
Collision_energy: [28.333334]
Isolation_window: 4.0
Ion_mode: N
Num Peaks: 160
59.0128	0.4
66.0339	0.4
69.0941	0.6
69.3467	0.6
78.9582	1.8
78.9849	0.5
79.9564	8.1
80.9643	26.1
82.9601	0.6
83.0129	2.9
93.0338	0.4
94.9800	0.9
96.9592	6.5
97.0286	1.9
97.4639	0.6
99.0080	0.4
101.0421	4.2
107.0498	0.5
108.0446	0.6
109.0287	0.9
111.0444	0.5
113.0239	0.4
117.0532	0.8
118.9805	0.5
119.0495	1.6
120.0448	1.4
121.0288	1.1
121.0651	1.7
123.0319	0.9
123.0443	4.6
127.0394	1.1
133.0296	0.4
133.0654	0.6
134.0604	0.5
135.0449	1.7
135.0810	0.5
137.0246	1.7
137.0488	0.6
137.0608	3.3
139.0404	0.4
143.0496	1.7
145.0327	3.1
145.0651	0.6
145.0674	0.6
147.0454	0.5
148.0172	0.4
148.0522	3.7
148.0546	2.4
149.0238	0.9
149.0263	0.6
149.0587	0.4
150.0207	0.8
150.0315	11.5
150.0340	10.1
151.0394	0.8
151.0418	0.7
151.0757	1.0
151.0782	1.4
161.0471	1.0
161.0601	5.9
161.0631	4.6
162.0188	0.8
162.0221	0.8
162.0570	4.4
162.0673	1.1
162.0706	0.6
163.0271	0.5
163.0394	4.3
163.0424	3.9
163.0634	0.5
163.0758	5.8
163.0788	4.9
164.0191	2.7
164.0339	1.2
164.0366	1.2
164.0488	0.8
164.0703	4.1
164.0736	2.5
165.0195	1.1
165.0224	0.8
165.0352	0.4
165.0426	1.2
165.0551	19.6
165.0582	10.4
165.0930	0.6
176.9862	0.8
176.9889	0.6
177.0186	1.0
177.0221	0.7
177.0578	0.5
179.0359	0.4
179.0706	2.0
179.0746	2.4
181.0505	0.7
181.0539	0.7
189.0408	0.8
189.0552	4.9
189.0597	5.5
190.0603	0.6
190.0629	0.5
191.0344	1.6
191.0391	1.5
192.0423	1.6
192.0468	1.2
194.0216	1.4
194.0263	1.3
205.0189	0.8
205.0223	0.7
205.0503	2.2
205.0539	2.2
205.0561	1.7
205.0869	0.8
205.0907	1.2
205.0935	1.0
206.0130	1.3
206.0160	0.9
206.0176	0.9
206.0437	0.8
206.0493	2.8
206.0521	1.1
206.0854	0.4
206.9708	0.6
206.9804	0.6
206.9973	1.3
207.0006	2.6
207.0117	19.4
207.0161	2.2
207.0332	13.0
207.0372	10.6
207.0477	5.3
207.0499	17.9
207.0659	98.5
207.0711	100.0
207.0915	5.7
207.1053	14.1
207.1088	4.1
207.1107	11.4
208.0106	1.5
208.0300	2.4
208.0362	1.2
208.0429	0.9
208.0443	0.8
208.0496	0.5
208.0521	1.6
208.0695	11.4
208.0746	11.8
208.1116	1.3
208.1146	1.1
208.9823	0.6
208.9964	2.7
209.0142	8.8
209.0171	7.2
209.0267	0.9
209.0291	3.8
209.0453	39.5
209.0505	31.5
209.0701	0.7
209.0728	0.7
209.0848	4.1
209.0880	0.5

Name: Sinigrin
PrecursorMZ: 358.02732
RT: 5.7278
ExactMass: 359.03447347
Spectrum_type: 2
charge: -1
Formula: C10H17NO9S2
SMILES: C=CC/C(=N\OS(=O)(=O)O)/S[C@H]1[C@@H]([C@H]([C@@H]([C@H](O1)CO)O)O)O
Method: HCD
Collision_energy: [28.333334]
Isolation_window: 4.0
Ion_mode: N
Num Peaks: 8
74.9901	55.2
79.9565	9.7
95.9514	51.0
96.9592	100.0
116.0165	7.7
358.0275	87.8
359.0303	9.5
359.0769	8.0

Name: Skullcapflavone Ii
PrecursorMZ: 373.09311
RT: 4.1971
ExactMass: 374.10016753
Spectrum_type: 2
charge: -1
Formula: C19H18O8
SMILES: COC1=CC=CC(=C1C2=CC(=O)C3=C(C(=C(C(=C3O2)OC)OC)OC)O)O
Method: HCD
Collision_energy: [28.333334]
Isolation_window: 4.0
Ion_mode: N
Num Peaks: 21
59.0129	4.2
61.9875	13.1
108.0207	5.2
109.0287	8.1
123.0441	11.0
145.0288	7.4
160.0520	4.5
161.0601	46.3
162.0636	4.2
205.0504	7.4
269.0820	27.2
270.0864	8.4
285.1132	12.4
311.0559	15.5
311.0939	5.4
329.1030	23.8
330.1062	4.5
355.0828	4.0
373.0927	100.0
374.0961	17.1
375.2899	4.9

Name: Smnd-309
PrecursorMZ: 357.06144
RT: 7.1555
ExactMass: 358.0688674
Spectrum_type: 2
charge: -1
Formula: C18H14O8
SMILES: C1=CC(=C(C=C1/C=C(\C2=C(C=CC(=C2O)O)/C=C/C(=O)O)/C(=O)O)O)O
Method: HCD
Collision_energy: [28.333334]
Isolation_window: 4.0
Ion_mode: N
Num Peaks: 9
61.9874	50.7
109.0285	35.2
159.0444	37.0
177.0549	17.7
203.0343	100.0
204.0377	9.4
313.0716	59.0
357.0606	18.4
359.0784	11.5

Name: Solabegron
PrecursorMZ: 409.13245
RT: 3.026
ExactMass: 410.1397203
Spectrum_type: 2
charge: -1
Formula: C23H23ClN2O3
SMILES: C1=CC(=CC(=C1)C(=O)O)C2=CC(=CC=C2)NCCNC[C@@H](C3=CC(=CC=C3)Cl)O
Method: HCD
Collision_energy: [28.333334]
Isolation_window: 4.0
Ion_mode: N
Num Peaks: 59
69.5048	0.8
79.9564	7.3
80.9643	3.1
96.9592	17.4
101.0597	0.7
109.0286	1.4
111.0437	0.8
123.0443	0.6
125.0600	3.2
137.0237	0.8
155.0702	0.8
165.0189	1.3
179.0349	0.9
181.0501	0.7
191.0345	3.8
191.0719	0.7
193.0865	0.6
195.0659	3.0
207.0295	2.5
207.0660	0.8
209.1182	0.9
221.0818	0.7
223.0970	1.1
236.0688	23.5
237.0725	5.4
238.0767	0.7
239.1283	1.9
263.1286	0.8
265.1078	0.9
279.1237	3.5
280.0581	0.8
294.1110	9.9
295.1142	2.7
327.0873	4.0
328.0903	0.7
333.1359	0.8
338.1008	6.7
339.1037	2.0
341.1071	0.6
349.1318	1.3
351.1453	4.1
353.1606	6.0
365.1986	0.8
375.1447	1.1
391.1752	1.3
407.1249	1.1
407.1712	14.9
407.2140	3.3
408.1174	1.7
408.1748	6.5
408.2143	1.0
409.0487	1.4
409.0668	1.9
409.1328	100.0
409.1859	26.5
410.1358	21.9
410.1891	5.4
411.1458	14.1
411.2027	13.6

Name: Soyasaponin Ba
PrecursorMZ: 957.50635
RT: 5.0976
ExactMass: 958.51373025
Spectrum_type: 2
charge: -1
Formula: C48H78O19
SMILES: C[C@]12CC[C@@H]([C@]([C@@H]1CC[C@@]3([C@@H]2CC=C4[C@]3(CC[C@@]5([C@H]4CC(C[C@H]5O)(C)C)C)C)C)(C)CO)O[C@H]6[C@@H]([C@H]([C@@H]([C@H](O6)C(=O)O)O)O)O[C@H]7[C@@H]([C@H]([C@H]([C@H](O7)CO)O)O)O[C@H]8[C@@H]([C@H]([C@@H]([C@H](O8)CO)O)O)O
Method: HCD
Collision_energy: [28.333334]
Isolation_window: 4.0
Ion_mode: N
Num Peaks: 21
69.0942	5.8
69.2373	4.2
69.2962	4.1
71.0129	9.5
75.0078	4.5
85.0285	20.7
89.0234	12.3
95.0129	4.7
99.0077	5.5
101.0234	10.1
106.3942	4.1
113.0234	11.5
119.0341	5.4
131.0341	5.6
139.0027	4.4
161.0446	11.1
179.0554	6.7
221.0661	13.8
957.5064	100.0
958.5100	60.8
959.5140	11.3

Name: Spiro(furo(4,3,2-ij)pyrano(4',3':4,5)cyclohepta(1,2-f)(2)benzopyran-7(9H),2'-oxirane)-1,5,9,13(2H,3aH,11H)-tetrone, 5a,6,6a,13a,13b,13c-hexahydro-2,5a,11,11,13a-pentamethyl-
PrecursorMZ: 441.15559
RT: 7.8094
ExactMass: 442.16276778
Spectrum_type: 2
charge: -1
Formula: C24H26O8
SMILES: CC1C(=O)C2C3C(O1)OC(=O)C3(CC4C2(C(=O)C=C5C(=CC(=O)OC5(C)C)C46CO6)C)C
Method: HCD
Collision_energy: [28.333334]
Isolation_window: 4.0
Ion_mode: N
Num Peaks: 24
78.9581	5.2
114.0556	6.0
121.0655	5.4
128.0346	16.1
133.0651	5.2
161.0602	20.8
165.0551	7.5
173.0965	14.5
177.0910	4.9
199.0759	22.6
201.0910	8.0
217.0867	10.8
245.0815	6.6
261.0771	14.0
335.1657	6.2
383.1928	8.4
405.1352	8.7
423.1440	16.1
439.2754	9.4
440.2780	6.7
441.1530	100.0
441.2881	12.2
442.1559	28.5
443.1694	4.7

Name: Sterebin A-Stevia rebaudiana
PrecursorMZ: 309.20724
RT: 0.5432
ExactMass: 310.21440943
Spectrum_type: 2
charge: -1
Formula: C18H30O4
SMILES: CC(=O)/C=C/[C@@H]1[C@]2(CCCC(C2[C@H]([C@@H]([C@@]1(C)O)O)O)(C)C)C
Method: HCD
Collision_energy: [28.333334]
Isolation_window: 4.0
Ion_mode: N
Num Peaks: 25
57.0337	13.9
87.0078	30.7
95.0496	1.7
97.0285	13.6
97.0654	1.6
99.0078	2.8
135.0807	6.4
209.1904	5.5
219.1754	1.7
245.1909	34.3
246.1943	13.2
247.2066	45.1
248.2098	6.8
289.1809	48.2
290.1845	19.8
291.1965	100.0
292.1998	17.4
307.1914	30.4
308.1948	12.1
309.0976	2.1
309.1324	1.7
309.1791	1.8
309.2070	73.3
310.2104	14.3
311.1686	11.2

Name: Sterebin B
PrecursorMZ: 351.21765
RT: 0.6156
ExactMass: 352.22497412
Spectrum_type: 2
charge: -1
Formula: C20H32O5
SMILES: CC(=O)/C=C/[C@@H]1[C@]2(CCCC(C2[C@H]([C@@H]([C@@]1(C)O)O)OC(=O)C)(C)C)C
Method: HCD
Collision_energy: [28.333334]
Isolation_window: 4.0
Ion_mode: N
Num Peaks: 60
57.0337	2.8
59.0129	5.5
71.0126	1.2
71.0493	1.6
73.0285	3.5
83.0491	2.2
85.0285	1.0
97.0648	1.1
99.0441	1.3
113.0233	1.6
119.0494	1.4
122.0599	1.1
129.0549	1.1
137.0962	2.2
139.1120	1.1
151.1116	1.1
165.0907	1.2
167.1068	7.8
168.1101	1.0
169.1226	2.2
183.1019	10.0
184.1053	1.0
185.1170	1.3
223.1698	1.2
225.1853	1.1
235.1695	1.2
263.2017	1.8
265.2175	1.3
277.2173	2.3
282.1102	1.7
287.2012	1.0
289.2171	6.9
290.2204	1.1
291.1968	1.6
291.2326	2.0
305.2130	2.5
306.2130	1.5
307.1935	1.6
307.2273	22.0
308.2306	4.4
309.2065	1.5
309.2423	9.6
333.2061	3.4
335.2225	2.9
349.2019	15.2
349.2398	3.8
350.1691	1.6
350.2050	13.0
350.2410	1.7
351.1067	1.2
351.1460	1.9
351.1835	5.7
351.2177	100.0
351.2523	5.2
352.1188	1.1
352.1852	1.7
352.2206	22.0
352.2532	1.4
353.1964	7.7
353.2334	48.8

Name: Stevia rebaudiana, ext.
PrecursorMZ: 965.42439
RT: 6.8322
ExactMass: 966.43078848
Spectrum_type: 2
charge: -1
Formula: C44H70O23
SMILES: CC12CCCC(C1CCC34C2CCC(C3)(C(=C)C4)OC5C(C(C(C(O5)CO)O)OC6C(C(C(C(O6)CO)O)O)O)OC7C(C(C(C(O7)CO)O)O)O)(C)C(=O)OC8C(C(C(C(O8)CO)O)O)O
Method: HCD
Collision_energy: [28.333334]
Isolation_window: 4.0
Ion_mode: N
Num Peaks: 9
89.2669	3.8
317.2127	7.8
479.2679	5.8
641.3189	11.3
642.3235	5.1
721.2421	3.7
803.3713	100.0
804.3753	35.4
805.3809	5.8

Name: Stevioside
PrecursorMZ: 803.37091
RT: 5.6451
ExactMass: 804.37796506
Spectrum_type: 2
charge: -1
Formula: C38H60O18
SMILES: C[C@@]12CCC[C@@]([C@H]1CC[C@]34[C@H]2CC[C@](C3)(C(=C)C4)O[C@H]5[C@@H]([C@H]([C@@H]([C@H](O5)CO)O)O)O[C@H]6[C@@H]([C@H]([C@@H]([C@H](O6)CO)O)O)O)(C)C(=O)O[C@H]7[C@@H]([C@H]([C@@H]([C@H](O7)CO)O)O)O
Method: HCD
Collision_energy: [28.333334]
Isolation_window: 4.0
Ion_mode: N
Num Peaks: 7
69.4395	7.0
317.2111	13.4
479.2640	9.3
641.3166	17.4
803.3705	100.0
804.3743	39.5
805.3752	8.3

Name: Suavissimoside R1
PrecursorMZ: 679.36957
RT: 5.5978
ExactMass: 680.37717722
Spectrum_type: 2
charge: -1
Formula: C36H56O12
SMILES: C[C@@H]1CC[C@@]2(CC[C@@]3(C(=CC[C@H]4[C@]3(CC[C@@H]5[C@@]4(C[C@H]([C@@H]([C@@]5(C)C(=O)O)O)O)C)C)[C@@H]2[C@]1(C)O)C)C(=O)O[C@H]6[C@@H]([C@H]([C@@H]([C@H](O6)CO)O)O)O
Method: HCD
Collision_energy: [28.333334]
Isolation_window: 4.0
Ion_mode: N
Num Peaks: 17
57.4812	2.3
69.1522	1.7
75.0077	2.0
75.4833	2.3
75.4881	4.0
97.4081	1.8
139.0061	7.1
437.3062	3.5
455.3173	4.3
471.3121	4.3
499.3064	8.6
500.3119	2.7
517.3169	53.3
518.3203	15.7
679.3702	100.0
680.3735	37.2
681.3773	6.3

Name: Suberate
PrecursorMZ: 173.08114
RT: 0.6341
ExactMass: 172.07355886
Spectrum_type: 2
charge: -1
Formula: C8H12O4-2
SMILES: C(CCCC(=O)[O-])CCC(=O)[O-]
Method: HCD
Collision_energy: [28.333334]
Isolation_window: 4.0
Ion_mode: N
Num Peaks: 37
57.0336	0.4
59.0129	0.3
67.0543	0.2
69.0336	0.4
71.0128	0.4
83.0492	3.3
84.0525	0.2
87.0077	0.3
95.0490	0.3
97.0648	0.4
99.0444	0.4
109.0649	0.9
111.0452	0.4
111.0644	0.6
111.0678	0.4
111.0805	100.0
111.0967	0.6
111.1182	0.3
112.0838	7.1
127.0755	5.9
128.0704	0.3
128.0789	0.6
129.0549	0.5
129.0911	6.2
130.0943	0.4
155.0707	1.5
171.0656	2.6
171.1018	0.7
172.0696	0.3
173.0477	1.2
173.0811	87.4
173.1053	0.5
173.1129	0.6
173.1544	0.2
174.0848	7.0
175.0834	0.3
175.0990	0.5

Name: Suberosin
PrecursorMZ: 243.10221
RT: 2.9117
ExactMass: 244.109944368
Spectrum_type: 2
charge: -1
Formula: C15H16O3
SMILES: CC(=CCC1=C(C=C2C(=C1)C=CC(=O)O2)OC)C
Method: HCD
Collision_energy: [28.333334]
Isolation_window: 4.0
Ion_mode: N
Num Peaks: 22
79.9563	2.3
96.9414	3.0
96.9590	6.0
106.0414	3.7
121.0285	4.1
151.9836	5.2
184.0011	7.1
184.5031	3.0
184.9986	2.4
213.0915	100.0
214.0949	14.0
241.0717	15.2
241.2168	16.9
241.5741	9.4
242.0456	16.4
242.0708	6.3
242.1038	2.3
242.2203	4.7
243.0164	11.3
243.0486	1.8
243.1024	21.5
244.1052	3.3

Name: Suberylglycine
PrecursorMZ: 230.10289
RT: 3.6086
ExactMass: 231.11067264
Spectrum_type: 2
charge: -1
Formula: C10H17NO5
SMILES: C(CCCC(=O)O)CCC(=O)NCC(=O)O
Method: HCD
Collision_energy: [28.333334]
Isolation_window: 4.0
Ion_mode: N
Num Peaks: 49
59.0129	5.3
71.0130	2.6
81.0336	2.1
83.0492	55.2
84.0443	2.1
84.0525	2.2
87.9330	3.1
88.0394	3.4
97.0648	16.8
99.0078	2.3
102.0550	16.2
112.0394	5.4
113.0234	5.9
113.0348	3.7
116.0707	17.4
125.0964	5.5
126.0550	6.1
127.0391	11.0
131.9223	2.4
139.0394	2.5
141.0548	5.6
142.0495	2.6
142.1224	2.9
144.0660	2.8
145.0497	5.6
158.0816	2.2
160.0606	2.9
167.1069	3.0
167.1433	5.3
169.0859	7.8
171.0653	2.4
185.0804	2.2
186.1113	2.5
187.0962	11.8
196.0607	2.1
211.0974	5.6
211.1333	6.0
212.0916	7.0
213.0753	5.6
213.0890	4.3
229.0699	13.5
229.1073	17.2
229.1434	26.1
230.0845	2.1
230.1028	100.0
230.1479	3.2
231.0867	27.7
231.1053	6.2
232.0852	2.3

Name: Succinylacetone
PrecursorMZ: 157.05053
RT: 3.0461
ExactMass: 158.0579088
Spectrum_type: 2
charge: -1
Formula: C7H10O4
SMILES: CC(=O)CC(=O)CCC(=O)O
Method: HCD
Collision_energy: [28.333334]
Isolation_window: 4.0
Ion_mode: N
Num Peaks: 51
59.0129	0.8
69.0337	2.7
71.0130	0.5
81.0336	0.8
83.0493	0.7
84.0446	0.2
85.0285	0.4
93.0336	0.2
95.0494	3.2
97.0035	0.6
97.0288	0.3
97.0330	0.3
97.0481	0.2
97.0519	0.7
97.0546	0.6
97.0650	100.0
97.0751	0.4
97.0781	0.6
97.0819	0.2
97.0934	0.3
111.0443	1.9
112.0478	0.2
113.0236	0.7
113.0599	3.6
114.0298	0.7
114.0552	0.4
114.0635	0.2
115.0395	0.2
115.0585	0.5
115.0756	78.6
115.0887	0.4
115.0926	0.5
115.1123	0.2
137.0232	0.3
141.0549	6.7
155.0342	0.6
156.0658	0.6
157.0139	1.2
157.0504	0.5
157.0865	0.3
158.0449	0.3
158.0806	0.3
158.9982	0.2
159.0298	0.4
159.0380	0.6
159.0440	0.4
159.0656	90.1
159.0874	0.5
159.0929	0.6
159.1011	0.2
159.1250	0.2

Name: Sulfanilic acid
PrecursorMZ: 172.00672
RT: 4.8955
ExactMass: 173.01466426
Spectrum_type: 2
charge: -1
Formula: C6H7NO3S
SMILES: C1=CC(=CC=C1N)S(=O)(=O)O
Method: HCD
Collision_energy: [28.333334]
Isolation_window: 4.0
Ion_mode: N
Num Peaks: 9
79.9563	3.6
128.0346	9.5
128.0709	3.5
170.0815	3.5
170.9968	3.8
171.1497	4.1
172.0068	100.0
172.9914	8.8
173.0097	7.1

Name: Sulfo jasmonate
PrecursorMZ: 305.06951
RT: 0.6484
ExactMass: 306.07732408
Spectrum_type: 2
charge: -1
Formula: C12H18O7S
SMILES: C1CC(=O)C(C1CC(=O)O)C/C=C/CCOS(=O)(=O)O
Method: HCD
Collision_energy: [28.333334]
Isolation_window: 4.0
Ion_mode: N
Num Peaks: 19
59.0128	14.7
96.9590	60.5
98.9548	1.4
108.0444	0.7
124.0757	4.0
136.0757	12.0
137.0790	1.0
168.0656	6.1
180.0656	3.5
182.0811	0.8
225.1125	33.7
226.1160	4.0
259.1451	0.9
261.1608	1.1
304.9972	0.7
305.0695	100.0
305.1443	3.1
306.0725	13.5
307.0738	2.4

Name: Sulfosuccinic acid monosodium salt
PrecursorMZ: 196.97537
RT: 9.8276
ExactMass: 197.9834237
Spectrum_type: 2
charge: -1
Formula: C4H6O7S
SMILES: C(C(C(=O)O)S(=O)(=O)O)C(=O)O
Method: HCD
Collision_energy: [28.333334]
Isolation_window: 4.0
Ion_mode: N
Num Peaks: 8
71.0129	22.2
80.9642	100.0
134.9746	5.4
152.9854	25.1
171.0670	3.4
195.9052	5.4
196.9755	25.7
198.0773	2.7

Name: Sulfuric acid 4-methoxyphenyl ester
PrecursorMZ: 203.0014
RT: 0.8283
ExactMass: 204.00924453
Spectrum_type: 2
charge: -1
Formula: C7H8O5S
SMILES: COC1=CC=C(C=C1)OS(=O)(=O)O
Method: HCD
Collision_energy: [28.333334]
Isolation_window: 4.0
Ion_mode: N
Num Peaks: 9
79.9565	20.3
80.9643	5.2
121.0651	2.8
123.0443	100.0
124.0477	6.8
201.0221	2.2
203.0015	67.5
204.0050	5.0
204.9954	1.6

Name: Sulfuric acid, monooctadecyl ester
PrecursorMZ: 349.24165
RT: 0.757
ExactMass: 350.24908086
Spectrum_type: 2
charge: -1
Formula: C18H38O4S
SMILES: CCCCCCCCCCCCCCCCCCOS(=O)(=O)O
Method: HCD
Collision_energy: [28.333334]
Isolation_window: 4.0
Ion_mode: N
Num Peaks: 12
96.9592	30.7
98.9550	0.7
227.2008	0.5
280.0963	0.5
347.1870	0.6
348.1895	1.2
349.1565	0.5
349.1720	0.9
349.2419	100.0
349.3325	0.6
350.2452	20.5
351.2413	3.4

Name: Sulfuric acid, monooctyl ester
PrecursorMZ: 209.08447
RT: 0.9375
ExactMass: 210.09258022
Spectrum_type: 2
charge: -1
Formula: C8H18O4S
SMILES: CCCCCCCCOS(=O)(=O)O
Method: HCD
Collision_energy: [28.333334]
Isolation_window: 4.0
Ion_mode: N
Num Peaks: 21
69.5966	0.9
79.9557	1.1
96.9591	61.1
97.9584	0.6
98.9548	0.8
121.0649	1.5
123.0443	1.8
164.0706	1.2
165.0549	7.2
167.0345	0.8
181.0508	1.6
182.0467	0.9
184.0621	0.6
208.0618	1.4
209.0448	39.8
209.0846	100.0
209.1252	0.6
210.0483	4.3
210.0890	7.7
211.0240	0.7
211.0779	1.9

Name: Sumaresinolic Acid
PrecursorMZ: 471.34807
RT: 0.8228
ExactMass: 472.35526001
Spectrum_type: 2
charge: -1
Formula: C30H48O4
SMILES: C[C@]12CC[C@@H](C([C@@H]1[C@@H](C[C@@]3([C@@H]2CC=C4[C@]3(CC[C@@]5([C@H]4CC(CC5)(C)C)C(=O)O)C)C)O)(C)C)O
Method: HCD
Collision_energy: [28.333334]
Isolation_window: 4.0
Ion_mode: N
Num Peaks: 6
97.4666	2.2
225.2222	15.6
271.2280	100.0
272.2315	16.9
469.4227	2.1
473.3292	6.7

Name: Sunitinib
PrecursorMZ: 397.20481
RT: 0.5431
ExactMass: 398.21180428
Spectrum_type: 2
charge: -1
Formula: C22H27FN4O2
SMILES: CCN(CC)CCNC(=O)C1=C(NC(=C1C)/C=C\2/C3=C(C=CC(=C3)F)NC2=O)C
Method: HCD
Collision_energy: [28.333334]
Isolation_window: 4.0
Ion_mode: N
Num Peaks: 17
96.9459	0.4
96.9487	0.3
96.9589	43.9
96.9722	0.3
97.9584	0.3
98.9547	0.9
116.0704	0.7
395.1900	0.7
396.1927	0.8
397.0995	0.6
397.1220	0.4
397.2046	100.0
397.3173	0.5
398.2080	22.6
398.3185	0.8
399.2202	32.1
399.3308	0.3

Name: Symmetric Dimethylarginine
PrecursorMZ: 201.13522
RT: 9.0034
ExactMass: 202.14297583
Spectrum_type: 2
charge: -1
Formula: C8H18N4O2
SMILES: CNC(=NC)NCCC[C@@H](C(=O)O)N
Method: HCD
Collision_energy: [28.333334]
Isolation_window: 4.0
Ion_mode: N
Num Peaks: 20
55.0293	8.8
59.0129	4.4
61.9875	41.0
114.0551	5.2
128.0345	4.8
130.0863	9.1
131.0818	100.0
132.0854	4.6
138.0190	5.4
139.1118	3.9
155.1070	6.3
156.1018	8.2
170.0929	25.7
199.1698	7.9
200.0562	4.4
201.0769	4.2
201.1128	4.8
201.1378	12.7
202.0502	5.4
202.0716	4.2

Name: Syringaresinol
PrecursorMZ: 417.15567
RT: 1.126
ExactMass: 418.16276778
Spectrum_type: 2
charge: -1
Formula: C22H26O8
SMILES: COC1=CC(=CC(=C1O)OC)C2C3COC(C3CO2)C4=CC(=C(C(=C4)OC)O)OC
Method: HCD
Collision_energy: [28.333334]
Isolation_window: 4.0
Ion_mode: N
Num Peaks: 36
73.0290	2.1
281.2478	1.1
299.2595	5.4
300.2621	0.9
301.0720	3.5
301.1090	1.5
313.0719	5.3
314.0785	2.5
325.1077	2.4
328.0949	2.3
329.1031	11.6
330.1076	1.7
343.1190	9.1
344.1224	1.7
353.1026	2.4
355.0815	2.9
373.1292	1.2
385.1301	7.6
386.1348	1.6
387.1082	4.9
388.1132	0.9
401.1237	4.6
402.1325	57.1
403.1358	13.7
404.1388	1.6
415.3254	2.2
416.1357	0.9
416.3258	1.2
417.1561	100.0
417.2022	1.6
417.2988	1.2
417.3435	2.7
418.1590	23.4
419.1601	1.9
419.1657	4.1
419.3584	0.9

Name: TG-100115
PrecursorMZ: 345.11083
RT: 0.6448
ExactMass: 346.11782371
Spectrum_type: 2
charge: -1
Formula: C18H14N6O2
SMILES: C1=CC(=CC(=C1)O)C2=NC3=C(N=C(N=C3N=C2C4=CC(=CC=C4)O)N)N
Method: HCD
Collision_energy: [28.333334]
Isolation_window: 4.0
Ion_mode: N
Num Peaks: 24
59.0128	3.0
72.9921	3.4
87.0077	3.6
109.0284	4.1
128.0347	3.2
135.0441	10.6
179.0344	6.7
189.0549	3.0
225.0910	2.6
256.0976	49.0
257.1011	6.4
258.1133	99.7
259.1168	15.0
283.1017	2.3
299.1295	4.0
300.1328	3.8
301.1185	16.3
343.1042	9.7
343.2149	2.6
344.1220	8.6
345.1092	100.0
346.1111	17.5
347.0783	2.5
347.1157	12.2

Name: TM-5441
PrecursorMZ: 427.07044
RT: 5.5065
ExactMass: 428.077514
Spectrum_type: 2
charge: -1
Formula: C21H17ClN2O6
SMILES: C1=CC(=CC(=C1)NC(=O)COCC(=O)NC2=C(C=C(C=C2)Cl)C(=O)O)C3=COC=C3
Method: HCD
Collision_energy: [28.333334]
Isolation_window: 4.0
Ion_mode: N
Num Peaks: 6
96.9593	27.5
163.0393	3.6
347.1133	4.6
427.0709	100.0
428.0739	18.9
429.0696	4.5

Name: TNF-alpha-IN-1
PrecursorMZ: 362.05486
RT: 4.9093
ExactMass: 363.0621982
Spectrum_type: 2
charge: -1
Formula: C16H14ClN3O5
SMILES: C1CC(=O)NC(=O)C1N2C(=O)C3=CC=CC(=C3C2=O)CNC(=O)CCl
Method: HCD
Collision_energy: [28.333334]
Isolation_window: 4.0
Ion_mode: N
Num Peaks: 35
59.0129	6.4
74.0238	6.7
79.9564	11.1
80.9642	8.0
96.9591	11.1
101.0055	7.2
113.0346	7.7
113.9771	31.6
114.0550	16.6
128.0166	6.2
141.0007	13.2
144.9956	42.6
154.0502	9.1
176.0348	6.3
178.0491	7.3
201.0225	7.0
206.0453	25.9
210.0226	22.9
224.0560	6.5
240.0324	11.2
270.0442	38.3
300.0545	34.4
314.0334	7.8
344.0442	100.0
345.0467	13.2
361.1313	12.1
361.1651	9.5
361.2281	19.2
362.0549	57.3
362.1290	10.0
362.1710	8.0
363.0566	7.3
363.1493	22.2
363.2204	9.5
364.1878	7.6

Name: Talaroflavone
PrecursorMZ: 275.05609
RT: 1.187
ExactMass: 276.0633881
Spectrum_type: 2
charge: -1
Formula: C14H12O6
SMILES: CC1=CC(=O)C(C12C3=C(C(=CC(=C3)OC)O)C(=O)O2)O
Method: HCD
Collision_energy: [28.333334]
Isolation_window: 4.0
Ion_mode: N
Num Peaks: 42
79.9562	0.6
80.9642	0.9
97.0283	0.8
109.0284	2.3
113.0234	0.5
121.0285	0.9
135.0440	0.9
137.0234	1.1
147.0440	0.6
153.0182	0.6
159.0809	0.9
161.0598	0.6
175.0392	1.4
175.0756	0.6
177.0179	0.7
187.0755	1.5
189.0549	0.7
203.0706	4.0
205.0497	0.6
213.0554	0.7
219.0658	1.0
229.0511	1.2
229.0873	0.6
230.0821	0.6
231.0657	26.9
232.0692	3.2
233.0820	0.9
247.0606	2.3
257.0447	0.9
273.0408	1.2
273.0766	2.2
274.0410	0.9
274.0769	1.1
274.9934	0.6
275.0559	100.0
275.0814	2.4
275.0883	2.8
276.0592	13.4
276.0888	1.2
276.1594	0.9
277.0707	3.0
277.1827	1.1

Name: Tartrate
PrecursorMZ: 149.00847
RT: 4.5297
ExactMass: 148.00078784
Spectrum_type: 2
charge: -1
Formula: C4H4O6-2
SMILES: [C@@H]([C@H](C(=O)[O-])O)(C(=O)[O-])O
Method: HCD
Collision_energy: [28.333334]
Isolation_window: 4.0
Ion_mode: N
Num Peaks: 24
59.0130	10.5
72.9922	9.7
85.0285	21.6
87.0078	27.7
98.0238	35.0
102.0552	13.2
103.0393	10.0
103.0584	36.6
104.0596	6.1
106.9800	13.4
118.0501	100.0
129.0187	15.9
129.0380	25.2
130.0390	6.2
147.0189	8.6
147.0292	22.4
147.0483	24.6
148.0502	7.0
148.0608	85.7
148.9520	7.9
149.0085	26.5
149.0639	7.1
150.9699	13.0
151.0255	34.8

Name: Taurine
PrecursorMZ: 124.00651
RT: 8.566378571428572
ExactMass: 125.01466426
Spectrum_type: 2
charge: -1
Formula: C2H7NO3S
SMILES: C(CS(=O)(=O)O)N
Method: HCD
Collision_energy: [28.333334]
Isolation_window: 4.0
Ion_mode: N
Num Peaks: 27
64.9694	1.3
69.0336	1.7
79.9564	52.0
80.9643	1.4
81.0337	1.3
81.0448	1.6
82.0290	1.0
94.0289	3.5
94.9799	1.1
95.0130	1.4
96.0445	1.3
97.0287	1.6
106.9800	2.0
122.0241	2.2
122.9063	1.0
123.0079	1.5
123.0443	2.7
123.0555	1.7
123.9014	0.7
124.0066	100.0
124.0395	5.4
124.0505	0.8
125.0104	2.1
125.0237	3.3
125.0347	3.4
125.0602	0.9
126.0021	1.2

Name: Taurochenodeoxycholic Acid
PrecursorMZ: 498.28905
RT: 2.869
ExactMass: 499.29675933
Spectrum_type: 2
charge: -1
Formula: C26H45NO6S
SMILES: C[C@H](CCC(=O)NCCS(=O)(=O)O)[C@H]1CC[C@@H]2[C@@]1(CC[C@H]3[C@H]2[C@@H](C[C@H]4[C@@]3(CC[C@H](C4)O)C)O)C
Method: HCD
Collision_energy: [28.333334]
Isolation_window: 4.0
Ion_mode: N
Num Peaks: 11
55.3639	1.9
55.3670	4.5
55.4784	1.2
96.9592	1.2
497.2604	3.1
497.3472	0.9
497.3543	1.2
498.1863	1.6
498.2895	100.0
499.2927	28.9
500.2896	6.5

Name: Taurohyodeoxycholic acid
PrecursorMZ: 498.28894
RT: 2.1157
ExactMass: 499.29675933
Spectrum_type: 2
charge: -1
Formula: C26H45NO6S
SMILES: C[C@H](CCC(=O)NCCS(=O)(=O)O)[C@H]1CC[C@@H]2[C@@]1(CC[C@H]3[C@H]2C[C@@H]([C@H]4[C@@]3(CC[C@H](C4)O)C)O)C
Method: HCD
Collision_energy: [28.333334]
Isolation_window: 4.0
Ion_mode: N
Num Peaks: 9
55.3639	2.5
55.3670	4.5
79.9564	7.4
96.9591	2.4
417.3013	3.9
497.2555	19.1
498.2897	100.0
499.2938	27.6
500.2915	6.0

Name: Taurolithocholic Acid
PrecursorMZ: 482.29499
RT: 1.286
ExactMass: 483.30184471
Spectrum_type: 2
charge: -1
Formula: C26H45NO5S
SMILES: C[C@H](CCC(=O)NCCS(=O)(=O)O)[C@H]1CC[C@@H]2[C@@]1(CC[C@H]3[C@H]2CC[C@H]4[C@@]3(CC[C@H](C4)O)C)C
Method: HCD
Collision_energy: [28.333334]
Isolation_window: 4.0
Ion_mode: N
Num Peaks: 14
53.5868	1.8
53.5897	4.6
53.7012	1.1
69.2508	1.1
80.9644	1.2
152.9952	1.1
227.2015	5.9
480.2791	5.7
481.2840	8.9
482.2951	100.0
483.2360	4.6
483.2985	28.1
484.1843	3.3
484.2964	5.5

Name: Tauroursodeoxycholic acid
PrecursorMZ: 498.2897
RT: 2.8974
ExactMass: 499.29675933
Spectrum_type: 2
charge: -1
Formula: C26H45NO6S
SMILES: C[C@H](CCC(=O)NCCS(=O)(=O)O)[C@H]1CC[C@@H]2[C@@]1(CC[C@H]3[C@H]2[C@H](C[C@H]4[C@@]3(CC[C@H](C4)O)C)O)C
Method: HCD
Collision_energy: [28.333334]
Isolation_window: 4.0
Ion_mode: N
Num Peaks: 6
55.3670	4.3
171.9825	3.7
497.1691	5.3
498.2899	100.0
499.2933	26.3
500.2903	5.3

Name: Tectochrysin
PrecursorMZ: 327.08753
RT: 8.3111
ExactMass: 268.07355886
Spectrum_type: 2
charge: -1
Formula: C16H12O4
SMILES: COC1=CC(=C2C(=C1)OC(=CC2=O)C3=CC=CC=C3)O
Method: HCD
Collision_energy: [28.333334]
Isolation_window: 4.0
Ion_mode: N
Num Peaks: 48
59.0130	1.2
78.9582	2.5
80.0261	1.1
93.0335	2.4
102.0552	2.3
115.0029	1.2
119.0494	15.1
120.0528	1.1
121.0288	1.3
128.0346	4.0
135.0444	1.3
145.0654	2.1
146.0452	1.2
153.0917	1.0
160.0399	1.0
163.0394	11.3
165.0552	1.2
176.0478	1.1
195.0451	1.4
197.0605	1.0
209.0615	1.1
211.0757	1.1
223.0775	1.1
224.0847	1.4
237.0922	12.0
238.0959	1.9
238.1435	1.1
239.1080	7.3
240.1102	1.1
282.1356	1.7
283.0641	1.2
283.0976	35.5
284.1010	7.1
299.2595	1.0
325.1014	1.8
325.1840	8.5
326.0883	1.3
326.0976	1.0
326.1299	3.2
326.1854	2.7
327.0873	100.0
327.1805	1.1
327.2118	1.1
327.2180	2.1
328.0236	1.5
328.0901	17.8
329.1014	5.1
329.2327	1.4

Name: Terbuthylazine-TP CSCD692760 (LM3)
PrecursorMZ: 197.06735
RT: 1.19625
ExactMass: 198.07529019
Spectrum_type: 2
charge: -1
Formula: C7H10N4O3
SMILES: CC1(C(N2C(=NC(=O)NC2=O)N1)O)C
Method: HCD
Collision_energy: [28.333334]
Isolation_window: 4.0
Ion_mode: N
Num Peaks: 24
85.0395	1.1
97.0397	3.5
110.0350	0.6
112.0507	0.6
113.0345	1.0
127.0505	1.2
137.0346	1.1
138.0549	1.3
140.0456	2.9
154.0488	17.9
154.0608	1.5
155.0539	0.7
169.0722	11.9
170.0756	0.6
182.0438	2.4
195.0518	2.0
196.0734	1.6
197.0300	0.7
197.0370	0.6
197.0673	100.0
197.0962	0.8
197.1053	0.7
198.0714	7.7
199.0574	1.2

Name: Terrein
PrecursorMZ: 153.05511
RT: 1.0812
ExactMass: 154.062994177
Spectrum_type: 2
charge: -1
Formula: C8H10O3
SMILES: C/C=C/C1=CC(=O)[C@@H]([C@H]1O)O
Method: HCD
Collision_energy: [28.333334]
Isolation_window: 4.0
Ion_mode: N
Num Peaks: 22
59.0130	19.1
66.0088	2.8
74.0027	3.3
101.0136	25.7
108.9334	2.7
109.0287	2.5
122.0365	2.4
123.0443	100.0
124.0478	6.5
126.0089	19.6
128.0246	26.5
135.0444	26.3
136.0157	4.2
151.0395	17.8
152.0346	4.5
152.0462	2.8
152.0708	2.8
153.0194	2.5
153.0294	3.0
153.0550	54.9
154.0592	5.3
155.0349	4.0

Name: Tetradecane-7-sulfonic acid
PrecursorMZ: 277.18376
RT: 0.8431333333333333
ExactMass: 278.19156599
Spectrum_type: 2
charge: -1
Formula: C14H30O3S
SMILES: CCCCCCCC(CCCCCC)S(=O)(=O)O
Method: HCD
Collision_energy: [28.333334]
Isolation_window: 4.0
Ion_mode: N
Num Peaks: 17
69.0465	0.6
79.9487	0.2
79.9563	27.0
79.9598	0.7
80.9642	2.1
81.9520	0.5
97.4635	0.3
205.1593	0.9
233.1540	0.9
275.1685	3.6
276.1719	1.6
277.1199	0.6
277.1349	0.5
277.1839	100.0
277.2463	0.7
278.1872	14.8
279.1804	2.7

Name: Tetrahydrocortisol
PrecursorMZ: 365.23291
RT: 2.4471
ExactMass: 366.24062418
Spectrum_type: 2
charge: -1
Formula: C21H34O5
SMILES: C[C@]12CC[C@H](C[C@H]1CC[C@@H]3[C@@H]2[C@H](C[C@]4([C@H]3CC[C@@]4(C(=O)CO)O)C)O)O
Method: HCD
Collision_energy: [28.333334]
Isolation_window: 4.0
Ion_mode: N
Num Peaks: 23
59.0129	7.5
69.9582	2.2
71.0131	2.5
72.9922	5.6
247.1702	4.4
263.2019	2.6
275.2014	35.1
276.2042	5.1
299.2015	2.2
305.2107	3.5
307.2276	7.6
317.2118	2.3
333.2063	3.9
335.2225	95.4
336.2257	20.4
345.2063	3.9
347.2227	6.7
363.2174	3.0
364.1862	4.5
365.2331	100.0
366.2361	20.7
367.2436	3.8
367.2502	3.0

Name: Tetrahydrocortisone
PrecursorMZ: 409.22363
RT: 2.82035
ExactMass: 364.22497412
Spectrum_type: 2
charge: -1
Formula: C21H32O5
SMILES: C[C@]12CC[C@H](C[C@H]1CC[C@@H]3[C@@H]2C(=O)C[C@]4([C@H]3CC[C@@]4(C(=O)CO)O)C)O
Method: HCD
Collision_energy: [28.333334]
Isolation_window: 4.0
Ion_mode: N
Num Peaks: 59
59.0130	3.8
61.9874	1.3
71.0129	2.1
80.9645	1.3
83.0494	3.2
87.0077	1.6
97.0649	1.9
109.0648	1.4
114.0552	2.1
115.0391	3.1
128.0345	2.5
129.0547	1.4
169.0497	1.9
181.1230	1.4
237.1487	1.2
239.1296	1.4
251.1654	1.4
252.1362	2.5
259.2064	1.8
261.2220	1.7
277.2192	3.9
285.2245	2.2
287.2398	1.6
303.1985	3.9
303.2348	4.4
305.2124	4.1
321.2088	3.7
321.2459	14.2
322.2495	3.0
323.2244	1.6
329.2112	3.9
331.1928	1.3
331.2303	3.8
345.2074	1.4
347.1869	1.7
347.2254	9.5
348.2267	2.1
349.2035	4.1
349.2415	6.2
363.2180	3.2
364.2212	1.5
365.1968	3.4
365.2349	19.1
366.2398	4.5
367.2138	5.0
367.2521	7.8
373.2033	3.1
375.2171	2.9
391.2146	12.0
392.2172	3.1
393.2307	10.5
407.2067	8.5
408.1688	1.6
408.2148	6.9
409.1880	10.4
409.2271	100.0
410.2303	23.4
411.2027	15.2
411.2425	52.4

Name: Teucroxide
PrecursorMZ: 377.16091
RT: 1.3256
ExactMass: 378.16785316
Spectrum_type: 2
charge: -1
Formula: C20H26O7
SMILES: C[C@@H]1C[C@H]([C@@]23CO[C@@]2(C[C@H](CC3[C@@]14CC(OC4=O)C5=COC=C5)O)CO)O
Method: HCD
Collision_energy: [28.333334]
Isolation_window: 4.0
Ion_mode: N
Num Peaks: 54
61.9875	8.0
65.0388	3.2
73.0285	4.1
81.0338	4.9
83.0492	3.4
85.0286	7.6
93.0337	28.1
99.0443	17.0
111.0443	21.5
113.0236	8.1
121.0651	3.4
123.0808	5.2
135.0808	4.9
137.0965	19.7
190.0993	9.0
203.1073	32.2
204.1133	6.6
205.1230	35.3
206.1263	4.8
214.0999	8.9
215.1070	8.8
217.1233	9.7
219.1388	100.0
220.1423	13.4
231.1390	4.4
247.1338	9.8
256.1098	4.0
263.1289	19.9
267.1014	3.8
268.1108	18.1
269.1155	2.9
269.1553	3.0
285.1497	33.2
286.1525	6.6
291.1244	7.2
297.1497	45.7
298.1526	8.8
315.1604	25.3
316.1641	5.8
329.1407	6.1
331.1671	3.2
333.1715	2.8
341.1397	47.2
342.1432	9.3
357.2710	6.9
359.1508	17.0
360.1522	3.3
375.2496	9.8
375.2837	3.4
376.2529	6.9
377.1653	9.9
377.1711	15.6
378.1748	4.6
379.2505	7.4

Name: Tgba01AD
PrecursorMZ: 243.06173
RT: 5.8996
ExactMass: 244.06953611
Spectrum_type: 2
charge: -1
Formula: C9H12N2O6
SMILES: C1=CN(C(=O)NC1=O)C2C(C(C(O2)CO)O)O
Method: HCD
Collision_energy: [28.333334]
Isolation_window: 4.0
Ion_mode: N
Num Peaks: 8
110.0237	48.9
140.0342	5.4
152.0344	8.7
200.0556	18.8
241.2168	100.0
242.2200	26.3
243.0621	14.1
243.1222	6.0

Name: Theobromine
PrecursorMZ: 179.05656
RT: 2.571
ExactMass: 180.06472551
Spectrum_type: 2
charge: -1
Formula: C7H8N4O2
SMILES: CN1C=NC2=C1C(=O)NC(=O)N2C
Method: HCD
Collision_energy: [28.333334]
Isolation_window: 4.0
Ion_mode: N
Num Peaks: 13
57.9746	1.6
69.1047	2.3
69.4267	1.5
97.4650	2.3
98.0057	1.5
122.0351	3.7
133.0478	1.3
133.0650	3.0
135.0443	3.0
164.0332	11.0
177.0386	1.8
179.0567	100.0
180.0604	7.4

Name: Thiophanic acid
PrecursorMZ: 392.88936
RT: 15.3416
ExactMass: 393.896934
Spectrum_type: 2
charge: -1
Formula: C14H6Cl4O5
SMILES: CC1=C2C(=C(C(=C1Cl)O)Cl)OC3=C(C(=C(C(=C3C2=O)O)Cl)O)Cl
Method: HCD
Collision_energy: [28.333334]
Isolation_window: 4.0
Ion_mode: N
Num Peaks: 6
74.9955	100.0
90.9903	32.2
294.9036	34.9
312.9139	35.2
343.8964	80.7
392.8905	43.6

Name: Thiophaninic acid
PrecursorMZ: 338.981
RT: 4.7586
ExactMass: 339.9905288
Spectrum_type: 2
charge: -1
Formula: C15H10Cl2O5
SMILES: CC1=CC(=CC2=C1C(=O)C3=C(C(=C(C(=C3O2)Cl)O)Cl)O)OC
Method: HCD
Collision_energy: [28.333334]
Isolation_window: 4.0
Ion_mode: N
Num Peaks: 23
61.9874	7.6
99.9248	26.9
100.9256	2.6
115.9197	24.5
116.9201	2.9
116.9275	35.6
117.9277	4.1
135.0443	6.1
158.9382	9.1
168.9589	3.3
196.9543	3.2
198.9334	3.9
217.9672	3.9
232.9906	62.8
233.9923	11.2
234.9688	2.9
276.9812	5.1
318.9770	2.8
320.9704	100.0
321.9722	20.7
338.9809	35.0
339.2005	3.1
339.9827	8.0

Name: Thromboxane B1
PrecursorMZ: 371.24397
RT: 4.6835
ExactMass: 372.25118886
Spectrum_type: 2
charge: -1
Formula: C20H36O6
SMILES: CCCCC[C@@H](/C=C/[C@@H]1[C@H]([C@H](CC(O1)O)O)CCCCCCC(=O)O)O
Method: HCD
Collision_energy: [28.333334]
Isolation_window: 4.0
Ion_mode: N
Num Peaks: 22
59.0130	3.8
73.0286	5.5
79.9564	9.6
80.9643	6.2
96.9594	4.2
111.0807	9.5
115.0392	11.5
127.0754	2.2
141.0914	13.8
153.0914	1.9
181.1230	3.6
195.1383	3.3
199.1335	2.9
353.2338	10.9
369.2279	2.1
370.2300	4.1
371.1537	3.7
371.2440	100.0
372.2476	19.6
373.0944	2.4
373.1671	5.7
373.2590	6.8

Name: Thromboxane B3
PrecursorMZ: 367.21255
RT: 4.0659
ExactMass: 368.21988874
Spectrum_type: 2
charge: -1
Formula: C20H32O6
SMILES: CC/C=C\C[C@@H](/C=C/[C@@H]1[C@H]([C@H](CC(O1)O)O)C/C=C\CCCC(=O)O)O
Method: HCD
Collision_energy: [28.333334]
Isolation_window: 4.0
Ion_mode: N
Num Peaks: 12
87.0079	6.0
134.0363	12.4
173.0448	7.8
193.0500	48.3
194.0531	4.9
365.2349	5.5
366.1325	5.7
367.1036	19.3
367.2126	100.0
367.3588	16.9
368.2198	18.8
369.2280	7.2

Name: Tiglylglycine
PrecursorMZ: 156.06596
RT: 5.4367
ExactMass: 157.07389321
Spectrum_type: 2
charge: -1
Formula: C7H11NO3
SMILES: C/C=C(\C)/C(=O)NCC(=O)O
Method: HCD
Collision_energy: [28.333334]
Isolation_window: 4.0
Ion_mode: N
Num Peaks: 21
68.0245	2.1
74.0238	21.1
84.0083	1.8
84.0446	100.0
85.0479	4.2
86.0602	3.9
96.0444	1.1
111.0441	1.0
112.0395	4.4
113.0601	1.0
114.0552	4.5
154.0869	1.1
155.1071	1.0
156.0308	1.0
156.0659	23.9
156.8941	2.9
157.0503	2.8
157.0697	1.1
157.0864	5.4
157.1227	7.4
158.0452	11.2

Name: Trimellitic acid
PrecursorMZ: 209.00883
RT: 7.6971
ExactMass: 210.01643791
Spectrum_type: 2
charge: -1
Formula: C9H6O6
SMILES: C1=CC(=C(C=C1C(=O)O)C(=O)O)C(=O)O
Method: HCD
Collision_energy: [28.333334]
Isolation_window: 4.0
Ion_mode: N
Num Peaks: 13
109.0285	5.7
110.0240	5.7
121.0287	100.0
122.0320	7.0
124.0399	6.1
165.0187	53.4
165.0551	6.3
181.0497	6.1
208.0627	6.3
209.0085	6.8
209.0456	24.2
210.0750	7.6
211.0258	6.3

Name: Trinexapac
PrecursorMZ: 223.061
RT: 0.625
ExactMass: 224.06847348
Spectrum_type: 2
charge: -1
Formula: C11H12O5
SMILES: C1CC1C(=C2C(=O)CC(CC2=O)C(=O)O)O
Method: HCD
Collision_energy: [28.333334]
Isolation_window: 4.0
Ion_mode: N
Num Peaks: 25
107.0493	0.3
135.0809	0.6
136.0759	0.5
137.0483	0.4
137.0586	0.4
137.0964	0.3
161.0601	0.3
179.0700	7.1
179.0819	0.9
179.1190	0.4
180.0732	0.6
195.0659	0.5
205.0505	0.4
207.0293	0.7
208.0367	0.6
221.0805	1.0
221.1535	1.3
222.1574	0.3
223.0147	0.5
223.0252	1.1
223.0609	100.0
223.0966	0.7
223.1063	0.5
224.0643	11.7
225.0654	0.9

Name: Trinexapac-ethyl
PrecursorMZ: 251.09195
RT: 2.71
Spectrum_type: 2
charge: -1
SMILES: CCOC(=O)C1CC(=O)C(=C(C2CC2)O)C(=O)C1
Method: HCD
Collision_energy: [28.333334]
Isolation_window: 4.0
Ion_mode: N
Num Peaks: 49
59.0129	2.2
72.9921	3.7
79.9563	3.2
80.9643	2.2
83.0492	2.0
96.9590	2.2
101.0235	4.8
121.0285	100.0
122.0317	6.7
123.0440	2.4
133.0651	1.8
135.0442	3.4
137.0598	1.7
139.0392	1.6
147.0802	1.7
149.0600	3.0
149.0962	2.7
161.0599	1.6
163.0393	2.2
163.0755	5.4
165.0659	1.7
165.0909	2.8
177.0550	2.7
179.0699	2.1
184.9993	10.0
185.5008	3.1
189.0546	6.1
205.0854	2.0
206.0813	6.9
207.0647	7.4
207.0992	3.4
207.1381	3.8
208.0966	3.1
209.0785	1.8
249.0787	24.3
249.1113	1.6
249.5801	11.1
250.0404	2.2
250.0736	8.1
250.1155	2.1
251.0548	8.7
251.0910	55.1
251.1274	18.6
252.0544	2.2
252.0923	8.5
252.1258	3.4
252.5906	4.1
253.0701	11.4
253.1061	2.1

Name: Tug-891
PrecursorMZ: 363.14071
RT: 2.7819
ExactMass: 364.14747269
Spectrum_type: 2
charge: -1
Formula: C23H21FO3
SMILES: CC1=CC=C(C=C1)C2=C(C=C(C=C2)F)COC3=CC=C(C=C3)CCC(=O)O
Method: HCD
Collision_energy: [28.333334]
Isolation_window: 4.0
Ion_mode: N
Num Peaks: 39
58.0288	1.4
59.0129	36.3
61.9875	2.2
71.0129	7.7
72.9921	2.2
83.0128	6.0
89.0234	24.5
98.0601	4.1
100.0394	70.4
101.0234	43.0
101.0424	2.8
102.0268	1.7
109.0284	2.3
119.0340	55.8
120.0373	2.7
128.0343	4.1
135.0441	3.0
136.0758	2.1
138.0551	6.1
140.0348	2.1
142.0500	24.9
143.0537	1.4
154.0501	7.2
160.0606	3.5
182.0448	14.7
191.0561	1.7
220.0825	2.2
239.0556	3.7
257.1293	18.1
258.1328	2.8
272.0768	2.1
273.0880	2.4
345.1087	5.3
361.1135	2.6
362.1169	4.3
363.1417	100.0
364.1243	17.4
365.1027	2.2
365.1974	1.5

Name: UDP-N-acetylgalactosamine
PrecursorMZ: 606.07473
RT: 8.4107
ExactMass: 607.0815704
Spectrum_type: 2
charge: -1
Formula: C17H27N3O17P2
SMILES: CC(=O)N[C@@H]1[C@H]([C@H]([C@H](O[C@@H]1OP(=O)(O)OP(=O)(O)OC[C@@H]2[C@H]([C@H]([C@@H](O2)N3C=CC(=O)NC3=O)O)O)CO)O)O
Method: HCD
Collision_energy: [28.333334]
Isolation_window: 4.0
Ion_mode: N
Num Peaks: 47
67.3397	2.3
67.3438	4.4
78.9581	63.1
78.9617	1.2
87.0079	2.3
96.9595	2.5
96.9687	18.8
111.0191	11.6
128.0345	1.6
135.0446	0.9
150.9796	1.0
158.9247	41.9
162.9797	1.3
167.0017	0.9
174.9796	4.0
176.9354	16.5
192.9914	0.9
211.0012	1.6
240.0280	1.4
246.0175	1.5
254.9468	0.8
260.9570	5.0
264.0277	2.3
272.9572	37.9
273.9606	1.7
282.0385	29.3
283.0416	2.1
300.0490	5.4
305.0181	5.5
323.0287	7.3
343.9943	2.0
362.0053	8.5
383.3524	1.0
384.9847	32.4
385.9875	2.7
402.9954	7.9
403.1485	0.8
508.0973	0.9
604.4652	7.5
605.1782	1.0
605.4659	3.3
606.0752	100.0
606.1569	1.5
606.2333	1.3
606.4556	1.6
607.0776	16.1
608.0783	3.2

Name: Undulatoside A
PrecursorMZ: 353.08831
RT: 1.0156
ExactMass: 354.09508215
Spectrum_type: 2
charge: -1
Formula: C16H18O9
SMILES: CC1=CC(=O)C2=C(C=C(C=C2O1)O[C@H]3[C@@H]([C@H]([C@@H]([C@H](O3)CO)O)O)O)O
Method: HCD
Collision_energy: [28.333334]
Isolation_window: 4.0
Ion_mode: N
Num Peaks: 64
59.0130	11.9
61.9875	6.3
71.0128	6.3
72.9921	10.8
80.9643	9.5
85.0286	7.4
87.0079	13.6
96.9592	17.5
99.0443	5.5
101.0233	5.5
111.0443	8.1
113.0236	8.4
114.0552	6.1
116.0707	7.3
123.0447	7.1
124.0396	7.6
125.0238	6.5
125.0599	5.3
128.0345	8.1
135.0444	6.6
137.0601	9.1
138.0552	7.4
139.0393	8.3
149.0603	5.5
151.0756	5.5
165.0550	7.2
166.0869	7.3
177.0542	5.4
177.0919	5.8
181.0498	11.1
191.0704	6.4
205.0865	5.5
210.0768	5.7
225.0759	6.7
238.0720	6.3
247.2074	9.4
249.0765	6.5
263.2013	17.0
280.0831	5.5
291.0883	6.2
291.1970	11.0
307.1196	6.1
307.1914	20.6
309.0981	12.9
309.2065	19.5
326.0879	6.1
335.0770	5.4
335.1863	13.0
351.0721	16.3
351.1095	67.2
351.1810	33.9
352.0735	5.6
352.1080	39.7
352.1809	10.5
353.0874	100.0
353.1264	51.4
353.1969	77.5
354.0845	61.6
354.1266	27.4
354.1981	16.5
355.0674	13.6
355.1033	41.7
355.1760	11.0
355.2130	13.9

Name: Uracil Arabinoside
PrecursorMZ: 289.06713
RT: 1.54335
ExactMass: 244.06953611
Spectrum_type: 2
charge: -1
Formula: C9H12N2O6
SMILES: C1=CN(C(=O)NC1=O)[C@H]2[C@H]([C@@H]([C@H](O2)CO)O)O
Method: HCD
Collision_energy: [28.333334]
Isolation_window: 4.0
Ion_mode: N
Num Peaks: 41
59.0128	25.9
61.9873	64.5
71.0127	12.9
84.0080	17.4
85.0283	10.0
87.0076	4.0
89.0233	9.7
97.0284	4.3
100.0392	4.0
101.0233	8.8
110.0236	27.7
111.0189	26.1
111.0273	3.8
112.0391	4.3
113.0231	5.4
113.0345	8.8
124.0394	5.0
125.0233	6.1
128.0342	7.1
140.0341	5.3
143.0338	11.8
152.0341	7.4
153.0293	3.8
154.0494	4.4
155.0451	16.1
156.0653	8.4
174.0399	9.0
188.0919	3.7
200.0554	31.3
201.0590	4.0
243.0614	100.0
244.0634	18.9
245.0776	69.7
246.0774	5.2
247.0815	5.3
287.0760	8.0
287.1230	6.6
288.1076	23.0
289.0906	14.0
290.1232	14.0
291.1069	6.6

Name: Uridine Diphosphate N-Acetylglucosamine
PrecursorMZ: 606.07465
RT: 8.1092
ExactMass: 607.0815704
Spectrum_type: 2
charge: -1
Formula: C17H27N3O17P2
SMILES: CC(=O)N[C@@H]1[C@H]([C@@H]([C@H](O[C@H]1OP(=O)(O)OP(=O)(O)OC[C@@H]2[C@H]([C@H]([C@@H](O2)N3C=CC(=O)NC3=O)O)O)CO)O)O
Method: HCD
Collision_energy: [28.333334]
Isolation_window: 4.0
Ion_mode: N
Num Peaks: 12
78.9581	52.3
96.9688	14.3
111.0190	8.7
158.9248	30.4
176.9355	15.9
272.9574	32.3
282.0384	32.0
362.0051	8.7
384.9846	32.0
402.9940	8.0
606.0749	100.0
607.0779	19.5

Name: Uridine diphosphate-N-acetylgalactosamine
PrecursorMZ: 606.07458
RT: 8.2508
ExactMass: 607.0815704
Spectrum_type: 2
charge: -1
Formula: C17H27N3O17P2
SMILES: CC(=O)NC1C(C(C(OC1OP(=O)(O)OP(=O)(O)OCC2C(C(C(O2)N3C=CC(=O)NC3=O)O)O)CO)O)O
Method: HCD
Collision_energy: [28.333334]
Isolation_window: 4.0
Ion_mode: N
Num Peaks: 14
78.9581	49.8
96.9686	14.1
111.0189	8.2
158.9247	33.2
176.9354	13.5
272.9570	30.4
282.0389	24.8
300.0487	5.6
323.0281	5.6
362.0049	9.2
384.9849	26.8
402.9972	5.4
606.0749	100.0
607.0774	15.9

Name: Urs-12-ene-24,28-dioic acid, 3,19-dihydroxy-, (3beta,5xi,9xi,18xi)-
PrecursorMZ: 501.32173
RT: 2.5026
ExactMass: 502.32943918
Spectrum_type: 2
charge: -1
Formula: C30H46O6
SMILES: C[C@@H]1CC[C@@]2(CC[C@@]3(C(=CCC4[C@]3(CCC5[C@@]4(CC[C@@H]([C@]5(C)C(=O)O)O)C)C)C2[C@]1(C)O)C)C(=O)O
Method: HCD
Collision_energy: [28.333334]
Isolation_window: 4.0
Ion_mode: N
Num Peaks: 22
55.7039	4.3
59.0129	4.0
69.1802	3.6
69.1839	4.9
69.1920	5.1
69.1959	5.3
69.2099	5.1
69.2213	4.3
69.2388	4.1
97.4650	3.5
105.0548	6.9
425.3048	4.0
437.3037	4.7
437.3068	5.5
439.3218	5.6
483.3113	13.6
484.3122	4.4
484.3168	4.9
501.3220	100.0
502.3256	30.6
503.3304	5.9
503.3380	25.2

Name: Ursocholic acid
PrecursorMZ: 453.28634
RT: 1.4914333333333334
ExactMass: 408.28757437
Spectrum_type: 2
charge: -1
Formula: C24H40O5
SMILES: C[C@H](CCC(=O)O)[C@H]1CC[C@@H]2[C@@]1([C@H](C[C@H]3[C@H]2[C@H](C[C@H]4[C@@]3(CC[C@H](C4)O)C)O)O)C
Method: HCD
Collision_energy: [28.333334]
Isolation_window: 4.0
Ion_mode: N
Num Peaks: 52
50.3623	4.3
50.3664	5.5
50.5863	3.8
57.0337	3.8
59.0130	10.5
69.0336	2.5
71.0129	4.1
71.0493	3.2
73.0285	3.3
83.0493	5.1
87.0443	4.7
97.0650	3.2
109.0650	2.5
114.0552	3.2
115.0392	6.4
128.0341	2.8
143.0700	2.5
145.0499	4.6
183.1019	2.5
201.1128	3.3
209.1541	5.6
215.1285	4.3
235.1337	2.3
253.1441	7.4
271.1551	3.5
321.2440	2.8
375.2548	2.3
391.2443	3.5
391.2875	2.4
393.2654	3.9
407.2819	2.3
408.2887	2.8
409.2570	3.7
409.3025	14.4
410.3058	3.6
411.2754	2.7
417.2684	4.0
419.2437	2.3
434.2634	2.5
435.2282	2.4
435.2833	15.0
436.2850	3.7
437.2459	7.9
451.2717	13.7
452.2794	18.0
453.2405	29.2
453.2861	100.0
454.2417	6.8
454.2889	24.9
455.2564	66.6
455.3052	9.7
455.3108	12.0

Name: Usnic Acid
PrecursorMZ: 343.08203
RT: 3.4181
ExactMass: 344.08960285
Spectrum_type: 2
charge: -1
Formula: C18H16O7
SMILES: CC1=C(C(=C2C(=C1O)C3(C(=CC(=O)C(C3=O)C(=O)C)O2)C)C(=O)C)O
Method: HCD
Collision_energy: [28.333334]
Isolation_window: 4.0
Ion_mode: N
Num Peaks: 27
59.0128	1.6
108.0207	1.7
109.0285	35.6
110.0318	2.3
145.0649	14.5
146.0685	1.4
161.0600	1.8
171.0442	1.6
189.0549	3.2
215.0339	2.2
227.1081	1.4
237.0919	2.8
238.0630	2.2
239.0708	25.9
240.0752	4.7
253.0867	10.5
254.0904	2.0
255.1022	53.9
256.1057	9.0
281.0818	8.4
282.0859	1.4
299.0920	16.3
300.0944	2.7
325.0716	8.2
326.0740	1.4
343.0818	100.0
344.0852	18.8

Name: Vaccinoside
PrecursorMZ: 535.14582
RT: 5.3458
ExactMass: 536.15299094
Spectrum_type: 2
charge: -1
Formula: C25H28O13
SMILES: C1=CC(C2C1C(=COC2O[C@H]3[C@@H]([C@H]([C@@H]([C@H](O3)CO)O)O)O)C(=O)O)(COC(=O)/C=C/C4=CC=C(C=C4)O)O
Method: HCD
Collision_energy: [28.333334]
Isolation_window: 4.0
Ion_mode: N
Num Peaks: 13
59.4623	4.2
87.0077	4.6
96.9591	8.4
135.0443	17.2
161.0239	4.9
173.0448	26.6
181.0500	13.5
191.0554	97.6
192.0590	7.7
533.1287	4.8
534.1346	5.2
535.1457	100.0
536.1490	25.6

Name: Vaccinoside.
PrecursorMZ: 535.14596
RT: 4.7824
ExactMass: 536.15299094
Spectrum_type: 2
charge: -1
Formula: C25H28O13
SMILES: C1=C[C@@]([C@@H]2[C@H]1C(=CO[C@H]2O[C@H]3[C@@H]([C@H]([C@@H]([C@H](O3)CO)O)O)O)C(=O)O)(COC(=O)/C=C/C4=CC=C(C=C4)O)O
Method: HCD
Collision_energy: [28.333334]
Isolation_window: 4.0
Ion_mode: N
Num Peaks: 18
59.4623	4.1
87.0077	4.5
93.0336	3.0
109.0283	2.8
135.0442	19.3
161.0237	5.0
173.0448	26.8
179.0341	5.0
181.0500	13.7
191.0554	100.0
192.0589	7.9
255.0661	2.6
361.0918	5.3
533.1267	4.0
534.1290	5.5
535.1456	89.5
536.1486	26.4
537.1504	3.1

Name: Val-Ala
PrecursorMZ: 187.10828
RT: 2.136
ExactMass: 188.11609238
Spectrum_type: 2
charge: -1
Formula: C8H16N2O3
SMILES: C[C@@H](C(=O)O)NC(=O)[C@H](C(C)C)N
Method: HCD
Collision_energy: [28.333334]
Isolation_window: 4.0
Ion_mode: N
Num Peaks: 14
58.0290	1.2
72.0083	1.3
74.0238	10.5
88.0395	21.0
115.0866	1.2
116.0709	2.2
126.0919	1.1
130.0866	1.2
143.1182	31.7
144.1216	2.4
186.0295	1.6
187.0728	1.5
187.1082	100.0
188.1116	9.3

Name: Val-Glu
PrecursorMZ: 245.11407
RT: 7.7034
ExactMass: 246.12157168
Spectrum_type: 2
charge: -1
Formula: C10H18N2O5
SMILES: CC(C)[C@@H](C(=O)N[C@@H](CCC(=O)O)C(=O)O)N
Method: HCD
Collision_energy: [28.333334]
Isolation_window: 4.0
Ion_mode: N
Num Peaks: 14
102.0551	9.3
115.0868	17.8
116.0709	78.3
128.0345	35.6
130.0869	5.2
144.0658	8.8
157.1339	26.2
183.1135	12.1
201.1240	53.9
202.1278	4.9
227.1035	35.3
245.1143	100.0
246.0983	4.2
246.1183	8.7

Name: Valsartan
PrecursorMZ: 434.21882
RT: 2.6368
ExactMass: 435.2270398
Spectrum_type: 2
charge: -1
Formula: C24H29N5O3
SMILES: CCCCC(=O)N(CC1=CC=C(C=C1)C2=CC=CC=C2C3=NNN=N3)[C@@H](C(C)C)C(=O)O
Method: HCD
Collision_energy: [28.333334]
Isolation_window: 4.0
Ion_mode: N
Num Peaks: 29
59.0130	1.4
71.0130	6.2
74.0239	1.5
88.0395	21.2
89.0234	1.5
90.9326	1.7
100.9406	1.2
114.0552	1.5
115.0028	21.1
116.0708	1.9
128.0345	3.5
130.0866	2.1
132.0295	6.8
188.0924	1.2
232.0132	2.0
318.2076	17.3
319.1903	30.8
320.1938	4.1
390.2291	13.9
391.2336	3.2
433.1164	4.1
433.1727	1.5
434.1224	1.3
434.1677	3.8
434.2192	100.0
435.1100	2.0
435.2237	24.8
436.1800	2.4
436.2276	1.4

Name: Veratric Acid
PrecursorMZ: 181.04981
RT: 1.965
ExactMass: 182.0579088
Spectrum_type: 2
charge: -1
Formula: C9H10O4
SMILES: COC1=C(C=C(C=C1)C(=O)O)OC
Method: HCD
Collision_energy: [28.333334]
Isolation_window: 4.0
Ion_mode: N
Num Peaks: 33
79.9563	6.4
80.9642	4.1
96.9590	3.7
99.0078	2.4
100.0394	2.4
108.0445	17.0
109.0287	1.5
109.0648	28.2
110.0678	1.5
116.0708	2.2
120.0445	1.5
121.9544	1.5
122.0364	58.9
123.0394	4.0
124.0506	22.5
135.0443	3.1
137.0599	7.4
137.0959	2.0
138.0551	100.0
139.0586	3.9
148.9907	3.8
162.9699	2.4
179.9968	7.7
180.0322	3.9
180.1019	3.7
181.0166	5.4
181.0498	8.0
181.0723	16.7
181.1587	3.2
182.0451	36.4
183.0317	3.3
183.0489	1.7
183.0658	1.9

Name: Verbascose
PrecursorMZ: 827.26753
RT: 11.0925
ExactMass: 828.27468176
Spectrum_type: 2
charge: -1
Formula: C30H52O26
SMILES: C([C@@H]1[C@@H]([C@@H]([C@H]([C@H](O1)OC[C@@H]2[C@@H]([C@@H]([C@H]([C@H](O2)OC[C@@H]3[C@@H]([C@@H]([C@H]([C@H](O3)OC[C@@H]4[C@H]([C@@H]([C@H]([C@H](O4)O[C@]5([C@H]([C@@H]([C@H](O5)CO)O)O)CO)O)O)O)O)O)O)O)O)O)O)O)O)O
Method: HCD
Collision_energy: [28.333334]
Isolation_window: 4.0
Ion_mode: N
Num Peaks: 8
71.0129	33.0
89.0234	65.5
101.0234	37.8
179.0554	62.2
221.0661	26.7
383.1193	44.1
827.2689	100.0
828.2742	32.9

Name: Zeatin
PrecursorMZ: 218.10385
RT: 6.6489
ExactMass: 219.11201006
Spectrum_type: 2
charge: -1
Formula: C10H13N5O
SMILES: C/C(=C\CNC1=NC=NC2=C1NC=N2)/CO
Method: HCD
Collision_energy: [28.333334]
Isolation_window: 4.0
Ion_mode: N
Num Peaks: 11
82.0401	7.4
106.0401	3.9
133.0508	5.9
134.0462	7.9
147.0670	3.2
159.0670	3.1
160.0620	100.0
161.0658	7.0
218.1041	50.6
219.1071	6.1
219.1749	7.8

Name: alisol C 23-acetate
PrecursorMZ: 527.33822
RT: 3.2893
ExactMass: 528.34508925
Spectrum_type: 2
charge: -1
Formula: C32H48O6
SMILES: C[C@H](C[C@@H]([C@@H]1C(O1)(C)C)OC(=O)C)C2=C3C[C@@H]([C@H]4[C@]5(CCC(=O)C([C@@H]5CC[C@@]4([C@]3(CC2=O)C)C)(C)C)C)O
Method: HCD
Collision_energy: [28.333334]
Isolation_window: 4.0
Ion_mode: N
Num Peaks: 19
58.4744	1.6
58.4777	4.7
58.5891	1.4
91.0544	2.1
96.9592	6.7
135.0445	5.0
277.2167	1.6
287.2225	1.5
311.2043	2.3
391.2860	47.8
392.2894	11.3
525.3861	6.2
526.2850	100.0
526.3657	5.4
527.2876	30.1
527.3879	5.3
528.2885	9.7
528.3963	1.6
529.3020	2.2

Name: allo-Pertusaric acid
PrecursorMZ: 365.23298
RT: 5.0784
ExactMass: 366.24062418
Spectrum_type: 2
charge: -1
Formula: C21H34O5
SMILES: CC(=O)CCCCCCCCCCCCC[C@H]1[C@H](C(=C)C(=O)O1)C(=O)O
Method: HCD
Collision_energy: [28.333334]
Isolation_window: 4.0
Ion_mode: N
Num Peaks: 4
335.1861	4.9
365.1951	10.2
365.2334	100.0
366.2365	24.1

Name: alpha-D-Glucopyranose
PrecursorMZ: 225.06081
RT: 12.9782
ExactMass: 180.0633881
Spectrum_type: 2
charge: -1
Formula: C6H12O6
SMILES: C([C@@H]1[C@H]([C@@H]([C@H]([C@H](O1)O)O)O)O)O
Method: HCD
Collision_energy: [28.333334]
Isolation_window: 4.0
Ion_mode: N
Num Peaks: 9
59.0128	64.8
71.0128	48.5
89.0232	100.0
101.0232	28.2
113.0231	23.2
119.0338	37.5
179.0551	14.4
184.0606	21.5
227.0658	12.3

Name: alpha-D-lactose
PrecursorMZ: 341.10796
RT: 9.9616
ExactMass: 342.11621151
Spectrum_type: 2
charge: -1
Formula: C12H22O11
SMILES: C([C@@H]1[C@@H]([C@@H]([C@H]([C@@H](O1)O[C@@H]2[C@H](O[C@@H]([C@@H]([C@H]2O)O)O)CO)O)O)O)O
Method: HCD
Collision_energy: [28.333334]
Isolation_window: 4.0
Ion_mode: N
Num Peaks: 7
59.0129	44.8
71.0129	38.1
89.0234	100.0
91.0391	40.8
101.0235	52.0
179.0555	56.9
341.1084	70.0

Name: alpha-Hydroxydeoxycholic acid
PrecursorMZ: 391.2857
RT: 1.3582
ExactMass: 392.29265975
Spectrum_type: 2
charge: -1
Formula: C24H40O4
SMILES: CC(CCC(=O)O)[C@H]1CCC2[C@@]1(CCC3C2C[C@@H]([C@H]4[C@@]3(CC[C@H](C4)O)C)O)C
Method: HCD
Collision_energy: [28.333334]
Isolation_window: 4.0
Ion_mode: N
Num Peaks: 18
61.9875	1.6
85.9989	0.7
115.9197	0.8
160.0611	1.0
188.0915	0.7
190.0716	2.4
202.0714	1.0
204.0875	1.4
345.2807	1.7
365.3067	0.8
389.2702	1.4
390.2726	1.7
391.1297	0.8
391.2856	100.0
391.3904	0.7
392.1389	0.7
392.2890	26.2
393.2921	2.4

Name: alpha-Kainic acid
PrecursorMZ: 212.09238
RT: 4.6943
ExactMass: 213.10010796
Spectrum_type: 2
charge: -1
Formula: C10H15NO4
SMILES: CC(=C)[C@H]1CN[C@@H]([C@H]1CC(=O)O)C(=O)O
Method: HCD
Collision_energy: [28.333334]
Isolation_window: 4.0
Ion_mode: N
Num Peaks: 114
57.0337	2.2
59.0130	8.2
69.0336	2.0
71.0129	1.5
71.0493	2.2
72.9922	12.6
73.0286	2.0
79.9565	2.2
80.9643	5.2
81.0336	2.3
82.0289	20.3
83.0129	1.9
83.0493	2.3
85.0286	2.8
85.0652	1.7
86.0239	3.0
87.0078	5.6
87.0442	1.6
95.0494	3.3
96.0446	8.8
96.9592	7.8
97.0286	6.1
97.0650	1.8
98.0239	91.5
98.0602	1.6
99.0079	1.6
99.0272	3.8
99.0444	1.9
100.0395	2.0
107.0494	4.9
109.0162	1.4
109.0286	5.9
109.0399	4.3
109.0650	4.1
110.0238	1.6
111.0318	11.6
111.0438	3.7
111.0807	5.5
112.0396	17.3
112.0759	7.5
113.0236	3.5
113.0598	3.9
122.0602	1.5
123.0443	6.4
123.0554	1.8
123.0808	11.1
124.0397	3.3
125.0237	2.3
125.0474	12.8
125.0599	4.6
125.0962	5.4
126.0555	10.9
127.0758	2.2
135.0444	6.8
137.0601	3.4
137.0965	3.0
138.0314	1.8
139.0394	8.7
139.0758	8.4
139.1121	35.4
140.0709	66.5
141.0556	2.2
141.0746	4.1
141.0913	1.8
142.1233	2.2
149.0602	5.4
149.0965	2.2
150.0914	4.4
151.0395	3.6
151.0759	6.9
151.1121	7.9
152.0461	2.9
152.0705	2.1
153.0553	3.2
158.0605	22.2
165.0553	2.8
166.0492	3.2
166.0863	3.1
167.0707	9.2
167.1065	2.7
168.0651	3.9
168.1024	100.0
169.0498	2.7
169.0681	1.7
169.0862	3.6
169.1057	10.4
169.1225	4.6
170.0451	2.9
170.0816	1.5
170.1181	7.2
193.0498	4.3
193.0869	1.3
195.0657	4.0
210.0407	4.2
210.0770	1.4
210.0793	2.2
211.0095	1.5
211.0274	3.5
211.0610	28.7
211.0950	2.5
211.0962	3.4
211.1334	18.5
212.0570	13.3
212.0923	51.5
212.1353	2.6
213.0213	1.4
213.0407	2.7
213.0591	2.1
213.0772	32.2
213.0968	2.7
213.1128	63.4
214.0709	2.7
214.0860	5.0
214.1113	3.4

Name: alpha-L-Rhamnose
PrecursorMZ: 209.067
RT: 3.4806
ExactMass: 164.06847348
Spectrum_type: 2
charge: -1
Formula: C6H12O5
SMILES: C[C@H]1[C@@H]([C@H]([C@H]([C@@H](O1)O)O)O)O
Method: HCD
Collision_energy: [28.333334]
Isolation_window: 4.0
Ion_mode: N
Num Peaks: 15
59.0130	89.7
71.0129	45.4
85.0283	13.6
89.0235	100.0
101.0235	79.3
113.0237	10.1
119.0341	48.6
149.0454	10.2
164.0346	22.0
166.0980	19.8
208.0268	10.2
208.0629	21.5
210.0903	42.2
211.0266	19.5
211.0832	73.5

Name: alpha-L-glutamyl-L-glutamine
PrecursorMZ: 274.1043
RT: 8.6718
ExactMass: 275.11173527
Spectrum_type: 2
charge: -1
Formula: C10H17N3O6
SMILES: C(CC(=O)O)[C@@H](C(=O)N[C@@H](CCC(=O)N)C(=O)O)N
Method: HCD
Collision_energy: [28.333334]
Isolation_window: 4.0
Ion_mode: N
Num Peaks: 59
59.0130	11.8
71.0130	9.0
74.0239	6.8
84.0447	5.7
85.0283	5.8
87.0080	6.8
88.0395	51.5
92.0498	10.4
94.0289	5.9
95.0242	33.2
97.0397	6.0
98.0239	9.1
100.0396	16.2
110.0354	7.6
112.0509	9.2
114.0551	8.5
116.0495	8.1
116.0711	6.6
126.0666	6.3
127.0504	22.0
128.0345	18.8
128.0707	7.6
131.0822	6.4
140.0821	23.9
145.0610	52.0
145.0974	22.0
152.0823	6.5
154.0614	31.4
157.0614	7.4
168.0766	5.8
171.1134	7.2
172.0975	5.5
173.0926	73.6
184.0722	100.0
185.0754	5.8
185.1085	13.4
187.1083	7.8
194.0939	9.2
203.1032	25.0
212.0928	7.7
212.1060	7.0
215.1035	9.2
229.0985	24.8
229.1198	15.5
230.0817	5.6
230.1154	33.4
233.1141	16.8
238.0834	9.8
256.0941	28.1
256.0968	13.1
272.1249	7.4
273.1094	66.2
273.1469	7.9
273.1832	5.9
274.1056	40.1
274.1390	14.8
275.1253	75.1
275.1612	9.2
276.1271	5.6

Name: apigenin-6,8-C-dipentoside
PrecursorMZ: 533.13016
RT: 9.014
ExactMass: 534.13734088
Spectrum_type: 2
charge: -1
Formula: C25H26O13
SMILES: C1C(C(C(C(O1)C2=C(C(=C3C(=C2O)C(=O)C=C(O3)C4=CC=C(C=C4)O)C5C(C(C(CO5)O)O)O)O)O)O)O
Method: HCD
Collision_energy: [28.333334]
Isolation_window: 4.0
Ion_mode: N
Num Peaks: 56
59.0131	1.6
59.2352	1.4
59.2385	2.3
71.0130	2.0
85.0286	2.6
87.0079	2.5
93.0337	2.6
109.0286	10.0
111.0443	1.9
113.0235	1.5
115.0031	1.3
127.0395	1.4
128.0346	4.7
129.0187	1.2
132.0292	2.0
135.0444	25.5
136.0479	1.4
137.0237	1.4
146.0453	2.0
149.0601	16.7
155.0344	3.1
161.0238	1.9
161.0601	28.6
162.0636	2.3
173.0450	36.7
174.0487	1.9
179.0344	13.2
181.0501	2.7
187.0397	2.4
190.0716	3.1
191.0556	100.0
192.0592	5.6
192.0872	1.6
205.0501	5.9
231.0300	4.5
255.0662	33.3
256.0697	4.2
269.0820	3.7
270.0843	1.4
271.0977	13.2
272.1004	1.5
297.0755	2.7
313.0724	1.8
315.0875	13.5
316.0915	2.8
341.0668	14.7
342.0704	2.0
353.0879	11.3
359.0774	52.2
360.0801	8.8
361.0879	2.1
532.0604	1.4
532.1452	3.5
533.1289	61.8
534.1305	15.6
535.1424	8.9

Name: beta-D-Fructofuranosyl 6-O-(4-hydroxybenzoyl)-alpha-D-glucopyranoside
PrecursorMZ: 461.13014
RT: 6.974
ExactMass: 462.13734088
Spectrum_type: 2
charge: -1
Formula: C19H26O13
SMILES: C1=CC(=CC=C1C(=O)OC[C@@H]2[C@H]([C@@H]([C@H]([C@H](O2)O[C@]3([C@H]([C@@H]([C@H](O3)CO)O)O)CO)O)O)O)O
Method: HCD
Collision_energy: [28.333334]
Isolation_window: 4.0
Ion_mode: N
Num Peaks: 7
93.0336	11.0
137.0237	100.0
179.0341	11.8
239.0560	19.3
281.0663	9.9
461.1300	59.1
462.1350	12.6

Name: beta-D-Glucopyranose, 1-O-((2alpha,3beta,5xi,9xi,18xi)-2,3,19,24-tetrahydroxy-24,28-dioxoolean-12-en-28-yl)-
PrecursorMZ: 679.36967
RT: 5.5929
ExactMass: 680.37717722
Spectrum_type: 2
charge: -1
Formula: C36H56O12
SMILES: C[C@@]12CCC3[C@@](C1CC=C4[C@]2(CC[C@@]5(C4C(C(CC5)(C)C)O)C(=O)O[C@H]6[C@@H]([C@H]([C@@H]([C@H](O6)CO)O)O)O)C)(C[C@H]([C@@H]([C@]3(C)C(=O)O)O)O)C
Method: HCD
Collision_energy: [28.333334]
Isolation_window: 4.0
Ion_mode: N
Num Peaks: 12
75.4880	4.2
140.0111	2.5
437.3067	2.9
455.3157	4.2
471.3127	4.0
499.3068	6.3
517.3170	57.4
518.3201	18.4
677.5121	3.4
679.3699	100.0
680.3738	34.1
681.3743	5.5

Name: beta-D-Glucopyranoside, 5-methyl-2-(1-methylethyl)phenyl
PrecursorMZ: 311.1505
RT: 0.6506
ExactMass: 312.15728848
Spectrum_type: 2
charge: -1
Formula: C16H24O6
SMILES: CC1=CC(=C(C=C1)C(C)C)O[C@H]2[C@@H]([C@H]([C@@H]([C@H](O2)CO)O)O)O
Method: HCD
Collision_energy: [28.333334]
Isolation_window: 4.0
Ion_mode: N
Num Peaks: 64
57.0343	4.0
59.0136	4.8
61.9881	1.6
69.0343	1.6
71.0136	1.8
72.9923	1.8
79.9572	1.6
80.9643	2.7
83.0492	3.1
85.0294	1.8
87.0078	3.4
89.0234	2.5
95.0493	1.7
97.0650	2.3
99.0079	2.7
109.0652	1.9
111.0450	1.6
113.0235	1.8
114.0550	1.8
123.0445	1.8
123.0815	1.6
128.0344	3.3
130.0867	1.9
135.1172	2.2
137.0606	1.8
137.0966	2.2
163.1123	1.8
177.1278	1.8
179.1078	1.6
181.0499	2.0
205.0500	2.5
205.1593	18.9
206.1623	2.5
207.1753	4.4
209.1184	1.6
223.1700	16.5
224.1737	2.3
231.1383	3.0
233.1535	2.0
249.1496	21.2
250.1531	3.2
251.1654	9.7
267.1263	3.3
267.1602	55.5
268.1633	9.2
269.1760	5.7
293.1402	7.5
295.1553	10.3
309.1017	4.2
309.1350	1.6
309.1709	3.7
310.0976	9.7
310.1345	2.4
310.1737	1.7
311.0811	10.2
311.1171	8.3
311.1498	100.0
311.1825	4.1
312.0771	2.3
312.1121	4.0
312.1526	18.9
313.0930	4.0
313.1321	3.5
313.1657	51.8

Name: beta-D-Mannopyranose
PrecursorMZ: 179.05555
RT: 3.5998
ExactMass: 180.0633881
Spectrum_type: 2
charge: -1
Formula: C6H12O6
SMILES: C([C@@H]1[C@H]([C@@H]([C@@H]([C@@H](O1)O)O)O)O)O
Method: HCD
Collision_energy: [28.333334]
Isolation_window: 4.0
Ion_mode: N
Num Peaks: 14
58.0052	5.1
59.0130	100.0
60.0165	1.9
71.0130	74.6
72.0164	2.7
72.9923	4.3
85.0286	6.4
87.0079	2.9
89.0235	93.0
90.0269	2.7
95.0130	3.2
101.0235	20.6
113.0235	16.4
119.0342	13.4

Name: beta-Glycerophosphate
PrecursorMZ: 171.00572
RT: 8.7637
ExactMass: 172.013675
Spectrum_type: 2
charge: -1
Formula: C3H9O6P
SMILES: C(C(CO)OP(=O)(O)O)O
Method: HCD
Collision_energy: [28.333334]
Isolation_window: 4.0
Ion_mode: N
Num Peaks: 7
78.9582	100.0
96.9689	6.2
128.0346	5.7
128.0709	16.1
171.0059	25.0
171.0662	8.2
172.0613	16.7

Name: beta-Lactose
PrecursorMZ: 341.10907
RT: 4.7848
ExactMass: 342.11621151
Spectrum_type: 2
charge: -1
Formula: C12H22O11
SMILES: C([C@@H]1[C@@H]([C@@H]([C@H]([C@@H](O1)O[C@@H]2[C@H](O[C@H]([C@@H]([C@H]2O)O)O)CO)O)O)O)O
Method: HCD
Collision_energy: [28.333334]
Isolation_window: 4.0
Ion_mode: N
Num Peaks: 21
59.0129	22.9
71.0130	32.4
73.0286	17.6
80.9644	25.5
87.0077	21.7
89.0235	54.5
97.0287	15.1
101.0235	68.6
113.0236	35.9
119.0340	21.1
143.0339	16.2
144.0658	22.1
161.0450	32.7
179.0557	31.1
255.1026	19.4
339.0777	18.1
339.1990	18.2
340.0699	100.0
341.1050	49.1
342.0798	23.5
343.0764	36.5

Name: beta-N-ACETYL-D-GALACTOSAMINE
PrecursorMZ: 266.08755
RT: 3.1723
ExactMass: 221.0899372
Spectrum_type: 2
charge: -1
Formula: C8H15NO6
SMILES: CC(=O)N[C@@H]1[C@H]([C@H]([C@H](O[C@H]1O)CO)O)O
Method: HCD
Collision_energy: [28.333334]
Isolation_window: 4.0
Ion_mode: N
Num Peaks: 32
59.0128	92.9
61.9873	77.3
71.0128	28.9
73.0283	26.1
85.0284	27.6
87.0076	9.9
89.0233	51.7
100.0392	29.6
101.0233	76.7
102.0264	7.2
102.0549	37.0
104.0341	10.5
113.0233	13.8
115.0390	10.6
115.9196	13.2
116.0707	10.2
119.0338	100.0
120.0370	13.5
124.0393	11.2
131.0339	8.4
133.0497	10.4
142.0496	6.9
150.0410	19.3
151.0250	17.6
220.0817	12.7
221.0660	26.3
222.0974	35.4
265.0922	55.1
265.1476	23.0
266.0909	18.6
267.0727	30.2
267.1066	22.7

Name: butyl 4-(1,3-dimethyl-2,4-dioxo-7-propyl-2,3,4,7-tetrahydro-1H-pyrrolo(2,3-d)pyrimidine-6-carboxamido)benzoate
PrecursorMZ: 439.19898
RT: 6.4573
ExactMass: 440.20597001
Spectrum_type: 2
charge: -1
Formula: C23H28N4O5
SMILES: CCCCOC(=O)C1=CC=C(C=C1)NC(=O)C2=CC3=C(N2CCC)N(C(=O)N(C3=O)C)C
Method: HCD
Collision_energy: [28.333334]
Isolation_window: 4.0
Ion_mode: N
Num Peaks: 11
133.0651	16.7
159.0445	38.9
247.1452	71.2
248.1477	11.0
272.1406	40.3
283.0979	22.6
289.1671	63.5
290.1707	11.4
333.1572	12.4
439.1992	100.0
440.2015	26.2

Name: butyl 4-(1,3-dimethyl-2,4-dioxo-7-propyl-2,3,4,7-tetrahydro-1H-pyrrolo)2,3-d(pyrimidine-6-carboxamido)benzoate
PrecursorMZ: 439.19837
RT: 2.8056
ExactMass: 440.20597001
Spectrum_type: 2
charge: -1
Formula: C23H28N4O5
SMILES: CCCCOC(=O)C1=CC=C(C=C1)NC(=O)C2=CC3=C(N2CCC)N(C(=O)N(C3=O)C)C
Method: HCD
Collision_energy: [28.333334]
Isolation_window: 4.0
Ion_mode: N
Num Peaks: 44
59.0129	5.1
61.9874	7.3
71.0129	3.9
85.0286	1.5
89.0234	6.4
93.0335	13.6
101.0234	6.0
113.0234	4.5
116.0707	2.9
116.9276	1.6
119.0340	1.9
143.0340	1.7
145.0642	2.5
161.0448	2.5
165.0397	1.2
175.0714	2.4
179.0556	1.8
185.0924	1.6
187.1079	2.5
188.0919	1.5
205.0500	2.8
211.0747	1.2
216.1003	3.4
217.1192	1.3
218.1028	1.7
223.0758	6.3
233.1407	1.3
234.0986	1.6
239.1072	15.3
240.1106	2.2
251.0766	1.6
265.0865	6.6
266.0902	1.2
283.0972	100.0
284.1007	16.6
285.1028	1.1
309.0764	2.8
323.0974	1.4
396.1513	12.4
397.1332	4.5
439.1984	68.2
440.1447	1.5
440.2023	17.1
441.2094	2.2

Name: cyclic CMP
PrecursorMZ: 304.03402
RT: 8.8317
ExactMass: 305.04128673
Spectrum_type: 2
charge: -1
Formula: C9H12N3O7P
SMILES: C1[C@@H]2[C@H]([C@H]([C@@H](O2)N3C=CC(=NC3=O)N)O)OP(=O)(O1)O
Method: HCD
Collision_energy: [28.333334]
Isolation_window: 4.0
Ion_mode: N
Num Peaks: 7
78.9582	27.8
110.0352	100.0
115.0029	7.2
128.0344	7.1
129.0188	6.8
211.0010	13.3
306.0844	7.8

Name: epsilon-Fructoselysine
PrecursorMZ: 307.15116
RT: 5.9804
ExactMass: 308.15835111
Spectrum_type: 2
charge: -1
Formula: C12H24N2O7
SMILES: C(CCNCC(=O)[C@H]([C@@H]([C@@H](CO)O)O)O)C[C@@H](C(=O)O)N
Method: HCD
Collision_energy: [28.333334]
Isolation_window: 4.0
Ion_mode: N
Num Peaks: 17
85.0286	11.5
129.0185	23.0
133.0134	5.8
135.0442	11.1
145.0977	13.4
156.1022	6.2
179.0343	37.3
191.0554	14.0
203.1034	13.0
217.1190	100.0
218.1223	7.6
289.1402	12.1
305.1318	6.8
307.0850	12.9
307.1514	78.7
308.1550	9.4
309.0621	7.5

Name: gamma-Glutamylleucine
PrecursorMZ: 259.12958
RT: 6.5066
ExactMass: 260.13722174
Spectrum_type: 2
charge: -1
Formula: C11H20N2O5
SMILES: CC(C)C[C@@H](C(=O)O)NC(=O)CC[C@@H](C(=O)O)N
Method: HCD
Collision_energy: [28.333334]
Isolation_window: 4.0
Ion_mode: N
Num Peaks: 25
59.0129	5.6
74.0238	5.4
88.0393	8.3
102.0549	7.6
110.0237	41.7
122.0600	5.3
128.0344	87.8
129.1022	6.2
130.0864	100.0
131.0902	6.1
136.0758	15.1
171.1499	14.4
187.1082	5.1
196.0611	13.6
197.1293	18.8
215.1403	18.2
223.1087	6.0
241.1192	37.0
257.1310	9.2
257.1758	5.1
257.2382	6.4
258.1566	8.0
259.1266	21.2
259.1298	61.6
260.1342	7.6

Name: gamma-L-Glutamyl-L-phenylalanine
PrecursorMZ: 293.11405
RT: 5.9675
ExactMass: 294.12157168
Spectrum_type: 2
charge: -1
Formula: C14H18N2O5
SMILES: C1=CC=C(C=C1)C[C@@H](C(=O)O)NC(=O)CC[C@@H](C(=O)O)N
Method: HCD
Collision_energy: [28.333334]
Isolation_window: 4.0
Ion_mode: N
Num Peaks: 17
72.9688	19.6
102.0552	20.4
113.0712	13.6
127.0502	24.3
128.0343	55.7
130.0864	22.2
164.0708	75.6
204.0518	16.4
221.1539	23.7
236.1046	22.0
236.8606	100.0
238.8597	11.8
249.1242	33.3
275.1034	29.0
293.1146	99.3
293.1787	13.3
294.1164	13.3

Name: l-Alanyl-l-leucine
PrecursorMZ: 201.12379
RT: 4.9098
ExactMass: 202.13174244
Spectrum_type: 2
charge: -1
Formula: C9H18N2O3
SMILES: C[C@@H](C(=O)N[C@@H](CC(C)C)C(=O)O)N
Method: HCD
Collision_energy: [28.333334]
Isolation_window: 4.0
Ion_mode: N
Num Peaks: 23
69.1867	1.4
69.3733	1.2
69.4205	1.2
72.0445	1.0
79.9563	1.7
87.0077	0.9
87.0554	6.1
88.0394	43.4
89.0426	1.2
97.4655	1.0
114.0914	1.0
129.1024	2.2
130.0864	19.3
131.0898	1.1
140.1072	3.5
144.0449	1.2
157.1338	52.4
158.1374	4.1
199.1698	3.0
200.0712	1.0
201.1238	100.0
202.1275	13.2
202.6298	1.7

Name: meso-Tartaric acid
PrecursorMZ: 149.0085
RT: 4.3996
ExactMass: 150.01643791
Spectrum_type: 2
charge: -1
Formula: C4H6O6
SMILES: [C@@H]([C@@H](C(=O)O)O)(C(=O)O)O
Method: HCD
Collision_energy: [28.333334]
Isolation_window: 4.0
Ion_mode: N
Num Peaks: 10
72.9922	23.9
87.0078	67.2
103.0031	18.3
121.0286	15.3
147.0185	32.5
148.0510	14.3
149.0084	100.0
149.9792	37.9
151.0257	16.1
151.0393	28.7

Name: methyl (2E,8E)-9-(3a-hydroxy-6,7-dimethyl-1-(2-methylpropyl)-3-oxo-2,4,7,7a-tetrahydro-1H-isoindol-4-yl)-4,5-dihydroxy-8-methylnona-2,8-dienoate
PrecursorMZ: 448.27037
RT: 5.2756
ExactMass: 449.27773796
Spectrum_type: 2
charge: -1
Formula: C25H39NO6
SMILES: CC1C2C(NC(=O)C2(C(C=C1C)/C=C(\C)/CCC(C(/C=C/C(=O)OC)O)O)O)CC(C)C
Method: HCD
Collision_energy: [28.333334]
Isolation_window: 4.0
Ion_mode: N
Num Peaks: 21
59.0129	2.7
74.0237	3.3
78.9580	2.1
113.0347	2.6
114.0550	3.0
116.0707	40.5
117.0739	2.0
124.0755	2.6
128.0342	2.7
152.9952	2.7
245.1652	2.2
346.2021	7.4
347.2050	6.6
446.2525	6.0
447.1863	3.2
447.2578	12.1
448.1699	2.9
448.2695	100.0
449.2757	28.9
450.1885	2.6
450.2901	8.8

Name: methyl 2-(4a,6,10a-trihydroxy-1-methyl-5,10-dioxo-3,4-dihydro-1H-benzo(g)isochromen-3-yl)acetate
PrecursorMZ: 349.0933
RT: 4.5184
ExactMass: 350.10016753
Spectrum_type: 2
charge: -1
Formula: C17H18O8
SMILES: CC1C2(C(=O)C3=C(C(=CC=C3)O)C(=O)C2(CC(O1)CC(=O)OC)O)O
Method: HCD
Collision_energy: [28.333334]
Isolation_window: 4.0
Ion_mode: N
Num Peaks: 208
59.0130	4.8
61.9875	3.7
69.0338	1.3
71.0129	2.1
71.0495	1.2
72.9922	8.0
73.0286	2.8
75.0079	2.8
78.9673	2.2
79.9564	13.0
80.9643	21.9
83.0129	1.2
83.0495	1.1
85.0286	3.2
87.0079	10.2
87.0444	1.0
89.0236	3.4
93.0339	1.3
94.9801	1.4
95.0494	1.2
96.9592	22.9
97.0286	3.7
98.9551	1.1
99.0078	1.6
99.0443	2.1
101.0236	2.4
103.0030	2.5
107.0493	2.2
109.0287	5.5
109.0652	1.4
111.0080	2.1
111.0443	4.3
112.0401	1.0
113.0237	3.2
115.0392	1.2
119.0498	1.1
121.0288	1.3
121.0655	1.2
123.0444	4.5
124.0066	1.5
124.0398	1.5
125.0236	5.5
125.0600	4.1
127.0395	2.3
128.0345	2.5
129.0180	1.3
133.0287	1.4
135.0445	4.9
135.0808	3.8
137.0237	3.1
137.0599	2.9
139.0060	2.7
139.0396	4.5
141.0182	1.5
141.0552	1.1
143.0344	1.4
147.0447	1.8
149.0239	7.1
149.0600	3.4
150.0554	1.2
151.0394	6.4
151.0758	1.4
153.0550	2.6
155.0342	1.5
159.0449	1.3
160.0397	1.8
161.0603	2.2
163.0393	2.4
163.0758	1.7
164.0710	1.3
165.0188	1.3
165.0550	3.2
167.0343	3.5
167.0713	1.1
169.0499	2.6
173.0606	1.5
175.0393	1.9
175.0755	1.5
177.0189	2.1
177.0550	3.5
179.0345	3.0
179.0700	1.9
180.0654	1.6
181.0499	2.8
185.0456	1.3
187.0394	1.6
187.0760	1.5
189.0553	3.3
189.0922	1.1
190.0865	1.8
191.0349	2.0
191.0702	2.0
192.9808	7.2
193.0500	2.9
195.0298	1.2
195.0656	2.9
199.0616	1.7
201.0547	1.7
201.0912	1.3
203.0340	1.3
203.0684	1.5
203.0710	2.3
205.0502	2.6
205.0863	1.4
207.0306	1.3
207.0659	2.8
209.0443	1.3
211.0603	1.9
215.0719	1.9
215.1070	1.2
217.0513	1.8
217.0865	1.8
219.0655	2.2
221.0456	2.8
223.0608	1.8
225.0755	1.5
229.0515	1.4
231.0308	1.1
231.0669	3.5
231.1011	1.2
232.0581	2.2
233.0464	1.0
233.0825	1.2
233.1197	1.1
234.0763	1.5
235.0616	1.2
236.0699	1.7
237.0778	1.1
239.0683	4.3
239.5697	1.0
240.0759	4.9
240.5761	1.5
242.0835	1.1
243.1065	1.5
245.0820	2.9
247.0627	5.4
249.0791	4.4
251.0552	1.5
257.0832	1.1
259.0611	1.5
259.0982	1.8
259.1709	1.1
260.0969	1.4
261.0763	1.7
261.1134	1.8
261.1173	1.4
263.0918	1.3
265.1450	1.6
267.1964	1.7
269.0638	3.8
269.0782	1.4
269.2125	1.4
275.0943	3.1
275.1015	1.6
276.0931	1.3
277.0759	1.5
277.1066	1.7
286.1112	1.5
287.0580	1.2
287.0940	3.0
288.0939	1.5
289.0726	3.0
289.1098	1.1
303.0888	2.0
303.1281	1.3
304.0881	1.5
304.1223	2.2
305.0676	1.2
305.1032	9.3
305.1416	1.9
306.1009	1.6
306.1050	2.4
306.1408	1.3
307.0824	13.2
307.0863	1.5
307.1200	2.0
307.1561	1.2
308.0851	1.9
319.0133	4.9
331.0820	2.4
333.1007	1.4
347.0789	3.4
347.1171	9.1
347.1535	14.8
347.1903	2.2
347.6403	4.0
348.0421	1.3
348.0770	7.5
348.1134	15.7
348.1472	3.2
348.1536	5.5
348.6374	1.5
349.0257	32.7
349.0299	6.4
349.0948	100.0
349.1328	26.1
349.1692	7.7
349.6372	1.2
350.0264	2.0
350.0583	4.3
350.0951	20.5
350.1312	11.1
350.1699	1.6
351.0370	3.2
351.0735	4.6
351.1103	29.6
351.1473	10.7
351.1841	4.4

Name: methyl 2-(4a,6,10a-trihydroxy-1-methyl-5,10-dioxo-3,4-dihydro-1H-benzo)g(isochromen-3-yl)acetate
PrecursorMZ: 349.09312
RT: 0.633
ExactMass: 350.10016753
Spectrum_type: 2
charge: -1
Formula: C17H18O8
SMILES: CC1C2(C(=O)C3=C(C(=CC=C3)O)C(=O)C2(CC(O1)CC(=O)OC)O)O
Method: HCD
Collision_energy: [28.333334]
Isolation_window: 4.0
Ion_mode: N
Num Peaks: 54
59.0129	2.2
72.9922	1.9
79.9565	1.3
80.9642	1.6
87.0079	2.7
96.9592	1.8
109.0286	3.4
112.0394	1.2
123.0439	1.4
125.0238	2.1
128.0343	1.7
133.0285	3.3
135.0443	3.4
137.0236	3.1
137.0599	6.8
149.0235	2.9
149.0603	1.4
151.0394	1.7
154.0501	13.9
157.0498	7.8
166.0501	2.9
175.0392	1.9
177.0549	3.2
181.0499	34.9
182.0530	2.4
189.0540	1.3
199.0394	1.3
201.0552	1.4
203.0352	1.3
205.0500	1.4
215.0711	1.2
217.0499	12.2
218.0535	1.3
261.0753	1.4
287.0922	1.9
289.0718	1.7
303.0866	1.4
303.1240	1.2
304.1210	1.3
305.0658	1.3
305.1028	2.4
307.0818	5.0
331.0822	1.3
347.0770	6.6
347.1146	8.4
347.1868	1.2
348.1126	24.0
348.1839	1.7
349.0924	100.0
350.0942	19.8
350.1979	1.5
351.0749	1.7
351.1084	22.2
351.1435	2.0

Name: methyl 2-(7-hydroxy-11-methyl-2,9-dioxo-12,15-dioxatetracyclo)8.4.1.01,10.03,8(pentadeca-3(8),4,6-trien-13-yl)acetate
PrecursorMZ: 331.08255
RT: 4.4299
ExactMass: 332.08960285
Spectrum_type: 2
charge: -1
Formula: C17H16O7
SMILES: CC1C23C(=O)C4=C(C=CC=C4O)C(=O)C2(O3)CC(O1)CC(=O)OC
Method: HCD
Collision_energy: [28.333334]
Isolation_window: 4.0
Ion_mode: N
Num Peaks: 37
59.0130	4.2
61.9875	1.7
85.0286	5.2
87.0078	1.9
111.0079	13.4
112.0395	2.9
113.0235	2.6
125.0236	1.4
128.0348	1.8
135.0446	1.7
151.0394	3.2
165.0549	3.3
173.0602	13.4
174.0642	1.5
175.0758	100.0
176.0792	11.8
191.0707	2.9
201.0552	19.1
202.0589	2.2
213.0921	1.7
215.0712	3.7
225.0921	3.3
227.0716	2.1
241.0874	6.9
242.0885	1.7
245.0815	1.6
269.0819	3.4
271.0616	2.2
285.1133	5.8
286.1141	1.7
287.0925	27.4
288.0954	4.5
329.0623	1.7
329.1037	2.1
331.0825	92.3
332.0854	17.5
333.0871	2.6

Name: methyl N-((4-chlorophenyl)carbonyl)leucylphenylalaninate
PrecursorMZ: 429.15847
RT: 1.8757
ExactMass: 430.165935
Spectrum_type: 2
charge: -1
Formula: C23H27ClN2O4
SMILES: CC(C)CC(C(=O)NC(CC1=CC=CC=C1)C(=O)OC)NC(=O)C2=CC=C(C=C2)Cl
Method: HCD
Collision_energy: [28.333334]
Isolation_window: 4.0
Ion_mode: N
Num Peaks: 11
59.0129	4.4
89.0234	5.7
91.0390	30.1
96.9591	22.0
427.1412	10.7
428.1459	7.8
429.1551	100.0
430.1582	20.6
431.1664	18.3
431.2092	18.9
431.3201	14.7

Name: methyl N-((4-methoxyphenyl)carbonyl)glycylmethioninate
PrecursorMZ: 399.1232
RT: 0.7878
ExactMass: 354.12494298
Spectrum_type: 2
charge: -1
Formula: C16H22N2O5S
SMILES: COC1=CC=C(C=C1)C(=O)NCC(=O)NC(CCSC)C(=O)OC
Method: HCD
Collision_energy: [28.333334]
Isolation_window: 4.0
Ion_mode: N
Num Peaks: 29
59.0129	0.9
69.1951	1.0
71.0130	1.3
79.9564	14.1
80.9643	2.6
96.9592	5.9
124.0759	1.6
129.0549	2.9
132.0811	1.9
136.0761	2.7
148.0760	1.7
150.0913	1.8
154.0868	1.1
166.0875	1.2
170.0824	1.3
192.0656	1.1
194.0819	3.2
231.1495	1.2
273.1610	12.5
274.0392	7.8
274.1647	2.1
291.1715	0.9
397.2269	17.5
397.3309	1.1
398.2300	5.8
399.1235	100.0
399.2307	2.1
400.1264	19.6
401.1237	4.0

Name: methyl N-(4-(((4-methoxyphenyl)carbonyl)amino)butanoyl)leucinate
PrecursorMZ: 363.19255
RT: 1.2972
ExactMass: 364.199822
Spectrum_type: 2
charge: -1
Formula: C19H28N2O5
SMILES: CC(C)CC(C(=O)OC)NC(=O)CCCNC(=O)C1=CC=C(C=C1)OC
Method: HCD
Collision_energy: [28.333334]
Isolation_window: 4.0
Ion_mode: N
Num Peaks: 10
88.0396	11.7
130.0866	12.5
147.0444	51.2
183.1134	90.8
196.1209	10.4
331.1664	100.0
332.1700	20.6
362.1248	9.8
362.2348	10.9
365.1981	16.8

Name: methyl beta-D-galactopyranoside
PrecursorMZ: 193.07119
RT: 6.8292
ExactMass: 194.07903816
Spectrum_type: 2
charge: -1
Formula: C7H14O6
SMILES: CO[C@H]1[C@@H]([C@H]([C@H]([C@H](O1)CO)O)O)O
Method: HCD
Collision_energy: [28.333334]
Isolation_window: 4.0
Ion_mode: N
Num Peaks: 39
57.0336	2.0
58.0051	2.7
59.0130	33.5
69.0336	2.4
71.0130	34.4
72.9922	4.7
73.0286	15.7
80.9642	6.5
83.0129	10.9
84.0445	7.1
85.0286	32.5
86.0000	3.4
87.0079	5.9
89.0235	5.9
93.0336	3.0
94.0289	3.9
97.0286	7.6
99.0078	6.9
101.0235	75.4
102.0270	3.6
107.0493	6.0
113.0235	13.8
125.0234	2.6
127.0392	3.7
131.0344	2.0
149.0602	3.4
151.0394	8.5
161.0448	3.4
173.0448	2.0
176.8947	6.7
191.0556	100.0
192.0323	2.8
192.0589	16.1
192.9106	2.7
193.0507	4.3
193.0715	47.9
194.0742	3.4
194.9054	38.3
195.0301	2.5

Name: o-Methoxyphenyl sulfate
PrecursorMZ: 203.00148
RT: 1.7505
ExactMass: 204.00924453
Spectrum_type: 2
charge: -1
Formula: C7H8O5S
SMILES: COC1=CC=CC=C1OS(=O)(=O)O
Method: HCD
Collision_energy: [28.333334]
Isolation_window: 4.0
Ion_mode: N
Num Peaks: 11
79.9564	13.0
80.9643	100.0
96.0082	15.4
97.4418	5.4
123.0443	20.4
157.1058	4.6
161.0230	7.9
201.0336	10.0
202.0523	7.3
203.0016	41.8
203.9966	9.3

Name: p-Toluenesulfonic acid
PrecursorMZ: 171.0119
RT: 1.4303
ExactMass: 172.01941529
Spectrum_type: 2
charge: -1
Formula: C7H8O3S
SMILES: CC1=CC=C(C=C1)S(=O)(=O)O
Method: HCD
Collision_energy: [28.333334]
Isolation_window: 4.0
Ion_mode: N
Num Peaks: 4
79.9564	3.0
107.0493	4.8
171.0115	100.0
172.0145	7.6

Name: phenyl beta-D-glucopyranoside
PrecursorMZ: 255.08745
RT: 3.645
ExactMass: 256.09468823
Spectrum_type: 2
charge: -1
Formula: C12H16O6
SMILES: C1=CC=C(C=C1)O[C@H]2[C@@H]([C@H]([C@@H]([C@H](O2)CO)O)O)O
Method: HCD
Collision_energy: [28.333334]
Isolation_window: 4.0
Ion_mode: N
Num Peaks: 150
57.0337	39.5
58.0371	1.3
59.0130	14.4
69.0337	2.1
71.0130	2.3
71.0494	2.3
72.9922	5.1
73.0286	5.7
75.0079	1.6
79.9565	2.3
80.9643	15.1
81.0336	2.0
82.9602	3.6
83.0129	1.7
83.0494	2.0
85.0286	7.2
86.0238	2.4
87.0079	26.0
87.0443	1.9
93.0337	2.0
95.0129	1.2
95.0493	3.6
96.9592	7.3
97.0286	4.7
97.0650	1.4
97.4679	1.4
99.0078	1.5
99.0443	18.6
100.0477	1.2
101.0236	3.9
107.0494	3.8
108.0207	1.2
108.0447	4.8
109.0287	3.0
109.0649	3.0
111.0079	2.3
111.0443	6.5
111.0807	3.1
113.0236	3.4
113.0600	4.3
115.0392	5.1
121.0285	1.4
121.0650	2.5
123.0444	5.9
123.0807	15.0
124.0842	1.3
125.0236	5.3
125.0600	5.3
127.0392	3.6
127.0756	1.7
129.0184	1.3
129.0549	1.9
131.0343	5.9
135.0446	2.2
135.0807	7.8
137.0238	6.9
137.0600	18.9
137.0964	1.4
138.0642	1.2
139.0394	6.6
139.0756	4.8
139.0869	2.3
141.0550	5.1
141.0912	3.3
143.0343	10.2
147.0809	3.0
149.0601	4.2
149.0965	4.7
150.0552	1.1
151.0396	3.0
151.0759	6.0
151.1121	8.4
153.0551	4.1
153.0915	2.1
155.0344	1.2
155.0707	14.4
157.0499	1.6
163.0031	6.3
163.0396	1.6
163.0631	2.0
163.0758	1.4
165.0187	1.2
165.0551	2.2
165.0913	5.5
167.0341	1.3
167.0707	5.3
167.1070	1.8
168.0661	1.4
169.0502	2.5
173.0599	1.5
173.0967	2.2
175.1122	5.6
177.0552	3.0
177.0913	4.6
178.0991	1.3
179.0707	4.0
181.0501	10.5
181.0859	1.6
182.0561	1.3
183.0657	5.1
191.0709	6.3
191.1069	2.8
192.0759	2.0
193.0503	3.1
193.0865	4.7
193.1229	37.8
194.1266	4.4
195.0297	1.8
195.0658	20.9
196.0699	2.2
197.0441	1.9
209.0826	5.2
209.1547	1.5
210.0048	2.4
210.0833	1.4
211.0606	3.7
211.0955	2.7
211.1323	3.1
211.9840	1.3
213.0741	2.4
213.0942	3.5
219.1022	4.5
225.0407	1.3
235.0610	1.3
237.0778	5.7
237.1130	36.3
238.1164	5.0
253.0718	22.1
253.1070	6.5
253.1107	1.7
254.0741	15.4
254.1060	5.6
255.0180	4.0
255.0514	6.9
255.0876	100.0
255.1237	95.4
255.1594	1.2
255.1663	1.6
255.2329	77.1
256.0270	1.5
256.0587	1.7
256.0901	13.4
256.1266	13.1
256.2363	14.0
257.0346	3.7
257.0666	18.8
257.1035	3.2
257.1075	3.3
257.1383	1.8
257.1762	1.4

Name: proatranorin II
PrecursorMZ: 361.09282
RT: 4.4381
ExactMass: 361.0923425
Spectrum_type: 2
charge: -1
Formula: C18H17O8-
SMILES: CC1=CC(=C(C(=C1C(=O)OC2=C(C(=C(C(=C2)C)C(=O)O)[O-])C)O)CO)O
Method: HCD
Collision_energy: [28.333334]
Isolation_window: 4.0
Ion_mode: N
Num Peaks: 30
59.0129	8.4
61.9873	10.1
109.0284	36.3
116.9274	16.9
128.0344	9.5
135.0442	100.0
136.0473	10.1
137.0597	12.4
161.0596	8.1
163.0755	66.8
179.0342	15.6
181.0498	54.3
197.0449	7.0
207.0656	67.4
208.0688	8.2
255.0661	17.9
255.1018	7.3
256.0692	10.6
271.0963	12.4
272.1002	8.7
299.0552	9.8
299.0915	9.1
300.0585	10.2
315.0827	12.8
317.1057	7.2
343.0801	12.8
360.1119	22.7
361.0883	90.1
362.0992	25.4
363.1012	10.7

Name: tert-butyl 3-((1-(2,3-dihydro-1,4-benzodioxin-6-ylamino)-1-oxopropan-2-yl)carbamoyl)-3,4-dihydro-1H-isoquinoline-2-carboxylate
PrecursorMZ: 480.21438
RT: 5.713
ExactMass: 481.22128572
Spectrum_type: 2
charge: -1
Formula: C26H31N3O6
SMILES: CC(C(=O)NC1=CC2=C(C=C1)OCCO2)NC(=O)C3CC4=CC=CC=C4CN3C(=O)OC(C)(C)C
Method: HCD
Collision_energy: [28.333334]
Isolation_window: 4.0
Ion_mode: N
Num Peaks: 49
59.0129	2.6
78.9582	34.5
84.0446	6.6
94.0289	2.7
96.0082	4.1
97.0160	6.7
110.0601	2.8
112.0396	5.3
114.0552	5.7
116.0707	4.1
120.0811	9.0
122.0604	6.8
122.9845	3.4
123.0318	4.1
123.0679	2.5
124.0760	49.4
125.0795	3.6
128.0346	4.2
130.0864	4.0
134.0603	3.8
134.0968	19.8
136.0760	8.0
138.0556	7.2
146.0604	2.5
154.0614	5.1
164.0710	5.2
168.0425	16.0
173.0926	6.7
180.0657	2.9
243.1500	2.8
255.1506	9.9
257.1660	100.0
258.1693	16.5
259.1810	8.5
267.1500	2.6
271.1455	2.5
287.1401	3.3
289.1560	6.9
301.1553	5.6
311.1408	2.5
436.2264	11.4
437.2255	2.6
478.2921	17.4
479.2272	6.6
479.2989	8.8
480.2132	11.0
480.3067	6.6
481.2490	4.4
482.2189	3.3

Name: trans-1,2-Cyclohexanediol
PrecursorMZ: 115.07557
RT: 3.881
ExactMass: 116.083729621
Spectrum_type: 2
charge: -1
Formula: C6H12O2
SMILES: C1CC[C@H]([C@@H](C1)O)O
Method: HCD
Collision_energy: [28.333334]
Isolation_window: 4.0
Ion_mode: N
Num Peaks: 9
59.0130	2.5
97.9304	1.9
99.9249	17.9
114.9333	9.2
115.0758	0.8
115.9199	7.6
116.9103	0.6
116.9277	100.0
116.9451	0.6

Name: trans-10-cis-12-Octadecadienoic acid
PrecursorMZ: 279.23284
RT: 2.1205
ExactMass: 280.240230259
Spectrum_type: 2
charge: -1
Formula: C18H32O2
SMILES: CCCCC/C=C\C=C\CCCCCCCCC(=O)O
Method: HCD
Collision_energy: [28.333334]
Isolation_window: 4.0
Ion_mode: N
Num Peaks: 12
79.9563	0.6
80.9642	5.5
96.9591	0.8
277.7200	0.6
278.2241	2.6
278.7258	0.8
279.2327	34.2
280.0465	0.6
280.2362	7.0
281.1828	0.7
281.2483	100.0
281.3129	0.8

Name: trans-Aconitic acid
PrecursorMZ: 173.00835
RT: 5.5415
ExactMass: 174.01643791
Spectrum_type: 2
charge: -1
Formula: C6H6O6
SMILES: C(/C(=C\C(=O)O)/C(=O)O)C(=O)O
Method: HCD
Collision_energy: [28.333334]
Isolation_window: 4.0
Ion_mode: N
Num Peaks: 22
76.9689	1.6
78.9581	5.6
85.0285	51.9
86.0317	1.8
111.0078	7.0
128.9384	4.3
129.0185	16.4
144.0193	1.3
146.0240	2.7
154.9465	100.0
155.9460	9.6
156.9421	3.1
171.0191	20.2
171.1020	3.1
171.1384	1.8
172.0134	1.6
172.0235	2.0
172.9571	23.9
173.0083	2.4
173.0234	2.5
173.9569	2.3
174.0186	8.3

Name: (((4Z)-2-amino-3-hydroxyoctadec-4-en-1-yl)oxy)phosphonic acid
PrecursorMZ: 378.24166
RT: 4.5785
ExactMass: 379.24876031
Spectrum_type: 2
charge: -1
Formula: C18H38NO5P
SMILES: CCCCCCCCCCCCC/C=C\C(C(COP(=O)(O)O)N)O
Method: HCD
Collision_energy: [28.333334]
Isolation_window: 4.0
Ion_mode: N
Num Peaks: 49
59.0129	1.0
71.0129	1.3
72.9922	1.5
73.0286	0.7
75.0079	5.9
78.9486	0.7
78.9581	100.0
78.9676	0.7
87.0079	0.7
96.9688	4.5
97.4063	0.7
113.0598	1.0
114.0552	1.4
128.0343	0.8
201.1281	1.9
213.1283	0.6
215.1444	0.7
237.1276	1.2
243.1393	3.4
245.1547	0.6
255.1390	5.2
256.1428	0.7
261.1135	1.0
261.1508	1.0
267.1031	0.9
273.1500	4.4
273.1859	1.6
274.1530	0.9
291.1601	1.2
317.1405	2.1
319.1915	7.3
320.1948	1.5
333.2083	0.7
335.1869	6.2
336.1909	0.7
361.1285	2.3
377.0911	0.7
377.1296	1.0
377.1993	7.3
378.1254	1.3
378.2423	33.2
379.1039	1.0
379.1399	13.8
379.1771	3.9
379.2159	7.7
379.2499	4.6
380.1414	2.0
380.1811	1.2
380.2196	1.4

Name: ((1'S,10S,13R,14R,15R,17S)-17-(2-hydroxy-2H-pyran-5-yl)-10,13,14,15-tetramethylspiro(2,4,5,6,7,8,9,11,12,15,16,17-dodecahydro-1H-cyclopenta(a)phenanthrene-3,2'-cyclopropane)-1'-yl) hydrogen sulfate
PrecursorMZ: 505.26254
RT: 0.7204666666666667
ExactMass: 506.27021023
Spectrum_type: 2
charge: -1
Formula: C28H42O6S
SMILES: C[C@@H]1C[C@@H]([C@@]2([C@]1(C3CCC4CC5(CC[C@@]4(C3CC2)C)C[C@@H]5OS(=O)(=O)O)C)C)C6=COC(C=C6)O
Method: HCD
Collision_energy: [28.333334]
Isolation_window: 4.0
Ion_mode: N
Num Peaks: 16
56.1419	4.5
79.9564	68.2
80.9642	16.8
96.9591	11.9
97.4087	3.0
165.0550	18.6
245.0126	6.1
425.3069	10.4
426.3079	2.5
503.4140	18.3
504.4174	8.8
505.2630	100.0
506.2661	30.8
507.2640	5.6
507.2761	3.6
507.3869	27.9

Name: ((1R,8S)-2,3,5,6,7,8-hexahydro-1H-pyrrolizin-1-yl)methyl (2R,3R)-2,3-dihydroxy-3-methylpentanoate
PrecursorMZ: 270.17114
RT: 4.8125
ExactMass: 271.17835828
Spectrum_type: 2
charge: -1
Formula: C14H25NO4
SMILES: CC[C@](C)([C@H](C(=O)OC[C@@H]1CCN2[C@H]1CCC2)O)O
Method: HCD
Collision_energy: [28.333334]
Isolation_window: 4.0
Ion_mode: N
Num Peaks: 64
59.0130	5.7
69.2464	2.4
71.0130	4.0
72.9922	3.9
73.0287	2.4
74.0239	2.5
83.0493	1.9
85.0286	2.7
87.0079	2.6
88.0395	3.8
93.0336	4.3
96.9592	2.0
97.0287	2.1
99.0440	2.3
109.0286	5.0
111.0444	4.1
112.0509	2.0
114.0552	100.0
115.0586	4.6
116.0706	2.3
125.0236	2.4
127.0394	3.1
128.0709	9.9
130.0866	2.5
135.0446	3.2
138.0552	2.1
150.0552	2.4
170.1181	3.8
173.0450	6.2
181.0764	15.4
225.0536	6.2
225.0696	1.9
226.0613	3.0
226.0877	3.9
228.0650	2.7
251.0722	4.1
254.0583	34.8
255.0617	5.5
268.1554	4.9
269.0460	9.7
269.0823	82.4
269.1174	41.2
269.1429	3.0
269.1490	5.7
269.2123	7.2
269.2471	5.2
269.6190	10.6
270.0805	19.5
270.0826	8.0
270.1170	2.6
270.1461	2.2
270.1711	52.2
271.0825	32.0
271.1072	4.7
271.1497	8.6
271.1536	4.1
271.1765	6.1
271.1917	3.0
271.2283	2.1
272.0570	2.1
272.0882	3.6
272.0907	5.7
272.1570	3.7
272.1599	3.0

Name: ((2R,3R,4R,5R,6S)-5-acetamido-3,4-diacetyloxy-6-(2-azidoethoxy)oxan-2-yl)methyl acetate
PrecursorMZ: 415.14546
RT: 8.671199999999999
ExactMass: 416.15432836
Spectrum_type: 2
charge: -1
Formula: C16H24N4O9
SMILES: CC(=O)N[C@@H]1[C@H]([C@H]([C@H](O[C@@H]1OCCN=[N+]=[N-])COC(=O)C)OC(=O)C)OC(=O)C
Method: HCD
Collision_energy: [28.333334]
Isolation_window: 4.0
Ion_mode: N
Num Peaks: 13
59.0130	9.0
71.0128	27.3
85.0284	16.4
89.0234	19.1
101.0234	41.6
113.0234	100.0
143.0341	12.7
148.0618	12.1
161.0448	38.4
163.0603	16.9
325.1142	8.6
415.1456	72.4
416.1500	10.1

Name: ((2R,3S,4R,5R)-5-(6-aminopurin-9-yl)-3,4-dihydroxyoxolan-2-yl)methyl ((2S,4R,5R)-5-(6-aminopurin-9-yl)-4-hydroxyoxolan-2-yl)methyl hydrogen phosphate
PrecursorMZ: 579.14763
RT: 7.03275
ExactMass: 580.15435941
Spectrum_type: 2
charge: -1
Formula: C20H25N10O9P
SMILES: C1[C@H](O[C@H]([C@@H]1O)N2C=NC3=C(N=CN=C32)N)COP(=O)(O)OC[C@@H]4[C@H]([C@H]([C@@H](O4)N5C=NC6=C(N=CN=C65)N)O)O
Method: HCD
Collision_energy: [28.333334]
Isolation_window: 4.0
Ion_mode: N
Num Peaks: 11
64.3517	3.3
78.9582	61.7
96.9687	5.5
134.0465	100.0
135.0498	3.5
150.0415	15.0
195.0060	32.0
346.0562	10.5
444.0930	21.1
579.1473	79.9
580.1486	18.3

Name: ((2R,3S,4S,5R,6R)-3,4,5-trihydroxy-6-((2R,3R,4S,5S,6R)-3,4,5-trihydroxy-6-(hydroxymethyl)oxan-2-yl)oxyoxan-2-yl)methyl 13-methyltetradecanoate
PrecursorMZ: 565.32344
RT: 5.2756
ExactMass: 566.33022703
Spectrum_type: 2
charge: -1
Formula: C27H50O12
SMILES: CC(C)CCCCCCCCCCCC(=O)OC[C@@H]1[C@H]([C@@H]([C@H]([C@H](O1)O[C@@H]2[C@@H]([C@H]([C@@H]([C@H](O2)CO)O)O)O)O)O)O
Method: HCD
Collision_energy: [28.333334]
Isolation_window: 4.0
Ion_mode: N
Num Peaks: 18
69.0839	8.7
71.0130	16.3
73.0286	6.1
78.9581	11.5
85.0285	8.7
87.0078	10.3
97.0284	7.8
101.0234	11.5
125.0237	39.2
143.0343	50.1
152.9953	11.1
161.0449	77.0
179.0553	18.1
241.2173	36.2
242.2208	6.0
323.0985	100.0
324.1017	11.3
341.1096	6.4

Name: ((2S,3R,4S,5S,6S)-3,4,5-trihydroxy-6-(hydroxymethyl)oxan-2-yl) (1Z)-8-methylsulfanyl-N-sulfooxyoctanimidothioate
PrecursorMZ: 462.09203
RT: 7.4528
ExactMass: 463.10044502
Spectrum_type: 2
charge: -1
Formula: C15H29NO9S3
SMILES: CSCCCCCCC/C(=N/OS(=O)(=O)O)/S[C@H]1[C@@H]([C@H]([C@@H]([C@@H](O1)CO)O)O)O
Method: HCD
Collision_energy: [28.333334]
Isolation_window: 4.0
Ion_mode: N
Num Peaks: 6
51.3449	4.3
96.9591	21.3
259.0128	11.9
462.0922	100.0
463.0948	16.3
464.0920	6.5

Name: ((3R,4S,5S)-4-acetyloxy-6-hydroxy-5-(tetracosanoylamino)hexan-3-yl) acetate
PrecursorMZ: 582.4733
RT: 0.9625
ExactMass: 583.48118879
Spectrum_type: 2
charge: -1
Formula: C34H65NO6
SMILES: CCCCCCCCCCCCCCCCCCCCCCCC(=O)N[C@@H](CO)[C@@H]([C@@H](CC)OC(=O)C)OC(=O)C
Method: HCD
Collision_energy: [28.333334]
Isolation_window: 4.0
Ion_mode: N
Num Peaks: 44
60.9920	2.6
64.7212	4.1
74.0238	52.8
82.0287	3.6
84.0443	2.3
101.0598	2.2
104.0343	13.1
143.1065	5.0
171.1378	3.3
185.1540	4.2
199.1699	4.4
213.1853	2.6
227.2011	12.8
235.2062	4.0
241.2168	40.4
242.2201	6.3
255.2328	6.1
266.2489	15.1
278.2486	27.7
279.2517	4.4
280.2638	6.4
281.2676	3.5
292.2280	9.6
292.2638	4.2
294.2797	7.5
295.2832	4.0
296.2597	6.0
310.2386	71.0
311.2423	14.0
312.2443	2.2
324.2541	40.1
325.2575	21.0
338.2701	39.8
339.2728	26.0
340.2483	61.1
341.2518	11.4
354.2649	10.1
580.4930	5.0
581.3497	12.8
581.4972	16.4
582.3840	3.3
582.4737	100.0
583.4772	30.7
584.4873	4.9

Name: ((3S,5S,8S,9S,10R,13R,14S,17R)-17-((2S,3R,4R,5S)-3,4-dihydroxy-5,6-dimethylheptan-2-yl)-10,13-dimethyl-6-oxo-1,2,3,4,5,7,8,9,11,12,14,15,16,17-tetradecahydrocyclopenta(a)phenanthren-3-yl) dodecanoate
PrecursorMZ: 629.51462
RT: 1.724
ExactMass: 630.52232533
Spectrum_type: 2
charge: -1
Formula: C40H70O5
SMILES: CCCCCCCCCCCC(=O)O[C@H]1CC[C@@]2([C@H]3CC[C@@]4([C@H]([C@@H]3CC(=O)[C@H]2C1)CC[C@@H]4[C@H](C)[C@H]([C@@H]([C@@H](C)C(C)C)O)O)C)C
Method: HCD
Collision_energy: [28.333334]
Isolation_window: 4.0
Ion_mode: N
Num Peaks: 27
69.9440	2.3
69.9483	4.5
70.0555	0.9
70.0598	1.8
97.4075	0.9
237.2219	9.6
238.2252	1.4
255.2326	15.0
256.2363	1.9
281.2116	1.1
327.2690	1.0
364.2537	0.9
373.2747	16.1
374.2779	4.2
495.4582	0.9
539.4451	1.8
555.4406	0.9
557.4572	3.7
627.4982	1.5
628.3911	0.8
628.5043	4.6
628.5111	3.6
629.5151	100.0
630.5187	40.3
631.4976	7.7
631.5041	3.8
631.5203	5.5

Name: ((4S)-4-((3S,7R,8S,9R,10R,13S,17S)-3,7-dihydroxy-10,13-dimethyl-2,3,4,5,6,7,8,9,11,12,14,15,16,17-tetradecahydro-1H-cyclopenta(a)phenanthren-17-yl)pentyl) (4R)-4-((3R,7S,8R,9S,10S,13R,17R)-3,7-dihydroxy-10,13-dimethyl-2,3,4,5,6,7,8,9,11,12,14,15,16,17-tetradecahydro-1H-cyclopenta(a)phenanthren-17-yl)pentanoate
PrecursorMZ: 751.58859
RT: 2.9974
ExactMass: 752.59549027
Spectrum_type: 2
charge: -1
Formula: C48H80O6
SMILES: C[C@@H](CCCOC(=O)CC[C@@H](C)[C@H]1CCC2[C@@]1(CC[C@H]3[C@H]2[C@H](CC4[C@@]3(CC[C@H](C4)O)C)O)C)[C@@H]5CCC6[C@]5(CC[C@@H]7[C@@H]6[C@@H](CC8[C@]7(CC[C@@H](C8)O)C)O)C
Method: HCD
Collision_energy: [28.333334]
Isolation_window: 4.0
Ion_mode: N
Num Peaks: 6
375.2907	100.0
376.2941	23.7
377.2970	2.2
393.3014	1.6
751.5941	1.5
752.5958	0.9

Name: ((8R,9R,12R,13S,14R,16R)-9-carbamoyloxy-8,14-dimethoxy-4,10,12,16-tetramethyl-3,20,22-trioxo-19-(propylamino)-2-azabicyclo(16.3.1)docosa-1(21),4,6,10,18-pentaen-13-yl) 4-aminobutanoate
PrecursorMZ: 671.36656
RT: 6.1505
ExactMass: 672.37342925
Spectrum_type: 2
charge: -1
Formula: C35H52N4O9
SMILES: CCCNC1=C2C[C@H](C[C@H]([C@H]([C@@H](C=C([C@H]([C@@H](C=CC=C(C(=O)NC(=CC1=O)C2=O)C)OC)OC(=O)N)C)C)OC(=O)CCCN)OC)C
Method: HCD
Collision_energy: [28.333334]
Isolation_window: 4.0
Ion_mode: N
Num Peaks: 113
59.0129	7.8
67.4815	2.3
70.0289	3.3
71.0130	2.9
71.0401	1.3
73.0286	1.7
74.0239	1.3
78.9581	1.6
83.0130	1.4
84.0446	1.6
86.0602	1.4
99.0079	1.3
110.0603	2.5
115.0393	1.8
120.0811	1.9
122.0603	14.4
124.0760	5.4
136.0397	1.4
136.0761	9.7
138.0555	3.2
138.0917	27.4
139.0952	1.7
140.0709	2.3
148.0762	1.9
152.9955	1.4
164.0710	4.7
166.0172	1.4
168.0660	2.6
168.1019	1.4
174.0919	1.4
176.1078	2.1
180.0661	2.7
182.0817	64.9
183.0855	5.2
184.0610	3.4
188.0018	5.0
188.1078	1.6
190.1235	1.5
210.1132	1.5
235.1454	2.3
243.1502	1.9
245.1659	15.4
246.1491	6.8
247.1469	1.8
249.1246	1.4
255.1503	8.7
256.1546	1.6
257.1301	1.4
257.1660	6.1
259.1456	2.4
259.1817	3.8
261.1610	16.5
262.1646	2.1
263.1766	34.2
264.1802	5.1
269.1658	1.4
271.1456	4.4
272.1449	1.9
272.1775	2.4
273.1602	3.4
287.1415	1.4
287.1763	4.1
289.1561	8.1
291.1714	2.5
305.1512	7.0
306.1559	1.5
307.1664	100.0
308.1695	17.3
321.1458	2.5
331.1664	1.8
340.2036	2.0
342.2191	4.3
363.1930	5.2
364.1966	1.7
380.2352	5.8
394.2516	2.3
418.2362	1.7
424.2247	1.3
456.2517	5.5
477.2813	1.6
477.2871	1.3
517.3164	1.8
518.2513	8.6
519.3341	3.2
520.3336	1.3
529.3041	2.1
561.3082	1.5
563.3243	14.1
564.3273	3.4
571.3149	5.4
572.3177	2.0
593.3350	4.5
595.3534	2.4
607.3146	52.8
608.3178	17.5
609.3246	6.2
611.3464	2.2
623.3070	2.4
627.3421	1.7
637.3244	2.9
639.3410	30.6
640.3450	9.7
641.3371	2.6
653.3098	1.4
653.3231	1.7
655.3357	12.3
669.4249	2.0
670.3240	2.6
670.4215	1.4
671.3362	7.9
671.4358	1.9
672.3053	8.7
673.3483	9.8

Name: (+/-)-3,4-Dihydroxyphenyl glycol D2 13C (M+3)
PrecursorMZ: 151.03936
RT: 4.4408
ExactMass: 173.07381712
Spectrum_type: 2
charge: -1
Formula: C8H10O4
SMILES: [2H][13C]([2H])(C(C1=CC(=C(C=C1)O)O)O)O
Method: HCD
Collision_energy: [28.333334]
Isolation_window: 4.0
Ion_mode: N
Num Peaks: 19
78.9581	38.4
80.9643	25.6
107.0494	26.7
108.0208	32.4
108.0447	20.0
109.0288	14.1
118.8988	10.9
122.0366	100.0
123.0446	88.0
125.0001	39.2
151.0257	12.5
151.0394	80.4
151.0506	9.7
151.0757	26.9
152.0015	17.3
152.0342	22.1
152.0703	11.5
153.0187	11.0
153.0313	10.5

Name: (1-(Carboxymethylamino)-3-methyl-1-oxobutan-2-yl)azanium
PrecursorMZ: 173.09252
RT: 6.0911
ExactMass: 175.10826734
Spectrum_type: 2
charge: -1
Formula: C7H15N2O3+
SMILES: CC(C)C(C(=O)NCC(=O)O)[NH3+]
Method: HCD
Collision_energy: [28.333334]
Isolation_window: 4.0
Ion_mode: N
Num Peaks: 18
57.0337	12.8
58.0290	12.7
59.0130	8.4
74.0238	32.5
83.0129	6.3
87.0556	7.9
88.0393	11.4
110.0601	9.7
112.0395	5.5
126.0553	6.7
127.0756	29.7
128.0708	51.4
129.1025	51.1
172.0609	60.7
173.0451	5.7
173.0810	100.0
173.0930	58.8
174.0861	7.1

Name: (17-(5-(carboxymethylamino)-5-oxopentan-2-yl)-10,13-dimethyl-2,3,4,5,6,7,8,9,11,12,14,15,16,17-tetradecahydro-1H-cyclopenta(a)phenanthren-3-yl) sulfate
PrecursorMZ: 512.26892
RT: 3.0083
ExactMass: 512.26819885
Spectrum_type: 2
charge: -1
Formula: C26H42NO7S-
SMILES: CC(CCC(=O)NCC(=O)O)C1CCC2C1(CCC3C2CCC4C3(CCC(C4)OS(=O)(=O)[O-])C)C
Method: HCD
Collision_energy: [28.333334]
Isolation_window: 4.0
Ion_mode: N
Num Peaks: 28
56.9172	2.1
56.9204	4.1
57.0319	0.8
59.0130	2.5
74.0239	26.5
78.9582	2.0
87.0080	0.8
94.9800	1.3
96.9592	25.5
98.9549	1.1
114.0552	0.7
152.9951	3.2
242.1557	0.9
283.2640	1.5
285.1610	1.5
285.2437	1.6
388.3234	1.5
432.3123	73.2
433.3155	19.1
434.3177	1.8
494.2555	0.7
510.2515	1.9
510.3208	4.2
511.2599	8.0
511.3294	1.4
512.2691	100.0
513.2734	30.2
514.2734	6.8

Name: (1R,2R,3S,6S,7R,8S,9R,12R,13S)-13-tert-butyl-2,7,9-trihydroxy-3-methyl-5,11,16,18-tetraoxapentacyclo(10.5.1.01,8.02,6.08,15)octadecane-4,10,17-trione
PrecursorMZ: 411.12922
RT: 8.2846
ExactMass: 412.13694696
Spectrum_type: 2
charge: -1
Formula: C19H24O10
SMILES: C[C@@H]1C(=O)O[C@@H]2[C@]1([C@@]34C(=O)OC5[C@]3([C@H]2O)[C@H](C(=O)O[C@@H](O4)[C@@H](C5)C(C)(C)C)O)O
Method: HCD
Collision_energy: [28.333334]
Isolation_window: 4.0
Ion_mode: N
Num Peaks: 5
72.9922	44.0
337.1291	100.0
338.1318	14.1
411.1294	73.4
412.1317	16.1

Name: (1R,4R,5R,7R,9R,13R,15S)-15-hydroxy-9-methyl-14-methylidene-7-((2R,3R,4S,5S,6R)-3,4,5-trihydroxy-6-(hydroxymethyl)oxan-2-yl)oxytetracyclo(11.2.1.01,10.04,9)hexadecane-5-carboxylic acid
PrecursorMZ: 481.24406
RT: 5.6556
ExactMass: 482.25158279
Spectrum_type: 2
charge: -1
Formula: C25H38O9
SMILES: C[C@@]12C[C@@H](C[C@H]([C@H]1CC[C@]34C2CC[C@H](C3)C(=C)[C@@H]4O)C(=O)O)O[C@H]5[C@@H]([C@H]([C@@H]([C@H](O5)CO)O)O)O
Method: HCD
Collision_energy: [28.333334]
Isolation_window: 4.0
Ion_mode: N
Num Peaks: 16
53.4729	4.9
59.0129	17.6
71.0129	13.2
78.9581	3.9
89.0234	27.1
101.0234	16.9
113.0234	8.9
119.0340	17.3
161.0449	5.0
480.3057	8.0
481.2436	100.0
481.3078	5.7
481.3149	6.8
482.2479	25.2
483.2429	3.5
483.3068	6.3

Name: (1R,4S,5R,9S,10R,13S)-13-)(2S,3R,4S,5R,6R)-3-)(2S,3R,4S,5S,6R)-6-ethenyl-3,4,5-trihydroxyoxan-2-yl(oxy-5-hydroxy-6-(hydroxymethyl)-4-)(2S,3R,4S,5S,6R)-3,4,5-trihydroxy-6-(hydroxymethyl)oxan-2-yl(oxyoxan-2-yl(oxy-5,9-dimethyl-14-methylidenetetracyclo)11.2.1.01,10.04,9(hexadecane-5-carboxylic acid
PrecursorMZ: 799.37562
RT: 4.7951
Spectrum_type: 2
charge: -1
SMILES: CC12CCCC(C1CCC34C2CCC(C3)(C(=C)C4)OC5C(C(C(C(O5)CO)O)OC6C(C(C(C(O6)CO)O)O)O)OC7C(C(C(C(O7)C=C)O)O)O)(C)C(=O)O
Method: HCD
Collision_energy: [28.333334]
Isolation_window: 4.0
Ion_mode: N
Num Peaks: 33
59.0129	5.3
69.2119	2.9
71.0129	11.8
73.0286	2.9
85.0285	3.8
88.8166	2.2
88.8229	4.0
89.0234	79.3
90.0268	2.0
97.0286	2.1
101.0235	12.9
101.0599	5.1
113.0235	20.3
119.0341	4.1
125.0235	3.1
131.0342	3.1
143.0341	3.8
161.0447	6.8
173.0450	5.8
191.0554	3.0
233.0656	2.6
301.1809	2.9
305.1507	2.1
319.1911	13.2
463.2341	3.7
481.2445	6.9
697.3066	2.8
715.3190	14.0
716.3210	5.1
798.4108	2.9
799.3772	100.0
800.3805	40.4
801.3878	6.8

Name: (1S,4aR,5S,8aR)-1,4a-dimethyl-6-methylidene-5-(3-oxobutyl)-3,4,5,7,8,8a-hexahydro-2H-naphthalene-1-carboxylic acid
PrecursorMZ: 291.1963
RT: 2.4641
ExactMass: 292.20384475
Spectrum_type: 2
charge: -1
Formula: C18H28O3
SMILES: CC(=O)CC[C@H]1C(=C)CC[C@@H]2[C@@]1(CCC[C@]2(C)C(=O)O)C
Method: HCD
Collision_energy: [28.333334]
Isolation_window: 4.0
Ion_mode: N
Num Peaks: 9
69.1194	8.0
96.9590	12.3
221.1542	14.0
236.1051	15.9
275.2006	8.3
291.1967	100.0
292.2007	18.2
293.1786	36.0
293.2121	36.2

Name: (1S,6S)-6-carbamoylcyclohex-3-ene-1-carboxylic acid
PrecursorMZ: 168.06579
RT: 6.8905
ExactMass: 169.07389321
Spectrum_type: 2
charge: -1
Formula: C8H11NO3
SMILES: C1C=CC[C@@H]([C@H]1C(=O)N)C(=O)O
Method: HCD
Collision_energy: [28.333334]
Isolation_window: 4.0
Ion_mode: N
Num Peaks: 14
70.0290	40.8
79.9564	100.0
80.9643	15.0
83.0492	19.9
98.0602	61.9
106.0652	37.7
124.0758	55.4
125.0601	19.7
148.9725	57.2
151.0392	17.8
166.9832	84.7
167.0350	22.7
169.0500	39.3
184.9938	18.0

Name: (2-(((1S)-1-carboxy-2-phenylethyl)amino)-2-oxoethyl)azanium
PrecursorMZ: 221.09259
RT: 5.765866666666667
ExactMass: 223.10826734
Spectrum_type: 2
charge: -1
Formula: C11H15N2O3+
SMILES: C1=CC=C(C=C1)C[C@@H](C(=O)O)NC(=O)C[NH3+]
Method: HCD
Collision_energy: [28.333334]
Isolation_window: 4.0
Ion_mode: N
Num Peaks: 17
59.0129	23.4
73.0398	100.0
87.0080	8.5
88.0393	8.4
111.0442	9.0
123.0442	19.8
147.0443	21.0
160.0398	17.8
162.0194	13.4
164.0708	28.0
176.0462	13.9
177.1274	19.7
220.0615	9.1
221.0928	60.4
221.1176	17.8
222.0765	9.0
222.0961	7.8

Name: (2-Acetamidoacetyl)oxidanium
PrecursorMZ: 116.03448
RT: 5.8806
ExactMass: 118.050418117
Spectrum_type: 2
charge: -1
Formula: C4H8NO3+
SMILES: CC(=O)NCC(=O)[OH2+]
Method: HCD
Collision_energy: [28.333334]
Isolation_window: 4.0
Ion_mode: N
Num Peaks: 11
60.9923	7.7
71.0494	50.5
72.0446	11.7
72.9689	4.1
74.0239	100.0
99.9251	6.9
114.9338	3.7
116.0246	6.4
116.0344	8.5
116.9277	60.2
117.0548	18.2

Name: (2-Benzamido-3-phenylpropanoyl) 2-benzamido-3-phenylpropanoate
PrecursorMZ: 519.19155
RT: 0.65
ExactMass: 520.199822
Spectrum_type: 2
charge: -1
Formula: C32H28N2O5
SMILES: C1=CC=C(C=C1)CC(C(=O)OC(=O)C(CC2=CC=CC=C2)NC(=O)C3=CC=CC=C3)NC(=O)C4=CC=CC=C4
Method: HCD
Collision_energy: [28.333334]
Isolation_window: 4.0
Ion_mode: N
Num Peaks: 37
57.6863	2.0
57.6895	4.2
57.8009	1.1
61.9875	1.1
71.0129	1.0
72.9921	1.0
87.0079	1.8
88.0395	1.3
96.9592	10.8
111.0079	2.3
114.0550	1.4
116.0708	2.1
127.0505	1.2
128.0345	10.7
130.0866	3.6
146.0452	1.2
191.0555	1.8
227.1036	1.7
241.1190	2.0
358.1989	1.7
365.1958	2.1
400.2099	1.0
430.2213	2.7
457.1912	13.6
458.1957	3.3
473.1860	9.7
474.1833	2.4
501.1819	2.8
517.1952	1.1
517.3174	5.1
518.1591	2.3
518.2297	3.6
518.3210	2.4
519.1914	100.0
520.1911	24.7
520.2493	3.8
521.1903	6.0

Name: (2R)-1-((2R)-2-azaniumylpropanoyl)pyrrolidine-2-carboxylate
PrecursorMZ: 185.09261
RT: 6.9182
ExactMass: 186.10044231
Spectrum_type: 2
charge: -1
Formula: C8H14N2O3
SMILES: C[C@H](C(=O)N1CCC[C@@H]1C(=O)[O-])[NH3+]
Method: HCD
Collision_energy: [28.333334]
Isolation_window: 4.0
Ion_mode: N
Num Peaks: 5
96.0447	24.8
114.0552	50.9
128.0340	17.1
166.9832	24.6
185.0929	100.0

Name: (2R)-2-((2-amino-3-methylbutanoyl)amino)-3-(4-hydroxyphenyl)propanoic acid
PrecursorMZ: 279.13505
RT: 5.7378
ExactMass: 280.14230712
Spectrum_type: 2
charge: -1
Formula: C14H20N2O4
SMILES: CC(C)C(C(=O)N[C@H](CC1=CC=C(C=C1)O)C(=O)O)N
Method: HCD
Collision_energy: [28.333334]
Isolation_window: 4.0
Ion_mode: N
Num Peaks: 17
59.0129	1.5
94.0289	2.1
115.0868	15.2
119.0495	2.9
136.0764	1.9
151.0507	4.3
163.0394	1.8
173.0922	1.6
176.0712	1.8
180.0657	2.4
235.1454	3.2
279.0905	1.9
279.1353	24.6
279.2330	37.4
280.1396	4.0
280.2362	7.1
281.2487	100.0

Name: (2R)-2-((2-amino-3-methylbutanoyl)amino)-3-phenylpropanoic acid
PrecursorMZ: 263.14009
RT: 4.5445
ExactMass: 264.1473925
Spectrum_type: 2
charge: -1
Formula: C14H20N2O3
SMILES: CC(C)C(C(=O)N[C@H](CC1=CC=CC=C1)C(=O)O)N
Method: HCD
Collision_energy: [28.333334]
Isolation_window: 4.0
Ion_mode: N
Num Peaks: 44
72.9922	2.4
84.0446	2.9
87.0079	2.3
91.0542	2.9
96.9592	4.4
108.0446	2.8
110.9848	1.8
115.0868	64.4
116.0708	8.1
116.0901	3.6
127.0868	5.9
128.0344	3.9
130.0865	2.2
135.0444	2.2
136.0760	1.8
137.0601	4.8
147.0445	16.9
148.0491	1.5
164.0710	12.0
175.0747	1.7
184.0013	2.8
189.0294	1.5
191.0825	2.3
200.0463	6.1
218.0794	2.1
218.0831	1.4
219.1144	6.9
219.1492	5.4
220.0972	1.6
229.1559	2.1
262.0721	1.6
262.0954	5.3
262.1106	1.8
262.5971	1.6
263.0787	2.7
263.1028	1.5
263.1054	4.8
263.1401	100.0
264.0874	3.6
264.1150	4.1
264.1430	15.0
265.0784	1.5
265.1187	2.1
265.1478	11.2

Name: (2R)-2-((2-azaniumylacetyl)amino)-3-(4-hydroxyphenyl)propanoate
PrecursorMZ: 237.08773
RT: 6.9973
ExactMass: 238.09535693
Spectrum_type: 2
charge: -1
Formula: C11H14N2O4
SMILES: C1=CC(=CC=C1C[C@H](C(=O)[O-])NC(=O)C[NH3+])O
Method: HCD
Collision_energy: [28.333334]
Isolation_window: 4.0
Ion_mode: N
Num Peaks: 15
72.9687	27.0
73.0398	44.4
94.0289	41.2
96.9592	30.7
135.0303	47.6
159.0654	53.5
175.0867	38.7
192.0658	83.3
193.0989	29.5
219.0769	35.6
236.0566	28.2
236.0974	29.0
237.0880	72.0
238.0701	33.4
239.0229	100.0

Name: (2R)-2-((5-oxopyrrolidine-2-carbonyl)amino)-3-phenylpropanoic acid
PrecursorMZ: 275.10379
RT: 4.7281
ExactMass: 276.111007
Spectrum_type: 2
charge: -1
Formula: C14H16N2O4
SMILES: C1CC(=O)NC1C(=O)N[C@H](CC2=CC=CC=C2)C(=O)O
Method: HCD
Collision_energy: [28.333334]
Isolation_window: 4.0
Ion_mode: N
Num Peaks: 38
59.0130	8.8
71.0129	6.7
71.0494	4.5
73.0286	4.6
83.0493	3.1
87.0079	5.8
93.0338	4.2
101.0600	14.9
109.0399	13.0
111.0444	4.2
112.0397	3.0
127.0506	100.0
127.0755	4.9
128.0346	3.1
128.0540	4.5
145.0503	4.5
147.0445	6.0
157.1228	17.9
173.0453	17.1
229.1808	5.3
230.0834	4.5
231.1134	3.1
232.0967	4.9
233.0805	3.2
255.1607	5.2
257.1750	4.9
273.1350	6.7
273.1709	43.6
274.0719	4.3
274.1342	3.4
274.1725	16.0
275.1044	60.9
275.1866	87.8
276.0872	4.1
276.1113	4.3
276.1901	13.3
277.0713	5.5
277.1065	3.9

Name: (2R)-2-(2-acetamidopropanoylamino)-3-phenylpropanoic acid
PrecursorMZ: 277.12001
RT: 4.6054
ExactMass: 278.12665706
Spectrum_type: 2
charge: -1
Formula: C14H18N2O4
SMILES: CC(C(=O)N[C@H](CC1=CC=CC=C1)C(=O)O)NC(=O)C
Method: HCD
Collision_energy: [28.333334]
Isolation_window: 4.0
Ion_mode: N
Num Peaks: 42
72.9921	4.5
80.9643	4.1
87.0080	4.6
87.0554	30.9
88.0393	7.3
89.0237	3.6
96.9590	3.6
101.0598	4.4
111.0556	4.4
112.0395	82.1
113.0429	4.2
119.0495	6.2
125.0474	8.9
126.0553	7.3
129.0661	90.4
130.0696	3.6
130.0864	6.2
135.0443	3.4
147.0444	17.4
163.0392	5.3
164.0710	47.1
165.0750	4.1
173.0451	4.6
190.0856	4.4
191.1185	44.8
192.1211	4.6
214.0871	21.1
215.0900	3.6
232.0976	22.0
233.0985	3.4
233.1288	5.5
235.1115	4.7
275.5763	3.8
276.0879	19.1
276.1212	4.8
277.1195	100.0
277.1526	4.9
278.1020	4.2
278.1248	6.8
279.0544	3.5
279.0906	8.0
279.1290	3.9

Name: (2R)-2-(2-aminopropanoylamino)-3-(1H-indol-3-yl)propanoic acid
PrecursorMZ: 274.11988
RT: 5.4465
ExactMass: 275.12699141
Spectrum_type: 2
charge: -1
Formula: C14H17N3O3
SMILES: CC(C(=O)N[C@H](CC1=CNC2=CC=CC=C21)C(=O)O)N
Method: HCD
Collision_energy: [28.333334]
Isolation_window: 4.0
Ion_mode: N
Num Peaks: 17
59.0130	17.3
74.0238	21.6
87.0555	26.7
101.0710	23.7
114.0550	17.1
116.0497	16.7
116.0706	13.6
127.0504	11.7
145.0612	80.5
229.0978	11.0
230.1315	12.5
272.1613	16.0
274.1199	100.0
275.1232	10.8
276.0885	10.3
276.1251	12.6
276.1672	14.6

Name: (2R)-2-(2-aminopropanoylamino)-3-(4-hydroxyphenyl)propanoic acid
PrecursorMZ: 251.10367
RT: 6.1644
ExactMass: 252.111007
Spectrum_type: 2
charge: -1
Formula: C12H16N2O4
SMILES: CC(C(=O)N[C@H](CC1=CC=C(C=C1)O)C(=O)O)N
Method: HCD
Collision_energy: [28.333334]
Isolation_window: 4.0
Ion_mode: N
Num Peaks: 7
87.0555	90.4
119.0492	19.3
135.0308	26.1
207.1131	15.5
250.0731	12.0
251.1035	100.0
252.1070	14.0

Name: (2R)-2-))(2S)-2-(isocyanoamino)propanoyl(amino(propanoic acid
PrecursorMZ: 184.07223
RT: 3.7123
Spectrum_type: 2
charge: -1
SMILES: CC(C(=O)NC(C)C(=O)O)N[N+]#[C-]
Method: HCD
Collision_energy: [28.333334]
Isolation_window: 4.0
Ion_mode: N
Num Peaks: 45
65.0136	1.1
68.9949	2.2
85.0399	0.7
88.0281	0.8
88.0395	100.0
88.0506	0.7
89.0427	3.0
94.0288	0.8
95.0242	40.4
96.0083	0.7
96.0273	1.5
96.0330	1.2
97.0398	6.7
111.0192	1.1
112.0507	1.5
112.9847	8.7
113.0353	0.8
113.0713	1.4
114.0553	0.9
123.0431	0.8
124.0400	1.7
124.0509	6.8
125.0349	1.5
125.0598	0.8
125.9362	3.3
136.0393	0.9
138.0666	1.1
140.0822	18.0
141.0853	0.9
142.0612	3.1
157.0486	5.3
182.0475	1.2
182.0937	0.8
183.0307	0.8
183.0431	1.0
183.0757	0.7
184.0729	11.7
184.0954	1.2
185.0573	4.7
185.0922	3.6
185.1171	1.6
185.1538	1.3
186.0304	2.0
186.0761	6.0
186.1108	0.7

Name: (2R)-2-amino-6-(((4R)-4-amino-4-carboxybutanoyl)amino)heptanedioic acid
PrecursorMZ: 318.13053
RT: 9.7977
ExactMass: 319.13795002
Spectrum_type: 2
charge: -1
Formula: C12H21N3O7
SMILES: C(C[C@H](C(=O)O)N)CC(C(=O)O)NC(=O)CC[C@H](C(=O)O)N
Method: HCD
Collision_energy: [28.333334]
Isolation_window: 4.0
Ion_mode: N
Num Peaks: 6
128.0345	68.4
128.0711	10.8
171.0766	9.8
189.0876	100.0
300.1196	24.2
318.1306	61.0

Name: (2R)-3-(3,4-dihydroxyphenyl)-2-)3-(3,4-dihydroxyphenyl)propanoyloxy(propanoic acid
PrecursorMZ: 361.09276
RT: 5.8344
Spectrum_type: 2
charge: -1
SMILES: C1=CC(=C(C=C1CCC(=O)OC(CC2=CC(=C(C=C2)O)O)C(=O)O)O)O
Method: HCD
Collision_energy: [28.333334]
Isolation_window: 4.0
Ion_mode: N
Num Peaks: 22
59.0129	1.8
109.0285	7.7
135.0442	100.0
136.0475	7.4
137.0598	9.2
138.0636	1.0
151.0755	2.7
161.0598	3.3
162.0638	1.3
179.0342	14.4
180.0376	1.6
181.0499	43.6
182.0531	4.1
255.0659	3.2
255.1018	1.6
256.0693	1.7
271.0976	1.5
273.1134	2.0
359.0768	3.4
360.0791	3.0
361.0927	23.6
362.0963	5.0

Name: (2R)-4-amino-2-(2-aminopropanoylamino)-4-oxobutanoic acid
PrecursorMZ: 202.08281
RT: 8.13386
ExactMass: 203.0906059
Spectrum_type: 2
charge: -1
Formula: C7H13N3O4
SMILES: CC(C(=O)N[C@H](CC(=O)N)C(=O)O)N
Method: HCD
Collision_energy: [28.333334]
Isolation_window: 4.0
Ion_mode: N
Num Peaks: 9
70.0291	15.3
87.0555	49.6
96.0083	18.8
114.0188	33.1
116.0710	15.6
171.0770	26.6
184.0722	100.0
201.0874	13.0
202.0837	28.1

Name: (2R)-5-(carbamoylamino)-2-acetamidopentanoic acid
PrecursorMZ: 216.09889
RT: 6.5142
ExactMass: 217.10625597
Spectrum_type: 2
charge: -1
Formula: C8H15N3O4
SMILES: CC(=O)N[C@H](CCCNC(=O)N)C(=O)O
Method: HCD
Collision_energy: [28.333334]
Isolation_window: 4.0
Ion_mode: N
Num Peaks: 15
86.0238	26.7
99.0077	17.4
114.0551	8.6
116.0708	77.9
128.0344	8.3
129.1026	8.9
131.0818	38.5
153.0914	11.9
154.0863	15.2
172.0616	15.0
173.0926	100.0
197.0805	15.1
198.0759	14.9
215.0092	8.8
215.0907	18.3

Name: (2R,3R)-2-hexyl-3-hydroxypentanedioic acid
PrecursorMZ: 231.12351
RT: 6.5667
ExactMass: 232.13107373
Spectrum_type: 2
charge: -1
Formula: C11H20O5
SMILES: CCCCCC[C@H]([C@@H](CC(=O)O)O)C(=O)O
Method: HCD
Collision_energy: [28.333334]
Isolation_window: 4.0
Ion_mode: N
Num Peaks: 34
59.0129	9.8
71.0129	10.6
72.9921	8.8
73.0284	7.3
82.0289	7.1
87.0078	8.7
89.0235	20.1
92.0497	8.4
99.0444	10.4
100.0393	12.5
112.0396	12.6
114.0187	6.8
116.0497	7.0
116.0708	33.1
130.0501	22.0
141.0191	9.6
151.1121	15.7
169.1227	32.8
185.1077	7.0
187.1333	14.2
195.1022	12.9
212.0921	16.7
213.1129	71.0
214.1160	7.7
230.1029	74.9
231.0504	11.6
231.0867	8.6
231.1238	100.0
232.0825	15.8
232.1185	24.3
232.1269	11.2
233.0659	12.1
233.1038	9.7
233.1547	6.7

Name: (2R,3R)-3-hydroxy-15-methyl-2-(13-methyltetradecanoylamino)hexadecane-1-sulfinate
PrecursorMZ: 618.47722
RT: 0.9541
ExactMass: 558.4556057
Spectrum_type: 2
charge: -1
Formula: C32H64NO4S-
SMILES: CC(C)CCCCCCCCCCC[C@H]([C@H](CS(=O)[O-])NC(=O)CCCCCCCCCCCC(C)C)O
Method: HCD
Collision_energy: [28.333334]
Isolation_window: 4.0
Ion_mode: N
Num Peaks: 20
68.7177	2.2
68.7219	4.5
68.8292	0.6
68.8334	1.3
79.9564	0.5
80.9643	0.5
96.9592	44.5
97.4663	0.7
98.9550	0.8
241.2170	0.7
255.2329	1.1
269.2481	0.6
349.2050	0.6
363.2219	0.6
616.4607	1.7
617.4624	4.0
618.2662	0.6
618.4780	100.0
619.4808	30.4
620.4796	6.2

Name: (2R,3R,4S,5S,6R)-2-(((3S,8R,9S,10S,13R,14S,17R)-10,13-dimethyl-17-((2R)-6-methylheptan-2-yl)-2,3,4,5,6,7,8,9,11,12,14,15,16,17-tetradecahydro-1H-cyclopenta(a)phenanthren-3-yl)oxy)-6-(hydroxymethyl)oxane-3,4,5-triol
PrecursorMZ: 549.41615
RT: 2.0258000000000003
ExactMass: 550.42333957
Spectrum_type: 2
charge: -1
Formula: C33H58O6
SMILES: C[C@H](CCCC(C)C)[C@H]1CC[C@@H]2[C@@]1(CC[C@H]3[C@H]2CCC4[C@@]3(CC[C@@H](C4)O[C@H]5[C@@H]([C@H]([C@@H]([C@H](O5)CO)O)O)O)C)C
Method: HCD
Collision_energy: [28.333334]
Isolation_window: 4.0
Ion_mode: N
Num Peaks: 18
59.0130	31.7
71.0130	33.7
73.0286	9.4
85.0285	17.0
89.0235	30.2
101.0235	74.8
113.0235	14.3
119.0339	10.0
489.2259	8.2
490.2370	24.3
504.2487	9.3
505.2573	16.0
549.2512	17.7
549.2984	8.6
549.4167	85.9
550.4202	30.0
551.3116	100.0
551.3856	21.5

Name: (2R,3R,4S,5S,6R)-2-)(2R,3S,4S,5R,6R)-4-aminooxy-4-aminoperoxy-3,5-dihydroxy-6-(hydroxymethyl)oxan-2-yl(oxy-6-(hydroxymethyl)oxane-3,4,5-triol
PrecursorMZ: 403.12019
RT: 5.2686
Spectrum_type: 2
charge: -1
SMILES: C(C1C(C(C(C(O1)OC2C(C(C(C(O2)CO)O)(ON)OON)O)O)O)O)O
Method: HCD
Collision_energy: [28.333334]
Isolation_window: 4.0
Ion_mode: N
Num Peaks: 14
61.9874	100.0
71.0129	0.9
89.0235	1.0
101.0233	1.1
143.0818	0.9
145.0974	2.3
341.1086	2.1
358.2085	1.1
401.1646	1.8
402.2028	3.8
403.1218	2.7
403.1754	5.0
404.1041	2.1
404.1756	1.6

Name: (2R,3R,4Z)-2-(4-hydroxyphenyl)-4-((4-hydroxyphenyl)methylidene)-5-oxooxolane-3-carboxylic acid
PrecursorMZ: 325.07175
RT: 4.1662
ExactMass: 326.07903816
Spectrum_type: 2
charge: -1
Formula: C18H14O6
SMILES: C1=CC(=CC=C1/C=C\2/[C@H]([C@@H](OC2=O)C3=CC=C(C=C3)O)C(=O)O)O
Method: HCD
Collision_energy: [28.333334]
Isolation_window: 4.0
Ion_mode: N
Num Peaks: 14
93.0338	8.6
130.0416	5.9
143.0494	7.7
183.0113	3.4
222.0685	4.7
235.0754	3.3
237.0920	33.8
238.0952	5.2
281.0817	12.0
282.0857	2.9
324.1567	3.6
325.0679	5.0
325.1847	100.0
326.1887	17.9

Name: (2R,3S)-2-(((4R)-4-hydroxypyrrolidine-2-carbonyl)amino)-3-methylpentanoic acid
PrecursorMZ: 243.13472
RT: 4.6931
ExactMass: 244.14230712
Spectrum_type: 2
charge: -1
Formula: C11H20N2O4
SMILES: CC[C@H](C)[C@H](C(=O)O)NC(=O)C1C[C@H](CN1)O
Method: HCD
Collision_energy: [28.333334]
Isolation_window: 4.0
Ion_mode: N
Num Peaks: 29
59.0129	11.1
74.0240	9.2
82.0289	19.6
88.0393	7.6
100.0394	7.5
112.0395	8.2
114.0554	6.8
114.0916	7.2
127.0505	15.5
130.0866	26.6
131.0898	7.2
141.1022	15.2
142.1063	9.5
145.0610	13.9
151.0870	43.0
181.1339	31.4
197.1292	79.7
198.1325	95.2
199.1089	25.3
199.1811	17.7
241.1194	51.6
242.0664	8.3
242.1231	100.0
243.0861	16.8
243.1326	34.7
243.1721	53.6
244.1744	8.1
245.0682	7.9
245.1028	7.2

Name: (2R,3S,4S,5S,6R)-2-))(4R,5S,6S)-4,5-dihydroxyoxazinan-6-yl(methylsulfanyl(-6-(hydroxymethyl)oxane-3,4,5-triol
PrecursorMZ: 326.09176
RT: 3.5179
Spectrum_type: 2
charge: -1
SMILES: C1C(C(C(ON1)CSC2C(C(C(C(O2)CO)O)O)O)O)O
Method: HCD
Collision_energy: [28.333334]
Isolation_window: 4.0
Ion_mode: N
Num Peaks: 17
63.9616	3.4
76.9694	3.0
79.9565	4.0
89.0235	1.0
100.0395	7.2
101.0235	11.1
164.0381	100.0
165.0416	4.9
166.0332	2.0
206.0489	3.5
236.0597	31.1
237.0627	2.7
238.0570	1.0
248.0597	1.8
266.0703	1.3
278.0705	3.0
326.0919	7.5

Name: (2S)-1-((1R)-1-carboxyethyl)-5-oxopyrrolidine-2-carboxylic acid
PrecursorMZ: 200.05572
RT: 6.1787
ExactMass: 201.06372245
Spectrum_type: 2
charge: -1
Formula: C8H11NO5
SMILES: C[C@H](C(=O)O)N1[C@@H](CCC1=O)C(=O)O
Method: HCD
Collision_energy: [28.333334]
Isolation_window: 4.0
Ion_mode: N
Num Peaks: 33
58.0289	1.8
59.0129	1.5
72.0445	4.9
82.0287	1.8
84.0444	2.0
88.0395	4.4
110.0237	3.8
112.0395	1.6
124.9999	1.6
127.0504	8.9
128.0344	100.0
128.0707	6.4
129.0380	6.1
130.0864	2.5
138.0552	2.8
139.0869	9.8
141.0658	2.6
145.0612	7.2
154.0502	3.4
156.0658	3.6
157.1338	3.3
158.1178	2.1
159.0769	1.8
182.0450	3.0
183.0770	4.2
199.1334	3.7
199.1699	2.4
200.0559	18.7
200.0910	2.7
201.0893	9.3
201.1103	2.5
201.1240	6.0
202.1075	3.9

Name: (2S)-1-((2S)-2-amino-3-methylpentanoyl)pyrrolidine-2-carboxylic acid
PrecursorMZ: 227.13991
RT: 5.0426
ExactMass: 228.1473925
Spectrum_type: 2
charge: -1
Formula: C11H20N2O3
SMILES: CCC(C)[C@@H](C(=O)N1CCC[C@H]1C(=O)O)N
Method: HCD
Collision_energy: [28.333334]
Isolation_window: 4.0
Ion_mode: N
Num Peaks: 88
59.0130	7.5
71.0131	3.0
72.9921	3.9
79.9564	5.5
80.9643	7.2
82.0290	8.0
82.0653	6.7
96.0196	3.4
96.0445	4.3
97.0273	4.4
97.4647	6.5
98.0239	3.2
108.0450	3.8
112.0508	20.6
112.0759	5.5
113.0349	3.1
114.0552	62.7
116.0708	8.0
126.0189	5.1
126.0301	6.9
127.0504	8.1
127.0870	7.0
128.0345	3.9
129.1026	5.6
130.0865	11.5
135.0553	4.9
136.0397	14.5
136.0760	3.4
137.0712	15.6
138.0553	10.4
140.0818	4.5
141.0660	3.6
148.0761	7.0
151.0326	4.4
154.0977	6.0
164.0711	6.4
166.0503	4.3
167.0456	10.0
167.0822	3.3
181.0436	4.2
182.0472	5.4
182.0601	3.9
182.1294	7.2
183.0907	3.5
183.1134	59.5
183.1500	7.7
184.0509	10.5
184.1174	5.4
185.0565	3.3
185.1655	22.7
197.0929	5.5
199.1087	4.0
208.1089	2.9
225.0892	6.2
225.1309	4.6
226.0506	3.3
226.0706	26.6
226.1065	11.4
226.1086	6.6
226.1203	9.0
226.1224	8.8
226.1393	12.5
226.6378	3.4
226.6401	5.4
227.0225	14.4
227.0550	5.4
227.0693	4.9
227.0741	2.8
227.1042	65.3
227.1072	7.0
227.1402	100.0
227.2012	36.2
227.6492	4.3
228.0492	3.8
228.0666	3.4
228.1010	4.4
228.1047	4.9
228.1070	6.1
228.1361	8.3
228.1394	12.3
228.1425	12.1
228.1615	6.5
228.2048	5.8
229.0713	3.7
229.1206	15.1
229.1443	7.2
229.1559	78.2
229.1597	4.1

Name: (2S)-1-(2-(furan-2-yl)-2-oxoethyl)-5-oxopyrrolidine-2-carboxylic acid
PrecursorMZ: 236.05639
RT: 0.6562
ExactMass: 237.06372245
Spectrum_type: 2
charge: -1
Formula: C11H11NO5
SMILES: C1CC(=O)N([C@@H]1C(=O)O)CC(=O)C2=CC=CO2
Method: HCD
Collision_energy: [28.333334]
Isolation_window: 4.0
Ion_mode: N
Num Peaks: 37
67.0179	2.2
68.0133	2.1
69.0336	0.8
70.0289	1.5
79.0180	2.9
80.9643	12.0
84.0445	2.1
93.0336	1.1
95.0129	0.7
96.0445	1.4
108.0447	1.2
109.0287	2.4
122.0602	1.2
124.0396	1.7
127.0395	0.8
136.0397	2.8
148.0401	1.4
148.0757	1.4
150.0553	1.6
164.0711	4.6
177.0189	2.6
191.0699	1.5
192.0661	100.0
192.1026	1.1
193.0697	9.7
193.0864	1.1
194.0850	0.7
234.0781	0.7
235.0612	4.4
235.0972	1.9
236.0562	69.5
236.0949	0.9
237.0587	5.8
237.0791	17.8
237.1180	1.1
238.0812	1.2
238.1084	0.7

Name: (2S)-1-(3-carboxylatopropanoyl)pyrrolidine-2-carboxylate
PrecursorMZ: 214.0717
RT: 7.16
ExactMass: 213.06372245
Spectrum_type: 2
charge: -1
Formula: C9H11NO5-2
SMILES: C1C[C@H](N(C1)C(=O)CCC(=O)[O-])C(=O)[O-]
Method: HCD
Collision_energy: [28.333334]
Isolation_window: 4.0
Ion_mode: N
Num Peaks: 9
84.0445	57.6
102.0551	31.5
112.0394	94.2
114.0552	29.8
144.0658	45.8
152.0712	31.0
170.0813	35.5
214.0716	100.0
215.0093	15.2

Name: (2S)-1-carbamoylpyrrolidine-2-carboxylate
PrecursorMZ: 157.06113
RT: 6.2375
ExactMass: 157.06131715
Spectrum_type: 2
charge: -1
Formula: C6H9N2O3-
SMILES: C1C[C@H](N(C1)C(=O)N)C(=O)[O-]
Method: HCD
Collision_energy: [28.333334]
Isolation_window: 4.0
Ion_mode: N
Num Peaks: 14
83.0242	0.9
112.0396	0.8
114.0385	0.8
114.0552	100.0
115.0586	5.8
116.0708	3.2
156.0660	1.1
156.8942	1.7
157.0614	1.6
157.0867	1.5
157.1228	3.2
158.0456	0.8
158.0813	1.1
158.8920	0.9

Name: (2S)-2-(((2R)-2-amino-3-(4-hydroxyphenyl)propanoyl)amino)-3-methylbutanoic acid
PrecursorMZ: 279.13496
RT: 4.9931
ExactMass: 280.14230712
Spectrum_type: 2
charge: -1
Formula: C14H20N2O4
SMILES: CC(C)[C@@H](C(=O)O)NC(=O)[C@@H](CC1=CC=C(C=C1)O)N
Method: HCD
Collision_energy: [28.333334]
Isolation_window: 4.0
Ion_mode: N
Num Peaks: 124
59.0130	2.5
71.0130	1.6
72.9923	1.4
73.0286	1.2
74.0238	2.1
78.9850	1.5
80.9642	1.5
84.0445	4.2
87.0080	1.8
88.0394	2.1
94.0289	2.7
106.0415	2.3
107.0494	16.0
107.0602	1.4
108.0446	2.9
108.0528	1.1
109.0399	2.8
110.0239	1.1
112.0393	1.1
112.0506	1.4
114.0552	4.4
115.0868	11.8
116.0708	30.2
117.0741	1.5
119.0493	2.7
122.0604	4.5
123.0555	3.9
124.0401	1.7
124.0508	27.3
124.0759	4.7
127.0869	15.7
128.0345	18.7
129.1025	6.6
130.0865	3.9
130.1059	0.8
134.0463	1.3
134.0604	2.8
136.0396	2.7
136.0760	79.8
137.0798	6.3
138.0554	2.1
138.0918	1.2
140.0710	1.7
146.0606	1.3
147.0444	1.9
148.0395	1.5
148.0760	1.3
149.0716	1.1
150.0552	5.0
150.0666	11.8
150.0916	1.1
151.0869	3.1
152.0711	1.8
154.0865	1.1
162.0553	1.8
163.0393	1.4
163.0506	1.7
163.0869	2.7
164.0709	3.1
165.0412	10.9
165.0652	2.8
165.1026	3.4
173.0447	1.3
173.0926	9.7
174.0549	1.3
174.0922	1.4
176.0470	1.2
176.0702	1.6
177.0657	1.4
178.0866	1.1
179.0821	1.3
180.0658	2.8
188.0708	1.5
190.0856	1.7
192.0788	2.0
192.1007	1.2
194.0569	1.7
204.1025	1.6
205.0974	2.1
210.0882	4.3
216.1386	1.9
218.0791	1.3
218.0809	1.5
218.1175	5.4
220.0622	1.1
233.1653	3.4
234.1113	1.9
234.1239	1.9
234.1687	1.3
235.1083	5.9
235.1442	4.3
236.0930	1.3
236.1041	1.7
236.1409	2.4
236.1432	2.1
248.0774	1.4
260.0924	1.4
260.1005	1.7
261.0644	1.3
261.1609	3.5
262.0768	5.9
262.1127	1.1
277.1225	1.7
277.1558	6.9
278.0707	1.2
278.1064	10.6
278.1131	6.8
278.1485	1.8
278.1543	2.6
278.1603	3.7
279.1006	16.9
279.1349	100.0
279.2319	1.9
280.0847	5.8
280.0895	8.3
280.1363	13.6
280.1402	9.5
280.1674	1.9
281.0885	3.9
281.1160	3.5
281.1453	1.3
281.1487	1.4
281.1539	1.2
281.2481	3.5

Name: (2S)-2-(((2R)-2-azaniumyl-3-phenylpropanoyl)amino)propanoate
PrecursorMZ: 235.1085
RT: 3.2496
ExactMass: 236.11609238
Spectrum_type: 2
charge: -1
Formula: C12H16N2O3
SMILES: C[C@@H](C(=O)[O-])NC(=O)[C@@H](CC1=CC=CC=C1)[NH3+]
Method: HCD
Collision_energy: [28.333334]
Isolation_window: 4.0
Ion_mode: N
Num Peaks: 46
79.9564	6.5
87.0189	2.9
88.0395	79.0
89.0427	2.9
91.0543	4.6
96.9592	4.8
99.0555	23.3
107.0605	5.4
108.0445	4.1
120.0447	8.2
122.0479	3.9
122.0604	3.2
123.0555	3.7
132.0811	8.8
148.0762	3.6
149.0600	12.6
160.0761	7.2
162.0550	2.8
163.0872	4.4
173.0707	3.0
174.0916	6.2
176.0347	3.0
176.0713	5.1
190.0518	6.3
190.0860	18.0
191.0820	68.2
191.1174	3.3
192.0658	10.4
192.0848	6.6
192.1022	7.2
193.0974	3.8
193.1341	6.0
204.0662	3.4
216.0667	4.8
234.0762	30.7
234.1094	9.3
235.0735	21.1
235.1083	100.0
235.1463	3.0
235.6186	4.3
236.0559	9.0
236.0936	17.5
236.1116	9.0
237.0855	3.4
237.0883	5.0
237.1242	10.7

Name: (2S)-2-(((2R)-pyrrolidine-2-carbonyl)amino)butanedioic acid
PrecursorMZ: 229.08303
RT: 8.923666666666668
ExactMass: 230.09027155
Spectrum_type: 2
charge: -1
Formula: C9H14N2O5
SMILES: C1C[C@@H](NC1)C(=O)N[C@@H](CC(=O)O)C(=O)O
Method: HCD
Collision_energy: [28.333334]
Isolation_window: 4.0
Ion_mode: N
Num Peaks: 13
71.0130	8.2
78.9582	11.4
88.0394	12.3
113.0711	100.0
114.0552	61.0
115.0028	40.7
141.1019	8.2
185.0926	67.1
211.0721	15.8
227.2013	37.6
228.2047	7.5
229.0829	97.8
230.0859	9.2

Name: (2S)-2-(((2S)-2-(((2S)-2-azaniumyl-3-methylbutanoyl)amino)-3-methylbutanoyl)amino)-3-phenylpropanoate
PrecursorMZ: 362.20816
RT: 2.6605
ExactMass: 363.21580641
Spectrum_type: 2
charge: -1
Formula: C19H29N3O4
SMILES: CC(C)[C@@H](C(=O)N[C@@H](C(C)C)C(=O)N[C@@H](CC1=CC=CC=C1)C(=O)[O-])[NH3+]
Method: HCD
Collision_energy: [28.333334]
Isolation_window: 4.0
Ion_mode: N
Num Peaks: 27
72.0081	1.0
80.9641	1.4
91.0540	1.4
114.0550	0.8
115.0867	12.7
116.0706	10.9
147.0442	10.6
164.0708	44.5
165.0744	4.6
169.1338	2.7
171.1493	0.9
196.1444	1.7
197.1288	7.0
202.1229	3.8
214.1554	41.2
215.1587	4.5
219.1496	5.3
220.1525	1.0
245.1285	2.5
285.1599	0.9
318.2183	6.9
319.2222	1.4
361.2096	1.1
362.2084	100.0
363.2122	22.7
364.2138	1.6
364.2580	1.3

Name: (2S)-2-(((2S)-2-(acetyl(15N)amino)-3-(113C)methyl(1,2,3,4-13C4)butanoyl)(15N)amino)-4-(113C)methyl(1,2,3,4,5-13C5)pentanoic acid
PrecursorMZ: 271.16637
RT: 3.0829
ExactMass: 285.20458023
Spectrum_type: 2
charge: -1
Formula: C13H24N2O4
SMILES: CC(=O)[15NH][13C@@H]([13CH]([13CH3])[13CH3])[13C](=O)[15NH][13C@@H]([13CH2][13CH]([13CH3])[13CH3])[13C](=O)O
Method: HCD
Collision_energy: [28.333334]
Isolation_window: 4.0
Ion_mode: N
Num Peaks: 20
87.0555	24.1
88.0393	6.0
114.0917	7.2
116.0708	15.5
127.0504	6.0
130.0866	23.1
196.1451	8.6
209.1657	19.0
227.1408	7.7
241.1196	9.5
241.1557	20.7
269.1515	15.6
269.2130	9.7
269.2448	7.1
269.2477	6.6
270.2075	12.2
271.1665	100.0
271.2019	17.7
271.2285	13.6
272.1676	16.9

Name: (2S)-2-(((2S)-2-amino-3-hydroxybutanoyl)amino)-3-(1H-indol-3-yl)propanoic acid
PrecursorMZ: 304.13036
RT: 5.127800000000001
ExactMass: 305.1375561
Spectrum_type: 2
charge: -1
Formula: C15H19N3O4
SMILES: CC([C@@H](C(=O)N[C@@H](CC1=CNC2=CC=CC=C21)C(=O)O)N)O
Method: HCD
Collision_energy: [28.333334]
Isolation_window: 4.0
Ion_mode: N
Num Peaks: 27
59.0130	24.2
73.0398	26.2
74.0238	27.1
88.0397	15.9
109.0286	14.8
114.0549	16.4
116.0498	26.8
116.0709	25.7
131.0453	67.0
135.0444	23.9
136.0761	37.0
152.0346	18.2
165.0665	14.2
168.0117	30.5
203.0822	48.8
241.0974	15.6
260.1043	100.0
261.1611	28.6
303.1045	14.7
303.1356	56.3
304.1306	64.9
305.0640	15.7
305.0679	14.0
305.1179	20.8
306.1026	21.7
306.1313	17.1
306.1358	17.9

Name: (2S)-2-(((2S)-2-azaniumyl-3-hydroxypropanoyl)amino)-3-phenylpropanoate
PrecursorMZ: 251.10374
RT: 5.253
ExactMass: 252.111007
Spectrum_type: 2
charge: -1
Formula: C12H16N2O4
SMILES: C1=CC=C(C=C1)C[C@@H](C(=O)[O-])NC(=O)[C@H](CO)[NH3+]
Method: HCD
Collision_energy: [28.333334]
Isolation_window: 4.0
Ion_mode: N
Num Peaks: 19
59.0130	24.0
73.0398	100.0
147.0443	19.9
162.0553	25.8
164.0708	46.0
204.0659	10.8
205.0723	12.0
209.0718	43.9
221.0928	98.6
222.0955	10.3
249.0808	13.6
249.1457	12.6
250.0703	19.5
250.1455	37.7
251.1035	97.4
251.1597	13.2
252.0880	23.9
253.0911	20.3
253.1450	10.1

Name: (2S)-2-(((2S)-2-azaniumyl-3-hydroxypropanoyl)amino)pentanedioate
PrecursorMZ: 233.07754
RT: 8.647266666666667
ExactMass: 233.07736114
Spectrum_type: 2
charge: -1
Formula: C8H13N2O6-
SMILES: C(CC(=O)[O-])[C@@H](C(=O)[O-])NC(=O)[C@H](CO)[NH3+]
Method: HCD
Collision_energy: [28.333334]
Isolation_window: 4.0
Ion_mode: N
Num Peaks: 7
102.0553	38.8
104.0344	100.0
128.0346	88.2
159.0771	73.4
189.0879	32.1
215.0673	38.0
233.0790	99.4

Name: (2S)-2-(((2S)-2-azaniumyl-3-methylbutanoyl)amino)-3-(1H-indol-3-yl)propanoate
PrecursorMZ: 302.15099
RT: 5.6245
ExactMass: 303.15829154
Spectrum_type: 2
charge: -1
Formula: C16H21N3O3
SMILES: CC(C)[C@@H](C(=O)N[C@@H](CC1=CNC2=CC=CC=C21)C(=O)[O-])[NH3+]
Method: HCD
Collision_energy: [28.333334]
Isolation_window: 4.0
Ion_mode: N
Num Peaks: 23
59.0130	4.1
74.0238	13.1
88.0394	4.5
115.0867	27.5
116.0495	7.1
116.0709	7.1
129.1024	22.7
136.0759	6.8
137.0598	4.7
155.0821	8.9
173.0925	61.8
174.0959	3.0
203.0819	6.1
243.1144	5.0
258.1625	7.9
259.1440	12.0
272.1614	3.3
300.1844	4.2
301.1643	11.9
301.2006	11.1
302.1498	100.0
303.1518	14.8
303.1816	11.3

Name: (2S)-2-(((2S)-2-azaniumyl-3-phenylpropanoyl)amino)butanedioate
PrecursorMZ: 279.09876
RT: 6.35275
ExactMass: 279.09809658
Spectrum_type: 2
charge: -1
Formula: C13H15N2O5-
SMILES: C1=CC=C(C=C1)C[C@@H](C(=O)N[C@@H](CC(=O)[O-])C(=O)[O-])[NH3+]
Method: HCD
Collision_energy: [28.333334]
Isolation_window: 4.0
Ion_mode: N
Num Peaks: 18
59.0130	15.2
71.0130	27.3
71.0242	39.5
88.0395	30.3
114.0552	11.4
115.0030	53.5
116.0711	18.2
128.0345	12.5
146.0604	11.0
150.0665	19.9
163.0871	50.5
164.0710	60.6
235.1089	44.0
277.0924	12.2
279.0987	100.0
279.2325	16.7
280.0960	19.1
281.2483	20.5

Name: (2S)-2-(((2S)-2-azaniumylpropanoyl)amino)-3-phenylpropanoate
PrecursorMZ: 235.10859
RT: 5.1494
ExactMass: 236.11609238
Spectrum_type: 2
charge: -1
Formula: C12H16N2O3
SMILES: C[C@@H](C(=O)N[C@@H](CC1=CC=CC=C1)C(=O)[O-])[NH3+]
Method: HCD
Collision_energy: [28.333334]
Isolation_window: 4.0
Ion_mode: N
Num Peaks: 13
84.0446	29.7
87.0554	100.0
107.0606	7.3
128.0345	40.2
147.0445	27.3
155.0816	5.6
164.0711	11.3
191.0820	22.0
191.1179	5.7
234.0905	7.9
235.0724	32.9
235.1084	80.4
236.1117	11.8

Name: (2S)-2-(((2S,3R)-2-azaniumyl-3-hydroxybutanoyl)amino)butanedioate
PrecursorMZ: 233.07757
RT: 8.52255
ExactMass: 233.07736114
Spectrum_type: 2
charge: -1
Formula: C8H13N2O6-
SMILES: C[C@H]([C@@H](C(=O)N[C@@H](CC(=O)[O-])C(=O)[O-])[NH3+])O
Method: HCD
Collision_energy: [28.333334]
Isolation_window: 4.0
Ion_mode: N
Num Peaks: 10
71.0130	16.8
73.0399	40.3
88.0395	53.0
115.0029	51.4
117.0661	35.0
118.0500	45.6
145.0612	100.0
232.1198	16.3
233.0779	99.4
233.1546	58.6

Name: (2S)-2-(15N)azanyl-3-(2,4,5,6,7-pentadeuterio-1H-indol-3-yl)propanoic acid
PrecursorMZ: 203.08189
RT: 7.6025
ExactMass: 211.11533115
Spectrum_type: 2
charge: -1
Formula: C11H12N2O2
SMILES: [2H]C1=C(C(=C2C(=C1[2H])C(=C([15NH]2)[2H])C[C@@H](C(=O)O)[15NH2])[2H])[2H]
Method: HCD
Collision_energy: [28.333334]
Isolation_window: 4.0
Ion_mode: N
Num Peaks: 38
59.0128	9.1
72.0082	30.1
74.0238	31.7
88.0395	11.7
96.0445	7.3
98.0238	44.1
102.0550	22.6
113.0347	24.5
113.0963	25.7
114.0914	19.9
116.0496	83.4
116.0707	36.0
117.0528	6.5
123.0805	12.2
128.0344	14.4
129.0380	13.9
131.0454	9.0
140.0708	25.5
141.0913	100.0
142.0501	55.3
142.0654	25.8
142.0951	9.4
157.0692	13.7
158.0609	11.2
158.0812	17.6
159.0919	22.3
159.1029	11.9
160.0608	64.7
173.0562	22.4
184.0607	10.1
185.0811	49.0
201.0592	12.0
202.0711	76.4
203.0810	80.9
203.0919	53.9
203.0941	82.5
204.0846	11.2
205.1593	12.8

Name: (2S)-2-amino-3,4-dideuteriopentanedioic acid
PrecursorMZ: 146.04509
RT: 8.5933
ExactMass: 149.06571126
Spectrum_type: 2
charge: -1
Formula: C5H9NO4
SMILES: [2H]C([C@@H](C(=O)O)N)C([2H])C(=O)O
Method: HCD
Collision_energy: [28.333334]
Isolation_window: 4.0
Ion_mode: N
Num Peaks: 13
61.9875	4.1
85.0286	3.6
87.0080	3.2
102.0551	100.0
103.0585	5.0
105.0450	2.2
118.0402	7.6
128.0345	45.6
129.0381	3.5
145.0508	2.1
146.0246	3.6
146.0451	23.5
147.0669	1.9

Name: (2S)-2-amino-3-((1,4,5,6-13C4)cyclohexatrienyl)(2,3-13C2)propanoic acid
PrecursorMZ: 164.07102
RT: 6.7431
ExactMass: 171.09910761
Spectrum_type: 2
charge: -1
Formula: C9H11NO2
SMILES: C1=C[13C](=[13CH][13CH]=[13CH]1)[13CH2][13C@@H](C(=O)O)N
Method: HCD
Collision_energy: [28.333334]
Isolation_window: 4.0
Ion_mode: N
Num Peaks: 10
72.0082	31.0
91.0544	1.6
103.0543	1.6
119.0494	0.9
121.0285	1.8
147.0445	100.0
148.0478	9.4
164.0711	69.3
165.0413	5.8
165.0746	6.6

Name: (2S)-2-amino-4-(2-aminophenyl)-2-deuterio-4-oxobutanoic acid
PrecursorMZ: 189.0664
RT: 3.2985
ExactMass: 209.091069
Spectrum_type: 2
charge: -1
Formula: C10H12N2O3
SMILES: [2H][C@](CC(=O)C1=CC=CC=C1N)(C(=O)O)N
Method: HCD
Collision_energy: [28.333334]
Isolation_window: 4.0
Ion_mode: N
Num Peaks: 11
144.0448	100.0
145.0487	12.2
146.0605	95.1
146.0808	17.2
162.0554	16.3
172.0400	26.3
188.0713	13.0
188.0924	29.1
189.0653	53.7
189.1121	13.1
190.0705	11.5

Name: (2S)-2-amino-5-(1-carboxybut-3-ynylamino)-5-oxopentanoic acid
PrecursorMZ: 241.08284
RT: 5.2494
ExactMass: 242.09027155
Spectrum_type: 2
charge: -1
Formula: C10H14N2O5
SMILES: C#CCC(C(=O)O)NC(=O)CC[C@@H](C(=O)O)N
Method: HCD
Collision_energy: [28.333334]
Isolation_window: 4.0
Ion_mode: N
Num Peaks: 27
59.0130	16.1
71.0130	4.0
72.9922	4.2
74.0239	4.1
84.0446	13.8
85.0285	4.3
96.0082	6.8
108.0445	3.9
109.0401	4.0
112.0396	100.0
113.0236	3.6
113.0427	5.6
128.0345	7.2
130.0866	3.8
136.0759	4.2
155.0455	8.8
197.1172	21.4
217.1341	6.4
217.6349	4.6
240.0861	7.2
241.0725	11.3
241.1086	15.8
241.2170	41.9
242.1053	4.2
242.2206	7.4
243.0873	3.8
243.1231	8.8

Name: (2S)-3-(1H-indol-3-yl)-2-((5-methylfuran-2-carbonyl)amino)propanoate
PrecursorMZ: 311.10345
RT: 3.0059
ExactMass: 311.10318196
Spectrum_type: 2
charge: -1
Formula: C17H15N2O4-
SMILES: CC1=CC=C(O1)C(=O)N[C@@H](CC2=CNC3=CC=CC=C32)C(=O)[O-]
Method: HCD
Collision_energy: [28.333334]
Isolation_window: 4.0
Ion_mode: N
Num Peaks: 24
59.0129	1.3
66.0339	1.1
94.0289	13.4
96.9590	1.9
124.0395	100.0
125.0428	5.4
130.0867	1.0
183.0113	4.3
211.1336	1.2
219.0917	1.4
237.1020	1.3
267.1137	7.4
268.1174	1.2
293.2123	1.7
309.1731	1.6
311.1057	11.4
311.1682	97.2
311.2200	10.7
311.2921	2.8
312.1094	2.2
312.1715	17.0
312.2222	2.0
313.1672	2.1
313.2357	1.2

Name: (2S)-3-(3,4-dihydroxyphenyl)-2-(3-(3,4-dihydroxyphenyl)propanoyloxy)propanoic acid
PrecursorMZ: 361.09319
RT: 9.9364
ExactMass: 362.10016753
Spectrum_type: 2
charge: -1
Formula: C18H18O8
SMILES: C1=CC(=C(C=C1CCC(=O)O[C@@H](CC2=CC(=C(C=C2)O)O)C(=O)O)O)O
Method: HCD
Collision_energy: [28.333334]
Isolation_window: 4.0
Ion_mode: N
Num Peaks: 21
59.0128	2.6
109.0287	3.9
135.0444	100.0
136.0477	7.9
137.0601	9.4
138.0635	1.1
161.0599	2.9
162.0633	1.8
179.0345	13.0
180.0383	1.5
181.0501	43.9
182.0536	4.0
255.0667	2.7
256.0695	3.6
271.0983	1.2
272.1008	1.4
316.0907	1.0
359.0774	1.4
360.0785	3.7
361.0929	5.5
362.0931	1.4

Name: (2S)-4-amino-2-((2-amino-3-methylbutanoyl)amino)-4-oxobutanoic acid
PrecursorMZ: 230.11431
RT: 7.1479
ExactMass: 231.12190603
Spectrum_type: 2
charge: -1
Formula: C9H17N3O4
SMILES: CC(C)C(C(=O)N[C@@H](CC(=O)N)C(=O)O)N
Method: HCD
Collision_energy: [28.333334]
Isolation_window: 4.0
Ion_mode: N
Num Peaks: 4
114.0188	43.9
115.0869	58.6
212.1037	100.0
230.1155	57.9

Name: (2S)-4-amino-2-((2-amino-3-phenylpropanoyl)amino)-4-oxobutanoic acid
PrecursorMZ: 278.11462
RT: 5.390025
ExactMass: 279.12190603
Spectrum_type: 2
charge: -1
Formula: C13H17N3O4
SMILES: C1=CC=C(C=C1)CC(C(=O)N[C@@H](CC(=O)N)C(=O)O)N
Method: HCD
Collision_energy: [28.333334]
Isolation_window: 4.0
Ion_mode: N
Num Peaks: 16
70.0289	17.1
71.0241	40.0
80.9642	25.2
96.0081	28.6
114.0188	65.7
131.0455	11.6
136.0764	12.2
142.0617	11.1
146.0607	11.1
163.0870	19.8
217.0980	8.7
260.1040	100.0
261.1080	11.2
277.0492	13.9
278.1149	97.4
279.1180	7.7

Name: (2S)-4-amino-2-((2-amino-4-methylpentanoyl)amino)-4-oxobutanoic acid
PrecursorMZ: 244.13012
RT: 6.4891
ExactMass: 245.1375561
Spectrum_type: 2
charge: -1
Formula: C10H19N3O4
SMILES: CC(C)CC(C(=O)N[C@@H](CC(=O)N)C(=O)O)N
Method: HCD
Collision_energy: [28.333334]
Isolation_window: 4.0
Ion_mode: N
Num Peaks: 13
96.0083	21.9
110.0239	20.0
114.0188	59.8
129.1024	55.3
181.1228	18.9
199.1333	36.7
226.1193	100.0
227.1282	49.9
242.2205	23.5
242.9965	30.0
243.1233	44.8
244.1310	82.8
245.1391	89.7

Name: (2S)-4-methylsulfinyl-2-(((Z)-octadec-9-enoyl)amino)butanoic acid
PrecursorMZ: 428.28352
RT: 1.8599
ExactMass: 429.29128003
Spectrum_type: 2
charge: -1
Formula: C23H43NO4S
SMILES: CCCCCCCC/C=C\CCCCCCCC(=O)N[C@@H](CCS(=O)C)C(=O)O
Method: HCD
Collision_energy: [28.333334]
Isolation_window: 4.0
Ion_mode: N
Num Peaks: 26
63.9615	5.0
69.5342	3.4
72.0082	5.4
74.0238	6.3
77.0058	4.2
79.9564	5.7
86.0061	4.3
100.0392	4.5
164.0379	35.3
306.2794	5.9
308.2588	3.9
308.2951	3.2
320.2957	36.7
321.2987	7.3
322.3116	19.8
350.2522	3.5
364.2858	8.1
366.3026	4.7
413.2620	6.3
415.2746	3.4
427.1432	44.2
428.1479	10.0
428.2839	100.0
429.1518	5.0
429.2861	27.3
430.2995	54.0

Name: (2S)-5-amino-2-(((2R)-2-amino-3-phenylpropanoyl)amino)-5-oxopentanoic acid
PrecursorMZ: 292.13007
RT: 5.5692
ExactMass: 293.1375561
Spectrum_type: 2
charge: -1
Formula: C14H19N3O4
SMILES: C1=CC=C(C=C1)C[C@H](C(=O)N[C@@H](CCC(=O)N)C(=O)O)N
Method: HCD
Collision_energy: [28.333334]
Isolation_window: 4.0
Ion_mode: N
Num Peaks: 33
59.0129	4.8
71.0240	5.0
74.0238	6.9
80.9642	8.6
87.0553	4.3
96.9591	4.3
107.0493	14.9
114.0553	6.1
127.0504	32.0
128.0344	9.9
130.0864	30.6
134.0237	5.2
138.0663	11.9
141.1025	13.8
145.0610	12.4
146.0598	5.1
155.0821	4.4
156.0770	17.9
187.1085	11.2
213.1030	5.9
230.1293	4.9
231.1140	6.0
236.1051	4.7
248.1401	5.8
274.1196	23.1
291.0989	5.5
291.1782	5.6
292.1300	68.2
293.1274	3.8
293.1509	100.0
293.1786	9.2
294.1002	6.0
294.1544	9.8

Name: (2S)-5-amino-2-(((2S)-2-amino-3-hydroxybutanoyl)amino)-5-oxopentanoic acid
PrecursorMZ: 246.10932
RT: 7.175875
ExactMass: 247.11682065
Spectrum_type: 2
charge: -1
Formula: C9H17N3O5
SMILES: CC([C@@H](C(=O)N[C@@H](CCC(=O)N)C(=O)O)N)O
Method: HCD
Collision_energy: [28.333334]
Isolation_window: 4.0
Ion_mode: N
Num Peaks: 20
74.0237	9.0
78.9581	24.5
115.0031	2.4
127.0505	3.2
129.1024	5.0
130.0867	2.9
140.0823	6.7
145.0610	5.9
152.9951	82.6
153.9985	2.5
171.0058	35.0
184.0725	5.3
201.1251	2.7
202.0831	17.3
245.0431	100.0
245.0636	4.0
245.1112	3.3
246.0460	6.6
246.1102	10.2
248.0802	4.3

Name: (2S)-5-amino-2-(((2S)-2-azaniumyl-3-hydroxypropanoyl)amino)-5-oxopentanoate
PrecursorMZ: 232.09346
RT: 7.7095
ExactMass: 233.10117059
Spectrum_type: 2
charge: -1
Formula: C8H15N3O5
SMILES: C(CC(=O)N)[C@@H](C(=O)[O-])NC(=O)[C@H](CO)[NH3+]
Method: HCD
Collision_energy: [28.333334]
Isolation_window: 4.0
Ion_mode: N
Num Peaks: 16
59.0128	25.0
73.0397	27.7
87.0078	30.7
127.0504	32.9
128.0344	25.8
140.0821	60.3
145.0605	35.9
158.0928	39.1
184.0723	59.7
202.0830	51.6
231.0496	42.9
231.0855	40.7
231.0879	32.9
232.0959	100.0
233.0663	64.0
233.1024	41.9

Name: (2S)-6-amino-2-(((2S)-2-amino-3-hydroxybutanoyl)amino)hexanoic acid
PrecursorMZ: 246.14564
RT: 9.9791
ExactMass: 247.15320616
Spectrum_type: 2
charge: -1
Formula: C10H21N3O4
SMILES: CC([C@@H](C(=O)N[C@@H](CCCCN)C(=O)O)N)O
Method: HCD
Collision_energy: [28.333334]
Isolation_window: 4.0
Ion_mode: N
Num Peaks: 8
116.0708	12.5
131.0819	11.1
145.0975	61.8
158.1292	24.9
184.0004	11.9
202.1193	100.0
246.1464	34.9
248.0796	37.6

Name: (2S,3R)-3-(3-((2S,3R)-2-amino-3-hydroxybutanoyl)oxypropoxy)-2-((2-methylpropan-2-yl)oxycarbonylamino)butanoic acid
PrecursorMZ: 377.19293
RT: 8.444
ExactMass: 378.20021592
Spectrum_type: 2
charge: -1
Formula: C16H30N2O8
SMILES: C[C@H]([C@@H](C(=O)OCCCO[C@H](C)[C@@H](C(=O)O)NC(=O)OC(C)(C)C)N)O
Method: HCD
Collision_energy: [28.333334]
Isolation_window: 4.0
Ion_mode: N
Num Peaks: 8
98.0603	3.9
116.0709	16.4
142.0866	3.3
168.1023	7.9
216.1248	3.6
260.1141	20.8
377.1935	100.0
378.1967	18.0

Name: (2S,3R,4R,5S,6R)-3,4-dihydroxy-6-(hydroxymethyl)-5-((2S,3R,4S,5S,6R)-3,4,5-trihydroxy-6-(hydroxymethyl)oxan-2-yl)oxyoxane-2-carbonitrile
PrecursorMZ: 350.10889
RT: 7.6646
ExactMass: 351.11654587
Spectrum_type: 2
charge: -1
Formula: C13H21NO10
SMILES: C([C@@H]1[C@H]([C@@H]([C@H]([C@@H](O1)O[C@@H]2[C@H](O[C@H]([C@@H]([C@H]2O)O)C#N)CO)O)O)O)O
Method: HCD
Collision_energy: [28.333334]
Isolation_window: 4.0
Ion_mode: N
Num Peaks: 4
89.0234	23.6
113.0234	68.1
161.0446	35.6
323.0982	100.0

Name: (2S,3R,4R,5S,6R)-5-((2R,3R,4S,5S,6R)-3,4-dihydroxy-6-methyl-5-(((1R,2S,3S,4R,5R)-2,3,4-trihydroxy-5-(hydroxymethyl)cyclohexyl)amino)oxan-2-yl)oxy-6-(hydroxymethyl)oxane-2,3,4-triol
PrecursorMZ: 484.20126
RT: 1.7493
ExactMass: 485.21084017
Spectrum_type: 2
charge: -1
Formula: C19H35NO13
SMILES: C[C@@H]1[C@H]([C@@H]([C@H]([C@H](O1)O[C@@H]2[C@H](O[C@@H]([C@@H]([C@H]2O)O)O)CO)O)O)N[C@@H]3C[C@@H]([C@H]([C@@H]([C@H]3O)O)O)CO
Method: HCD
Collision_energy: [28.333334]
Isolation_window: 4.0
Ion_mode: N
Num Peaks: 17
53.8016	4.3
72.9923	3.0
80.9643	2.8
96.9592	13.7
99.0442	3.0
423.2884	5.6
441.2978	2.2
452.1751	5.1
454.1914	12.4
455.1957	2.5
484.2013	100.0
485.2042	23.4
485.2843	11.5
485.3291	17.0
486.2018	4.9
486.2892	2.3
486.3346	2.6

Name: (2S,3R,4S)-4-)(2S,5S,7S,8R,9S)-2-)(2R,5S)-5-ethyl-5-)(2R,3S,5R)-5-)(2S,6R)-6-hydroxy-6-(hydroxymethyl)oxan-2-yl(-3-methyloxolan-2-yl(oxolan-2-yl(-9-hydroxy-8-methyl-1,6-dioxaspiro)4.5(decan-7-yl(-3-methoxy-2-methylpentanoic acid
PrecursorMZ: 583.38632
RT: 0.7126
Spectrum_type: 2
charge: -1
SMILES: CCC1(CCC(O1)C2CCC3(O2)CC(C(C(O3)C(C)C(C(C)C(=O)O)OC)C)O)C4C(CC(O4)C5CCCC(O5)(CO)O)C
Method: HCD
Collision_energy: [28.333334]
Isolation_window: 4.0
Ion_mode: N
Num Peaks: 55
57.0337	2.7
59.0130	9.1
61.9875	16.8
64.8187	2.5
64.8226	4.4
71.0129	3.4
71.0494	2.6
73.0285	3.4
78.9581	2.7
79.9564	3.5
83.0494	4.2
85.0284	2.9
87.0079	2.5
87.0442	5.9
96.9592	2.8
97.0648	3.3
99.0442	2.5
101.0600	3.2
109.0651	2.5
111.0808	2.6
113.0600	2.6
115.0392	4.6
145.0496	3.0
152.9950	7.1
153.0915	2.6
171.1021	5.2
197.1177	2.9
209.1176	3.0
211.1333	4.5
237.1490	3.2
239.1655	2.8
257.1758	4.8
259.1912	8.6
281.2481	3.6
287.2225	4.7
305.1768	3.8
315.2550	2.6
327.2189	3.1
329.2328	3.7
343.2155	3.1
345.2298	2.9
435.2509	4.1
437.2659	2.9
539.3604	6.6
541.3758	7.0
565.3763	5.3
567.3934	3.4
581.3640	23.5
582.3765	21.6
583.3132	9.6
583.3875	100.0
584.3173	7.3
584.3914	28.3
585.3221	9.8
585.4050	55.2

Name: (2S,3S)-2-(((2S)-2,4-diamino-4-oxobutanoyl)amino)-3-hydroxybutanoic acid
PrecursorMZ: 232.09365
RT: 7.054233333333333
ExactMass: 233.10117059
Spectrum_type: 2
charge: -1
Formula: C8H15N3O5
SMILES: C[C@@H]([C@@H](C(=O)O)NC(=O)[C@H](CC(=O)N)N)O
Method: HCD
Collision_energy: [28.333334]
Isolation_window: 4.0
Ion_mode: N
Num Peaks: 15
74.0238	100.0
85.0399	15.4
98.0241	15.8
113.0348	86.8
118.0499	11.8
127.0504	16.3
131.0451	15.7
154.0138	27.5
171.0406	76.0
188.0671	41.6
188.0923	39.6
216.0775	14.7
230.1025	20.9
232.0944	36.4
233.1544	56.0

Name: (2S,3S)-2-(((2S)-2-amino-3-(1H-indol-3-yl)(113C)propanoyl)amino)-3-methyl(113C)pentanoic acid
PrecursorMZ: 316.16665
RT: 4.6302
ExactMass: 319.18065127
Spectrum_type: 2
charge: -1
Formula: C17H23N3O3
SMILES: CC[C@H](C)[C@@H]([13C](=O)O)N[13C](=O)[C@H](CC1=CNC2=CC=CC=C21)N
Method: HCD
Collision_energy: [28.333334]
Isolation_window: 4.0
Ion_mode: N
Num Peaks: 37
59.0129	3.7
73.0399	2.2
88.0393	1.3
116.0497	2.3
116.0709	4.4
120.0810	3.4
130.0657	9.6
130.0866	33.0
131.0901	2.1
141.1027	6.3
143.1184	6.9
157.0766	2.9
161.0478	1.8
187.1083	24.0
188.1122	1.8
215.1189	6.1
241.1343	1.4
243.1136	3.7
243.1496	3.2
253.1346	8.9
254.1375	1.5
255.1497	1.3
269.1296	1.3
271.1455	8.9
272.1489	1.7
272.1767	13.0
273.1834	1.8
287.1403	18.5
288.1435	3.5
314.2074	3.0
315.1352	72.7
316.1380	10.7
316.1675	100.0
316.1940	1.6
317.1140	2.3
317.1714	20.1
318.1730	1.5

Name: (2S,3S)-2-(((2S)-2-amino-3-phenylpropanoyl)amino)-3-hydroxybutanoic acid
PrecursorMZ: 265.11935
RT: 4.678800000000001
ExactMass: 266.12665706
Spectrum_type: 2
charge: -1
Formula: C13H18N2O4
SMILES: C[C@@H]([C@@H](C(=O)O)NC(=O)[C@H](CC1=CC=CC=C1)N)O
Method: HCD
Collision_energy: [28.333334]
Isolation_window: 4.0
Ion_mode: N
Num Peaks: 103
59.0129	0.7
69.7166	0.8
71.0129	0.8
72.0082	1.5
72.9923	1.2
74.0238	23.1
78.9581	1.5
79.9564	1.0
80.9643	1.4
83.0241	1.3
84.0446	1.6
85.0292	0.8
85.0398	32.7
86.0431	1.1
87.0079	1.3
91.0544	4.0
96.9592	8.0
98.0239	0.6
108.0447	2.5
110.9845	0.6
111.0191	9.2
111.0555	1.3
114.0551	1.2
115.0873	1.0
116.0708	1.9
122.0604	1.2
123.0445	0.7
124.0396	0.6
127.0868	1.3
128.0346	4.1
130.0866	1.4
131.0368	1.3
135.0448	1.2
136.0759	2.4
137.0799	2.5
138.0557	0.8
138.0824	2.0
140.0711	0.9
147.0446	1.0
150.0556	0.8
152.9953	1.5
155.0605	1.0
160.0761	6.1
162.0553	0.9
162.0916	1.0
164.0710	4.2
172.0638	1.4
173.0719	0.9
175.0872	5.1
176.0713	0.8
177.1035	1.0
178.0859	0.9
179.0568	1.6
179.1191	1.1
186.0909	0.8
191.0827	0.8
193.0623	0.9
193.0982	1.1
195.1140	1.0
202.0869	0.9
203.0824	7.7
203.1181	0.9
204.0663	1.3
204.0856	0.8
205.1349	0.8
206.0816	0.8
211.2065	1.1
217.0614	1.1
220.0623	0.8
220.0952	2.5
220.0985	0.9
221.0479	0.9
221.0749	1.3
221.0930	100.0
221.1177	4.4
222.0770	0.6
222.0961	11.2
222.1132	0.8
222.1202	0.7
223.0982	0.9
223.1108	1.7
263.1009	1.4
263.1408	3.4
263.1677	1.1
263.6294	0.7
264.0658	1.0
264.0890	4.0
264.1473	1.1
265.0752	3.3
265.0908	1.0
265.1176	9.4
265.1202	24.9
265.1485	6.2
266.0729	1.0
266.1041	3.4
266.1073	1.2
266.1196	0.9
266.1243	3.1
266.1508	0.7
267.0645	0.9
267.0922	2.7
267.0973	3.2
267.1345	1.8

Name: (2S,3S,4S)-3-(carboxymethyl)-4-(4-oxobut-2-en-2-yl)pyrrolidine-2-carboxylic acid
PrecursorMZ: 240.08748
RT: 7.5373
ExactMass: 241.09502258
Spectrum_type: 2
charge: -1
Formula: C11H15NO5
SMILES: CC(=CC=O)[C@H]1CN[C@@H]([C@H]1CC(=O)O)C(=O)O
Method: HCD
Collision_energy: [28.333334]
Isolation_window: 4.0
Ion_mode: N
Num Peaks: 14
66.0340	4.7
78.9581	17.4
80.9643	8.5
96.0446	39.4
96.9688	7.9
120.9685	4.6
124.0396	6.7
178.0867	23.3
196.0976	19.5
240.0879	8.9
240.8712	4.4
241.0120	55.3
241.2172	100.0
242.2204	7.9

Name: (2S,3S,4S,5R,6R)-3,4,5-trihydroxy-6-(2-hydroxy-3-((9Z,12Z)-octadeca-9,12-dienoyl)oxypropoxy)oxane-2-carboxylic acid
PrecursorMZ: 529.30215
RT: 4.7115
ExactMass: 530.30909766
Spectrum_type: 2
charge: -1
Formula: C27H46O10
SMILES: CCCCC/C=C\C/C=C\CCCCCCCC(=O)OCC(CO[C@H]1[C@@H]([C@H]([C@@H]([C@H](O1)C(=O)O)O)O)O)O
Method: HCD
Collision_energy: [28.333334]
Isolation_window: 4.0
Ion_mode: N
Num Peaks: 47
58.8098	2.5
58.8132	3.8
59.0130	9.4
71.0131	8.8
72.9924	3.7
74.0240	1.9
75.0079	15.0
85.0286	16.0
87.0079	4.5
89.0236	3.7
95.0132	4.1
99.0079	9.0
103.0027	2.7
113.0236	30.6
114.0555	2.1
115.0029	2.5
117.0185	3.1
130.0868	1.8
135.0444	2.0
173.0450	2.0
175.0244	3.7
184.0608	2.5
231.0506	2.7
249.0617	20.6
267.0730	3.8
277.2174	9.8
278.2212	3.1
279.2331	95.7
280.2365	17.1
281.2488	13.5
287.2227	3.7
311.2054	12.2
312.2078	2.6
313.2212	14.8
314.2242	1.9
391.2861	21.8
392.2892	17.1
393.2923	2.2
513.3578	1.9
527.4006	11.6
528.2946	8.1
528.3944	6.9
529.1724	1.8
529.3013	100.0
530.3063	36.2
531.3063	23.9
531.3745	5.2

Name: (2S,4R)-2-(2-methylpropyl)azetidine-2,4-dicarboxylic acid
PrecursorMZ: 200.09236
RT: 6.7093
ExactMass: 201.10010796
Spectrum_type: 2
charge: -1
Formula: C9H15NO4
SMILES: CC(C)C[C@]1(C[C@@H](N1)C(=O)O)C(=O)O
Method: HCD
Collision_energy: [28.333334]
Isolation_window: 4.0
Ion_mode: N
Num Peaks: 13
60.9922	28.5
73.0286	43.5
86.0239	10.5
87.0078	15.4
126.0553	88.8
128.0346	11.9
138.0662	16.7
155.1068	9.3
156.1023	86.5
199.0957	12.5
199.1701	48.9
200.0923	100.0
201.1128	20.8

Name: (2S,4S)-1-(2-amino-3-methylbutanoyl)-4-hydroxypyrrolidine-2-carboxylic acid
PrecursorMZ: 229.11947
RT: 1.4321
ExactMass: 230.12665706
Spectrum_type: 2
charge: -1
Formula: C10H18N2O4
SMILES: CC(C)C(C(=O)N1C[C@H](C[C@H]1C(=O)O)O)N
Method: HCD
Collision_energy: [28.333334]
Isolation_window: 4.0
Ion_mode: N
Num Peaks: 19
114.0552	100.0
115.0588	5.3
116.0705	5.3
130.0866	12.4
183.1506	6.6
185.1657	10.9
199.1083	11.3
211.1088	15.6
227.0348	4.8
227.1400	55.9
227.2010	23.5
228.0379	6.7
228.1430	9.5
228.2044	5.0
229.0725	4.6
229.1198	47.7
229.1555	39.5
230.1218	4.8
230.1584	4.7

Name: (2S,5S)-5-deuteriopyrrolidine-2-carboxylic acid
PrecursorMZ: 114.05519
RT: 6.2465
ExactMass: 116.069605276
Spectrum_type: 2
charge: -1
Formula: C5H9NO2
SMILES: [H][C@@]1(CC[C@H](N1)C(=O)O)[2H]
Method: HCD
Collision_energy: [28.333334]
Isolation_window: 4.0
Ion_mode: N
Num Peaks: 10
66.0341	2.1
71.0128	1.6
71.0493	1.8
86.0238	1.4
114.0552	100.0
114.9334	3.4
115.0586	5.9
115.0755	3.6
115.9200	1.9
116.0248	1.4

Name: (2S,6R)-1-(3-acetylsulfanylpropanoyl)-6-methylpiperidine-2-carboxylic acid
PrecursorMZ: 272.096
RT: 2.0462
ExactMass: 273.10347926
Spectrum_type: 2
charge: -1
Formula: C12H19NO4S
SMILES: C[C@@H]1CCC[C@H](N1C(=O)CCSC(=O)C)C(=O)O
Method: HCD
Collision_energy: [28.333334]
Isolation_window: 4.0
Ion_mode: N
Num Peaks: 14
80.9641	13.2
84.0444	39.7
88.0394	17.0
96.9590	16.4
113.0962	56.5
117.0006	79.0
138.9520	9.6
144.9956	76.4
194.1180	100.0
271.0819	15.3
271.2281	29.2
272.0964	20.3
273.0648	30.4
274.1397	16.5

Name: (3,5-Diacetyloxy-2-(hydroxymethyl)-6-(2,3,4-trihydroxybutoxy)oxan-4-yl) tetradecanoate
PrecursorMZ: 577.32063
RT: 2.889
ExactMass: 578.33022703
Spectrum_type: 2
charge: -1
Formula: C28H50O12
SMILES: CCCCCCCCCCCCCC(=O)OC1C(C(OC(C1OC(=O)C)OCC(C(CO)O)O)CO)OC(=O)C
Method: HCD
Collision_energy: [28.333334]
Isolation_window: 4.0
Ion_mode: N
Num Peaks: 58
59.0130	0.5
63.9429	0.6
64.0309	0.5
64.0346	0.7
64.1450	2.4
64.1488	4.2
64.1670	0.5
64.2564	0.6
64.2602	1.2
69.1823	0.6
78.9582	3.0
79.9565	1.5
80.9644	1.0
87.0079	0.6
87.0443	0.7
96.9592	21.1
97.4671	0.6
98.9549	1.0
101.0601	0.7
152.9953	4.8
241.2173	1.0
255.2331	3.0
256.2359	0.5
277.2170	0.5
279.2322	0.7
281.2492	0.8
297.2439	1.1
300.1407	0.9
301.1300	0.7
377.0606	1.2
440.1837	0.9
441.1898	1.9
489.3051	6.0
490.3074	1.6
495.4552	0.5
513.4678	0.8
514.4689	0.4
515.4846	0.9
535.3126	1.1
539.4449	0.5
549.2554	1.1
557.4591	2.0
558.4608	1.2
559.4734	2.0
560.4772	0.6
575.2732	7.7
575.3560	4.6
575.4620	20.2
576.2873	12.3
576.4649	10.2
577.3221	100.0
577.4673	11.4
577.4766	10.6
578.3261	28.3
578.4706	3.7
578.4819	3.2
579.3073	7.7
579.4894	1.5

Name: (3E)-2-amino-3-((Z)-3-hydroxyprop-2-enylidene)butanedioic acid
PrecursorMZ: 186.04019
RT: 8.3078
ExactMass: 187.04807239
Spectrum_type: 2
charge: -1
Formula: C7H9NO5
SMILES: C(=C\O)\C=C(/C(C(=O)O)N)\C(=O)O
Method: HCD
Collision_energy: [28.333334]
Isolation_window: 4.0
Ion_mode: N
Num Peaks: 14
82.0289	17.2
98.0604	15.4
112.0507	10.6
121.0511	42.8
124.0396	31.7
125.0236	13.2
125.0965	23.2
142.0502	100.0
166.9834	24.4
185.1179	14.1
185.1540	15.9
186.0402	92.7
186.0766	11.2
187.0955	14.0

Name: (3E)-2-amino-3-)(Z)-3-hydroxyprop-2-enylidene(butanedioic acid
PrecursorMZ: 186.04036
RT: 4.7112
Spectrum_type: 2
charge: -1
SMILES: C(=CO)C=C(C(C(=O)O)N)C(=O)O
Method: HCD
Collision_energy: [28.333334]
Isolation_window: 4.0
Ion_mode: N
Num Peaks: 30
59.0121	6.6
97.0650	4.9
99.0444	7.5
102.0553	5.1
114.0553	4.4
125.0237	32.0
125.0967	6.0
128.0345	7.4
141.0550	3.8
141.0662	3.9
141.0915	3.4
142.0503	100.0
142.0586	3.4
142.0863	3.7
143.0540	5.1
143.0707	4.3
144.0651	3.4
145.0975	4.4
166.9830	6.2
184.0612	5.1
185.0461	4.1
185.1179	7.0
185.1538	4.2
186.0416	57.7
186.0753	3.4
187.0259	8.1
187.0593	5.6
187.0981	4.8
188.0362	14.4
188.0571	3.9

Name: (3R)-1,3,4,5-tetrahydroxycyclohexane-1-carboxylic acid
PrecursorMZ: 191.05553
RT: 8.088049999999999
ExactMass: 192.0633881
Spectrum_type: 2
charge: -1
Formula: C7H12O6
SMILES: C1[C@H](C(C(CC1(C(=O)O)O)O)O)O
Method: HCD
Collision_energy: [28.333334]
Isolation_window: 4.0
Ion_mode: N
Num Peaks: 121
57.0336	0.7
59.0130	4.0
63.9615	0.6
68.0497	0.6
69.0337	1.2
69.3581	0.6
71.0129	3.6
71.0493	1.2
72.9922	3.1
73.0286	2.3
74.0238	0.7
75.0079	1.7
76.9693	0.5
79.9564	6.3
80.9643	4.6
81.0337	0.4
83.0130	0.6
83.0493	1.2
84.0445	0.8
85.0286	11.4
85.0650	0.7
86.0239	0.7
86.0318	0.6
87.0078	4.0
87.0442	0.8
88.0395	1.1
89.0235	2.7
92.0497	0.7
93.0337	1.9
94.0289	0.7
95.0129	0.5
96.0445	0.5
97.0286	0.9
97.4667	0.4
98.0238	1.1
99.0080	1.0
99.0190	1.4
99.0442	1.5
100.0395	1.1
100.0760	1.0
101.0235	5.1
101.0599	0.4
101.0791	1.0
102.0552	0.7
103.0028	0.9
103.0392	1.0
105.0182	0.5
109.0287	1.1
111.0443	2.5
112.0394	0.5
113.0236	2.2
114.0553	0.5
115.0028	0.9
115.0392	2.5
116.0345	0.4
116.0709	2.8
117.0186	0.7
117.0743	3.7
118.0501	10.1
118.0753	0.7
119.0343	0.5
119.0495	0.5
120.0447	0.4
125.0964	1.3
126.0997	0.4
127.0392	4.9
127.0756	1.7
127.1020	0.6
128.0345	0.6
128.0791	0.4
129.0185	9.5
129.0550	5.2
130.0142	0.6
130.0221	0.6
130.0503	1.5
131.0343	1.3
134.0363	0.5
135.0441	0.4
143.0342	0.4
144.0448	0.4
144.0660	0.6
145.0500	3.1
145.0688	1.3
145.0862	0.4
146.0609	1.2
146.0813	0.4
147.0296	1.3
147.0445	0.8
148.0397	0.4
148.0608	5.3
148.0757	0.9
149.0603	2.0
155.0345	1.5
157.0137	1.2
162.0555	0.5
171.0293	1.9
172.0606	0.9
173.0450	17.1
174.0479	1.5
175.0610	0.5
175.0755	0.7
189.0398	2.1
189.0553	0.5
189.0762	1.6
189.0992	0.4
189.1150	1.6
190.0500	0.7
190.0714	1.4
190.1080	0.5
191.0191	0.6
191.0556	100.0
191.0692	1.7
191.0921	0.7
192.0151	0.6
192.0585	7.7
193.0157	0.6
193.0477	1.5
193.0589	0.7
193.0708	0.8
193.0847	1.8
193.0868	0.5

Name: (3R)-2-amino-3-hydroxybutanoic acid
PrecursorMZ: 118.04994
RT: 9.3489
ExactMass: 119.058243149
Spectrum_type: 2
charge: -1
Formula: C4H9NO3
SMILES: C[C@H](C(C(=O)O)N)O
Method: HCD
Collision_energy: [28.333334]
Isolation_window: 4.0
Ion_mode: N
Num Peaks: 12
60.9922	35.5
72.0081	58.8
72.9688	11.8
73.0285	6.0
74.0238	77.0
99.9248	16.9
116.0243	5.1
116.0708	29.4
116.9275	100.0
117.9277	12.8
118.0499	19.5
119.0159	6.9

Name: (3R)-3,9-dihydroxynonanoic acid
PrecursorMZ: 189.11265
RT: 5.6703
ExactMass: 190.12050905
Spectrum_type: 2
charge: -1
Formula: C9H18O4
SMILES: C(CCCO)CC[C@H](CC(=O)O)O
Method: HCD
Collision_energy: [28.333334]
Isolation_window: 4.0
Ion_mode: N
Num Peaks: 16
59.0130	2.7
79.9565	5.0
80.9642	1.8
99.0807	7.7
113.0962	4.0
125.0964	8.8
126.1000	2.0
141.0912	3.2
143.0706	2.0
144.0444	1.6
146.0608	2.4
169.0864	3.8
171.1023	5.5
187.0968	6.4
189.1128	100.0
190.1161	9.0

Name: (3R)-3-((2,2,2-2H3)acetyloxy)-4-(trimethylazaniumyl)butanoate
PrecursorMZ: 202.1079
RT: 8.0708
ExactMass: 206.13458826
Spectrum_type: 2
charge: -1
Formula: C9H17NO4
SMILES: [2H]C([2H])([2H])C(=O)O[C@H](CC(=O)[O-])C[N+](C)(C)C
Method: HCD
Collision_energy: [28.333334]
Isolation_window: 4.0
Ion_mode: N
Num Peaks: 6
59.0130	12.3
87.0554	7.3
116.0708	100.0
142.0866	34.3
184.0727	13.5
202.1079	19.5

Name: (3R)-3-hydroxy-15-methyl-N-((4R,5R)-5-(12-methyltridecyl)-2-oxooxathiolan-4-yl)hexadecanamide
PrecursorMZ: 630.47728
RT: 1.4435
ExactMass: 585.47908079
Spectrum_type: 2
charge: -1
Formula: C34H67NO4S
SMILES: CC(C)CCCCCCCCCCC[C@@H]1[C@H](CS(=O)O1)NC(=O)C[C@@H](CCCCCCCCCCCC(C)C)O
Method: HCD
Collision_energy: [28.333334]
Isolation_window: 4.0
Ion_mode: N
Num Peaks: 33
61.9874	0.8
69.0327	0.8
69.2273	0.7
70.0510	1.1
70.0553	2.3
70.1667	0.6
79.9569	0.9
96.9592	1.1
97.4647	0.5
97.4669	0.5
237.2221	0.7
255.2334	1.6
267.2329	1.0
281.2486	0.5
283.2636	0.8
364.1584	0.6
364.2531	100.0
364.3267	0.5
364.3487	0.6
365.2560	16.3
366.2520	2.9
373.2753	1.5
378.2683	1.1
381.3376	0.9
406.2640	0.7
629.4755	0.5
629.5166	7.3
629.5261	0.6
630.4775	49.0
631.4809	14.6
631.5582	0.6
632.4816	4.1
632.4878	8.2

Name: (3R,5S,7R,8R,9S,10S,12S,13R,14S,17R)-10,13-dimethyl-17-((2R)-5,5,5-trihydroxypentan-2-yl)-2,3,4,5,6,7,8,9,11,12,14,15,16,17-tetradecahydro-1H-cyclopenta(a)phenanthrene-3,7,12-triol
PrecursorMZ: 425.29075
RT: 4.64135
ExactMass: 426.29813906
Spectrum_type: 2
charge: -1
Formula: C24H42O6
SMILES: C[C@H](CCC(O)(O)O)[C@H]1CC[C@@H]2[C@@]1([C@H](C[C@H]3[C@H]2[C@@H](C[C@H]4[C@@]3(CC[C@H](C4)O)C)O)O)C
Method: HCD
Collision_energy: [28.333334]
Isolation_window: 4.0
Ion_mode: N
Num Peaks: 76
57.0337	1.9
59.0130	6.1
61.9874	1.2
71.0129	4.0
71.0493	1.4
73.0286	1.4
78.9581	1.9
79.9564	9.9
80.9642	1.2
83.0493	3.0
87.0076	1.8
87.0442	1.0
94.9800	2.0
96.9591	7.6
97.0286	1.3
99.0806	1.5
101.0235	8.7
109.0651	1.3
113.0962	1.0
114.0555	1.0
115.0391	3.6
116.0709	2.2
124.0066	3.0
129.0912	2.7
130.0865	1.4
145.0501	2.1
149.9858	1.7
151.0506	1.2
152.9953	1.3
169.1339	4.4
171.1018	1.1
211.1445	2.2
213.1238	11.6
239.1649	1.1
251.2016	3.9
257.1754	1.6
262.1118	1.5
265.2174	1.0
272.0842	3.1
297.2438	1.0
300.0783	5.9
323.2598	1.4
345.2807	1.4
363.2908	6.1
364.2950	1.2
379.2859	2.5
380.1908	1.1
380.2885	3.8
381.3016	7.8
382.3042	1.9
383.3160	1.0
389.2717	1.8
391.2863	1.4
398.1755	9.9
399.1787	2.0
405.2641	1.1
406.2686	1.3
407.2806	16.4
408.2846	4.6
409.2969	3.2
423.2733	6.7
424.1551	13.8
424.1670	1.0
424.2094	3.9
424.2788	16.3
425.1288	1.8
425.1814	3.7
425.1873	5.3
425.2908	100.0
426.1685	15.6
426.1954	2.1
426.2941	25.4
427.1421	1.0
427.1746	5.8
427.2143	2.9
427.3108	13.0

Name: (3S)-2-acetamido-3-hydroxybutanoic acid
PrecursorMZ: 160.06088
RT: 5.4476
ExactMass: 161.06880783
Spectrum_type: 2
charge: -1
Formula: C6H11NO4
SMILES: C[C@@H](C(C(=O)O)NC(=O)C)O
Method: HCD
Collision_energy: [28.333334]
Isolation_window: 4.0
Ion_mode: N
Num Peaks: 24
57.0337	3.6
60.9922	2.7
70.0290	14.6
72.0446	4.0
74.0238	100.0
75.0271	3.0
85.0649	8.1
86.0602	7.9
97.0648	3.6
98.0238	21.6
98.0603	2.8
112.0397	3.6
114.0553	3.0
115.0756	13.3
116.0345	32.3
118.0501	2.6
141.0550	4.5
158.0452	11.5
158.9110	3.4
159.0656	16.3
160.0604	7.8
160.8925	3.0
160.9107	2.9
161.0813	4.4

Name: (3S)-3-hydroxy-N-((3R)-2-oxooxolan-3-yl)hexanamide
PrecursorMZ: 214.10813
RT: 5.2107
ExactMass: 215.11575802
Spectrum_type: 2
charge: -1
Formula: C10H17NO4
SMILES: CCC[C@@H](CC(=O)N[C@@H]1CCOC1=O)O
Method: HCD
Collision_energy: [28.333334]
Isolation_window: 4.0
Ion_mode: N
Num Peaks: 55
58.0289	1.4
59.0130	1.8
71.0130	1.2
72.0446	1.0
72.9922	1.6
81.0336	1.1
83.0493	1.0
84.0446	70.9
85.0479	2.7
86.0602	4.3
87.0079	0.9
87.0443	1.0
88.0395	1.3
96.0446	0.9
97.0651	1.5
98.0603	1.6
99.0443	2.1
102.0551	2.6
107.0493	4.4
111.0081	1.1
111.0443	1.3
112.0396	2.4
113.0349	6.0
114.0553	2.3
115.0869	3.1
116.0709	1.0
123.0446	1.1
125.0601	1.6
127.0504	8.5
128.0344	2.2
129.1025	7.2
130.0866	0.9
141.0662	0.9
143.0343	1.0
145.0612	9.7
150.0553	1.0
153.1026	8.2
155.0817	2.3
159.0768	6.5
168.1015	1.9
168.1143	1.1
171.1137	3.0
173.0927	1.3
197.0929	5.9
212.0924	1.8
213.0406	2.5
213.0881	2.8
213.1857	1.8
214.0737	2.0
214.1081	100.0
215.0529	1.4
215.1060	14.0
215.1118	2.7
216.0877	1.6
216.1077	0.9

Name: (3S)-8-(((5S)-5-(((2S)-2-aminopropanoyl)amino)-6-(((2S)-3-hydroxy-1-(((2S)-1-(((2S)-3-hydroxy-1-oxo-1-(((2S)-1-oxopropan-2-yl)amino)propan-2-yl)amino)-3-methyl-1-oxobutan-2-yl)amino)-1-oxopropan-2-yl)amino)-6-oxohexyl)amino)-8-oxooctane-3-thiolate
PrecursorMZ: 702.3878
RT: 5.6404
ExactMass: 702.38602256
Spectrum_type: 2
charge: -1
Formula: C31H56N7O9S-
SMILES: CC[C@@H](CCCCC(=O)NCCCC[C@@H](C(=O)N[C@@H](CO)C(=O)N[C@@H](C(C)C)C(=O)N[C@@H](CO)C(=O)N[C@@H](C)C=O)NC(=O)[C@H](C)N)[S-]
Method: HCD
Collision_energy: [28.333334]
Isolation_window: 4.0
Ion_mode: N
Num Peaks: 34
58.0290	3.5
78.0459	4.1
78.2697	3.2
78.9583	3.2
93.0337	2.8
115.0869	4.2
118.0653	4.3
119.0494	5.9
134.0601	4.0
144.1136	15.8
162.0555	4.1
163.0395	5.3
166.1231	4.7
168.1383	4.0
170.0929	17.1
180.0660	27.6
184.1087	5.3
187.0508	3.5
202.1193	3.3
217.1346	3.4
228.1506	7.2
264.1718	17.0
272.1405	10.2
290.1503	4.7
308.1618	29.4
310.1928	10.6
392.1966	3.8
409.2257	4.4
436.1850	3.7
453.2163	4.2
701.3616	3.3
702.3891	100.0
703.3924	40.1
704.4034	78.0

Name: (3S)-N,1-dicyclohexyl-2,4,5-trioxopyrrolidine-3-carboxamide
PrecursorMZ: 319.16636
RT: 5.4527
ExactMass: 320.17360725
Spectrum_type: 2
charge: -1
Formula: C17H24N2O4
SMILES: C1CCC(CC1)NC(=O)[C@@H]2C(=O)C(=O)N(C2=O)C3CCCCC3
Method: HCD
Collision_energy: [28.333334]
Isolation_window: 4.0
Ion_mode: N
Num Peaks: 55
59.0130	7.1
69.3478	1.1
71.0130	1.0
79.9564	2.0
80.9642	1.2
85.0285	1.0
87.0080	1.0
87.0442	2.0
96.9592	6.0
120.0811	3.5
122.0603	1.7
122.0968	1.9
124.0760	17.5
125.0794	1.3
132.0811	9.1
136.0763	1.1
148.0761	2.3
150.0918	16.3
151.0952	1.6
152.9952	2.7
164.0708	1.2
165.1027	4.4
166.0866	4.3
194.0818	6.8
219.1500	4.8
247.1448	3.5
247.1811	3.9
255.2331	1.4
257.1309	1.8
257.1663	3.7
273.1609	2.3
275.1744	3.2
291.1715	19.6
292.1748	3.2
317.1017	2.8
317.1483	4.9
317.1954	5.7
318.1026	4.9
318.1459	1.0
318.1504	1.8
318.1937	1.2
318.1982	1.1
318.2025	2.1
319.1249	5.0
319.1640	100.0
319.1912	8.3
320.1137	1.4
320.1673	18.4
320.1948	1.5
321.0735	1.0
321.1359	2.4
321.1421	1.6
321.1711	1.3
321.2047	1.2
321.2102	1.2

Name: (3S,4R,6R)-6-(((3S,4R,6aR,6bS,8aR,9R,14bR)-4,9-dihydroxy-4,6a,6b,8a,11,11,14b-heptamethyl-1,2,3,4a,5,6,7,8,9,10,12,12a,14,14a-tetradecahydropicen-3-yl)oxy)oxane-2,3,4,5-tetrol
PrecursorMZ: 591.39024
RT: 1.8786
ExactMass: 592.39751874
Spectrum_type: 2
charge: -1
Formula: C34H56O8
SMILES: C[C@@]12CC[C@@]3(C(=CCC4[C@]3(CCC5[C@@]4(CC[C@@H]([C@]5(C)O)O[C@H]6C([C@@H]([C@@H](C(O6)O)O)O)O)C)C)C1CC(C[C@H]2O)(C)C)C
Method: HCD
Collision_energy: [28.333334]
Isolation_window: 4.0
Ion_mode: N
Num Peaks: 26
59.0130	8.2
65.7081	2.2
65.7121	4.4
71.0130	5.8
75.0078	14.9
85.0286	22.0
87.0077	4.7
89.0235	3.2
95.0131	4.9
99.0078	9.9
103.0028	3.5
113.0235	41.8
114.0268	2.1
115.0025	2.7
117.0184	7.2
129.0184	3.6
149.0601	28.4
175.0241	10.1
400.3350	7.8
401.3374	2.3
415.3588	7.6
416.3640	2.3
590.3444	2.6
591.3909	100.0
592.3944	35.9
593.3962	4.4

Name: (3S,6R)-3-(1H-imidazol-4-ylmethyl)-6-isobutyl-2,5-piperazinedione acetate
PrecursorMZ: 249.13568
RT: 4.8146
ExactMass: 250.14297583
Spectrum_type: 2
charge: -1
Formula: C12H18N4O2
SMILES: CC(C)C[C@@H]1C(=O)N[C@H](C(=O)N1)CC2=CN=CN2
Method: HCD
Collision_energy: [28.333334]
Isolation_window: 4.0
Ion_mode: N
Num Peaks: 20
67.0292	2.9
79.9562	1.4
93.0447	1.6
169.0976	13.7
176.9933	3.0
184.0012	37.1
184.5032	8.0
184.9999	3.2
191.0088	2.3
200.5000	4.5
201.0024	1.3
231.0781	1.5
248.0798	100.0
248.5815	26.4
249.0798	12.2
249.1348	10.6
249.5806	2.8
250.0705	1.5
250.1052	1.6
250.1421	2.9

Name: (3S,6S)-3-(hydroxymethyl)-6-(1H-indol-3-ylmethyl)-1,4,7-triazonane-2,5,8-trione
PrecursorMZ: 329.1252
RT: 5.1262
ExactMass: 330.13280507
Spectrum_type: 2
charge: -1
Formula: C16H18N4O4
SMILES: C1C(=O)N[C@H](C(=O)N[C@H](C(=O)N1)CO)CC2=CNC3=CC=CC=C32
Method: HCD
Collision_energy: [28.333334]
Isolation_window: 4.0
Ion_mode: N
Num Peaks: 47
59.0130	6.7
73.0285	4.6
74.0239	9.7
88.0395	5.8
98.0241	6.4
99.0194	5.8
109.0399	10.8
112.0396	4.6
113.0349	8.6
114.0554	6.4
125.0349	41.6
127.0505	58.7
128.0346	8.1
130.0866	16.2
132.0447	15.2
137.0346	10.9
153.0662	10.6
158.0605	7.5
166.0501	5.3
184.0719	5.9
185.0710	7.2
196.0725	100.0
197.0756	7.6
200.1405	7.0
203.0823	56.8
207.0891	5.8
208.0973	6.6
214.1555	5.3
238.0709	6.7
239.0798	24.0
284.1253	4.6
286.1415	18.5
300.1565	7.0
313.1307	9.4
328.1006	7.4
328.1046	9.1
328.1468	11.6
329.1210	6.5
329.1257	12.5
330.1078	13.5
330.1296	4.7
330.1636	8.0
330.1692	23.1
331.1041	8.2
331.1409	74.6
331.1450	6.1
331.1699	20.3

Name: (3S,8aR)-3-((4-hydroxyphenyl)methyl)-2,3,6,7,8,8a-hexahydropyrrolo(1,2-a)pyrazine-1,4-dione
PrecursorMZ: 259.10832
RT: 3.3444
ExactMass: 260.11609238
Spectrum_type: 2
charge: -1
Formula: C14H16N2O3
SMILES: C1C[C@@H]2C(=O)N[C@H](C(=O)N2C1)CC3=CC=C(C=C3)O
Method: HCD
Collision_energy: [28.333334]
Isolation_window: 4.0
Ion_mode: N
Num Peaks: 9
69.1309	13.9
97.4642	8.1
125.0347	14.2
153.0660	100.0
257.2380	17.5
258.1916	13.5
259.1085	81.2
259.1976	8.1
260.1129	11.7

Name: (4R)-4-((3R,5R,8R,9S,10S,13R,14S,17R)-3-hexadecanoyloxy-10,13-dimethyl-2,3,4,5,6,7,8,9,11,12,14,15,16,17-tetradecahydro-1H-cyclopenta(a)phenanthren-17-yl)pentanoic acid
PrecursorMZ: 613.52015
RT: 0.9607
ExactMass: 614.52741071
Spectrum_type: 2
charge: -1
Formula: C40H70O4
SMILES: CCCCCCCCCCCCCCCC(=O)O[C@@H]1CC[C@]2([C@@H](C1)CC[C@@H]3[C@@H]2CC[C@]4([C@H]3CC[C@@H]4[C@H](C)CCC(=O)O)C)C
Method: HCD
Collision_energy: [28.333334]
Isolation_window: 4.0
Ion_mode: N
Num Peaks: 27
68.1670	2.3
68.1711	4.4
68.2784	0.9
68.2826	1.5
69.0687	0.5
80.9643	0.6
97.4638	0.5
237.2220	1.7
255.2330	1.6
348.2221	0.5
350.2376	0.8
355.2649	0.6
356.2676	0.5
357.2801	5.5
358.2833	1.2
362.2380	0.6
375.2905	3.7
376.2949	0.9
611.5055	1.7
612.5099	4.9
613.3138	0.7
613.3550	0.6
613.5208	100.0
613.6866	0.5
613.7282	0.7
614.5251	33.6
615.5302	5.3

Name: (4R)-4-((3R,7R,8R,9S,10S,13R,14S,17R)-7-hydroxy-3-((4R)-4-((3S,10S,13R,17R)-3-hydroxy-10,13-dimethyl-7-oxo-1,2,3,4,5,6,8,9,11,12,14,15,16,17-tetradecahydrocyclopenta(a)phenanthren-17-yl)pentanoyl)oxy-10,13-dimethyl-2,3,4,5,6,7,8,9,11,12,14,15,16,17-tetradecahydro-1H-cyclopenta(a)phenanthren-17-yl)pentanoic acid
PrecursorMZ: 763.5514
RT: 2.0624
ExactMass: 764.55910476
Spectrum_type: 2
charge: -1
Formula: C48H76O7
SMILES: C[C@H](CCC(=O)O)[C@H]1CC[C@@H]2[C@@]1(CC[C@H]3[C@H]2[C@@H](CC4[C@@]3(CC[C@H](C4)OC(=O)CC[C@@H](C)[C@H]5CCC6[C@@]5(CCC7C6C(=O)CC8[C@@]7(CC[C@@H](C8)O)C)C)C)O)C
Method: HCD
Collision_energy: [28.333334]
Isolation_window: 4.0
Ion_mode: N
Num Peaks: 8
61.9875	4.7
355.2658	4.1
389.2691	11.2
391.2855	4.4
762.5234	5.4
763.5517	100.0
764.5544	51.3
765.5662	45.2

Name: (4R)-4-((3S,8S,9S,10R,13R,14S,17R)-10,13-dimethyl-7-oxo-3-sulfonatooxy-1,2,3,4,8,9,11,12,14,15,16,17-dodecahydrocyclopenta(a)phenanthren-17-yl)pentanoate
PrecursorMZ: 467.21108
RT: 4.5271
ExactMass: 466.20252459
Spectrum_type: 2
charge: -1
Formula: C24H34O7S-2
SMILES: C[C@H](CCC(=O)[O-])[C@H]1CC[C@@H]2[C@@]1(CC[C@H]3[C@H]2C(=O)C=C4[C@@]3(CC[C@@H](C4)OS(=O)(=O)[O-])C)C
Method: HCD
Collision_energy: [28.333334]
Isolation_window: 4.0
Ion_mode: N
Num Peaks: 12
51.9137	1.5
52.1349	2.0
52.1377	4.5
79.9565	9.2
80.9643	7.8
96.9592	23.6
385.2392	5.4
386.2420	1.3
387.2552	2.6
467.2110	33.4
468.2180	8.5
469.2267	100.0

Name: (4S)-3-)(3S,7S,10S,12R,13R,17R)-17-)(2R)-4-carboxybutan-2-yl(-3,7,12-trihydroxy-10,13-dimethyl-1,2,4,5,6,7,8,9,11,12,14,15,16,17-tetradecahydrocyclopenta)a(phenanthren-3-yl(-4-)(3R,5S,7R,8R,9S,10S,12S,13R,14S,17R)-3,7,12-trihydroxy-10,13-dimethyl-2,3,4,5,6,7,8,9,11,12,14,15,16,17-tetradecahydro-1H-cyclopenta)a(phenanthren-17-yl(pentanoic acid
PrecursorMZ: 813.55207
RT: 4.7059
Spectrum_type: 2
charge: -1
SMILES: CC(CCC(=O)O)C1CCC2C1(C(CC3C2C(CC4C3(CCC(C4)(C(CC(=O)O)C(C)C5CCC6C5(C(CC7C6C(CC8C7(CCC(C8)O)C)O)O)C)O)C)O)O)C
Method: HCD
Collision_energy: [28.333334]
Isolation_window: 4.0
Ion_mode: N
Num Peaks: 12
69.4788	0.3
343.2640	0.7
363.2892	0.6
405.2644	30.5
406.2679	7.6
407.1676	0.7
407.1902	0.6
407.2800	100.0
407.3676	0.5
407.3919	0.7
408.2833	4.8
815.5680	2.5

Name: (4S,5R)-3,4,5-trihydroxycyclohexene-1-carboxylic acid
PrecursorMZ: 173.04491
RT: 7.029
ExactMass: 174.05282342
Spectrum_type: 2
charge: -1
Formula: C7H10O5
SMILES: C1[C@H]([C@@H](C(C=C1C(=O)O)O)O)O
Method: HCD
Collision_energy: [28.333334]
Isolation_window: 4.0
Ion_mode: N
Num Peaks: 31
69.0337	14.5
71.0129	2.3
72.0446	3.0
73.0286	3.2
74.0239	3.2
83.0493	2.3
85.0286	1.8
87.0078	1.8
93.0337	40.6
94.0369	2.7
99.0443	10.0
111.0443	7.6
111.0807	10.4
112.0393	1.5
113.0236	16.8
116.0708	6.6
128.1073	8.9
129.0550	3.3
131.0454	6.2
132.0658	2.6
137.0236	1.6
143.0343	2.7
145.0609	1.9
154.9467	1.5
172.0613	1.9
172.0973	7.2
173.0450	100.0
173.0807	6.4
174.0383	1.7
174.0488	7.4
175.0609	17.2

Name: (5'-13C)2'-Deoxyuridine
PrecursorMZ: 227.06699
RT: 4.8452
ExactMass: 229.07797632
Spectrum_type: 2
charge: -1
Formula: C9H12N2O5
SMILES: C1[C@@H]([C@H](O[C@H]1N2C=CC(=O)NC2=O)[13CH2]O)O
Method: HCD
Collision_energy: [28.333334]
Isolation_window: 4.0
Ion_mode: N
Num Peaks: 9
59.0129	8.6
111.0191	100.0
124.0395	19.5
125.0430	17.1
138.0555	22.8
225.5837	11.7
227.0673	26.5
227.1283	18.1
227.2017	8.4

Name: (5E)-5-((6-methyl-2-((2E)-2-(2,3,4,5-tetrahydroxypentylidene)hydrazinyl)pyrimidin-4-yl)hydrazinylidene)pentane-1,2,3,4-tetrol
PrecursorMZ: 417.17353
RT: 2.8344
ExactMass: 418.18121181
Spectrum_type: 2
charge: -1
Formula: C15H26N6O8
SMILES: CC1=CC(=NC(=N1)N/N=C/C(C(C(CO)O)O)O)N/N=C/C(C(C(CO)O)O)O
Method: HCD
Collision_energy: [28.333334]
Isolation_window: 4.0
Ion_mode: N
Num Peaks: 10
59.0130	40.7
71.0129	23.8
101.0234	17.6
113.0234	47.8
219.0837	25.6
255.1201	21.8
297.1309	100.0
298.1340	16.1
327.1419	26.8
357.1518	12.9

Name: (6S)-5-hydroxy-4-(hydroxymethyl)-3,7-dioxa-1,9-diazatricyclo(6.4.0.02,6)dodeca-8,11-dien-10-one
PrecursorMZ: 225.05286
RT: 6.535
ExactMass: 226.05897142
Spectrum_type: 2
charge: -1
Formula: C9H10N2O5
SMILES: C1=CN2C3[C@H](C(C(O3)CO)O)OC2=NC1=O
Method: HCD
Collision_energy: [28.333334]
Isolation_window: 4.0
Ion_mode: N
Num Peaks: 18
59.0128	4.3
80.9644	6.7
94.0289	60.3
108.0447	6.8
123.9011	4.2
125.8990	5.7
145.0651	5.1
181.0752	5.1
181.0976	7.9
224.0546	4.5
225.0082	6.1
225.0530	100.0
225.0853	7.4
225.1606	49.9
226.0553	9.5
226.1641	6.4
227.0525	7.3
227.2011	15.5

Name: (7,7-Dimethyl-2-oxoniumylidene-1-bicyclo(2.2.1)heptanyl)methanesulfonate
PrecursorMZ: 231.06909
RT: 1.2515
ExactMass: 232.07693016
Spectrum_type: 2
charge: -1
Formula: C10H16O4S
SMILES: CC1(C2CCC1(C(=[OH+])C2)CS(=O)(=O)[O-])C
Method: HCD
Collision_energy: [28.333334]
Isolation_window: 4.0
Ion_mode: N
Num Peaks: 28
79.9563	11.7
80.9642	20.2
95.9512	1.1
96.9591	8.6
106.9799	5.2
128.0708	8.2
189.5580	1.0
202.0171	6.1
229.5368	1.2
230.0123	0.8
230.0614	2.8
230.0635	3.5
230.0889	0.9
230.5634	1.4
231.0076	2.6
231.0324	15.2
231.0692	100.0
231.5707	22.3
232.0287	12.3
232.0773	27.7
232.1328	8.2
232.5790	7.3
233.0115	0.8
233.0464	0.9
233.0820	4.0
233.0851	7.7
365.1792	1.2
367.1950	1.4

Name: (8R,9S,10S,13R,14S,17R)-10,13-dimethyl-17-((2R)-5,6,7-trihydroxyheptan-2-yl)-2,3,4,5,6,7,8,9,11,12,14,15,16,17-tetradecahydro-1H-cyclopenta(a)phenanthrene-3,7,12-triol
PrecursorMZ: 453.32288
RT: 1.4636
ExactMass: 454.32943918
Spectrum_type: 2
charge: -1
Formula: C26H46O6
SMILES: C[C@H](CCC(C(CO)O)O)[C@H]1CC[C@@H]2[C@@]1(C(C[C@H]3[C@H]2C(CC4[C@@]3(CCC(C4)O)C)O)O)C
Method: HCD
Collision_energy: [28.333334]
Isolation_window: 4.0
Ion_mode: N
Num Peaks: 46
50.3677	1.9
50.3704	4.8
50.4819	1.3
59.0131	3.5
69.0336	1.9
71.0130	1.3
73.0287	3.4
87.0444	1.5
255.2329	1.4
355.2644	1.3
359.2604	1.1
363.2585	1.0
371.2596	1.6
373.2748	5.7
374.2795	1.6
375.2922	2.5
376.2962	1.1
377.2699	3.0
381.2802	2.0
387.2930	1.3
389.2673	1.4
390.2732	1.0
391.2861	8.5
392.2889	2.3
399.2917	3.8
403.2842	2.7
407.2801	6.4
408.2840	1.5
415.2847	2.2
417.3026	4.4
418.3050	1.4
419.2763	1.2
420.2820	2.0
421.2963	16.2
422.2991	4.5
433.2960	9.9
434.2968	3.0
435.3122	7.9
436.3166	2.2
451.3061	4.5
451.3486	2.1
452.2987	5.8
452.3508	3.1
453.3227	100.0
454.3262	27.1
455.3300	3.4

Name: (9aR)-8-methylsulfonyl-1'-(oxetan-3-yl)spiro(1,3,4,7,9,9a-hexahydropyrazino(2,1-c)(1,4)oxazine-6,3'-azetidine)
PrecursorMZ: 316.13495
RT: 1.4745
ExactMass: 317.1409274
Spectrum_type: 2
charge: -1
Formula: C13H23N3O4S
SMILES: CS(=O)(=O)N1C[C@@H]2COCCN2C3(C1)CN(C3)C4COC4
Method: HCD
Collision_energy: [28.333334]
Isolation_window: 4.0
Ion_mode: N
Num Peaks: 14
79.9564	3.6
80.9643	1.1
96.9591	2.2
169.0976	3.8
283.1671	1.8
314.1195	1.2
314.6216	2.3
315.1273	50.0
315.6286	16.3
316.1348	100.0
316.6364	34.8
317.1359	17.4
317.6367	4.4
535.2686	1.3

Name: (E)-N~6~-(1-carboxy-3-oxobutylidene)-L-lysine
PrecursorMZ: 257.11421
RT: 4.2625
ExactMass: 258.12157168
Spectrum_type: 2
charge: -1
Formula: C11H18N2O5
SMILES: CC(=O)CC(=NCCCC[C@@H](C(=O)O)N)C(=O)O
Method: HCD
Collision_energy: [28.333334]
Isolation_window: 4.0
Ion_mode: N
Num Peaks: 94
59.0129	2.6
61.9875	19.2
71.0130	2.6
72.9923	2.7
73.0286	1.8
74.0240	1.5
80.9644	1.5
83.0493	5.7
84.0446	5.1
85.0286	3.0
87.0079	6.8
88.0395	2.8
94.0289	4.3
99.0079	1.6
99.0443	4.7
100.0396	1.9
102.9851	2.1
109.0287	1.3
109.0651	1.9
110.0239	3.6
111.0442	2.5
112.0391	1.5
113.0234	1.8
114.0551	5.3
115.0028	2.0
115.9280	1.3
123.0443	2.7
125.0238	4.5
125.0599	1.8
127.0392	2.5
127.0502	1.4
128.0345	15.7
128.0711	1.6
129.0186	4.3
130.0868	2.2
135.0443	1.4
137.0601	1.3
139.0393	2.2
143.0344	1.7
145.0975	1.9
151.0763	2.1
152.0703	1.5
153.0550	3.4
166.0490	1.4
167.0332	1.4
167.1069	2.3
168.0655	1.3
169.0986	1.3
170.0815	1.7
177.0219	2.0
178.0867	4.3
179.0350	1.5
181.0618	1.7
185.0457	1.4
186.0766	1.9
194.0801	1.4
195.0644	2.5
196.0606	2.7
196.0974	24.5
197.0440	1.5
197.0816	1.8
197.1004	2.2
211.1104	1.4
213.0764	2.3
213.0908	1.3
213.1248	9.0
214.0701	2.2
214.1086	1.7
215.0548	2.6
215.0913	3.9
239.0636	3.4
239.1646	1.5
240.0505	1.4
240.0882	4.3
241.0336	1.6
255.0885	2.0
255.1608	2.4
255.2329	70.3
256.0853	4.1
256.1201	1.5
256.1560	2.5
256.2364	17.4
256.9803	3.8
257.0695	13.3
257.1138	100.0
257.1717	5.9
257.2378	2.0
257.9752	1.4
258.0620	8.2
258.1178	11.6
258.1793	2.6
259.0459	15.6
259.0822	7.2
259.1284	3.7

Name: (E,3R,4S,9R,10S)-3,10-dihydroxy-4,9-dimethyldodec-6-enedioic acid
PrecursorMZ: 287.15001
RT: 6.0854
ExactMass: 288.15728848
Spectrum_type: 2
charge: -1
Formula: C14H24O6
SMILES: C[C@H](C/C=C/C[C@H](C)[C@@H](CC(=O)O)O)[C@H](CC(=O)O)O
Method: HCD
Collision_energy: [28.333334]
Isolation_window: 4.0
Ion_mode: N
Num Peaks: 25
59.0130	18.5
74.0239	22.6
85.0287	29.5
87.0079	19.3
89.0235	19.3
116.0710	18.7
124.0397	21.2
125.0962	25.3
128.0347	21.7
136.0393	20.4
186.0651	22.8
187.0721	22.4
197.0574	26.4
201.1129	55.4
223.1088	21.2
225.1491	57.9
243.1599	53.2
244.1191	20.1
286.1628	22.5
287.0766	40.1
287.1235	43.0
287.1502	100.0
288.1050	23.3
288.1522	27.1
289.0926	59.8

Name: (R)-3-(4-hydroxyphenyl)-2-palmitamidopropanoic acid
PrecursorMZ: 418.29659
RT: 1.684
ExactMass: 419.30355879
Spectrum_type: 2
charge: -1
Formula: C25H41NO4
SMILES: CCCCCCCCCCCCCCCC(=O)N[C@H](CC1=CC=C(C=C1)O)C(=O)O
Method: HCD
Collision_energy: [28.333334]
Isolation_window: 4.0
Ion_mode: N
Num Peaks: 15
96.9592	3.5
107.0495	7.4
119.0494	5.6
130.0865	3.9
163.0395	7.9
180.0661	68.7
181.0695	7.9
193.0978	4.0
254.2488	7.2
374.3075	11.7
417.2043	3.4
417.3040	8.4
418.2970	100.0
419.3000	26.6
420.2507	7.4

Name: (S)-2-((S)-2-Amino-3-hydroxyPropanamido)succinic acid
PrecursorMZ: 219.06186
RT: 8.7654
ExactMass: 220.06953611
Spectrum_type: 2
charge: -1
Formula: C7H12N2O6
SMILES: C(C(C(=O)O)NC(=O)C(CO)N)C(=O)O
Method: HCD
Collision_energy: [28.333334]
Isolation_window: 4.0
Ion_mode: N
Num Peaks: 10
71.0130	23.4
73.0399	19.0
88.0395	44.7
103.0504	76.5
104.0345	73.1
115.0029	71.6
145.0611	100.0
175.0724	22.8
219.0625	92.7
219.1753	39.4

Name: (Sulfooxy)acetic acid
PrecursorMZ: 154.9649
RT: 7.5516000000000005
ExactMass: 155.97285902
Spectrum_type: 2
charge: -1
Formula: C2H4O6S
SMILES: C(C(=O)O)OS(=O)(=O)O
Method: HCD
Collision_energy: [28.333334]
Isolation_window: 4.0
Ion_mode: N
Num Peaks: 5
75.0079	24.9
84.0081	6.0
96.9592	100.0
154.0865	2.8
154.9649	39.4

Name: )(1'S,10S,13R,14R,15R,17S)-17-(2-hydroxy-2H-pyran-5-yl)-10,13,14,15-tetramethylspiro)2,4,5,6,7,8,9,11,12,15,16,17-dodecahydro-1H-cyclopenta)a(phenanthrene-3,2'-cyclopropane(-1'-yl( hydrogen sulfate
PrecursorMZ: 505.26263
RT: 0.8464
Spectrum_type: 2
charge: -1
SMILES: CC1CC(C2(C1(C3CCC4CC5(CCC4(C3CC2)C)CC5OS(=O)(=O)O)C)C)C6=COC(C=C6)O
Method: HCD
Collision_energy: [28.333334]
Isolation_window: 4.0
Ion_mode: N
Num Peaks: 15
56.1388	1.0
56.1419	2.3
56.3617	1.1
56.3627	1.2
56.3658	2.2
69.0944	1.6
79.9564	2.4
96.9591	100.0
98.9549	1.9
503.2841	2.7
504.2385	2.8
504.2854	2.2
505.2643	44.5
506.2673	13.5
507.2772	35.4

Name: 1,3,4-Trihydroxy-5-(4-hydroxybenzoyl)oxycyclohexane-1-carboxylic acid
PrecursorMZ: 311.0774
RT: 1.4055
ExactMass: 312.08451746
Spectrum_type: 2
charge: -1
Formula: C14H16O8
SMILES: C1C(C(C(CC1(C(=O)O)O)OC(=O)C2=CC=C(C=C2)O)O)O
Method: HCD
Collision_energy: [28.333334]
Isolation_window: 4.0
Ion_mode: N
Num Peaks: 36
59.0130	1.7
61.9875	16.2
87.0079	2.1
93.0337	9.7
99.0191	1.8
111.0191	31.4
111.0443	1.7
112.0226	1.9
137.0237	100.0
138.0271	7.2
151.0505	4.6
155.0092	32.7
155.0346	1.8
156.0129	2.1
164.1070	2.3
173.0451	6.3
179.1184	16.7
180.0660	2.7
191.0555	16.9
193.0980	1.7
207.1136	14.0
265.1811	2.3
267.1963	5.4
269.2491	1.8
309.1085	4.5
309.1715	3.6
310.0942	2.2
311.0778	16.3
311.1253	31.7
311.1691	19.6
311.2955	2.8
312.0803	2.3
312.1267	5.4
312.1727	2.3
313.0712	4.1
313.0971	3.0

Name: 1,4,10,13-Tetrazatricyclo)13.3.0.06,10(octadecane-2,5,11,14-tetrone
PrecursorMZ: 307.14114
RT: 1.6902
ExactMass: 308.14845513
Spectrum_type: 2
charge: -1
Formula: C14H20N4O4
SMILES: C1CC2C(=O)NCC(=O)N3CCCC3C(=O)NCC(=O)N2C1
Method: HCD
Collision_energy: [28.333334]
Isolation_window: 4.0
Ion_mode: N
Num Peaks: 41
59.0129	1.7
61.9875	47.2
67.0293	4.1
71.0130	4.2
85.0287	1.9
89.0235	1.7
93.0449	29.7
94.0289	2.1
94.0483	1.8
101.0234	2.2
108.0446	1.3
113.0237	3.0
113.0710	1.5
114.0552	3.8
119.0243	2.5
127.0870	1.8
137.0349	20.4
143.0342	1.3
151.0506	12.7
152.0544	1.7
153.0664	1.6
161.0449	1.4
167.0822	2.9
179.0822	1.7
187.1082	29.5
188.1118	2.3
190.0981	5.9
192.0773	2.1
209.0929	1.5
216.0783	1.8
217.0974	1.7
227.1034	22.1
228.1074	2.2
233.1037	2.1
247.1210	1.6
305.1253	12.4
306.1279	5.3
307.1082	3.2
307.1411	100.0
308.1451	14.7
309.1475	1.8

Name: 1,4a,7-trimethyl-7-(2-sulfooxyethyl)-3,4,4b,5,6,10a-hexahydro-2H-phenanthrene-1-carboxylic acid
PrecursorMZ: 397.16915
RT: 2.0994
ExactMass: 398.17630985
Spectrum_type: 2
charge: -1
Formula: C20H30O6S
SMILES: CC1(CCC2C(=C1)C=CC3C2(CCCC3(C)C(=O)O)C)CCOS(=O)(=O)O
Method: HCD
Collision_energy: [28.333334]
Isolation_window: 4.0
Ion_mode: N
Num Peaks: 12
69.4375	0.6
80.9642	0.6
96.9592	2.7
353.1792	2.2
395.2098	0.7
397.0599	0.7
397.1692	100.0
397.2767	0.7
398.1725	22.6
399.1712	5.2
399.1791	2.3
399.1854	4.4

Name: 1,7-Tetrasiloxanediol, 1,1,3,3,5,5,7,7-octamethyl-
PrecursorMZ: 313.07841
RT: 1.0613
ExactMass: 314.08573006
Spectrum_type: 2
charge: -1
Formula: C8H26O5Si4
SMILES: C[Si](C)(O)O[Si](C)(C)O[Si](C)(C)O[Si](C)(C)O
Method: HCD
Collision_energy: [28.333334]
Isolation_window: 4.0
Ion_mode: N
Num Peaks: 7
74.9899	4.9
91.0212	100.0
93.0004	7.7
311.1688	15.0
311.2954	23.8
312.1729	5.2
312.2982	6.8

Name: 1-((2R)-2-amino-3-(4-hydroxyphenyl)propanoyl)pyrrolidine-2-carboxylic acid
PrecursorMZ: 277.11938
RT: 5.7608
ExactMass: 278.12665706
Spectrum_type: 2
charge: -1
Formula: C14H18N2O4
SMILES: C1CC(N(C1)C(=O)[C@@H](CC2=CC=C(C=C2)O)N)C(=O)O
Method: HCD
Collision_energy: [28.333334]
Isolation_window: 4.0
Ion_mode: N
Num Peaks: 10
71.0243	14.7
107.0494	35.0
114.0189	24.0
114.0552	53.3
136.0761	20.2
146.0604	14.2
171.0774	22.3
260.1042	38.3
277.1194	100.0
278.1172	41.8

Name: 1-((2S)-5-oxopyrrolidine-2-carbonyl)pyrrolidine-2-carboxylic acid
PrecursorMZ: 225.08785
RT: 5.3888
ExactMass: 226.09535693
Spectrum_type: 2
charge: -1
Formula: C10H14N2O4
SMILES: C1CC(N(C1)C(=O)[C@@H]2CCC(=O)N2)C(=O)O
Method: HCD
Collision_energy: [28.333334]
Isolation_window: 4.0
Ion_mode: N
Num Peaks: 22
82.0290	16.8
84.0447	13.0
96.0447	16.9
112.0395	17.1
114.0552	61.0
123.0555	11.7
123.9013	22.8
124.0396	11.5
125.0351	10.9
125.8991	29.5
126.0301	62.7
153.0664	11.4
155.0820	38.2
163.0873	12.3
165.0661	13.2
181.0977	44.7
208.0727	22.5
223.7983	12.3
225.0880	53.6
226.0832	100.0
227.1063	9.8
227.1400	59.4

Name: 1-((3aS,4R,6R,6aR)-6-(hydroxymethyl)-2,2-dimethyl-3a,4,6,6a-tetrahydrofuro(3,4-d)(1,3)dioxol-4-yl)-3-methylpyrimidine-2,4-dione
PrecursorMZ: 297.10906
RT: 6.4767
ExactMass: 298.1164863
Spectrum_type: 2
charge: -1
Formula: C13H18N2O6
SMILES: CC1(O[C@@H]2[C@H](O[C@H]([C@H]2O1)N3C=CC(=O)N(C3=O)C)CO)C
Method: HCD
Collision_energy: [28.333334]
Isolation_window: 4.0
Ion_mode: N
Num Peaks: 13
108.0447	10.5
137.0603	5.9
151.0506	100.0
152.0544	7.9
181.0499	18.1
211.0725	7.8
297.1089	43.4
297.1528	15.1
297.2436	54.7
298.1100	5.0
298.2470	9.9
299.0828	4.9
299.2589	14.2

Name: 1-(1-(2-Amino-3-hydroxypropanoyl)pyrrolidine-2-carbonyl)pyrrolidine-2-carboxylic acid
PrecursorMZ: 298.14092
RT: 5.4134
ExactMass: 299.14812078
Spectrum_type: 2
charge: -1
Formula: C13H21N3O5
SMILES: C1CC(N(C1)C(=O)C2CCCN2C(=O)C(CO)N)C(=O)O
Method: HCD
Collision_energy: [28.333334]
Isolation_window: 4.0
Ion_mode: N
Num Peaks: 11
112.0507	17.2
114.0552	100.0
139.0506	11.9
171.0768	14.4
210.1245	25.3
254.1149	23.3
297.1547	60.6
297.2437	48.6
298.1400	90.9
299.1486	11.3
299.2589	39.1

Name: 1-(1Z-hexadecenyl)-2-(9Z-pentadecenoyl)-glycero-3-phosphate
PrecursorMZ: 615.44185
RT: 1.0224
ExactMass: 616.44679141
Spectrum_type: 2
charge: -1
Formula: C34H65O7P
SMILES: CCCCCCCCCCCCCC/C=C\OC[C@H](COP(=O)(O)O)OC(=O)CCCCCCC/C=C\CCCCC
Method: HCD
Collision_energy: [28.333334]
Isolation_window: 4.0
Ion_mode: N
Num Peaks: 39
61.9875	1.7
66.7113	0.5
66.7153	1.1
66.8268	0.3
68.3805	2.3
68.3846	4.5
68.4919	0.7
68.4963	1.4
69.0464	0.4
97.4660	0.4
133.0287	3.2
160.0158	0.7
175.0394	4.6
176.0426	0.4
177.0188	3.2
193.0505	0.3
350.2375	11.5
351.2398	1.3
357.2804	1.6
358.2835	0.7
364.2533	7.9
365.2557	1.0
375.2930	0.2
541.4621	0.4
600.4191	24.8
601.4228	8.4
602.4076	0.3
602.4267	1.2
613.5208	6.4
614.5244	5.7
615.2352	0.6
615.2765	0.7
615.4423	100.0
615.5186	1.8
615.6529	0.7
616.4461	35.0
616.4564	12.4
617.4488	6.2
617.4649	3.1

Name: 1-(2-(Furan-2-yl)-2-oxoethyl)-5-oxopyrrolidine-2-carboxylic acid
PrecursorMZ: 236.05639
RT: 4.652433333333334
ExactMass: 237.06372245
Spectrum_type: 2
charge: -1
Formula: C11H11NO5
SMILES: C1CC(=O)N(C1C(=O)O)CC(=O)C2=CC=CO2
Method: HCD
Collision_energy: [28.333334]
Isolation_window: 4.0
Ion_mode: N
Num Peaks: 142
57.0337	0.9
59.0130	3.6
66.0341	2.3
67.0179	3.6
68.0133	2.2
69.0337	2.4
70.0290	1.7
71.0130	1.7
71.0494	0.9
72.9923	1.5
73.0286	1.1
79.0181	2.9
79.9564	6.7
80.0497	0.9
80.9643	11.9
81.0336	1.1
82.0290	0.9
83.0493	1.4
84.0445	6.0
85.0285	1.8
86.0238	0.9
88.0395	8.8
92.0496	0.9
93.0337	2.0
94.0289	22.9
95.0129	1.3
95.0493	1.8
95.9511	0.9
96.0446	2.6
96.9592	8.0
97.0286	2.6
97.0649	0.9
107.0495	1.7
107.0605	2.4
108.0447	3.8
109.0287	4.7
109.0652	1.2
110.0605	1.1
111.0080	1.2
111.0443	2.2
112.0394	1.3
113.0236	2.2
114.0553	1.8
116.0708	1.9
119.0490	0.9
120.0447	1.2
121.0288	1.7
121.0651	2.3
122.0603	3.6
123.0318	1.4
123.0443	2.5
123.0553	1.3
123.0806	1.2
124.0396	4.1
125.0239	0.9
125.0600	1.2
126.0552	1.4
127.0394	1.0
128.0345	4.4
130.0865	1.0
133.0650	1.2
134.0605	1.0
135.0447	2.6
135.0809	1.5
136.0397	4.2
136.0758	1.6
137.0236	0.9
137.0348	1.9
137.0599	2.1
138.0552	6.3
139.0396	0.9
146.0602	1.1
147.0445	2.3
147.0810	2.1
148.0397	1.9
148.0759	3.5
149.0601	4.9
149.0967	3.9
150.0550	5.0
150.0910	1.2
151.0390	0.8
151.0506	1.7
151.0756	1.5
152.0708	1.4
161.0598	1.0
162.0549	1.5
162.0916	1.2
163.0391	0.9
163.0756	2.8
164.0710	8.2
164.1075	7.1
165.0544	1.2
165.0666	2.0
165.0912	1.0
166.0863	1.1
173.0597	1.1
174.0552	1.5
174.0912	0.9
175.0754	2.4
175.1117	0.9
176.0698	1.3
177.0549	1.5
190.0866	3.8
191.0362	0.9
191.0702	6.4
191.0825	7.6
191.1071	1.5
191.1193	0.9
192.0661	100.0
192.1009	4.2
193.0500	2.2
193.0692	10.4
193.0864	5.0
193.0987	0.9
193.1208	4.4
193.1343	0.8
194.0288	1.3
194.0817	5.6
194.1177	3.7
205.0509	1.0
206.0793	1.0
207.0321	0.9
208.0973	3.1
234.0770	2.3
234.0851	2.0
234.1101	5.0
234.6111	2.4
235.0288	0.8
235.0624	8.6
235.0987	6.2
235.1171	5.7
235.6186	2.0
236.0561	45.2
236.0899	8.0
236.1339	1.0
237.0394	1.8
237.0598	3.6
237.0779	17.4
237.1141	4.5
237.1484	1.2
238.0728	7.1
238.1084	5.5

Name: 1-(2-Amino-3-phenylpropanoyl)pyrrolidine-2-carboxylic acid
PrecursorMZ: 261.12443
RT: 5.0446
ExactMass: 262.13174244
Spectrum_type: 2
charge: -1
Formula: C14H18N2O3
SMILES: C1CC(N(C1)C(=O)C(CC2=CC=CC=C2)N)C(=O)O
Method: HCD
Collision_energy: [28.333334]
Isolation_window: 4.0
Ion_mode: N
Num Peaks: 98
59.0133	1.6
71.0137	1.3
72.0448	1.4
74.0240	6.6
84.0446	3.8
86.0602	1.4
88.0395	2.0
91.0544	7.4
94.0289	2.4
96.0446	1.2
98.0238	1.2
107.0495	1.4
108.0447	2.0
111.0559	1.7
112.0507	1.4
113.0712	6.6
114.0552	24.7
115.0585	1.5
115.0869	2.9
116.0345	2.2
116.0709	2.3
120.0449	1.8
121.0527	1.1
122.0604	5.6
123.0556	1.3
124.0397	1.2
124.0761	3.7
126.0916	1.2
128.0345	23.6
129.0735	13.7
130.0866	4.2
131.0463	1.3
133.0531	1.2
134.0464	1.8
134.0604	4.0
134.0969	1.3
135.0444	1.5
135.0689	1.4
136.0536	1.1
136.0760	100.0
137.0604	5.6
137.0795	10.2
138.0916	2.4
146.0603	1.3
147.0445	2.8
148.0761	3.2
150.0555	2.7
157.0612	4.3
158.0601	1.1
160.0757	1.1
161.0713	3.1
162.0546	1.1
163.0871	12.3
164.0706	1.6
172.0759	1.2
174.0542	2.0
174.0915	4.8
176.0705	2.1
187.0867	1.3
187.1082	1.3
188.0706	1.8
188.1075	7.0
189.0665	3.8
189.1015	2.7
200.0711	3.9
214.0716	1.3
216.0666	1.6
216.1014	4.2
216.1383	3.1
217.0978	2.0
217.1397	1.2
218.0811	2.5
218.1201	1.2
218.1541	5.3
219.1124	2.8
230.1029	1.2
232.0834	4.7
244.1199	1.0
259.1459	7.3
260.0901	8.7
260.0937	3.4
260.1504	3.5
261.0859	2.8
261.0917	2.7
261.1207	32.8
261.1248	30.2
261.1568	18.1
261.1606	9.3
262.0696	4.1
262.0911	7.9
262.1182	5.1
262.1227	6.2
262.1606	2.6
263.0992	5.0
263.1042	9.0
263.1360	4.3
263.1399	3.2
263.1720	3.0

Name: 1-(4-Acetylphenyl)-5-Oxo-3-Pyrrolidinecarboxylic Acid
PrecursorMZ: 246.07695
RT: 4.99755
ExactMass: 247.0844579
Spectrum_type: 2
charge: -1
Formula: C13H13NO4
SMILES: CC(=O)C1=CC=C(C=C1)N2CC(CC2=O)C(=O)O
Method: HCD
Collision_energy: [28.333334]
Isolation_window: 4.0
Ion_mode: N
Num Peaks: 56
59.0129	3.8
67.0180	3.3
69.6030	1.1
71.0129	1.4
71.0494	1.1
72.9922	1.4
73.0285	2.0
75.0079	1.1
78.9581	1.6
79.9564	1.4
80.9643	5.7
82.0289	100.0
83.0322	3.5
85.0286	1.7
87.0079	1.4
87.0443	1.1
94.0289	6.2
96.0446	1.4
96.9592	1.2
99.0445	1.1
107.0493	1.1
111.0807	3.3
119.0494	22.1
120.0527	2.2
122.0601	1.4
133.0522	1.2
134.0603	16.0
135.0638	1.4
140.0347	1.7
152.9952	2.1
153.0916	1.7
163.0394	6.4
171.1022	1.4
173.0817	3.8
184.0007	1.6
202.0869	23.3
203.0901	3.0
209.1176	1.1
215.0928	1.6
218.0819	1.1
244.1634	24.7
245.0436	2.5
245.0665	1.7
245.1399	9.0
245.1660	5.7
246.0770	35.6
246.0958	1.3
246.1550	4.5
246.6564	1.7
247.0384	1.5
247.0808	5.9
247.1189	2.2
247.1623	6.1
247.6652	1.9
248.0801	3.6
248.0927	1.7

Name: 1-(4-Oxo-4-((2s)-Pyrrolidin-2-Yl)butanoyl)-L-Proline
PrecursorMZ: 267.13497
RT: 4.6039
ExactMass: 268.14230712
Spectrum_type: 2
charge: -1
Formula: C13H20N2O4
SMILES: C1C[C@H](NC1)C(=O)CCC(=O)N2CCC[C@H]2C(=O)O
Method: HCD
Collision_energy: [28.333334]
Isolation_window: 4.0
Ion_mode: N
Num Peaks: 25
84.0445	12.3
96.9592	23.4
112.0398	17.4
114.0553	34.3
116.0710	14.7
127.0868	23.8
154.0324	19.1
181.0439	23.4
205.0617	39.0
205.1341	43.4
222.1280	14.1
223.0544	48.7
223.0730	16.5
223.1453	22.6
229.1550	14.5
265.1473	23.3
266.1052	26.6
266.1497	12.2
267.0434	18.3
267.0634	16.1
267.0937	22.1
267.1351	100.0
269.0661	12.6
269.1139	15.4
269.1522	23.9

Name: 1-(5,10-dioxo-2,3,5a,6,7,8-hexahydro-1H-dipyrrolo)1,2-d:1',2'-f(pyrazin-10a-yl)propan-2-yl carbamate
PrecursorMZ: 294.1457
RT: 4.7161
ExactMass: 295.15320616
Spectrum_type: 2
charge: -1
Formula: C14H21N3O4
SMILES: CC(CC12CCCN1C(=O)C3CCCN3C2=O)OC(=O)N
Method: HCD
Collision_energy: [28.333334]
Isolation_window: 4.0
Ion_mode: N
Num Peaks: 11
88.0394	71.6
96.9589	8.5
97.4636	9.8
123.0555	8.9
220.1467	17.2
221.1542	39.2
236.1050	39.6
250.1555	11.4
293.1782	28.6
294.1459	100.0
295.1495	14.5

Name: 1-(9Z-nonadecenoyl)-glycero-3-phospho-(1'-sn-glycerol)
PrecursorMZ: 523.30413
RT: 2.3343
ExactMass: 524.31142013
Spectrum_type: 2
charge: -1
Formula: C25H49O9P
SMILES: CCCCCCCCC/C=C\CCCCCCCC(=O)OC[C@H](COP(=O)(O)OC[C@H](CO)O)O
Method: HCD
Collision_energy: [28.333334]
Isolation_window: 4.0
Ion_mode: N
Num Peaks: 7
78.9582	13.0
152.9952	34.8
295.2642	100.0
296.2676	18.3
523.3036	63.0
524.3079	12.1
525.3196	33.0

Name: 1-(9Z-pentadecenoyl)-glycero-3-phospho-(1'-myo-inositol)
PrecursorMZ: 555.25758
RT: 5.6535
ExactMass: 556.26486386
Spectrum_type: 2
charge: -1
Formula: C24H45O12P
SMILES: CCCCC/C=C\CCCCCCCC(=O)OC[C@H](COP(=O)(O)OC1C([C@@H](C(C(C1O)O)O)O)O)O
Method: HCD
Collision_energy: [28.333334]
Isolation_window: 4.0
Ion_mode: N
Num Peaks: 12
78.9581	100.0
96.9685	7.5
241.0118	14.4
259.0222	18.5
375.1941	41.2
376.1985	8.0
553.3395	6.5
555.2587	71.0
555.3519	12.3
556.2610	15.5
556.3494	9.5
557.2678	6.8

Name: 1-)(1R)-1-)(2S)-1-chloro-3-hydroxypropan-2-yl(oxy-2-hydroxyethyl(pyrimidine-2,4-dione
PrecursorMZ: 263.04399
RT: 1.1734
Spectrum_type: 2
charge: -1
SMILES: C1=CN(C(=O)NC1=O)C(CO)OC(CO)CCl
Method: HCD
Collision_energy: [28.333334]
Isolation_window: 4.0
Ion_mode: N
Num Peaks: 17
59.0130	24.4
61.9875	50.2
71.0129	10.7
73.0285	7.8
85.0286	12.4
101.0235	7.8
111.0192	11.7
112.0507	9.2
163.0608	9.9
173.0705	8.2
232.0830	21.4
261.0965	12.0
262.0939	100.0
263.0780	15.5
263.1012	9.2
265.0920	7.6
265.1205	7.8

Name: 1-)(2S,3R,4S,5R,6R)-2-)(2R,3S,4R,5R,6R)-5-acetamido-4,6-dihydroxy-2-(hydroxymethyl)oxan-3-yl(oxy-3,5-dihydroxy-6-(hydroxymethyl)oxan-4-yl(-N-methyltriazole-4-carboxamide
PrecursorMZ: 490.17698
RT: 4.5603
Spectrum_type: 2
charge: -1
SMILES: CC(=O)NC1C(C(C(OC1O)CO)OC2C(C(C(C(O2)CO)O)N3C=C(N=N3)C(=O)NC)O)O
Method: HCD
Collision_energy: [28.333334]
Isolation_window: 4.0
Ion_mode: N
Num Peaks: 16
61.9873	0.9
89.0230	0.7
98.0237	2.7
100.0393	0.7
101.0232	1.1
118.0498	8.6
130.0500	1.6
148.0360	0.7
148.0604	100.0
148.0856	0.6
149.0640	4.8
161.0447	0.9
179.0553	0.7
341.1081	4.2
489.1903	0.9
490.1758	1.3

Name: 1-)3,4-Dihydroxy-5-(hydroxymethyl)oxolan-2-yl(-5-methyl-1,3-diazinane-2,4-dione
PrecursorMZ: 259.09287
RT: 1.3085
ExactMass: 260.10083623
Spectrum_type: 2
charge: -1
Formula: C10H16N2O6
SMILES: CC1CN(C(=O)NC1=O)C2C(C(C(O2)CO)O)O
Method: HCD
Collision_energy: [28.333334]
Isolation_window: 4.0
Ion_mode: N
Num Peaks: 55
59.0128	18.7
61.9873	100.0
71.0128	16.7
72.9920	2.7
73.0284	5.5
82.0286	2.7
84.0079	24.7
85.0284	12.7
87.0078	3.6
89.0232	9.6
95.0123	2.7
97.0280	2.7
98.0235	3.1
99.0073	2.8
100.0389	3.0
101.0232	8.2
109.0284	4.7
110.0236	16.4
112.0392	13.2
113.0228	18.0
113.0340	10.4
123.0435	3.8
124.0392	5.2
125.0238	3.5
125.0341	2.9
126.0543	3.0
127.0383	3.2
129.0657	4.0
131.0338	4.6
139.0391	3.8
140.0338	3.4
143.0337	4.5
143.0448	30.5
151.0389	10.4
155.0449	26.4
163.0389	3.1
167.0452	4.5
168.0648	4.0
169.0596	4.9
169.0973	3.7
181.0493	3.0
188.0559	4.2
197.0667	27.3
214.0689	5.8
216.0823	3.3
217.0679	2.7
257.0734	10.0
257.1022	4.3
258.0985	8.2
259.0797	42.7
259.1509	4.8
260.0819	3.8
260.1102	4.2
261.0579	2.8
261.0952	4.7

Name: 1-Acetylproline
PrecursorMZ: 156.06596
RT: 1.7659
ExactMass: 157.07389321
Spectrum_type: 2
charge: -1
Formula: C7H11NO3
SMILES: CC(=O)N1CCCC1C(=O)O
Method: HCD
Collision_energy: [28.333334]
Isolation_window: 4.0
Ion_mode: N
Num Peaks: 8
114.0551	100.0
114.0914	4.9
115.0585	4.4
116.0708	6.6
156.0659	21.0
157.0863	72.6
158.0798	6.4
158.0918	1.1

Name: 1-Acetylpyrrolidine-2-carboxylate
PrecursorMZ: 156.06592
RT: 5.3438
ExactMass: 156.066068181
Spectrum_type: 2
charge: -1
Formula: C7H10NO3-
SMILES: CC(=O)N1CCCC1C(=O)[O-]
Method: HCD
Collision_energy: [28.333334]
Isolation_window: 4.0
Ion_mode: N
Num Peaks: 10
111.0191	14.8
114.0387	0.7
114.0552	100.0
114.0718	0.7
115.0586	5.0
128.0344	2.5
155.8648	1.2
156.0659	12.2
157.0693	1.1
157.1228	1.4

Name: 1-Amino-1,3-dicarboxycyclohexan
PrecursorMZ: 186.07664
RT: 1.9426
ExactMass: 187.0844579
Spectrum_type: 2
charge: -1
Formula: C8H13NO4
SMILES: C1CC(CC(C1)(C(=O)O)N)C(=O)O
Method: HCD
Collision_energy: [28.333334]
Isolation_window: 4.0
Ion_mode: N
Num Peaks: 10
84.0446	5.9
113.0346	1.7
140.0710	2.0
142.0866	9.4
143.0704	1.8
184.0607	1.3
186.0766	100.0
187.0606	15.7
187.0798	8.9
188.0932	4.9

Name: 1-Carbamimidoyl-piperidine-4-carboxylic acid
PrecursorMZ: 170.09287
RT: 3.3008
ExactMass: 171.100776666
Spectrum_type: 2
charge: -1
Formula: C7H13N3O2
SMILES: C1CN(CCC1C(=O)O)C(=N)N
Method: HCD
Collision_energy: [28.333334]
Isolation_window: 4.0
Ion_mode: N
Num Peaks: 37
58.0401	3.0
59.0129	2.3
65.0137	3.7
65.9976	5.8
83.0493	2.8
84.0444	6.8
125.0600	3.9
126.0096	3.1
126.0551	3.3
127.0504	3.7
127.0757	5.4
128.0708	100.0
129.0745	5.9
130.0867	2.4
141.0197	4.8
142.0042	3.8
142.0404	2.3
144.0194	3.4
150.9697	2.2
168.0299	9.0
169.0142	8.5
169.0393	8.1
169.0511	4.1
170.0351	9.5
170.0459	4.4
170.0792	2.4
170.0939	3.8
171.0191	67.0
171.0399	2.9
171.0649	4.9
171.0793	2.8
171.1020	9.7
171.1376	2.3
172.0123	3.2
172.0232	4.6
172.0609	18.4
172.0964	5.3

Name: 1-Cyclopropyl-5-oxopyrrolidine-3-carboxylic acid
PrecursorMZ: 168.06603
RT: 5.3449
ExactMass: 169.07389321
Spectrum_type: 2
charge: -1
Formula: C8H11NO3
SMILES: C1CC1N2CC(CC2=O)C(=O)O
Method: HCD
Collision_energy: [28.333334]
Isolation_window: 4.0
Ion_mode: N
Num Peaks: 8
96.0447	77.8
99.0080	27.8
124.0759	100.0
132.8671	77.2
134.8647	58.5
166.9835	29.8
168.0658	64.3
170.0822	26.0

Name: 1-Hexadecyl-glycero-3-phosphoserine
PrecursorMZ: 482.28926
RT: 4.6137
ExactMass: 483.29610442
Spectrum_type: 2
charge: -1
Formula: C22H46NO8P
SMILES: CCCCCCCCCCCCCCCCOC[C@H](COP(=O)(O)OC[C@@H](C(=O)O)N)O
Method: HCD
Collision_energy: [28.333334]
Isolation_window: 4.0
Ion_mode: N
Num Peaks: 16
53.4811	4.3
82.0292	4.6
89.0235	4.5
97.4061	5.2
100.0395	78.7
225.2222	14.1
326.2702	59.7
327.2738	10.5
377.2699	7.3
446.3120	6.2
463.3077	9.4
481.3173	100.0
482.2914	35.4
483.2910	6.1
483.3321	8.1
484.2817	11.2

Name: 12-Amino-7-oxododecanoic acid
PrecursorMZ: 228.16025
RT: 4.6227
ExactMass: 229.1677936
Spectrum_type: 2
charge: -1
Formula: C12H23NO3
SMILES: C(CCC(=O)CCCCCN)CCC(=O)O
Method: HCD
Collision_energy: [28.333334]
Isolation_window: 4.0
Ion_mode: N
Num Peaks: 10
87.0079	6.5
167.1436	19.9
210.1495	5.2
211.1335	22.3
227.2014	23.7
228.1602	100.0
229.0704	5.1
229.1419	14.6
229.1442	31.9
229.1633	9.1

Name: 12-Hydroxy-13-(hydroxymethyl)-3,5,7-trimethyltetradeca-2,4-dienedioic acid
PrecursorMZ: 341.19716
RT: 2.843
ExactMass: 342.20423867
Spectrum_type: 2
charge: -1
Formula: C18H30O6
SMILES: CC(CCCCC(C(CO)C(=O)O)O)CC(=CC(=CC(=O)O)C)C
Method: HCD
Collision_energy: [28.333334]
Isolation_window: 4.0
Ion_mode: N
Num Peaks: 90
59.0130	3.5
61.9875	2.1
71.0130	2.6
72.9922	1.6
74.0237	1.2
83.0493	1.5
85.0285	1.5
87.0079	3.1
88.0395	1.7
89.0235	4.7
97.0648	1.1
101.0234	1.1
102.0551	1.3
108.0446	1.4
111.0442	1.0
113.0235	1.3
114.0552	4.6
115.0028	2.0
115.0391	1.5
116.0709	1.5
124.0395	1.5
128.0346	5.5
129.0189	1.3
135.0443	1.3
137.0598	1.2
139.0504	1.0
146.0451	2.0
151.0506	8.1
153.0914	1.0
167.0464	1.1
171.0775	1.2
180.0653	1.3
181.0500	5.6
193.0616	2.7
207.1379	1.2
209.1536	1.2
210.0748	1.1
211.0720	1.0
225.0404	1.1
225.0907	1.1
225.1496	1.5
226.1216	1.0
227.1040	1.1
233.1909	1.4
235.0609	2.5
235.2068	5.3
251.2022	1.5
253.1448	2.1
254.1171	1.0
261.1861	6.4
262.1895	1.4
263.2018	2.1
269.1402	2.2
271.1552	4.1
277.1813	2.5
278.1844	1.4
279.1966	14.9
280.1996	2.2
281.1759	1.2
281.2106	1.1
282.0971	1.0
295.1915	2.5
296.1258	2.6
296.1925	1.4
297.2062	4.2
298.1396	1.4
305.1764	3.2
307.1908	1.2
321.1710	3.6
322.1747	2.4
323.1866	27.7
324.1158	1.0
324.1895	5.6
325.1660	2.3
325.2022	6.9
339.1815	17.2
339.2155	1.2
340.1124	12.2
340.1497	3.5
340.1853	10.5
341.0968	4.7
341.1301	2.4
341.1630	4.0
341.1971	100.0
342.1279	14.2
342.1694	1.0
342.2002	19.0
343.1053	7.4
343.1762	18.9
343.2132	19.8

Name: 13'-Hydroxy-gamma-tocopherol
PrecursorMZ: 431.35257
RT: 1.0347499999999998
ExactMass: 432.36034539
Spectrum_type: 2
charge: -1
Formula: C28H48O3
SMILES: CC1=C(C=C2CC[C@@](OC2=C1C)(C)CCC[C@@H](C)CCC[C@@H](C)CCCC(C)CO)O
Method: HCD
Collision_energy: [28.333334]
Isolation_window: 4.0
Ion_mode: N
Num Peaks: 28
108.0446	0.8
121.0651	1.8
148.0522	1.1
149.0356	0.7
149.0600	100.0
149.0850	0.7
150.0633	9.2
163.0756	5.1
164.0792	0.7
173.0964	1.8
175.0756	1.0
176.0836	32.7
177.0870	3.7
190.0625	0.8
191.1071	6.4
192.1099	0.7
205.0867	2.0
206.0935	0.8
223.0970	1.3
413.3429	1.2
416.3305	3.0
417.3344	0.9
430.3363	0.9
431.3527	44.2
432.2722	0.6
432.3561	14.1
433.3312	1.2
433.3690	1.4

Name: 15-((1-Carboxy-2-hydroxyethyl)amino)-15-oxopentadeca-9,12-dienoic acid
PrecursorMZ: 354.19192
RT: 5.9164
ExactMass: 355.19948764
Spectrum_type: 2
charge: -1
Formula: C18H29NO6
SMILES: C(CCCC=CCC=CCC(=O)NC(CO)C(=O)O)CCCC(=O)O
Method: HCD
Collision_energy: [28.333334]
Isolation_window: 4.0
Ion_mode: N
Num Peaks: 12
74.0238	2.8
130.0864	100.0
131.0899	6.4
292.1913	6.6
310.2024	22.7
311.2027	3.1
318.1680	2.8
336.1834	4.2
353.1971	11.7
354.1929	65.0
355.1625	2.9
355.2135	13.6

Name: 15-(2-Acetamido-2-carboxyethyl)sulfanyl-16-hydroxyicosa-6,9,11,13-tetraenedioic acid
PrecursorMZ: 510.21669
RT: 5.8201
ExactMass: 511.22398831
Spectrum_type: 2
charge: -1
Formula: C25H37NO8S
SMILES: CC(=O)NC(CSC(C=CC=CC=CCC=CCCCCC(=O)O)C(CCCC(=O)O)O)C(=O)O
Method: HCD
Collision_energy: [28.333334]
Isolation_window: 4.0
Ion_mode: N
Num Peaks: 109
56.5917	0.5
56.6892	2.0
56.6923	4.8
56.8006	0.5
56.8038	1.1
56.8125	0.3
56.8157	0.9
57.0337	0.6
59.0130	2.0
69.0336	0.4
71.0130	1.6
71.0493	0.7
72.9922	0.3
73.0286	1.1
74.0237	0.3
75.0078	0.3
78.9582	1.4
79.9565	0.3
80.9643	0.4
81.0336	0.3
83.0493	1.0
85.0286	0.5
85.0649	0.3
87.0079	0.5
87.0442	1.2
95.0494	0.4
96.9592	2.8
97.0286	0.5
97.0650	0.5
99.0443	0.7
99.0805	0.3
101.0235	0.6
101.0599	0.5
109.0649	0.5
111.0441	0.3
111.0807	0.3
113.0236	0.3
113.0600	0.4
114.0553	0.8
115.0392	2.2
115.0756	0.3
116.0709	0.5
123.0444	0.3
124.0760	0.3
125.0963	0.3
127.0389	0.3
127.0756	0.3
128.0346	0.3
129.0551	0.5
129.0914	0.5
130.0864	0.6
131.0341	0.3
135.0444	0.4
140.0110	0.3
143.0704	0.4
145.0500	2.0
151.0395	0.5
152.9951	1.0
157.9912	0.3
171.1021	0.4
191.0010	0.3
201.1113	0.3
203.1074	0.4
209.1177	0.3
237.1491	0.4
239.1658	0.4
245.1656	0.4
253.1453	0.4
255.1604	0.8
257.1753	0.6
271.1554	0.6
273.1703	0.9
281.2485	1.2
282.2516	0.3
283.2643	0.8
291.0878	0.4
330.2078	1.0
349.2011	0.3
365.2702	0.3
391.1412	0.6
400.2681	0.3
421.2594	0.4
430.2600	3.1
431.2664	0.8
444.2593	0.3
447.3115	0.4
449.3336	0.5
465.3239	1.4
466.3289	0.4
467.3408	1.2
475.3039	0.3
476.2849	0.3
491.2990	0.9
492.3045	0.3
493.3195	1.9
494.3252	0.3
508.2872	0.5
508.2956	0.5
508.3282	0.3
508.3370	0.4
509.3116	10.6
510.2173	100.0
510.3048	2.7
510.3333	1.6
510.3756	0.4
511.2205	27.0
511.3266	18.2
512.2184	5.1
512.3301	2.8

Name: 1H-Pyrido(3,4-b)indole-3-carboxylic acid, 2,3,4,9-tetrahydro-1-(hydroxymethyl)-, cis-
PrecursorMZ: 245.09275
RT: 1.5634
ExactMass: 246.10044231
Spectrum_type: 2
charge: -1
Formula: C13H14N2O3
SMILES: C1C(N[C@H](C2=C1C3=CC=CC=C3N2)CO)C(=O)O
Method: HCD
Collision_energy: [28.333334]
Isolation_window: 4.0
Ion_mode: N
Num Peaks: 25
61.9874	2.8
72.0079	2.3
86.0237	20.5
88.0392	1.7
92.0495	10.4
116.0344	22.2
116.0495	53.0
117.0529	3.5
142.0651	4.6
158.0600	3.0
169.0762	2.3
171.0919	20.0
172.0759	4.5
172.0955	2.3
183.0919	21.4
184.0949	2.1
197.0716	1.8
201.1025	6.8
202.0840	2.3
215.0819	35.0
216.0854	5.0
227.0818	3.7
244.1317	2.2
245.0927	100.0
246.0968	14.0

Name: 2'-Deoxyinosine 3'-benzoate
PrecursorMZ: 355.10331
RT: 4.0361
ExactMass: 356.11206962
Spectrum_type: 2
charge: -1
Formula: C17H16N4O5
SMILES: C1[C@@H]([C@H](O[C@H]1N2C=NC3=C2N=CNC3=O)CO)OC(=O)C4=CC=CC=C4
Method: HCD
Collision_energy: [28.333334]
Isolation_window: 4.0
Ion_mode: N
Num Peaks: 17
59.0128	4.4
61.9874	1.1
109.0285	1.9
109.0647	1.2
119.0492	1.3
121.0285	1.5
135.0442	1.3
137.0599	19.9
138.0633	1.7
155.0341	1.7
173.0451	1.2
181.0498	100.0
181.0831	0.8
182.0532	9.2
269.0814	1.0
355.1037	19.4
356.1070	3.4

Name: 2,3,4,9-tetrahydro-1H-pyrido)3,4-b(indole-1,3-dicarboxylic acid
PrecursorMZ: 259.07208
RT: 2.4775
ExactMass: 260.07970687
Spectrum_type: 2
charge: -1
Formula: C13H12N2O4
SMILES: C1C(NC(C2=C1C3=CC=CC=C3N2)C(=O)O)C(=O)O
Method: HCD
Collision_energy: [28.333334]
Isolation_window: 4.0
Ion_mode: N
Num Peaks: 16
58.9951	2.2
72.0081	4.0
86.0237	40.3
92.0495	24.8
112.0394	2.6
116.0495	24.9
117.0524	1.7
142.0653	8.1
169.0760	5.5
171.0919	40.2
172.0957	3.9
215.0820	100.0
216.0854	12.4
259.0723	9.9
260.0219	4.4
260.0761	2.1

Name: 2,3,4-Tri-O-acetyl-D-arabinopyranosyl cyanide
PrecursorMZ: 284.0778
RT: 1.2627
ExactMass: 285.08485182
Spectrum_type: 2
charge: -1
Formula: C12H15NO7
SMILES: CC(=O)OC1COC(C(C1OC(=O)C)OC(=O)C)C#N
Method: HCD
Collision_energy: [28.333334]
Isolation_window: 4.0
Ion_mode: N
Num Peaks: 49
59.0129	9.3
61.9874	3.3
71.0130	6.0
72.9922	5.3
75.0079	5.0
87.0079	28.4
88.0394	3.4
96.9591	6.9
111.0443	4.6
114.0552	18.4
116.0707	4.3
121.0287	5.8
122.0602	5.6
123.0446	3.9
124.0760	11.6
125.0348	3.9
130.0865	6.9
152.0709	10.5
153.0551	3.4
167.0205	69.2
168.0237	3.4
177.1279	5.3
178.0867	4.4
182.0816	3.5
213.1243	3.8
221.1171	6.5
225.0401	3.8
238.1164	3.7
239.1269	6.1
240.0691	3.5
240.0903	4.5
240.1231	4.1
282.0661	3.8
282.1024	5.0
283.0833	27.6
283.1205	25.3
283.1564	4.2
283.2294	4.4
283.2640	38.8
284.0782	100.0
284.1153	12.7
284.1521	7.6
284.2670	7.1
285.0588	49.7
285.1363	23.4
285.1714	10.9
286.0604	9.4
286.0942	3.4
286.1338	3.7

Name: 2,3,6-Trideuterio-4-((2,2,2-trideuterioacetyl)amino)benzenesulfonic acid
PrecursorMZ: 214.01753
RT: 3.7287
ExactMass: 221.06288942
Spectrum_type: 2
charge: -1
Formula: C8H9NO4S
SMILES: [2H]C1=C(C(=C(C(=C1)NC(=O)C([2H])([2H])[2H])[2H])[2H])S(=O)(=O)O
Method: HCD
Collision_energy: [28.333334]
Isolation_window: 4.0
Ion_mode: N
Num Peaks: 14
79.9563	3.0
80.9644	1.1
82.9601	1.9
134.0604	14.7
135.0641	1.0
150.0554	2.2
170.9989	1.9
172.0069	1.1
213.0063	1.0
213.0240	1.6
214.0177	100.0
215.0210	9.1
215.0922	1.1
216.0123	2.6

Name: 2,4-Bis(4-hydroxyphenyl)cyclobutane-1,3-dicarboxylate
PrecursorMZ: 327.0871
RT: 2.5551
ExactMass: 326.07903816
Spectrum_type: 2
charge: -1
Formula: C18H14O6-2
SMILES: C1=CC(=CC=C1C2C(C(C2C(=O)[O-])C3=CC=C(C=C3)O)C(=O)[O-])O
Method: HCD
Collision_energy: [28.333334]
Isolation_window: 4.0
Ion_mode: N
Num Peaks: 55
57.0337	3.3
59.0129	6.8
79.9564	10.0
80.9641	2.6
83.0493	5.4
93.0336	12.1
96.9591	14.5
106.0415	6.3
108.0207	4.7
108.0446	2.4
109.0649	7.5
131.0494	5.8
132.0572	6.7
133.0652	4.4
145.0652	5.6
152.0347	2.5
175.0756	6.1
183.0111	5.4
183.1384	2.9
189.0552	4.6
201.1125	5.5
213.1119	3.4
227.1286	6.7
237.0918	7.7
239.1073	33.0
240.1106	5.7
241.1229	6.9
251.1284	3.5
269.1395	16.3
283.0974	55.0
284.1006	8.5
284.1292	10.7
285.1113	4.1
311.1490	3.2
325.1283	4.5
325.1328	18.2
325.1840	100.0
325.6217	2.6
325.6345	7.7
325.7088	2.1
326.1310	6.4
326.1867	32.5
326.6303	2.5
326.6723	3.7
327.0855	5.8
327.0893	4.4
327.1321	2.3
327.1821	8.1
327.2177	23.6
328.1198	15.7
328.1576	3.0
328.2204	3.9
329.1020	17.0
329.1618	8.3
329.2332	10.5

Name: 2,4-Diamino-4-oxobutanoic acid;hydron
PrecursorMZ: 131.0454
RT: 9.1546
ExactMass: 133.06131715
Spectrum_type: 2
charge: -1
Formula: C4H9N2O3+
SMILES: [H+].C(C(C(=O)O)N)C(=O)N
Method: HCD
Collision_energy: [28.333334]
Isolation_window: 4.0
Ion_mode: N
Num Peaks: 39
57.0336	2.5
58.0290	6.9
59.0129	3.2
69.0336	2.8
69.0556	4.4
69.0598	4.3
70.0289	45.1
71.0130	14.9
71.0242	14.0
71.0324	1.9
71.0494	13.2
72.0082	17.6
79.9564	2.1
85.0285	3.8
85.0650	28.2
87.0442	36.4
87.0808	1.9
88.0395	52.8
95.0242	26.0
97.4647	3.0
97.4672	2.9
99.0079	2.6
111.0192	6.0
113.0230	2.3
113.0348	62.8
113.0600	1.8
114.0188	100.0
114.0381	3.3
115.0028	20.1
115.0219	5.7
129.0550	2.1
129.0914	2.1
130.0866	55.7
131.0344	10.1
131.0455	20.5
131.0706	16.5
131.0901	5.7
132.0295	16.8
132.0451	2.5

Name: 2,4-Dideuterio-3-hydroxybutanoic acid
PrecursorMZ: 103.03916
RT: 5.2724
ExactMass: 106.059897605
Spectrum_type: 2
charge: -1
Formula: C4H8O3
SMILES: [2H]CC(C([2H])C(=O)O)O
Method: HCD
Collision_energy: [28.333334]
Isolation_window: 4.0
Ion_mode: N
Num Peaks: 3
57.0337	31.6
59.0130	100.0
103.0391	36.2

Name: 2,4-Dihydroxy-3,3-Dimethyl-Butyrate
PrecursorMZ: 147.06555
RT: 1.4039
ExactMass: 147.06573383
Spectrum_type: 2
charge: -1
Formula: C6H11O4-
SMILES: CC(C)(CO)[C@H](C(=O)[O-])O
Method: HCD
Collision_energy: [28.333334]
Isolation_window: 4.0
Ion_mode: N
Num Peaks: 17
59.0130	8.5
71.0131	3.0
71.0494	100.0
72.0527	6.4
99.0442	7.4
118.0289	6.6
121.0288	5.3
129.0550	4.5
145.0494	4.3
146.0238	4.5
146.0611	5.5
146.0814	8.5
147.0447	2.8
147.0656	63.7
148.0396	2.7
148.0766	2.7
149.0598	3.1

Name: 2,4-bis(4-hydroxyphenyl)cyclobutane-1,3-dicarboxylic Acid
PrecursorMZ: 327.08752
RT: 3.2882
ExactMass: 328.09468823
Spectrum_type: 2
charge: -1
Formula: C18H16O6
SMILES: C1=CC(=CC=C1C2C(C(C2C(=O)O)C3=CC=C(C=C3)O)C(=O)O)O
Method: HCD
Collision_energy: [28.333334]
Isolation_window: 4.0
Ion_mode: N
Num Peaks: 28
93.0337	19.9
96.9922	5.1
119.0494	7.3
128.0343	1.6
131.0497	2.6
133.0288	2.8
136.9909	2.5
139.0063	1.5
143.0495	14.1
144.0528	1.5
145.0288	2.0
163.0394	11.0
171.0444	1.5
197.0452	1.8
211.0759	5.0
221.0973	1.7
235.0760	2.7
237.0918	5.6
265.0871	25.0
266.0901	4.3
309.0772	6.7
310.0803	1.2
325.1842	6.5
326.0895	1.3
326.1866	2.0
327.0875	100.0
328.0893	18.6
329.0883	17.1

Name: 2,5-Bis(acetylamino)pentanoic acid
PrecursorMZ: 215.10337
RT: 1.9049
ExactMass: 216.111007
Spectrum_type: 2
charge: -1
Formula: C9H16N2O4
SMILES: CC(=O)NCCCC(C(=O)O)NC(=O)C
Method: HCD
Collision_energy: [28.333334]
Isolation_window: 4.0
Ion_mode: N
Num Peaks: 69
58.0289	10.8
59.0129	4.1
71.0129	4.5
73.0286	3.7
73.0397	2.2
81.0210	2.4
85.0285	3.8
87.0079	3.3
88.0395	5.5
95.0241	4.2
98.0238	4.9
98.0601	4.6
99.0439	2.3
107.0606	100.0
108.0638	5.7
112.0398	3.1
112.0761	2.7
113.0235	3.4
114.0552	9.4
115.0755	2.3
116.0709	9.1
123.0555	5.4
125.0234	2.1
126.0552	3.6
127.0392	2.5
127.0503	3.0
129.1025	10.8
130.0865	8.1
131.0816	2.6
138.0550	2.7
142.0865	4.3
149.0714	5.0
153.0549	6.0
153.0665	2.9
153.1277	12.5
167.0819	2.8
169.1344	2.3
170.0573	4.6
170.0807	3.6
170.1177	2.7
171.1007	2.6
171.1141	3.3
172.0113	2.6
172.0737	5.2
173.0926	82.9
174.0768	6.6
174.0959	3.4
187.1084	3.9
197.0938	4.0
197.1177	11.9
213.0882	8.8
213.1247	27.9
213.1486	2.6
213.1845	2.6
214.0716	33.1
214.1084	16.0
214.1275	5.7
215.0101	3.1
215.0561	5.3
215.0720	3.5
215.1038	62.7
215.1288	45.6
216.0664	3.6
216.0875	7.1
216.1059	5.0
216.1289	6.0
217.0711	13.4
217.1036	2.6
217.1194	9.2

Name: 2-(((1S)-3-amino-3-oxo-1-(5-pyrazin-2-yl-1,3,4-oxadiazol-2-yl)propyl)carbamoylamino)-3-hydroxybutanoic acid
PrecursorMZ: 378.11555
RT: 9.3478
ExactMass: 379.12403129
Spectrum_type: 2
charge: -1
Formula: C14H17N7O6
SMILES: CC(C(C(=O)O)NC(=O)N[C@@H](CC(=O)N)C1=NN=C(O1)C2=NC=CN=C2)O
Method: HCD
Collision_energy: [28.333334]
Isolation_window: 4.0
Ion_mode: N
Num Peaks: 28
59.0130	1.3
60.9922	6.3
71.0129	1.3
72.9923	1.2
78.9581	0.9
79.9563	1.0
80.9643	1.6
87.0079	2.3
88.9871	100.0
89.0235	1.3
89.9905	1.8
96.9594	1.6
101.0236	1.4
116.0709	1.1
128.0344	1.2
135.0446	1.1
161.0452	1.2
204.1141	1.6
248.1041	2.5
297.0286	1.0
320.0885	1.4
376.3322	1.0
377.0747	1.0
377.0828	1.4
377.0876	1.7
379.0630	1.1
379.0707	1.7
379.3576	2.8

Name: 2-(((2R)-2-amino-3-phenylpropanoyl)amino)acetic acid
PrecursorMZ: 221.09285
RT: 5.0816
ExactMass: 222.10044231
Spectrum_type: 2
charge: -1
Formula: C11H14N2O3
SMILES: C1=CC=C(C=C1)C[C@H](C(=O)NCC(=O)O)N
Method: HCD
Collision_energy: [28.333334]
Isolation_window: 4.0
Ion_mode: N
Num Peaks: 51
59.0129	2.4
73.0398	6.9
74.0238	33.1
85.0398	43.8
88.0395	4.0
91.0544	5.2
94.0288	3.6
108.0446	12.5
116.0705	1.9
118.0292	2.2
120.0445	2.4
122.0603	3.0
123.0555	8.4
128.0344	2.6
130.0868	3.6
134.0237	2.0
134.0604	5.0
136.0396	4.2
136.0758	2.3
146.0604	2.6
147.0446	3.2
148.0762	4.3
149.0708	3.4
150.0555	9.6
158.0602	4.8
160.0397	2.6
160.0760	7.6
161.1077	5.8
162.0553	10.8
164.0707	4.2
174.0554	2.5
176.0709	15.0
176.1074	2.3
177.0668	2.6
177.1025	4.2
178.0505	2.5
178.0861	11.8
179.0811	3.5
179.1182	12.0
180.0658	3.1
204.0660	4.1
220.0613	100.0
220.0976	11.2
221.0649	10.9
221.0928	73.5
221.1281	2.1
221.1404	3.1
222.0770	12.1
222.0937	7.2
223.0741	3.4
223.1085	23.1

Name: 2-(((2R,3S,5R,6R)-5-amino-6-((1R,2S,3S,4R,6S)-4,6-diamino-3-((2S,3R,4R,5S,6R)-3-amino-4,5-dihydroxy-6-(hydroxymethyl)oxan-2-yl)oxy-2-hydroxycyclohexyl)oxy-3-hydroxyoxan-2-yl)methyl)guanidine
PrecursorMZ: 508.27387
RT: 4.0842
ExactMass: 509.28092585
Spectrum_type: 2
charge: -1
Formula: C19H39N7O9
SMILES: C1[C@@H]([C@H]([C@@H]([C@H]([C@@H]1N)O[C@@H]2[C@@H]([C@H]([C@@H]([C@H](O2)CO)O)O)N)O)O[C@@H]3[C@@H](C[C@@H]([C@H](O3)CN=C(N)N)O)N)N
Method: HCD
Collision_energy: [28.333334]
Isolation_window: 4.0
Ion_mode: N
Num Peaks: 17
56.4733	2.1
56.4765	4.4
56.5879	1.2
75.0078	0.8
87.0079	1.5
89.0235	1.0
96.9592	7.7
114.0552	1.0
489.3701	1.1
506.3533	1.9
506.3650	1.8
507.3651	6.1
508.2742	100.0
509.2751	26.2
509.3833	2.2
509.3966	1.9
510.2842	10.1

Name: 2-(((2S)-3-methyl-2-((3-oxo-2,4-dihydroquinoxaline-1-carbonyl)amino)butanoyl)amino)acetate
PrecursorMZ: 347.13648
RT: 1.397
ExactMass: 347.13554472
Spectrum_type: 2
charge: -1
Formula: C16H19N4O5-
SMILES: CC(C)[C@@H](C(=O)NCC(=O)[O-])NC(=O)N1CC(=O)NC2=CC=CC=C21
Method: HCD
Collision_energy: [28.333334]
Isolation_window: 4.0
Ion_mode: N
Num Peaks: 176
57.0338	1.4
59.0130	8.2
61.9875	2.5
66.0341	1.3
69.0336	1.4
70.0289	15.6
71.0130	2.9
71.0494	1.2
72.9922	2.6
73.0286	2.6
74.0239	3.9
79.9564	1.5
81.0700	1.7
82.0289	1.7
83.0494	1.9
84.0446	2.3
85.0286	2.0
87.0078	1.8
87.0446	1.0
87.0555	5.5
88.0395	28.9
89.0234	1.7
93.0336	1.4
93.0449	1.2
94.0289	16.2
95.0493	1.3
96.0084	1.3
97.0287	1.6
97.0402	1.0
97.0653	1.0
98.0238	1.6
99.0442	1.2
101.0236	1.2
105.0549	1.4
108.0445	1.7
109.0287	1.9
109.0651	1.2
110.0241	1.5
111.0442	1.7
112.0395	1.6
113.0236	1.4
113.0348	1.4
114.0552	10.7
115.0394	1.0
116.0708	3.5
120.0811	3.0
122.0607	1.4
123.0445	1.3
124.0396	92.1
124.0756	4.3
125.0236	1.0
125.0431	5.9
125.0600	1.6
127.0506	3.0
128.0345	6.0
129.1026	3.3
130.0866	19.6
131.0902	3.7
134.0603	1.1
134.0969	2.1
135.0445	1.6
136.0399	1.0
136.0759	2.2
137.0599	1.2
138.0554	2.1
139.0871	1.2
143.1182	1.3
145.0614	1.7
146.0615	1.1
147.0446	2.8
148.0395	1.1
148.0761	3.5
149.0600	1.3
150.0551	1.7
151.0504	1.5
152.0708	1.8
153.0550	2.2
154.0615	1.5
155.1179	1.1
160.0760	1.9
162.0553	1.6
162.0920	1.9
164.0711	8.2
166.0860	1.0
167.0822	3.8
168.0772	6.6
169.0977	1.4
171.1024	1.5
173.0927	1.6
174.0549	1.3
174.0914	1.3
176.0711	1.3
176.1070	1.6
178.0981	29.6
179.1018	3.1
180.0656	2.1
181.0632	1.1
183.1137	2.0
187.1095	1.8
188.0703	1.3
195.0647	1.0
197.1281	1.0
200.1402	5.4
201.0947	1.1
216.1388	4.1
217.0968	2.6
217.1178	2.0
222.0882	100.0
222.1093	1.4
223.0915	9.9
226.1193	2.2
239.1108	2.0
242.1158	1.1
243.1154	1.3
245.1671	3.5
256.1347	1.3
257.1295	1.3
257.2081	2.6
259.1465	4.1
259.1802	2.2
270.1477	1.8
271.1438	2.0
271.1479	1.2
271.1787	1.0
273.1236	1.1
273.1608	7.0
277.1529	1.0
285.1859	1.8
287.1728	1.4
287.2029	1.2
289.1562	1.1
301.1951	10.4
302.1067	1.2
302.1440	1.1
302.1789	3.7
302.1980	2.6
303.1324	1.1
303.1687	2.5
303.1967	4.9
304.1992	1.5
305.2140	2.6
315.1352	1.7
317.1505	2.5
327.1604	2.2
328.1652	1.2
345.1368	2.6
345.1688	1.6
345.1737	3.2
345.1776	5.8
345.2231	8.4
346.1298	7.4
346.1334	5.0
346.1397	2.1
346.1699	9.0
346.1746	4.1
346.2282	1.1
347.1289	21.3
347.1356	39.0
347.1561	4.6
347.1692	1.5
347.1861	9.9
347.2252	3.9
347.2552	1.2
348.0984	2.4
348.1387	7.0
348.1468	7.8
348.1929	42.7
348.2224	2.3
348.2581	1.4
349.1392	2.0
349.1602	4.8
349.1682	3.1
349.1968	16.9
349.2039	10.6
349.2087	16.2
349.2408	2.6

Name: 2-(((2S)-5-oxopyrrolidine-2-carbonyl)amino)butanedioic acid
PrecursorMZ: 243.062
RT: 7.912850000000001
ExactMass: 244.06953611
Spectrum_type: 2
charge: -1
Formula: C9H12N2O6
SMILES: C1CC(=O)N[C@@H]1C(=O)NC(CC(=O)O)C(=O)O
Method: HCD
Collision_energy: [28.333334]
Isolation_window: 4.0
Ion_mode: N
Num Peaks: 18
71.0128	21.5
102.0553	13.1
114.0551	18.4
115.0029	39.0
115.0868	15.0
116.0708	72.9
127.0505	100.0
128.0345	98.2
155.0817	16.0
157.1340	19.2
183.1131	12.0
199.0721	21.5
201.1240	45.0
227.1034	35.2
241.2172	71.7
242.2208	19.7
243.0622	54.6
245.1140	80.3

Name: 2-(((3S)-3-hydroxyhexadecanoyl)amino)acetic acid
PrecursorMZ: 328.24938
RT: 2.02825
ExactMass: 329.2566086
Spectrum_type: 2
charge: -1
Formula: C18H35NO4
SMILES: CCCCCCCCCCCCC[C@@H](CC(=O)NCC(=O)O)O
Method: HCD
Collision_energy: [28.333334]
Isolation_window: 4.0
Ion_mode: N
Num Peaks: 16
69.4624	1.5
72.0446	4.1
74.0238	100.0
75.0272	2.5
87.0076	1.6
116.0345	53.7
117.0377	2.2
310.2388	1.7
327.1099	3.0
327.1874	2.4
327.1909	2.0
328.2496	51.0
329.2538	9.0
329.2572	3.1
330.1000	1.5
330.2382	1.4

Name: 2-(((4R)-4-((3R,5R,7R,8R,9S,10S,12S,13R,14S,17R)-3,7,12-trihydroxy-3-(6-hydroxyhexyl)-10,13-dimethyl-1,2,4,5,6,7,8,9,11,12,14,15,16,17-tetradecahydrocyclopenta(a)phenanthren-17-yl)pentanoyl)amino)ethanesulfonic acid
PrecursorMZ: 614.37277
RT: 2.6482
ExactMass: 615.38048895
Spectrum_type: 2
charge: -1
Formula: C32H57NO8S
SMILES: C[C@H](CCC(=O)NCCS(=O)(=O)O)[C@H]1CC[C@@H]2[C@@]1([C@H](C[C@H]3[C@H]2[C@@H](C[C@H]4[C@@]3(CC[C@@](C4)(CCCCCCO)O)C)O)O)C
Method: HCD
Collision_energy: [28.333334]
Isolation_window: 4.0
Ion_mode: N
Num Peaks: 29
68.2617	2.2
68.2659	4.2
68.3774	1.3
68.4898	1.3
79.9563	11.5
80.9641	1.1
96.9591	2.1
106.9798	1.8
124.0065	8.4
149.9862	1.0
178.0173	1.7
262.0750	1.3
272.0972	1.0
290.1066	10.8
291.1098	1.4
300.1276	1.5
329.1660	0.9
357.1975	1.0
358.2060	1.2
360.2208	0.8
374.2004	1.2
596.3645	1.1
612.3578	3.2
613.2702	1.6
613.3618	12.2
614.3731	100.0
615.2854	3.4
615.3763	32.2
616.3870	34.8

Name: 2-(((4R)-4-((3R,5S,8S,9R,10S,13R,14S,17R)-3-hydroxy-10,13-dimethyl-2,3,4,5,6,7,8,9,11,12,14,15,16,17-tetradecahydro-1H-cyclopenta(a)phenanthren-17-yl)pentanoyl)amino)acetic acid
PrecursorMZ: 414.3016
RT: 1.1745
ExactMass: 433.31920885
Spectrum_type: 2
charge: -1
Formula: C26H43NO4
SMILES: C[C@H](CCC(=O)NCC(=O)O)[C@H]1CC[C@@H]2[C@@]1(CC[C@@H]3[C@@H]2CC[C@@H]4[C@@]3(CC[C@H](C4)O)C)C
Method: HCD
Collision_energy: [28.333334]
Isolation_window: 4.0
Ion_mode: N
Num Peaks: 11
59.0130	1.2
61.9875	1.4
169.0615	0.7
355.2646	8.4
356.2683	2.0
373.2759	1.3
414.2106	1.3
414.3021	100.0
415.2570	1.0
415.3053	28.6
416.3079	3.4

Name: 2-(((4R)-4-((3S,7S,8S,9S,10R,13R,14S,17R)-7-hydroxy-10,13-dimethyl-3-sulfooxy-2,3,4,7,8,9,11,12,14,15,16,17-dodecahydro-1H-cyclopenta(a)phenanthren-17-yl)pentanoyl)amino)acetic acid
PrecursorMZ: 526.24822
RT: 4.6236
ExactMass: 527.25528844
Spectrum_type: 2
charge: -1
Formula: C26H41NO8S
SMILES: C[C@H](CCC(=O)NCC(=O)O)[C@H]1CC[C@@H]2[C@@]1(CC[C@H]3[C@H]2[C@@H](C=C4[C@@]3(CC[C@@H](C4)OS(=O)(=O)O)C)O)C
Method: HCD
Collision_energy: [28.333334]
Isolation_window: 4.0
Ion_mode: N
Num Peaks: 14
58.4704	2.3
58.4738	4.3
58.5852	1.1
74.0239	28.8
78.9582	0.8
96.9592	30.2
402.3016	1.4
446.2915	69.2
447.2948	17.9
448.2983	2.0
525.2493	1.0
526.2481	100.0
527.2518	27.9
528.2460	5.6

Name: 2-(((5S)-5-amino-5-carboxypentyl)amino)pentanedioic acid
PrecursorMZ: 275.12487
RT: 9.186133333333332
ExactMass: 276.13213636
Spectrum_type: 2
charge: -1
Formula: C11H20N2O6
SMILES: C(CCNC(CCC(=O)O)C(=O)O)C[C@@H](C(=O)O)N
Method: HCD
Collision_energy: [28.333334]
Isolation_window: 4.0
Ion_mode: N
Num Peaks: 101
57.0336	0.7
59.0130	2.3
71.0130	1.6
72.9922	2.0
73.0286	1.3
74.0239	1.1
75.0078	1.1
79.9566	1.1
80.9643	1.7
82.0288	0.9
83.0493	1.0
84.0446	5.2
85.0286	4.5
87.0079	6.1
88.0395	1.7
89.0234	1.7
96.9593	0.9
97.0286	0.9
98.0238	0.8
99.0078	1.0
99.0443	1.7
100.0395	5.8
101.0236	3.7
102.0552	4.8
110.0239	17.1
110.0602	1.0
111.0079	1.9
111.0443	1.3
113.0234	1.0
114.0553	1.5
115.0028	0.9
115.0392	1.0
116.0707	1.4
123.0443	0.9
124.0760	1.1
125.0236	1.7
125.0600	2.2
126.0187	0.8
127.0392	1.5
128.0345	10.6
128.0709	6.3
129.0185	4.5
132.0297	1.8
139.0394	1.3
140.0709	1.8
141.0186	0.9
141.0551	0.7
142.0502	1.0
142.0865	1.6
143.0344	1.3
144.0657	1.3
145.0135	0.7
145.0976	5.8
146.0452	8.8
158.0452	1.2
168.0658	2.8
169.0497	1.1
169.0860	0.9
170.1181	3.7
172.0610	2.2
174.0666	6.4
178.0868	3.9
185.1289	0.9
186.0770	5.4
187.0238	0.8
187.1448	1.2
192.9808	0.9
196.0610	9.7
196.0974	22.4
197.1010	2.6
198.0405	1.6
201.0398	1.3
211.1080	1.3
212.0558	1.4
213.0766	0.9
213.1241	10.1
214.1275	1.1
216.0510	0.8
230.0664	3.7
230.1153	1.9
231.0885	1.4
231.1348	2.5
240.0517	1.0
240.0876	3.6
256.0471	0.8
256.1295	0.8
257.0293	1.0
257.0689	1.6
257.1143	100.0
258.0611	1.2
258.1179	11.9
259.0455	1.6
274.0575	2.9
275.0425	1.8
275.0787	12.7
275.1252	17.3
276.0731	4.4
276.1090	1.1
276.1283	1.5
276.1328	1.7
277.0535	3.3

Name: 2-((1S,2R,5S,9R,12S,16S)-2-hydroxy-1,5,12-trimethyl-11-oxo-10-oxatetracyclo(7.6.1.02,7.012,16)hexadec-7-en-5-yl)ethyl hydrogen sulfate
PrecursorMZ: 413.16419
RT: 4.5908999999999995
ExactMass: 414.17122447
Spectrum_type: 2
charge: -1
Formula: C20H30O7S
SMILES: C[C@@]1(CC[C@]2(C(=C[C@@H]3[C@H]4[C@@]2(CCC[C@@]4(C(=O)O3)C)C)C1)O)CCOS(=O)(=O)O
Method: HCD
Collision_energy: [28.333334]
Isolation_window: 4.0
Ion_mode: N
Num Peaks: 17
96.9592	6.7
98.9552	0.2
331.2487	0.2
369.1738	0.4
411.1482	0.2
411.2046	0.8
411.3218	0.3
412.1484	0.3
412.2067	0.3
413.0486	0.7
413.1644	100.0
413.2542	0.6
413.2782	0.7
413.3137	0.3
414.1677	22.4
415.1683	5.3
415.1800	4.9

Name: 2-((2-(2-(4-Carboxybut-2-enyl)-3-oxocyclopentyl)acetyl)amino)-3-methylpentanoic acid
PrecursorMZ: 352.17623
RT: 5.695
ExactMass: 353.18383758
Spectrum_type: 2
charge: -1
Formula: C18H27NO6
SMILES: CCC(C)C(C(=O)O)NC(=O)CC1CCC(=O)C1CC=CCC(=O)O
Method: HCD
Collision_energy: [28.333334]
Isolation_window: 4.0
Ion_mode: N
Num Peaks: 14
96.9590	15.1
128.1071	13.1
130.0864	100.0
131.0897	5.0
154.0864	4.3
172.0971	5.6
308.1870	12.6
334.1646	5.1
351.1128	12.6
351.1800	4.8
351.2172	15.7
352.1773	65.1
353.1986	31.2
354.2038	3.9

Name: 2-((2-(2-Carboxy-4-prop-1-en-2-ylpyrrolidin-3-yl)acetyl)amino)pentanedioic acid
PrecursorMZ: 341.13521
RT: 8.7596
ExactMass: 342.14270105
Spectrum_type: 2
charge: -1
Formula: C15H22N2O7
SMILES: CC(=C)C1CNC(C1CC(=O)NC(CCC(=O)O)C(=O)O)C(=O)O
Method: HCD
Collision_energy: [28.333334]
Isolation_window: 4.0
Ion_mode: N
Num Peaks: 27
80.9738	11.1
108.0446	61.6
112.0508	8.5
114.0187	9.0
114.0550	13.9
115.0391	11.0
116.0708	10.0
128.0344	10.2
128.0714	7.6
150.0546	8.7
167.0460	9.9
168.0660	34.8
181.0974	18.7
227.1154	11.4
237.1239	9.8
241.1192	16.6
296.1269	10.2
297.1457	100.0
298.1479	20.5
328.0220	22.5
339.1585	8.1
339.1995	20.8
340.1504	22.9
340.1910	14.0
341.1364	99.9
342.1380	32.6
343.0463	17.5

Name: 2-((2-Acetamidoacetyl)amino)-4-methylpentanoic acid
PrecursorMZ: 229.11912
RT: 3.2191
ExactMass: 230.12665706
Spectrum_type: 2
charge: -1
Formula: C10H18N2O4
SMILES: CC(C)CC(C(=O)O)NC(=O)CNC(=O)C
Method: HCD
Collision_energy: [28.333334]
Isolation_window: 4.0
Ion_mode: N
Num Peaks: 39
59.0129	1.4
74.0238	15.2
84.0446	1.6
85.0649	1.4
88.0394	3.3
109.0398	1.8
116.0708	14.7
123.0555	2.1
125.0711	3.6
128.0345	3.3
128.1073	10.7
130.0865	15.9
141.0661	1.7
141.1026	1.5
143.1182	6.4
153.0664	1.4
154.0501	1.5
155.1183	4.8
167.0456	6.9
167.1182	1.5
169.0971	2.5
172.0973	5.3
184.0605	1.5
185.0583	2.3
185.0718	2.0
185.0924	3.7
185.1654	33.7
186.0546	1.8
186.0782	2.2
186.1686	3.5
187.1082	24.8
227.2012	3.4
229.0818	2.1
229.1208	26.1
229.1554	100.0
230.1225	2.3
230.1587	12.3
231.0442	10.4
231.1351	7.4

Name: 2-((2-Amino-3-hydroxypropanoyl)amino)-3-(4-hydroxyphenyl)propanoic acid
PrecursorMZ: 267.09834
RT: 6.4224
ExactMass: 268.10592162
Spectrum_type: 2
charge: -1
Formula: C12H16N2O5
SMILES: C1=CC(=CC=C1CC(C(=O)O)NC(=O)C(CO)N)O
Method: HCD
Collision_energy: [28.333334]
Isolation_window: 4.0
Ion_mode: N
Num Peaks: 27
59.0129	26.7
73.0397	61.5
94.0290	28.4
96.9591	35.7
110.0713	25.7
112.0505	70.7
122.0602	23.6
131.0455	23.1
149.0473	23.7
151.0253	56.2
179.0822	38.1
180.0653	42.0
183.1241	28.6
193.0978	54.5
205.0251	20.4
227.1134	26.8
237.0877	98.2
265.1480	45.1
266.0784	43.3
266.1512	29.5
267.0989	100.0
267.1450	53.4
267.2331	24.3
269.0682	35.2
269.1190	36.3
269.1237	99.9
269.2479	21.3

Name: 2-((2-Azaniumyl-3-hydroxybutanoyl)amino)-3-phenylpropanoate
PrecursorMZ: 265.11935
RT: 4.941599999999999
ExactMass: 266.12665706
Spectrum_type: 2
charge: -1
Formula: C13H18N2O4
SMILES: CC(C(C(=O)NC(CC1=CC=CC=C1)C(=O)[O-])[NH3+])O
Method: HCD
Collision_energy: [28.333334]
Isolation_window: 4.0
Ion_mode: N
Num Peaks: 9
73.0398	67.7
115.0869	20.9
147.0446	19.9
164.0710	49.1
221.0929	100.0
263.1408	23.9
265.1191	48.9
265.1477	26.3
267.0975	15.1

Name: 2-((2-Azaniumyl-3-methylbutanoyl)amino)-3-methylbutanoate
PrecursorMZ: 215.13967
RT: 3.2448
ExactMass: 216.1473925
Spectrum_type: 2
charge: -1
Formula: C10H20N2O3
SMILES: CC(C)C(C(=O)NC(C(C)C)C(=O)[O-])[NH3+]
Method: HCD
Collision_energy: [28.333334]
Isolation_window: 4.0
Ion_mode: N
Num Peaks: 26
74.0237	1.1
79.9564	3.2
100.0757	1.6
115.0869	1.2
116.0708	23.4
130.0864	3.3
158.0370	2.2
171.1496	33.9
172.1532	3.1
173.0714	2.3
173.0928	2.5
182.0203	1.4
184.0064	4.3
184.0977	1.4
214.0012	27.5
214.0883	1.8
214.1082	2.3
214.5030	6.8
215.0006	3.1
215.0827	1.8
215.1044	3.3
215.1397	100.0
216.0329	4.8
216.0661	1.6
216.1429	10.3
221.9986	2.0

Name: 2-((2-Methylpropan-2-yl)oxycarbonylamino)butanedioate
PrecursorMZ: 232.08208
RT: 7.5088
ExactMass: 231.07428713
Spectrum_type: 2
charge: -1
Formula: C9H13NO6-2
SMILES: CC(C)(C)OC(=O)NC(CC(=O)[O-])C(=O)[O-]
Method: HCD
Collision_energy: [28.333334]
Isolation_window: 4.0
Ion_mode: N
Num Peaks: 18
59.0130	25.1
71.0129	22.6
73.0398	43.6
87.0078	27.5
96.0081	46.8
114.0187	46.7
139.0393	78.3
156.0659	76.3
160.0067	39.2
160.0611	28.4
170.0566	50.5
188.0670	34.3
200.0558	100.0
231.0501	30.2
231.0869	43.4
232.0822	36.4
232.0933	34.5
233.0657	71.6

Name: 2-((2S,5S)-5-benzyl-3,6-dioxopiperazin-2-yl)acetate
PrecursorMZ: 261.08796
RT: 3.0881
ExactMass: 261.0875319
Spectrum_type: 2
charge: -1
Formula: C13H13N2O4-
SMILES: C1=CC=C(C=C1)C[C@H]2C(=O)N[C@H](C(=O)N2)CC(=O)[O-]
Method: HCD
Collision_energy: [28.333334]
Isolation_window: 4.0
Ion_mode: N
Num Peaks: 138
58.0289	1.2
59.0130	4.5
69.0336	1.1
69.9413	1.0
71.0130	1.7
72.9923	1.5
73.0286	1.4
74.0239	1.0
79.9565	2.2
80.9643	10.2
83.0132	1.3
85.0286	2.1
86.0238	1.1
87.0079	1.8
88.0396	1.4
89.0236	1.3
91.0544	2.8
93.0336	1.0
93.0701	4.5
94.0290	1.2
96.0443	1.6
96.9591	1.4
97.0288	1.4
97.0397	1.1
98.0239	8.5
99.0444	1.0
101.0236	1.8
109.0161	4.1
109.0280	1.5
109.0650	4.0
110.0242	3.1
111.0193	2.1
112.0395	1.0
113.0348	67.4
114.0382	2.6
114.0552	2.9
115.0545	2.7
115.0868	2.1
116.0498	1.1
116.0709	30.0
118.0656	1.1
119.0497	1.5
119.0529	1.7
121.0654	1.0
122.0367	1.0
123.0443	1.8
124.0271	19.5
125.0350	5.2
126.0428	20.2
127.0464	0.9
127.0869	23.0
129.0186	1.0
130.0658	0.9
130.0865	2.1
134.0602	2.7
135.0445	1.8
136.0760	1.9
137.0601	24.5
138.0632	1.8
138.0918	1.1
142.0869	3.2
144.0448	3.0
145.0526	3.6
145.0654	1.1
146.0606	3.8
147.0446	12.0
148.0482	1.0
148.0761	0.8
153.0664	1.6
156.1024	13.4
157.0527	7.6
157.1061	1.1
158.0608	3.0
159.0449	0.9
161.0604	1.0
164.0716	1.2
170.0607	2.1
172.0761	20.7
173.0609	2.3
173.0787	1.6
173.1081	5.4
174.0549	1.8
174.0919	3.4
175.0752	2.1
176.0719	1.3
183.0777	2.3
186.0759	2.8
187.0767	0.9
188.0709	1.4
188.1083	1.0
189.0551	1.4
189.0920	0.9
190.0865	3.5
198.0556	21.9
198.0926	0.9
199.0598	3.2
199.0875	20.5
200.0722	2.0
200.0918	12.6
201.0558	0.9
201.0941	1.9
202.0623	1.5
202.1236	3.6
216.0661	5.3
216.1020	2.1
217.0522	2.4
217.0991	25.6
218.0827	4.7
218.1011	2.5
218.1198	1.7
218.1544	3.7
219.0642	2.6
219.1017	2.4
243.0772	1.4
259.0815	5.4
259.1105	1.8
259.1468	1.1
260.0157	1.4
260.0561	7.7
260.0882	4.6
260.1158	1.2
260.1711	1.1
261.0125	0.9
261.0570	4.6
261.0883	38.9
261.0911	5.0
261.1137	1.2
261.1791	1.9
262.0351	1.4
262.0399	1.2
262.0720	3.5
262.1083	1.6
262.1122	3.6
262.1448	15.3
262.1849	1.5
263.0340	1.0
263.0978	3.3
263.1400	100.0

Name: 2-((3R)-2,5-dioxooxolan-3-yl)acetic acid
PrecursorMZ: 157.01358
RT: 6.8592
ExactMass: 158.02152329
Spectrum_type: 2
charge: -1
Formula: C6H6O5
SMILES: C1[C@H](C(=O)OC1=O)CC(=O)O
Method: HCD
Collision_energy: [28.333334]
Isolation_window: 4.0
Ion_mode: N
Num Peaks: 5
69.0337	100.0
71.0129	17.0
113.0236	21.5
157.0135	21.6
157.1229	18.3

Name: 2-((3S)-7-hydroxy-2-oxo-1,3-dihydroindol-3-yl)acetic acid
PrecursorMZ: 162.05532
RT: 5.6553
ExactMass: 207.05315777
Spectrum_type: 2
charge: -1
Formula: C10H9NO4
SMILES: C1=CC2=C(C(=C1)O)NC(=O)[C@H]2CC(=O)O
Method: HCD
Collision_energy: [28.333334]
Isolation_window: 4.0
Ion_mode: N
Num Peaks: 31
69.5845	0.5
71.0129	0.8
85.0285	0.5
101.0235	0.5
104.0495	0.6
117.0337	2.9
118.0372	0.5
119.0494	2.8
120.0444	0.5
131.0368	1.2
132.0448	5.4
133.0483	1.2
134.0244	0.7
134.0603	2.4
144.0448	3.4
145.0483	0.5
147.0320	3.9
147.0440	0.6
159.0320	5.0
160.0120	0.6
160.0182	0.5
160.0398	100.0
160.0673	0.7
160.8920	1.1
161.0435	17.8
161.8933	0.7
162.0554	61.0
162.8927	1.9
163.0592	5.7
163.1119	1.7
164.0573	0.6

Name: 2-((4-Amino-4-carboxybutanoyl)amino)-4-methylhex-4-enoic acid
PrecursorMZ: 271.12953
RT: 7.7974
ExactMass: 272.13722174
Spectrum_type: 2
charge: -1
Formula: C12H20N2O5
SMILES: CC=C(C)CC(C(=O)O)NC(=O)CCC(C(=O)O)N
Method: HCD
Collision_energy: [28.333334]
Isolation_window: 4.0
Ion_mode: N
Num Peaks: 5
128.0343	20.0
177.1026	100.0
269.2481	17.7
271.0820	31.7
273.1177	15.7

Name: 2-(1-Carboxyundec-10-enyl)-5-oxooxolane-2-carboxylic acid
PrecursorMZ: 325.16614
RT: 0.6284
ExactMass: 326.17293854
Spectrum_type: 2
charge: -1
Formula: C17H26O6
SMILES: C=CCCCCCCCCC(C(=O)O)C1(CCC(=O)O1)C(=O)O
Method: HCD
Collision_energy: [28.333334]
Isolation_window: 4.0
Ion_mode: N
Num Peaks: 66
57.0336	3.6
59.0129	9.6
71.0130	5.2
72.9922	8.5
74.0239	5.2
85.0286	4.9
87.0079	17.2
88.0395	18.9
96.9591	3.8
97.0289	4.2
98.0235	3.6
99.0440	3.6
101.0233	3.7
111.0440	5.3
113.0237	5.7
114.0551	7.4
115.0028	3.8
116.0709	6.0
123.0442	4.2
125.0232	4.7
127.0502	5.3
128.0346	25.7
130.0866	7.0
136.0760	12.0
137.0604	6.7
137.0800	4.4
139.0390	5.9
151.0765	5.0
152.0702	5.3
179.0699	3.6
181.0502	5.8
193.0317	3.8
195.0655	4.8
196.0601	9.5
219.1005	4.8
219.1753	11.5
221.0452	3.7
221.1910	5.3
223.1335	9.1
237.1101	3.8
237.1857	14.5
263.0919	6.2
263.1653	15.2
265.1810	11.7
280.1215	4.6
281.1065	7.8
281.1758	26.1
282.1029	3.6
282.1781	5.2
283.1916	6.1
307.0832	5.4
307.1554	9.2
309.0988	4.3
309.1714	11.2
323.6277	5.4
324.0753	16.7
324.1118	23.8
325.0940	100.0
325.1651	93.3
326.0919	26.9
326.1272	11.8
326.1692	18.1
327.0727	12.1
327.1103	39.6
327.1495	4.2
327.1808	64.2

Name: 2-(2-(2-(4-((S)-(4-chlorophenyl)-phenylmethyl)piperazin-1-yl)ethoxy)ethoxy)acetic acid
PrecursorMZ: 431.17481
RT: 7.1267
ExactMass: 432.1815851
Spectrum_type: 2
charge: -1
Formula: C23H29ClN2O4
SMILES: C1CN(CCN1CCOCCOCC(=O)O)[C@@H](C2=CC=CC=C2)C3=CC=C(C=C3)Cl
Method: HCD
Collision_energy: [28.333334]
Isolation_window: 4.0
Ion_mode: N
Num Peaks: 88
59.0130	3.0
71.0130	2.1
72.9923	1.0
73.0286	1.3
74.0238	0.6
79.9564	2.6
80.9643	2.7
81.0449	0.5
83.0129	0.7
83.0493	1.0
85.0286	0.9
87.0079	1.7
88.0395	0.8
89.0235	0.8
96.9462	0.7
96.9592	100.0
96.9722	0.7
97.0287	0.5
97.9586	0.7
98.9550	2.6
99.0080	0.6
99.0442	0.5
101.0236	1.9
109.0286	0.6
113.0236	1.1
114.0552	2.2
115.0393	1.2
116.0708	1.2
120.0810	0.6
122.0604	0.5
124.0761	2.0
125.0237	0.6
125.0349	0.6
127.0395	0.5
128.0346	2.3
130.0866	1.1
131.0343	0.5
134.0968	0.8
135.0446	0.8
136.0760	0.5
137.0240	0.6
138.0550	0.5
138.0918	0.5
145.0503	0.7
152.9951	0.8
163.0607	1.3
164.0711	0.5
171.1024	0.6
175.0611	1.0
201.1133	0.5
235.0817	0.7
243.1509	0.8
245.1660	2.3
257.1660	2.2
259.1812	1.4
261.1344	0.8
289.1569	0.9
291.1091	1.5
291.1708	1.4
292.1121	0.7
295.1910	0.6
297.2070	0.6
321.2072	1.2
351.2196	1.7
371.1533	0.6
371.1575	0.7
413.2588	0.7
429.2484	2.2
430.1538	0.8
430.1602	0.5
430.1703	1.0
430.1968	0.5
430.2022	0.5
430.2539	1.2
430.2577	1.4
431.1764	43.9
431.2197	1.7
431.2699	3.3
431.3868	1.1
432.1793	10.9
432.2228	0.5
432.2740	0.9
432.2804	0.7
433.1225	0.8
433.1775	2.3
433.1819	2.6
433.2536	0.9
433.2593	1.9

Name: 2-(2-(2-amino-6-oxo-1H-purin-9-yl)ethyl-ethylamino)ethylphosphonic acid
PrecursorMZ: 329.1146
RT: 5.7396
ExactMass: 330.12054011
Spectrum_type: 2
charge: -1
Formula: C11H19N6O4P
SMILES: CCN(CCN1C=NC2=C1N=C(NC2=O)N)CCP(=O)(O)O
Method: HCD
Collision_energy: [28.333334]
Isolation_window: 4.0
Ion_mode: N
Num Peaks: 10
88.0393	4.9
114.0553	8.6
189.0426	100.0
190.0480	15.3
311.1035	13.6
328.1495	4.6
328.1820	4.7
329.1141	40.6
329.1977	10.1
330.1163	8.2

Name: 2-(2-Aminopropanoylamino)-4-hydroxy-4-oxobutanoate
PrecursorMZ: 203.06657
RT: 8.817366666666667
ExactMass: 203.06679646
Spectrum_type: 2
charge: -1
Formula: C7H11N2O5-
SMILES: CC(C(=O)NC(CC(=O)O)C(=O)[O-])N
Method: HCD
Collision_energy: [28.333334]
Isolation_window: 4.0
Ion_mode: N
Num Peaks: 21
72.0081	28.0
74.0239	16.6
87.0554	97.3
88.0395	100.0
102.0551	13.4
115.0028	35.4
116.0496	14.7
130.0866	83.7
139.0871	27.7
141.1027	45.7
145.0978	13.8
157.0613	12.7
159.0769	70.3
160.0398	25.8
185.0572	16.6
185.0926	41.6
201.1243	16.1
203.0672	62.8
203.0831	15.9
203.1027	61.3
204.0871	12.5

Name: 2-(2-Aminopropanoylamino)pentanedioate
PrecursorMZ: 217.08253
RT: 8.79852
ExactMass: 216.07462149
Spectrum_type: 2
charge: -1
Formula: C8H12N2O5-2
SMILES: CC(C(=O)NC(CCC(=O)[O-])C(=O)[O-])N
Method: HCD
Collision_energy: [28.333334]
Isolation_window: 4.0
Ion_mode: N
Num Peaks: 59
59.0131	3.9
86.0238	5.0
87.0078	4.4
87.0555	17.0
88.0395	99.6
96.0082	3.6
98.0602	13.9
99.0442	7.4
102.0552	9.0
112.0758	5.9
113.0348	15.9
116.0708	6.1
117.0449	6.7
118.0498	3.8
128.0345	35.8
129.1025	34.2
130.0866	5.6
131.0342	6.1
131.0817	3.3
139.0393	29.0
143.0706	8.8
145.0975	32.3
146.0813	5.1
155.0704	3.1
155.0819	17.2
155.1070	7.5
156.0659	33.4
158.0813	8.8
171.1022	6.0
172.0968	3.6
173.0603	4.4
173.0926	100.0
174.0548	5.8
174.0959	7.3
175.0756	3.8
187.1086	3.6
198.0768	3.6
198.1131	30.0
199.0722	48.1
199.0746	11.5
200.0561	52.8
200.0919	4.6
215.1396	3.6
216.0873	5.2
216.0899	7.1
216.1235	46.4
216.1607	3.4
217.0504	4.7
217.0829	73.4
217.1078	31.4
217.1186	22.7
218.0218	3.7
218.0458	13.5
218.0666	48.5
218.0851	5.8
218.0998	5.2
218.1031	14.0
218.1075	3.3
219.0664	7.0

Name: 2-(3-Carboxypropanoylamino)pentanoic acid
PrecursorMZ: 216.08742
RT: 3.0045
ExactMass: 217.09502258
Spectrum_type: 2
charge: -1
Formula: C9H15NO5
SMILES: CCCC(C(=O)O)NC(=O)CCC(=O)O
Method: HCD
Collision_energy: [28.333334]
Isolation_window: 4.0
Ion_mode: N
Num Peaks: 18
86.0602	9.7
87.0442	61.4
88.0477	2.4
100.0396	2.6
102.0551	43.3
103.0586	1.7
128.0345	84.6
128.1072	19.7
129.0381	3.8
146.0452	9.0
154.0866	5.8
172.0973	46.1
173.1011	4.2
198.0767	32.6
199.0800	3.0
215.0557	3.3
216.0874	100.0
217.0905	10.4

Name: 2-(3-Methylbutanoylamino)pentanedioate
PrecursorMZ: 230.10309
RT: 5.9485
ExactMass: 229.09502258
Spectrum_type: 2
charge: -1
Formula: C10H15NO5-2
SMILES: CC(C)CC(=O)NC(CCC(=O)[O-])C(=O)[O-]
Method: HCD
Collision_energy: [28.333334]
Isolation_window: 4.0
Ion_mode: N
Num Peaks: 41
57.0336	2.1
58.0290	4.6
59.0130	3.3
84.0446	33.1
85.0285	2.1
87.0079	2.7
98.0238	2.5
100.0396	3.2
100.0759	100.0
101.0599	21.0
101.0789	4.1
102.0552	23.7
110.0602	3.2
112.0397	2.1
113.0347	2.8
114.0552	2.5
116.0709	9.1
126.0554	2.1
127.0869	2.2
128.0345	37.1
131.0817	4.0
136.0761	2.6
142.1230	5.1
146.0454	4.9
159.0769	3.2
186.0771	2.5
186.1130	11.3
187.1081	34.9
188.1110	3.1
212.0921	8.6
213.0884	4.7
228.2052	3.1
229.0722	1.9
229.1198	46.7
229.1440	3.8
230.1019	22.9
230.1222	4.2
231.0884	4.9
231.1054	2.0
232.0839	2.1
232.1184	2.8

Name: 2-(4-((4-(2,2-dimethoxypropyl)-7-oxo-2-propan-2-yl-6H-imidazo(4,5-d)pyridazin-1-yl)methyl)phenyl)benzoic acid
PrecursorMZ: 489.2126
RT: 3.1367
ExactMass: 490.22162007
Spectrum_type: 2
charge: -1
Formula: C27H30N4O5
SMILES: CC(C)C1=NC2=C(N1CC3=CC=C(C=C3)C4=CC=CC=C4C(=O)O)C(=O)NN=C2CC(C)(OC)OC
Method: HCD
Collision_energy: [28.333334]
Isolation_window: 4.0
Ion_mode: N
Num Peaks: 6
109.0647	23.0
211.0969	16.8
445.2235	20.2
487.3500	11.3
489.2133	100.0
490.2164	34.1

Name: 2-(4-(12-hydroxy-10,13-dimethyl-3-((9Z,12Z)-octadeca-9,12-dienoyl)oxy-2,3,4,5,6,7,8,9,11,12,14,15,16,17-tetradecahydro-1H-cyclopenta(a)phenanthren-17-yl)pentanoylamino)acetic acid
PrecursorMZ: 710.53621
RT: 1.28045
ExactMass: 711.54378905
Spectrum_type: 2
charge: -1
Formula: C44H73NO6
SMILES: CCCCC/C=C\C/C=C\CCCCCCCC(=O)OC1CCC2(C(C1)CCC3C2CC(C4(C3CCC4C(C)CCC(=O)NCC(=O)O)C)O)C
Method: HCD
Collision_energy: [28.333334]
Isolation_window: 4.0
Ion_mode: N
Num Peaks: 15
74.0238	94.4
75.0271	1.6
78.9461	2.5
78.9513	4.0
79.0629	1.7
79.1752	1.9
261.2215	2.8
357.2799	1.5
402.3008	1.7
404.3158	2.2
708.5198	4.6
709.5270	9.6
710.5366	100.0
711.5400	45.6
712.5515	49.9

Name: 2-(4-(12-hydroxy-10,13-dimethyl-3-((Z)-octadec-9-enoyl)oxy-2,3,4,5,6,7,8,9,11,12,14,15,16,17-tetradecahydro-1H-cyclopenta(a)phenanthren-17-yl)pentanoylamino)acetic acid
PrecursorMZ: 712.55259
RT: 1.5489
ExactMass: 713.55943911
Spectrum_type: 2
charge: -1
Formula: C44H75NO6
SMILES: CCCCCCCC/C=C\CCCCCCCC(=O)OC1CCC2(C(C1)CCC3C2CC(C4(C3CCC4C(C)CCC(=O)NCC(=O)O)C)O)C
Method: HCD
Collision_energy: [28.333334]
Isolation_window: 4.0
Ion_mode: N
Num Peaks: 43
61.9875	0.5
74.0150	0.6
74.0239	100.0
74.0325	0.6
75.0272	1.6
78.9582	0.9
79.1701	1.6
79.1753	2.8
79.2816	0.7
79.2869	1.1
79.3940	1.1
79.3993	1.9
143.0454	1.0
152.9949	0.8
241.2159	0.7
255.2330	1.9
279.2335	1.1
281.2487	7.8
282.2525	1.5
283.2645	8.8
284.2681	0.9
297.2437	1.1
299.2592	1.1
337.2856	0.7
355.2645	1.8
357.2799	0.5
381.2770	0.5
384.2899	0.9
386.3058	1.0
404.3167	1.1
414.3017	2.9
415.3061	0.5
428.2808	5.8
429.2843	1.8
430.2964	10.6
431.2995	1.8
668.5680	0.8
670.5803	0.5
710.5371	4.1
711.5427	12.3
712.5532	68.0
713.5571	30.0
714.5687	46.2

Name: 2-(4-(2,5-Dioxopyrrol-1-yl)butanoylamino)pentanedioic acid
PrecursorMZ: 311.08813
RT: 6.5677
ExactMass: 312.09575085
Spectrum_type: 2
charge: -1
Formula: C13H16N2O7
SMILES: C1=CC(=O)N(C1=O)CCCC(=O)NC(CCC(=O)O)C(=O)O
Method: HCD
Collision_energy: [28.333334]
Isolation_window: 4.0
Ion_mode: N
Num Peaks: 46
75.0079	2.0
84.0444	7.2
96.0445	3.7
108.0445	4.5
113.0234	3.0
114.0552	2.0
120.0442	1.8
124.0396	2.6
126.0554	1.6
128.0344	63.6
129.0377	3.1
134.0464	3.0
138.0551	5.3
146.0454	2.0
151.0505	29.1
152.0541	2.2
164.0345	13.2
179.0458	1.9
183.0111	2.5
208.0848	5.2
211.0720	2.4
221.0925	1.8
223.1087	15.0
249.0880	7.4
267.0981	1.9
293.0778	48.2
294.0805	6.0
309.2790	1.8
310.0594	1.8
311.0888	100.0
311.1250	27.8
311.1284	7.4
311.1687	52.7
311.2941	3.5
312.0874	1.7
312.0902	11.9
312.0948	2.7
312.1251	3.1
312.1720	10.7
313.0952	3.2
313.1006	2.2
313.1307	1.8
313.1383	1.7
313.1647	3.0
313.1671	2.3
313.1705	2.6

Name: 2-(4-(3-((Z)-hexadec-9-enoyl)oxy-12-hydroxy-10,13-dimethyl-2,3,4,5,6,7,8,9,11,12,14,15,16,17-tetradecahydro-1H-cyclopenta(a)phenanthren-17-yl)pentanoylamino)acetic acid
PrecursorMZ: 684.52125
RT: 1.3362
ExactMass: 685.52813898
Spectrum_type: 2
charge: -1
Formula: C42H71NO6
SMILES: CCCCCC/C=C\CCCCCCCC(=O)OC1CCC2(C(C1)CCC3C2CC(C4(C3CCC4C(C)CCC(=O)NCC(=O)O)C)O)C
Method: HCD
Collision_energy: [28.333334]
Isolation_window: 4.0
Ion_mode: N
Num Peaks: 21
69.0176	2.5
74.0239	84.1
75.0273	1.6
76.0556	2.4
76.0606	4.2
76.1720	1.5
97.4640	1.6
255.2330	22.2
256.2358	3.3
269.2488	3.1
270.2524	1.9
381.2761	1.6
382.2803	1.7
384.2908	2.0
428.2808	17.9
429.2841	3.8
682.5474	10.0
683.5532	7.1
684.5217	100.0
685.5250	38.9
686.5319	8.9

Name: 2-(4-(3-hydroxy-10,13-dimethyl-2,3,4,7,8,9,11,12,14,15,16,17-dodecahydro-1H-cyclopenta(a)phenanthren-17-yl)pentanoylamino)acetic acid
PrecursorMZ: 430.29641
RT: 2.196066666666667
ExactMass: 431.30355879
Spectrum_type: 2
charge: -1
Formula: C26H41NO4
SMILES: CC(CCC(=O)NCC(=O)O)C1CCC2C1(CCC3C2CC=C4C3(CCC(C4)O)C)C
Method: HCD
Collision_energy: [28.333334]
Isolation_window: 4.0
Ion_mode: N
Num Peaks: 16
74.0239	63.3
75.0271	1.2
80.9643	1.1
89.0057	0.8
107.0163	6.0
269.1943	1.2
386.3070	3.7
387.3109	1.1
429.1610	1.8
430.1718	0.9
430.2966	100.0
431.1932	0.9
431.2066	1.6
431.2999	29.4
432.2846	2.1
432.3029	3.0

Name: 2-(5-((4-Hydroxyphenyl)methyl)-3,6-dioxopiperazin-2-yl)acetic acid
PrecursorMZ: 277.08308
RT: 5.5335
ExactMass: 278.09027155
Spectrum_type: 2
charge: -1
Formula: C13H14N2O5
SMILES: C1=CC(=CC=C1CC2C(=O)NC(C(=O)N2)CC(=O)O)O
Method: HCD
Collision_energy: [28.333334]
Isolation_window: 4.0
Ion_mode: N
Num Peaks: 15
59.0132	6.2
70.0290	16.7
80.9643	60.7
98.0239	10.1
119.0496	6.0
127.0506	33.6
136.0760	11.9
162.0555	66.9
171.0406	10.0
233.0934	38.8
277.0503	34.5
277.0832	100.0
277.1715	7.9
278.0817	9.8
279.0901	8.3

Name: 2-(Butanoylamino)butanedioic acid
PrecursorMZ: 202.07166
RT: 3.3308
ExactMass: 203.07937252
Spectrum_type: 2
charge: -1
Formula: C8H13NO5
SMILES: CCCC(=O)NC(CC(=O)O)C(=O)O
Method: HCD
Collision_energy: [28.333334]
Isolation_window: 4.0
Ion_mode: N
Num Peaks: 31
59.0129	31.1
60.0163	0.8
71.0129	1.7
84.0445	12.2
97.0653	0.7
99.0443	0.6
112.0394	1.4
113.0235	1.8
122.0604	0.7
128.0343	1.4
138.0551	0.8
140.0709	9.5
141.0743	0.6
141.9309	0.6
142.9289	0.7
143.0340	1.3
156.0659	8.9
157.0352	1.0
158.0815	4.1
159.0144	0.7
184.0608	5.3
200.0561	0.7
201.0251	4.6
201.0764	2.4
202.0309	1.3
202.0716	100.0
202.1106	0.7
203.0255	0.7
203.0554	4.3
203.0747	8.3
203.0924	0.9

Name: 2-(Carboxyformamido)-3-phenylpropanoic acid
PrecursorMZ: 236.05614
RT: 5.896
ExactMass: 237.06372245
Spectrum_type: 2
charge: -1
Formula: C11H11NO5
SMILES: C1=CC=C(C=C1)CC(C(=O)O)NC(=O)C(=O)O
Method: HCD
Collision_energy: [28.333334]
Isolation_window: 4.0
Ion_mode: N
Num Peaks: 15
72.0083	3.7
79.9562	4.0
80.9643	19.3
135.0554	2.7
147.0445	17.2
164.0711	70.0
165.0750	7.1
175.0177	13.5
191.0830	4.4
192.0670	2.7
235.0393	100.0
235.0730	4.6
235.1187	3.3
236.0411	9.1
237.0349	4.0

Name: 2-(Carboxymethyl)butanedioate
PrecursorMZ: 157.0136
RT: 9.4185
ExactMass: 174.01643791
Spectrum_type: 2
charge: -1
Formula: C6H6O6-2
SMILES: C(C(CC(=O)[O-])C(=O)[O-])C(=O)O
Method: HCD
Collision_energy: [28.333334]
Isolation_window: 4.0
Ion_mode: N
Num Peaks: 21
59.0131	3.3
69.0337	100.0
70.0371	4.4
71.0130	14.5
85.0286	5.3
86.0238	1.8
111.0444	3.4
113.0236	22.0
113.0600	2.1
114.0918	1.7
115.0297	1.6
115.0757	1.7
116.0708	2.1
130.0402	4.4
156.0660	2.2
156.8942	2.8
157.0137	23.6
157.0509	4.4
157.0864	3.9
157.1228	8.0
158.8921	1.6

Name: 2-(Dimethylamino)pentanedioate
PrecursorMZ: 174.07648
RT: 8.3954
ExactMass: 173.06880783
Spectrum_type: 2
charge: -1
Formula: C7H11NO4-2
SMILES: CN(C)C(CCC(=O)[O-])C(=O)[O-]
Method: HCD
Collision_energy: [28.333334]
Isolation_window: 4.0
Ion_mode: N
Num Peaks: 26
57.0337	31.3
58.0288	8.1
69.0337	14.3
71.0128	9.9
74.0238	38.3
85.0285	16.0
87.0079	8.8
87.0442	46.3
88.0395	21.8
101.0235	25.3
102.0552	23.1
111.0806	9.5
113.0235	23.6
115.0028	19.8
130.0500	8.3
130.0866	27.7
131.0344	29.3
131.0817	9.0
132.0558	8.6
154.9467	17.6
156.0660	100.0
173.0454	12.6
173.0815	8.2
174.0773	18.5
175.0241	17.1
175.0622	11.7

Name: 2-(Dodecanoylamino)pentanedioate
PrecursorMZ: 328.21297
RT: 4.6979
ExactMass: 327.20457303
Spectrum_type: 2
charge: -1
Formula: C17H29NO5-2
SMILES: CCCCCCCCCCCC(=O)NC(CCC(=O)[O-])C(=O)[O-]
Method: HCD
Collision_energy: [28.333334]
Isolation_window: 4.0
Ion_mode: N
Num Peaks: 22
87.0077	3.7
97.4626	3.0
97.4649	5.0
97.4675	3.7
102.0552	36.8
128.0345	64.8
129.0381	3.7
146.0451	9.4
198.1860	4.7
199.1699	42.4
200.1735	5.5
240.2331	11.4
265.2171	3.2
266.2135	3.8
284.2231	19.3
309.2067	3.9
310.2027	10.2
326.1875	14.6
327.1831	11.0
327.2190	11.9
328.2135	100.0
329.2172	15.9

Name: 2-(Phenylmethoxycarbonylamino)-6-(prop-2-enoylamino)hexanoic acid
PrecursorMZ: 333.14543
RT: 4.8808
ExactMass: 334.15287181
Spectrum_type: 2
charge: -1
Formula: C17H22N2O5
SMILES: C=CC(=O)NCCCCC(C(=O)O)NC(=O)OCC1=CC=CC=C1
Method: HCD
Collision_energy: [28.333334]
Isolation_window: 4.0
Ion_mode: N
Num Peaks: 55
59.0128	4.5
69.6794	1.9
74.0238	3.3
97.0158	1.8
108.0445	4.3
114.0551	5.1
116.0707	1.5
120.0810	3.4
122.0601	7.0
124.0758	11.9
128.0345	1.9
130.0865	2.7
132.0807	1.6
134.0602	5.1
136.0395	1.6
136.0759	11.4
138.0551	8.6
138.0915	2.8
146.0601	5.1
147.0442	1.7
148.0760	3.9
150.0915	3.6
151.0865	3.7
152.0708	11.4
164.0709	18.4
168.0659	3.3
169.0975	2.0
180.0659	13.1
194.0815	5.9
196.0606	7.0
208.0609	100.0
209.0643	10.8
259.1451	11.9
271.1445	4.1
273.1604	3.2
289.1175	2.1
289.1533	1.6
289.1816	3.0
291.1970	1.5
303.1349	3.4
315.1337	5.4
317.1480	4.1
331.1527	2.0
332.1162	3.1
332.1591	2.2
333.1076	2.5
333.1458	8.2
333.1496	2.9
333.1731	5.2
334.1380	4.0
334.1724	2.9
335.1212	1.8
335.1543	17.9
335.1611	17.7
335.1906	6.4

Name: 2-(Tritiomethyl)butanedioic acid
PrecursorMZ: 131.03461
RT: 8.1865
ExactMass: 134.05048298
Spectrum_type: 2
charge: -1
Formula: C5H8O4
SMILES: [3H]CC(CC(=O)O)C(=O)O
Method: HCD
Collision_energy: [28.333334]
Isolation_window: 4.0
Ion_mode: N
Num Peaks: 14
65.0136	0.8
69.0337	4.1
85.0650	2.3
87.0443	100.0
88.0476	5.0
91.0292	0.9
113.0236	7.0
130.0404	0.9
130.0866	8.6
131.0343	23.5
131.0707	1.3
132.0373	1.3
132.0560	0.8
132.8673	0.9

Name: 2-)(2-Amino-3-hydroxybutanoyl)amino(butanedioic acid
PrecursorMZ: 233.07766
RT: 4.5259
ExactMass: 234.08518617
Spectrum_type: 2
charge: -1
Formula: C8H14N2O6
SMILES: CC(C(C(=O)NC(CC(=O)O)C(=O)O)N)O
Method: HCD
Collision_energy: [28.333334]
Isolation_window: 4.0
Ion_mode: N
Num Peaks: 25
71.0129	5.3
71.0242	4.3
73.0398	15.4
74.0238	4.0
88.0395	18.6
115.0028	26.7
117.0661	22.6
118.0501	29.7
128.0709	3.9
132.0295	2.3
142.0503	2.6
145.0611	55.7
145.0972	2.8
146.0650	2.7
171.0400	2.8
171.0759	2.3
187.1084	8.2
189.0512	5.7
189.0875	10.3
215.0670	6.3
231.0983	11.0
232.1019	2.4
232.9252	3.2
233.0776	100.0
234.0800	7.8

Name: 2-))2-)2-(4-Carboxybut-2-enyl)-3-oxocyclopentyl(acetyl(amino(-3-methylpentanoic acid
PrecursorMZ: 352.17706
RT: 0.6463
ExactMass: 353.18383758
Spectrum_type: 2
charge: -1
Formula: C18H27NO6
SMILES: CCC(C)C(C(=O)O)NC(=O)CC1CCC(=O)C1CC=CCC(=O)O
Method: HCD
Collision_energy: [28.333334]
Isolation_window: 4.0
Ion_mode: N
Num Peaks: 31
58.0290	1.6
59.0130	3.0
71.0128	1.7
74.0237	1.6
88.0395	4.0
95.0493	2.2
96.9590	2.9
114.0554	1.7
115.0028	2.3
116.0709	2.7
128.1073	11.9
130.0866	100.0
131.0899	5.3
132.0293	2.2
135.0809	1.8
154.0868	4.4
156.0659	1.5
172.0973	6.2
177.0914	1.6
179.0707	1.6
246.1869	2.2
290.1758	2.7
307.1648	2.0
308.1881	13.1
334.1679	4.0
351.1119	4.3
351.1528	6.0
352.1786	71.2
353.1325	6.1
353.1810	10.7
354.1991	6.0

Name: 2-))2-amino-3-(1H-imidazol-5-yl)propanoyl(amino(-3-methylpentanoic acid
PrecursorMZ: 267.14606
RT: 2.7615
ExactMass: 268.15354051
Spectrum_type: 2
charge: -1
Formula: C12H20N4O3
SMILES: CCC(C)C(C(=O)O)NC(=O)C(CC1=CN=CN1)N
Method: HCD
Collision_energy: [28.333334]
Isolation_window: 4.0
Ion_mode: N
Num Peaks: 43
59.0129	43.7
61.9874	47.2
94.0289	11.5
108.0442	5.9
108.0557	10.5
113.0232	6.3
116.0710	7.3
119.0341	7.8
124.0393	10.9
130.0864	46.5
134.0349	14.5
134.0462	10.2
148.0396	12.9
150.0549	6.3
160.0508	9.0
162.0547	8.2
164.0455	10.5
166.0615	7.3
169.0973	10.0
176.0707	9.0
178.0499	16.0
179.0820	5.9
187.0717	36.4
188.0721	5.8
190.0486	11.7
206.0814	7.2
206.1292	8.2
209.0917	10.4
220.0359	24.4
223.1562	30.6
238.0824	9.4
265.1492	11.4
266.1137	15.3
266.1506	8.2
267.0372	9.6
267.1087	32.8
267.1453	100.0
268.0903	62.5
268.1525	7.9
269.1152	13.0
269.1510	15.1
269.2143	7.9
269.2461	9.6

Name: 2-Acetamidopentanedioate
PrecursorMZ: 170.04518
RT: 7.9392
ExactMass: 187.04807239
Spectrum_type: 2
charge: -1
Formula: C7H9NO5-2
SMILES: CC(=O)NC(CCC(=O)[O-])C(=O)[O-]
Method: HCD
Collision_energy: [28.333334]
Isolation_window: 4.0
Ion_mode: N
Num Peaks: 14
59.0130	2.6
65.0136	1.1
84.0446	1.4
98.0238	2.9
110.9844	1.4
128.0345	100.0
128.0709	1.1
129.0380	5.3
144.0556	1.1
170.0455	3.6
171.0667	3.4
171.1021	2.6
171.1382	2.8
172.0604	1.4

Name: 2-Acetamidosuccinate
PrecursorMZ: 130.0501
RT: 8.0491
ExactMass: 173.03242232
Spectrum_type: 2
charge: -1
Formula: C6H7NO5-2
SMILES: CC(=O)NC(CC(=O)[O-])C(=O)[O-]
Method: HCD
Collision_energy: [28.333334]
Isolation_window: 4.0
Ion_mode: N
Num Peaks: 8
58.0290	65.7
85.0650	26.7
88.0395	94.0
128.0346	11.9
129.0911	9.9
130.0502	13.4
130.0865	100.0
131.0706	13.1

Name: 2-Amino-4-hydroxy-5-oxo-5-))1-oxo-1-(2-oxo-7-bicyclo)4.1.0(heptanyl)propan-2-yl(amino(pentanoic acid
PrecursorMZ: 325.14074
RT: 0.6593
ExactMass: 326.14778643
Spectrum_type: 2
charge: -1
Formula: C15H22N2O6
SMILES: CC(C(=O)C1C2C1C(=O)CCC2)NC(=O)C(CC(C(=O)O)N)O
Method: HCD
Collision_energy: [28.333334]
Isolation_window: 4.0
Ion_mode: N
Num Peaks: 45
59.0129	10.1
71.0129	9.9
72.9922	7.0
74.0238	7.5
80.9642	10.5
85.0285	7.3
87.0077	14.2
88.0395	17.9
96.9592	10.4
114.0550	19.1
115.0027	18.8
116.0708	11.9
128.0344	8.2
130.0866	36.5
136.0759	28.9
137.0598	7.3
150.0191	9.0
159.0292	9.7
164.0707	8.1
165.0185	12.2
166.0866	9.6
168.1024	8.7
195.1135	37.9
208.1102	8.3
209.1292	26.0
210.0766	11.5
227.1397	17.0
253.1191	24.1
261.1608	7.6
281.1495	26.8
282.1344	9.2
283.1287	6.9
306.0989	14.5
307.1291	16.4
309.1448	7.2
323.1197	39.3
323.6262	16.3
324.1155	50.5
324.1485	7.0
325.0935	87.4
325.1383	100.0
326.0932	11.3
326.1249	25.6
327.1169	38.9
327.1547	24.6

Name: 2-Amino-5-((1-carboxy-2-(3,4-dihydroxyphenyl)ethyl)amino)-5-oxopentanoic acid
PrecursorMZ: 325.10421
RT: 6.63405
ExactMass: 326.11140092
Spectrum_type: 2
charge: -1
Formula: C14H18N2O7
SMILES: C1=CC(=C(C=C1CC(C(=O)O)NC(=O)CCC(C(=O)O)N)O)O
Method: HCD
Collision_energy: [28.333334]
Isolation_window: 4.0
Ion_mode: N
Num Peaks: 9
114.0550	11.3
128.0345	100.0
136.0760	9.0
152.0711	19.2
196.0610	58.3
234.0877	15.7
324.1201	17.3
325.1042	62.0
325.1838	38.4

Name: 2-Amino-5-oxo-5-(3-oxohexan-2-ylamino)pentanoic acid
PrecursorMZ: 243.1348
RT: 8.2358
ExactMass: 244.14230712
Spectrum_type: 2
charge: -1
Formula: C11H20N2O4
SMILES: CCCC(=O)C(C)NC(=O)CCC(C(=O)O)N
Method: HCD
Collision_energy: [28.333334]
Isolation_window: 4.0
Ion_mode: N
Num Peaks: 12
88.0395	12.5
114.0552	16.7
116.0708	14.1
126.0553	23.3
128.0347	14.8
198.0885	15.7
225.1242	47.2
241.2173	67.0
242.1158	17.5
242.2203	19.6
243.1353	100.0
244.1401	12.1

Name: 2-Amino-6-)2-(2-oxo-acetylamino)-acetylamino(-hexanoic acid
PrecursorMZ: 258.10956
RT: 4.3478
ExactMass: 259.11682065
Spectrum_type: 2
charge: -1
Formula: C10H17N3O5
SMILES: C(CCNC(=O)CNC(=O)C=O)C[C@@H](C(=O)O)N
Method: HCD
Collision_energy: [28.333334]
Isolation_window: 4.0
Ion_mode: N
Num Peaks: 25
61.9875	4.5
83.0494	8.5
102.0551	8.4
112.0394	4.3
112.0507	35.0
131.0818	7.8
136.0871	7.0
144.0771	5.6
145.0975	46.8
154.0979	4.8
172.0724	6.4
172.1448	44.4
180.0773	45.2
192.0770	5.0
198.0878	100.0
199.0910	8.4
210.0883	4.6
214.1562	5.1
216.1352	4.0
240.0992	4.8
256.2364	30.2
257.2393	5.1
258.1097	20.3
258.1458	59.6
259.1266	4.6

Name: 2-Aminoethylglycine-carbonylmethylene-guanine
PrecursorMZ: 308.11417
RT: 5.4753
ExactMass: 310.12637702
Spectrum_type: 2
charge: -1
Formula: C11H16N7O4+
SMILES: C1=NC2=C(N1CC(=O)N(CC[NH3+])CC(=O)O)N=C(NC2=O)N
Method: HCD
Collision_energy: [28.333334]
Isolation_window: 4.0
Ion_mode: N
Num Peaks: 13
74.0238	14.7
94.0289	42.2
114.0550	18.3
164.0345	16.5
206.0452	42.5
207.0532	100.0
208.0598	27.3
222.0920	19.8
265.1160	13.9
307.1348	21.0
308.1139	96.3
309.1225	33.8
309.1483	28.6

Name: 2-Aminoheptanedioic acid
PrecursorMZ: 174.0766
RT: 4.8078
ExactMass: 175.0844579
Spectrum_type: 2
charge: -1
Formula: C7H13NO4
SMILES: C(CCC(=O)O)CC(C(=O)O)N
Method: HCD
Collision_energy: [28.333334]
Isolation_window: 4.0
Ion_mode: N
Num Peaks: 22
57.0337	5.0
59.0129	8.3
102.0089	5.3
102.0552	18.9
111.0808	5.2
112.0760	10.8
127.0756	5.3
130.0864	10.8
146.0238	11.5
154.9467	100.0
155.9462	11.3
156.0659	33.2
156.9434	7.4
172.9572	21.6
173.0232	18.4
173.0353	4.7
173.0807	61.8
173.0928	22.3
173.1156	7.9
174.0185	29.7
174.0756	22.3
175.0612	17.8

Name: 2-Ammonioethanesulfonate
PrecursorMZ: 124.00651
RT: 8.5565
ExactMass: 125.01466426
Spectrum_type: 2
charge: -1
Formula: C2H7NO3S
SMILES: C(CS(=O)(=O)[O-])[NH3+]
Method: HCD
Collision_energy: [28.333334]
Isolation_window: 4.0
Ion_mode: N
Num Peaks: 12
64.9693	1.3
78.9581	1.3
79.9565	65.1
80.9643	1.2
81.0449	1.1
81.9522	1.1
106.9800	2.6
123.0556	0.9
124.0066	100.0
124.0395	0.9
125.0106	2.4
126.0024	1.9

Name: 2-Carboxyethyl(2-hydroxyethyl)azanium
PrecursorMZ: 132.06581
RT: 7.0294
ExactMass: 134.08171824
Spectrum_type: 2
charge: -1
Formula: C5H12NO3+
SMILES: C(C[NH2+]CCO)C(=O)O
Method: HCD
Collision_energy: [28.333334]
Isolation_window: 4.0
Ion_mode: N
Num Peaks: 4
59.0130	31.9
71.0130	87.4
115.9198	100.0
134.0463	96.4

Name: 2-Carboxypropylazanium
PrecursorMZ: 102.05502
RT: 6.4368
ExactMass: 104.071153562
Spectrum_type: 2
charge: -1
Formula: C4H10NO2+
SMILES: CC(C[NH3+])C(=O)O
Method: HCD
Collision_energy: [28.333334]
Isolation_window: 4.0
Ion_mode: N
Num Peaks: 6
57.0337	11.6
73.0285	74.8
101.0598	12.8
102.0551	100.0
103.0391	10.9
103.0585	4.7

Name: 2-Decylpent-2-enedioic acid
PrecursorMZ: 269.1758
RT: 3.0193
ExactMass: 270.18310931
Spectrum_type: 2
charge: -1
Formula: C15H26O4
SMILES: CCCCCCCCCCC(=CCC(=O)O)C(=O)O
Method: HCD
Collision_energy: [28.333334]
Isolation_window: 4.0
Ion_mode: N
Num Peaks: 17
73.0286	2.5
96.9592	5.2
115.0754	2.7
138.0676	3.2
153.0914	9.6
207.1749	2.4
225.1857	5.3
267.1604	2.8
268.1217	2.3
269.0663	4.6
269.1760	100.0
269.2454	2.9
270.0677	3.3
270.0979	4.4
270.1794	15.3
271.0822	5.3
271.1895	3.3

Name: 2-Hydroxy-2-(1-hydroxy-4-(2-hydroxy-1-(1-hydroxy-4-(2-hydroxy-1-(1-hydroxypropan-2-yloxy)ethoxy)butan-2-yl)oxyethoxy)butan-2-yl)oxyacetaldehyde
PrecursorMZ: 429.1979
RT: 6.2131
ExactMass: 430.20502652
Spectrum_type: 2
charge: -1
Formula: C17H34O12
SMILES: CC(CO)OC(CO)OCCC(CO)OC(CO)OCCC(CO)OC(C=O)O
Method: HCD
Collision_energy: [28.333334]
Isolation_window: 4.0
Ion_mode: N
Num Peaks: 17
59.0129	40.4
71.0130	76.3
73.0287	30.0
83.0130	90.4
85.0287	27.5
97.0286	42.7
99.0078	33.0
101.0235	47.4
157.0498	50.4
159.0657	72.9
175.0612	23.0
181.1224	21.4
195.0868	48.9
221.1028	100.0
429.1982	35.9
429.2511	65.9
430.2575	55.3

Name: 2-Hydroxyglutarate(1-)
PrecursorMZ: 129.01848
RT: 8.4019
ExactMass: 147.02934832
Spectrum_type: 2
charge: -1
Formula: C5H7O5-
SMILES: [H+].C(CC(=O)[O-])C(C(=O)[O-])O
Method: HCD
Collision_energy: [28.333334]
Isolation_window: 4.0
Ion_mode: N
Num Peaks: 11
85.0286	11.4
87.0442	4.1
101.0236	4.4
128.0345	51.4
128.0709	41.7
129.0187	4.5
129.0379	3.3
129.0744	3.8
130.0404	3.3
130.0865	100.0
131.0352	2.8

Name: 2-Oxosuberate
PrecursorMZ: 187.0607
RT: 3.7814
ExactMass: 188.06847348
Spectrum_type: 2
charge: -1
Formula: C8H12O5
SMILES: C(CCC(=O)C(=O)O)CCC(=O)O
Method: HCD
Collision_energy: [28.333334]
Isolation_window: 4.0
Ion_mode: N
Num Peaks: 53
58.0290	7.6
59.0130	36.7
71.0130	7.5
71.0493	12.5
72.0447	4.8
73.0286	6.7
83.0493	8.4
85.0287	4.8
87.0076	4.1
88.0395	14.0
97.0286	4.6
97.0652	6.4
98.0239	2.8
99.0442	2.9
99.0806	5.9
102.0551	24.0
111.0079	10.6
113.0237	3.4
114.0553	3.5
115.0392	80.7
116.0426	3.8
116.0709	14.3
125.0238	3.8
125.0600	40.8
125.0964	5.8
126.0636	3.2
127.0393	9.6
127.0758	8.5
128.0345	10.3
129.0553	4.2
141.0911	4.5
142.0503	3.2
142.0862	6.2
143.0707	34.9
144.0657	23.6
145.0974	3.4
151.0394	11.0
169.0500	57.5
170.0445	3.0
171.0300	3.2
185.0810	2.9
185.1179	3.2
186.0289	5.7
186.0761	7.3
187.0265	3.8
187.0607	100.0
187.0965	5.2
187.1109	4.6
188.0349	11.7
188.0562	23.0
188.0914	13.0
189.0422	4.1
189.0765	17.0

Name: 2-Pentanamido-3-phenylpropanoic acid
PrecursorMZ: 248.12896
RT: 2.374633333333333
ExactMass: 249.13649347
Spectrum_type: 2
charge: -1
Formula: C14H19NO3
SMILES: CCCCC(=O)NC(CC1=CC=CC=C1)C(=O)O
Method: HCD
Collision_energy: [28.333334]
Isolation_window: 4.0
Ion_mode: N
Num Peaks: 10
80.9642	31.2
100.0759	17.5
147.0445	22.5
164.0710	100.0
247.0396	12.5
247.0647	11.2
247.1187	11.0
248.0796	13.2
248.0969	17.6
248.1287	56.0

Name: 2-amino-3-(hydroxy-(2-hydroxy-3-((Z)-tridec-9-enoyl)oxypropoxy)phosphoryl)oxypropanoic acid
PrecursorMZ: 452.20393
RT: 7.5634
ExactMass: 453.21276872
Spectrum_type: 2
charge: -1
Formula: C19H36NO9P
SMILES: CCC/C=C\CCCCCCCC(=O)OCC(COP(=O)(O)OCC(C(=O)O)N)O
Method: HCD
Collision_energy: [28.333334]
Isolation_window: 4.0
Ion_mode: N
Num Peaks: 7
69.1945	3.3
102.0551	10.2
128.0345	14.8
146.0452	100.0
147.0488	5.2
261.1606	2.8
452.2068	3.1

Name: 2-amino-5-((N'-(carboxymethyl)carbamimidoyl)amino)pentanoic acid
PrecursorMZ: 214.08313
RT: 6.6916
ExactMass: 232.117155
Spectrum_type: 2
charge: -1
Formula: C8H16N4O4
SMILES: C(CC(C(=O)O)N)CNC(=NCC(=O)O)N
Method: HCD
Collision_energy: [28.333334]
Isolation_window: 4.0
Ion_mode: N
Num Peaks: 14
59.0129	11.1
109.0649	17.5
116.0709	18.5
117.0661	100.0
140.0821	23.5
153.0551	16.8
170.0811	10.6
170.0932	71.5
171.1496	16.1
213.0752	17.2
214.0857	13.4
215.0090	11.1
215.0553	18.4
215.1406	40.9

Name: 2-aminoethyl ((2R)-3-hexadecanoyloxy-2-(9,10,12,13-tetrahydroxyoctadecanoyloxy)propyl) phosphate
PrecursorMZ: 782.51964
RT: 4.725
ExactMass: 782.51833889
Spectrum_type: 2
charge: -1
Formula: C39H77NO12P-
SMILES: CCCCCCCCCCCCCCCC(=O)OC[C@H](COP(=O)([O-])OCCN)OC(=O)CCCCCCCC(C(CC(C(CCCCC)O)O)O)O
Method: HCD
Collision_energy: [28.333334]
Isolation_window: 4.0
Ion_mode: N
Num Peaks: 30
69.1881	0.8
78.9581	70.4
78.9616	0.7
86.9439	2.5
86.9498	4.3
87.0553	1.0
87.0614	1.7
96.9687	14.3
223.0004	0.8
240.9934	1.1
241.0117	89.6
242.0152	5.6
259.0224	54.5
260.0257	3.2
291.1711	0.9
391.2860	0.8
528.2942	1.7
570.3040	1.0
602.4524	1.0
620.4670	1.4
737.4855	1.0
780.5356	3.2
781.5271	1.7
781.5385	4.0
781.5438	1.1
782.5200	100.0
783.2894	0.7
783.4164	0.9
783.5230	40.3
784.5252	6.5

Name: 2-hydroxy(1,2,3,4-13C4)butanoic acid
PrecursorMZ: 103.03916
RT: 4.6333
ExactMass: 108.06076345
Spectrum_type: 2
charge: -1
Formula: C4H8O3
SMILES: [13CH3][13CH2][13CH]([13C](=O)O)O
Method: HCD
Collision_energy: [28.333334]
Isolation_window: 4.0
Ion_mode: N
Num Peaks: 8
57.0337	92.6
58.0371	3.8
59.0130	2.9
85.0286	3.7
101.0236	4.2
101.0600	3.9
103.0392	100.0
104.0425	4.8

Name: 2-hydroxy-7-methyl-Octanedioic acid
PrecursorMZ: 203.09207
RT: 4.1759
ExactMass: 204.09977361
Spectrum_type: 2
charge: -1
Formula: C9H16O5
SMILES: CC(CCCCC(C(=O)O)O)C(=O)O
Method: HCD
Collision_energy: [28.333334]
Isolation_window: 4.0
Ion_mode: N
Num Peaks: 24
59.0130	2.6
71.0493	3.2
85.0287	1.0
85.0649	1.5
113.0963	8.8
114.0998	0.9
123.0807	6.4
139.1120	3.1
141.0913	54.9
142.0947	4.4
157.0861	1.0
159.1019	6.5
167.0707	2.7
183.0652	0.9
185.0813	23.6
186.0849	2.3
201.0763	2.5
201.1127	5.8
202.0156	1.6
202.0721	2.0
202.1167	1.1
203.0539	1.4
203.0920	100.0
204.0954	10.1

Name: 2-phenyl-1H-benzimidazole-5-sulfonate
PrecursorMZ: 273.03362
RT: 2.4775
ExactMass: 273.03338833
Spectrum_type: 2
charge: -1
Formula: C13H9N2O3S-
SMILES: C1=CC=C(C=C1)C2=NC3=C(N2)C=C(C=C3)S(=O)(=O)[O-]
Method: HCD
Collision_energy: [28.333334]
Isolation_window: 4.0
Ion_mode: N
Num Peaks: 22
59.0129	1.0
79.9568	0.9
87.0079	0.8
173.0448	1.2
193.0764	38.4
194.0799	4.9
200.1283	0.7
225.2219	2.7
226.2250	0.8
271.0824	1.2
271.2282	5.2
272.1863	1.0
272.2312	1.1
272.9718	0.7
273.0338	100.0
273.0833	0.6
273.0960	1.2
273.1324	0.6
273.2070	1.8
274.0369	14.1
275.0299	3.1
275.1123	0.9

Name: 3,10-Dihydroxy-4,9-dimethyldodec-6-enedioic acid
PrecursorMZ: 287.1504
RT: 0.6546
ExactMass: 288.15728848
Spectrum_type: 2
charge: -1
Formula: C14H24O6
SMILES: CC(CC=CCC(C)C(CC(=O)O)O)C(CC(=O)O)O
Method: HCD
Collision_energy: [28.333334]
Isolation_window: 4.0
Ion_mode: N
Num Peaks: 85
59.0130	14.2
71.0129	2.2
71.0493	1.2
72.9922	1.9
74.0238	2.7
75.0078	1.2
84.0442	1.1
85.0286	8.5
87.0079	4.0
88.0395	4.6
89.0235	1.2
103.0393	1.2
111.0443	1.2
114.0552	1.6
115.0028	1.9
115.0394	2.1
116.0708	8.1
120.0806	1.1
125.0964	4.7
129.0550	1.5
130.0866	8.5
140.0711	2.3
142.0500	1.4
143.0701	1.1
156.0659	1.5
156.1024	3.7
158.0452	3.4
158.0813	3.2
166.0864	1.1
171.1015	3.8
171.1136	2.0
171.1499	1.4
172.0965	1.6
173.1178	4.5
181.1223	1.1
183.1016	2.9
184.0969	3.0
185.1175	3.5
187.0970	4.0
200.0917	2.2
201.1126	20.6
202.1167	1.8
206.0816	1.2
207.1388	2.4
209.1180	6.0
209.1538	2.5
210.0772	1.7
211.1335	1.1
213.1259	1.4
215.1425	3.9
223.1334	1.2
224.1285	1.7
225.1153	1.7
225.1492	34.0
226.1525	3.7
227.1285	6.3
227.1645	6.9
228.0877	4.9
229.1444	8.7
241.1451	2.0
242.1423	2.4
243.1009	1.5
243.1356	2.7
243.1598	18.9
244.1601	2.6
245.1208	1.5
245.1772	1.3
251.1288	2.2
257.1396	1.8
268.1209	2.5
269.1141	2.1
269.1394	14.2
270.1423	2.0
271.1553	6.4
285.1370	6.5
285.1720	3.2
286.1349	10.6
286.1747	3.6
287.0806	1.7
287.1245	6.0
287.1505	100.0
288.1114	1.8
288.1533	17.5
289.1365	1.9
289.1658	45.7

Name: 3-(((2R)-2,4-dihydroxy-3,3-dimethylbutanoyl)(15N)amino)(313C)propanoic acid
PrecursorMZ: 218.10276
RT: 5.9226
ExactMass: 221.11106237
Spectrum_type: 2
charge: -1
Formula: C9H17NO5
SMILES: CC(C)(CO)[C@H](C(=O)[15NH][13CH2]CC(=O)O)O
Method: HCD
Collision_energy: [28.333334]
Isolation_window: 4.0
Ion_mode: N
Num Peaks: 85
59.0129	1.6
69.1065	0.7
69.2357	0.6
69.2835	0.7
71.0129	11.1
71.0493	4.4
72.9921	0.8
73.0285	1.4
73.0397	0.9
74.0238	2.5
79.9566	0.7
83.0491	0.9
85.0285	0.7
87.0079	1.3
87.0442	0.9
88.0280	0.7
88.0394	100.0
88.0435	1.5
89.0234	3.9
89.0426	2.8
94.0288	0.8
97.0652	0.5
97.4072	0.7
99.0441	1.5
101.0234	0.8
101.0598	0.5
101.0710	1.1
109.0397	2.9
113.0598	0.7
115.0391	0.5
116.0342	0.7
116.0707	8.1
124.0394	2.4
125.0599	1.0
127.0394	0.8
129.0547	1.3
129.1023	4.4
130.0499	0.6
130.0865	4.3
132.0562	0.5
138.0661	0.8
143.1181	2.8
146.0814	51.7
147.0850	3.4
153.1275	0.6
154.1311	2.4
155.0818	0.8
155.1181	2.3
173.0571	1.9
173.0924	19.2
174.0400	0.9
174.0958	1.7
175.0270	1.2
176.0340	4.0
176.0462	0.7
187.0715	0.7
187.1081	14.5
188.1116	1.6
198.1210	2.4
199.0958	0.7
199.0975	0.6
200.0821	1.3
201.1133	0.9
216.0868	1.1
216.1242	0.8
216.1317	6.2
217.0286	2.2
217.0716	3.9
217.0744	0.9
217.1064	0.8
217.1197	8.5
217.1214	2.0
217.1350	0.8
218.0843	0.9
218.1028	29.0
218.1209	1.0
219.0510	1.3
219.0846	0.8
219.0880	0.7
219.1008	0.8
219.1031	0.8
219.1059	2.5
219.1234	5.9
220.0394	2.2
220.0734	0.8

Name: 3-((2S,5S)-3,6-dioxo-5-propan-2-ylpiperazin-2-yl)propanoic acid
PrecursorMZ: 227.10346
RT: 5.469
ExactMass: 228.111007
Spectrum_type: 2
charge: -1
Formula: C10H16N2O4
SMILES: CC(C)[C@H]1C(=O)N[C@H](C(=O)N1)CCC(=O)O
Method: HCD
Collision_energy: [28.333334]
Isolation_window: 4.0
Ion_mode: N
Num Peaks: 23
59.0130	13.9
71.0129	16.7
80.9642	8.0
112.0395	10.2
113.0348	49.9
114.0551	13.9
125.0711	9.4
140.1073	6.9
141.0660	18.8
155.0818	16.0
167.0457	10.6
167.0818	34.3
167.1434	9.5
183.1134	53.8
183.1377	15.2
211.1331	9.1
227.0246	8.2
227.1044	100.0
227.1280	9.9
227.2012	12.5
228.1062	7.9
229.0862	13.9
229.1435	25.0

Name: 3-((4-hydroxyphenyl)methyl)-6-(1H-imidazol-5-ylmethyl)piperazine-2,5-dione
PrecursorMZ: 299.11387
RT: 5.764266666666667
ExactMass: 300.12224039
Spectrum_type: 2
charge: -1
Formula: C15H16N4O3
SMILES: C1=CC(=CC=C1CC2C(=O)NC(C(=O)N2)CC3=CN=CN3)O
Method: HCD
Collision_energy: [28.333334]
Isolation_window: 4.0
Ion_mode: N
Num Peaks: 9
113.0348	30.0
114.0550	20.0
193.0726	100.0
227.1394	26.4
299.1165	72.2
299.1852	50.2
299.2591	20.6
300.1186	27.7
301.1663	30.5

Name: 3-((5S)-4,5-dihydroxycyclohexa-1,3-dien-1-yl)-L-alanine
PrecursorMZ: 198.07667
RT: 4.8777
ExactMass: 199.0844579
Spectrum_type: 2
charge: -1
Formula: C9H13NO4
SMILES: C1[C@@H](C(=CC=C1C[C@@H](C(=O)O)N)O)O
Method: HCD
Collision_energy: [28.333334]
Isolation_window: 4.0
Ion_mode: N
Num Peaks: 129
58.9946	3.7
59.0127	5.5
68.0238	10.0
69.0337	8.4
70.0290	4.7
71.0123	3.9
72.0447	8.7
72.9922	40.3
73.0286	3.8
74.0231	8.4
79.9564	4.1
80.0490	3.0
82.0289	3.7
83.0493	8.2
84.0446	14.8
85.0286	5.5
86.0239	5.0
87.0079	12.5
88.0395	14.4
94.0283	3.2
94.0653	8.0
95.0495	5.9
96.0447	21.9
96.9594	6.5
97.0280	6.0
97.0652	4.6
98.0239	25.5
98.0601	4.2
99.0444	4.5
100.0032	4.3
100.0393	3.6
107.0492	3.6
108.0447	7.8
108.0803	3.0
109.0400	9.4
109.0649	6.4
110.0603	33.3
110.0967	12.7
111.0443	40.6
111.0555	4.8
111.0807	6.2
112.0392	9.2
112.0502	18.4
112.0759	4.9
113.0350	4.2
113.0601	4.2
114.0552	53.9
115.0584	3.4
120.0446	31.4
121.0287	78.1
121.0650	3.6
122.0318	7.5
122.0604	6.8
123.0078	9.7
123.0444	22.1
123.0549	9.5
124.0397	12.0
125.0237	5.8
125.0600	16.6
125.0706	4.2
126.0295	6.0
126.0552	9.8
127.0392	3.7
127.0500	4.4
128.0338	3.1
128.0707	3.9
130.0863	4.9
135.0443	10.9
135.0552	5.0
135.0806	3.3
136.0396	5.0
136.0760	35.0
137.0345	3.0
137.0599	7.6
137.0708	4.7
138.0315	17.2
138.0553	15.9
139.0392	10.3
152.0347	8.1
152.0716	4.1
153.0294	4.1
153.0553	80.3
153.0663	11.1
153.0751	3.2
153.0914	10.5
153.1022	19.7
154.0322	91.5
154.0500	45.4
154.0592	4.9
154.0866	73.8
155.0348	7.1
155.0604	4.9
155.0714	7.8
155.0801	6.3
155.0915	5.8
155.1182	24.2
156.0290	3.7
156.0662	4.2
156.1021	8.8
165.0553	9.6
166.9979	22.2
168.0124	12.4
168.0296	19.2
170.0815	3.3
179.0354	3.4
180.0656	6.6
181.0498	5.2
182.0215	100.0
183.0251	7.8
196.0974	4.2
197.0447	58.0
197.0724	5.4
197.0813	17.4
197.0934	22.0
198.0226	18.5
198.0408	20.2
198.0567	11.4
198.0768	71.9
198.0928	4.0
198.1133	8.3
198.1268	3.6
199.0609	38.7
199.0803	5.4
199.0970	6.8
199.1086	75.6
200.0561	5.6
200.0717	8.2
200.0925	8.9
200.1113	3.8

Name: 3-(1-Hydroxyethyl)-6-(2-methylpropyl)piperazine-2,5-dione
PrecursorMZ: 213.12403
RT: 2.7854
ExactMass: 214.13174244
Spectrum_type: 2
charge: -1
Formula: C10H18N2O3
SMILES: CC(C)CC1C(=O)NC(C(=O)N1)C(C)O
Method: HCD
Collision_energy: [28.333334]
Isolation_window: 4.0
Ion_mode: N
Num Peaks: 19
69.1665	9.0
83.0242	7.9
87.0444	7.0
97.0400	12.2
97.4670	7.6
110.0113	8.5
112.0269	10.9
113.0350	7.4
140.0711	10.7
155.0819	75.7
167.0823	15.1
168.0647	9.6
169.0977	100.0
170.1011	7.5
211.0830	43.7
212.0866	11.9
213.0405	15.4
213.1853	7.3
215.0556	8.9

Name: 3-(1H-imidazol-5-yl)-2-(((E)-octadec-9-enoyl)amino)propanoic acid
PrecursorMZ: 418.30725
RT: 2.5616
ExactMass: 419.31479218
Spectrum_type: 2
charge: -1
Formula: C24H41N3O3
SMILES: CCCCCCCC/C=C/CCCCCCCC(=O)NC(CC1=CN=CN1)C(=O)O
Method: HCD
Collision_energy: [28.333334]
Isolation_window: 4.0
Ion_mode: N
Num Peaks: 22
61.9873	3.2
78.9580	5.7
93.0449	4.4
110.0713	89.9
110.9842	5.1
137.0346	4.9
154.0613	82.4
155.0652	4.3
167.0106	4.8
208.1080	3.3
281.2480	6.4
283.2626	3.6
320.2582	4.9
322.2747	3.1
356.3073	5.5
374.3191	6.4
376.3324	4.1
417.2971	4.8
418.3072	100.0
419.2588	5.1
419.3126	26.7
420.3225	60.2

Name: 3-(1H-imidazol-5-ylmethyl)-2,3,6,7,8,8a-hexahydropyrrolo)1,2-a(pyrazine-1,4-dione
PrecursorMZ: 233.10352
RT: 5.2996
ExactMass: 234.1116757
Spectrum_type: 2
charge: -1
Formula: C11H14N4O2
SMILES: C1CC2C(=O)NC(C(=O)N2C1)CC3=CN=CN3
Method: HCD
Collision_energy: [28.333334]
Isolation_window: 4.0
Ion_mode: N
Num Peaks: 12
67.0292	22.4
97.4639	5.2
151.0505	7.1
153.0660	73.5
165.0660	11.8
167.0453	8.4
188.0708	12.6
190.0979	8.3
233.1040	100.0
233.1536	12.7
234.1072	11.6
235.1203	18.6

Name: 3-(1H-indol-3-yl)-2-((2-methoxyphenyl)carbamoylamino)propanoic acid
PrecursorMZ: 352.1309
RT: 1.3824
ExactMass: 353.1375561
Spectrum_type: 2
charge: -1
Formula: C19H19N3O4
SMILES: COC1=CC=CC=C1NC(=O)NC(CC2=CNC3=CC=CC=C32)C(=O)O
Method: HCD
Collision_energy: [28.333334]
Isolation_window: 4.0
Ion_mode: N
Num Peaks: 158
59.0129	1.0
61.9875	2.6
71.0129	0.5
72.0082	3.7
73.0399	0.5
74.0238	1.2
85.0286	0.5
88.0395	1.0
92.0495	0.5
94.0289	0.6
96.0082	0.3
96.9592	2.2
97.4663	0.5
98.0238	0.4
108.0446	7.7
109.0161	0.4
109.0477	0.4
113.0345	0.3
114.0189	0.2
114.0552	10.1
116.0497	32.3
116.0708	2.7
117.0531	2.7
120.0447	1.0
122.0241	0.5
122.0603	2.0
124.0396	0.7
124.0758	0.4
127.0508	0.4
128.0347	0.4
130.0655	3.0
130.0865	5.4
134.0603	0.5
135.0318	0.3
136.0397	8.2
137.0463	0.6
138.0329	0.6
138.0553	85.6
138.0774	0.5
139.0588	5.8
141.1024	0.4
142.0654	1.5
148.0394	0.7
149.0478	0.5
149.0711	0.9
150.0554	2.6
151.0633	1.1
152.0710	4.8
153.0745	0.3
156.0677	0.7
157.0764	25.1
158.0801	2.8
159.0925	0.6
161.0708	0.7
162.0553	0.8
163.0504	0.7
164.0708	1.5
165.0659	1.4
166.0871	0.3
167.0603	0.8
168.0681	2.2
169.0764	14.3
170.0801	1.5
171.0772	1.0
171.1018	0.3
173.0719	0.4
179.0493	0.6
179.0560	0.5
179.0820	82.5
179.1082	0.4
179.1146	0.6
180.0857	7.6
181.0864	0.4
191.0820	40.5
192.0856	4.3
195.1132	1.4
202.0979	0.3
203.0824	0.4
210.0760	0.5
211.1449	0.4
213.0668	1.3
215.0816	0.4
220.0975	0.5
221.0934	0.3
221.1299	0.4
235.0873	1.1
236.0949	1.5
237.0997	0.4
237.1603	0.3
243.1717	0.5
247.0874	2.3
248.0951	6.5
249.1002	1.3
250.1096	0.3
251.1189	2.0
257.1651	0.4
258.0793	0.4
261.1033	4.4
262.1061	0.7
263.0830	0.4
263.1190	3.7
264.1239	0.5
265.0984	5.8
266.1055	6.9
266.1874	1.8
267.1096	1.1
273.1033	4.0
274.1093	1.6
275.1080	0.5
278.1298	1.5
279.1138	16.3
280.1173	3.0
281.1290	1.2
288.1129	0.4
290.1301	7.2
291.1100	3.0
291.1150	0.3
292.1160	0.6
306.1251	1.7
307.1278	0.4
308.0665	0.6
308.0818	0.6
308.1405	100.0
308.1984	0.6
308.2142	0.5
308.2352	0.4
309.1439	20.3
310.1085	0.4
310.1467	1.6
310.1781	1.6
310.2504	0.3
318.1527	0.3
322.1769	0.3
335.1719	0.4
350.1471	0.9
350.1693	0.6
350.1737	0.3
350.2048	0.4
351.0406	0.5
351.1490	1.0
351.1810	0.4
351.1891	3.1
351.1942	0.9
352.0396	0.4
352.1304	43.4
352.1818	1.2
352.1862	2.2
352.2245	4.9
353.1302	1.1
353.1338	9.2
353.1791	1.0
353.2067	2.4
353.2183	0.7
353.2258	0.4
354.0975	0.7
354.1374	1.0
354.2033	7.1
354.2409	2.8

Name: 3-(1H-indol-3-yl)-2-))2,3,4-trihydroxy-5-(hydroxymethyl)oxolan-2-yl(methylamino(propanoic acid
PrecursorMZ: 365.13577
RT: 2.5153
ExactMass: 366.14270105
Spectrum_type: 2
charge: -1
Formula: C17H22N2O7
SMILES: C1=CC=C2C(=C1)C(=CN2)CC(C(=O)O)NCC3(C(C(C(O3)CO)O)O)O
Method: HCD
Collision_energy: [28.333334]
Isolation_window: 4.0
Ion_mode: N
Num Peaks: 51
59.0129	1.2
71.0129	1.2
72.0081	1.3
72.9922	0.9
73.0286	1.1
74.0237	1.4
87.0078	1.6
94.0289	1.1
101.0235	15.2
113.0234	0.9
116.0497	5.5
116.0708	1.3
128.0346	1.3
130.0865	3.4
135.0447	1.0
142.0654	1.6
158.0452	0.9
159.0921	4.2
161.0454	1.0
173.0928	1.2
183.0921	1.0
186.0557	0.9
190.0713	1.8
191.0834	1.0
201.0877	0.7
203.0821	100.0
204.0856	11.7
205.0867	0.7
206.0457	0.8
215.1029	2.4
227.1044	0.9
245.0926	2.4
245.1148	1.5
275.1032	15.0
276.1072	2.4
287.1033	1.5
293.1504	1.6
305.1160	1.0
317.1136	1.3
321.1376	0.7
323.1600	0.8
347.1258	1.0
363.1366	1.0
364.1107	2.3
364.1497	3.1
365.1236	2.6
365.1547	2.0
365.1995	0.9
366.1211	2.8
367.1061	1.6
367.1552	1.9

Name: 3-(2,5-Dioxopyrrolidin-1-yl)propanoate
PrecursorMZ: 170.04526
RT: 6.2904
ExactMass: 170.04533274
Spectrum_type: 2
charge: -1
Formula: C7H8NO4-
SMILES: C1CC(=O)N(C1=O)CCC(=O)[O-]
Method: HCD
Collision_energy: [28.333334]
Isolation_window: 4.0
Ion_mode: N
Num Peaks: 119
57.0338	1.6
58.0289	3.2
59.0130	16.9
69.0337	5.3
70.0289	98.3
71.0130	4.4
71.0323	3.9
71.0494	3.1
72.0082	1.3
72.0446	7.3
72.9922	1.4
73.0286	8.0
79.9565	4.4
81.0337	3.1
82.0290	1.9
83.0493	7.4
84.0082	6.2
84.0446	20.4
85.0286	3.6
86.0239	2.8
86.0603	1.8
88.0394	2.1
94.0288	1.2
95.0130	1.2
95.0494	3.3
96.0082	4.5
96.0446	7.2
96.9592	8.8
97.0286	5.6
97.0650	6.1
98.0239	6.7
98.0603	7.3
99.0079	47.6
99.0443	4.2
100.0112	1.7
100.0395	3.2
106.9800	2.8
107.0494	5.2
108.0208	1.2
108.0447	5.8
109.0161	1.8
109.0293	6.9
109.0401	1.9
109.0650	9.6
110.0239	27.9
110.0603	1.3
111.0080	1.1
111.0318	1.5
111.0442	3.5
112.0397	4.7
113.0236	7.8
113.0600	1.4
114.0552	48.6
115.0586	2.5
116.0709	13.6
122.0603	5.9
123.0444	2.7
124.0395	4.6
124.0479	3.1
124.0760	10.5
125.0237	4.0
125.0347	2.3
125.0601	18.2
125.0794	1.5
125.0964	3.6
126.0109	3.8
126.0553	60.3
126.0628	1.8
126.0916	4.2
127.0393	5.9
127.0591	4.0
127.0756	12.5
127.1119	1.6
128.0082	3.6
128.0345	39.8
128.0709	14.7
128.1072	21.8
129.0380	2.0
130.0503	1.1
130.0865	7.2
132.0447	1.3
139.0392	1.8
142.0327	2.1
142.0867	2.0
143.0606	2.8
144.0448	1.3
146.0606	2.5
150.0553	2.1
151.0390	4.7
152.0344	7.5
152.0709	1.2
153.0141	7.1
153.0549	1.9
154.0153	3.2
154.0866	1.8
168.0379	2.5
168.0657	8.0
168.1138	3.8
169.0499	8.3
169.0622	1.7
169.0750	1.3
169.0882	3.5
169.1233	3.3
170.0290	3.5
170.0453	100.0
170.0567	2.5
170.0816	55.1
170.1174	2.4
170.9789	1.6
170.9964	15.3
171.0292	5.8
171.0487	6.6
171.0656	23.3
171.0849	4.2
171.1020	16.2
171.1384	19.3
172.0394	1.6
172.0603	5.1
172.0971	23.6

Name: 3-(3,4-Dihydroxyphenyl)-2-)3-(3,4-dihydroxyphenyl)-2-hydroxypropanoyl(oxypropanoic acid
PrecursorMZ: 377.0876
RT: 5.9422
ExactMass: 378.09508215
Spectrum_type: 2
charge: -1
Formula: C18H18O9
SMILES: C1=CC(=C(C=C1CC(C(=O)OC(CC2=CC(=C(C=C2)O)O)C(=O)O)O)O)O
Method: HCD
Collision_energy: [28.333334]
Isolation_window: 4.0
Ion_mode: N
Num Peaks: 30
61.9874	5.1
95.0492	4.6
109.0284	2.3
113.0596	1.2
135.0442	4.1
149.0599	5.8
151.0392	1.1
153.0551	1.8
157.0497	3.3
175.0393	5.0
179.0342	6.6
179.0701	2.0
197.0447	8.2
201.0551	1.4
205.0501	1.1
223.0607	2.3
243.0652	1.6
253.0868	4.3
255.0662	1.8
263.0917	1.3
271.0975	5.1
273.0770	2.6
297.0772	1.1
315.0873	3.1
333.0979	2.4
359.0776	2.0
375.1122	1.4
377.0876	100.0
378.0908	19.0
379.0964	2.1

Name: 3-(4-Hydroxyphenyl)-2-(pentadecanoylamino)propanoic acid
PrecursorMZ: 404.28033
RT: 1.84355
ExactMass: 405.28790873
Spectrum_type: 2
charge: -1
Formula: C24H39NO4
SMILES: CCCCCCCCCCCCCCC(=O)NC(CC1=CC=C(C=C1)O)C(=O)O
Method: HCD
Collision_energy: [28.333334]
Isolation_window: 4.0
Ion_mode: N
Num Peaks: 27
78.9580	16.3
79.9564	4.1
80.9641	2.0
107.0492	8.6
119.0494	4.4
136.0758	2.6
163.0393	8.7
167.0107	3.1
180.0658	79.7
181.0692	7.2
197.0215	5.6
239.2380	1.8
240.2327	10.7
252.2332	4.6
294.2794	2.6
295.2837	3.0
359.2953	4.3
360.2913	13.6
361.2942	2.9
402.2675	2.9
403.1888	39.9
403.2711	7.2
404.1921	7.6
404.2807	100.0
405.2009	4.8
405.3003	76.3
406.3043	14.7

Name: 3-(4-hydroxyphenyl)-2-(((2S)-5-oxopyrrolidine-2-carbonyl)amino)propanoic acid
PrecursorMZ: 291.09846
RT: 6.1127
ExactMass: 292.10592162
Spectrum_type: 2
charge: -1
Formula: C14H16N2O5
SMILES: C1CC(=O)N[C@@H]1C(=O)NC(CC2=CC=C(C=C2)O)C(=O)O
Method: HCD
Collision_energy: [28.333334]
Isolation_window: 4.0
Ion_mode: N
Num Peaks: 13
59.0129	6.4
71.0129	9.5
94.0288	6.7
119.0493	13.4
125.0347	22.2
127.0502	5.0
141.0661	13.6
167.0454	6.7
185.0562	26.6
219.0777	7.8
247.1089	6.9
291.0984	100.0
292.1032	12.4

Name: 3-(Amino(carboxy)methyl)cyclopropane-1,2-dicarboxylic acid
PrecursorMZ: 184.02444
RT: 1.02685
ExactMass: 203.04298701
Spectrum_type: 2
charge: -1
Formula: C7H9NO6
SMILES: C1(C(C1C(=O)O)C(=O)O)C(C(=O)O)N
Method: HCD
Collision_energy: [28.333334]
Isolation_window: 4.0
Ion_mode: N
Num Peaks: 5
96.0445	39.7
97.0109	13.8
97.4398	10.9
140.0345	100.0
184.0245	9.0

Name: 3-(ethoxy(hydroxy)phosphoryl)oxypropyl (Z)-octadec-9-enoate
PrecursorMZ: 447.28805
RT: 1.4691
ExactMass: 448.29537615
Spectrum_type: 2
charge: -1
Formula: C23H45O6P
SMILES: CCCCCCCC/C=C\CCCCCCCC(=O)OCCCOP(=O)(O)OCC
Method: HCD
Collision_energy: [28.333334]
Isolation_window: 4.0
Ion_mode: N
Num Peaks: 30
69.3766	0.7
78.9581	37.8
79.9564	0.7
94.9895	0.8
96.9592	1.1
104.9740	1.5
110.9844	63.8
111.9879	0.7
137.0001	1.2
149.0601	0.7
167.0109	61.0
168.0144	2.0
185.0212	1.1
277.2532	1.3
279.2340	4.9
279.2691	34.1
280.2370	1.0
280.2724	7.3
281.2488	4.5
281.2808	0.9
357.2794	0.8
415.2625	2.3
445.3315	4.5
446.2413	0.8
446.3344	5.5
447.2889	100.0
448.1847	1.9
448.2930	24.9
448.6854	0.7
449.3072	5.8

Name: 3-Aminobutyrate
PrecursorMZ: 102.05521
RT: 2.941
ExactMass: 102.055503498
Spectrum_type: 2
charge: -1
Formula: C4H8NO2-
SMILES: CC(CC(=O)[O-])N
Method: HCD
Collision_energy: [28.333334]
Isolation_window: 4.0
Ion_mode: N
Num Peaks: 3
59.0130	100.0
60.0083	8.2
102.0552	46.4

Name: 3-Aminopentanedioic acid
PrecursorMZ: 102.05517
RT: 4.58575
ExactMass: 147.05315777
Spectrum_type: 2
charge: -1
Formula: C5H9NO4
SMILES: C(C(CC(=O)O)N)C(=O)O
Method: HCD
Collision_energy: [28.333334]
Isolation_window: 4.0
Ion_mode: N
Num Peaks: 3
59.0130	100.0
60.0082	15.3
102.0551	79.5

Name: 3-Deuteriooxy-2-(dideuterioamino)propanoate
PrecursorMZ: 104.0344
RT: 9.3547
ExactMass: 107.053598291
Spectrum_type: 2
charge: -1
Formula: C3H6NO3-
SMILES: [2H]N([2H])C(CO[2H])C(=O)[O-]
Method: HCD
Collision_energy: [28.333334]
Isolation_window: 4.0
Ion_mode: N
Num Peaks: 16
57.0337	1.8
59.0130	3.2
69.3432	1.7
72.0082	80.9
72.9922	4.4
73.0115	1.9
74.0238	100.0
75.0080	1.7
75.0272	2.6
84.0446	1.5
102.0552	17.1
102.0631	2.1
103.0391	2.4
104.0344	45.5
105.0184	7.2
106.0400	3.5

Name: 3-Formylphenolate
PrecursorMZ: 121.02866
RT: 5.2432
ExactMass: 121.028954398
Spectrum_type: 2
charge: -1
Formula: C7H5O2-
SMILES: C1=CC(=CC(=C1)[O-])C=O
Method: HCD
Collision_energy: [28.333334]
Isolation_window: 4.0
Ion_mode: N
Num Peaks: 27
65.0388	0.9
66.0340	1.7
69.2977	0.6
76.9693	0.7
79.0180	6.8
79.9565	10.1
93.0337	26.1
94.0289	30.7
94.0370	1.6
94.9800	1.1
97.4649	0.8
108.0209	0.7
119.0162	1.1
119.0495	1.8
120.0448	1.0
120.8962	0.6
120.9957	1.6
121.0104	0.5
121.0287	100.0
121.0469	0.7
121.0649	1.9
122.0239	35.2
122.0319	7.4
122.0602	1.8
122.9749	1.6
123.0115	1.1
123.0443	1.2

Name: 3-Hexylserine
PrecursorMZ: 188.1285
RT: 8.7254
ExactMass: 189.13649347
Spectrum_type: 2
charge: -1
Formula: C9H19NO3
SMILES: CCCCCCC(C(C(=O)O)N)O
Method: HCD
Collision_energy: [28.333334]
Isolation_window: 4.0
Ion_mode: N
Num Peaks: 26
58.0289	1.5
59.0130	1.4
72.0445	1.2
83.0492	1.3
88.0395	2.2
98.0602	6.4
110.0966	3.7
116.0708	5.5
125.0965	3.6
126.0916	2.1
127.0755	1.2
128.1074	1.2
142.0866	1.1
142.1230	2.1
143.1181	3.6
144.0450	1.5
144.1021	1.5
145.0974	13.6
170.0817	3.1
187.1085	34.2
188.0723	1.5
188.0927	11.7
188.1126	4.0
188.1285	100.0
189.0942	1.2
189.1320	9.7

Name: 3-Hydroxy-2-))6-)2-(3-hydroxyprop-1-enyl)-4-methylphenyl(-2,4-dimethylhept-2-enoyl(amino(propanoic acid
PrecursorMZ: 388.21288
RT: 5.0014
ExactMass: 389.22022309
Spectrum_type: 2
charge: -1
Formula: C22H31NO5
SMILES: CC1=CC(=C(C=C1)C(C)CC(C)C=C(C)C(=O)NC(CO)C(=O)O)C=CCO
Method: HCD
Collision_energy: [28.333334]
Isolation_window: 4.0
Ion_mode: N
Num Peaks: 14
74.0237	6.0
88.0394	8.4
116.0707	6.2
130.0865	11.0
342.2082	6.0
343.1985	12.4
358.1997	5.7
358.2041	5.5
376.2125	15.5
387.2278	14.9
388.0301	4.7
388.2131	100.0
389.2192	26.2
390.1693	5.0

Name: 3-Hydroxy-5-methylphenolate
PrecursorMZ: 123.0442
RT: 6.661
ExactMass: 123.044604462
Spectrum_type: 2
charge: -1
Formula: C7H7O2-
SMILES: CC1=CC(=CC(=C1)[O-])O
Method: HCD
Collision_energy: [28.333334]
Isolation_window: 4.0
Ion_mode: N
Num Peaks: 8
79.0544	1.9
81.0336	100.0
82.0369	5.6
121.0283	1.4
123.0080	3.5
123.0442	70.9
123.9012	4.9
124.0476	6.6

Name: 3-Hydroxybenzoic acid-d5
PrecursorMZ: 137.02368
RT: 5.2917
ExactMass: 143.063077779
Spectrum_type: 2
charge: -1
Formula: C7H6O3
SMILES: [2H]C1=C(C(=C(C(=C1[2H])O[2H])[2H])C(=O)O)[2H]
Method: HCD
Collision_energy: [28.333334]
Isolation_window: 4.0
Ion_mode: N
Num Peaks: 21
93.0337	99.7
94.0290	1.8
94.0370	7.8
99.9251	1.8
108.0207	1.4
109.9411	2.2
111.9368	1.5
121.0525	2.2
123.0318	9.8
134.8939	11.6
135.0443	5.5
135.8940	28.8
136.0395	2.0
136.0763	2.7
136.8910	100.0
137.0236	20.3
137.8910	10.5
138.0185	2.8
138.0273	1.7
138.0553	22.5
138.8888	1.6

Name: 3-Hydroxybutanoic acid, (R)-
PrecursorMZ: 103.03919
RT: 0.8558
ExactMass: 104.047344113
Spectrum_type: 2
charge: -1
Formula: C4H8O3
SMILES: C[C@H](CC(=O)O)O
Method: HCD
Collision_energy: [28.333334]
Isolation_window: 4.0
Ion_mode: N
Num Peaks: 6
57.0338	3.9
59.0130	100.0
60.0082	16.3
60.0162	3.2
103.0137	3.2
103.0392	7.6

Name: 3-Methyl-2-(3-methylbutanamido)butanoic acid
PrecursorMZ: 200.12849
RT: 1.5931
ExactMass: 201.13649347
Spectrum_type: 2
charge: -1
Formula: C10H19NO3
SMILES: CC(C)CC(=O)NC(C(C)C)C(=O)O
Method: HCD
Collision_energy: [28.333334]
Isolation_window: 4.0
Ion_mode: N
Num Peaks: 11
88.0393	1.5
116.0708	11.5
130.0865	100.0
131.0900	6.1
156.1025	1.5
156.1386	8.2
199.1334	2.5
199.1695	1.9
200.0923	2.4
200.1286	40.2
201.1318	4.3

Name: 3-Pyrrolidinecarboxamide, N,1-dicyclohexyl-2,4,5-trioxo-
PrecursorMZ: 319.16573
RT: 2.5401
ExactMass: 320.17360725
Spectrum_type: 2
charge: -1
Formula: C17H24N2O4
SMILES: C1CCC(CC1)NC(=O)C2C(=O)C(=O)N(C2=O)C3CCCCC3
Method: HCD
Collision_energy: [28.333334]
Isolation_window: 4.0
Ion_mode: N
Num Peaks: 40
59.0129	8.2
69.3799	6.0
120.0809	31.2
121.0843	6.7
122.0602	14.9
124.0758	26.5
132.0808	12.7
136.0758	24.9
138.0551	6.8
138.0916	12.5
140.0709	7.3
148.0759	23.9
150.0915	24.4
163.0868	45.9
164.0708	17.7
166.0863	6.0
172.1083	32.7
193.0733	12.4
194.0812	12.7
216.1387	15.2
225.0639	13.7
233.1654	37.6
257.1292	79.5
258.1328	14.0
259.1447	13.6
275.1401	14.0
277.1555	19.5
291.1710	21.1
317.1501	81.4
318.1534	48.5
319.1310	10.7
319.1355	5.6
319.1647	100.0
319.1922	76.7
320.0598	10.0
320.1595	10.5
320.1638	44.1
320.1955	7.1
320.1974	15.9
321.1450	24.0

Name: 3-ammonio-L-alanine
PrecursorMZ: 103.05036
RT: 7.777925
ExactMass: 105.066402534
Spectrum_type: 2
charge: -1
Formula: C3H9N2O2+
SMILES: C([C@@H](C(=O)O)N)[NH3+]
Method: HCD
Collision_energy: [28.333334]
Isolation_window: 4.0
Ion_mode: N
Num Peaks: 4
59.0131	23.1
72.0082	36.3
74.0238	38.4
103.0504	100.0

Name: 3-hydroxypropane-1-sulfonate
PrecursorMZ: 139.00615
RT: 5.5857
ExactMass: 139.00650487
Spectrum_type: 2
charge: -1
Formula: C3H7O4S-
SMILES: C(CO)CS(=O)(=O)[O-]
Method: HCD
Collision_energy: [28.333334]
Isolation_window: 4.0
Ion_mode: N
Num Peaks: 14
79.9564	43.7
80.9642	14.1
94.0288	1.2
120.9952	0.9
123.0317	1.8
136.9905	2.3
137.8911	0.8
138.0192	0.9
138.0552	2.4
139.0062	100.0
140.0096	3.9
140.0711	1.1
141.0020	2.7
141.0195	1.4

Name: 3-hydroxytetradecanedioate
PrecursorMZ: 273.17047
RT: 4.9729
ExactMass: 272.16237386
Spectrum_type: 2
charge: -1
Formula: C14H24O5-2
SMILES: C(CCCCCC(=O)[O-])CCCCC(CC(=O)[O-])O
Method: HCD
Collision_energy: [28.333334]
Isolation_window: 4.0
Ion_mode: N
Num Peaks: 82
59.0129	15.1
71.0129	7.9
71.0492	3.3
73.0284	2.1
74.0237	1.5
83.0127	2.4
83.0493	2.7
85.0285	2.6
87.0078	2.0
95.0491	1.6
96.9591	2.0
97.0285	2.0
99.0442	1.6
99.0805	7.1
101.0598	4.7
109.0647	1.8
111.0806	7.0
115.0391	28.5
125.0713	1.5
127.0503	6.1
127.0759	1.9
127.1118	3.4
129.0912	6.2
132.0811	1.9
134.0600	1.5
136.0758	3.9
137.0962	2.1
138.0553	5.3
139.1119	13.0
148.0759	6.4
150.0916	2.2
152.0710	3.4
153.0916	1.9
155.0707	13.4
155.1068	4.3
157.1226	6.6
161.0715	2.7
169.0615	1.8
171.1021	4.4
173.0448	5.9
173.0817	1.9
173.1175	3.8
180.0661	1.8
182.0448	4.9
187.1333	5.5
193.1589	2.6
201.1489	3.2
203.0946	2.1
209.1907	1.9
211.1696	4.1
214.1237	2.0
225.2218	1.6
227.0669	1.5
228.0895	3.5
230.1179	1.6
232.1346	1.7
236.0918	2.0
237.1129	3.9
237.1495	4.6
242.1059	3.0
253.1810	1.5
254.1848	1.5
255.1139	3.8
255.1597	6.3
257.1293	47.4
257.1748	3.5
271.1913	15.0
271.2272	2.3
272.0780	10.0
272.0820	5.1
272.1335	1.5
272.1549	2.0
272.1949	13.6
273.0317	2.2
273.0347	3.3
273.0951	1.8
273.1365	2.3
273.1706	100.0
274.1739	15.3
275.1043	8.3
275.1826	9.5
275.1861	33.1

Name: 3-methyl-2-(((2R)-pyrrolidine-2-carbonyl)amino)butanoic acid
PrecursorMZ: 213.12407
RT: 6.1512
ExactMass: 214.13174244
Spectrum_type: 2
charge: -1
Formula: C10H18N2O3
SMILES: CC(C)C(C(=O)O)NC(=O)[C@H]1CCCN1
Method: HCD
Collision_energy: [28.333334]
Isolation_window: 4.0
Ion_mode: N
Num Peaks: 25
59.0130	3.2
71.0130	7.2
88.0396	2.9
98.0239	4.0
112.0396	5.1
114.0553	3.3
115.0028	5.1
116.0709	12.5
125.0599	4.2
126.0302	3.6
128.0346	2.9
140.0711	4.1
141.1027	3.2
153.0551	3.1
168.1023	4.9
169.1341	22.8
212.0898	6.8
213.0772	3.5
213.1243	100.0
213.1848	5.6
214.0722	2.8
214.1281	9.7
215.0547	8.7
215.0900	3.7
215.1288	3.3

Name: 3-methyl-2-(((2R)-pyrrolidine-2-carbonyl)amino)pentanoic acid
PrecursorMZ: 227.13978
RT: 3.1025
ExactMass: 228.1473925
Spectrum_type: 2
charge: -1
Formula: C11H20N2O3
SMILES: CCC(C)C(C(=O)O)NC(=O)[C@H]1CCCN1
Method: HCD
Collision_energy: [28.333334]
Isolation_window: 4.0
Ion_mode: N
Num Peaks: 28
59.0130	9.8
82.0652	11.8
100.0758	9.8
116.0709	9.7
130.0868	7.1
139.1120	51.9
154.1229	13.7
155.0819	19.0
181.1345	22.3
182.0272	6.8
183.1159	8.6
183.1499	78.6
184.0400	8.0
184.1344	33.0
184.1533	7.2
208.9766	6.4
225.1257	8.4
226.1075	7.8
227.0355	57.3
227.0564	10.1
227.1039	8.2
227.1407	100.0
227.1654	10.0
227.2009	26.2
228.0373	9.3
228.1443	11.6
229.0703	9.0
229.1560	7.7

Name: 3-methyl-2-(((2S)-5-oxopyrrolidine-2-carbonyl)amino)butanoic acid
PrecursorMZ: 227.10338
RT: 4.8735
ExactMass: 228.111007
Spectrum_type: 2
charge: -1
Formula: C10H16N2O4
SMILES: CC(C)C(C(=O)O)NC(=O)[C@@H]1CCC(=O)N1
Method: HCD
Collision_energy: [28.333334]
Isolation_window: 4.0
Ion_mode: N
Num Peaks: 95
59.0130	3.7
70.0288	1.3
71.0130	1.3
71.0243	1.1
72.9923	2.0
73.0286	0.9
82.0289	12.9
83.0494	0.9
84.0445	2.1
85.0287	1.8
87.0078	1.7
88.0396	1.0
94.0288	1.1
95.0493	0.9
96.0445	6.1
97.0286	1.5
98.0239	2.4
99.0444	1.0
100.0759	1.0
109.0286	1.1
109.0650	0.9
110.0238	1.6
111.0082	1.2
111.0191	1.3
111.0316	0.8
111.0442	1.2
112.0395	4.7
112.0759	2.7
113.0348	42.9
114.0555	0.9
115.0392	2.3
116.0708	8.4
121.0527	0.9
121.0650	1.5
122.0606	1.2
123.0447	1.2
123.0807	1.0
124.0398	2.0
124.0762	1.0
125.0237	0.9
125.0599	1.2
126.0553	1.6
127.0392	1.1
127.0505	2.0
127.0869	12.0
136.0068	1.1
137.0601	1.3
139.0758	1.4
140.0711	0.9
140.1073	1.0
141.1023	1.4
152.0709	1.4
154.0740	1.4
155.0819	2.0
155.1180	2.2
156.0660	1.4
159.0766	0.8
164.0714	1.4
167.0345	0.8
167.0709	0.9
168.0293	1.4
182.0821	1.1
182.1296	2.4
183.0658	0.9
183.0796	1.8
183.1134	100.0
184.1169	9.2
185.0815	1.3
185.0933	2.6
185.1653	3.9
212.0718	1.3
213.0793	1.8
225.0877	0.8
225.1135	0.8
225.1243	0.6
226.0694	1.9
226.0714	2.7
226.1098	1.1
227.0074	1.0
227.0551	5.2
227.1037	94.9
227.1281	2.1
227.1399	2.9
227.2014	3.4
228.0876	1.3
228.1036	25.7
228.1066	10.0
228.1244	1.2
228.1715	1.2
229.0688	1.2
229.0838	7.9
229.1074	2.5
229.1184	1.5
229.1557	12.2
229.1584	1.2

Name: 3-methyl-2-(((2S)-5-oxopyrrolidine-2-carbonyl)amino)pentanoic acid
PrecursorMZ: 241.11911
RT: 4.832
ExactMass: 242.12665706
Spectrum_type: 2
charge: -1
Formula: C11H18N2O4
SMILES: CCC(C)C(C(=O)O)NC(=O)[C@@H]1CCC(=O)N1
Method: HCD
Collision_energy: [28.333334]
Isolation_window: 4.0
Ion_mode: N
Num Peaks: 165
58.0291	2.0
58.9953	2.0
59.0130	6.5
70.0290	3.2
71.0129	4.0
72.9924	1.8
73.0287	3.6
74.0238	17.6
82.0289	12.4
82.0655	1.7
83.0494	4.1
84.0446	5.3
85.0286	2.1
87.0078	4.0
88.0395	11.6
94.0289	7.4
95.0238	2.9
95.0606	7.0
96.0446	3.4
96.9593	1.8
97.0285	1.8
97.0400	1.9
97.0649	5.9
98.0238	5.3
98.0603	5.9
100.0032	2.8
107.0371	3.3
108.0446	14.3
109.0400	7.8
110.0238	4.6
110.0602	3.0
110.9843	3.1
111.0191	2.7
111.0558	2.2
112.0395	5.8
112.0758	2.5
113.0349	3.9
114.0186	2.6
114.0550	6.2
114.0914	2.9
116.0167	5.2
116.0708	8.8
118.0654	4.5
122.0240	1.7
122.0603	4.2
123.0556	4.4
124.0396	14.3
124.0760	5.1
125.0349	3.8
125.0711	6.4
126.0189	7.2
126.0554	2.4
126.0917	4.3
127.0504	4.6
128.0346	7.5
128.0712	1.9
129.1025	3.2
130.0865	45.6
134.0605	2.1
135.0555	3.3
136.0397	11.6
136.0510	7.6
136.0760	3.4
137.0711	3.7
138.0553	3.7
138.0916	8.5
139.0868	5.1
140.0170	2.4
140.0710	2.1
140.1074	13.8
141.1024	12.7
142.0501	5.3
143.1184	2.7
148.0395	7.1
150.0554	17.9
151.0867	10.3
152.0344	3.0
152.0710	4.1
152.0823	3.5
153.0661	3.8
153.1025	5.4
155.0813	2.8
155.1184	8.4
156.0661	1.8
164.0705	4.3
164.0823	83.9
165.0657	3.8
165.0856	7.8
165.1026	3.2
166.0502	2.7
166.0867	1.7
167.0817	6.9
167.1177	2.8
168.0894	2.0
169.0613	3.7
169.0976	5.0
169.1334	5.0
178.0863	2.7
178.0977	3.1
179.0572	2.0
179.0818	2.4
179.1187	3.0
180.0659	11.7
180.1020	4.7
181.0978	6.5
181.1340	13.9
182.0820	1.8
184.0012	8.7
185.1656	2.6
195.1136	2.2
195.1498	1.8
196.0763	5.5
196.0968	4.2
196.1457	4.2
197.0559	3.9
197.0721	11.6
197.0923	4.4
197.1291	92.5
197.1656	11.9
198.0558	7.0
198.0574	2.8
198.0764	5.7
198.0929	6.8
198.1326	9.3
198.1498	3.0
199.0874	5.6
199.1082	25.5
199.1811	27.0
208.0726	23.8
209.0926	3.2
211.0729	2.9
213.1240	5.4
222.0762	1.9
224.0917	7.3
239.1036	3.0
239.1398	6.8
240.0499	4.5
240.0662	6.7
240.0837	13.9
240.0879	14.7
240.0998	7.8
240.1051	3.7
240.1250	7.0
240.1392	3.4
241.0677	14.5
241.0705	19.7
241.0984	6.6
241.1189	100.0
241.1553	38.1
241.2167	12.6
241.5739	5.3
242.0451	2.7
242.0633	12.0
242.0663	9.7
242.0822	6.0
242.1032	8.4
242.1238	10.7
242.1565	2.9
242.1596	1.7
242.1866	10.6
243.0771	2.6
243.0995	4.6
243.1138	5.0
243.1338	14.7
243.1712	92.7

Name: 3-methyl-2-(3-methyl-2-((2,4,5-trihydroxy-6-(hydroxymethyl)tetrahydro-2H-pyran-3-yl)amino)butanamido)pentanoic acid
PrecursorMZ: 391.20981
RT: 1.4843
ExactMass: 392.21586598
Spectrum_type: 2
charge: -1
Formula: C17H32N2O8
SMILES: CCC(C)C(C(=O)O)NC(=O)C(C(C)C)NC1C(C(C(OC1O)CO)O)O
Method: HCD
Collision_energy: [28.333334]
Isolation_window: 4.0
Ion_mode: N
Num Peaks: 39
74.0237	3.0
78.9583	4.0
88.0394	3.1
93.0336	17.7
114.0552	5.4
116.0709	16.0
129.1029	4.0
130.0865	21.2
147.0445	5.1
155.0813	4.0
164.0710	25.9
180.0661	4.6
185.1652	10.2
214.1450	4.0
216.0891	4.2
227.1403	3.7
229.1556	100.0
230.1589	11.5
233.1662	5.2
244.0838	4.0
255.2319	3.4
259.1446	5.8
271.1665	19.6
277.1558	10.6
287.1392	3.4
301.1771	71.3
302.1809	11.7
331.1874	5.6
346.1775	19.8
347.1776	8.9
390.1673	3.8
390.2051	61.5
391.1471	4.1
391.2059	53.3
391.2865	94.6
392.2171	15.4
392.2903	23.5
393.1756	3.6
393.2174	3.0

Name: 3-methyl-7-(3-methylbenzyl)-8-(nonylsulfanyl)-3,7-dihydro-1H-purine-2,6-dione
PrecursorMZ: 427.21546
RT: 4.4729
ExactMass: 428.22459745
Spectrum_type: 2
charge: -1
Formula: C23H32N4O2S
SMILES: CCCCCCCCCSC1=NC2=C(N1CC3=CC=CC(=C3)C)C(=O)NC(=O)N2C
Method: HCD
Collision_energy: [28.333334]
Isolation_window: 4.0
Ion_mode: N
Num Peaks: 26
69.2351	0.7
78.9581	3.3
79.9564	0.8
88.0394	1.1
94.9799	1.4
96.9591	13.0
114.0551	1.0
127.0503	1.4
130.0862	0.8
152.9950	7.8
225.2221	1.5
239.2371	0.7
255.2321	0.7
391.2852	1.9
425.2461	1.4
425.2870	1.3
425.2919	1.0
426.2446	0.8
426.2939	0.6
427.2155	100.0
427.3096	1.2
427.7564	1.6
428.2190	24.6
428.2638	1.1
429.1538	1.0
429.2150	4.7

Name: 3-phenyl-2-(((2R)-pyrrolidine-2-carbonyl)amino)propanoic acid
PrecursorMZ: 261.12461
RT: 4.9711
ExactMass: 262.13174244
Spectrum_type: 2
charge: -1
Formula: C14H18N2O3
SMILES: C1C[C@@H](NC1)C(=O)NC(CC2=CC=CC=C2)C(=O)O
Method: HCD
Collision_energy: [28.333334]
Isolation_window: 4.0
Ion_mode: N
Num Peaks: 25
59.0129	6.6
61.9875	6.3
98.0238	5.3
113.0711	40.8
114.0551	5.5
124.0397	5.6
135.0444	6.8
136.0759	12.0
137.0234	6.8
147.0444	14.0
181.0324	5.8
200.0710	100.0
201.0749	14.0
242.0819	10.8
244.9942	19.8
260.0931	17.1
260.0972	8.9
261.0774	6.0
261.0941	6.0
261.1242	66.4
261.1522	6.3
262.0768	5.9
262.0844	6.8
262.1291	7.2
263.0052	27.7

Name: 3-sulfo propionyl L-cysteine
PrecursorMZ: 271.99049
RT: 3.1669
ExactMass: 271.98986901
Spectrum_type: 2
charge: -1
Formula: C6H10NO7S2-
SMILES: C([C@@H](C(=O)[O-])[NH3+])SC(CS(=O)(=O)[O-])C(=O)O
Method: HCD
Collision_energy: [28.333334]
Isolation_window: 4.0
Ion_mode: N
Num Peaks: 22
80.9643	6.5
88.0395	3.6
96.9592	25.3
102.9850	14.1
112.9364	13.1
114.0552	35.8
116.9277	9.8
146.0274	35.6
158.0452	12.3
190.0175	10.1
191.0553	16.2
192.0331	74.5
193.0363	5.7
193.0539	3.2
208.0281	12.2
253.0027	3.0
271.0131	33.3
271.9905	100.0
272.8833	5.1
272.9904	3.7
273.0117	6.0
273.9866	4.9

Name: 4,12,18,26,29,37-Hexaoxa-7,8,9,14,16,21,22,23,32,33,34,41-dodecazaheptacyclo(13.13.9.13,27.16,9.113,17.121,24.131,34)dotetraconta-1(28),2,6(42),7,13,15,17(41),22,24(40),27(39),31(38),32-dodecaene
PrecursorMZ: 575.18871
RT: 5.8755
ExactMass: 576.19417653
Spectrum_type: 2
charge: -1
Formula: C24H24N12O6
SMILES: C1COC2=NC3=NC(=N2)OCCN4C=C(COC5=CC(=CC(=C5)OCC6=CN(CCO3)N=N6)OCC7=CN1N=N7)N=N4
Method: HCD
Collision_energy: [28.333334]
Isolation_window: 4.0
Ion_mode: N
Num Peaks: 5
257.1182	22.0
283.0975	5.4
301.1089	7.1
331.1189	100.0
332.1223	17.2

Name: 4-((2-Benzamido-3-methylbut-2-enoyl)amino)butanoate
PrecursorMZ: 321.14551
RT: 3.0608
ExactMass: 303.13448209
Spectrum_type: 2
charge: -1
Formula: C16H19N2O4-
SMILES: CC(=C(C(=O)NCCCC(=O)[O-])NC(=O)C1=CC=CC=C1)C
Method: HCD
Collision_energy: [28.333334]
Isolation_window: 4.0
Ion_mode: N
Num Peaks: 27
87.0079	9.5
109.0397	9.1
114.0552	11.7
128.0345	9.8
136.0760	9.5
152.0710	5.2
161.0720	6.5
162.0783	5.8
164.0709	5.7
196.0610	100.0
197.0647	6.8
209.0931	5.9
231.1502	15.2
232.1540	6.3
235.0726	4.6
257.1296	17.4
258.1332	9.6
275.1405	5.7
320.1121	7.5
320.1627	8.3
321.1069	5.5
321.1455	56.4
321.1839	7.1
322.0944	7.0
322.1429	13.5
323.0845	5.9
323.1614	5.4

Name: 4-(12-hydroxy-10,13-dimethyl-3-octadecanoyloxy-2,3,4,5,6,7,8,9,11,12,14,15,16,17-tetradecahydro-1H-cyclopenta(a)phenanthren-17-yl)pentanoic acid
PrecursorMZ: 657.54593
RT: 1.279
ExactMass: 658.55362546
Spectrum_type: 2
charge: -1
Formula: C42H74O5
SMILES: CCCCCCCCCCCCCCCCCC(=O)OC1CCC2(C(C1)CCC3C2CC(C4(C3CCC4C(C)CCC(=O)O)C)O)C
Method: HCD
Collision_energy: [28.333334]
Isolation_window: 4.0
Ion_mode: N
Num Peaks: 44
72.8390	0.5
72.9460	0.9
72.9506	1.7
73.0583	2.1
73.0630	4.4
73.1699	0.9
73.1745	1.8
74.0239	0.4
225.2219	1.4
239.2371	0.7
263.2379	2.5
264.2414	1.1
265.2534	9.7
266.2567	1.5
267.2329	0.6
281.2481	4.8
282.2515	2.5
283.2640	11.0
284.2676	2.0
307.1297	2.4
307.6309	1.0
308.1194	3.1
308.1372	3.5
308.6202	1.0
308.6383	1.3
309.1255	1.4
309.2426	1.1
309.6292	0.6
316.1350	1.0
327.2691	1.4
328.2725	0.4
329.2831	0.5
345.2802	1.0
347.2963	0.6
373.2747	17.7
374.2782	6.9
375.2816	0.8
655.5307	12.4
656.5348	38.0
657.3148	0.5
657.5460	100.0
657.7787	0.6
658.5496	40.8
659.5529	6.0

Name: 4-(12-hydroxy-10,13-dimethyl-3-octadecanoyloxy-2,3,4,5,6,7,8,9,11,12,14,15,16,17-tetradecahydro-1H-cyclopenta)a(phenanthren-17-yl)pentanoic acid
PrecursorMZ: 657.54728
RT: 0.5913
ExactMass: 658.55362546
Spectrum_type: 2
charge: -1
Formula: C42H74O5
SMILES: CCCCCCCCCCCCCCCCCC(=O)OC1CCC2(C(C1)CCC3C2CC(C4(C3CCC4C(C)CCC(=O)O)C)O)C
Method: HCD
Collision_energy: [28.333334]
Isolation_window: 4.0
Ion_mode: N
Num Peaks: 25
96.9591	0.3
265.1479	0.6
279.2330	24.9
280.2363	13.4
281.1842	0.7
281.1968	0.5
281.2485	100.0
281.2999	0.5
281.3132	0.7
282.2518	16.7
283.2562	1.0
299.2588	1.0
300.2599	0.3
373.2750	2.3
374.2785	2.0
375.1901	0.5
375.2905	75.8
375.3909	0.5
376.2939	23.3
377.2967	2.3
393.3006	0.6
655.5253	0.3
656.5369	0.9
657.5447	0.9
658.5474	0.4

Name: 4-(2-Carboxyethylamino)butanoate
PrecursorMZ: 174.07656
RT: 8.275
ExactMass: 174.07663286
Spectrum_type: 2
charge: -1
Formula: C7H12NO4-
SMILES: C(CC(=O)[O-])CNCCC(=O)O
Method: HCD
Collision_energy: [28.333334]
Isolation_window: 4.0
Ion_mode: N
Num Peaks: 6
71.0129	8.4
84.0445	10.8
88.0394	11.0
102.0552	100.0
114.0554	8.7
156.0658	15.2

Name: 4-(3,7,12-trihydroxy-10,13-dimethyl-2,3,4,5,6,7,8,9,11,12,14,15,16,17-tetradecahydro-1H-cyclopenta)a(phenanthren-17-yl)pentanoyl 5-oxopyrrolidine-2-carboperoxoate
PrecursorMZ: 534.30705
RT: 5.4466
ExactMass: 535.31451739
Spectrum_type: 2
charge: -1
Formula: C29H45NO8
SMILES: CC(CCC(=O)OOC(=O)C1CCC(=O)N1)C2CCC3C2(C(CC4C3C(CC5C4(CCC(C5)O)C)O)O)C
Method: HCD
Collision_energy: [28.333334]
Isolation_window: 4.0
Ion_mode: N
Num Peaks: 12
59.3692	4.1
102.0550	12.3
128.0343	47.6
146.0450	8.9
405.2643	35.4
406.2674	8.0
490.3156	8.0
491.3230	3.8
533.3084	7.8
534.3080	100.0
535.3183	39.8
536.3272	5.1

Name: 4-))3-Acetamido-4,5-dihydroxy-6-(hydroxymethyl)oxan-2-yl(amino(-2-amino-4-oxobutanoic acid
PrecursorMZ: 334.12522
RT: 5.4297
ExactMass: 335.13286464
Spectrum_type: 2
charge: -1
Formula: C12H21N3O8
SMILES: CC(=O)NC1C(C(C(OC1NC(=O)CC(C(=O)O)N)CO)O)O
Method: HCD
Collision_energy: [28.333334]
Isolation_window: 4.0
Ion_mode: N
Num Peaks: 18
61.9874	62.3
96.0081	17.1
99.0554	6.5
113.0346	67.8
145.0973	7.2
173.0923	100.0
179.0453	20.2
196.0719	58.6
197.0754	5.2
214.0827	29.7
245.1139	36.6
275.1249	5.2
316.1146	35.9
317.1161	6.0
332.1423	6.9
333.1682	12.3
334.1249	60.5
335.1479	24.8

Name: 4-Acetamidobutanoate
PrecursorMZ: 144.06572
RT: 6.2744
ExactMass: 144.066068181
Spectrum_type: 2
charge: -1
Formula: C6H10NO3-
SMILES: CC(=O)NCCCC(=O)[O-]
Method: HCD
Collision_energy: [28.333334]
Isolation_window: 4.0
Ion_mode: N
Num Peaks: 7
58.0289	39.6
100.0757	84.9
102.0550	100.0
126.0551	20.7
142.0653	19.4
143.0698	23.5
144.0657	40.6

Name: 4-Amino-2-((2-amino-3-hydroxybutanoyl)amino)-4-oxobutanoic acid
PrecursorMZ: 232.09342
RT: 7.4203
ExactMass: 233.10117059
Spectrum_type: 2
charge: -1
Formula: C8H15N3O5
SMILES: CC(C(C(=O)NC(CC(=O)N)C(=O)O)N)O
Method: HCD
Collision_energy: [28.333334]
Isolation_window: 4.0
Ion_mode: N
Num Peaks: 15
70.0289	39.8
71.0129	35.9
73.0397	67.4
87.0079	50.7
96.0081	83.4
114.0188	77.8
131.0453	37.7
160.0608	60.3
170.0565	82.8
188.0676	53.3
231.0507	52.6
231.0867	61.1
232.0955	88.4
233.0661	100.0
233.1024	47.2

Name: 4-Amino-2-((2-azaniumylacetyl)amino)-4-oxobutanoate
PrecursorMZ: 170.05654
RT: 6.6107
ExactMass: 189.07495584
Spectrum_type: 2
charge: -1
Formula: C6H11N3O4
SMILES: C(C(C(=O)[O-])NC(=O)C[NH3+])C(=O)N
Method: HCD
Collision_energy: [28.333334]
Isolation_window: 4.0
Ion_mode: N
Num Peaks: 20
71.0242	2.9
73.0398	3.4
96.0082	2.4
98.0239	4.6
109.0398	3.3
110.0241	3.4
111.0191	7.3
126.0665	100.0
127.0505	7.1
127.0697	4.0
127.0756	2.7
152.0457	3.1
153.0299	3.1
169.0505	2.0
170.0568	8.7
170.0813	3.7
171.0668	2.8
171.1018	8.3
171.1383	6.2
172.0607	3.1

Name: 4-Oxo-4-(5-oxo-1,4-diazepan-1-yl)butanoate
PrecursorMZ: 213.08778
RT: 6.28
ExactMass: 213.0875319
Spectrum_type: 2
charge: -1
Formula: C9H13N2O4-
SMILES: C1CN(CCNC1=O)C(=O)CCC(=O)[O-]
Method: HCD
Collision_energy: [28.333334]
Isolation_window: 4.0
Ion_mode: N
Num Peaks: 30
79.9563	12.7
86.0603	25.4
96.0447	13.9
98.0239	19.2
99.0079	25.3
109.0161	27.3
112.0395	15.0
113.0711	25.1
114.0554	33.7
116.0709	100.0
125.0602	11.9
126.0917	59.1
127.0505	16.1
128.0345	17.1
138.0667	12.1
141.0661	34.0
151.0760	15.1
152.0711	42.0
153.0663	19.5
171.0780	19.5
185.0564	58.3
195.0775	27.9
196.0603	18.9
212.0906	27.4
213.0878	26.0
213.1245	38.4
213.1852	15.5
214.0723	16.1
215.0675	18.7
215.1068	15.6

Name: 4-Oxo-4-phenylmethoxy-2-(phenylmethoxycarbonylamino)butanoic acid
PrecursorMZ: 356.11435
RT: 0.6053
ExactMass: 357.12123733
Spectrum_type: 2
charge: -1
Formula: C19H19NO6
SMILES: C1=CC=C(C=C1)COC(=O)CC(C(=O)O)NC(=O)OCC2=CC=CC=C2
Method: HCD
Collision_energy: [28.333334]
Isolation_window: 4.0
Ion_mode: N
Num Peaks: 21
61.9875	2.5
68.9399	1.4
97.3391	1.5
107.0492	1.6
109.0285	8.3
121.0287	5.6
122.0364	4.4
123.0444	3.9
130.0864	4.3
161.0607	1.7
205.0502	6.1
269.1184	7.9
270.1209	1.8
313.1083	100.0
314.1115	20.2
315.1139	2.0
355.1198	2.9
356.1164	2.2
356.2557	4.3
357.0955	2.1
358.0930	7.4

Name: 4-amino-5-(((1S)-1-carboxy-2-hydroxyethyl)amino)-5-oxopentanoic acid
PrecursorMZ: 233.07756
RT: 8.7659
ExactMass: 234.08518617
Spectrum_type: 2
charge: -1
Formula: C8H14N2O6
SMILES: C(CC(=O)O)C(C(=O)N[C@@H](CO)C(=O)O)N
Method: HCD
Collision_energy: [28.333334]
Isolation_window: 4.0
Ion_mode: N
Num Peaks: 13
74.0238	25.5
104.0345	82.2
127.0870	39.5
128.0346	35.7
141.0660	49.5
146.0452	32.4
171.0771	34.1
185.0562	74.3
215.0678	19.6
233.0785	59.8
233.1544	100.0
234.1576	16.8
235.1206	23.3

Name: 5,6,7,8-tetrahydroxy-2,2-dimethyl-5,6,7,8-tetrahydro-3H-chromen-4-one
PrecursorMZ: 243.08734
RT: 2.3327
ExactMass: 244.09468823
Spectrum_type: 2
charge: -1
Formula: C11H16O6
SMILES: CC1(CC(=O)C2=C(O1)C(C(C(C2O)O)O)O)C
Method: HCD
Collision_energy: [28.333334]
Isolation_window: 4.0
Ion_mode: N
Num Peaks: 37
59.0130	28.9
61.9874	3.7
72.9922	26.4
87.0077	6.6
98.0238	5.8
110.0238	12.3
111.0266	7.1
111.0446	4.3
125.0962	6.1
135.0441	5.5
137.0601	3.6
137.0963	33.2
140.0165	6.3
145.0975	100.0
146.1013	5.6
153.0914	3.8
156.0476	6.1
169.0865	4.5
181.0863	41.5
199.0426	5.2
199.0605	4.4
199.0974	11.7
199.1812	12.2
200.0560	5.9
241.0702	11.0
241.2171	6.4
242.0678	17.7
242.1038	15.7
243.0631	9.9
243.0867	51.0
243.1233	4.4
243.1713	66.5
244.0287	7.1
244.0913	6.0
244.1195	6.1
244.1747	6.7
245.0656	16.1

Name: 5-((1-Carboxy-2-methylpropyl)amino)-5-oxopentanoic acid
PrecursorMZ: 230.10283
RT: 7.0939
ExactMass: 231.11067264
Spectrum_type: 2
charge: -1
Formula: C10H17NO5
SMILES: CC(C)C(C(=O)O)NC(=O)CCCC(=O)O
Method: HCD
Collision_energy: [28.333334]
Isolation_window: 4.0
Ion_mode: N
Num Peaks: 6
112.0395	100.0
113.0346	10.4
116.0708	27.2
212.0921	29.3
229.1413	8.9
230.1018	15.4

Name: 5-((E)-3-(2,6-difluorophenyl)prop-2-enylidene)-1,3-dimethyl-1,3-diazinane-2,4,6-trione
PrecursorMZ: 305.07436
RT: 2.8569
ExactMass: 306.08159857
Spectrum_type: 2
charge: -1
Formula: C15H12F2N2O3
SMILES: CN1C(=O)C(=C/C=C/C2=C(C=CC=C2F)F)C(=O)N(C1=O)C
Method: HCD
Collision_energy: [28.333334]
Isolation_window: 4.0
Ion_mode: N
Num Peaks: 6
79.9565	15.5
96.9591	19.5
219.0624	77.7
220.0660	16.6
262.0684	100.0
307.0880	30.4

Name: 5-(2,5-Dioxopyrrolidin-1-yl)pentanoic acid
PrecursorMZ: 154.08662
RT: 2.9221
ExactMass: 199.0844579
Spectrum_type: 2
charge: -1
Formula: C9H13NO4
SMILES: C1CC(=O)N(C1=O)CCCCC(=O)O
Method: HCD
Collision_energy: [28.333334]
Isolation_window: 4.0
Ion_mode: N
Num Peaks: 30
69.0337	4.1
81.0336	3.0
83.0494	2.5
84.0082	100.0
84.0445	7.4
85.0115	3.9
85.0286	2.7
95.0128	2.4
98.0601	3.5
108.0209	4.4
109.0286	26.4
109.0650	6.5
110.0000	10.9
110.0239	2.6
111.0443	6.3
124.0760	29.0
125.0792	2.3
136.0760	15.9
137.9951	5.8
152.0709	3.0
153.0187	20.9
153.0553	4.2
154.0127	4.9
154.0615	4.2
154.0866	45.6
154.9465	4.7
155.0012	4.7
155.0344	13.3
155.0914	3.5
156.0120	3.0

Name: 5-(6-Amino-8-prop-1-ynylpurin-9-yl)-2-(hydroxymethyl)oxolan-3-ol
PrecursorMZ: 288.10851
RT: 7.6045
ExactMass: 289.11748936
Spectrum_type: 2
charge: -1
Formula: C13H15N5O3
SMILES: CC#CC1=NC2=C(N=CN=C2N1C3CC(C(O3)CO)O)N
Method: HCD
Collision_energy: [28.333334]
Isolation_window: 4.0
Ion_mode: N
Num Peaks: 17
59.0129	4.2
89.0235	5.7
107.0605	29.6
137.0711	5.8
138.0552	20.2
149.0712	7.2
161.0712	14.3
179.0818	8.5
180.0658	9.2
192.0663	5.1
197.0925	78.2
198.0957	6.6
227.1046	3.2
239.1029	4.9
287.1246	100.0
288.1035	21.4
288.1325	5.4

Name: 5-(Dideuterio(hydroxy)methyl)-4-(hydroxymethyl)-2-methylpyridin-1-ium-3-ol
PrecursorMZ: 150.05526
RT: 8.2216
ExactMass: 172.094271737
Spectrum_type: 2
charge: -1
Formula: C8H12NO3+
SMILES: [2H]C([2H])(C1=C[NH+]=C(C(=C1CO)O)C)O
Method: HCD
Collision_energy: [28.333334]
Isolation_window: 4.0
Ion_mode: N
Num Peaks: 7
94.0289	100.0
108.0195	27.7
108.0447	77.4
133.0146	28.0
150.0552	61.4
151.0252	41.4
151.0391	42.2

Name: 5-(but-3-ynoylamino)-2,4-dihydroxy-6-((1R,2R)-1,2,3-trihydroxypropyl)oxane-2-carboxylic acid
PrecursorMZ: 332.09893
RT: 5.3504
ExactMass: 333.10598118
Spectrum_type: 2
charge: -1
Formula: C13H19NO9
SMILES: C#CCC(=O)NC1C(CC(OC1[C@@H]([C@@H](CO)O)O)(C(=O)O)O)O
Method: HCD
Collision_energy: [28.333334]
Isolation_window: 4.0
Ion_mode: N
Num Peaks: 47
58.0289	7.2
59.0130	36.6
71.0130	12.8
72.9922	6.6
74.0239	6.6
81.0333	5.1
85.0285	5.7
87.0078	100.0
88.0394	7.3
97.0282	5.1
100.0395	11.4
109.0287	11.0
112.0397	7.0
114.0553	10.5
115.0029	5.9
120.0811	7.2
122.0602	9.9
123.0448	5.3
124.0763	5.6
126.0552	7.0
128.0351	5.3
130.0867	9.6
135.0441	6.9
136.0755	5.1
138.0553	8.4
148.0761	12.0
152.0702	5.0
155.1184	5.9
164.0707	5.4
168.0653	6.0
231.0905	7.6
244.0985	5.3
246.1131	9.7
267.0974	5.1
272.0774	62.1
273.0807	8.1
287.1397	7.3
289.1165	9.5
290.0865	6.3
315.1355	13.3
331.1221	11.6
331.1276	9.5
332.0974	76.9
333.1050	36.0
333.1460	23.1
333.1835	9.4
334.1784	7.7

Name: 5-)5-)3,4-Dihydroxy-5-)4-hydroxy-3-(2-hydroxyethoxy)-6-(hydroxymethyl)-5-methoxyoxan-2-yl(oxy-6-(hydroxymethyl)oxan-2-yl(oxy-3,4-dihydroxy-6-(2-hydroxyethoxymethyl)oxan-2-yl(oxy-6-(hydroxymethyl)oxane-2,3,4-triol
PrecursorMZ: 767.28194
RT: 9.7196
ExactMass: 768.2899379
Spectrum_type: 2
charge: -1
Formula: C29H52O23
SMILES: COC1C(OC(C(C1O)OCCO)OC2C(OC(C(C2O)O)OC3C(OC(C(C3O)O)OC4C(OC(C(C4O)O)O)CO)COCCO)CO)CO
Method: HCD
Collision_energy: [28.333334]
Isolation_window: 4.0
Ion_mode: N
Num Peaks: 14
59.0129	19.9
71.0129	16.8
89.0234	41.6
99.0440	10.8
101.0235	37.2
113.0232	12.0
119.0344	10.8
149.0446	10.1
151.0605	12.8
161.0454	11.4
179.0554	12.7
293.0883	9.3
767.2834	100.0
768.2898	31.5

Name: 5-Acetonyl-5-allyl-1-cyclohexylbarbituric acid
PrecursorMZ: 305.15042
RT: 2.1368
ExactMass: 306.15795719
Spectrum_type: 2
charge: -1
Formula: C16H22N2O4
SMILES: CC(=O)CC1(C(=O)NC(=O)N(C1=O)C2CCCCC2)CC=C
Method: HCD
Collision_energy: [28.333334]
Isolation_window: 4.0
Ion_mode: N
Num Peaks: 24
59.0129	8.2
97.0160	1.4
108.0445	4.8
110.0602	1.4
122.0602	5.9
124.0758	31.6
125.0793	2.0
136.0759	100.0
137.0793	7.7
138.0915	11.4
168.0658	40.0
169.0693	4.0
180.0659	24.7
181.0696	2.1
182.0816	14.0
188.1075	1.4
190.1230	1.5
218.1543	2.4
246.1522	1.4
261.1606	7.3
263.1762	5.6
305.1504	17.3
306.1540	3.3
307.1660	13.2

Name: 5-Acetylamino-6-formylamino-3-methyluracil
PrecursorMZ: 225.06265
RT: 2.0764
ExactMass: 226.07020481
Spectrum_type: 2
charge: -1
Formula: C8H10N4O4
SMILES: CC(=O)NC1=C(NC(=O)N(C1=O)C)NC=O
Method: HCD
Collision_energy: [28.333334]
Isolation_window: 4.0
Ion_mode: N
Num Peaks: 11
79.9563	4.7
83.0242	100.0
96.9594	4.9
140.0457	7.9
168.0409	37.4
183.0657	5.7
225.0622	39.6
226.1118	14.9
226.6136	7.2
227.0554	9.3
227.2017	8.2

Name: 5-Carbamoylmethyl uridine
PrecursorMZ: 300.08369
RT: 1.2533
ExactMass: 301.09099983
Spectrum_type: 2
charge: -1
Formula: C11H15N3O7
SMILES: C1=C(C(=O)NC(=O)N1C2C(C(C(O2)CO)O)O)CC(=O)N
Method: HCD
Collision_energy: [28.333334]
Isolation_window: 4.0
Ion_mode: N
Num Peaks: 22
59.0129	12.4
61.9875	100.0
113.0347	21.5
116.0498	8.1
124.0395	12.0
125.0348	37.6
167.0458	8.7
179.0819	12.3
183.0559	6.8
193.0725	72.5
205.0726	6.1
219.0777	6.9
227.1031	16.1
257.0778	75.9
258.0786	6.9
259.0822	6.8
298.1341	12.5
299.1147	63.6
300.1113	15.1
300.1505	6.1
301.1212	25.1
302.1223	6.5

Name: 5-Ethenyl-1-)4-hydroxy-5-(hydroxymethyl)oxolan-2-yl(pyrimidine-2,4-dione
PrecursorMZ: 253.0829
RT: 1.7986
ExactMass: 254.09027155
Spectrum_type: 2
charge: -1
Formula: C11H14N2O5
SMILES: C=CC1=CN(C(=O)NC1=O)C2CC(C(O2)CO)O
Method: HCD
Collision_energy: [28.333334]
Isolation_window: 4.0
Ion_mode: N
Num Peaks: 29
59.0130	4.0
66.0340	2.4
84.0445	3.5
87.0078	5.9
94.0289	100.0
95.0129	4.3
95.0321	4.5
98.0239	1.9
124.0396	9.5
125.0236	6.6
128.0344	3.3
135.0305	2.9
150.0552	1.9
177.0400	4.2
178.0514	1.8
179.0820	32.8
180.0122	1.9
180.0660	25.1
180.0842	2.6
209.0949	5.7
210.0766	13.5
251.0762	6.0
252.0332	5.1
252.0850	4.6
253.0843	19.4
254.0664	44.2
255.0662	3.3
255.0890	1.8
255.2325	6.4

Name: 5-Hydroxy-1-(4-Hydroxy-3-Methoxyphenyl)Decan-3-One
PrecursorMZ: 293.17531
RT: 4.3835
ExactMass: 294.18310931
Spectrum_type: 2
charge: -1
Formula: C17H26O4
SMILES: CCCCCC(CC(=O)CCC1=CC(=C(C=C1)O)OC)O
Method: HCD
Collision_energy: [28.333334]
Isolation_window: 4.0
Ion_mode: N
Num Peaks: 12
71.0129	9.8
88.0393	32.5
96.9590	15.5
220.1463	34.6
221.1540	95.6
222.1576	14.4
236.1049	100.0
237.1086	15.1
291.1995	17.2
292.2028	7.7
293.1776	46.7
294.1458	36.5

Name: 5-Methyl-4-((4-methylpyrazol-1-yl)methyl)-1,2-oxazole-3-carboxylate
PrecursorMZ: 220.07249
RT: 5.80045
ExactMass: 220.07221619
Spectrum_type: 2
charge: -1
Formula: C10H10N3O3-
SMILES: CC1=CN(N=C1)CC2=C(ON=C2C(=O)[O-])C
Method: HCD
Collision_energy: [28.333334]
Isolation_window: 4.0
Ion_mode: N
Num Peaks: 9
67.0293	75.7
73.0398	14.8
88.0395	20.4
96.0446	34.2
123.9012	27.2
174.0954	15.0
176.0823	34.3
219.1756	16.3
220.0728	100.0

Name: 5-N-Acetyl-9-O-acetyl-2-deoxy-2,3-didehydro-neuraminic acid
PrecursorMZ: 332.09887
RT: 5.8811
ExactMass: 333.10598118
Spectrum_type: 2
charge: -1
Formula: C13H19NO9
SMILES: CC(=O)N[C@@H]1[C@H](C=C(O[C@H]1[C@@H]([C@@H](COC(=O)C)O)O)C(=O)O)O
Method: HCD
Collision_energy: [28.333334]
Isolation_window: 4.0
Ion_mode: N
Num Peaks: 12
59.0130	56.8
71.0129	20.7
87.0079	100.0
100.0395	29.0
109.0286	15.2
138.0554	20.8
272.0778	67.0
331.0920	17.0
331.1768	62.5
331.2129	16.6
332.0967	26.6
333.1862	33.6

Name: 5-Vinyl-2'-deoxycytidine
PrecursorMZ: 252.09884
RT: 2.5333
ExactMass: 253.10625597
Spectrum_type: 2
charge: -1
Formula: C11H15N3O4
SMILES: C=CC1=CN(C(=O)N=C1N)[C@H]2C[C@@H]([C@H](O2)CO)O
Method: HCD
Collision_energy: [28.333334]
Isolation_window: 4.0
Ion_mode: N
Num Peaks: 20
59.0129	1.0
61.9874	2.0
71.0128	0.5
85.0285	0.4
89.0234	0.5
101.0234	0.4
113.0234	0.5
118.0401	25.0
119.0438	1.3
144.0559	3.2
146.0352	1.7
162.0665	3.3
174.0664	1.3
234.0878	1.2
250.1442	0.6
251.0795	0.6
252.0987	100.0
252.1532	0.6
253.1019	12.3
254.1027	1.1

Name: 5alpha-Pregn-20-en-2beta,3beta,4beta,15beta,16beta-pentol 2-sulfate
PrecursorMZ: 445.19039
RT: 3.0339
ExactMass: 446.19743921
Spectrum_type: 2
charge: -1
Formula: C21H34O8S
SMILES: C[C@]12CC[C@H]3[C@H]([C@@H]1[C@@H]([C@@H]([C@@H]2C=C)O)O)CC[C@@H]4[C@@]3(C[C@@H]([C@@H]([C@@H]4O)O)OS(=O)(=O)O)C
Method: HCD
Collision_energy: [28.333334]
Isolation_window: 4.0
Ion_mode: N
Num Peaks: 32
59.0129	1.8
72.9923	1.3
73.0286	2.6
79.9565	4.5
80.9643	5.9
85.0286	1.0
87.0079	2.6
96.9592	60.6
98.9551	2.6
99.0445	1.2
124.0066	1.8
147.0443	1.2
161.0238	1.6
164.0710	3.8
279.2325	1.4
367.1031	1.5
383.1538	1.0
413.1671	1.2
414.1640	1.2
427.1833	1.1
443.1722	26.2
443.2496	1.9
444.1788	27.5
444.2425	3.7
445.1428	16.3
445.1970	100.0
445.3274	1.4
446.1445	4.0
446.1990	23.2
446.3237	4.6
447.2060	26.2
447.3137	2.7

Name: 6,8-Dihydroxy-2-methylmercaptopurine
PrecursorMZ: 197.01397
RT: 2.4345
ExactMass: 198.02114662
Spectrum_type: 2
charge: -1
Formula: C6H6N4O2S
SMILES: CSC1=NC2=C(C(=O)N1)NC(=O)N2
Method: HCD
Collision_energy: [28.333334]
Isolation_window: 4.0
Ion_mode: N
Num Peaks: 10
66.0089	2.0
123.0066	1.8
127.0254	0.7
153.0047	23.7
154.0089	0.9
166.0126	1.9
179.0081	1.2
196.0107	100.0
197.0142	5.8
198.0151	1.1

Name: 6-(((Cyclohexylamino)carbonyl)amino)hexanoic acid
PrecursorMZ: 255.1713
RT: 3.0782
ExactMass: 256.17869263
Spectrum_type: 2
charge: -1
Formula: C13H24N2O3
SMILES: C1CCC(CC1)NC(=O)NCCCCCC(=O)O
Method: HCD
Collision_energy: [28.333334]
Isolation_window: 4.0
Ion_mode: N
Num Peaks: 21
88.0394	0.6
130.0865	8.5
131.0902	0.4
154.1230	0.4
183.1502	0.8
184.0014	1.0
211.1811	3.6
212.1839	0.5
254.0814	0.7
254.2246	1.1
255.0882	2.6
255.1156	0.7
255.1270	0.6
255.1717	100.0
255.2073	0.9
255.2327	51.6
255.5893	0.6
256.1749	14.1
256.2361	8.6
257.1767	0.8
257.2396	0.4

Name: 6-((10,13-dimethyl-17-(6-methylheptan-2-yl)-2,3,4,7,8,9,11,12,14,15,16,17-dodecahydro-1H-cyclopenta(a)phenanthren-3-yl)oxy)-3,4,5-trihydroxyoxane-2-carboxylic acid
PrecursorMZ: 561.38005
RT: 4.5204
ExactMass: 562.38695406
Spectrum_type: 2
charge: -1
Formula: C33H54O7
SMILES: CC(C)CCCC(C)C1CCC2C1(CCC3C2CC=C4C3(CCC(C4)OC5C(C(C(C(O5)C(=O)O)O)O)O)C)C
Method: HCD
Collision_energy: [28.333334]
Isolation_window: 4.0
Ion_mode: N
Num Peaks: 36
57.0337	1.3
59.0130	4.2
62.3738	2.3
62.3775	4.2
62.4852	0.7
62.4889	1.4
71.0130	12.8
72.9923	2.5
73.0286	0.6
75.0079	33.0
83.0130	0.7
85.0286	18.9
87.0079	6.2
89.0235	2.1
95.0130	2.6
99.0078	1.8
103.0027	0.6
112.0157	1.0
113.0236	17.2
114.0270	0.6
115.0030	0.8
117.0186	1.4
129.0186	1.9
130.9979	0.7
157.0136	2.0
175.0248	1.1
391.2846	0.7
543.3686	0.9
560.3598	0.8
561.1927	1.0
561.3801	100.0
561.5626	0.6
562.1987	0.6
562.3835	34.0
563.2955	1.0
563.3857	3.5

Name: 6-))(Cyclohexylamino)carbonyl(aminohexanoic acid
PrecursorMZ: 255.17099
RT: 1.454
ExactMass: 256.17869263
Spectrum_type: 2
charge: -1
Formula: C13H24N2O3
SMILES: C1CCC(CC1)NC(=O)NCCCCCC(=O)O
Method: HCD
Collision_energy: [28.333334]
Isolation_window: 4.0
Ion_mode: N
Num Peaks: 18
130.0864	10.7
184.0012	8.0
184.5030	2.1
200.5001	1.9
211.1808	3.7
228.0890	1.6
242.1052	2.4
254.0809	2.5
255.0880	21.7
255.1141	1.7
255.1713	100.0
255.2315	19.5
255.5895	4.9
256.0875	2.2
256.1746	13.5
256.2348	3.0
257.1289	22.0
257.1763	2.8

Name: 6-Amino-2-(2-aminopropanoylamino)hexanoic acid
PrecursorMZ: 216.13487
RT: 10.740725
ExactMass: 217.14264148
Spectrum_type: 2
charge: -1
Formula: C9H19N3O3
SMILES: CC(C(=O)NC(CCCCN)C(=O)O)N
Method: HCD
Collision_energy: [28.333334]
Isolation_window: 4.0
Ion_mode: N
Num Peaks: 15
61.9875	7.7
82.0401	11.9
87.0554	8.6
88.0394	12.9
106.0401	8.7
121.0511	8.6
132.0558	7.1
145.0976	24.7
147.0668	7.0
172.1449	42.9
189.0781	8.5
215.0093	12.7
216.0901	10.2
216.1351	100.0
217.1384	10.3

Name: 6-Ethoxy-3,4,5-trihydroxyoxane-2-carboxylic acid
PrecursorMZ: 221.06635
RT: 2.8133
ExactMass: 222.07395278
Spectrum_type: 2
charge: -1
Formula: C8H14O7
SMILES: CCOC1C(C(C(C(O1)C(=O)O)O)O)O
Method: HCD
Collision_energy: [28.333334]
Isolation_window: 4.0
Ion_mode: N
Num Peaks: 13
59.0129	4.9
61.9875	2.3
71.0130	100.0
72.0163	3.2
72.9923	2.2
75.0079	1.5
85.0285	7.6
87.0078	6.2
99.0079	1.5
113.0236	7.6
129.0187	2.3
221.0664	98.9
222.0698	8.9

Name: 7,8-Dihydroxyhexadecanedioic acid
PrecursorMZ: 317.19645
RT: 6.3491
ExactMass: 318.20423867
Spectrum_type: 2
charge: -1
Formula: C16H30O6
SMILES: C(CCCC(C(CCCCCC(=O)O)O)O)CCCC(=O)O
Method: HCD
Collision_energy: [28.333334]
Isolation_window: 4.0
Ion_mode: N
Num Peaks: 17
59.0129	2.5
128.0344	3.7
140.0167	3.2
219.1753	4.4
237.1862	3.4
255.1964	2.4
263.1650	6.2
281.1758	10.3
296.1639	4.4
299.1860	22.1
300.1893	3.4
315.1811	5.5
316.1412	3.2
316.1834	7.0
317.1965	100.0
318.2002	17.1
319.1670	4.2

Name: 7-)3,5-Dihydroxy-2-(3-hydroxyoct-1-enyl)cyclopentyl(-5,6-dihydroxyheptanoic acid
PrecursorMZ: 387.23923
RT: 3.5963
ExactMass: 388.24610348
Spectrum_type: 2
charge: -1
Formula: C20H36O7
SMILES: CCCCCC(C=CC1C(CC(C1CC(C(CCCC(=O)O)O)O)O)O)O
Method: HCD
Collision_energy: [28.333334]
Isolation_window: 4.0
Ion_mode: N
Num Peaks: 25
59.0128	2.5
61.9874	4.0
115.0392	12.1
171.1021	2.3
209.1543	4.4
227.1647	7.6
271.1553	11.6
289.2172	4.9
307.2274	5.2
333.2067	4.2
351.2178	22.8
352.2213	4.2
367.2133	2.3
368.2150	3.4
369.1910	11.5
369.2291	20.3
370.2329	4.8
385.2234	11.6
386.2274	19.7
387.0679	2.7
387.2013	52.2
387.2400	100.0
388.2044	10.7
388.2434	21.7
389.2127	5.2

Name: 7H-Purine-7-butanenitrile, 1,2,3,6-tetrahydro-1,3-dimethyl-2,6-dioxo-
PrecursorMZ: 246.09786
RT: 6.6089
ExactMass: 247.10692467
Spectrum_type: 2
charge: -1
Formula: C11H13N5O2
SMILES: CN1C2=C(C(=O)N(C1=O)C)N(C=N2)CCCC#N
Method: HCD
Collision_energy: [28.333334]
Isolation_window: 4.0
Ion_mode: N
Num Peaks: 21
59.0129	11.2
84.0444	45.5
85.0285	15.2
87.0078	7.6
106.0651	6.6
165.1278	16.4
170.0813	7.6
172.0760	17.4
184.0012	35.0
184.0760	6.6
198.0763	14.8
202.0866	11.4
209.1177	30.4
227.1285	45.2
228.0872	21.9
245.0649	16.4
245.1390	100.0
246.0980	40.6
246.1385	12.6
247.0814	13.2
248.0795	80.4

Name: 7H-purin-6-(15N)amine
PrecursorMZ: 134.04637
RT: 16.3204
ExactMass: 137.04856497
Spectrum_type: 2
charge: -1
Formula: C5H5N5
SMILES: C1=NC2=[14N]C=[15N]C(=C2N1)[15NH2]
Method: HCD
Collision_energy: [28.333334]
Isolation_window: 4.0
Ion_mode: N
Num Peaks: 17
65.0136	7.3
65.9977	3.3
67.0293	2.8
91.0293	8.9
92.0245	8.0
106.0406	4.1
107.0247	3.8
107.0355	20.0
107.0494	11.6
132.0558	3.6
133.0399	4.8
133.0507	3.7
134.0244	2.4
134.0357	11.5
134.0463	100.0
135.0437	22.5
136.0394	3.7

Name: 8,10-Dichloro-3,9-dimethoxy-1,4,7-trimethyl-6-oxo-2-benzo)b()1,4(benzodioxepincarboxylic acid methyl ester
PrecursorMZ: 439.03361
RT: 10.0063
ExactMass: 440.0429583
Spectrum_type: 2
charge: -1
Formula: C20H18Cl2O7
SMILES: CC1=C2C(=C(C(=C1Cl)OC)Cl)OC3=C(C(=C(C(=C3C)C(=O)OC)OC)C)OC2=O
Method: HCD
Collision_energy: [28.333334]
Isolation_window: 4.0
Ion_mode: N
Num Peaks: 25
79.9564	1.9
97.4651	1.2
255.0658	3.9
256.0691	0.9
269.0818	1.1
299.0559	5.2
300.0604	0.9
313.0719	0.6
315.0861	0.8
321.0068	3.1
322.0101	0.6
335.0242	1.6
336.0303	2.2
378.0049	0.7
379.0115	2.8
380.0207	43.9
381.0238	7.2
382.0200	1.8
437.0193	1.4
438.0201	1.4
438.9099	0.7
439.0337	100.0
440.0370	19.7
441.0303	1.0
441.0351	5.0

Name: 8-((2Z)-2-(2,6-dihydroxy-4-oxopyrimidin-5(4H)-ylidene)hydrazinyl)-6-hydroxy-7-(2-hydroxyethyl)-3-methyl-3,7-dihydro-2H-purin-2-one
PrecursorMZ: 363.08091
RT: 6.7142
ExactMass: 364.08798013
Spectrum_type: 2
charge: -1
Formula: C12H12N8O6
SMILES: CN1C2=C(C(=O)NC1=O)N(C(=N2)N=NC3=C(NC(=O)NC3=O)O)CCO
Method: HCD
Collision_energy: [28.333334]
Isolation_window: 4.0
Ion_mode: N
Num Peaks: 36
59.0130	2.8
72.9922	2.4
114.0554	2.6
117.0550	3.2
128.0345	3.2
130.0865	2.3
135.0444	3.0
138.0304	4.0
164.0711	1.9
181.0362	100.0
182.0402	5.4
201.0918	3.2
275.1656	2.7
317.1772	9.6
318.1795	2.0
319.1562	4.4
319.1926	9.5
320.1954	1.9
343.2130	3.2
361.1674	2.4
361.2240	26.0
362.1270	3.2
362.1311	4.3
362.1646	2.5
362.2272	6.8
363.1105	4.7
363.1461	31.6
363.1828	5.9
363.1885	6.7
363.2248	2.6
364.1060	3.5
364.1497	7.6
365.1232	2.4
365.1326	3.7
365.1619	2.0
365.1988	5.6

Name: 8-)(2Z)-2-(2,6-dihydroxy-4-oxopyrimidin-5(4H)-ylidene)hydrazinyl(-6-hydroxy-7-(2-hydroxyethyl)-3-methyl-3,7-dihydro-2H-purin-2-one
PrecursorMZ: 363.08109
RT: 2.1175
ExactMass: 364.08798013
Spectrum_type: 2
charge: -1
Formula: C12H12N8O6
SMILES: CN1C2=C(C(=O)NC1=O)N(C(=N2)N=NC3=C(NC(=O)NC3=O)O)CCO
Method: HCD
Collision_energy: [28.333334]
Isolation_window: 4.0
Ion_mode: N
Num Peaks: 15
110.0349	0.6
138.0301	1.5
166.0126	0.7
181.0030	0.8
181.0094	0.5
181.0362	100.0
181.0624	0.6
181.0694	0.7
182.0398	5.7
183.0408	0.5
191.0821	0.5
201.0871	0.7
203.0820	0.9
363.1466	0.6
364.1556	0.8

Name: 9-((2R,3S,4S,5R)-3,4-dihydroxy-5-(hydroxymethyl)oxolan-2-yl)-3H-purine-2,6-dione
PrecursorMZ: 283.06818
RT: 6.8276
ExactMass: 284.07568412
Spectrum_type: 2
charge: -1
Formula: C10H12N4O6
SMILES: C1=NC2=C(N1[C@H]3[C@H]([C@@H]([C@H](O3)CO)O)O)NC(=O)NC2=O
Method: HCD
Collision_energy: [28.333334]
Isolation_window: 4.0
Ion_mode: N
Num Peaks: 22
80.9641	1.9
108.0195	2.0
114.0547	1.7
121.0286	3.3
142.0653	1.8
149.0600	2.3
151.0253	35.4
153.0660	4.7
222.0226	5.6
239.1061	1.6
241.1231	31.5
267.1020	5.7
281.2484	15.7
282.2510	4.7
283.0393	2.7
283.0672	22.9
283.2640	100.0
284.0223	2.7
284.0722	3.3
284.1224	2.4
284.2675	19.2
285.1124	21.3

Name: 9-Hydroxy-3-methoxy-1,4,7-trimethyl-6-oxobenzo(b)(1,4)benzodioxepine-10-carbaldehyde
PrecursorMZ: 327.0871
RT: 6.5102
ExactMass: 328.09468823
Spectrum_type: 2
charge: -1
Formula: C18H16O6
SMILES: CC1=CC(=C(C2=C1C(=O)OC3=C(O2)C(=CC(=C3C)OC)C)C=O)O
Method: HCD
Collision_energy: [28.333334]
Isolation_window: 4.0
Ion_mode: N
Num Peaks: 56
59.0128	0.6
93.0336	0.9
107.0494	0.6
119.0493	28.5
121.0285	0.8
121.0650	7.8
135.0444	1.1
137.0235	1.2
145.0286	6.0
145.0651	1.1
146.0365	0.7
147.0443	2.6
147.0810	0.8
163.0392	1.4
165.0549	10.5
173.0598	0.7
178.0264	3.6
183.0116	1.1
183.0812	0.8
199.1123	2.9
209.0602	1.9
210.0679	3.2
213.0909	0.7
223.0760	1.8
225.0916	17.6
226.0996	5.3
237.0917	9.4
238.0954	1.6
239.1074	26.8
240.1107	3.9
241.1231	51.7
249.0919	4.2
251.0703	0.9
252.0793	2.3
253.0860	0.7
258.0892	2.0
265.0869	4.4
266.0895	0.8
267.1025	26.3
283.0974	8.6
284.1004	1.7
285.1131	22.0
293.0818	2.6
299.2593	1.2
309.0765	1.9
311.0924	10.5
325.1842	15.2
326.1294	0.6
326.1875	5.3
327.0871	27.6
327.1847	1.6
327.1877	1.1
328.0898	5.0
329.0203	0.6
329.0915	0.7
329.1029	100.0

Name: Acetyl-L-leucyl-L-leucine
PrecursorMZ: 285.18194
RT: 3.0662
ExactMass: 286.18925731
Spectrum_type: 2
charge: -1
Formula: C14H26N2O4
SMILES: CC(C)C[C@@H](C(=O)N[C@@H](CC(C)C)C(=O)O)NC(=O)C
Method: HCD
Collision_energy: [28.333334]
Isolation_window: 4.0
Ion_mode: N
Num Peaks: 16
69.1530	1.5
78.9581	4.0
128.1072	3.9
130.0865	30.1
131.0903	2.0
197.1655	8.1
223.1814	13.6
224.1849	2.1
241.1556	2.2
241.1917	4.0
283.2643	39.5
284.2677	13.4
285.1267	2.4
285.1819	100.0
285.2703	1.5
286.1850	15.5

Name: Acetyl-L-methionine sulfoxide
PrecursorMZ: 206.04896
RT: 5.8309
ExactMass: 207.05652907
Spectrum_type: 2
charge: -1
Formula: C7H13NO4S
SMILES: CC(=O)N[C@@H](CCS(=O)C)C(=O)O
Method: HCD
Collision_energy: [28.333334]
Isolation_window: 4.0
Ion_mode: N
Num Peaks: 23
63.9616	13.8
72.0082	11.4
76.9694	14.5
77.0056	4.8
79.9564	18.7
84.0445	10.9
86.0238	96.6
96.0446	8.2
98.0602	100.0
99.0634	6.0
100.0396	5.1
112.0395	7.3
114.0188	19.0
128.0345	4.0
142.0502	80.8
143.0538	4.4
162.0569	5.4
164.0380	69.3
165.0420	4.1
191.0252	45.5
205.1593	16.5
206.0488	94.0
207.0514	6.6

Name: Acetylalanylalanine
PrecursorMZ: 201.08761
RT: 5.3089
ExactMass: 202.09535693
Spectrum_type: 2
charge: -1
Formula: C8H14N2O4
SMILES: C[C@@H](C(=O)N[C@@H](C)C(=O)O)NC(=O)C
Method: HCD
Collision_energy: [28.333334]
Isolation_window: 4.0
Ion_mode: N
Num Peaks: 7
84.0446	37.5
88.0395	100.0
115.0869	35.3
157.1338	13.1
200.0926	27.2
201.0892	27.8
201.1245	45.1

Name: Allantoin
PrecursorMZ: 157.03602
RT: 7.474
ExactMass: 158.04399007
Spectrum_type: 2
charge: -1
Formula: C4H6N4O3
SMILES: C1(C(=O)NC(=O)N1)NC(=O)N
Method: HCD
Collision_energy: [28.333334]
Isolation_window: 4.0
Ion_mode: N
Num Peaks: 3
97.0035	100.0
114.0301	87.3
157.1226	57.1

Name: Asparagylisoleucine
PrecursorMZ: 244.13
RT: 5.608475
ExactMass: 245.1375561
Spectrum_type: 2
charge: -1
Formula: C10H19N3O4
SMILES: CCC(C)C(C(=O)O)NC(=O)C(CC(=O)N)N
Method: HCD
Collision_energy: [28.333334]
Isolation_window: 4.0
Ion_mode: N
Num Peaks: 15
84.0082	16.1
98.0239	22.4
113.0348	26.5
114.0552	18.8
128.0343	11.0
130.0866	100.0
141.1025	19.4
155.0821	11.5
183.1136	11.3
199.0722	20.1
227.1036	18.7
243.0179	25.8
243.1211	11.4
244.1312	40.9
245.1396	12.2

Name: Boc-Lys(Cbz)(Cbz)-Lys(Cbz)(Cbz)-OH
PrecursorMZ: 641.31969
RT: 5.8467
ExactMass: 642.32647906
Spectrum_type: 2
charge: -1
Formula: C33H46N4O9
SMILES: CC(C)(C)OC(=O)N[C@@H](CCCCNC(=O)OCC1=CC=CC=C1)C(=O)N[C@@H](CCCCNC(=O)OCC2=CC=CC=C2)C(=O)O
Method: HCD
Collision_energy: [28.333334]
Isolation_window: 4.0
Ion_mode: N
Num Peaks: 25
69.0168	9.8
97.4640	6.2
134.0604	57.6
136.0399	7.3
138.0915	6.1
148.0756	8.0
152.0710	16.2
154.0867	22.2
178.0502	7.0
182.0820	10.5
245.1660	28.7
263.1759	8.7
271.1455	57.8
272.1479	7.2
289.1559	74.1
290.1601	8.6
307.1667	16.8
333.1460	100.0
334.1499	14.6
351.1562	12.1
569.2991	13.1
570.3031	5.3
623.3099	8.6
641.3208	82.2
642.3240	30.8

Name: C12-Sulfotetralin alkyl dicarboxylic acid
PrecursorMZ: 467.21047
RT: 2.99195
ExactMass: 468.21817466
Spectrum_type: 2
charge: -1
Formula: C24H36O7S
SMILES: C1CC(C2=C(C1CCCCCCCCC(=O)O)C=CC(=C2)S(=O)(=O)O)CCCCC(=O)O
Method: HCD
Collision_energy: [28.333334]
Isolation_window: 4.0
Ion_mode: N
Num Peaks: 14
51.9109	1.8
51.9136	4.7
52.1375	2.9
79.9564	29.0
80.9642	22.8
96.9591	21.3
385.2385	15.4
386.2430	3.4
387.2538	7.1
388.2573	2.2
425.3054	2.2
467.2107	100.0
468.2148	26.2
469.2260	63.7

PrecursorMZ: 254.01284
RT: 2.4964
Spectrum_type: 2
charge: -1
SMILES: C1=CC=C2C(=C1)C(C(=N2)S(=O)(=O)O)CC(=O)O
Method: HCD
Collision_energy: [28.333334]
Isolation_window: 4.0
Ion_mode: N
Num Peaks: 23
61.9874	4.1
79.9563	9.4
80.9642	3.3
96.9591	3.1
124.0397	1.3
130.0654	24.4
131.0689	2.5
149.0600	1.6
174.0554	10.0
191.0556	13.3
192.0595	1.0
210.0226	100.0
211.0259	10.0
212.0169	2.4
253.0009	2.0
253.0375	1.2
253.0722	1.0
253.1300	1.3
254.0128	52.1
255.0155	5.7
255.0576	3.3
255.2328	42.3
256.2365	1.1

PrecursorMZ: 202.0719
RT: 7.752
Spectrum_type: 2
charge: -1
SMILES: CC(=O)NC(CCCC(=O)O)C(=O)O
Method: HCD
Collision_energy: [28.333334]
Isolation_window: 4.0
Ion_mode: N
Num Peaks: 7
114.0915	20.4
116.0707	37.3
140.0709	35.0
142.0502	73.2
158.0818	30.3
160.0609	66.3
202.0715	100.0

PrecursorMZ: 289.14038
RT: 8.8379
Spectrum_type: 2
charge: -1
SMILES: CC(CC(=O)NCCCCC(C(=O)O)N)(CC(=O)O)O
Method: HCD
Collision_energy: [28.333334]
Isolation_window: 4.0
Ion_mode: N
Num Peaks: 33
59.0129	3.9
72.9922	5.5
87.0077	4.4
94.0289	4.1
108.0446	3.6
124.0395	5.8
126.0554	5.0
128.0345	7.0
130.0865	4.1
131.0817	18.7
145.0975	7.6
173.0563	3.6
181.0495	6.0
184.0973	9.8
187.1080	5.1
198.0879	6.7
201.1240	25.4
215.1036	4.5
227.1400	4.8
229.1191	3.9
247.1306	4.8
253.1191	9.0
258.1105	3.9
271.1302	5.9
287.1920	4.0
288.0831	6.4
288.1148	3.6
288.1178	10.2
288.1565	4.9
289.1050	5.9
289.1407	100.0
290.1449	13.2
291.1549	3.6

PrecursorMZ: 171.13812
RT: 1.2864
Spectrum_type: 2
charge: -1
SMILES: CCCCCCCC(=O)O
Method: HCD
Collision_energy: [28.333334]
Isolation_window: 4.0
Ion_mode: N
Num Peaks: 8
97.4639	2.9
142.1228	6.1
154.9465	10.6
170.1179	13.0
171.1026	3.0
171.1235	2.9
171.1382	100.0
172.1417	11.2

Name: Carbamoylglutamate
PrecursorMZ: 145.06105
RT: 9.5719
ExactMass: 188.04332136
Spectrum_type: 2
charge: -1
Formula: C6H8N2O5-2
SMILES: C(CC(=O)[O-])C(C(=O)[O-])NC(=O)N
Method: HCD
Collision_energy: [28.333334]
Isolation_window: 4.0
Ion_mode: N
Num Peaks: 7
102.0552	100.0
118.0403	51.3
127.0505	33.7
128.0345	52.3
145.0613	23.5
146.0239	15.9
146.0454	17.1

Name: Cbz-Ile-D-Trp-OMe
PrecursorMZ: 464.21938
RT: 4.6228
ExactMass: 465.2263711
Spectrum_type: 2
charge: -1
Formula: C26H31N3O5
SMILES: CC[C@H](C)[C@@H](C(=O)N[C@H](CC1=CNC2=CC=CC=C21)C(=O)OC)NC(=O)OCC3=CC=CC=C3
Method: HCD
Collision_energy: [28.333334]
Isolation_window: 4.0
Ion_mode: N
Num Peaks: 36
51.5795	3.4
51.7021	2.4
59.0141	3.6
71.0141	2.2
73.0254	2.5
73.0298	14.1
78.9594	3.7
86.0615	2.6
87.0092	2.0
96.9606	2.8
116.0497	13.4
120.0810	12.9
148.0772	2.2
152.0704	2.8
152.9954	6.1
164.0708	4.6
202.1603	2.2
228.1391	2.5
245.1658	100.0
246.1693	15.1
271.1451	4.4
281.2485	2.8
289.1558	7.7
321.1822	21.7
322.1847	4.5
388.2033	12.1
389.2025	2.9
419.3214	2.4
432.1930	6.8
462.2841	3.3
463.3001	27.9
464.2203	56.1
464.3025	9.1
465.2151	13.8
465.3148	40.6
466.3276	7.1

Name: Cyclo-(L-tyrosylglycyl)
PrecursorMZ: 219.07713
RT: 5.0792
ExactMass: 220.08479225
Spectrum_type: 2
charge: -1
Formula: C11H12N2O3
SMILES: C1C(=O)N[C@@H](C(=O)N1)CC2=CC=C(C=C2)O
Method: HCD
Collision_energy: [28.333334]
Isolation_window: 4.0
Ion_mode: N
Num Peaks: 13
72.0082	10.5
81.9926	13.4
83.0242	11.5
84.0082	15.8
96.9592	9.0
99.0191	89.6
111.0192	48.6
113.0348	100.0
180.0784	18.7
217.1443	22.1
218.1185	23.6
219.0773	61.2
220.0578	24.4

Name: Cyclopentenosine
PrecursorMZ: 380.18295
RT: 6.1176
ExactMass: 381.18998559
Spectrum_type: 2
charge: -1
Formula: C18H27N3O6
SMILES: C1CC(N=C2C1CC(=C2CCCC(C(=O)O)N)CCC(C(=O)O)N)C(=O)O
Method: HCD
Collision_energy: [28.333334]
Isolation_window: 4.0
Ion_mode: N
Num Peaks: 7
136.0760	75.9
151.0254	17.9
259.1451	48.9
261.1608	100.0
262.1646	16.1
305.1505	41.4
347.1248	26.5

Name: DL-Arginine
PrecursorMZ: 173.10353
RT: 12.3148
ExactMass: 174.1116757
Spectrum_type: 2
charge: -1
Formula: C6H14N4O2
SMILES: C(CC(C(=O)O)N)CN=C(N)N
Method: HCD
Collision_energy: [28.333334]
Isolation_window: 4.0
Ion_mode: N
Num Peaks: 13
114.0550	1.6
131.0816	100.0
132.0853	5.3
154.9464	24.6
155.9457	2.6
156.0769	5.8
156.9425	1.2
171.0195	0.7
172.9571	5.1
173.0232	0.9
173.1035	18.7
174.0186	2.8
174.1073	1.0

Name: Decane-1,1,10-tricarboxylic acid
PrecursorMZ: 273.13442
RT: 8.409
ExactMass: 274.14163842
Spectrum_type: 2
charge: -1
Formula: C13H22O6
SMILES: C(CCCCC(C(=O)O)C(=O)O)CCCCC(=O)O
Method: HCD
Collision_energy: [28.333334]
Isolation_window: 4.0
Ion_mode: N
Num Peaks: 60
59.0130	4.7
71.0130	1.9
75.0079	3.6
78.9581	1.8
85.0285	2.7
87.0078	4.6
97.0652	1.7
107.0494	4.6
109.0287	3.2
111.0077	1.7
111.0442	2.6
114.0551	1.5
115.0030	2.5
123.0809	2.0
125.0601	5.0
128.0347	3.3
129.0552	1.9
131.0817	1.8
135.0444	3.2
139.0392	2.0
139.0756	1.9
149.0602	1.6
155.1074	1.6
165.1280	2.7
167.0704	3.1
167.1435	4.7
173.0453	5.7
187.0762	1.4
193.1228	3.4
211.1336	43.9
212.1370	5.8
217.1078	2.3
227.1291	2.1
229.0984	2.6
229.1441	2.4
231.0664	2.6
254.0655	2.0
255.0487	1.6
255.1239	18.6
256.0938	1.5
256.1262	2.1
271.1197	1.9
271.1248	2.3
271.1540	2.4
271.1558	2.2
271.2280	4.2
272.0751	2.2
272.1228	1.9
273.0585	6.5
273.0709	1.7
273.0870	2.3
273.0998	1.4
273.1345	100.0
273.1600	1.9
273.1685	2.4
274.0696	1.9
274.1379	14.3
274.1672	3.3
275.0544	3.7
275.1157	8.4

Name: Dehydrolysinorleucine
PrecursorMZ: 255.13268
RT: 1.9933
ExactMass: 273.16885622
Spectrum_type: 2
charge: -1
Formula: C12H23N3O4
SMILES: C(CCN=CCCCC(C(=O)O)N)CC(C(=O)O)N
Method: HCD
Collision_energy: [28.333334]
Isolation_window: 4.0
Ion_mode: N
Num Peaks: 16
59.0129	4.9
74.0238	7.7
79.9563	1.1
96.9591	5.1
108.0445	1.1
205.0880	15.5
205.5895	4.1
253.2173	1.7
254.0700	1.2
254.0935	2.5
255.0894	3.0
255.1331	2.5
255.2326	100.0
256.1937	4.0
256.2359	17.2
257.1740	2.1

Name: Deuterio 1,3,3,4,4-pentadeuterio-5-oxopyrrolidine-2-carboxylate
PrecursorMZ: 128.03449
RT: 7.4108
ExactMass: 135.080253561
Spectrum_type: 2
charge: -1
Formula: C5H7NO3
SMILES: [2H]C1(C(N(C(=O)C1([2H])[2H])[2H])C(=O)O[2H])[2H]
Method: HCD
Collision_energy: [28.333334]
Isolation_window: 4.0
Ion_mode: N
Num Peaks: 9
79.9565	1.4
82.0289	3.9
84.0445	1.0
85.0286	2.2
127.0393	1.0
128.0345	100.0
128.0707	0.9
129.0381	6.2
130.0865	7.7

Name: Di-imidazole lexitropsin
PrecursorMZ: 360.15634
RT: 4.8046
ExactMass: 361.1610855
Spectrum_type: 2
charge: -1
Formula: C14H19N9O3
SMILES: CN1C=C(N=C1C(=O)NC2=CN(C(=N2)C(=O)NCCC(=N)N)C)NC=O
Method: HCD
Collision_energy: [28.333334]
Isolation_window: 4.0
Ion_mode: N
Num Peaks: 31
69.2264	4.7
78.9581	10.1
88.0393	3.5
116.0708	8.2
130.0862	4.2
131.0367	4.1
136.0757	6.2
138.0916	9.7
151.0869	14.9
164.0708	4.5
175.0505	4.1
177.0662	100.0
178.0697	7.3
195.0771	51.2
196.0806	4.4
247.2063	13.4
269.1498	5.4
279.2336	4.0
287.1392	4.7
323.2228	10.0
341.2331	24.0
342.2368	6.0
358.2190	5.4
359.1967	5.3
359.2439	87.3
360.1559	52.2
360.2083	6.6
360.2482	15.9
361.1605	15.3
361.2056	3.8
362.1714	10.3

Name: Enterolactone-d6
PrecursorMZ: 297.1134
RT: 1.9877
ExactMass: 304.15816953
Spectrum_type: 2
charge: -1
Formula: C18H18O4
SMILES: [2H]C1=CC(=C(C(=C1C[C@@H]2COC(=O)[C@H]2CC3=C(C(=C(C=C3[2H])[2H])O)[2H])[2H])O)[2H]
Method: HCD
Collision_energy: [28.333334]
Isolation_window: 4.0
Ion_mode: N
Num Peaks: 27
59.0130	7.2
107.0493	0.8
119.0492	0.2
121.0649	0.3
139.1120	0.2
141.1277	1.4
155.1436	0.2
165.0554	0.3
189.0555	0.5
251.2381	0.2
253.1235	1.2
253.2535	1.4
254.1268	0.2
281.2489	1.9
295.2282	1.8
296.2324	0.5
297.1136	4.1
297.1522	0.6
297.2436	18.0
298.1171	0.6
298.2470	3.3
299.0876	0.2
299.1883	0.7
299.2317	0.8
299.2591	100.0
299.3147	0.5
299.3301	0.5

Name: Ethanol lumiflavine
PrecursorMZ: 285.09904
RT: 2.1153
ExactMass: 286.10659032
Spectrum_type: 2
charge: -1
Formula: C14H14N4O3
SMILES: CC1=CC2=C(C=C1C)N(C3=NC(=O)NC(=O)C3=N2)CCO
Method: HCD
Collision_energy: [28.333334]
Isolation_window: 4.0
Ion_mode: N
Num Peaks: 28
69.3213	4.3
74.0238	8.2
78.9581	14.7
88.0394	33.4
116.0710	3.9
197.1288	4.4
198.0668	10.5
215.1396	8.1
216.0771	4.6
240.0649	8.2
241.0726	63.6
242.1866	7.1
255.0884	20.1
267.0885	57.1
268.0914	8.8
283.1464	8.8
283.1923	3.7
283.1962	4.5
283.2640	69.2
283.6475	4.6
284.2672	19.3
285.0989	100.0
285.1246	6.2
285.1702	6.7
286.1024	18.6
286.1764	33.7
287.1114	3.7
287.1404	9.6

Name: Etifenin
PrecursorMZ: 259.14486
RT: 4.8905
ExactMass: 322.15287181
Spectrum_type: 2
charge: -1
Formula: C16H22N2O5
SMILES: CCC1=C(C(=CC=C1)CC)NC(=O)CN(CC(=O)O)CC(=O)O
Method: HCD
Collision_energy: [28.333334]
Isolation_window: 4.0
Ion_mode: N
Num Peaks: 49
74.0238	11.8
83.0493	2.9
84.0447	1.5
88.0394	12.6
97.0161	2.0
101.0711	3.6
110.0350	6.7
110.0601	1.4
120.0445	2.8
122.0601	9.5
124.0759	5.9
130.0864	3.6
134.0603	7.3
135.0685	5.2
136.0759	100.0
137.0598	5.4
137.0793	6.4
138.0552	1.9
138.0915	5.5
143.1180	2.1
187.1085	4.3
188.1071	4.0
195.1747	9.5
196.1779	2.5
199.0630	2.4
214.0858	3.9
214.1557	7.1
216.1390	9.3
218.1543	1.4
228.0907	2.2
230.1049	3.3
239.1648	11.0
240.1681	4.0
242.1056	2.7
243.1127	2.8
244.1208	3.8
257.1299	16.7
257.1751	32.6
257.2380	2.5
258.1286	5.5
258.1451	14.5
258.1494	10.5
258.1543	12.7
258.1777	8.7
258.6560	3.9
259.1450	29.4
260.1489	5.4
261.1231	1.5
261.1615	5.6

Name: FMDP-L-valine
PrecursorMZ: 314.13549
RT: 6.9192
ExactMass: 315.1430354
Spectrum_type: 2
charge: -1
Formula: C13H21N3O6
SMILES: CC(C)[C@@H](C(=O)[O-])NC(=O)[C@H](CNC(=O)/C=C/C(=O)OC)[NH3+]
Method: HCD
Collision_energy: [28.333334]
Isolation_window: 4.0
Ion_mode: N
Num Peaks: 8
96.0082	59.5
116.0708	39.8
196.0610	92.6
200.9260	33.4
270.1094	100.0
312.1717	55.1
313.1734	29.3
314.1340	43.4

Name: Gaba carboxy-14C
PrecursorMZ: 102.05514
RT: 9.601266666666668
ExactMass: 105.06657052
Spectrum_type: 2
charge: -1
Formula: C4H9NO2
SMILES: C(C[14C](=O)O)CN
Method: HCD
Collision_energy: [28.333334]
Isolation_window: 4.0
Ion_mode: N
Num Peaks: 4
57.0337	8.1
84.0446	14.6
101.0600	18.4
102.0551	100.0

Name: Gln-Ala
PrecursorMZ: 216.0986
RT: 7.23865
ExactMass: 217.10625597
Spectrum_type: 2
charge: -1
Formula: C8H15N3O4
SMILES: C[C@@H](C(=O)O)NC(=O)[C@H](CCC(=O)N)N
Method: HCD
Collision_energy: [28.333334]
Isolation_window: 4.0
Ion_mode: N
Num Peaks: 6
88.0395	100.0
154.0971	11.5
155.0819	12.1
171.0769	32.9
199.0722	9.7
216.0995	55.6

Name: Gln-Asp
PrecursorMZ: 260.0887
RT: 8.716
ExactMass: 261.09608521
Spectrum_type: 2
charge: -1
Formula: C9H15N3O6
SMILES: C(CC(=O)N)[C@@H](C(=O)N[C@@H](CC(=O)O)C(=O)O)N
Method: HCD
Collision_energy: [28.333334]
Isolation_window: 4.0
Ion_mode: N
Num Peaks: 15
71.0129	26.6
78.9582	13.2
87.0077	26.4
88.0395	35.1
112.0509	20.4
115.0028	42.9
127.0505	30.3
128.0345	16.7
144.0771	72.8
145.0613	62.5
180.0774	14.4
198.0885	29.6
216.0987	22.8
260.0892	100.0
260.1147	18.0

Name: Glu-Met(O)
PrecursorMZ: 293.08098
RT: 4.4835
ExactMass: 294.08855747
Spectrum_type: 2
charge: -1
Formula: C10H18N2O6S
SMILES: CS(=O)CCC(C(=O)O)NC(=O)C(CCC(=O)O)N
Method: HCD
Collision_energy: [28.333334]
Isolation_window: 4.0
Ion_mode: N
Num Peaks: 20
61.9873	8.1
100.0394	11.0
102.0549	9.4
128.0344	38.2
135.0445	8.3
146.0450	64.7
149.1077	8.1
164.0378	48.8
167.0815	18.3
184.0608	10.4
185.0923	12.1
193.0975	38.6
194.0817	8.9
201.0508	21.6
229.0826	21.4
275.0707	50.2
278.0577	7.1
293.0812	100.0
293.1776	10.5
295.0830	12.4

Name: Glutaminylisoleucine
PrecursorMZ: 258.14561
RT: 5.6929
ExactMass: 259.15320616
Spectrum_type: 2
charge: -1
Formula: C11H21N3O4
SMILES: CCC(C)C(C(=O)O)NC(=O)C(CCC(=O)N)N
Method: HCD
Collision_energy: [28.333334]
Isolation_window: 4.0
Ion_mode: N
Num Peaks: 19
70.0288	5.5
88.0394	8.3
127.0504	16.3
129.1024	10.0
130.0864	39.5
143.1181	6.8
145.0606	5.8
148.0395	5.7
196.1448	29.4
197.1289	9.1
214.1554	11.1
240.1347	18.9
256.2360	52.6
257.1293	16.9
257.1734	5.0
257.2385	10.1
258.1458	100.0
259.1476	16.3
260.1038	12.9

Name: Glutamylphenylalanine
PrecursorMZ: 293.11409
RT: 6.8286
ExactMass: 294.12157168
Spectrum_type: 2
charge: -1
Formula: C14H18N2O5
SMILES: C1=CC=C(C=C1)CC(C(=O)O)NC(=O)CCC(C(=O)O)N
Method: HCD
Collision_energy: [28.333334]
Isolation_window: 4.0
Ion_mode: N
Num Peaks: 12
127.0503	55.8
128.0343	28.9
130.0865	98.0
146.0241	13.9
147.0443	18.3
164.0709	100.0
204.0520	21.9
236.1053	12.8
249.1240	35.5
275.1036	70.9
293.1144	68.9
294.1121	23.5

Name: GlyTouCan:G21783WE
PrecursorMZ: 723.29376
RT: 7.914333333333333
Spectrum_type: 2
charge: -1
SMILES: C[C@H]1[C@H]([C@H]([C@@H](C(O1)O)NC(=O)C)O[C@]2(C[C@@H]([C@@H]([C@@H](O2)[C@@H]([C@H](C)O[C@@H]3[C@H]([C@H](C([C@H](O3)CO)O)O)NC(=O)C)NC(=O)C)NC(=O)C)O)C(=O)O)O
Method: HCD
Collision_energy: [28.333334]
Isolation_window: 4.0
Ion_mode: N
Num Peaks: 13
88.0395	8.3
169.0609	21.4
202.0715	31.1
211.0720	7.6
214.0713	9.9
229.0826	34.0
303.1194	56.4
304.1215	5.7
329.1352	30.8
347.1464	21.6
577.2353	14.5
723.2947	100.0
724.2976	33.6

Name: GlyTouCan:G71257IB
PrecursorMZ: 376.10151
RT: 9.8
Spectrum_type: 2
charge: -1
SMILES: C(COP(=O)(O)OC[C@@H]1[C@H]([C@@H]([C@H](C(O1)OCC(CO)O)O)O)O)N
Method: HCD
Collision_energy: [28.333334]
Isolation_window: 4.0
Ion_mode: N
Num Peaks: 13
59.0130	2.0
78.9581	44.3
87.0079	3.4
128.0343	2.2
140.0111	100.0
141.0145	2.3
208.1092	2.7
315.0476	4.5
375.2878	3.3
375.3311	3.0
376.1018	85.5
376.1702	3.9
377.1057	11.4

Name: GlyTouCan:G94102NU
PrecursorMZ: 609.15572
RT: 9.0606
Spectrum_type: 2
charge: -1
SMILES: C1[C@H]([C@H]([C@H](OC1(C(=O)O)O)[C@@H](CO)O)O)O[C@@H]2[C@@H]([C@H]([C@@H]([C@H](O2)COP(=O)(O)O[C@@H]3[C@@H]([C@H]([C@H](CO3)N)O)O)O)O)N
Method: HCD
Collision_energy: [28.333334]
Isolation_window: 4.0
Ion_mode: N
Num Peaks: 8
96.9592	28.1
113.0348	22.1
125.0235	21.7
131.0452	17.1
155.0456	20.9
199.0720	49.6
511.1783	100.0
512.1830	17.9

Name: H-Ala-Glu-OH
PrecursorMZ: 217.08259
RT: 4.6071
ExactMass: 218.09027155
Spectrum_type: 2
charge: -1
Formula: C8H14N2O5
SMILES: CC(C(=O)NC(CCC(=O)O)C(=O)O)N
Method: HCD
Collision_energy: [28.333334]
Isolation_window: 4.0
Ion_mode: N
Num Peaks: 35
85.0285	0.7
86.0238	0.9
87.0554	1.4
88.0395	10.3
100.0394	0.7
102.0551	18.2
114.0552	0.8
126.0550	0.7
128.0345	43.9
129.0381	1.4
129.1025	2.7
144.0659	1.9
146.0220	0.7
146.0270	0.8
146.0353	1.1
146.0452	100.0
147.0488	2.9
154.0504	1.4
154.9467	2.3
155.0818	1.5
172.0612	0.6
172.9573	3.7
173.0452	0.9
173.0926	6.4
198.0403	0.7
199.0720	6.0
200.0562	9.3
200.0740	0.6
215.0091	0.7
216.0322	0.8
216.8544	0.6
217.0834	11.6
218.0464	0.7
218.0665	7.7
218.0860	1.1

Name: H-DL-Asp-DL-Val-Gly-DL-Pro-OH
PrecursorMZ: 323.17258
RT: 2.4426
ExactMass: 386.18014918
Spectrum_type: 2
charge: -1
Formula: C16H26N4O7
SMILES: CC(C)C(C(=O)NCC(=O)N1CCCC1C(=O)O)NC(=O)C(CC(=O)O)N
Method: HCD
Collision_energy: [28.333334]
Isolation_window: 4.0
Ion_mode: N
Num Peaks: 7
96.9591	5.8
113.0348	100.0
114.0385	4.7
196.0613	5.0
323.1756	35.8
324.1756	6.1
325.1845	55.9

Name: H-DL-Pyr-DL-Gln-DL-Gln-OH
PrecursorMZ: 384.15232
RT: 7.3205
ExactMass: 385.15974809
Spectrum_type: 2
charge: -1
Formula: C15H23N5O7
SMILES: C1CC(=O)NC1C(=O)NC(CCC(=O)N)C(=O)NC(CCC(=O)N)C(=O)O
Method: HCD
Collision_energy: [28.333334]
Isolation_window: 4.0
Ion_mode: N
Num Peaks: 7
61.9875	22.5
126.0187	15.7
127.0505	18.8
133.0864	19.8
145.0610	42.0
238.0828	45.2
384.1527	100.0

Name: H-DL-Val-DL-Tyr-DL-Tyr-DL-Phe-OH
PrecursorMZ: 589.26714
RT: 3.1282666666666668
ExactMass: 590.27404956
Spectrum_type: 2
charge: -1
Formula: C32H38N4O7
SMILES: CC(C)C(C(=O)NC(CC1=CC=C(C=C1)O)C(=O)NC(CC2=CC=C(C=C2)O)C(=O)NC(CC3=CC=CC=C3)C(=O)O)N
Method: HCD
Collision_energy: [28.333334]
Isolation_window: 4.0
Ion_mode: N
Num Peaks: 54
58.0289	1.4
65.4723	2.0
65.4762	4.1
73.0398	7.3
74.0239	8.9
83.0242	3.1
99.0191	14.1
113.0349	3.8
116.0494	2.0
118.0654	2.5
119.0493	4.7
157.0764	2.7
158.0606	2.0
162.0554	4.9
163.0394	4.2
166.1230	2.3
175.0871	2.8
180.0661	22.9
193.0977	5.8
197.0714	2.9
200.0826	4.4
201.0666	8.0
203.0822	2.0
214.0983	1.6
218.0935	2.0
219.0773	8.3
223.1452	2.1
224.1291	5.2
237.0879	13.4
240.0777	30.0
241.0809	2.8
253.0857	7.9
254.0931	7.8
281.1520	3.0
321.1243	5.9
323.1409	3.0
338.1516	2.0
350.1508	20.4
350.1874	1.3
351.1530	2.5
359.1515	2.9
360.1341	2.1
365.1138	5.2
377.1617	6.3
378.1660	1.2
382.1411	4.0
390.1830	3.2
404.1262	1.3
571.2559	9.2
572.2605	2.9
573.2708	3.0
589.2674	100.0
590.2707	29.2
591.2821	37.3

Name: H-Glu-Thr-Ala-Val-OH
PrecursorMZ: 417.19963
RT: 6.6948
ExactMass: 418.20636393
Spectrum_type: 2
charge: -1
Formula: C17H30N4O8
SMILES: C[C@H]([C@@H](C(=O)N[C@@H](C)C(=O)N[C@@H](C(C)C)C(=O)O)NC(=O)[C@H](CCC(=O)O)N)O
Method: HCD
Collision_energy: [28.333334]
Isolation_window: 4.0
Ion_mode: N
Num Peaks: 17
83.0243	11.9
88.0393	15.6
116.0711	9.0
127.0504	16.9
128.0345	24.4
129.1024	16.2
180.1026	15.9
225.0514	100.0
226.0546	12.0
267.0991	12.8
355.1630	35.4
399.1889	43.9
400.1929	10.2
415.2234	10.7
416.2225	10.3
417.2009	52.1
418.2032	11.8

Name: H-Val-Lys-OH
PrecursorMZ: 244.16618
RT: 9.3078
ExactMass: 245.1739416
Spectrum_type: 2
charge: -1
Formula: C11H23N3O3
SMILES: CC(C)C(C(=O)NC(CCCCN)C(=O)O)N
Method: HCD
Collision_energy: [28.333334]
Isolation_window: 4.0
Ion_mode: N
Num Peaks: 4
145.0974	27.2
200.1760	37.4
244.1662	100.0
245.1700	11.5

Name: H-Val-trp-OH
PrecursorMZ: 302.15067
RT: 2.5004
ExactMass: 303.15829154
Spectrum_type: 2
charge: -1
Formula: C16H21N3O3
SMILES: CC(C)C(C(=O)NC(CC1=CNC2=CC=CC=C21)C(=O)O)N
Method: HCD
Collision_energy: [28.333334]
Isolation_window: 4.0
Ion_mode: N
Num Peaks: 29
69.3704	5.4
73.0284	4.3
74.0237	13.5
78.9580	38.5
115.0868	23.3
116.0496	5.5
116.0707	21.4
129.1024	17.6
130.0864	5.7
136.0758	7.6
155.0815	6.8
173.0923	57.4
183.1125	5.4
185.1650	4.1
203.0818	8.9
216.1392	6.8
231.1134	7.1
243.1135	11.5
256.2036	6.8
257.1294	4.4
258.1603	8.4
259.1445	19.5
300.1922	27.4
301.1209	25.1
301.1950	10.9
302.1507	100.0
303.1332	22.1
303.1574	7.3
304.1303	4.1

Name: Ile-Met(O)
PrecursorMZ: 277.12274
RT: 5.5103
ExactMass: 278.13002836
Spectrum_type: 2
charge: -1
Formula: C11H22N2O4S
SMILES: CCC(C)C(C(=O)NC(CCS(=O)C)C(=O)O)N
Method: HCD
Collision_energy: [28.333334]
Isolation_window: 4.0
Ion_mode: N
Num Peaks: 8
87.0077	11.3
130.0869	15.4
169.1342	28.8
185.0928	13.9
213.1243	31.2
262.0995	14.6
277.1228	100.0
279.2324	10.5

Name: Indole-3-acetic acid, 1-((N-hydroxycarbamoyl)methyl)-5-methoxy-2-methyl-, tert-butyl ester
PrecursorMZ: 347.161
RT: 3.9673
ExactMass: 348.16852187
Spectrum_type: 2
charge: -1
Formula: C18H24N2O5
SMILES: CC1=C(C2=C(N1CC(=O)NO)C=CC(=C2)OC)CC(=O)OC(C)(C)C
Method: HCD
Collision_energy: [28.333334]
Isolation_window: 4.0
Ion_mode: N
Num Peaks: 13
61.9874	21.2
88.0393	4.8
139.0981	3.3
147.0555	67.5
148.0587	5.7
229.1300	3.9
247.1084	100.0
248.1115	13.6
345.1408	9.2
347.1608	60.4
348.1046	6.8
348.1661	9.8
349.1977	10.9

Name: Ingavirin
PrecursorMZ: 224.10345
RT: 5.9639
ExactMass: 225.11134135
Spectrum_type: 2
charge: -1
Formula: C10H15N3O3
SMILES: C1=C(NC=N1)CCNC(=O)CCCC(=O)O
Method: HCD
Collision_energy: [28.333334]
Isolation_window: 4.0
Ion_mode: N
Num Peaks: 24
59.0130	10.6
71.0130	8.2
79.9564	44.2
80.9642	19.2
87.0441	15.4
96.0444	13.6
96.9592	9.0
110.0714	100.0
113.0236	6.4
124.0397	6.3
126.0554	11.7
154.0614	84.8
162.1029	14.5
180.1141	11.1
181.0988	9.2
181.1229	24.4
187.1085	9.1
193.0984	7.5
206.0927	19.2
224.1038	92.8
225.0070	85.0
225.0876	9.0
225.1095	13.2
225.1613	14.0

Name: Isethionic Acid
PrecursorMZ: 124.99055
RT: 4.0933
ExactMass: 125.99867984
Spectrum_type: 2
charge: -1
Formula: C2H6O4S
SMILES: C(CS(=O)(=O)O)O
Method: HCD
Collision_energy: [28.333334]
Isolation_window: 4.0
Ion_mode: N
Num Peaks: 4
79.9564	33.9
94.9799	37.9
106.9800	9.2
124.9906	100.0

Name: Isolariciresinol sulfate
PrecursorMZ: 439.10633
RT: 1.13045
ExactMass: 440.11410351
Spectrum_type: 2
charge: -1
Formula: C20H24O9S
SMILES: COC1=C(C=C2C(C(C(CC2=C1)CO)COS(=O)(=O)O)C3=CC(=C(C=C3)O)OC)O
Method: HCD
Collision_energy: [28.333334]
Isolation_window: 4.0
Ion_mode: N
Num Peaks: 13
79.9564	84.5
80.9642	13.6
96.9591	7.5
329.1029	32.0
330.1054	6.9
344.1263	42.3
345.1299	8.2
359.1499	36.9
360.1538	8.1
439.1064	100.0
439.2237	3.5
440.1094	20.9
441.1069	4.8

Name: L-Arogenic acid
PrecursorMZ: 226.07185
RT: 2.3906
ExactMass: 227.07937252
Spectrum_type: 2
charge: -1
Formula: C10H13NO5
SMILES: C1=CC(C=CC1O)(C[C@@H](C(=O)O)N)C(=O)O
Method: HCD
Collision_energy: [28.333334]
Isolation_window: 4.0
Ion_mode: N
Num Peaks: 48
59.0129	19.5
83.0495	2.0
108.0445	2.7
109.0287	2.3
114.0551	6.7
119.0493	3.3
121.0648	2.8
123.0319	1.9
124.0396	2.7
127.0391	1.7
135.0808	2.3
136.0394	2.0
136.1121	1.7
137.0960	1.7
138.0555	2.4
139.0756	18.0
139.1121	6.3
150.0551	2.4
165.0188	1.7
165.0549	12.5
165.0906	2.4
165.1277	8.3
166.0478	1.7
180.1015	2.1
181.0834	2.2
181.0993	1.8
181.1205	2.0
182.0816	13.9
183.1012	13.1
183.1380	9.8
191.1067	1.8
209.1176	11.0
213.0791	4.1
224.0912	2.5
225.0398	3.6
225.0735	9.0
225.1136	2.4
225.1610	2.3
226.0717	76.5
226.1081	7.1
227.0551	9.2
227.0746	5.9
227.0926	4.6
227.1055	1.9
227.1275	100.0
227.2004	4.5
228.0848	5.6
228.1312	6.8

Name: L-Glutamic acid, L-alanyl-L-alanyl-
PrecursorMZ: 288.1199
RT: 8.5574
ExactMass: 289.12738533
Spectrum_type: 2
charge: -1
Formula: C11H19N3O6
SMILES: C[C@@H](C(=O)N[C@@H](C)C(=O)N[C@@H](CCC(=O)O)C(=O)O)N
Method: HCD
Collision_energy: [28.333334]
Isolation_window: 4.0
Ion_mode: N
Num Peaks: 54
59.0129	8.1
72.9923	9.0
84.0446	7.7
85.0286	4.8
87.0077	6.5
87.0556	5.4
88.0395	23.0
94.0292	4.7
102.0551	24.6
108.0447	6.1
109.0288	5.7
109.0399	25.0
114.0552	12.6
116.0710	5.5
124.0398	4.8
126.0557	5.0
128.0345	75.1
129.1028	7.7
131.0819	9.3
141.0662	18.6
145.0975	26.7
146.0450	14.2
149.0605	5.4
157.0612	17.3
158.0927	12.4
159.0768	62.3
171.0768	9.7
171.1134	14.7
181.0496	8.4
181.0629	17.1
185.1288	8.5
187.1084	9.2
199.1081	9.1
200.1405	6.1
200.1764	14.3
216.1349	10.5
217.1189	26.5
227.1394	6.2
229.1194	6.8
243.1346	19.1
244.0978	4.8
244.1310	22.0
244.1660	24.3
245.1700	8.9
247.1292	10.8
270.1101	14.3
286.1885	30.7
287.0924	12.4
287.1256	56.1
287.1914	17.6
288.0873	7.4
288.1204	100.0
289.1418	88.8
290.1246	11.0

Name: L-Valyl-L-glutamic acid
PrecursorMZ: 245.11378
RT: 7.7468
ExactMass: 246.12157168
Spectrum_type: 2
charge: -1
Formula: C10H18N2O5
SMILES: CC(C)C(C(=O)NC(CCC(=O)O)C(=O)O)N
Method: HCD
Collision_energy: [28.333334]
Isolation_window: 4.0
Ion_mode: N
Num Peaks: 65
57.0337	5.6
59.0128	5.4
71.0128	4.8
87.0076	4.4
88.0394	27.4
93.0449	5.5
94.0652	18.5
95.0241	22.3
99.0440	4.1
100.0394	15.4
102.0550	42.9
112.0394	5.3
112.0756	7.9
115.0027	20.0
115.0867	15.0
116.0707	77.2
117.0741	4.1
128.0344	40.3
129.1024	47.1
130.0865	21.4
136.0759	4.2
137.0712	3.9
138.0550	7.7
140.0820	5.7
142.0500	29.5
142.0864	3.7
144.0657	11.6
146.0450	3.2
146.0819	3.8
148.0760	2.9
152.0823	4.9
154.0334	4.7
156.0658	46.3
157.0697	3.3
157.1338	24.5
158.0814	5.3
167.0462	3.1
168.0298	5.3
174.0769	4.1
182.0813	4.7
183.1130	12.0
184.0721	49.2
185.0761	3.6
186.0763	8.1
190.9416	15.2
200.0920	7.1
201.1238	48.4
202.1274	5.1
204.0867	10.1
226.1079	3.7
227.1032	40.3
228.0868	3.9
228.1068	4.2
244.0823	55.1
244.1182	7.6
245.0646	6.6
245.0662	5.0
245.0677	6.5
245.0857	3.7
245.1139	100.0
246.0941	4.1
246.0971	22.3
246.1188	9.6
247.0826	6.1
247.1200	4.4

Name: L-alanyl-D-aspartate
PrecursorMZ: 203.06698
RT: 4.9495
ExactMass: 203.06679646
Spectrum_type: 2
charge: -1
Formula: C7H11N2O5-
SMILES: C[C@@H](C(=O)N[C@H](CC(=O)[O-])C(=O)[O-])[NH3+]
Method: HCD
Collision_energy: [28.333334]
Isolation_window: 4.0
Ion_mode: N
Num Peaks: 17
71.0129	8.2
87.0554	82.3
88.0395	92.0
115.0028	37.7
115.0866	7.3
139.1120	31.3
159.0768	72.1
167.0455	8.8
177.0203	6.8
183.1020	10.0
185.0564	14.3
201.1127	72.0
202.0153	14.2
202.0508	6.9
202.1156	14.6
203.0671	100.0
204.0699	9.0

Name: Lysine, DL-
PrecursorMZ: 145.09753
RT: 12.9411
ExactMass: 146.105527694
Spectrum_type: 2
charge: -1
Formula: C6H14N2O2
SMILES: C(CCN)CC(C(=O)O)N
Method: HCD
Collision_energy: [28.333334]
Isolation_window: 4.0
Ion_mode: N
Num Peaks: 10
118.0403	3.3
143.0351	4.7
143.0707	3.1
144.0196	1.8
144.0444	1.8
145.0507	2.4
145.0975	100.0
146.0240	5.8
146.1012	6.9
147.0187	1.6

Name: Methyl 4-(7,12-dihydroxy-3-hydroxyimino-10,13-dimethyl-1,2,4,5,6,7,8,9,11,12,14,15,16,17-tetradecahydrocyclopenta(a)phenanthren-17-yl)pentanoate
PrecursorMZ: 434.29074
RT: 4.5857
ExactMass: 435.29847341
Spectrum_type: 2
charge: -1
Formula: C25H41NO5
SMILES: CC(CCC(=O)OC)C1CCC2C1(C(CC3C2C(CC4C3(CCC(=NO)C4)C)O)O)C
Method: HCD
Collision_energy: [28.333334]
Isolation_window: 4.0
Ion_mode: N
Num Peaks: 18
69.0705	4.4
152.9949	3.4
364.2530	11.4
383.2600	4.6
389.3088	3.4
391.2852	41.5
392.2450	4.7
392.2875	10.2
401.2697	8.2
409.2936	3.9
432.3222	5.1
433.2936	100.0
433.8351	6.6
434.2972	27.2
434.3399	6.7
434.8432	6.5
435.3084	17.7
436.3154	3.5

Name: Methyl 4-(7,12-dihydroxy-3-hydroxyimino-10,13-dimethyl-1,2,4,5,6,7,8,9,11,12,14,15,16,17-tetradecahydrocyclopenta)a(phenanthren-17-yl)pentanoate
PrecursorMZ: 434.29158
RT: 0.62585
ExactMass: 435.29847341
Spectrum_type: 2
charge: -1
Formula: C25H41NO5
SMILES: CC(CCC(=O)OC)C1CCC2C1(C(CC3C2C(CC4C3(CCC(=NO)C4)C)O)O)C
Method: HCD
Collision_energy: [28.333334]
Isolation_window: 4.0
Ion_mode: N
Num Peaks: 13
96.9593	0.7
114.0552	1.0
158.0606	0.6
179.1186	0.6
389.2697	4.5
390.2733	4.0
391.1809	0.6
391.2857	100.0
391.3904	0.7
392.2892	27.7
393.2926	3.3
433.1953	0.7
435.2015	0.7

Name: N-((1S)-1-carboxy-2-(1H-indol-3-yl)ethyl)hexadecanimidate
PrecursorMZ: 441.31275
RT: 1.3672
ExactMass: 441.31171817
Spectrum_type: 2
charge: -1
Formula: C27H41N2O3-
SMILES: CCCCCCCCCCCCCCCC(=N[C@@H](CC1=CNC2=CC=CC=C21)C(=O)O)[O-]
Method: HCD
Collision_energy: [28.333334]
Isolation_window: 4.0
Ion_mode: N
Num Peaks: 14
74.0239	24.9
79.9565	5.7
96.9592	6.0
116.0499	5.5
203.0822	32.3
264.0914	11.1
294.2442	5.3
312.2556	9.4
424.1818	5.9
440.2067	13.0
441.3102	64.1
442.1906	100.0
442.3132	19.0
443.1921	17.8

Name: N-((1S)-3-amino-1-carboxy-3-oxopropyl)ethanimidate
PrecursorMZ: 155.04537
RT: 6.3928
ExactMass: 173.05623177
Spectrum_type: 2
charge: -1
Formula: C6H9N2O4-
SMILES: CC(=N[C@@H](CC(=O)N)C(=O)O)[O-]
Method: HCD
Collision_energy: [28.333334]
Isolation_window: 4.0
Ion_mode: N
Num Peaks: 5
58.0290	33.1
84.0446	22.5
96.0082	86.2
113.0348	41.4
155.0456	100.0

Name: N-((Acryloylamino)(3-nitrophenyl)methyl)acrylamide
PrecursorMZ: 274.08336
RT: 4.4692
ExactMass: 275.0906059
Spectrum_type: 2
charge: -1
Formula: C13H13N3O4
SMILES: C=CC(=O)NC(C1=CC(=CC=C1)[N+](=O)[O-])NC(=O)C=C
Method: HCD
Collision_energy: [28.333334]
Isolation_window: 4.0
Ion_mode: N
Num Peaks: 48
59.0129	6.5
72.9923	5.4
73.0286	5.7
79.9565	6.9
86.0238	4.8
88.0394	3.8
96.9592	6.3
109.0651	4.2
124.0397	5.1
139.0391	3.8
143.0608	7.2
144.0447	8.1
158.0607	4.7
160.0393	5.0
160.0758	3.8
171.0555	9.5
182.0843	8.0
183.0922	100.0
184.0957	12.9
197.0720	4.7
200.0952	18.5
201.1031	8.9
202.0491	5.1
229.1000	21.8
230.0939	51.8
230.0963	13.8
230.1176	4.2
231.0967	7.3
232.0991	6.8
245.0936	6.5
263.1487	4.5
272.1293	3.7
273.0815	4.1
273.0849	6.7
273.1173	3.7
273.6137	8.1
274.0709	8.8
274.0749	5.8
274.1088	7.4
275.0565	3.6
275.0850	5.6
275.0902	6.2
275.1309	36.1
275.1352	12.5
275.6307	10.8
276.0879	11.3
276.1400	7.5
276.1607	22.5

Name: N-(3-Methyl-1-oxobutyl)-L-glutamic acid
PrecursorMZ: 230.10334
RT: 0.6726
ExactMass: 231.11067264
Spectrum_type: 2
charge: -1
Formula: C10H17NO5
SMILES: CC(C)CC(=O)N[C@@H](CCC(=O)O)C(=O)O
Method: HCD
Collision_energy: [28.333334]
Isolation_window: 4.0
Ion_mode: N
Num Peaks: 39
59.0130	19.2
74.0238	3.0
96.9591	3.2
98.0238	4.6
99.0079	11.7
100.0759	4.7
101.0599	33.5
102.0552	26.1
116.0709	4.6
128.0345	51.5
130.0866	59.8
131.0902	3.8
142.1232	10.0
143.1180	5.4
146.0451	6.9
151.1127	3.3
158.0818	12.6
167.1072	10.4
168.1020	12.7
169.1226	28.4
171.1021	69.8
172.1057	3.7
184.0967	3.6
185.1174	17.2
185.1659	4.2
186.1128	22.5
187.1078	19.4
193.0864	3.0
211.0972	23.6
212.0922	37.3
213.0951	3.9
213.1127	13.4
229.0742	6.9
229.1076	74.0
229.1562	14.5
230.1034	59.8
231.1234	100.0
232.0591	4.0
232.1273	8.0

Name: N-(3-carboxylatopropanoyl)-L-glutamate(3-)
PrecursorMZ: 246.06168
RT: 9.2273
ExactMass: 244.04572666
Spectrum_type: 2
charge: -1
Formula: C9H10NO7-3
SMILES: C(CC(=O)[O-])[C@@H](C(=O)[O-])NC(=O)CCC(=O)[O-]
Method: HCD
Collision_energy: [28.333334]
Isolation_window: 4.0
Ion_mode: N
Num Peaks: 16
78.9582	9.3
88.0396	7.5
98.0239	85.6
99.0079	7.6
102.0552	25.3
128.0345	100.0
129.0381	6.7
139.0394	19.7
146.0451	67.4
182.0452	14.0
186.0406	6.6
228.0511	33.6
244.0459	9.2
246.9499	7.2
247.0450	9.6
248.0801	6.8

Name: N-(4-(2-((4-ethyl-3-methyl-5-oxo-2H-pyrrole-1-carbonyl)amino)ethyl)phenyl)sulfonyl-N'-(4-methylcyclohexyl)carbamimidate
PrecursorMZ: 489.21596
RT: 1.9959
ExactMass: 489.21716634
Spectrum_type: 2
charge: -1
Formula: C24H33N4O5S-
SMILES: CCC1=C(CN(C1=O)C(=O)NCCC2=CC=C(C=C2)S(=O)(=O)NC(=NC3CCC(CC3)C)[O-])C
Method: HCD
Collision_energy: [28.333334]
Isolation_window: 4.0
Ion_mode: N
Num Peaks: 19
54.3558	1.9
54.3587	4.6
78.9580	2.6
96.9591	4.7
130.0863	1.5
152.9854	3.5
152.9950	3.2
335.2226	69.6
336.2260	14.6
337.2281	1.1
487.2031	1.5
487.3465	2.7
488.2041	3.5
488.3661	1.7
489.2162	100.0
489.3659	1.2
490.2194	25.5
491.2169	5.8
491.2798	5.2

Name: N-(6-(4-((4-(dodecanoylamino)-5-oxohexanoyl)amino)butylamino)-2,6-dioxohexan-3-yl)dodecanamide
PrecursorMZ: 705.55465
RT: 4.8071
ExactMass: 706.56083609
Spectrum_type: 2
charge: -1
Formula: C40H74N4O6
SMILES: CCCCCCCCCCCC(=O)NC(CCC(=O)NCCCCNC(=O)CCC(C(=O)C)NC(=O)CCCCCCCCCCC)C(=O)C
Method: HCD
Collision_energy: [28.333334]
Isolation_window: 4.0
Ion_mode: N
Num Peaks: 15
78.3926	2.3
78.3977	3.9
78.5092	1.5
78.9580	59.0
140.0109	100.0
141.0148	1.7
152.9946	1.6
241.2170	1.5
255.2323	1.9
437.3154	4.3
438.3185	1.4
704.5420	2.7
705.5551	90.9
706.5596	35.4
707.5646	5.0

Name: N-(6-phenylhexanoyl)glycyl-l-tryptophan
PrecursorMZ: 434.20869
RT: 4.7349
ExactMass: 435.21580641
Spectrum_type: 2
charge: -1
Formula: C25H29N3O4
SMILES: C1=CC=C(C=C1)CCCCCC(=O)NCC(=O)N[C@@H](CC2=CNC3=CC=CC=C32)C(=O)O
Method: HCD
Collision_energy: [28.333334]
Isolation_window: 4.0
Ion_mode: N
Num Peaks: 57
59.0129	11.3
71.0130	1.7
72.9922	1.5
74.0237	1.4
78.9581	2.1
87.0080	1.8
96.9591	2.7
113.0346	1.6
114.0553	1.7
116.0498	3.8
120.0811	4.8
122.0604	3.0
122.0966	2.4
124.0760	38.3
125.0796	2.5
130.0866	2.2
135.0443	1.3
136.0761	6.5
138.0917	6.2
148.0761	5.6
152.9952	1.6
164.0709	2.8
165.1027	9.8
166.0870	1.5
168.0663	1.8
173.0456	1.6
180.0661	4.7
182.0817	15.0
191.0548	1.5
207.1019	3.5
219.1500	7.0
246.1496	1.2
247.1817	8.5
263.1767	7.6
273.1608	4.5
291.1716	100.0
292.1749	16.0
293.1779	1.3
305.1505	4.5
307.1665	36.7
317.1515	1.2
391.1996	1.3
391.2867	1.3
415.2882	2.2
433.1144	1.5
433.1897	5.9
433.2960	21.0
434.1614	2.0
434.2090	75.8
434.2937	4.7
435.1415	3.8
435.2142	21.5
435.3181	12.5
435.7666	1.3
436.1472	1.4
436.2163	3.8
436.3236	1.7

Name: N-)(2S,3R)-1,3-dihydroxyoctadec-4-en-2-yl(formamide
PrecursorMZ: 326.27015
RT: 0.5336333333333333
Spectrum_type: 2
charge: -1
SMILES: CCCCCCCCCCCCCC=CC(C(CO)NC=O)O
Method: HCD
Collision_energy: [28.333334]
Isolation_window: 4.0
Ion_mode: N
Num Peaks: 28
59.0129	1.1
96.9592	2.2
115.0760	1.2
183.0110	1.7
197.0277	1.1
271.0250	1.4
281.2477	1.1
283.0246	2.4
283.1455	3.0
283.2639	7.8
284.2672	1.5
299.0195	3.3
312.0272	2.6
324.6341	1.2
325.1033	2.3
325.1845	100.0
325.2378	1.3
326.1042	2.2
326.1880	22.1
327.0144	1.1
327.0511	1.7
327.0885	3.7
327.1261	2.1
327.1853	5.6
327.2550	2.1
328.0227	8.6
328.0836	1.5
328.1201	1.6

Name: N-Benzoylaspartic acid
PrecursorMZ: 236.05616
RT: 3.5615
ExactMass: 237.06372245
Spectrum_type: 2
charge: -1
Formula: C11H11NO5
SMILES: C1=CC=C(C=C1)C(=O)NC(CC(=O)O)C(=O)O
Method: HCD
Collision_energy: [28.333334]
Isolation_window: 4.0
Ion_mode: N
Num Peaks: 17
69.0337	1.4
122.0238	3.8
123.0317	1.8
128.0344	1.9
130.9304	1.4
149.0600	1.4
162.0554	1.2
192.0661	100.0
193.0696	10.8
234.0436	1.3
234.1093	1.8
235.1195	3.1
236.0563	34.4
236.1076	1.1
237.0582	3.7
237.0751	1.1
238.0727	1.3

Name: N-Methacryloyl-L-glutamic acid
PrecursorMZ: 214.07176
RT: 1.5271
ExactMass: 215.07937252
Spectrum_type: 2
charge: -1
Formula: C9H13NO5
SMILES: CC(=C)C(=O)NC(CCC(=O)O)C(=O)O
Method: HCD
Collision_energy: [28.333334]
Isolation_window: 4.0
Ion_mode: N
Num Peaks: 17
84.0445	37.0
128.0345	27.3
152.0714	2.5
154.9470	2.5
172.9572	3.9
184.0607	2.6
196.0614	3.8
213.0761	6.4
213.1522	2.4
213.1855	14.4
214.0722	8.7
214.1080	100.0
215.0093	6.4
215.0917	2.8
215.1112	9.8
215.1290	4.1
216.0307	4.5

Name: N-Succinyl-L-proline
PrecursorMZ: 214.07173
RT: 3.3073
ExactMass: 215.07937252
Spectrum_type: 2
charge: -1
Formula: C9H13NO5
SMILES: C1CC(N(C1)C(=O)CCC(=O)O)C(=O)O
Method: HCD
Collision_energy: [28.333334]
Isolation_window: 4.0
Ion_mode: N
Num Peaks: 98
59.0130	3.4
71.0130	4.4
71.0494	2.8
72.9922	5.6
73.0286	2.4
78.9581	1.9
82.0290	1.3
83.0494	9.1
84.0447	3.5
85.0286	1.5
87.0080	2.5
88.0395	3.7
94.0290	1.4
95.0493	1.9
96.0447	4.0
97.0287	2.4
97.0652	1.4
98.0241	1.9
98.0966	12.7
99.0079	4.8
99.0189	2.2
99.0443	4.8
100.0395	3.6
102.0551	1.6
107.0494	3.7
109.0652	5.5
110.0239	1.3
110.0604	2.6
112.0396	1.9
114.0552	100.0
115.0029	4.4
115.0586	4.3
116.0707	1.8
123.0452	1.6
123.0556	2.6
123.0806	1.9
124.0759	1.2
125.0238	2.9
125.0600	8.3
125.0964	3.2
126.0315	1.3
126.0553	1.6
126.0912	1.8
127.0393	5.3
127.0757	4.0
128.0346	3.6
128.0710	5.4
128.1072	3.3
130.0866	6.4
141.0548	1.6
141.0912	1.3
142.0863	1.5
143.0344	1.7
145.0976	19.5
151.0394	2.2
151.0758	6.7
152.0707	1.3
153.0550	8.2
153.0912	3.5
154.0498	4.3
156.0657	2.2
167.0707	2.4
168.0656	4.9
169.0500	6.8
169.0862	8.0
170.0447	3.1
170.0813	9.3
171.0301	1.5
171.0656	8.0
171.1014	4.0
171.1496	3.3
172.0106	2.7
172.0400	1.5
172.0608	3.7
172.0972	13.8
174.0761	2.5
190.0503	3.7
195.0653	2.9
197.0449	3.9
197.1174	1.2
198.0401	5.2
198.0762	1.3
212.0562	2.8
213.0158	2.8
213.0393	6.7
213.0573	1.4
213.0757	22.1
213.1104	1.2
213.1249	1.3
213.1856	2.3
214.0709	9.3
214.1057	2.2
215.0104	2.0
215.0553	26.6
215.0891	6.5
215.1407	14.0
216.0507	13.4
216.0865	6.1

Name: N-Valylphenylalanine
PrecursorMZ: 263.13969
RT: 2.0655
ExactMass: 264.1473925
Spectrum_type: 2
charge: -1
Formula: C14H20N2O3
SMILES: CC(C)C(C(=O)NC(CC1=CC=CC=C1)C(=O)O)N
Method: HCD
Collision_energy: [28.333334]
Isolation_window: 4.0
Ion_mode: N
Num Peaks: 19
73.0397	4.3
91.0542	3.4
96.9591	2.0
115.0867	36.6
116.0707	28.5
116.0899	1.5
117.0740	1.3
124.0395	3.8
127.0867	21.8
128.0901	1.3
147.0443	10.2
164.0709	6.6
202.1230	3.4
219.1498	3.0
221.0928	6.8
263.1399	100.0
264.1429	15.5
265.1188	2.9
265.1470	3.7

Name: N-acetyl-L-2-aminoadipic acid
PrecursorMZ: 202.07171
RT: 3.93225
ExactMass: 203.07937252
Spectrum_type: 2
charge: -1
Formula: C8H13NO5
SMILES: CC(=O)N[C@@H](CCCC(=O)O)C(=O)O
Method: HCD
Collision_energy: [28.333334]
Isolation_window: 4.0
Ion_mode: N
Num Peaks: 34
58.0290	2.1
59.0130	7.2
84.0446	1.3
87.0079	2.1
96.0446	4.8
98.0238	3.9
98.0601	3.0
102.0552	2.6
114.0553	2.0
114.0915	11.0
116.0708	22.9
124.0395	4.9
128.0344	5.0
140.0709	22.3
141.0553	1.3
141.0743	1.6
141.0915	1.4
142.0502	49.2
143.0534	2.4
144.0299	1.5
156.0658	14.6
157.0693	1.8
158.0816	17.5
159.0659	1.8
160.0608	40.3
161.0646	2.2
184.0609	10.1
185.0446	3.2
200.0559	10.7
201.0593	1.5
202.0716	100.0
203.0553	5.1
203.0747	8.4
203.0921	2.6

Name: N-acetyl-l-alanyl-l-prolyl-l-alanine
PrecursorMZ: 298.14097
RT: 4.9937
ExactMass: 299.14812078
Spectrum_type: 2
charge: -1
Formula: C13H21N3O5
SMILES: C[C@@H](C(=O)N1CCC[C@H]1C(=O)N[C@@H](C)C(=O)O)NC(=O)C
Method: HCD
Collision_energy: [28.333334]
Isolation_window: 4.0
Ion_mode: N
Num Peaks: 62
59.0129	5.0
71.0129	4.0
72.9922	6.1
73.0399	7.4
74.0239	15.5
82.0288	3.5
84.0447	5.7
87.0079	8.7
88.0395	14.6
96.0082	4.8
98.0239	8.5
109.0163	3.8
110.0600	3.4
112.0397	7.3
113.0349	9.6
114.0552	10.3
116.0710	6.9
124.0395	7.4
124.0760	5.8
125.0235	3.3
127.0505	6.4
128.0346	6.4
128.0708	9.4
129.1027	10.1
130.0502	25.6
130.0866	87.2
139.0871	3.9
141.0663	6.8
141.1027	3.7
143.1182	3.3
151.0505	5.7
153.1022	3.3
165.0415	13.0
166.0864	5.1
167.0459	4.5
168.0296	36.7
169.0624	3.3
169.0977	21.0
182.0815	3.8
183.1141	8.9
193.0982	15.2
199.1812	25.4
210.0752	6.3
223.1086	10.3
236.1414	5.7
254.1516	9.4
256.2032	18.8
279.1342	5.0
281.1749	3.8
296.1219	3.5
297.1055	8.5
297.1463	49.8
297.2425	5.9
298.1006	4.2
298.1408	61.5
299.0717	4.4
299.1143	5.9
299.1461	7.8
299.1861	13.1
300.1158	8.6
300.1567	5.5
300.1926	100.0

Name: N-acetylcitrulline
PrecursorMZ: 216.09874
RT: 2.7521500000000003
ExactMass: 217.10625597
Spectrum_type: 2
charge: -1
Formula: C8H15N3O4
SMILES: CC(=O)NC(CCCNC(=O)N)C(=O)O
Method: HCD
Collision_energy: [28.333334]
Isolation_window: 4.0
Ion_mode: N
Num Peaks: 25
59.0130	6.3
61.9875	5.3
78.9582	7.2
85.0287	2.0
96.9687	7.6
116.0710	2.6
129.0182	1.4
129.1025	5.1
131.0819	31.0
155.1072	5.9
171.0776	4.0
171.1017	4.9
173.0451	2.1
173.0926	100.0
174.0976	6.3
199.0731	2.4
200.0915	1.6
215.0350	9.0
215.0675	33.6
215.0889	1.4
216.0690	1.6
216.1026	8.1
217.0750	3.8
217.1077	29.0
218.1052	2.5

Name: N-acetylmethionine sulfoxide
PrecursorMZ: 206.049
RT: 1.9958
ExactMass: 207.05652907
Spectrum_type: 2
charge: -1
Formula: C7H13NO4S
SMILES: CC(=O)NC(CCS(=O)C)C(=O)O
Method: HCD
Collision_energy: [28.333334]
Isolation_window: 4.0
Ion_mode: N
Num Peaks: 73
57.0336	2.9
58.0290	3.7
59.0130	10.3
61.9874	2.0
63.9616	5.0
69.0336	2.0
70.0288	2.7
71.0130	5.2
71.0493	5.2
72.0080	5.2
73.0286	6.4
76.9694	5.5
79.9564	9.0
80.9642	2.8
84.0445	4.5
85.0286	23.6
85.0648	5.9
86.0238	40.9
87.0079	4.3
87.0442	38.9
88.0396	3.9
88.0475	1.9
89.0234	8.0
91.0392	5.4
96.0446	5.1
97.0286	4.1
98.0602	49.8
99.0442	32.4
99.0635	2.6
100.0395	3.3
101.0234	3.1
101.0599	15.6
107.0857	2.7
112.0396	3.3
113.0234	3.5
114.0189	8.3
114.0550	4.9
115.0392	11.3
125.0964	9.1
127.0391	2.6
131.0345	3.8
142.0501	48.7
143.0534	2.2
145.0497	3.1
147.0446	2.3
160.0395	3.5
160.0609	2.0
161.0601	2.1
162.0549	3.9
163.0393	4.7
163.0602	2.0
163.0871	9.0
164.0379	37.7
164.0701	9.0
165.0408	2.7
174.0960	2.6
186.0765	3.7
187.0969	49.9
188.0999	4.3
191.0252	25.2
204.0665	3.2
204.0859	15.8
205.0505	5.4
205.0711	20.0
205.0924	4.3
205.1077	100.0
206.0486	76.1
206.0806	2.7
206.1110	10.6
207.0299	8.9
207.0499	4.8
207.0876	20.6
208.0603	6.6

Name: N-acetylmuramyl-alanylglutamic acid
PrecursorMZ: 492.18368
RT: 8.1798
ExactMass: 493.19077343
Spectrum_type: 2
charge: -1
Formula: C19H31N3O12
SMILES: C[C@@H](C(=O)N[C@H](CCC(=O)O)C(=O)O)NC(=O)C(C)O[C@@H]1[C@H]([C@H](O[C@@H]([C@H]1O)CO)O)NC(=O)C
Method: HCD
Collision_energy: [28.333334]
Isolation_window: 4.0
Ion_mode: N
Num Peaks: 68
54.6856	0.5
54.6886	1.0
54.8165	1.0
58.0289	0.6
59.0129	1.1
71.0129	1.0
72.9923	0.6
78.9581	1.7
79.9563	0.5
80.9644	0.7
83.0130	1.8
84.0446	1.4
87.0079	1.7
87.0555	0.7
88.0395	2.1
89.0235	11.7
96.9592	16.9
98.0239	1.5
98.0603	0.7
100.0393	0.5
101.0236	0.6
102.0552	7.8
114.0553	1.0
116.0708	2.1
124.0396	3.0
128.0345	45.0
129.0381	2.1
129.1025	3.6
135.0443	0.6
140.0345	0.6
141.0661	1.4
142.0503	9.2
143.0545	0.6
146.0452	13.0
147.0487	0.6
152.9953	4.0
159.0770	1.5
160.0609	43.6
161.0645	2.6
173.0925	0.9
181.0617	0.7
199.0720	8.0
200.0753	0.7
225.0071	1.4
245.1142	7.4
246.1173	0.8
265.2544	0.8
271.0939	1.7
289.0375	0.7
289.0542	0.9
289.0753	1.0
289.1042	100.0
290.1075	11.3
291.1091	1.2
363.1428	0.6
401.2476	0.6
491.1411	0.6
491.1481	0.7
491.3212	12.9
492.1841	24.5
492.3230	1.2
492.3288	4.2
493.1898	5.3
493.3408	22.6
493.3452	2.6
494.1917	1.0
494.2014	1.1
494.3440	3.4

Name: N-myristoylglycinate
PrecursorMZ: 284.22282
RT: 1.6427
ExactMass: 284.22256882
Spectrum_type: 2
charge: -1
Formula: C16H30NO3-
SMILES: CCCCCCCCCCCCCC(=O)NCC(=O)[O-]
Method: HCD
Collision_energy: [28.333334]
Isolation_window: 4.0
Ion_mode: N
Num Peaks: 37
59.0129	6.8
69.3897	1.3
71.0129	1.0
72.9922	1.5
73.0286	1.0
74.0238	100.0
75.0271	2.5
85.0285	1.2
86.0238	2.1
87.0078	2.7
130.0865	1.0
137.0711	3.2
154.0503	1.1
169.0980	1.1
183.1498	1.1
193.1202	1.4
195.1284	1.7
195.1489	1.2
196.0969	1.1
221.1302	1.6
239.1185	4.2
239.1398	1.1
239.2376	3.5
240.2328	6.7
283.0833	6.0
283.1315	6.5
283.1932	1.0
283.2295	1.1
283.2639	28.4
284.0826	1.5
284.2229	60.7
284.2666	5.1
285.0609	1.6
285.0978	2.4
285.2045	2.3
285.2246	3.6
285.2443	3.9

Name: N~4~,1-dimethyl-N~5~-((4R)-2-phenylimidazo(1,2-a)pyrimidin-7-yl)-1H-pyrazole-4,5-dicarboxamide
PrecursorMZ: 374.13694
RT: 1.3014
ExactMass: 375.14437281
Spectrum_type: 2
charge: -1
Formula: C19H17N7O2
SMILES: CNC(=O)C1=C(N(N=C1)C)C(=O)NC2=NC3=NC(=CN3C=C2)C4=CC=CC=C4
Method: HCD
Collision_energy: [28.333334]
Isolation_window: 4.0
Ion_mode: N
Num Peaks: 22
72.9922	10.2
75.0079	59.8
85.0286	26.6
112.0395	16.1
125.0598	4.4
147.0447	4.7
164.0712	23.4
210.1132	37.8
211.1165	4.0
372.1822	56.8
373.0946	3.5
373.1300	6.6
373.1794	46.6
373.2535	8.9
374.1299	8.6
374.1907	9.6
375.1079	4.4
375.1435	8.3
375.1847	16.7
375.2752	100.0
376.1425	3.4
376.2781	8.3

PrecursorMZ: 151.04267
RT: 1.4006
Spectrum_type: 2
charge: -1
SMILES: O=C(O)C(O)c1ccccc1
Method: HCD
Collision_energy: [28.333334]
Isolation_window: 4.0
Ion_mode: N
Num Peaks: 4
79.9565	29.1
107.0495	4.7
151.0427	100.0
152.0461	5.7

Name: OxPG 36:0+2O
PrecursorMZ: 809.55442
RT: 2.0394
ExactMass: 810.56221508
Spectrum_type: 2
charge: -1
Formula: C42H83O12P
SMILES: CCCCCCCCCCCCCCCCCC(=O)OCC(COP(=O)(O)OCC(CO)O)OC(=O)CCCCCCCCCC(C(CCCCCC)O)O
Method: HCD
Collision_energy: [28.333334]
Isolation_window: 4.0
Ion_mode: N
Num Peaks: 32
74.0236	1.3
78.9580	14.6
89.9475	1.5
89.9538	3.3
90.0654	1.5
96.9685	2.2
116.0342	1.1
152.9950	30.2
156.0766	1.1
167.0450	1.8
171.0057	4.7
227.2014	2.1
239.2011	5.9
241.2169	100.0
242.0779	9.8
242.2201	13.9
255.2325	15.7
256.2357	1.3
267.2325	1.7
269.2484	7.6
281.2484	13.3
282.2516	1.9
467.2779	1.1
493.2937	5.8
494.2964	1.8
567.3284	2.7
585.3437	1.2
807.5364	2.9
808.5408	7.2
809.5549	74.6
810.5593	38.7
811.5698	23.0

Name: OxPS 34:0+2O
PrecursorMZ: 794.51987
RT: 4.5755
ExactMass: 795.52616392
Spectrum_type: 2
charge: -1
Formula: C40H78NO12P
SMILES: CCCCCCCCCCCCCCCC(=O)OCC(COP(=O)(O)OCC(C(=O)O)N)OC(=O)CCCCCCCCCC(C(CCCCCC)O)O
Method: HCD
Collision_energy: [28.333334]
Isolation_window: 4.0
Ion_mode: N
Num Peaks: 38
61.9874	0.7
69.1646	0.8
78.9505	0.7
78.9581	100.0
78.9677	0.8
88.2772	1.5
88.2833	2.4
88.3885	0.5
88.3948	1.0
96.9687	35.6
138.9794	0.6
152.9951	3.5
238.9959	1.7
241.0120	1.0
241.2171	0.9
255.2329	1.4
257.0065	1.1
259.0225	5.8
366.2417	24.2
367.2452	4.1
378.2433	0.6
380.2575	37.3
381.2607	7.1
382.2637	0.7
528.2947	6.3
529.2992	1.5
542.3106	10.6
543.3137	2.0
632.4657	2.4
633.4710	0.9
634.4826	9.4
635.4854	3.1
792.5165	0.6
793.5009	0.7
793.5100	2.0
794.5200	59.3
795.5229	25.6
796.5247	5.0

Name: PA(19:3(10Z,13Z,16Z)/0:0)
PrecursorMZ: 445.23584
RT: 1.221
ExactMass: 446.24334058
Spectrum_type: 2
charge: -1
Formula: C22H39O7P
SMILES: CC/C=C\C/C=C\C/C=C\CCCCCCCCC(=O)OC[C@H](COP(=O)(O)O)O
Method: HCD
Collision_energy: [28.333334]
Isolation_window: 4.0
Ion_mode: N
Num Peaks: 10
78.9581	4.1
110.9844	6.2
167.0109	15.2
185.0215	3.7
277.2172	28.8
278.2203	5.1
279.2328	100.0
445.2370	12.3
446.2404	2.8
447.2520	46.9

Name: Pantoyltaurine
PrecursorMZ: 254.07038
RT: 4.6989
ExactMass: 255.07765844
Spectrum_type: 2
charge: -1
Formula: C8H17NO6S
SMILES: CC(C)(CO)[C@H](C(=O)NCCS(=O)(=O)O)O
Method: HCD
Collision_energy: [28.333334]
Isolation_window: 4.0
Ion_mode: N
Num Peaks: 14
79.9559	2.0
80.9642	2.2
96.9592	2.4
106.9802	1.7
124.0065	16.9
152.0016	8.8
253.0390	4.6
253.0719	2.6
254.0704	100.0
255.0648	8.5
255.1599	2.3
255.2327	7.6
255.5628	2.3
256.0695	23.0

Name: Phe-Gln
PrecursorMZ: 292.13019
RT: 4.9042
ExactMass: 293.1375561
Spectrum_type: 2
charge: -1
Formula: C14H19N3O4
SMILES: C1=CC=C(C=C1)C[C@@H](C(=O)N[C@@H](CCC(=O)N)C(=O)O)N
Method: HCD
Collision_energy: [28.333334]
Isolation_window: 4.0
Ion_mode: N
Num Peaks: 20
79.9564	9.0
107.0493	9.0
127.0504	36.6
129.1023	22.2
130.0864	19.3
138.0663	13.6
145.0609	14.4
156.0769	24.5
195.0214	10.2
213.1027	11.8
221.1540	18.9
236.1052	25.0
249.1606	11.4
250.0767	20.9
274.1196	34.9
291.0979	11.1
291.1993	30.8
292.1300	100.0
293.1502	83.2
293.1793	23.8

Name: Poly(oxy-1,2-ethanediyl), alpha-(carboxymethyl)-omega-(hexadecyloxy)-
PrecursorMZ: 343.28531
RT: 0.7589
ExactMass: 344.29265975
Spectrum_type: 2
charge: -1
Formula: C20H40O4
SMILES: CCCCCCCCCCCCCCCCOCCOCC(=O)O
Method: HCD
Collision_energy: [28.333334]
Isolation_window: 4.0
Ion_mode: N
Num Peaks: 8
72.9922	42.1
75.0079	19.1
341.2022	2.9
342.2006	70.3
343.1559	2.7
343.2017	7.9
343.2855	100.0
344.2892	20.3

Name: Pregnenetriol sulfate
PrecursorMZ: 413.19984
RT: 1.2194
ExactMass: 414.20760997
Spectrum_type: 2
charge: -1
Formula: C21H34O6S
SMILES: C[C@]12CCCCC1CC[C@@H]3[C@@H]2CC[C@]4([C@H]3CCC4=CC(O)(O)OS(=O)(=O)O)C
Method: HCD
Collision_energy: [28.333334]
Isolation_window: 4.0
Ion_mode: N
Num Peaks: 12
96.9591	90.0
98.9549	3.6
411.1843	1.7
412.1606	1.5
412.1848	4.5
412.1923	4.9
412.2024	2.2
413.2024	100.0
414.2053	25.6
415.1769	4.9
415.2204	32.2
415.2255	13.8

Name: Pro-Asp
PrecursorMZ: 229.08276
RT: 4.777
ExactMass: 230.09027155
Spectrum_type: 2
charge: -1
Formula: C9H14N2O5
SMILES: C1CC(NC1)C(=O)NC(CC(=O)O)C(=O)O
Method: HCD
Collision_energy: [28.333334]
Isolation_window: 4.0
Ion_mode: N
Num Peaks: 13
61.9875	24.6
85.0286	21.3
113.0712	45.8
114.0552	34.3
115.0028	26.6
152.0347	9.6
185.0926	50.2
211.0724	8.6
227.1652	9.1
227.2013	36.8
228.2054	7.9
229.0831	100.0
230.0854	11.2

Name: Prolyltryptophan
PrecursorMZ: 300.13517
RT: 5.254
ExactMass: 301.14264148
Spectrum_type: 2
charge: -1
Formula: C16H19N3O3
SMILES: C1CC(NC1)C(=O)NC(CC2=CNC3=CC=CC=C32)C(=O)O
Method: HCD
Collision_energy: [28.333334]
Isolation_window: 4.0
Ion_mode: N
Num Peaks: 8
113.0711	22.7
127.0868	18.9
130.0867	10.6
171.0767	73.8
298.1782	12.7
299.2594	10.3
300.1348	100.0
301.1399	18.3

Name: Propanamide, N-(3-(bis(2-(acetyloxy)ethyl)amino)phenyl)-
PrecursorMZ: 335.16142
RT: 5.2672
ExactMass: 336.16852187
Spectrum_type: 2
charge: -1
Formula: C17H24N2O5
SMILES: CCC(=O)NC1=CC(=CC=C1)N(CCOC(=O)C)CCOC(=O)C
Method: HCD
Collision_energy: [28.333334]
Isolation_window: 4.0
Ion_mode: N
Num Peaks: 59
59.0130	7.3
79.9564	11.5
80.9643	37.0
87.0443	6.4
96.9591	11.3
97.0161	5.3
108.0446	4.4
114.0552	4.9
122.0603	28.8
123.0444	3.1
124.0760	44.0
128.0345	3.2
130.0866	3.8
134.0603	31.2
135.0445	6.9
136.0761	40.2
137.0794	3.1
138.0555	3.4
138.0917	6.4
168.0660	15.8
170.0819	3.6
178.0501	3.7
191.1070	12.8
192.1114	4.5
216.1391	12.7
221.1180	5.9
231.1132	2.8
243.1146	4.6
251.2017	3.9
252.2046	3.0
257.1657	5.8
259.1453	100.0
260.1486	17.1
261.1267	5.2
261.1595	3.1
273.1859	4.6
289.1816	3.4
291.1699	6.2
291.1974	10.5
292.1998	3.1
303.1350	23.9
304.1381	3.8
333.1740	20.8
333.2086	8.2
334.1318	9.1
334.1761	17.3
334.2119	4.6
335.0766	4.5
335.1153	5.3
335.1545	16.3
335.1887	53.9
335.2240	9.4
336.1107	5.4
336.1534	7.3
336.1902	11.8
337.0934	7.7
337.1292	4.4
337.1997	7.6
337.2398	3.9

Name: Putative (3-hydroxyheptadecanoyl)glycine
PrecursorMZ: 342.26468
RT: 1.9483
ExactMass: 343.27225866
Spectrum_type: 2
charge: -1
Formula: C19H37NO4
SMILES: CCCCCCCCCCCCCCC(CC(=O)NCC(=O)O)O
Method: HCD
Collision_energy: [28.333334]
Isolation_window: 4.0
Ion_mode: N
Num Peaks: 3
74.0238	100.0
116.0344	45.1
342.2654	50.7

Name: Pyridoxal hydrazone
PrecursorMZ: 180.07721
RT: 3.3935
ExactMass: 181.085126602
Spectrum_type: 2
charge: -1
Formula: C8H11N3O2
SMILES: CC1=NC=C(C(=C1O)/C=N/N)CO
Method: HCD
Collision_energy: [28.333334]
Isolation_window: 4.0
Ion_mode: N
Num Peaks: 24
79.9564	3.1
80.9643	8.7
108.0446	17.4
109.0400	3.9
116.0710	1.8
120.0446	1.9
124.0507	1.6
135.0445	1.9
135.0556	2.0
136.0397	3.9
136.0761	16.0
137.0097	3.1
137.0710	10.1
138.0553	100.0
148.0395	5.4
179.1184	3.3
180.0155	3.8
180.0320	3.7
180.0651	5.0
180.0773	17.3
181.0613	2.0
181.0767	5.4
182.0452	31.4
182.0811	1.7

Name: Pyroglutamylalanine
PrecursorMZ: 199.07179
RT: 2.2203
ExactMass: 200.07970687
Spectrum_type: 2
charge: -1
Formula: C8H12N2O4
SMILES: CC(C(=O)O)NC(=O)C1CCC(=O)N1
Method: HCD
Collision_energy: [28.333334]
Isolation_window: 4.0
Ion_mode: N
Num Peaks: 66
58.0290	1.1
59.0131	1.4
71.0130	1.1
72.0445	3.1
73.0286	3.0
74.0238	1.3
82.0289	6.7
84.0081	1.0
84.0445	3.3
85.0285	1.2
88.0395	7.9
96.0448	1.1
98.0242	1.7
98.0353	1.5
99.0555	6.5
110.0238	1.5
112.0396	1.9
112.0507	1.0
112.0758	1.0
113.0349	1.8
113.0711	3.1
114.0553	1.2
125.0001	1.0
125.0601	2.1
126.0423	1.1
126.0553	1.5
127.0505	18.1
127.0868	2.7
128.0346	1.8
128.0544	1.4
128.0707	1.2
136.0758	2.8
137.0599	1.0
137.0964	1.1
138.0913	1.1
139.0869	2.0
139.1121	1.6
140.0458	5.2
145.0612	1.5
153.0651	1.2
154.0614	4.4
154.0869	2.1
155.0716	1.7
155.0819	60.7
155.1074	2.8
156.0852	3.9
156.1022	2.6
157.0614	1.3
158.0565	1.0
159.0769	1.3
169.0864	3.1
182.0809	1.2
183.0780	1.9
197.0675	5.1
198.0764	5.4
199.0353	1.4
199.0722	100.0
199.0969	7.4
199.1318	1.8
199.1678	1.4
200.0559	2.5
200.0750	8.1
200.0933	4.9
201.0753	3.0
201.0888	3.9
201.1129	3.9

Name: Pyroglutamylglutamine
PrecursorMZ: 256.09384
RT: 6.510471428571429
ExactMass: 257.10117059
Spectrum_type: 2
charge: -1
Formula: C10H15N3O5
SMILES: C1CC(=O)NC1C(=O)NC(CCC(=O)N)C(=O)O
Method: HCD
Collision_energy: [28.333334]
Isolation_window: 4.0
Ion_mode: N
Num Peaks: 37
59.0129	2.2
73.0286	2.4
82.0289	6.6
84.0446	4.6
109.0401	3.1
110.0238	4.4
112.0395	2.5
126.0664	4.7
127.0505	22.8
128.0346	6.0
128.0546	1.5
138.0665	3.0
145.0612	3.1
151.0756	2.2
151.0871	1.5
152.0822	1.6
153.0659	1.5
167.0823	1.9
194.0934	28.1
195.0771	1.8
195.0967	2.6
212.1042	20.7
213.1072	2.2
213.1612	1.7
238.0834	35.7
239.0665	1.4
239.0878	3.8
254.1029	2.1
255.0838	1.8
255.1088	1.6
255.2330	100.0
256.0943	52.2
256.2364	17.1
257.0666	3.1
257.0983	5.5
257.2383	1.6
258.0983	1.8

Name: Pyroglutamyltyrosine
PrecursorMZ: 291.09843
RT: 1.4382
ExactMass: 292.10592162
Spectrum_type: 2
charge: -1
Formula: C14H16N2O5
SMILES: C1CC(=O)NC1C(=O)NC(CC2=CC=C(C=C2)O)C(=O)O
Method: HCD
Collision_energy: [28.333334]
Isolation_window: 4.0
Ion_mode: N
Num Peaks: 43
59.0128	3.6
71.0129	2.3
80.9641	4.5
85.0284	2.5
87.0077	5.6
89.0234	1.9
97.0283	2.3
109.0287	3.5
109.0397	10.9
112.0391	2.0
119.0493	10.8
123.0441	2.0
126.0550	1.6
127.0503	89.9
128.0343	6.2
128.0540	4.7
129.0183	1.6
135.0441	8.9
136.0478	1.8
141.0660	7.9
142.0501	2.7
144.9958	1.6
153.0183	2.3
161.0601	1.6
163.0391	3.1
170.0450	1.7
180.0657	3.8
185.0563	10.1
187.0756	1.7
205.0866	1.7
214.0712	2.4
229.0873	3.2
246.1153	2.2
247.1104	17.6
248.1144	1.9
289.0971	2.5
290.0335	1.6
290.0949	4.7
291.0988	100.0
292.0504	9.7
292.1037	13.8
293.0641	1.9
293.1047	2.2

Name: Qv
PrecursorMZ: 244.13014
RT: 6.2593375
ExactMass: 245.1375561
Spectrum_type: 2
charge: -1
Formula: C10H19N3O4
SMILES: CC(C)C(C(=O)O)NC(=O)C(CCC(=O)N)N
Method: HCD
Collision_energy: [28.333334]
Isolation_window: 4.0
Ion_mode: N
Num Peaks: 57
58.0289	2.7
59.0130	5.7
70.0289	4.4
71.0129	2.3
83.0492	2.2
84.0082	1.6
85.0288	1.7
87.0078	1.7
88.0395	9.4
97.4663	2.0
109.0286	1.5
112.0395	4.3
113.0349	2.8
115.0868	10.1
116.0708	36.7
117.0744	2.4
127.0505	10.8
127.0868	3.0
128.0346	2.5
129.1026	5.9
130.0865	5.8
131.0344	2.0
137.0600	4.4
141.1026	2.8
143.1184	3.4
145.0611	3.0
155.0458	1.8
155.0706	3.8
155.0821	1.8
181.0864	3.1
181.1231	1.7
182.0903	7.0
182.1293	27.1
183.0921	5.0
183.1135	10.1
183.1331	2.4
199.1335	2.2
200.0924	1.5
200.1401	8.0
208.1090	2.6
226.1196	15.8
227.1041	2.9
227.1248	2.3
242.1116	5.9
242.2205	10.2
243.0495	7.2
243.0516	1.4
243.0878	1.6
243.1173	6.4
243.1201	4.1
243.1241	2.7
243.2242	1.7
244.0816	1.9
244.0870	2.0
244.1302	100.0
245.0657	4.0
245.1343	13.0

Name: Serylphenylalanine
PrecursorMZ: 251.10389
RT: 4.7652
ExactMass: 252.111007
Spectrum_type: 2
charge: -1
Formula: C12H16N2O4
SMILES: C1=CC=C(C=C1)CC(C(=O)O)NC(=O)C(CO)N
Method: HCD
Collision_energy: [28.333334]
Isolation_window: 4.0
Ion_mode: N
Num Peaks: 27
69.0451	7.6
69.4521	4.3
69.4738	4.0
73.0398	100.0
74.0237	5.7
85.0396	5.4
94.0288	9.6
97.4654	4.8
103.0503	7.7
128.0343	7.4
147.0444	18.3
162.0553	6.8
164.0709	38.1
184.9992	13.3
209.0715	34.5
221.0926	96.4
222.0959	10.5
249.0775	5.4
249.0803	24.6
249.5799	14.3
250.0693	8.9
250.1063	5.2
250.1584	5.9
251.1033	78.3
252.0818	4.6
252.1050	4.6
252.1080	8.7

Name: TT zwitterion
PrecursorMZ: 219.0983
RT: 6.6058
ExactMass: 220.10592162
Spectrum_type: 2
charge: -1
Formula: C8H16N2O5
SMILES: C[C@H]([C@@H](C(=O)N[C@@H]([C@@H](C)O)C(=O)[O-])[NH3+])O
Method: HCD
Collision_energy: [28.333334]
Isolation_window: 4.0
Ion_mode: N
Num Peaks: 12
74.0238	20.2
87.0555	10.1
88.0394	8.9
118.0500	6.9
131.0454	100.0
160.0621	28.6
175.0719	22.9
218.1031	10.6
219.0994	16.3
219.1749	8.8
220.0731	47.2
220.8867	7.5

Name: Terragine B
PrecursorMZ: 317.15021
RT: 1.4839
ExactMass: 318.15795719
Spectrum_type: 2
charge: -1
Formula: C17H22N2O4
SMILES: C1CC(=O)N(C1=O)CCCCCN(C(=O)CC2=CC=CC=C2)O
Method: HCD
Collision_energy: [28.333334]
Isolation_window: 4.0
Ion_mode: N
Num Peaks: 139
59.0128	2.4
69.1163	0.6
69.1905	0.6
69.1928	0.4
69.1952	0.3
69.1974	0.4
69.2354	0.5
69.2388	0.5
69.2512	0.5
69.2548	0.5
69.2571	0.5
69.2694	0.4
69.3168	0.4
69.4313	0.4
69.4682	0.3
69.4703	0.4
69.4811	0.4
69.8200	0.3
69.8885	0.3
74.0237	1.4
83.0492	1.6
84.0444	0.7
94.0652	0.5
96.0081	0.4
96.9593	0.7
97.0159	1.5
97.4633	0.4
97.4657	0.5
98.0602	0.4
109.0650	0.4
110.0602	0.4
112.0393	0.6
116.0707	5.3
120.0809	33.8
121.0843	2.8
122.0601	1.2
122.0966	0.5
123.0317	0.4
123.0681	0.7
124.0758	17.7
125.0792	0.9
129.1023	0.3
130.0864	5.1
131.0905	0.4
132.0809	4.2
133.0521	0.4
134.0601	0.7
136.0758	1.4
137.0475	0.4
138.0552	0.9
138.0917	0.5
145.0496	0.4
148.0759	27.3
149.0794	2.6
150.0916	9.0
151.0951	0.4
152.0708	3.7
155.0818	0.4
161.0711	0.3
163.0868	0.8
164.0709	10.2
165.0749	1.0
165.1024	1.1
166.0865	2.0
169.0976	0.5
180.0658	0.5
185.0924	0.4
185.1651	1.6
187.1078	0.7
187.1331	0.7
192.0662	0.6
193.0737	16.3
194.0809	5.0
199.1077	0.8
199.1807	0.5
211.1441	0.4
215.1184	0.4
217.1338	0.4
219.1498	1.5
225.0637	11.1
226.0673	1.1
228.1713	0.5
229.1569	0.3
242.1868	2.1
243.1705	2.5
244.1741	0.9
245.1292	1.3
245.1656	1.1
247.1455	0.5
247.1808	0.8
253.1343	0.5
254.1372	0.4
254.1870	0.6
257.0539	0.4
257.1292	4.7
271.1451	2.1
272.1421	0.4
272.1490	0.5
272.1625	1.8
272.1762	0.3
273.1604	1.5
273.1638	0.4
275.1397	0.6
275.1764	0.7
286.1770	2.1
287.1398	1.0
288.1434	0.7
289.1556	3.5
290.1583	0.5
291.1711	5.3
299.1396	0.6
315.1348	2.6
315.1805	1.5
315.1923	1.2
315.2534	3.0
315.6283	1.0
316.1371	6.5
316.1389	1.0
316.1671	2.3
316.1834	0.6
316.1879	8.1
316.2136	0.8
316.2533	0.9
316.2573	0.6
316.6363	1.9
317.0732	0.8
317.0900	1.0
317.1222	1.7
317.1503	100.0
317.1867	1.3
317.2118	0.5
317.2271	0.6
317.6391	0.4
318.1536	17.7
319.1299	0.4
319.1656	27.1
319.1918	2.4
319.1968	1.3
337.0570	1.3

Name: Thr-Thr
PrecursorMZ: 219.09849
RT: 6.4237
ExactMass: 220.10592162
Spectrum_type: 2
charge: -1
Formula: C8H16N2O5
SMILES: C[C@H]([C@@H](C(=O)N[C@@H]([C@@H](C)O)C(=O)O)N)O
Method: HCD
Collision_energy: [28.333334]
Isolation_window: 4.0
Ion_mode: N
Num Peaks: 16
74.0238	21.4
87.0553	9.6
118.0500	5.3
130.0864	2.7
131.0453	100.0
132.0492	3.2
133.0651	6.1
157.0611	5.6
157.0761	3.9
175.0718	25.4
218.1233	2.7
219.0978	16.1
219.1748	6.8
220.0731	2.9
220.0988	4.2
221.0662	5.0

Name: Tricarballylic anhydride
PrecursorMZ: 157.01355
RT: 5.6668
ExactMass: 158.02152329
Spectrum_type: 2
charge: -1
Formula: C6H6O5
SMILES: C1C(C(=O)OC1=O)CC(=O)O
Method: HCD
Collision_energy: [28.333334]
Isolation_window: 4.0
Ion_mode: N
Num Peaks: 31
59.0129	12.8
61.9875	2.8
69.0336	100.0
70.0370	3.8
71.0129	13.1
85.0285	4.1
97.0398	0.7
101.0135	3.1
102.0088	1.1
113.0235	30.9
113.0597	1.2
113.0963	0.7
114.0268	1.5
115.0027	2.3
116.0246	1.5
128.0246	2.3
155.0348	0.7
156.0667	0.8
156.8941	5.7
157.0135	43.6
157.0505	3.2
157.0862	2.4
157.1227	0.9
158.0164	2.7
158.0350	1.3
158.0464	2.8
158.0810	2.2
158.8920	2.1
159.0185	0.6
159.0302	1.0
159.0657	0.9

Name: Tryptophylvaline
PrecursorMZ: 302.15101
RT: 4.7206
ExactMass: 303.15829154
Spectrum_type: 2
charge: -1
Formula: C16H21N3O3
SMILES: CC(C)C(C(=O)O)NC(=O)C(CC1=CNC2=CC=CC=C21)N
Method: HCD
Collision_energy: [28.333334]
Isolation_window: 4.0
Ion_mode: N
Num Peaks: 30
59.0130	7.2
61.9875	5.0
74.0238	5.8
75.0078	6.2
80.9643	6.6
87.0078	13.4
88.0394	7.0
114.0551	9.2
116.0708	34.9
127.0867	6.3
128.0346	7.2
129.1025	8.4
130.0657	8.2
130.0866	9.0
137.0349	18.5
141.0911	6.2
173.0925	26.0
187.1084	5.7
258.1618	10.7
300.1554	6.1
300.1921	8.4
301.0908	10.9
301.1655	25.8
301.1999	6.2
302.1192	5.5
302.1506	100.0
303.0693	6.9
303.1027	8.6
303.1557	15.5
303.2174	4.8

Name: Tyr-Met
PrecursorMZ: 311.10607
RT: 4.7471
ExactMass: 312.1143783
Spectrum_type: 2
charge: -1
Formula: C14H20N2O4S
SMILES: CSCC[C@@H](C(=O)O)NC(=O)[C@H](CC1=CC=C(C=C1)O)N
Method: HCD
Collision_energy: [28.333334]
Isolation_window: 4.0
Ion_mode: N
Num Peaks: 27
69.1581	2.9
111.0554	11.5
114.0554	1.9
116.0711	2.0
130.0864	5.4
164.0379	3.1
175.0537	5.0
183.0110	4.2
186.0916	4.4
191.0818	7.3
203.1183	13.3
219.0769	3.4
223.1565	2.3
239.1190	2.8
247.1084	5.4
268.1676	1.9
269.1287	3.8
295.2277	2.5
296.0836	6.9
309.1541	5.8
309.1590	4.2
311.1086	52.3
311.1680	100.0
312.1116	7.8
312.1721	18.4
313.1209	3.6
313.1670	2.6

Name: Tyrosylvaline
PrecursorMZ: 279.13503
RT: 1.3674
ExactMass: 280.14230712
Spectrum_type: 2
charge: -1
Formula: C14H20N2O4
SMILES: CC(C)C(C(=O)O)NC(=O)C(CC1=CC=C(C=C1)O)N
Method: HCD
Collision_energy: [28.333334]
Isolation_window: 4.0
Ion_mode: N
Num Peaks: 41
59.0130	2.6
61.9875	14.8
94.0289	3.0
107.0494	7.7
109.0286	1.9
115.0868	25.2
116.0708	12.8
119.0493	4.8
121.0285	2.2
123.0446	3.8
124.0397	5.0
126.0551	1.6
127.0869	7.9
130.0866	1.9
135.0443	5.8
138.0552	5.6
149.0604	1.9
156.0660	2.1
163.0392	3.1
173.0925	7.3
178.0860	1.7
180.0661	6.5
193.0360	3.3
217.0508	2.3
218.0820	1.6
219.0659	26.5
220.0694	2.6
234.0792	2.1
235.1443	6.2
248.0936	1.7
260.0922	2.8
262.0722	1.9
277.0929	2.4
277.1208	2.1
278.0732	2.0
278.1035	11.6
278.1503	2.0
279.0876	10.7
279.1349	100.0
280.0835	15.6
280.1397	14.0

Name: Ursodeoxycholic acid 7-oleyl ester
PrecursorMZ: 655.53094
RT: 1.0427
ExactMass: 656.53797539
Spectrum_type: 2
charge: -1
Formula: C42H72O5
SMILES: CCCCCCCC/C=C\CCCCCCCC(=O)O[C@H]1C[C@@H]2C[C@@H](CC[C@@]2([C@@H]3[C@@H]1[C@@H]4CC[C@H]([C@]4(CC3)C)[C@H](C)CCC(=O)O)C)O
Method: HCD
Collision_energy: [28.333334]
Isolation_window: 4.0
Ion_mode: N
Num Peaks: 26
61.9875	4.2
69.5555	1.7
72.8346	2.1
72.8392	4.3
72.9461	1.7
72.9507	1.8
139.1121	4.5
239.2380	8.4
281.2488	1.6
283.2646	1.5
297.2454	2.5
357.2805	5.1
364.2532	18.7
365.2557	2.7
371.2591	2.4
375.2904	4.3
388.2531	7.9
389.2564	2.0
390.2688	28.7
391.2716	4.8
613.5205	5.0
653.5264	3.7
654.5299	9.2
655.5318	100.0
656.5306	39.7
657.5518	26.0

Name: Val-Met(O)
PrecursorMZ: 263.10737
RT: 5.9552
ExactMass: 264.1143783
Spectrum_type: 2
charge: -1
Formula: C10H20N2O4S
SMILES: CC(C)C(C(=O)NC(CCS(=O)C)C(=O)O)N
Method: HCD
Collision_energy: [28.333334]
Isolation_window: 4.0
Ion_mode: N
Num Peaks: 9
116.0714	13.6
143.0820	15.2
155.1183	37.3
164.1074	81.8
171.0769	18.7
199.1084	41.7
248.0832	19.4
263.1076	100.0
265.1491	20.9

Name: Vk
PrecursorMZ: 244.16618
RT: 9.3728
ExactMass: 245.1739416
Spectrum_type: 2
charge: -1
Formula: C11H23N3O3
SMILES: CC(C)C(C(=O)NC(CCCCN)C(=O)O)N
Method: HCD
Collision_energy: [28.333334]
Isolation_window: 4.0
Ion_mode: N
Num Peaks: 3
145.0973	20.5
200.1763	32.2
244.1662	100.0

Name: alpha-Aspartylproline
PrecursorMZ: 229.08284
RT: 3.7109
ExactMass: 230.09027155
Spectrum_type: 2
charge: -1
Formula: C9H14N2O5
SMILES: C1CC(N(C1)C(=O)C(CC(=O)O)N)C(=O)O
Method: HCD
Collision_energy: [28.333334]
Isolation_window: 4.0
Ion_mode: N
Num Peaks: 71
59.0130	2.2
71.0130	2.2
72.9922	0.8
73.0288	0.7
74.0239	0.8
82.0289	1.8
83.0493	7.9
84.0445	1.1
87.0078	1.1
88.0394	4.1
89.0235	1.1
96.0446	0.7
98.0238	1.4
99.0079	0.7
100.0395	0.8
101.0237	0.8
102.0551	3.1
109.9412	0.8
112.0395	0.9
112.0508	3.9
113.0236	1.3
113.0349	2.1
114.0191	1.9
114.0385	0.7
114.0552	100.0
114.0717	0.7
115.0028	5.7
115.0394	0.8
115.0585	5.0
115.0869	2.9
115.9279	2.0
116.0708	18.4
124.0760	1.2
126.0553	1.8
127.0393	1.8
128.0346	2.3
131.0817	0.9
140.0714	1.0
141.0662	0.8
142.0867	0.8
145.0496	0.7
151.0505	2.2
154.0139	0.7
156.0663	0.7
165.0548	1.8
168.0657	2.8
169.0976	2.4
183.1130	1.0
184.0974	1.2
185.0578	0.9
185.0783	0.9
185.0954	1.0
186.0761	2.5
187.1094	3.3
196.0610	2.1
209.1040	3.8
211.0745	0.9
212.0558	1.8
212.0910	0.9
213.0402	1.1
213.0882	7.8
227.1171	4.3
227.2012	1.0
228.0864	4.8
228.9773	0.7
229.0704	2.3
229.0834	2.3
230.0668	6.5
230.1026	13.2
231.0509	2.1
231.1006	5.0

Name: alpha-Ketosuberate
PrecursorMZ: 187.0606
RT: 8.038
ExactMass: 186.05282342
Spectrum_type: 2
charge: -1
Formula: C8H10O5-2
SMILES: C(CCC(=O)C(=O)[O-])CCC(=O)[O-]
Method: HCD
Collision_energy: [28.333334]
Isolation_window: 4.0
Ion_mode: N
Num Peaks: 34
59.0130	13.0
71.0130	3.2
71.0494	8.4
72.0446	3.0
73.0288	2.4
83.0493	4.0
88.0395	4.9
97.0287	3.3
97.0650	8.5
99.0443	1.6
99.0807	4.1
101.0235	1.7
102.0551	1.6
115.0030	1.6
115.0392	40.2
116.0426	1.6
123.0809	2.1
125.0601	19.9
125.0964	100.0
126.0998	8.5
127.0392	3.1
127.0755	3.3
143.0707	16.8
143.1069	2.2
144.0650	3.1
151.0393	7.2
169.0501	24.4
169.0865	5.2
170.0535	1.7
187.0609	28.6
187.0970	66.4
188.0563	1.8
188.1011	6.2
189.0766	9.3

Name: cis-(1S,3S)-1-azaniumylcyclohexane-1,3-dicarboxylate
PrecursorMZ: 186.07656
RT: 2.0151
ExactMass: 186.07663286
Spectrum_type: 2
charge: -1
Formula: C8H12NO4-
SMILES: C1C[C@@H](C[C@@](C1)(C(=O)[O-])[NH3+])C(=O)[O-]
Method: HCD
Collision_energy: [28.333334]
Isolation_window: 4.0
Ion_mode: N
Num Peaks: 51
59.0130	3.2
69.0337	4.9
71.0130	3.4
72.9921	1.2
73.0285	1.9
76.9516	3.1
80.9642	4.7
81.0336	1.2
83.0492	1.5
85.0285	1.9
87.0079	4.2
87.0443	2.7
97.0650	38.7
98.0683	2.6
99.0443	1.2
110.9844	4.0
111.0442	1.7
113.0236	68.4
114.0270	3.9
114.0916	13.1
117.0185	1.5
123.0443	1.6
124.0399	1.6
125.0600	100.0
125.0954	1.5
126.0635	3.8
127.0138	1.7
127.0392	6.5
141.0549	3.1
141.0913	2.3
141.1277	6.7
142.0782	1.4
142.0866	73.6
143.0346	2.2
143.0710	3.2
143.0901	5.8
143.1071	8.4
166.0219	1.5
169.0500	2.7
169.0862	1.9
184.0617	2.5
185.0222	1.6
185.0451	6.4
185.0817	2.2
185.1176	1.9
186.0754	1.5
186.9735	2.7
187.0608	22.8
187.0967	5.9
187.1333	8.8
188.0636	1.3

Name: dimethyl 2-(1H-pyrrole-2-carbonyloxy)butanedioate
PrecursorMZ: 254.067
RT: 5.7326
ExactMass: 255.07428713
Spectrum_type: 2
charge: -1
Formula: C11H13NO6
SMILES: COC(=O)CC(C(=O)OC)OC(=O)C1=CC=CN1
Method: HCD
Collision_energy: [28.333334]
Isolation_window: 4.0
Ion_mode: N
Num Peaks: 12
66.0341	17.4
96.9591	3.9
110.0239	50.8
210.0769	18.5
217.0830	4.6
253.0870	2.6
254.0668	15.6
255.0887	31.9
255.1611	5.6
255.2329	100.0
256.0917	3.5
256.2363	4.1

Name: dl-Alanyl-dl-asparagine
PrecursorMZ: 202.08256
RT: 8.032
ExactMass: 203.0906059
Spectrum_type: 2
charge: -1
Formula: C7H13N3O4
SMILES: CC(C(=O)NC(CC(=O)N)C(=O)O)N
Method: HCD
Collision_energy: [28.333334]
Isolation_window: 4.0
Ion_mode: N
Num Peaks: 12
70.0289	14.5
87.0554	57.7
88.0396	9.7
96.0082	23.7
114.0187	35.1
130.0865	100.0
145.0974	11.7
160.0399	26.9
184.0721	89.0
201.1248	47.1
202.0844	22.2
204.0296	13.1

Name: dl-Alanyl-dl-phenylalanine
PrecursorMZ: 235.10828
RT: 4.6331
ExactMass: 236.11609238
Spectrum_type: 2
charge: -1
Formula: C12H16N2O3
SMILES: CC(C(=O)NC(CC1=CC=CC=C1)C(=O)O)N
Method: HCD
Collision_energy: [28.333334]
Isolation_window: 4.0
Ion_mode: N
Num Peaks: 23
63.9615	7.3
69.0481	9.5
69.3705	6.5
72.0081	14.8
87.0554	100.0
88.0394	62.1
88.0588	5.0
94.0288	6.5
96.0447	9.0
96.9588	6.4
97.4661	6.0
99.0555	16.2
147.0443	26.5
164.0711	10.1
188.0708	5.7
191.1183	5.7
192.0657	27.2
216.0655	7.2
234.1553	5.9
235.1057	76.6
236.0559	8.5
236.1102	8.3
236.1312	7.7

Name: ethyl 2-hydroxy-4-(3,7,12-trihydroxy-10,13-dimethyl-2,3,4,5,6,7,8,9,11,12,14,15,16,17-tetradecahydro-1H-cyclopenta(a)phenanthren-17-yl)pentanoate
PrecursorMZ: 451.30672
RT: 1.4428
ExactMass: 452.31378912
Spectrum_type: 2
charge: -1
Formula: C26H44O6
SMILES: CCOC(=O)C(CC(C)C1CCC2C1(C(CC3C2C(CC4C3(CCC(C4)O)C)O)O)C)O
Method: HCD
Collision_energy: [28.333334]
Isolation_window: 4.0
Ion_mode: N
Num Peaks: 28
50.3704	4.5
59.0131	3.7
73.0287	4.6
371.2591	2.9
373.2766	6.2
375.2914	4.4
377.2700	3.6
389.2701	4.3
391.2862	9.3
403.2831	3.2
407.2794	5.3
415.2850	2.9
417.3011	5.0
419.2795	10.1
421.2964	14.7
431.2769	4.3
433.2916	9.7
435.3126	5.9
449.3311	5.0
449.3357	3.8
451.2975	5.2
451.3079	36.1
451.3467	10.6
451.3542	25.5
452.3075	8.1
452.3508	5.9
452.3557	7.3
453.3227	100.0

Name: ethyl 2-hydroxy-4-(3,7,12-trihydroxy-10,13-dimethyl-2,3,4,5,6,7,8,9,11,12,14,15,16,17-tetradecahydro-1H-cyclopenta)a(phenanthren-17-yl)pentanoate
PrecursorMZ: 451.30616
RT: 2.5112
ExactMass: 452.31378912
Spectrum_type: 2
charge: -1
Formula: C26H44O6
SMILES: CCOC(=O)C(CC(C)C1CCC2C1(C(CC3C2C(CC4C3(CCC(C4)O)C)O)O)C)O
Method: HCD
Collision_energy: [28.333334]
Isolation_window: 4.0
Ion_mode: N
Num Peaks: 31
50.1463	3.8
50.3704	4.1
69.2927	3.8
73.0285	5.5
96.9591	4.7
179.1071	5.2
373.2741	11.3
377.2711	3.7
389.2698	5.2
391.2851	7.0
401.2678	5.4
407.2755	4.6
407.2801	12.2
419.2800	28.7
420.2841	7.9
421.2936	4.1
425.2908	5.4
431.2799	8.9
432.2823	3.2
433.2954	8.0
435.3119	11.1
449.3110	4.3
449.3179	5.1
450.2851	3.3
450.3255	4.0
451.2990	32.3
451.3050	79.4
452.3013	5.9
452.3094	21.6
453.2319	8.6
453.3214	100.0

Name: formyl 3-(((2R)-2,4-dihydroxy-3,3-dimethylbutanoyl)amino)propanoate
PrecursorMZ: 246.09791
RT: 7.2888
ExactMass: 247.10558726
Spectrum_type: 2
charge: -1
Formula: C10H17NO6
SMILES: CC(C)(CO)[C@H](C(=O)NCCC(=O)OC=O)O
Method: HCD
Collision_energy: [28.333334]
Isolation_window: 4.0
Ion_mode: N
Num Peaks: 29
57.0337	18.9
59.0129	11.1
71.0128	10.9
72.9921	13.2
75.0077	16.4
80.9641	11.0
85.0284	10.8
87.0080	17.9
99.0440	10.0
102.0551	16.8
116.0706	10.6
130.0864	16.0
139.0393	12.4
155.0342	15.1
156.0658	62.9
164.9855	21.5
174.0765	11.1
184.0013	34.4
186.0769	16.3
198.0765	10.0
204.0867	16.7
218.1029	12.9
228.0868	11.6
245.0650	55.1
245.1037	24.2
246.0977	73.0
247.0827	32.8
247.1202	28.9
248.0794	100.0

Name: gamma-D-glutamyl-meso-diaminopimelic acid
PrecursorMZ: 318.13076
RT: 4.7796
ExactMass: 319.13795002
Spectrum_type: 2
charge: -1
Formula: C12H21N3O7
SMILES: C(C[C@@H](C(=O)O)N)C[C@H](C(=O)O)NC(=O)CC[C@H](C(=O)O)N
Method: HCD
Collision_energy: [28.333334]
Isolation_window: 4.0
Ion_mode: N
Num Peaks: 14
113.0346	1.6
114.0552	1.5
130.0500	0.8
131.0818	100.0
132.0855	4.4
157.0613	5.6
159.0768	0.9
160.0608	2.8
203.0668	8.4
215.1029	0.9
274.1410	2.2
318.1307	94.5
319.1328	11.8
320.1351	1.2

Name: methyl (2R,4Z,7E)-9-((2S,3S,5R,7R,9R,10S,11R,15S)-10-chloro-9-ethyl-2-hydroxy-11-methoxy-15-methyl-4,6,8-trioxadispiro(4.1.57.35)pentadecan-3-yl)-2-hydroxynona-4,7-dienoate
PrecursorMZ: 515.24106
RT: 5.794
ExactMass: 516.248996
Spectrum_type: 2
charge: -1
Formula: C26H41ClO8
SMILES: CC[C@@H]1[C@H]([C@@H](C[C@@]2(O1)CC[C@@H]([C@]3(O2)C[C@@H]([C@@H](O3)C/C=C/C/C=C\C[C@H](C(=O)OC)O)O)C)OC)Cl
Method: HCD
Collision_energy: [28.333334]
Isolation_window: 4.0
Ion_mode: N
Num Peaks: 23
53.2500	1.7
53.2529	4.7
245.1654	1.1
289.2536	1.9
315.2326	2.0
333.2433	5.1
359.2228	4.4
377.2338	4.6
397.1783	1.2
417.2643	3.0
421.2236	3.7
435.2749	3.4
461.2558	1.4
479.2648	100.0
480.2681	23.1
481.2704	2.7
513.3455	4.3
514.2537	2.4
514.3449	3.1
515.2396	2.6
516.2438	1.5
517.2208	23.1
517.3114	1.3

Name: methyl (2S,3R)-2-(((2S)-2-(((4S)-2,2-difluoro-4-(((2S,3S)-3-methyl-2-(((2S)-3-methyl-2-((2-methylpropan-2-yl)oxycarbonylamino)butanoyl)amino)pentanoyl)amino)-3-oxopentanoyl)amino)-3-methylbutanoyl)amino)-3-methylpentanoate
PrecursorMZ: 704.4036
RT: 5.61375
ExactMass: 705.41243474
Spectrum_type: 2
charge: -1
Formula: C33H57F2N5O9
SMILES: CC[C@H](C)[C@@H](C(=O)N[C@@H](C)C(=O)C(C(=O)N[C@@H](C(C)C)C(=O)N[C@@H]([C@H](C)CC)C(=O)OC)(F)F)NC(=O)[C@H](C(C)C)NC(=O)OC(C)(C)C
Method: HCD
Collision_energy: [28.333334]
Isolation_window: 4.0
Ion_mode: N
Num Peaks: 32
78.2698	4.2
78.9581	3.6
115.0867	3.5
118.0657	3.0
119.0495	5.4
134.0606	2.9
144.1136	13.1
162.0552	3.5
163.0398	5.3
168.1388	5.7
170.0928	12.6
180.0661	23.5
184.1085	4.3
187.0512	3.0
228.1502	5.1
264.1718	13.3
267.2090	3.0
272.1404	8.9
290.1506	4.6
308.1616	23.8
309.1644	5.0
310.1931	8.1
392.1973	4.5
402.2032	3.1
409.2231	3.5
436.1855	2.9
453.2139	3.6
702.3891	10.3
703.3950	15.5
704.4039	100.0
705.4076	38.7
706.4134	8.8

Name: methyl 4,10-diacetyloxy-5-hydroxy-1,4a-dimethyl-9-oxo-7-propan-2-yl-3,4,10,10a-tetrahydro-2H-phenanthrene-1-carboxylate
PrecursorMZ: 459.20193
RT: 1.1864
ExactMass: 460.20971797
Spectrum_type: 2
charge: -1
Formula: C25H32O8
SMILES: CC(C)C1=CC2=C(C(=C1)O)C3(C(CCC(C3C(C2=O)OC(=O)C)(C)C(=O)OC)OC(=O)C)C
Method: HCD
Collision_energy: [28.333334]
Isolation_window: 4.0
Ion_mode: N
Num Peaks: 16
51.0237	4.8
59.0129	89.8
121.0285	7.1
147.0444	5.5
339.1597	12.7
357.1705	17.4
358.1749	5.9
375.1811	27.0
376.1848	6.2
399.1809	12.7
417.1923	8.9
437.3414	5.7
457.3687	31.1
458.3720	13.8
459.2023	100.0
460.2054	26.4

Name: methylidene-((4R)-4-((3R,5S,7R,8R,9S,10S,12S,13R,14S,17R)-3,7,12-trihydroxy-10,13-dimethyl-2,3,4,5,6,7,8,9,11,12,14,15,16,17-tetradecahydro-1H-cyclopenta(a)phenanthren-17-yl)pentanoyl)azanium
PrecursorMZ: 418.29603
RT: 1.5937
ExactMass: 420.31138382
Spectrum_type: 2
charge: -1
Formula: C25H42NO4+
SMILES: C[C@H](CCC(=O)[NH+]=C)[C@H]1CC[C@@H]2[C@@]1([C@H](C[C@H]3[C@H]2[C@@H](C[C@H]4[C@@]3(CC[C@H](C4)O)C)O)O)C
Method: HCD
Collision_energy: [28.333334]
Isolation_window: 4.0
Ion_mode: N
Num Peaks: 32
78.9581	28.5
96.9590	13.6
152.9950	63.5
163.0754	9.3
211.2061	18.6
265.2541	12.2
281.2482	8.8
283.2631	7.9
357.2796	12.9
375.2902	92.3
376.2938	25.4
417.1973	58.4
417.2026	13.5
417.2082	25.1
417.2154	13.2
417.2871	10.8
417.2991	100.0
417.3464	18.3
418.1977	13.6
418.2189	7.4
418.2908	6.5
418.2950	6.9
418.3005	31.1
418.3431	5.1
418.3473	5.5
419.0703	9.3
419.2091	18.0
419.2481	6.1
419.3127	6.0
419.3179	9.5
420.2471	60.1
420.2532	9.5

Name: tert-butyl N-((1S)-1-((cyanomethyl)carbamoyl)-2-cyclopropylethyl)carbamate
PrecursorMZ: 266.15106
RT: 6.0648
ExactMass: 267.15829154
Spectrum_type: 2
charge: -1
Formula: C13H21N3O3
SMILES: CC(C)(C)OC(=O)N[C@@H](CC1CC1)C(=O)NCC#N
Method: HCD
Collision_energy: [28.333334]
Isolation_window: 4.0
Ion_mode: N
Num Peaks: 11
96.9590	2.7
110.0715	34.9
111.0808	15.6
136.0509	22.4
164.1074	5.6
172.0973	3.6
265.1479	6.5
265.2533	4.3
266.1511	100.0
267.1546	13.7
267.2329	8.3

Name: tert-butyl N-(5-(diaminomethylideneamino)-1-oxo-1-((3,4,5-trihydroxy-6-(hydroxymethyl)oxan-2-yl)amino)pentan-2-yl)carbamate
PrecursorMZ: 434.22562
RT: 8.9062
ExactMass: 435.23291303
Spectrum_type: 2
charge: -1
Formula: C17H33N5O8
SMILES: CC(C)(C)OC(=O)NC(CCCN=C(N)N)C(=O)NC1C(C(C(C(O1)CO)O)O)O
Method: HCD
Collision_energy: [28.333334]
Isolation_window: 4.0
Ion_mode: N
Num Peaks: 9
173.1038	24.9
230.1511	43.6
272.1734	86.4
314.1843	42.4
344.1940	100.0
345.1967	13.5
433.1815	13.0
434.2278	59.4
435.2272	14.3

Name: trans-(1S,2S)-2-(2-(3,4-dimethoxyphenyl)ethylcarbamoyl)cyclohexane-1-carboxylate
PrecursorMZ: 334.16567
RT: 3.1415
ExactMass: 334.16544787
Spectrum_type: 2
charge: -1
Formula: C18H24NO5-
SMILES: COC1=C(C=C(C=C1)CCNC(=O)[C@H]2CCCC[C@@H]2C(=O)[O-])OC
Method: HCD
Collision_energy: [28.333334]
Isolation_window: 4.0
Ion_mode: N
Num Peaks: 12
82.0288	27.9
83.0493	18.3
119.0494	16.1
218.1186	20.5
246.1134	100.0
247.1165	16.1
289.1192	27.0
332.2529	26.9
332.6758	11.6
333.1412	21.3
334.1672	13.8
335.1877	11.5

Name: (+)-gamma-Tocopherol
PrecursorMZ: 415.35777
RT: 1.0137333333333334
ExactMass: 416.36543077
Spectrum_type: 2
charge: -1
Formula: C28H48O2
SMILES: CC1=C(C=C2CC[C@@](OC2=C1C)(C)CCC[C@H](C)CCC[C@H](C)CCCC(C)C)O
Method: HCD
Collision_energy: [28.333334]
Isolation_window: 4.0
Ion_mode: N
Num Peaks: 14
69.1115	0.7
97.4646	0.5
121.0648	2.1
149.0351	0.6
149.0405	0.6
149.0599	100.0
150.0632	8.7
400.3345	23.2
401.3378	6.3
402.3408	0.6
415.3580	51.0
415.4738	0.4
416.3615	15.4
417.3711	1.6

Name: (+-)-2-Hydroxyisovaleric acid
PrecursorMZ: 235.11667
RT: 2.0712
ExactMass: 118.062994177
Spectrum_type: 2
charge: -1
Formula: C5H10O3
SMILES: CC(C)C(C(=O)O)O
Method: HCD
Collision_energy: [28.333334]
Isolation_window: 4.0
Ion_mode: N
Num Peaks: 72
69.2349	1.2
69.2493	1.0
69.2526	1.0
69.3767	1.0
69.5104	0.9
72.9687	1.4
79.9563	1.9
84.0445	21.9
85.0478	0.9
87.0554	8.0
88.0394	15.7
96.9591	19.4
97.4669	0.7
98.9549	0.9
99.0554	5.2
120.0445	1.1
124.0756	1.1
128.0344	40.8
129.0378	2.1
145.0761	1.2
147.0443	2.3
161.0715	2.2
163.0876	0.8
164.0715	0.8
174.0911	0.9
175.0869	7.1
175.1233	0.9
176.0904	1.8
187.0869	9.5
188.0904	2.9
189.0664	1.5
191.0819	24.7
192.0659	8.7
192.0853	2.5
192.1017	1.3
193.1339	1.9
203.0819	7.3
204.0854	2.7
205.0977	15.6
206.1011	4.9
219.0510	3.0
233.0929	17.9
233.1196	8.1
233.1663	0.8
233.6215	5.3
234.0955	4.7
234.1092	29.8
234.1162	2.9
234.1540	2.1
234.6109	8.6
235.0722	36.1
235.1171	100.0
235.1671	1.0
235.6187	25.4
236.0560	4.1
236.0752	4.0
236.0907	1.4
236.1142	3.3
236.1181	7.7
236.1210	2.0
236.6182	1.5
236.8605	2.3
237.0616	2.0
237.1245	3.6
327.1269	1.6
329.1426	3.6
371.2589	4.4
372.2613	1.2
373.2745	4.3
374.2769	1.1
397.2047	1.0
411.2198	0.8

Name: (+-)-Aspartic Acid
PrecursorMZ: 132.02939
RT: 9.4302
ExactMass: 133.0375077
Spectrum_type: 2
charge: -1
Formula: C4H7NO4
SMILES: C(C(C(=O)O)N)C(=O)O
Method: HCD
Collision_energy: [28.333334]
Isolation_window: 4.0
Ion_mode: N
Num Peaks: 15
65.0136	7.1
71.0129	7.8
87.0443	14.3
88.0395	42.3
89.0136	5.7
91.0293	12.0
115.0028	15.7
130.0865	11.0
131.0354	18.8
131.0818	100.0
132.0296	16.5
132.0560	9.8
132.0857	7.7
132.8670	8.9
132.8992	9.7

Name: 1-Myristoyl-sn-glycero-3-phosphocholine
PrecursorMZ: 466.29341
RT: 4.984975
ExactMass: 467.3011898
Spectrum_type: 2
charge: -1
Formula: C22H46NO7P
SMILES: CCCCCCCCCCCCCC(=O)OC[C@H](COP(=O)([O-])OCC[N+](C)(C)C)O
Method: HCD
Collision_energy: [28.333334]
Isolation_window: 4.0
Ion_mode: N
Num Peaks: 39
51.8094	1.4
51.8120	1.6
59.0130	1.3
74.0238	2.1
78.9584	7.0
96.9591	1.7
115.0392	1.1
124.9905	21.6
125.9944	1.5
126.9863	3.1
140.0109	4.1
145.0500	1.1
152.9950	4.3
171.0061	1.3
196.0374	10.1
214.0482	2.3
241.2177	1.1
267.2324	1.5
268.2358	2.1
269.2484	100.0
270.2519	17.4
271.2558	1.2
421.2970	3.3
422.2991	1.0
423.3117	7.3
424.3160	1.4
435.3112	3.3
436.3124	1.1
449.2876	1.2
464.3034	2.4
464.3110	1.1
465.2748	2.1
465.2809	3.2
465.3036	7.9
465.3130	3.5
465.3229	13.7
466.2919	42.7
467.2987	24.9
468.3039	4.5

Name: 10-Hydroxydecanoic Acid
PrecursorMZ: 187.13311
RT: 3.0078
ExactMass: 188.1412445
Spectrum_type: 2
charge: -1
Formula: C10H20O3
SMILES: C(CCCCC(=O)O)CCCCO
Method: HCD
Collision_energy: [28.333334]
Isolation_window: 4.0
Ion_mode: N
Num Peaks: 14
58.0289	14.4
73.0285	7.1
80.9641	10.5
114.0916	11.2
116.0706	16.8
126.0917	8.9
130.0864	39.2
141.1273	7.0
142.0864	10.6
144.1018	5.7
186.1121	37.5
187.1332	100.0
188.1295	6.0
188.1358	6.1

Name: 10aH-2,12a-Methano-1H,4H-cyclopropa(5,6)(1,3)dioxolo(2',3')cyclopenta(1',2':9,10)cyclodeca(1,2-d)(1,3)dioxin-15-one, 1a,2,7a,13,14,14a-hexahydro-1,1,6,6,9,9,11,13-octamethyl-, (1aR-(1aalpha,2alpha,7aalpha,7bR*,10aalpha,12aalpha,13alpha,14aalpha))-
PrecursorMZ: 446.29131
RT: 3.2505
ExactMass: 428.25627424
Spectrum_type: 2
charge: -1
Formula: C26H36O5
SMILES: CC1CC2C(C2(C)C)C3C=C4COC(OC4C56C1(C3=O)C=C(C5OC(O6)(C)C)C)(C)C
Method: HCD
Collision_energy: [28.333334]
Isolation_window: 4.0
Ion_mode: N
Num Peaks: 10
74.0239	42.6
96.9591	2.8
152.9949	2.2
402.3009	2.5
445.1529	4.2
446.2916	100.0
447.1570	2.4
447.2112	3.2
447.2952	27.6
448.2987	3.4

Name: 1H-Indole-3-propanoic acid
PrecursorMZ: 188.07108
RT: 4.8116
ExactMass: 189.078978594
Spectrum_type: 2
charge: -1
Formula: C11H11NO2
SMILES: C1=CC=C2C(=C1)C(=CN2)CCC(=O)O
Method: HCD
Collision_energy: [28.333334]
Isolation_window: 4.0
Ion_mode: N
Num Peaks: 10
59.0130	51.9
116.0497	15.4
124.0396	4.6
142.0654	6.4
144.0810	5.9
145.0399	7.5
188.0017	100.0
188.0710	27.9
189.0052	7.6
189.0741	3.5

Name: 2,2,6,6-Tetramethyl-4-piperidone
PrecursorMZ: 214.14424
RT: 4.7383
ExactMass: 155.131014166
Spectrum_type: 2
charge: -1
Formula: C9H17NO
SMILES: CC1(CC(=O)CC(N1)(C)C)C
Method: HCD
Collision_energy: [28.333334]
Isolation_window: 4.0
Ion_mode: N
Num Peaks: 7
153.1275	25.6
196.1339	4.7
197.1176	26.2
213.9632	3.7
214.1441	100.0
215.1280	28.0
215.1476	11.1

Name: 2-Methylbutyrylglycine
PrecursorMZ: 158.08159
RT: 4.610961904761905
ExactMass: 159.08954328
Spectrum_type: 2
charge: -1
Formula: C7H13NO3
SMILES: CCC(C)C(=O)NCC(=O)O
Method: HCD
Collision_energy: [28.333334]
Isolation_window: 4.0
Ion_mode: N
Num Peaks: 72
57.0337	1.4
59.0130	2.6
69.0198	0.9
69.0337	0.9
69.2301	0.8
69.2961	0.6
70.0290	1.2
71.0129	1.4
71.0494	0.7
72.9923	0.7
74.0238	5.0
79.9564	2.1
83.0492	0.9
84.0445	0.9
85.0286	1.4
85.0649	0.6
86.0237	0.6
86.0601	1.0
87.0079	0.6
88.0395	41.2
89.0427	1.2
95.0493	1.9
96.9592	1.2
97.0286	7.0
97.0650	1.4
98.0002	0.5
101.0236	0.7
102.0550	2.0
111.0443	0.7
112.0396	1.5
112.0759	0.6
113.0237	0.9
113.0600	5.0
113.0963	0.8
114.0552	1.3
114.0916	8.0
115.0393	3.5
115.0589	0.8
115.0756	100.0
115.0874	1.7
115.0926	0.7
116.0167	2.3
116.0789	2.9
117.0337	1.5
128.0345	1.9
128.0495	1.0
129.0185	0.6
130.0655	1.2
130.0866	1.8
131.0369	0.6
132.0447	3.4
139.0756	0.6
141.0186	1.1
141.0550	9.2
143.9880	1.0
156.0657	0.4
156.0809	1.1
156.9971	0.4
157.0502	2.8
157.0866	2.6
157.1227	3.8
158.0453	1.7
158.0609	4.8
158.0815	37.5
158.9112	1.3
159.0308	6.0
159.0442	0.9
159.0657	38.8
159.0846	2.6
159.1006	0.8
160.0397	39.7
160.0685	1.2

Name: 2-Oxoglutaric Acid
PrecursorMZ: 129.01846
RT: 4.3151
ExactMass: 146.02152329
Spectrum_type: 2
charge: -1
Formula: C5H6O5
SMILES: C(CC(=O)O)C(=O)C(=O)O
Method: HCD
Collision_energy: [28.333334]
Isolation_window: 4.0
Ion_mode: N
Num Peaks: 8
85.0286	26.3
85.0650	100.0
101.0236	10.7
128.0346	14.9
129.0186	11.4
129.0549	16.7
130.9304	9.8
131.0706	70.5

Name: 2-Pyridone
PrecursorMZ: 235.0722
RT: 2.9741714285714287
ExactMass: 95.037113783
Spectrum_type: 2
charge: -1
Formula: C5H5NO
SMILES: C1=CC(=O)NC=C1
Method: HCD
Collision_energy: [28.333334]
Isolation_window: 4.0
Ion_mode: N
Num Peaks: 17
84.0445	53.3
85.0478	2.0
96.9591	10.0
128.0344	100.0
129.0380	4.8
189.1133	1.8
191.0819	52.6
192.0660	4.3
192.0852	6.1
234.1092	9.0
234.6105	2.3
235.0720	79.8
235.1172	35.5
235.1196	6.9
235.6188	8.4
236.0752	9.3
236.8611	1.6

Name: 20-Hydroxyecdysone
PrecursorMZ: 479.30196
RT: 4.743371428571429
ExactMass: 480.30870374
Spectrum_type: 2
charge: -1
Formula: C27H44O7
SMILES: C[C@]12CC[C@H]3C(=CC(=O)[C@H]4[C@@]3(C[C@@H]([C@@H](C4)O)O)C)[C@@]1(CC[C@@H]2[C@](C)([C@@H](CCC(C)(C)O)O)O)O
Method: HCD
Collision_energy: [28.333334]
Isolation_window: 4.0
Ion_mode: N
Num Peaks: 17
59.0130	19.6
71.0130	18.9
73.0287	10.8
83.0493	13.5
89.0236	15.7
393.2660	20.2
421.2603	11.6
431.2807	42.9
432.2818	11.2
437.2904	10.2
478.2880	21.7
479.2561	35.3
479.3027	100.0
480.1683	10.1
480.3065	26.9
481.2774	53.0
481.3200	70.3

Name: 3,3-Dimethylglutaric acid
PrecursorMZ: 159.0656
RT: 2.2234
ExactMass: 160.07355886
Spectrum_type: 2
charge: -1
Formula: C7H12O4
SMILES: CC(C)(CC(=O)O)CC(=O)O
Method: HCD
Collision_energy: [28.333334]
Isolation_window: 4.0
Ion_mode: N
Num Peaks: 13
59.0130	2.0
60.9922	1.7
61.9875	1.2
97.0649	2.0
115.0756	100.0
116.0244	1.0
116.0789	6.3
141.0549	8.1
158.0461	1.4
159.0655	68.5
160.0397	3.5
160.0690	5.0
161.0456	1.2

Name: 3-Amino-4-hydroxybenzoic acid
PrecursorMZ: 152.03461
RT: 6.685109090909091
Spectrum_type: 2
charge: -1
Method: HCD
Collision_energy: [28.333334]
Isolation_window: 4.0
Ion_mode: N
Num Peaks: 66
55.0293	1.4
58.9952	0.9
66.0340	0.8
69.0086	2.1
80.0497	0.9
82.0288	0.6
83.0242	4.2
89.0233	0.7
92.0495	0.6
93.0451	0.7
94.0289	2.4
96.0196	1.4
96.0446	2.3
107.0369	0.7
107.0494	9.0
107.0604	1.3
108.0198	8.9
108.0293	0.6
108.0325	0.8
108.0446	100.0
108.0566	0.6
108.0599	0.7
109.0036	1.4
109.0287	1.9
109.0401	1.7
109.0479	6.2
109.0648	1.1
109.0761	5.2
110.0239	0.6
110.0354	0.8
110.0715	3.6
111.0302	1.0
118.0289	2.3
122.0603	1.6
123.0443	2.0
124.0396	0.9
124.0761	0.5
124.9934	2.2
125.0349	1.9
126.0011	31.0
126.0301	0.7
126.0553	3.4
127.0049	1.5
127.9967	0.7
135.0555	2.2
136.0158	0.8
136.0506	1.5
150.0554	1.6
151.0148	0.6
151.0257	41.8
151.0391	6.9
151.0508	0.9
151.0608	0.7
152.0169	20.4
152.0347	28.7
152.0708	3.6
152.0824	1.1
152.9956	0.6
153.0193	2.0
153.0386	1.5
153.0400	5.9
153.0550	0.8
153.0660	8.6
153.1023	0.8
154.0502	0.8
154.0615	16.8

Name: 3-Methyl-L-Histidine
PrecursorMZ: 525.28905
RT: 1.3386
ExactMass: 169.085126602
Spectrum_type: 2
charge: -1
Formula: C7H11N3O2
SMILES: CN1C=NC=C1C[C@@H](C(=O)O)N
Method: HCD
Collision_energy: [28.333334]
Isolation_window: 4.0
Ion_mode: N
Num Peaks: 6
58.3672	4.4
96.9592	26.3
97.4408	3.3
525.2917	100.0
526.2944	29.6
527.2766	48.6

Name: 3-Phenyllactic acid, (S)-
PrecursorMZ: 165.055
RT: 4.49736
ExactMass: 166.062994177
Spectrum_type: 2
charge: -1
Formula: C9H10O3
SMILES: C1=CC=C(C=C1)C[C@@H](C(=O)O)O
Method: HCD
Collision_energy: [28.333334]
Isolation_window: 4.0
Ion_mode: N
Num Peaks: 109
57.9749	1.2
58.9952	15.3
59.0131	1.7
63.9616	5.6
65.0390	1.1
65.9978	0.9
66.0340	21.6
69.3152	0.9
72.0082	1.6
72.9922	15.2
74.9901	1.0
78.9673	0.8
79.0543	1.2
79.9564	15.3
80.0496	8.5
80.9643	46.7
81.0211	8.0
81.0337	4.5
82.0289	9.6
82.9601	3.9
83.0490	1.1
84.9745	3.8
91.0543	1.6
92.0496	3.1
93.0336	4.1
94.0289	5.3
95.0131	0.9
95.0242	16.2
95.0368	1.5
95.0493	10.3
96.0446	2.2
96.9592	3.6
97.0286	2.5
97.4670	0.8
104.0497	3.2
106.0416	0.8
107.0369	0.9
107.0494	2.4
108.0207	1.8
108.0322	3.3
108.0445	4.1
109.0168	1.2
109.0287	2.3
109.0398	0.9
109.0649	1.3
116.0343	1.9
119.0494	19.7
120.0447	6.7
120.0529	1.7
121.0219	1.8
121.0287	100.0
121.0386	1.2
121.0471	0.8
121.0650	21.5
122.0237	1.0
122.0316	6.7
122.0474	1.1
122.0603	24.7
122.0682	1.7
123.0317	19.2
123.0443	33.0
123.0553	8.2
123.0636	0.9
123.0685	1.2
123.0805	1.9
124.0221	3.1
124.0400	5.8
125.0237	1.3
125.0600	1.3
132.0446	1.2
135.0445	3.7
136.0397	2.2
136.0756	0.9
137.0237	1.9
137.0348	1.2
137.0601	2.5
137.0714	0.8
137.0838	7.9
138.0551	3.0
138.0921	2.8
139.0393	2.9
140.0171	1.2
147.0444	87.0
147.0539	1.3
148.0479	7.1
163.0065	7.0
163.0390	4.1
163.0609	0.8
163.0756	4.3
164.0017	7.9
164.0169	13.1
164.0341	3.4
164.0707	6.2
164.9869	1.6
165.0210	35.9
165.0427	1.8
165.0549	42.8
165.0666	6.0
165.0911	3.4
165.1027	41.2
166.0154	1.4
166.0177	4.0
166.0324	20.3
166.0502	9.0
166.0860	3.4
166.1063	3.6
167.0010	2.2
167.0368	51.4
167.0698	3.3

Name: 3-Phosphoglycerate
PrecursorMZ: 184.9849
RT: 5.7611
ExactMass: 185.99293956
Spectrum_type: 2
charge: -1
Formula: C3H7O7P
SMILES: C(C(C(=O)O)O)OP(=O)(O)O
Method: HCD
Collision_energy: [28.333334]
Isolation_window: 4.0
Ion_mode: N
Num Peaks: 17
65.0135	5.1
78.9580	55.2
88.9869	13.8
96.9686	100.0
112.9846	3.6
125.0962	6.4
125.9363	5.6
137.9040	11.8
139.9024	8.6
141.0910	3.7
166.9840	11.1
183.0303	4.9
184.9839	22.2
185.1176	10.6
185.1539	9.4
186.0293	16.4
186.1124	9.9

Name: 4,8,12,15,18-Eicosapentaenoic acid
PrecursorMZ: 301.21705
RT: 1.1537
ExactMass: 302.224580195
Spectrum_type: 2
charge: -1
Formula: C20H30O2
SMILES: C/C=C/C/C=C/C/C=C/CC/C=C/CC/C=C/CCC(=O)O
Method: HCD
Collision_energy: [28.333334]
Isolation_window: 4.0
Ion_mode: N
Num Peaks: 8
59.0130	6.4
299.2589	6.6
300.2631	3.6
301.1302	9.0
301.2174	100.0
301.6322	3.7
302.2208	21.0
303.2328	55.9

Name: 4-Hydroxyphenylpyruvic Acid
PrecursorMZ: 179.03433
RT: 1.4990166666666667
ExactMass: 180.04225873
Spectrum_type: 2
charge: -1
Formula: C9H8O4
SMILES: C1=CC(=CC=C1CC(=O)C(=O)O)O
Method: HCD
Collision_energy: [28.333334]
Isolation_window: 4.0
Ion_mode: N
Num Peaks: 10
79.9564	5.5
80.9643	38.5
91.0544	6.3
135.0444	100.0
136.0478	8.3
158.1014	5.8
164.0474	3.8
179.0012	4.9
179.0349	16.7
180.0307	4.3

Name: 4-Methoxybenzoic Acid
PrecursorMZ: 151.03932
RT: 2.7692
ExactMass: 152.047344113
Spectrum_type: 2
charge: -1
Formula: C8H8O3
SMILES: COC1=CC=C(C=C1)C(=O)O
Method: HCD
Collision_energy: [28.333334]
Isolation_window: 4.0
Ion_mode: N
Num Peaks: 24
80.9643	7.3
81.0337	14.8
107.0494	38.1
108.0208	11.8
108.0446	7.5
108.0527	3.8
109.0286	100.0
109.0650	36.4
121.0286	5.6
122.0605	4.4
123.0080	3.7
123.0441	5.7
133.0652	4.7
149.0600	5.2
150.0551	12.9
151.0065	4.7
151.0395	66.1
151.0758	36.7
152.0185	5.2
152.0345	3.9
152.0452	5.0
152.0699	10.3
153.0187	74.1
153.0547	9.6

Name: 5-(Hydroxymethyl)uracil
PrecursorMZ: 125.03475
RT: 16.3115
ExactMass: 142.03784206
Spectrum_type: 2
charge: -1
Formula: C5H6N2O3
SMILES: C1=C(C(=O)NC(=O)N1)CO
Method: HCD
Collision_energy: [28.333334]
Isolation_window: 4.0
Ion_mode: N
Num Peaks: 9
65.9977	74.6
67.0293	95.0
81.0449	91.3
82.0290	100.0
82.0402	84.1
83.0241	79.3
123.0556	64.1
124.0508	90.6
125.0348	87.4

Name: 5-Aminolevulinic Acid
PrecursorMZ: 114.05516
RT: 8.498
ExactMass: 131.058243149
Spectrum_type: 2
charge: -1
Formula: C5H9NO3
SMILES: C(CC(=O)O)C(=O)CN
Method: HCD
Collision_energy: [28.333334]
Isolation_window: 4.0
Ion_mode: N
Num Peaks: 5
68.9949	20.0
114.0552	100.0
115.0586	5.3
116.0246	2.8
116.0709	96.3

Name: 5-Methoxyindoleacetic acid
PrecursorMZ: 204.06622
RT: 4.8137
ExactMass: 205.07389321
Spectrum_type: 2
charge: -1
Formula: C11H11NO3
SMILES: COC1=CC2=C(C=C1)NC=C2CC(=O)O
Method: HCD
Collision_energy: [28.333334]
Isolation_window: 4.0
Ion_mode: N
Num Peaks: 22
94.0289	3.1
97.0285	1.7
122.0238	2.0
132.0450	2.0
146.0603	2.3
150.0552	1.7
158.0604	3.3
160.0396	2.9
160.0758	2.4
160.0874	3.8
161.0713	3.6
162.0551	4.1
162.0920	6.4
174.0554	100.0
175.0592	10.3
176.0712	7.0
186.0556	4.9
204.0662	99.7
205.0702	13.8
205.0734	2.8
205.1594	8.5
206.0818	12.0

Name: Alisol B
PrecursorMZ: 471.348
RT: 1.3417
ExactMass: 472.35526001
Spectrum_type: 2
charge: -1
Formula: C30H48O4
SMILES: C[C@H](C[C@@H]([C@@H]1C(O1)(C)C)O)C2=C3C[C@@H]([C@H]4[C@]5(CCC(=O)C([C@@H]5CC[C@@]4([C@]3(CC2)C)C)(C)C)C)O
Method: HCD
Collision_energy: [28.333334]
Isolation_window: 4.0
Ion_mode: N
Num Peaks: 18
52.3706	2.0
52.3734	4.4
52.4849	1.3
59.0129	2.5
96.9592	3.4
427.3576	1.3
453.3379	15.8
454.3416	4.8
469.3236	1.2
470.3318	1.5
471.2074	8.4
471.2122	2.8
471.2894	1.6
471.3483	100.0
472.2114	2.4
472.3516	31.2
473.2242	5.8
473.3564	4.1

Name: Allocholic acid
PrecursorMZ: 407.27962
RT: 1.065
ExactMass: 408.28757437
Spectrum_type: 2
charge: -1
Formula: C24H40O5
SMILES: C[C@H](CCC(=O)O)[C@H]1CC[C@@H]2[C@@]1([C@H](C[C@H]3[C@H]2[C@@H](C[C@@H]4[C@@]3(CC[C@H](C4)O)C)O)O)C
Method: HCD
Collision_energy: [28.333334]
Isolation_window: 4.0
Ion_mode: N
Num Peaks: 32
59.0128	0.6
61.9873	0.9
69.0335	0.4
101.8198	0.2
341.2472	0.2
343.2638	0.7
344.2660	0.2
345.2788	2.0
346.2821	0.4
347.2568	0.2
359.2578	0.3
361.2740	1.2
362.2771	0.3
363.2898	0.8
364.2913	0.2
371.2594	0.3
381.3006	0.7
382.3045	0.2
389.2709	0.5
405.2640	1.5
406.2676	1.8
407.0100	0.2
407.1346	0.4
407.1686	0.7
407.1891	0.6
407.2795	100.0
407.3684	0.6
407.3918	0.8
407.4252	0.2
408.1730	0.1
408.2828	26.3
409.2856	2.5

Name: Alpha-Aminoadipic Acid
PrecursorMZ: 160.06076
RT: 8.7379
Spectrum_type: 2
charge: -1
Method: HCD
Collision_energy: [28.333334]
Isolation_window: 4.0
Ion_mode: N
Num Peaks: 34
58.0290	8.8
59.0130	9.7
60.9922	11.5
71.0129	11.0
84.0445	7.5
86.0603	5.0
88.0395	21.4
90.0374	9.3
96.0446	11.0
97.0652	4.8
98.0602	22.2
102.0551	35.4
106.0401	5.5
115.0028	5.2
115.0868	6.4
116.0536	11.9
116.0708	100.0
117.0661	14.4
117.0744	5.9
118.0403	4.5
128.0345	30.4
130.0655	4.5
132.0561	5.2
133.0511	5.0
142.0502	86.8
158.0613	10.7
158.0815	35.6
159.0658	10.8
159.0770	19.6
160.0405	15.8
160.0610	96.7
160.0970	29.9
161.0458	8.2
162.0552	18.0

Name: Asiatic Acid
PrecursorMZ: 487.34304
RT: 2.7020666666666666
ExactMass: 488.35017463
Spectrum_type: 2
charge: -1
Formula: C30H48O5
SMILES: C[C@@H]1CC[C@@]2(CC[C@@]3(C(=CC[C@H]4[C@]3(CC[C@@H]5[C@@]4(C[C@H]([C@@H]([C@@]5(C)CO)O)O)C)C)[C@@H]2[C@H]1C)C)C(=O)O
Method: HCD
Collision_energy: [28.333334]
Isolation_window: 4.0
Ion_mode: N
Num Peaks: 13
54.1477	2.0
54.1506	4.8
69.2023	3.4
389.2706	2.1
390.2748	5.3
469.3334	8.9
470.3359	2.6
474.2418	8.3
486.3325	3.7
487.3433	100.0
488.3466	30.2
489.2671	7.9
489.3569	14.8

Name: Azelaic Acid
PrecursorMZ: 187.09678
RT: 6.3298
ExactMass: 188.10485899
Spectrum_type: 2
charge: -1
Formula: C9H16O4
SMILES: C(CCCC(=O)O)CCCC(=O)O
Method: HCD
Collision_energy: [28.333334]
Isolation_window: 4.0
Ion_mode: N
Num Peaks: 34
59.0129	8.2
69.0336	8.2
71.0129	16.2
71.0492	9.2
73.0397	6.3
78.9580	10.0
89.0234	22.4
96.0443	6.7
100.0393	11.9
109.0647	6.9
110.9843	30.7
111.9876	7.6
112.9886	6.8
116.0708	20.1
125.0594	12.1
125.0963	11.4
127.0754	12.7
130.0865	15.7
140.0821	25.8
141.0856	40.3
142.0873	19.6
143.1181	24.8
158.0815	6.2
170.0449	9.1
170.0819	6.2
171.0656	20.3
186.0248	17.2
186.0763	14.8
187.0608	19.8
187.0970	100.0
187.1090	22.5
188.0562	6.4
188.0931	18.2
189.0763	60.6

Name: Benzylideneacetone
PrecursorMZ: 497.23246
RT: 5.1123
ExactMass: 146.073164938
Spectrum_type: 2
charge: -1
Formula: C10H10O
SMILES: CC(=O)/C=C/C1=CC=CC=C1
Method: HCD
Collision_energy: [28.333334]
Isolation_window: 4.0
Ion_mode: N
Num Peaks: 5
152.0708	41.7
248.1483	30.5
260.1656	100.0
303.1352	36.9
344.1862	42.2

Name: Beta-Carboline
PrecursorMZ: 167.0607
RT: 1.9288916666666667
ExactMass: 168.068748264
Spectrum_type: 2
charge: -1
Formula: C11H8N2
SMILES: C1=CC=C2C(=C1)C3=C(N2)C=NC=C3
Method: HCD
Collision_energy: [28.333334]
Isolation_window: 4.0
Ion_mode: N
Num Peaks: 4
166.0139	4.0
166.0522	4.2
167.0607	100.0
168.0642	12.0

Name: Cholenic acid
PrecursorMZ: 373.27451
RT: 1.5691
ExactMass: 374.28209507
Spectrum_type: 2
charge: -1
Formula: C24H38O3
SMILES: C[C@H](CCC(=O)O)[C@H]1CC[C@@H]2[C@@]1(CC[C@H]3[C@H]2CC=C4[C@@]3(CC[C@@H](C4)O)C)C
Method: HCD
Collision_energy: [28.333334]
Isolation_window: 4.0
Ion_mode: N
Num Peaks: 15
79.9563	0.4
96.9590	1.0
164.0711	0.4
372.1129	0.3
372.1931	9.4
372.2598	0.7
373.0922	0.3
373.1944	3.2
373.2746	100.0
374.1235	0.3
374.1990	0.8
374.2778	25.1
375.1106	0.5
375.1882	0.4
375.2816	2.5

Name: Citrinin
PrecursorMZ: 249.07707
RT: 1.0229
ExactMass: 250.08412354
Spectrum_type: 2
charge: -1
Formula: C13H14O5
SMILES: C[C@@H]1[C@H](OC=C2C1=C(C(=C(C2=O)C(=O)O)O)C)C
Method: HCD
Collision_energy: [28.333334]
Isolation_window: 4.0
Ion_mode: N
Num Peaks: 96
59.0129	0.9
69.3889	0.9
79.9563	7.7
80.9643	31.0
82.9600	0.9
87.0079	0.9
93.0336	3.6
96.9592	12.2
97.0286	6.4
99.0078	1.1
107.0493	0.8
109.0287	2.1
111.0443	1.6
113.0234	1.8
121.0650	0.7
123.0442	1.1
125.0235	1.0
125.0598	0.7
127.0393	2.1
133.0287	2.7
133.0649	0.8
135.0442	0.9
135.0810	1.1
137.0237	1.4
137.0600	1.1
139.0395	1.6
141.0548	1.5
149.0601	1.2
151.0394	2.0
159.0811	0.8
160.0396	0.8
160.0760	2.1
161.0601	2.9
161.0965	1.6
163.0393	1.5
163.0759	5.5
165.0551	1.2
165.0788	1.3
167.0344	3.5
168.0376	4.1
175.0396	1.0
175.0758	1.7
176.0333	1.1
177.0550	2.1
177.0911	1.2
179.0346	1.1
179.0707	1.7
179.0940	1.9
180.0418	0.7
184.0013	3.3
187.0761	1.3
189.0553	1.9
190.0629	0.7
191.0345	1.8
192.0420	1.4
193.0497	1.0
203.0708	3.6
204.0650	3.2
204.0678	1.5
205.0503	5.0
205.0865	9.2
205.1234	0.7
206.0567	1.1
206.0874	1.0
206.0902	1.0
207.0658	8.2
207.1018	2.1
207.1389	0.8
208.0608	1.2
219.0302	0.9
219.0667	1.3
221.0823	0.9
231.0664	2.5
233.0448	1.0
247.0624	6.9
247.0978	4.3
247.1338	1.5
247.9973	0.9
248.0249	1.2
248.0603	3.2
248.0810	4.1
248.0950	0.8
248.1010	0.8
248.5812	2.1
249.0352	13.6
249.0430	7.1
249.0779	100.0
249.1123	10.5
249.1533	2.6
250.0384	5.2
250.0795	13.3
250.1163	1.2
251.0233	1.4
251.0567	25.5
251.0941	20.2
251.1290	11.0

Name: Cytidine
PrecursorMZ: 242.07802
RT: 7.314829166666667
ExactMass: 243.08552052
Spectrum_type: 2
charge: -1
Formula: C9H13N3O5
SMILES: C1=CN(C(=O)N=C1N)[C@H]2[C@@H]([C@@H]([C@H](O2)CO)O)O
Method: HCD
Collision_energy: [28.333334]
Isolation_window: 4.0
Ion_mode: N
Num Peaks: 105
59.0130	3.3
67.0293	4.0
69.4545	1.0
71.0129	2.3
72.9922	1.6
73.0286	2.1
81.0449	13.2
82.0290	0.9
83.0493	1.2
84.0446	1.5
85.0286	2.0
87.0078	1.2
87.0442	0.9
88.0395	1.7
91.0293	3.6
95.0242	1.9
96.9592	1.0
97.0288	1.1
98.0238	1.0
98.0603	1.9
99.0079	0.9
99.0443	1.2
101.0238	1.2
108.0446	1.7
109.0277	1.1
109.0399	100.0
110.0243	1.1
110.0352	9.4
110.0432	5.1
111.0191	1.4
111.0446	1.2
112.0397	1.5
114.0553	2.3
116.0709	3.5
123.0444	1.4
123.0556	7.2
124.0398	2.5
125.0348	1.6
125.0604	0.9
126.0552	1.0
127.0760	0.9
128.0344	3.3
130.0864	1.2
137.0599	1.0
138.0552	1.2
139.0505	1.1
140.0709	2.5
142.0506	0.9
144.0659	0.8
145.0975	22.0
149.0711	1.6
152.0458	10.6
153.0305	1.6
153.0662	26.1
153.0916	1.1
154.0500	1.0
154.0615	1.5
163.1123	3.8
179.1069	1.0
179.1433	2.1
180.0647	1.0
181.0865	10.7
181.1226	10.2
182.0445	1.0
182.0897	0.8
182.1264	0.9
197.0703	0.9
197.1171	1.5
198.1121	1.3
199.0737	0.9
199.1334	1.2
199.1815	2.4
200.0923	1.9
222.0885	7.5
223.0908	1.7
223.1332	2.4
224.0913	0.9
225.1132	2.7
225.1482	1.0
226.1063	1.1
226.1098	0.8
240.0980	2.4
240.1254	0.9
240.1966	5.3
240.8698	0.9
241.0718	1.3
241.0831	2.1
241.1073	1.7
241.1440	10.8
241.2176	17.8
242.0791	14.7
242.1045	3.8
242.1436	1.4
242.1470	1.6
242.2206	3.2
243.0152	1.0
243.0527	2.0
243.0880	17.1
243.1238	33.9
243.1704	6.4
243.1737	9.1
244.0838	3.1
244.1176	2.6
244.1208	2.5
244.1268	2.9

Name: D-Cellobiose
PrecursorMZ: 377.08542
RT: 9.2353
ExactMass: 342.11621151
Spectrum_type: 2
charge: -1
Formula: C12H22O11
SMILES: C([C@@H]1[C@H]([C@@H]([C@H]([C@@H](O1)O[C@@H]2[C@H](O[C@H]([C@@H]([C@H]2O)O)O)CO)O)O)O)O
Method: HCD
Collision_energy: [28.333334]
Isolation_window: 4.0
Ion_mode: N
Num Peaks: 5
89.0235	56.2
101.0235	50.4
161.0450	77.8
179.0553	75.4
377.0865	100.0

Name: D-Threitol
PrecursorMZ: 227.11133
RT: 2.6842
ExactMass: 122.0579088
Spectrum_type: 2
charge: -1
Formula: C4H10O4
SMILES: C([C@H]([C@@H](CO)O)O)O
Method: HCD
Collision_energy: [28.333334]
Isolation_window: 4.0
Ion_mode: N
Num Peaks: 15
58.0289	15.6
59.0130	3.3
96.9592	6.1
140.1073	2.9
182.1182	19.6
183.1217	2.2
184.0974	100.0
185.1009	11.2
226.0389	3.7
226.1113	14.0
226.6141	3.4
227.0218	2.1
227.0569	1.6
227.1197	17.8
227.6216	5.4

Name: DL-Glutamine
PrecursorMZ: 145.06091
RT: 9.1487
ExactMass: 146.06914219
Spectrum_type: 2
charge: -1
Formula: C5H10N2O3
SMILES: C(CC(=O)N)C(C(=O)O)N
Method: HCD
Collision_energy: [28.333334]
Isolation_window: 4.0
Ion_mode: N
Num Peaks: 25
74.0238	10.9
83.0493	7.8
84.0445	15.4
85.0285	21.6
87.0078	18.3
97.0648	9.9
101.0599	12.5
101.0710	8.1
102.0550	100.0
109.0397	21.4
118.0401	45.7
125.0347	9.4
127.0503	48.4
128.0343	48.3
129.0184	12.6
143.0704	16.9
144.0447	13.1
144.0559	13.0
144.0653	27.3
145.0505	16.9
145.0610	41.7
145.0974	13.1
146.0243	11.2
146.0448	25.0
147.0291	14.7

Name: Deoxyguanosine
PrecursorMZ: 266.08924
RT: 6.832852380952381
ExactMass: 267.09675391
Spectrum_type: 2
charge: -1
Formula: C10H13N5O4
SMILES: C1[C@@H]([C@H](O[C@H]1N2C=NC3=C2N=C(NC3=O)N)CO)O
Method: HCD
Collision_energy: [28.333334]
Isolation_window: 4.0
Ion_mode: N
Num Peaks: 25
80.9642	2.0
96.9591	2.5
101.0232	1.3
124.0064	1.2
133.0146	2.9
135.0303	100.0
136.0345	3.3
150.0413	44.2
151.0253	2.3
151.0456	1.9
176.0571	4.6
181.0498	1.8
221.0609	1.9
250.0717	1.5
265.0909	1.2
265.1474	4.2
266.0323	2.3
266.0892	40.5
267.0705	6.4
267.0727	71.9
267.0952	3.5
267.1012	6.7
267.2323	1.8
268.0756	6.1
268.0819	1.4

Name: Dihydrocapsaicin
PrecursorMZ: 127.07559
RT: 3.026
ExactMass: 307.21474379
Spectrum_type: 2
charge: -1
Formula: C18H29NO3
SMILES: CC(C)CCCCCCC(=O)NCC1=CC(=C(C=C1)O)OC
Method: HCD
Collision_energy: [28.333334]
Isolation_window: 4.0
Ion_mode: N
Num Peaks: 3
125.8990	1.8
127.0757	100.0
128.0790	9.3

Name: Docosapentaenoic Acid
PrecursorMZ: 329.24856
RT: 1.2149
ExactMass: 330.255880323
Spectrum_type: 2
charge: -1
Formula: C22H34O2
SMILES: CC/C=C\C/C=C\C/C=C\C/C=C\C/C=C\CCCCCC(=O)O
Method: HCD
Collision_energy: [28.333334]
Isolation_window: 4.0
Ion_mode: N
Num Peaks: 13
59.0130	7.0
285.2590	7.0
327.2872	4.4
328.0852	2.0
328.2934	2.7
329.1032	4.8
329.1102	3.0
329.1479	2.8
329.2488	100.0
330.2521	23.1
331.0831	2.4
331.1194	3.3
331.2644	54.8

Name: Esculetin
PrecursorMZ: 179.03431
RT: 3.7348
ExactMass: 178.02660867
Spectrum_type: 2
charge: -1
Formula: C9H6O4
SMILES: C1=CC(=O)OC2=CC(=C(C=C21)O)O
Method: HCD
Collision_energy: [28.333334]
Isolation_window: 4.0
Ion_mode: N
Num Peaks: 4
111.0442	18.6
135.0443	27.0
137.0241	15.8
179.0344	100.0

Name: Exemestane
PrecursorMZ: 255.06618
RT: 2.5909
ExactMass: 296.177630004
Spectrum_type: 2
charge: -1
Formula: C20H24O2
SMILES: C[C@]12CC[C@H]3[C@H]([C@@H]1CCC2=O)CC(=C)C4=CC(=O)C=C[C@]34C
Method: HCD
Collision_energy: [28.333334]
Isolation_window: 4.0
Ion_mode: N
Num Peaks: 12
96.9593	9.0
135.0081	12.1
149.0237	100.0
228.0297	13.0
254.0517	11.3
255.0661	95.6
255.1290	11.8
255.2329	96.7
256.0253	48.6
256.0677	16.8
256.1420	12.3
256.2362	18.1

Name: Fumaric Acid
PrecursorMZ: 277.0203
RT: 1.2694
ExactMass: 116.0109586
Spectrum_type: 2
charge: -1
Formula: C4H4O4
SMILES: C(=C/C(=O)O)\C(=O)O
Method: HCD
Collision_energy: [28.333334]
Isolation_window: 4.0
Ion_mode: N
Num Peaks: 10
76.9690	15.7
79.9562	15.3
181.0319	38.3
244.9942	98.1
245.9966	13.2
259.0102	9.5
277.0206	100.0
277.1842	38.9
278.0231	13.3
278.1877	10.0

Name: Gamma-Tocotrienol
PrecursorMZ: 409.31076
RT: 1.0661
ExactMass: 410.318480578
Spectrum_type: 2
charge: -1
Formula: C28H42O2
SMILES: CC1=C(C=C2CC[C@@](OC2=C1C)(C)CC/C=C(\C)/CC/C=C(\C)/CCC=C(C)C)O
Method: HCD
Collision_energy: [28.333334]
Isolation_window: 4.0
Ion_mode: N
Num Peaks: 14
95.0492	1.4
97.4664	1.1
121.0648	2.1
149.0599	100.0
150.0633	8.4
175.0752	1.4
204.1146	1.4
394.2874	22.2
395.2911	6.3
409.3105	49.1
409.3566	2.4
410.3136	13.5
411.1426	1.1
411.3237	2.3

Name: Gitogenin
PrecursorMZ: 431.3167
RT: 1.2334333333333334
ExactMass: 432.32395988
Spectrum_type: 2
charge: -1
Formula: C27H44O4
SMILES: C[C@@H]1CC[C@@]2([C@H]([C@H]3[C@@H](O2)C[C@@H]4[C@@]3(CC[C@H]5[C@H]4CC[C@@H]6[C@@]5(C[C@H]([C@@H](C6)O)O)C)C)C)OC1
Method: HCD
Collision_energy: [28.333334]
Isolation_window: 4.0
Ion_mode: N
Num Peaks: 13
69.1104	1.8
96.9592	3.6
110.9844	2.0
167.0110	1.6
357.2802	15.9
358.2840	4.3
430.2068	2.6
431.2184	17.2
431.3169	100.0
432.2224	4.0
432.3199	29.4
433.2728	2.8
433.3260	5.4

Name: Glycocholic Acid
PrecursorMZ: 464.30156
RT: 4.9329
ExactMass: 465.30903809
Spectrum_type: 2
charge: -1
Formula: C26H43NO6
SMILES: C[C@H](CCC(=O)NCC(=O)O)[C@H]1CC[C@@H]2[C@@]1([C@H](C[C@H]3[C@H]2[C@@H](C[C@H]4[C@@]3(CC[C@H](C4)O)C)O)O)C
Method: HCD
Collision_energy: [28.333334]
Isolation_window: 4.0
Ion_mode: N
Num Peaks: 40
51.5878	2.1
51.5905	4.0
51.6993	0.5
51.7019	1.1
59.0129	0.7
74.0238	37.4
75.0273	0.6
78.9581	5.9
87.0079	0.7
97.4648	0.6
114.0551	0.6
125.0001	1.3
130.0865	0.5
140.0112	1.9
152.9951	4.4
179.0104	0.8
180.0188	0.5
196.0376	3.4
210.0534	1.0
255.2329	11.7
267.2331	1.2
267.2686	0.6
269.2486	18.4
282.2522	0.5
283.2643	13.2
284.2676	2.7
400.2873	0.6
402.3021	2.7
403.3052	0.8
421.2978	2.1
463.1674	0.5
463.2837	6.8
464.1653	0.9
464.1897	0.5
464.3023	100.0
464.4119	0.5
464.4377	0.7
465.3054	29.0
466.1913	0.5
466.2947	12.9

Name: Guanosine
PrecursorMZ: 282.08444
RT: 7.53645652173913
ExactMass: 283.09166853
Spectrum_type: 2
charge: -1
Formula: C10H13N5O5
SMILES: C1=NC2=C(N1[C@H]3[C@@H]([C@@H]([C@H](O3)CO)O)O)N=C(NC2=O)N
Method: HCD
Collision_energy: [28.333334]
Isolation_window: 4.0
Ion_mode: N
Num Peaks: 12
59.0129	1.0
61.9875	12.9
133.0148	2.6
150.0415	46.5
151.0462	2.3
281.0892	1.6
281.2489	7.1
282.0845	15.8
282.2520	1.6
283.0863	2.8
283.2644	100.0
284.2680	5.8

Name: Harman
PrecursorMZ: 181.07646
RT: 1.7767
ExactMass: 182.084398327
Spectrum_type: 2
charge: -1
Formula: C12H10N2
SMILES: CC1=NC=CC2=C1NC3=CC=CC=C23
Method: HCD
Collision_energy: [28.333334]
Isolation_window: 4.0
Ion_mode: N
Num Peaks: 6
137.0600	0.9
180.0322	0.8
181.0504	1.4
181.0765	100.0
181.9946	1.0
182.0800	12.3

Name: Hederagenin
PrecursorMZ: 471.34796
RT: 1.9405
ExactMass: 472.35526001
Spectrum_type: 2
charge: -1
Formula: C30H48O4
SMILES: C[C@]12CC[C@@H]([C@@]([C@@H]1CC[C@@]3([C@@H]2CC=C4[C@]3(CC[C@@]5([C@H]4CC(CC5)(C)C)C(=O)O)C)C)(C)CO)O
Method: HCD
Collision_energy: [28.333334]
Isolation_window: 4.0
Ion_mode: N
Num Peaks: 10
52.3734	4.2
96.9592	4.4
409.3102	4.5
469.3353	10.1
470.3414	9.6
471.3524	100.0
472.3565	29.3
473.2274	5.0
473.3286	4.2
473.3605	5.6

Name: Indole-3-Carbinol
PrecursorMZ: 459.23897
RT: 1.5873666666666666
ExactMass: 147.068413911
Spectrum_type: 2
charge: -1
Formula: C9H9NO
SMILES: C1=CC=C2C(=C1)C(=CN2)CO
Method: HCD
Collision_energy: [28.333334]
Isolation_window: 4.0
Ion_mode: N
Num Peaks: 19
51.0252	2.1
51.0279	4.6
59.0130	2.7
73.0286	1.2
96.9592	4.9
111.0809	1.3
113.0599	1.4
155.0705	3.3
157.0861	1.8
215.1286	4.0
243.1021	4.7
345.1703	2.2
383.1858	2.2
401.1976	9.5
402.2006	2.3
459.1745	2.5
459.2394	100.0
460.2422	25.4
461.2455	3.4

Name: Inositol
PrecursorMZ: 179.0555
RT: 5.2545
ExactMass: 180.0633881
Spectrum_type: 2
charge: -1
Formula: C6H12O6
SMILES: C1(C(C(C(C(C1O)O)O)O)O)O
Method: HCD
Collision_energy: [28.333334]
Isolation_window: 4.0
Ion_mode: N
Num Peaks: 36
59.0129	35.7
71.0129	25.0
73.0285	2.7
84.9897	2.9
85.0285	7.8
87.0078	34.2
88.0394	8.5
89.0234	27.1
90.9226	16.6
94.0401	11.7
95.0482	3.6
99.0079	8.1
101.0235	8.9
108.9332	49.6
113.0235	5.3
117.0183	10.9
119.0343	2.6
125.0238	6.0
126.0090	4.5
134.9127	9.4
136.0870	12.1
141.0186	5.8
153.0198	6.8
159.0293	4.8
161.0448	40.9
177.0197	6.8
177.0408	5.2
177.0761	3.6
178.0731	7.3
178.8418	7.4
178.9026	12.8
179.0349	7.3
179.0556	100.0
180.0624	4.5
180.0628	4.3
180.8397	3.8

Name: Isethionate
PrecursorMZ: 125.99382
RT: 4.4567
ExactMass: 124.99085481
Spectrum_type: 2
charge: -1
Formula: C2H5O4S-
SMILES: C(CS(=O)(=O)[O-])O
Method: HCD
Collision_energy: [28.333334]
Isolation_window: 4.0
Ion_mode: N
Num Peaks: 10
79.9565	29.4
81.9522	1.3
94.9800	38.8
96.9758	1.9
106.9800	8.8
122.9751	2.2
124.9906	100.0
125.9945	3.0
126.9865	6.1
126.9949	1.1

Name: Isopimaric Acid
PrecursorMZ: 301.21713
RT: 1.120775
ExactMass: 302.224580195
Spectrum_type: 2
charge: -1
Formula: C20H30O2
SMILES: C[C@@]1(CC[C@H]2C(=CC[C@@H]3[C@@]2(CCC[C@@]3(C)C(=O)O)C)C1)C=C
Method: HCD
Collision_energy: [28.333334]
Isolation_window: 4.0
Ion_mode: N
Num Peaks: 2
301.2175	100.0
302.2212	20.0

Name: L-Leucine
PrecursorMZ: 130.08638
RT: 7.1473
ExactMass: 131.094628657
Spectrum_type: 2
charge: -1
Formula: C6H13NO2
SMILES: CC(C)C[C@@H](C(=O)O)N
Method: HCD
Collision_energy: [28.333334]
Isolation_window: 4.0
Ion_mode: N
Num Peaks: 20
57.0336	1.4
65.0136	4.0
70.0288	2.1
85.0285	2.3
85.0649	3.0
86.0600	2.5
87.0442	4.2
88.0394	7.3
89.0135	3.2
91.0292	1.4
101.0234	2.4
102.0185	1.4
128.0344	16.7
129.0380	3.1
130.0402	4.8
130.0500	1.7
130.0864	100.0
131.0352	7.1
131.0700	2.0
131.0899	7.7

Name: Levulinic Acid
PrecursorMZ: 115.03919
RT: 5.0447
ExactMass: 116.047344113
Spectrum_type: 2
charge: -1
Formula: C5H8O3
SMILES: CC(=O)CCC(=O)O
Method: HCD
Collision_energy: [28.333334]
Isolation_window: 4.0
Ion_mode: N
Num Peaks: 12
60.9922	3.3
68.9948	2.8
71.0493	73.3
89.0136	3.4
97.0285	10.6
99.9248	15.3
114.9334	10.4
115.0392	29.7
115.0753	4.0
116.0245	11.9
116.0499	4.0
116.9277	100.0

Name: Lumichrome
PrecursorMZ: 241.07246
RT: 2.2427384615384613
ExactMass: 242.08037557
Spectrum_type: 2
charge: -1
Formula: C12H10N4O2
SMILES: CC1=CC2=C(C=C1C)N=C3C(=N2)C(=O)NC(=O)N3
Method: HCD
Collision_energy: [28.333334]
Isolation_window: 4.0
Ion_mode: N
Num Peaks: 66
57.0337	3.7
59.0130	9.0
71.0130	3.5
72.9922	6.5
75.0079	14.0
79.9564	3.6
83.0493	4.4
85.0286	8.7
87.0078	11.9
95.0494	3.7
97.0286	5.7
99.0442	4.4
109.0650	5.4
111.0443	7.9
113.0237	5.8
123.0317	9.2
123.0442	6.1
123.0810	3.9
125.0599	6.4
127.0393	5.8
135.0809	5.3
137.0599	6.5
139.0398	4.4
151.0756	5.6
153.0552	6.2
153.0914	8.8
167.0705	4.2
179.0708	5.5
180.1014	4.2
181.0503	4.5
184.0014	3.3
184.0975	13.9
195.0556	3.4
195.0654	4.3
195.1389	3.4
196.0968	4.1
197.0455	4.0
197.0808	7.7
198.0668	23.0
223.0282	6.9
224.0924	6.2
239.0538	8.8
239.0671	22.8
239.0917	8.9
239.1283	4.1
239.5684	11.6
240.0754	35.3
240.0877	5.2
240.1273	12.2
240.5775	7.7
240.6300	5.0
241.0727	100.0
241.1052	6.3
241.1092	3.5
241.1159	3.1
241.1419	8.2
241.1451	4.4
241.1808	3.6
241.2171	16.2
242.0759	14.6
242.1042	4.9
243.0189	5.9
243.0481	4.6
243.0875	15.4
243.1241	12.9
243.1963	12.9

Name: Methyl Stearate
PrecursorMZ: 297.27972
RT: 1.0565
ExactMass: 298.287180451
Spectrum_type: 2
charge: -1
Formula: C19H38O2
SMILES: CCCCCCCCCCCCCCCCCC(=O)OC
Method: HCD
Collision_energy: [28.333334]
Isolation_window: 4.0
Ion_mode: N
Num Peaks: 20
59.0130	2.6
149.0090	1.8
251.2378	2.6
253.2539	5.2
264.9845	1.4
295.2647	6.3
296.2674	5.2
297.0469	4.6
297.1534	6.9
297.2438	11.6
297.2795	100.0
297.3076	1.5
298.0476	1.3
298.1556	1.1
298.2470	2.7
298.2829	19.6
299.0227	1.7
299.2588	12.5
315.0580	2.1
316.0584	1.0

Name: Myristic Acid
PrecursorMZ: 227.20122
RT: 1.2577272727272728
ExactMass: 228.208930132
Spectrum_type: 2
charge: -1
Formula: C14H28O2
SMILES: CCCCCCCCCCCCCC(=O)O
Method: HCD
Collision_energy: [28.333334]
Isolation_window: 4.0
Ion_mode: N
Num Peaks: 10
79.9564	1.7
156.1386	3.0
184.1337	29.7
185.1373	2.0
226.0694	2.0
227.0373	7.5
227.2013	100.0
228.2047	13.7
229.0170	2.2
229.0595	1.9

Name: N-Acetyl-L-arginine
PrecursorMZ: 215.1143
RT: 9.238966666666666
ExactMass: 216.12224039
Spectrum_type: 2
charge: -1
Formula: C8H16N4O3
SMILES: CC(=O)N[C@@H](CCCN=C(N)N)C(=O)O
Method: HCD
Collision_energy: [28.333334]
Isolation_window: 4.0
Ion_mode: N
Num Peaks: 17
72.0445	19.3
109.9412	12.5
115.9278	31.3
129.1024	26.4
131.0817	74.3
153.0550	18.7
154.0500	12.6
161.0922	37.0
173.0921	100.0
173.1043	52.6
214.0717	16.7
215.0551	16.6
215.1144	63.2
215.9965	17.9
216.1230	21.2
217.0716	11.9
217.1194	48.9

Name: N-Acetyl-L-glutamic acid
PrecursorMZ: 188.05585
RT: 7.6581
ExactMass: 189.06372245
Spectrum_type: 2
charge: -1
Formula: C7H11NO5
SMILES: CC(=O)N[C@@H](CCC(=O)O)C(=O)O
Method: HCD
Collision_energy: [28.333334]
Isolation_window: 4.0
Ion_mode: N
Num Peaks: 43
58.0290	8.0
59.0130	39.8
74.0239	3.3
88.0395	82.4
94.0290	5.8
98.0239	4.9
99.0807	11.0
100.0395	3.7
100.0759	23.4
102.0552	76.2
103.0505	2.6
103.0586	3.0
109.0649	2.1
114.0550	2.9
116.0345	8.0
116.0709	25.0
121.0509	2.7
125.0964	16.7
126.0552	9.5
127.0756	52.8
128.0345	100.0
128.0790	2.7
129.0382	5.5
142.0504	6.7
142.0866	10.1
143.0707	5.0
144.0659	39.2
144.1022	14.0
145.0608	5.1
145.0863	5.0
146.0452	11.3
170.0453	27.0
170.0817	73.9
171.0655	10.3
171.0849	6.9
187.0608	4.0
187.0966	6.8
187.1090	4.4
188.0560	38.7
188.0924	63.9
189.0595	4.2
189.0763	27.7
189.0958	6.1

Name: N-Acetylasparagine
PrecursorMZ: 173.05607
RT: 6.1677
ExactMass: 174.0640568
Spectrum_type: 2
charge: -1
Formula: C6H10N2O4
SMILES: CC(=O)N[C@@H](CC(=O)N)C(=O)O
Method: HCD
Collision_energy: [28.333334]
Isolation_window: 4.0
Ion_mode: N
Num Peaks: 14
68.0496	9.0
82.0289	3.9
83.0130	2.3
85.0285	4.9
100.0396	5.5
111.0556	4.6
112.0395	2.8
113.0348	18.2
128.0344	4.2
129.0661	4.8
130.0502	28.3
155.0455	2.2
173.0562	100.0
174.0599	6.1

Name: N-Acetylcadaverine
PrecursorMZ: 323.22217
RT: 1.2079
ExactMass: 144.126263138
Spectrum_type: 2
charge: -1
Formula: C7H16N2O
SMILES: CC(=O)NCCCCCN
Method: HCD
Collision_energy: [28.333334]
Isolation_window: 4.0
Ion_mode: N
Num Peaks: 11
69.1017	6.6
69.2020	5.5
96.9592	3.6
97.4654	3.9
291.1962	10.3
323.1237	5.8
323.2224	100.0
324.1308	9.6
324.2257	20.4
325.1841	64.8
325.3102	5.4

Name: Orcinol
PrecursorMZ: 125.05996
RT: 2.1393
ExactMass: 124.052429494
Spectrum_type: 2
charge: -1
Formula: C7H8O2
SMILES: CC1=CC(=CC(=C1)O)O
Method: HCD
Collision_energy: [28.333334]
Isolation_window: 4.0
Ion_mode: N
Num Peaks: 7
79.9564	99.0
81.9522	81.8
123.9007	62.9
124.0150	56.2
125.0072	100.0
125.0599	89.9
125.8988	73.2

Name: Palmitic Acid
PrecursorMZ: 255.23278
RT: 1.1665
ExactMass: 256.240230259
Spectrum_type: 2
charge: -1
Formula: C16H32O2
SMILES: CCCCCCCCCCCCCCCC(=O)O
Method: HCD
Collision_energy: [28.333334]
Isolation_window: 4.0
Ion_mode: N
Num Peaks: 18
96.9593	2.5
97.4400	1.3
139.0393	1.3
146.0243	1.2
151.0865	1.3
209.0670	1.4
210.1122	1.6
211.2062	1.8
213.0921	1.5
254.0527	3.4
254.0741	1.8
255.0830	2.3
255.0880	6.7
255.2329	100.0
256.2364	17.4
257.0356	5.1
257.0827	1.6
257.2121	3.2

Name: Pentulose, 5-phosphate
PrecursorMZ: 213.01486
RT: 0.8081
ExactMass: 230.0191543
Spectrum_type: 2
charge: -1
Formula: C5H11O8P
SMILES: C(C(C(C(=O)CO)O)O)OP(=O)(O)O
Method: HCD
Collision_energy: [28.333334]
Isolation_window: 4.0
Ion_mode: N
Num Peaks: 2
197.9914	100.0
213.0148	59.4

Name: Piperonyl Butoxide
PrecursorMZ: 337.20183
RT: 5.2578
ExactMass: 338.20932405
Spectrum_type: 2
charge: -1
Formula: C19H30O5
SMILES: CCCCOCCOCCOCC1=CC2=C(C=C1CCC)OCO2
Method: HCD
Collision_energy: [28.333334]
Isolation_window: 4.0
Ion_mode: N
Num Peaks: 71
59.0129	3.2
71.0130	1.2
72.9922	1.0
73.0286	1.2
74.0238	1.5
85.0285	3.8
87.0079	1.8
88.0395	1.5
93.0335	1.2
96.9591	0.9
98.0239	1.1
100.0393	0.8
101.0234	0.8
109.0286	1.5
111.0442	1.8
112.0396	1.7
113.0347	5.6
114.0551	4.6
116.0707	1.2
119.0495	1.7
122.0602	2.2
124.0755	1.4
127.0393	0.9
127.0503	1.8
128.0343	2.7
130.0501	1.7
130.0865	2.4
134.0602	1.6
135.0444	1.5
136.0759	4.7
138.0552	4.3
138.0913	1.1
139.0062	3.8
140.0095	1.1
141.0016	1.3
147.0445	1.4
148.0759	1.6
149.0598	0.8
151.0867	0.9
154.0864	1.6
156.0660	1.8
164.0709	4.5
173.0453	1.5
180.0654	1.0
190.0712	1.5
190.0871	1.0
192.0660	0.9
192.1025	0.9
198.0764	1.4
202.0873	0.9
259.1449	3.3
260.1481	2.1
275.1392	0.9
275.2013	0.9
291.1967	1.2
293.2085	0.9
294.1336	2.5
335.1867	5.7
336.1113	2.7
336.1541	1.5
336.1913	2.3
336.3262	1.4
337.0931	1.6
337.1362	5.2
337.2019	100.0
338.1251	17.9
338.1701	1.1
338.2052	18.8
339.1295	6.5
339.1798	1.2
339.2099	1.5

Name: Prednisolone
PrecursorMZ: 359.18666
RT: 2.0115
ExactMass: 360.19367399
Spectrum_type: 2
charge: -1
Formula: C21H28O5
SMILES: C[C@]12C[C@@H]([C@H]3[C@H]([C@@H]1CC[C@@]2(C(=O)CO)O)CCC4=CC(=O)C=C[C@]34C)O
Method: HCD
Collision_energy: [28.333334]
Isolation_window: 4.0
Ion_mode: N
Num Peaks: 11
271.2068	100.0
272.2107	16.0
297.1856	9.6
299.2018	8.3
315.1963	8.5
341.1761	24.4
357.3014	10.2
359.1868	89.7
359.2804	7.2
360.1890	17.5
361.2023	21.3

Name: Quillaic Acid
PrecursorMZ: 487.34296
RT: 3.0646
ExactMass: 486.33452456
Spectrum_type: 2
charge: -1
Formula: C30H46O5
SMILES: C[C@]12CC[C@@H]([C@@]([C@@H]1CC[C@@]3([C@@H]2CC=C4[C@]3(C[C@H]([C@@]5([C@H]4CC(CC5)(C)C)C(=O)O)O)C)C)(C)C=O)O
Method: HCD
Collision_energy: [28.333334]
Isolation_window: 4.0
Ion_mode: N
Num Peaks: 4
54.1508	4.2
487.3452	100.0
488.3486	32.0
489.3544	5.0

Name: Seneciphylline
PrecursorMZ: 293.17599
RT: 1.09875
ExactMass: 333.15762283
Spectrum_type: 2
charge: -1
Formula: C18H23NO5
SMILES: C/C=C\1/CC(=C)[C@@](C(=O)OCC2=CCN3[C@H]2[C@@H](CC3)OC1=O)(C)O
Method: HCD
Collision_energy: [28.333334]
Isolation_window: 4.0
Ion_mode: N
Num Peaks: 19
57.0337	84.7
58.0371	3.2
96.9592	3.9
99.0806	100.0
100.0839	6.1
177.0552	2.2
178.0629	3.0
193.0864	16.5
194.0891	1.6
221.1534	1.4
236.1051	1.4
292.1232	2.6
293.1312	1.5
293.1755	14.3
293.2108	3.3
294.1206	1.2
294.1782	2.7
294.6197	1.4
295.1345	1.4

Name: Sorbic Acid
PrecursorMZ: 130.08651
RT: 6.0427
ExactMass: 112.052429494
Spectrum_type: 2
charge: -1
Formula: C6H8O2
SMILES: C/C=C/C=C/C(=O)O
Method: HCD
Collision_energy: [28.333334]
Isolation_window: 4.0
Ion_mode: N
Num Peaks: 9
71.0131	6.4
85.0286	9.6
85.0650	25.8
128.0345	25.5
129.0382	37.1
130.0391	5.8
130.0866	100.0
131.0343	12.4
131.0707	15.8

Name: Syringic Acid
PrecursorMZ: 181.05003
RT: 5.0084
ExactMass: 198.05282342
Spectrum_type: 2
charge: -1
Formula: C9H10O5
SMILES: COC1=CC(=CC(=C1O)OC)C(=O)O
Method: HCD
Collision_energy: [28.333334]
Isolation_window: 4.0
Ion_mode: N
Num Peaks: 7
71.0130	11.9
108.9009	14.0
109.0287	22.4
121.0286	9.3
137.0601	100.0
163.0392	15.3
181.0500	33.4

Name: Thiocyanate
PrecursorMZ: 116.95866
RT: 13.3766
ExactMass: 57.97514518
Spectrum_type: 2
charge: -1
Formula: CNS-
SMILES: C(#N)[S-]
Method: HCD
Collision_energy: [28.333334]
Isolation_window: 4.0
Ion_mode: N
Num Peaks: 5
60.9923	100.0
72.9688	42.5
99.9248	9.7
116.0244	17.5
116.9277	54.2

Name: Threonic acid
PrecursorMZ: 135.0301
RT: 2.7961
ExactMass: 136.03717335
Spectrum_type: 2
charge: -1
Formula: C4H8O5
SMILES: C([C@H]([C@@H](C(=O)O)O)O)O
Method: HCD
Collision_energy: [28.333334]
Isolation_window: 4.0
Ion_mode: N
Num Peaks: 23
59.0130	3.8
63.9616	1.8
71.0130	2.3
72.9922	10.3
75.0079	86.6
76.0111	1.5
76.9693	2.4
79.9564	2.4
89.0236	3.9
92.0245	4.7
93.0338	1.3
93.0449	6.0
115.0391	1.4
117.0185	10.4
133.0502	2.0
134.0464	2.5
134.8939	1.9
135.0211	1.7
135.0293	100.0
135.0440	13.3
136.0323	5.3
137.0236	1.8
137.0343	1.7

Name: Trigonelline
PrecursorMZ: 136.03959
RT: 7.96593125
ExactMass: 137.047678466
Spectrum_type: 2
charge: -1
Formula: C7H7NO2
SMILES: C[N+]1=CC=CC(=C1)C(=O)[O-]
Method: HCD
Collision_energy: [28.333334]
Isolation_window: 4.0
Ion_mode: N
Num Peaks: 9
65.9975	8.9
75.0079	37.0
134.8647	34.4
134.8939	100.0
135.0292	15.5
135.8942	12.7
135.9704	13.2
136.8620	14.1
136.8909	38.2

Name: Undecanoic Acid
PrecursorMZ: 185.15406
RT: 1.4656500000000001
ExactMass: 186.16197994
Spectrum_type: 2
charge: -1
Formula: C11H22O2
SMILES: CCCCCCCCCCC(=O)O
Method: HCD
Collision_energy: [28.333334]
Isolation_window: 4.0
Ion_mode: N
Num Peaks: 5
123.0443	1.4
141.0549	2.4
185.0449	4.7
185.1542	100.0
186.1575	11.2

Name: gamma-Guanidinobutyric acid
PrecursorMZ: 144.07714
RT: 9.383866666666666
ExactMass: 145.085126602
Spectrum_type: 2
charge: -1
Formula: C5H11N3O2
SMILES: C(CC(=O)O)CN=C(N)N
Method: HCD
Collision_energy: [28.333334]
Isolation_window: 4.0
Ion_mode: N
Num Peaks: 16
89.0137	3.6
101.0600	4.6
102.0552	100.0
116.0246	8.7
128.0345	20.3
142.0404	24.4
143.0244	10.7
143.0356	44.2
143.0707	26.2
144.0196	9.9
144.0656	3.5
144.0755	4.1
144.1023	8.5
145.0499	4.7
146.0253	5.6
146.0452	19.9

Name: (-)-Catechin
PrecursorMZ: 289.07162
RT: 0.6789
ExactMass: 290.07903816
Spectrum_type: 2
charge: -1
Formula: C15H14O6
SMILES: C1[C@H]([C@@H](OC2=CC(=CC(=C21)O)O)C3=CC(=C(C=C3)O)O)O
Method: HCD
Collision_energy: [28.333334]
Isolation_window: 4.0
Ion_mode: N
Num Peaks: 33
61.9873	3.1
80.9642	2.0
87.0078	3.7
109.0286	6.4
123.0442	2.3
149.0239	2.4
174.0315	2.0
175.0391	5.2
189.0553	2.8
191.0341	4.9
201.0553	2.0
201.0915	2.5
203.0709	2.3
217.0864	2.2
227.0714	4.7
229.0510	2.2
230.0575	1.9
243.0665	2.7
245.0816	14.7
246.0792	5.5
247.0617	3.7
249.0399	2.4
271.0619	2.6
287.0506	4.6
287.0783	2.8
288.0579	4.1
288.0889	3.2
289.0404	3.3
289.0716	100.0
289.0961	2.7
290.0741	18.0
291.0511	17.0
291.0869	19.0

Name: (13-acetyloxy-1,6-dihydroxy-8-(hydroxymethyl)-4,12,12,15-tetramethyl-5-oxo-14-tetracyclo(8.5.0.02,6.011,13)pentadeca-3,8-dienyl) (E)-2-methylbut-2-enoate
PrecursorMZ: 487.23373
RT: 0.8938
ExactMass: 488.2410181
Spectrum_type: 2
charge: -1
Formula: C27H36O8
SMILES: C/C=C(\C)/C(=O)OC1C(C2(C(C=C(CC3(C2C=C(C3=O)C)O)CO)C4C1(C4(C)C)OC(=O)C)O)C
Method: HCD
Collision_energy: [28.333334]
Isolation_window: 4.0
Ion_mode: N
Num Peaks: 65
54.1354	1.7
54.1384	6.5
54.2498	1.8
54.3623	2.1
79.9564	5.0
80.9643	5.1
87.0079	1.7
96.9592	47.7
97.0285	1.8
98.9550	2.9
99.0443	4.1
101.0601	1.8
111.0443	4.5
125.0600	7.7
129.0548	2.3
163.0758	4.1
179.0710	2.5
193.0879	1.7
195.0659	3.1
205.0881	1.5
207.0655	2.3
208.0743	2.1
209.0830	1.6
233.1177	1.8
234.0913	1.5
235.1365	1.6
237.1130	1.8
245.0822	2.6
247.1340	25.9
248.1376	3.7
249.1128	2.9
251.1282	2.9
263.1290	18.7
264.1327	1.9
265.1446	3.9
267.0905	3.2
275.1320	1.8
283.1107	15.5
289.1126	2.2
289.1445	31.7
290.1475	6.5
292.1323	1.8
319.1547	1.9
329.1802	1.5
343.1979	2.1
346.0605	1.5
359.1879	6.8
361.2042	2.2
373.1658	2.3
374.1793	1.6
375.1818	2.5
377.1976	11.9
378.2022	2.1
391.1765	7.0
404.0966	4.4
469.2254	2.9
485.2848	22.1
486.1594	3.7
486.2636	10.0
487.1697	4.9
487.2461	100.0
488.1727	3.2
488.2489	32.7
489.1665	5.4
489.2588	34.1

Name: (2,3-dihydroxypropoxy)(3-(hexadecanoyloxy)-2-(octadec-9-enoyloxy)propoxy)phosphinic acid
PrecursorMZ: 747.518
RT: 2.0585
Spectrum_type: 2
charge: -1
Method: HCD
Collision_energy: [28.333334]
Isolation_window: 4.0
Ion_mode: N
Num Peaks: 30
78.9581	7.8
82.9518	2.2
83.0631	1.0
152.9952	14.3
171.0059	4.0
227.0323	1.4
241.2171	4.8
242.2209	1.0
255.2329	100.0
256.2363	20.4
257.2396	1.5
267.2330	1.6
269.2487	18.8
270.2518	5.6
279.2336	3.9
280.2365	1.6
281.2486	35.8
282.2520	6.4
283.2643	1.3
295.2650	1.7
415.2609	1.1
462.2665	1.2
464.2842	22.9
465.2883	7.5
466.2881	2.3
745.5369	18.5
746.5404	51.4
747.5280	56.6
748.5344	27.6
749.5418	6.5

Name: (2E)-4-Hydroxy-4-)4-hydroxy-2-)(1E)-6-hydroxy-1-hepten-1-yl(cyclopentyl-2-butenoic acid
PrecursorMZ: 297.17033
RT: 1.449
ExactMass: 298.17802393
Spectrum_type: 2
charge: -1
Formula: C16H26O5
SMILES: CC(CCC/C=C/C1CC(CC1C(/C=C/C(=O)O)O)O)O
Method: HCD
Collision_energy: [28.333334]
Isolation_window: 4.0
Ion_mode: N
Num Peaks: 90
69.1975	0.7
69.2031	0.7
69.2079	0.5
69.3645	0.7
69.3680	0.6
74.0238	1.1
96.9591	3.3
97.4652	0.6
99.0078	1.2
101.0597	1.6
110.0363	1.1
111.0442	1.8
114.0550	0.6
121.0286	0.6
127.0505	0.9
130.0861	0.8
139.0392	1.8
140.0833	3.2
141.1275	1.3
149.0708	0.7
151.0755	1.8
151.1119	1.1
153.0184	1.6
155.1069	0.6
164.0708	2.4
167.0601	0.7
167.1069	2.2
171.1017	1.7
177.0913	2.3
178.0991	5.2
179.1058	1.2
183.0289	2.4
183.1383	15.1
184.1417	1.8
185.1176	4.3
195.1384	2.4
196.1098	9.5
197.1134	1.0
197.1540	8.1
198.1573	0.9
207.1384	2.0
211.0970	1.4
220.1467	0.7
235.1214	0.7
235.1507	1.1
235.1699	100.0
235.2194	0.7
236.1733	15.7
237.1763	0.9
239.0917	0.7
240.0998	12.4
241.1033	1.7
252.1158	1.1
253.0980	0.7
253.2539	0.8
254.0821	1.5
255.1505	1.0
277.2168	3.8
278.2203	1.4
279.1599	11.0
279.2326	4.5
280.1625	1.9
280.1639	2.9
280.2358	0.9
281.2484	1.3
295.1099	0.7
295.2275	13.5
295.6132	1.3
296.0890	0.7
296.1007	1.1
296.1147	0.7
296.1591	0.8
296.2309	4.5
297.0644	0.8
297.1211	1.2
297.1234	0.7
297.1519	4.8
297.1729	8.6
297.1765	3.9
297.2431	71.3
297.2682	1.4
298.0741	0.7
298.1158	0.5
298.1555	1.0
298.1727	1.1
298.1766	6.7
298.2466	13.4
299.1816	0.6
299.1877	0.7
299.2587	84.1

Name: (2S)-2-phenyl-N-(2,3,4,9-tetrahydro-1H-carbazol-1-yl)-2-(1H-tetrazol-1-yl)acetamide
PrecursorMZ: 371.16199
RT: 1.4202
ExactMass: 372.16985928
Spectrum_type: 2
charge: -1
Formula: C21H20N6O
SMILES: C1CC(C2=C(C1)C3=CC=CC=C3N2)NC(=O)[C@H](C4=CC=CC=C4)N5C=NN=N5
Method: HCD
Collision_energy: [28.333334]
Isolation_window: 4.0
Ion_mode: N
Num Peaks: 24
59.0129	14.8
61.9875	16.6
93.0450	18.0
94.0289	16.8
108.0447	11.5
114.0552	28.5
116.0709	39.5
118.0655	19.1
123.0555	14.9
128.0350	10.3
135.0555	11.5
147.0445	18.9
158.0967	10.0
208.0976	10.9
209.1083	20.9
241.0981	100.0
242.1012	14.5
271.1086	25.2
327.1714	59.4
328.1761	10.3
370.1326	19.4
371.1619	95.0
372.1240	16.4
372.1631	25.4

Name: (2S,3R,4S,5R,6S)-3,4,5,6-tetrahydroxyoxane-2-carboxylic acid
PrecursorMZ: 193.03461
RT: 8.9982
ExactMass: 194.04265265
Spectrum_type: 2
charge: -1
Formula: C6H10O7
SMILES: [C@@H]1([C@H]([C@H](O[C@@H]([C@@H]1O)O)C(=O)O)O)O
Method: HCD
Collision_energy: [28.333334]
Isolation_window: 4.0
Ion_mode: N
Num Peaks: 15
59.0129	46.1
71.0129	48.7
72.9921	100.0
73.0285	11.4
85.0285	45.6
89.0234	37.1
96.9591	30.7
101.0234	33.1
103.0027	28.8
113.0235	81.5
131.0341	10.3
133.0134	9.8
191.0554	19.4
193.0352	15.6
194.9058	8.9

Name: (2S,3R,4S,5S,6R)-2-)5-)(1E)-2-(3,5-Dihydroxyphenyl)ethenyl(-2-hydroxyphenoxy-6-(hydroxymethyl)oxane-3,4,5-triol
PrecursorMZ: 405.1193
RT: 0.6743
ExactMass: 406.12638228
Spectrum_type: 2
charge: -1
Formula: C20H22O9
SMILES: C1=CC(=C(C=C1/C=C/C2=CC(=CC(=C2)O)O)O[C@H]3[C@@H]([C@H]([C@@H]([C@H](O3)CO)O)O)O)O
Method: HCD
Collision_energy: [28.333334]
Isolation_window: 4.0
Ion_mode: N
Num Peaks: 20
59.0129	2.4
61.9874	6.7
109.0286	2.1
135.0440	3.3
137.0600	15.1
169.0499	4.9
179.0341	5.1
181.0500	86.1
182.0537	7.9
211.0608	32.7
212.0636	3.0
328.0224	4.1
343.0460	5.7
345.0978	2.5
363.1095	2.1
404.1025	3.3
405.1195	100.0
406.1211	22.8
407.1358	7.4
407.2820	1.8

Name: (2S,3R,5R,10R,13R,14S,17S)-2,3,14-trihydroxy-10,13-dimethyl-17-((2R,3R,5R)-2,3,6-trihydroxy-5,6-dimethylheptan-2-yl)-2,3,4,5,9,11,12,15,16,17-decahydro-1H-cyclopenta(a)phenanthren-6-one
PrecursorMZ: 493.3171
RT: 4.76615
ExactMass: 494.3243538
Spectrum_type: 2
charge: -1
Formula: C28H46O7
SMILES: C[C@H](C[C@H]([C@@](C)([C@H]1CC[C@@]2([C@@]1(CCC3C2=CC(=O)[C@H]4[C@@]3(C[C@@H]([C@@H](C4)O)O)C)C)O)O)O)C(C)(C)O
Method: HCD
Collision_energy: [28.333334]
Isolation_window: 4.0
Ion_mode: N
Num Peaks: 60
54.8145	5.1
55.0385	2.4
59.0130	7.2
69.0338	4.4
71.0129	4.7
72.9921	5.6
73.0287	3.6
78.9581	13.5
83.0129	4.1
83.0493	4.2
87.0078	2.6
89.0236	1.8
96.9592	3.5
97.0649	2.5
99.0079	3.3
101.0234	2.7
112.9871	4.2
113.0235	2.0
115.0392	8.3
121.0285	2.7
124.0157	2.0
139.0394	2.2
145.0500	5.6
152.9951	4.2
161.0448	2.1
162.0318	7.0
167.0706	3.0
171.1023	1.7
181.0500	2.3
182.0217	6.3
183.1016	2.3
221.0815	2.8
290.1878	3.5
321.1707	3.5
329.2339	4.0
330.2372	3.0
365.2701	2.2
391.1922	2.5
393.1915	2.8
411.6414	7.2
412.1439	3.2
431.3222	2.7
447.3116	3.8
448.3156	4.3
449.3283	24.8
450.3319	5.4
451.3428	12.5
472.6823	2.4
475.3097	6.1
476.3122	1.6
477.3196	2.1
477.3262	5.7
491.2992	6.7
492.3068	9.1
493.3218	100.0
493.6654	1.9
494.2538	11.8
494.3206	13.0
494.3255	28.1
495.3362	57.9

Name: (2S,3R,5R,10R,13R,14S,17S)-2,3,14-trihydroxy-10,13-dimethyl-17-)(2R,3R,5R)-2,3,6-trihydroxy-5,6-dimethylheptan-2-yl(-2,3,4,5,9,11,12,15,16,17-decahydro-1H-cyclopenta)a(phenanthren-6-one
PrecursorMZ: 493.31687
RT: 1.4495
ExactMass: 494.3243538
Spectrum_type: 2
charge: -1
Formula: C28H46O7
SMILES: C[C@H](C[C@H]([C@@](C)([C@H]1CC[C@@]2([C@@]1(CCC3C2=CC(=O)[C@H]4[C@@]3(C[C@@H]([C@@H](C4)O)O)C)C)O)O)O)C(C)(C)O
Method: HCD
Collision_energy: [28.333334]
Isolation_window: 4.0
Ion_mode: N
Num Peaks: 23
54.8145	4.2
55.0384	4.1
59.0129	6.3
69.3297	4.0
69.3712	3.2
71.0129	4.2
73.0286	4.1
83.0493	3.0
87.0077	7.7
89.0234	3.1
115.0390	6.5
145.0498	3.8
449.3278	18.0
450.3318	5.4
451.3423	9.4
475.3065	10.0
477.3225	12.0
491.2952	4.9
491.3013	6.5
492.3004	10.3
493.3182	98.0
494.3229	26.4
495.3342	100.0

Name: (3As,6S,7R,8aR)-8-hydroxy-6,8-dimethyl-3-methylidenespiro)4,5,6,8a-tetrahydro-3aH-cyclohepta)b(furan-7,5'-oxolane(-2,2'-dione
PrecursorMZ: 279.12384
RT: 0.5246
ExactMass: 280.13107373
Spectrum_type: 2
charge: -1
Formula: C15H20O5
SMILES: C[C@H]1CC[C@@H]2[C@H](C([C@@]13CCC(=O)O3)(C)O)OC(=O)C2=C
Method: HCD
Collision_energy: [28.333334]
Isolation_window: 4.0
Ion_mode: N
Num Peaks: 22
61.9875	16.1
123.0079	0.5
123.0807	7.1
124.0838	0.7
125.0599	4.7
133.0650	3.8
151.0757	2.6
191.1435	6.7
192.1471	0.8
217.1229	3.0
218.1262	0.5
235.1337	12.4
236.1373	2.0
261.1131	6.8
262.1170	1.1
279.0595	0.6
279.1236	100.0
279.1743	0.6
279.1874	0.6
280.1271	14.9
281.1315	1.1
281.2471	0.8

Name: (3S,6R,7S,8S,11S,13S,16S,17R)-8-tert-butyl-6,17-dihydroxy-16-methyl-2,4,14,19-tetraoxahexacyclo(8.7.2.01,11.03,7.07,11.013,17)nonadecane-5,15,18-trione
PrecursorMZ: 407.13471
RT: 6.2295
ExactMass: 408.14203234
Spectrum_type: 2
charge: -1
Formula: C20H24O9
SMILES: C[C@@H]1C(=O)O[C@@H]2[C@]1(C34C(=O)OC5[C@]3(C2)[C@@]6([C@@H](C5)C(C)(C)C)[C@H](C(=O)O[C@@H]6O4)O)O
Method: HCD
Collision_energy: [28.333334]
Isolation_window: 4.0
Ion_mode: N
Num Peaks: 67
59.0112	3.5
59.0145	4.6
71.0147	2.3
73.0304	3.0
78.9601	3.3
79.9532	2.5
79.9584	6.0
80.9662	6.5
85.0305	2.5
87.0099	3.5
89.0255	4.6
96.9544	4.1
96.9613	17.2
99.0463	2.4
109.0309	4.0
111.0465	2.6
113.0257	3.6
114.0575	3.7
123.0466	8.8
125.0258	2.7
125.0623	6.6
127.0780	8.3
128.0368	4.9
130.0890	2.4
135.0468	4.7
137.0261	9.7
137.0625	2.5
139.0416	2.7
151.0279	5.5
151.0417	9.2
161.0625	3.2
163.0419	19.1
164.0038	2.4
165.0552	11.1
175.0418	3.6
179.0703	2.4
181.0500	14.3
182.0551	2.5
193.0502	4.3
195.0654	7.3
233.1183	5.1
235.1329	2.9
263.1307	2.3
280.0960	3.5
281.1396	3.4
285.1124	2.7
299.0933	4.9
315.1240	21.6
316.1269	4.7
317.1013	5.0
319.1921	6.1
327.2166	2.8
345.1723	6.7
347.1139	79.2
348.1178	14.2
363.1823	17.7
364.1852	4.6
405.1574	4.8
405.2089	20.3
406.1111	7.7
406.1590	5.7
406.2108	7.4
407.1748	100.0
408.1319	6.4
408.1782	21.3
409.1149	4.6
409.1956	26.9

Name: (4,5-dihydroxy-3,4-bis(hydroxymethyl)-4a,8,8-trimethyl-5,6,7,8a-tetrahydro-1H-naphthalen-1-yl) octanoate
PrecursorMZ: 457.2809
RT: 6.2019
Spectrum_type: 2
charge: -1
SMILES: CCCCCCCC(=O)OC1C=C(CO)C(O)(CO)C2(C)C(O)CCC(C)(C)C12
Method: HCD
Collision_energy: [28.333334]
Isolation_window: 4.0
Ion_mode: N
Num Peaks: 8
181.1230	11.5
289.1663	12.4
439.2717	11.3
455.2637	11.5
456.2683	31.6
457.2821	100.0
458.2864	23.9
459.2992	24.1

Name: (4R)-3-methylidene-4-((E)-3-methyl-4-(4-methyl-5-oxooxolan-2-yl)but-2-enyl)oxolan-2-one
PrecursorMZ: 263.12885
RT: 5.942
ExactMass: 264.13615911
Spectrum_type: 2
charge: -1
Formula: C15H20O4
SMILES: CC1CC(OC1=O)C/C(=C/C[C@H]2COC(=O)C2=C)/C
Method: HCD
Collision_energy: [28.333334]
Isolation_window: 4.0
Ion_mode: N
Num Peaks: 19
59.0130	11.3
73.0286	17.2
80.9643	9.6
96.9591	12.0
136.0761	8.5
177.0911	5.9
181.0498	9.7
189.0914	6.1
219.1386	20.9
221.1546	9.2
262.0730	9.1
262.1462	5.7
263.0582	7.3
263.1292	100.0
263.1567	7.3
264.0878	5.0
264.1326	18.9
264.1633	10.5
265.1477	12.4

Name: (5-Acetyloxy-3-(hydroxymethyl)-2-oxo-6-propan-2-ylcyclohex-3-en-1-yl) 3-methylpentanoate
PrecursorMZ: 339.18142
RT: 5.1076
ExactMass: 340.18858861
Spectrum_type: 2
charge: -1
Formula: C18H28O6
SMILES: CCC(C)CC(=O)OC1C(C(C=C(C1=O)CO)OC(=O)C)C(C)C
Method: HCD
Collision_energy: [28.333334]
Isolation_window: 4.0
Ion_mode: N
Num Peaks: 52
58.0290	5.2
59.0130	16.6
71.0129	5.6
73.0287	4.4
83.0494	7.6
85.0286	4.8
87.0079	7.6
97.0649	7.7
114.0552	48.4
116.0710	7.0
127.0505	4.9
128.0345	8.4
130.0865	13.4
136.0759	6.4
139.0391	4.8
166.0869	6.9
229.0720	5.1
233.1912	10.5
251.2015	18.5
263.1656	6.7
277.1809	20.9
277.2166	7.7
279.1607	4.6
279.1963	11.5
293.2122	5.1
294.1789	4.7
294.2151	6.1
295.1914	29.3
295.2277	46.0
296.1953	7.2
296.2312	9.0
297.2065	8.7
297.2430	5.9
321.1703	12.2
321.2070	12.1
323.1864	10.8
337.2020	12.5
338.0920	5.0
338.1289	18.9
338.1701	15.9
338.2051	15.8
338.2439	4.5
339.1143	27.8
339.1814	100.0
339.2177	73.2
340.1062	7.6
340.1458	16.3
340.1860	37.2
340.2205	16.5
341.1600	4.5
341.1966	88.1
341.2336	16.7

Name: (5-Hydroxy-3-(hydroxymethyl)-2-oxo-6-propan-2-ylcyclohex-3-en-1-yl) 3-methylpentanoate
PrecursorMZ: 297.17084
RT: 1.4137
ExactMass: 298.17802393
Spectrum_type: 2
charge: -1
Formula: C16H26O5
SMILES: CCC(C)CC(=O)OC1C(C(C=C(C1=O)CO)O)C(C)C
Method: HCD
Collision_energy: [28.333334]
Isolation_window: 4.0
Ion_mode: N
Num Peaks: 142
57.0337	7.3
59.0130	30.7
69.0335	4.2
71.0130	18.0
71.0493	7.2
72.9922	8.9
73.0287	8.7
74.0238	8.5
75.0078	4.5
79.9564	9.2
80.9643	6.2
81.0336	3.1
82.0289	4.0
83.0493	6.8
84.0447	4.5
85.0285	8.0
86.0238	3.8
87.0079	10.0
87.0441	3.9
88.0395	19.2
89.0235	5.8
91.0391	3.0
95.0494	4.2
96.0082	3.2
96.0445	4.3
96.9591	12.0
97.0286	6.4
97.0652	5.3
98.0239	4.1
99.0079	3.5
99.0443	5.5
101.0237	4.2
107.0492	3.5
108.0445	3.7
109.0161	6.4
109.0285	4.1
109.0651	4.9
110.0242	4.3
111.0444	9.1
111.0806	3.4
112.0396	24.4
113.0235	4.8
113.0349	16.0
113.0600	4.1
114.0552	100.0
115.0392	6.1
116.0709	17.6
121.0652	5.0
122.0602	3.2
123.0443	6.5
123.0806	6.4
124.0398	9.6
125.0239	4.1
125.0600	7.9
126.0552	4.9
127.0404	4.9
127.0489	4.4
128.0347	8.3
129.0548	3.9
130.0866	22.7
135.0444	3.3
135.0809	4.4
136.0395	5.2
137.0599	6.6
137.0969	4.1
138.0548	5.7
139.0392	3.3
139.0756	3.8
140.0706	4.7
142.0504	5.4
147.0447	4.2
149.0605	4.0
149.0966	4.4
150.0550	4.0
150.0916	3.9
151.0505	5.9
151.0756	4.1
152.0711	3.5
153.0549	3.1
155.0702	3.7
156.0661	3.8
163.0756	4.4
164.0580	5.2
164.0711	3.0
165.0547	3.0
165.0665	3.9
165.1277	3.3
166.0505	3.5
166.0865	7.2
167.0823	4.0
167.1070	3.0
168.0293	4.8
177.0912	3.2
177.1280	3.1
180.0655	4.0
180.1024	3.6
181.0998	4.7
182.0813	11.2
182.1175	4.0
184.0608	9.6
184.0970	3.9
191.1444	4.1
195.0650	6.3
195.1136	3.3
209.1300	3.3
209.1545	5.0
210.0759	9.9
217.1587	5.9
235.1344	3.7
235.1691	8.8
237.1472	6.0
251.1671	4.2
252.1316	6.2
253.1463	6.1
253.1797	15.0
254.0837	3.2
254.1829	3.5
255.1633	3.3
255.1948	4.0
261.1501	4.3
269.1181	27.7
269.6204	5.8
279.1603	11.3
281.1747	4.3
295.1238	11.2
295.1565	9.7
295.2276	3.3
296.0835	9.6
296.1189	30.2
296.1541	10.6
297.0982	37.9
297.1353	73.2
297.1713	61.4
297.2070	6.0
297.6311	8.0
298.0983	8.2
298.1359	41.3
298.1731	13.9
298.6349	5.0
299.1241	39.6
299.1533	19.2
299.1869	40.3

Name: (7R,8R)-7,8-dihydroxy-3,5,7-trimethyl-8H-isochromen-6-one
PrecursorMZ: 221.0814
RT: 1.1741
ExactMass: 222.08920892
Spectrum_type: 2
charge: -1
Formula: C12H14O4
SMILES: CC1=CC2=C(C(=O)[C@]([C@@H](C2=CO1)O)(C)O)C
Method: HCD
Collision_energy: [28.333334]
Isolation_window: 4.0
Ion_mode: N
Num Peaks: 40
58.0289	0.9
59.0129	9.3
80.9643	1.4
85.0285	0.6
87.0443	0.6
99.0439	1.4
101.0233	0.6
109.0285	0.9
112.0506	0.6
119.0491	1.8
121.0284	0.8
123.0554	1.4
131.0342	1.0
135.0441	19.3
136.0476	1.5
136.0760	1.1
147.0443	0.8
149.0600	0.8
149.0715	0.9
161.0599	6.8
162.0645	0.5
175.0748	0.8
176.0703	1.0
177.0530	1.1
177.0688	1.1
177.0910	6.0
178.0866	0.7
179.0696	1.5
180.0657	7.7
219.0665	1.8
219.1213	0.8
220.0403	2.9
220.0761	1.1
221.0457	3.3
221.0814	100.0
221.1260	0.7
222.0848	12.9
223.0269	0.8
223.0606	2.1
223.0822	3.2

Name: (E)-4-oxonon-2-enoic acid
PrecursorMZ: 169.08627
RT: 1.5302
ExactMass: 170.094294304
Spectrum_type: 2
charge: -1
Formula: C9H14O3
SMILES: CCCCCC(=O)/C=C/C(=O)O
Method: HCD
Collision_energy: [28.333334]
Isolation_window: 4.0
Ion_mode: N
Num Peaks: 7
71.0493	17.7
98.0238	8.1
125.0963	100.0
126.1001	8.3
168.0663	8.6
169.0136	8.7
169.0862	13.0

Name: (E)-5-((1S,4aR,8aR)-2-formyl-5,5,8a-trimethyl-1,4,4a,6,7,8-hexahydronaphthalen-1-yl)-3-(acetyloxymethyl)pent-2-enoic acid
PrecursorMZ: 375.21777
RT: 1.547
ExactMass: 376.22497412
Spectrum_type: 2
charge: -1
Formula: C22H32O5
SMILES: CC(=O)OC/C(=C/C(=O)O)/CC[C@@H]1C(=CC[C@H]2[C@]1(CCCC2(C)C)C)C=O
Method: HCD
Collision_energy: [28.333334]
Isolation_window: 4.0
Ion_mode: N
Num Peaks: 46
58.0046	1.1
71.0487	1.1
79.9565	24.1
79.9608	1.4
80.9643	7.0
81.0336	1.0
81.9522	1.5
96.9592	13.2
99.0443	1.7
101.0599	3.9
191.1440	1.3
219.1388	19.0
220.1420	1.6
221.1546	1.3
229.1593	1.1
231.1753	15.9
239.2382	1.1
243.1755	1.9
247.1339	3.9
249.1495	29.4
250.1528	3.3
261.1859	3.3
271.2068	8.2
272.2104	1.8
276.2331	5.2
277.2361	1.2
295.2068	4.7
297.2230	2.8
313.2176	1.8
315.1271	1.2
315.2329	2.6
331.2283	2.0
333.2439	3.3
356.1905	4.3
373.2069	11.3
374.1289	1.8
374.2065	14.0
375.1098	5.6
375.1443	1.8
375.2194	100.0
376.1112	2.1
376.2228	20.4
376.2583	5.7
377.0140	1.2
377.1342	2.7
377.2345	77.0

Name: )(2S,3S,4S,5R,6S)-3,4,5-Trihydroxy-6-(4-hydroxyphenoxy)tetrahydropyran-2-yl(methyl 4-hydroxybenzoate
PrecursorMZ: 391.10337
RT: 5.0719
ExactMass: 392.11073221
Spectrum_type: 2
charge: -1
Formula: C19H20O9
SMILES: C1=CC(=CC=C1C(=O)OC[C@@H]2[C@H]([C@@H]([C@H]([C@@H](O2)OC3=CC=C(C=C3)O)O)O)O)O
Method: HCD
Collision_energy: [28.333334]
Isolation_window: 4.0
Ion_mode: N
Num Peaks: 6
61.9874	13.6
165.0549	15.5
237.0769	6.8
329.1025	6.6
391.1035	100.0
392.1062	20.2

Name: 1-(1-Hydroxybutyl)-1,3,4,5,6,7-hexahydro-2-benzofuran-4,5,6,7-tetrol
PrecursorMZ: 259.11869
RT: 1.5638
ExactMass: 260.12598835
Spectrum_type: 2
charge: -1
Formula: C12H20O6
SMILES: CCCC(C1C2=C(CO1)C(C(C(C2O)O)O)O)O
Method: HCD
Collision_energy: [28.333334]
Isolation_window: 4.0
Ion_mode: N
Num Peaks: 69
59.0130	31.1
69.0337	4.1
71.0130	8.9
73.0286	8.6
83.0129	7.4
83.0494	10.6
84.0446	4.1
85.0285	13.9
86.0239	4.5
87.0078	7.0
87.0443	7.6
89.0234	9.6
91.0390	4.8
97.0285	10.0
97.0649	4.6
98.0238	4.7
99.0443	11.0
101.0236	6.4
101.0597	4.9
109.0652	4.0
111.0443	5.4
113.0601	4.7
114.0551	5.0
115.0391	9.4
116.0707	5.1
117.0548	13.2
121.0650	4.5
122.0605	3.9
123.0443	8.7
123.0806	9.8
125.0597	5.9
126.0553	4.8
127.0756	9.4
128.0346	9.6
136.0760	96.3
137.0601	8.7
141.0551	4.1
144.0657	5.3
155.0708	5.2
157.0864	6.1
158.0451	6.5
167.0710	5.5
179.1068	4.5
188.0924	18.0
197.0812	5.2
197.1184	4.3
198.0401	6.0
213.0759	4.6
213.1486	4.7
214.1081	9.0
215.1275	4.5
223.0968	7.8
241.0708	5.2
241.1061	5.1
257.0670	4.5
257.1035	23.5
257.1391	16.5
258.0581	7.2
258.1000	26.1
258.1372	11.1
259.0826	100.0
259.1191	52.8
259.1552	97.0
260.0853	14.0
260.1172	10.6
260.1559	14.2
261.0975	13.5
261.1338	10.9
261.1616	9.9

Name: 1-(3,4-Dihydroxyphenyl)-6,7-dihydroxy-1,2-dihydronaphthalene-2,3-dicarboxylic acid
PrecursorMZ: 357.06193
RT: 4.7342
ExactMass: 358.0688674
Spectrum_type: 2
charge: -1
Formula: C18H14O8
SMILES: C1=CC(=C(C=C1C2C(C(=CC3=CC(=C(C=C23)O)O)C(=O)O)C(=O)O)O)O
Method: HCD
Collision_energy: [28.333334]
Isolation_window: 4.0
Ion_mode: N
Num Peaks: 18
89.0234	15.8
124.0157	18.7
179.0820	16.2
251.0712	7.5
253.0503	5.9
254.0575	8.1
267.0664	32.2
268.0709	7.0
268.0985	19.0
269.0818	100.0
270.0855	17.1
313.0710	32.9
314.0740	5.2
356.0770	4.5
356.1941	6.8
357.0926	37.8
358.0921	5.9
359.1021	4.4

Name: 1-(3-Chloro-benzoyl)-3-(2-(2-methyl-1H-indol-3-yl)-ethyl)-urea
PrecursorMZ: 354.10163
RT: 0.8316
ExactMass: 355.1087545
Spectrum_type: 2
charge: -1
Formula: C19H18ClN3O2
SMILES: CC1=C(C2=CC=CC=C2N1)CCNC(=O)NC(=O)C3=CC(=CC=C3)Cl
Method: HCD
Collision_energy: [28.333334]
Isolation_window: 4.0
Ion_mode: N
Num Peaks: 13
79.9565	13.5
80.9643	4.5
121.0287	8.4
152.1075	31.6
153.1109	2.5
272.1298	4.5
273.1330	3.9
274.1451	44.6
275.1484	8.2
353.0903	2.3
354.1020	100.0
355.1052	17.3
356.1074	3.0

Name: 1-Methyl-2,9-dihydro-7H-pyrido(3,4-b)indol-7-one--hydrogen chloride (1/1)
PrecursorMZ: 197.07143
RT: 4.3654
ExactMass: 234.0559907
Spectrum_type: 2
charge: -1
Formula: C12H11ClN2O
SMILES: CC1=C2C(=C3C=CC(=O)C=C3N2)C=CN1.Cl
Method: HCD
Collision_energy: [28.333334]
Isolation_window: 4.0
Ion_mode: N
Num Peaks: 39
58.0289	2.3
94.0289	5.9
96.0081	3.5
108.0447	3.6
110.0239	2.2
121.0286	3.0
122.0602	5.5
123.0556	4.6
124.0396	12.5
136.0395	5.4
138.0553	9.4
150.0556	2.5
151.0866	2.9
152.0349	14.3
152.0710	14.4
152.1075	2.0
153.0549	3.4
153.1025	4.7
154.0237	2.4
154.0503	77.4
154.0859	3.7
155.0545	2.9
155.1182	6.1
164.0342	2.3
166.0504	2.2
167.0608	21.2
168.0644	2.3
180.0284	4.7
182.0213	3.6
195.0533	11.8
196.0105	3.1
196.0605	7.5
196.0964	3.9
197.0716	100.0
197.0920	5.3
198.0403	30.3
198.0754	18.0
199.1085	11.4
199.1843	2.3

Name: 1-Naphthalenesulfonic acid
PrecursorMZ: 207.01165
RT: 1.3305
ExactMass: 208.01941529
Spectrum_type: 2
charge: -1
Formula: C10H8O3S
SMILES: C1=CC=C2C(=C1)C=CC=C2S(=O)(=O)O
Method: HCD
Collision_energy: [28.333334]
Isolation_window: 4.0
Ion_mode: N
Num Peaks: 3
143.0492	7.6
207.0118	100.0
208.0148	9.1

Name: 1-Oleoyl phosphatidylethanolamine
PrecursorMZ: 478.29372
RT: 4.9539
ExactMass: 479.3011898
Spectrum_type: 2
charge: -1
Formula: C23H46NO7P
SMILES: CCCCCCCC/C=C\CCCCCCCC(=O)OCC(COP(=O)(O)OCCN)O
Method: HCD
Collision_energy: [28.333334]
Isolation_window: 4.0
Ion_mode: N
Num Peaks: 46
53.1426	1.2
53.1453	2.1
53.3692	1.0
59.0132	1.5
61.9875	1.5
74.0238	1.3
78.9581	8.4
80.9163	0.9
96.9592	1.1
124.9905	10.5
140.0110	5.3
152.9951	2.8
196.0374	15.3
214.0481	2.9
255.2327	9.7
279.2329	5.8
280.2362	8.9
281.2484	100.0
282.2518	19.1
283.2640	48.3
293.2126	1.3
311.2234	1.3
315.2525	1.1
375.2178	1.3
433.2829	2.1
433.2889	1.7
433.2934	2.4
433.3331	1.4
435.3114	5.3
436.3159	1.0
445.3426	1.1
459.3165	1.3
461.3324	1.1
477.2733	4.3
477.2798	3.2
477.2864	13.4
477.3077	5.2
477.3191	9.8
477.3271	7.9
477.3742	1.0
478.2929	44.1
479.2895	10.3
479.2944	14.9
479.3414	1.8
480.3029	4.6
480.3084	28.1

Name: 11-Deoxycortisol
PrecursorMZ: 391.21315
RT: 0.6066
ExactMass: 346.21440943
Spectrum_type: 2
charge: -1
Formula: C21H30O4
SMILES: C[C@]12CCC(=O)C=C1CC[C@@H]3[C@@H]2CC[C@]4([C@H]3CC[C@@]4(C(=O)CO)O)C
Method: HCD
Collision_energy: [28.333334]
Isolation_window: 4.0
Ion_mode: N
Num Peaks: 49
59.0130	13.1
71.0131	6.3
72.9924	5.8
79.9564	12.2
80.9643	7.0
83.0494	5.7
87.0079	7.9
88.0395	5.8
96.9591	10.0
99.0442	6.1
111.0443	9.9
114.0554	5.3
115.0029	5.6
116.0708	6.4
128.0344	9.0
130.0864	8.0
164.0715	6.0
165.0551	5.6
181.0501	18.2
219.1020	7.6
224.1060	5.9
245.1673	8.1
263.0934	5.6
267.1259	6.6
285.2223	7.8
287.2378	6.8
301.1085	11.8
303.2328	31.8
304.2367	6.8
305.2482	23.2
329.2129	8.2
331.1561	11.0
331.2261	12.2
347.1582	7.9
347.2234	54.6
348.2244	11.0
349.1673	17.5
349.2384	32.5
390.1183	19.1
390.1712	12.8
391.1032	11.1
391.1407	56.8
391.2134	100.0
392.1402	19.4
392.1772	26.0
392.2182	17.7
393.1185	12.0
393.1572	82.5
393.2292	66.8

Name: 13-Labdene-2,8,15-triol (ent-2a,8a,13E)-form)
PrecursorMZ: 323.25868
RT: 1.8512
ExactMass: 324.26644501
Spectrum_type: 2
charge: -1
Formula: C20H36O3
SMILES: C/C(=C/CO)/CC[C@@H]1[C@@](CC[C@H]2[C@]1(C[C@@H](CC2(C)C)O)C)(C)O
Method: HCD
Collision_energy: [28.333334]
Isolation_window: 4.0
Ion_mode: N
Num Peaks: 11
79.9564	4.5
96.9590	1.9
183.0110	3.3
321.2431	3.5
322.2465	6.9
322.6506	5.1
323.2589	64.2
324.1284	2.4
324.2622	13.3
325.1842	100.0
325.2693	2.6

Name: 2,4-Dihydroxyquinoline
PrecursorMZ: 160.03984
RT: 5.3227
ExactMass: 161.047678466
Spectrum_type: 2
charge: -1
Formula: C9H7NO2
SMILES: C1=CC=C2C(=C1)C(=CC(=O)N2)O
Method: HCD
Collision_energy: [28.333334]
Isolation_window: 4.0
Ion_mode: N
Num Peaks: 30
59.0130	2.5
71.0130	3.2
72.9923	1.7
74.0238	1.9
84.0447	1.5
85.0286	3.0
88.0394	3.4
97.0650	1.6
100.0396	3.8
116.0497	2.8
117.0452	2.8
118.0291	2.2
120.0446	3.8
130.0504	1.5
131.0348	2.0
132.0449	5.6
134.0605	1.5
147.0320	4.0
158.0605	2.6
159.0320	12.6
159.0547	5.4
159.0661	1.4
159.8934	2.2
160.0398	100.0
160.0614	2.3
160.0745	3.7
160.8918	2.0
161.0447	12.2
161.0705	3.6
162.0554	16.4

Name: 2,5-Dihydroxybenzenesulfonate
PrecursorMZ: 188.98551
RT: 2.2685
ExactMass: 188.98576943
Spectrum_type: 2
charge: -1
Formula: C6H5O5S-
SMILES: C1=CC(=C(C=C1O)S(=O)(=O)[O-])O
Method: HCD
Collision_energy: [28.333334]
Isolation_window: 4.0
Ion_mode: N
Num Peaks: 15
79.9563	16.6
80.9642	39.3
85.0285	6.3
85.0649	17.3
95.0127	4.6
109.0285	44.6
115.0390	6.6
123.0077	4.7
125.0598	22.1
143.0899	8.2
187.0610	5.5
188.0013	5.2
188.9856	100.0
189.9887	6.5
190.0502	18.1

Name: 2-((4R)-4-((3R,5R,6S,7R,10R,13R)-3,6,7-Trihydroxy-10,13-dimethylhexadecahydro-1H-cyclopenta)A(phenanthren-17-YL)pentanamido)acetic acid
PrecursorMZ: 464.30171
RT: 0.9001
ExactMass: 465.30903809
Spectrum_type: 2
charge: -1
Formula: C26H43NO6
SMILES: C[C@H](CCC(=O)NCC(=O)O)C1CCC2[C@@]1(CCC3C2[C@H]([C@H]([C@H]4[C@@]3(CC[C@H](C4)O)C)O)O)C
Method: HCD
Collision_energy: [28.333334]
Isolation_window: 4.0
Ion_mode: N
Num Peaks: 12
51.5905	4.2
61.9875	14.7
74.0238	25.2
419.2788	3.3
421.2968	10.4
463.1340	3.4
463.2615	6.1
463.3130	3.3
464.3026	100.0
465.1438	4.3
465.2977	35.7
466.2996	4.9

Name: 2-(2-Acetoxy-12-hydroxytridecyl)-4,6-dihydroxybenz
PrecursorMZ: 409.22386
RT: 0.6251
ExactMass: 410.23045342
Spectrum_type: 2
charge: -1
Formula: C22H34O7
SMILES: CC(CCCCCCCCCC(CC1=C(C(=CC(=C1)O)O)C(=O)O)OC(=O)C)O
Method: HCD
Collision_energy: [28.333334]
Isolation_window: 4.0
Ion_mode: N
Num Peaks: 26
59.0129	8.5
61.9875	16.1
83.0493	4.9
303.1980	6.5
303.2345	8.6
305.2135	8.1
321.2080	4.6
321.2450	8.9
347.2226	18.1
349.2025	6.6
349.2405	10.5
365.2337	36.8
366.2377	8.3
367.2126	8.6
367.2513	16.4
391.2127	9.2
393.2311	4.5
407.2074	9.5
407.2486	8.9
407.2936	5.2
408.2076	7.4
409.1871	12.9
409.2259	100.0
410.2290	22.9
411.2029	28.0
411.2415	40.0

Name: 2-(7-Hydroxy-11-methyl-2,9-dioxo-12,15-dioxatetracyclo)8.4.1.01,10.03,8(pentadeca-3(8),4,6-trien-13-yl)acetic acid
PrecursorMZ: 317.06632
RT: 3.3893
ExactMass: 318.07395278
Spectrum_type: 2
charge: -1
Formula: C16H14O7
SMILES: CC1C23C(=O)C4=C(C=CC=C4O)C(=O)C2(O3)CC(O1)CC(=O)O
Method: HCD
Collision_energy: [28.333334]
Isolation_window: 4.0
Ion_mode: N
Num Peaks: 32
109.0283	1.8
125.0234	10.5
135.0442	11.9
137.0235	38.3
138.0272	2.7
143.0340	2.4
161.0598	4.0
172.0522	7.8
173.0600	11.8
179.0341	7.0
186.0677	2.5
187.0758	2.5
199.0393	3.0
199.0758	3.8
200.0468	1.8
200.0787	1.8
201.0916	8.6
211.0758	4.6
214.0628	25.3
215.0665	3.9
227.0710	4.3
229.0865	70.5
230.0900	9.9
255.0663	3.9
257.0445	2.1
271.0603	2.4
272.0642	2.3
273.0767	14.9
274.0790	2.5
317.0660	100.0
318.0690	17.9
319.0758	3.0

Name: 2-)5-)2-)2-)5-(2-Hydroxybutyl)oxolan-2-yl(propanoyloxy(butyl(oxolan-2-yl(propanoic acid
PrecursorMZ: 413.25442
RT: 5.8307
ExactMass: 414.26175355
Spectrum_type: 2
charge: -1
Formula: C22H38O7
SMILES: CCC(CC1CCC(O1)C(C)C(=O)OC(CC)CC2CCC(O2)C(C)C(=O)O)O
Method: HCD
Collision_energy: [28.333334]
Isolation_window: 4.0
Ion_mode: N
Num Peaks: 10
309.1444	5.9
333.2423	8.9
351.2544	6.8
377.2340	8.4
395.2430	32.7
396.2483	6.9
397.2075	6.8
413.2543	100.0
414.2576	25.3
415.2185	9.6

Name: 2-Dec-9-enyl-3-hydroxypentanedioic acid
PrecursorMZ: 285.17083
RT: 1.2186
ExactMass: 286.17802393
Spectrum_type: 2
charge: -1
Formula: C15H26O5
SMILES: C=CCCCCCCCCC(C(CC(=O)O)O)C(=O)O
Method: HCD
Collision_energy: [28.333334]
Isolation_window: 4.0
Ion_mode: N
Num Peaks: 34
59.0129	6.7
75.0079	1.9
83.0492	0.8
85.0286	0.9
87.0078	1.0
97.0650	0.8
99.0440	0.8
101.0235	1.1
113.0963	0.8
116.0709	1.3
130.0865	1.0
139.0762	0.8
186.0552	1.1
196.0966	0.9
223.1705	0.8
224.0925	0.8
225.1493	2.3
241.1420	1.0
241.1784	0.9
267.1599	1.4
283.2642	14.8
284.1144	8.3
284.1531	1.5
284.2673	4.5
285.0622	0.9
285.1060	0.8
285.1422	3.3
285.1707	100.0
285.2382	0.9
286.1067	0.9
286.1383	1.1
286.1738	17.4
287.1497	8.0
287.1854	8.5

Name: 2-Hydroxy-4-methoxy-6-((4R,5S,7Z,10S)-4,5,10-trihydroxy-6-oxo-7-undecenyl)benzoic acid mu-lactone
PrecursorMZ: 363.14519
RT: 5.0991
ExactMass: 364.1522031
Spectrum_type: 2
charge: -1
Formula: C19H24O7
SMILES: C[C@H]1C/C=C\C(=O)[C@H]([C@@H](CCCC2=C(C(=CC(=C2)OC)O)C(=O)O1)O)O
Method: HCD
Collision_energy: [28.333334]
Isolation_window: 4.0
Ion_mode: N
Num Peaks: 4
287.1289	93.8
288.1323	20.2
317.1395	100.0
318.1424	18.3

Name: 2-Naphthalenesulfonic acid
PrecursorMZ: 207.01163
RT: 1.2495
ExactMass: 208.01941529
Spectrum_type: 2
charge: -1
Formula: C10H8O3S
SMILES: C1=CC=C2C=C(C=CC2=C1)S(=O)(=O)O
Method: HCD
Collision_energy: [28.333334]
Isolation_window: 4.0
Ion_mode: N
Num Peaks: 9
79.9562	6.1
80.9642	5.0
96.9591	4.9
143.0496	7.1
205.1596	10.8
206.1630	2.6
207.0119	100.0
208.0151	11.4
208.0639	10.2

Name: 2-amino-9-)(2R,4S,5R)-4-hydroxy-5-(hydroxymethyl)oxolan-2-yl(-6,9-dihydro-1H-purin-6-one hydrate
PrecursorMZ: 266.08957
RT: 1.9136
ExactMass: 285.1073186
Spectrum_type: 2
charge: -1
Formula: C10H15N5O5
SMILES: C1[C@@H]([C@H](O[C@H]1N2C=NC3=C2N=C(NC3=O)N)CO)O.O
Method: HCD
Collision_energy: [28.333334]
Isolation_window: 4.0
Ion_mode: N
Num Peaks: 14
59.0130	5.3
61.9875	2.5
87.0079	2.7
133.0147	4.9
135.0304	75.4
136.0347	1.8
150.0414	89.1
151.0461	3.5
176.0572	8.6
223.0969	2.3
265.0939	3.7
266.0894	100.0
267.0719	67.3
268.0762	6.7

Name: 2-beta-D-Glucopyranosyloxy-4-methoxy-cis-cinnamic acid
PrecursorMZ: 355.10319
RT: 7.985266666666666
ExactMass: 356.11073221
Spectrum_type: 2
charge: -1
Formula: C16H20O9
SMILES: COC1=CC(=C(C=C1)/C=C\C(=O)O)O[C@H]2[C@@H]([C@H]([C@@H]([C@H](O2)CO)O)O)O
Method: HCD
Collision_energy: [28.333334]
Isolation_window: 4.0
Ion_mode: N
Num Peaks: 20
59.0129	39.7
69.6219	4.5
71.0129	24.1
73.0285	5.2
85.0285	9.4
89.0234	46.4
101.0234	32.5
113.0234	15.1
119.0340	21.3
137.0598	22.8
161.0449	5.2
173.0446	8.0
179.0555	9.9
181.0498	100.0
182.0533	11.7
193.0711	12.6
353.1087	5.3
355.1020	18.5
355.1273	57.8
356.1271	7.8

Name: 2-octyltridecanedioic Acid
PrecursorMZ: 355.28535
RT: 0.895
ExactMass: 356.29265975
Spectrum_type: 2
charge: -1
Formula: C21H40O4
SMILES: CCCCCCCCC(CCCCCCCCCCC(=O)O)C(=O)O
Method: HCD
Collision_energy: [28.333334]
Isolation_window: 4.0
Ion_mode: N
Num Peaks: 9
101.0599	37.4
253.2175	15.3
271.2279	34.9
272.2321	6.5
309.3161	45.6
310.3195	8.3
355.2853	7.2
355.3223	100.0
356.3261	24.4

Name: 2alpha,9alpha,11-Trihydroxy-6-oxodrim-7-ene
PrecursorMZ: 313.16588
RT: 0.966
ExactMass: 268.16745924
Spectrum_type: 2
charge: -1
Formula: C15H24O4
SMILES: CC1=CC(=O)[C@@H]2[C@@]([C@]1(CO)O)(C[C@H](CC2(C)C)O)C
Method: HCD
Collision_energy: [28.333334]
Isolation_window: 4.0
Ion_mode: N
Num Peaks: 142
57.0337	4.6
59.0130	18.5
61.9874	7.7
69.0336	3.6
71.0129	6.6
71.0493	4.2
72.9922	20.4
73.0286	10.0
74.0239	4.0
75.0078	46.0
80.9643	3.5
83.0493	5.9
85.0285	7.2
86.0236	3.0
87.0078	16.3
87.0442	5.4
88.0394	14.2
89.0234	6.3
95.0492	4.6
97.0284	4.4
97.0650	4.4
98.0237	3.6
99.0443	6.7
99.0806	2.6
101.0234	5.9
101.0599	3.3
102.0552	3.0
107.0491	3.0
109.0287	6.0
109.0650	4.2
111.0442	5.9
112.0394	3.9
113.0235	4.4
113.0346	3.2
113.0601	4.0
114.0187	2.5
114.0552	10.8
115.0028	3.0
115.0392	4.4
116.0708	17.6
121.0647	3.0
122.0602	2.5
123.0443	6.3
123.0808	3.2
124.0396	2.9
125.0235	6.0
125.0597	6.6
126.0548	3.5
127.0400	4.0
127.0495	4.3
127.0756	3.1
128.0346	4.3
129.0550	3.3
130.0865	30.4
135.0440	4.2
135.0808	3.6
137.0602	6.1
138.0552	2.9
139.0393	7.6
139.0756	4.8
140.0708	2.6
141.0548	3.0
142.0501	4.6
143.0710	4.9
148.0759	2.8
149.0601	3.2
151.0759	4.3
152.0709	2.5
153.0555	3.6
153.0913	3.5
155.0706	4.5
155.1185	2.5
156.0661	2.8
157.0499	5.6
157.0864	5.0
164.0711	2.8
165.0545	3.5
165.0912	3.1
167.0705	4.0
168.0648	3.0
169.0862	4.1
171.1017	3.5
179.0709	3.3
179.1070	2.6
181.0498	3.7
181.0858	6.3
183.0652	5.1
183.1142	3.5
193.1585	3.5
195.0645	3.1
197.0800	3.6
207.1753	2.6
209.0809	6.2
225.0757	8.1
226.1566	3.0
233.1539	3.9
237.1489	10.0
239.1648	2.6
251.1635	6.3
251.2019	3.0
251.2378	3.1
253.1803	3.1
265.1448	2.6
267.1602	2.6
267.1979	5.4
268.1227	2.8
268.1610	3.6
269.1172	3.0
269.1777	5.6
270.1138	3.4
270.2188	6.7
277.1446	2.7
283.1556	4.6
293.2119	2.9
295.1190	5.7
295.1552	8.1
295.1911	4.0
295.2277	2.5
311.1143	22.9
311.1525	18.4
311.1873	12.6
311.2239	12.1
311.2967	2.6
312.0828	3.8
312.1132	21.4
312.1501	27.7
312.1901	8.4
312.2271	2.9
313.0935	23.4
313.1296	38.1
313.1667	100.0
313.2028	42.0
313.2391	15.8
314.0958	9.2
314.1325	10.1
314.1698	22.7
314.2077	39.6
314.2429	2.5
315.1058	10.9
315.1428	48.3
315.1817	39.0
315.2178	12.5

Name: 3,5-Dihydroxy-1-(3,4-dihydroxyphenyl)-7-(4-hydroxyphenyl)heptane
PrecursorMZ: 331.1548
RT: 4.7535
ExactMass: 332.16237386
Spectrum_type: 2
charge: -1
Formula: C19H24O5
SMILES: C1=CC(=CC=C1CCC(CC(CCC2=CC(=C(C=C2)O)O)O)O)O
Method: HCD
Collision_energy: [28.333334]
Isolation_window: 4.0
Ion_mode: N
Num Peaks: 50
57.0337	0.7
81.0336	1.0
95.0492	2.6
96.9592	1.0
97.0285	0.8
119.0491	0.8
121.0285	0.5
121.0646	0.8
122.0367	0.5
123.0442	7.3
124.0475	1.5
131.0494	1.3
137.0599	21.8
138.0631	2.1
139.0393	2.7
139.0754	0.7
140.0427	0.8
147.0443	0.8
147.0806	0.7
149.0599	17.0
150.0633	1.4
163.0756	6.4
164.0794	0.7
165.0548	3.1
167.0703	1.7
175.0761	0.6
179.0702	0.6
181.0862	3.5
193.0864	0.6
205.0494	0.7
206.0530	0.5
251.1279	0.5
286.1180	0.5
313.1435	1.3
329.1027	1.9
329.2333	0.7
330.1054	4.3
331.1192	2.1
331.1549	100.0
331.1902	1.7
331.2385	0.7
331.2441	1.4
331.6245	0.6
332.1184	0.8
332.1235	0.8
332.1580	20.5
333.1000	0.7
333.1481	0.7
333.1587	1.3
333.2063	1.7

Name: 3-((1-Carboxyvinyl)oxy)benzoic acid
PrecursorMZ: 207.0294
RT: 0.8935
ExactMass: 208.03717335
Spectrum_type: 2
charge: -1
Formula: C10H8O5
SMILES: C=C(C(=O)O)OC1=CC=CC(=C1)C(=O)O
Method: HCD
Collision_energy: [28.333334]
Isolation_window: 4.0
Ion_mode: N
Num Peaks: 14
80.9643	2.1
123.0443	4.5
135.0444	100.0
136.0478	7.4
161.0601	3.8
162.0544	3.0
163.0394	17.3
179.0344	26.4
180.0390	2.2
205.1595	8.3
207.0294	66.5
207.0672	2.9
208.0342	6.6
208.0645	7.2

Name: 3-((4-chlorobenzoyl)amino)propanoic Acid
PrecursorMZ: 226.02682
RT: 2.5038
ExactMass: 227.0349209
Spectrum_type: 2
charge: -1
Formula: C10H10ClNO3
SMILES: C1=CC(=CC=C1C(=O)NCCC(=O)O)Cl
Method: HCD
Collision_energy: [28.333334]
Isolation_window: 4.0
Ion_mode: N
Num Peaks: 5
183.0451	0.7
226.0270	3.7
226.1122	1.0
227.0347	100.0
228.0381	9.2

Name: 3-(5-Hydroxy-7-methoxy-2,3-dimethyl-6-(3-methylbut-2-enyl)-4-oxo-2,3-dihydrochromen-8-yl)hexanoic acid
PrecursorMZ: 403.2128
RT: 1.1611
ExactMass: 404.21988874
Spectrum_type: 2
charge: -1
Formula: C23H32O6
SMILES: CCCC(CC(=O)O)C1=C(C(=C(C2=C1OC(C(C2=O)C)C)O)CC=C(C)C)OC
Method: HCD
Collision_energy: [28.333334]
Isolation_window: 4.0
Ion_mode: N
Num Peaks: 45
65.0388	2.4
73.0286	6.9
81.0337	9.4
83.0494	3.6
93.0338	2.8
95.0494	3.1
109.0650	4.4
119.0499	2.1
121.0651	10.6
135.0809	2.6
137.0599	3.7
147.0810	6.8
165.0915	12.8
175.0761	3.6
179.0709	5.0
205.0865	5.7
207.1024	11.8
219.1023	4.8
233.1181	19.1
234.1221	2.2
235.1340	3.6
243.1023	4.5
245.1184	9.0
261.1497	15.7
262.1528	2.9
277.1437	2.9
295.1703	3.4
315.1622	2.3
327.1606	98.0
327.1953	6.8
328.1638	20.0
329.1740	3.7
339.1639	2.5
343.1921	12.3
344.1946	2.7
353.1761	17.6
354.1802	3.3
355.2646	9.3
371.1871	38.1
372.1903	9.2
373.2038	2.3
373.2747	8.8
403.2130	100.0
404.2166	28.3
405.2237	5.4

Name: 3-Amino-3-(4-hydroxyphenyl)propanoic acid
PrecursorMZ: 180.06579
RT: 7.2978
ExactMass: 181.07389321
Spectrum_type: 2
charge: -1
Formula: C9H11NO3
SMILES: C1=CC(=CC=C1C(CC(=O)O)N)O
Method: HCD
Collision_energy: [28.333334]
Isolation_window: 4.0
Ion_mode: N
Num Peaks: 6
90.9227	13.0
94.0290	14.2
108.9330	19.7
134.0603	13.8
136.0759	100.0
180.0654	40.4

Name: 3-Hydroxybenzoate
PrecursorMZ: 137.0236
RT: 2.4951
ExactMass: 137.023869017
Spectrum_type: 2
charge: -1
Formula: C7H5O3-
SMILES: C1=CC(=CC(=C1)[O-])C(=O)O
Method: HCD
Collision_energy: [28.333334]
Isolation_window: 4.0
Ion_mode: N
Num Peaks: 18
79.9565	10.6
80.9643	6.5
93.0337	100.0
94.0288	7.1
94.0370	7.0
108.0445	13.6
109.9412	27.5
111.9366	11.7
123.0317	7.8
135.0446	11.9
135.9445	16.0
136.0397	12.8
136.9903	8.1
137.0237	50.2
137.0713	7.0
137.9401	7.9
138.0187	12.8
138.0552	46.9

Name: 3-Hydroxybutyric Acid
PrecursorMZ: 103.03912
RT: 5.5823
ExactMass: 104.047344113
Spectrum_type: 2
charge: -1
Formula: C4H8O3
SMILES: CC(CC(=O)O)O
Method: HCD
Collision_energy: [28.333334]
Isolation_window: 4.0
Ion_mode: N
Num Peaks: 3
57.0337	65.8
59.0129	34.0
103.0391	100.0

Name: 3-Hydroxynonanoic acid
PrecursorMZ: 173.11781
RT: 0.6231
ExactMass: 174.125594432
Spectrum_type: 2
charge: -1
Formula: C9H18O3
SMILES: CCCCCCC(CC(=O)O)O
Method: HCD
Collision_energy: [28.333334]
Isolation_window: 4.0
Ion_mode: N
Num Peaks: 17
59.0130	6.6
102.0088	3.3
127.1120	53.8
128.1155	3.9
134.8647	4.0
136.8619	5.0
154.9468	21.9
171.1023	5.3
171.1384	84.6
172.0237	11.6
172.1419	14.6
172.9574	5.8
173.0229	4.7
173.0478	4.0
173.1177	100.0
174.0187	9.8
174.1209	11.3

Name: 3alpha,12beta-Dihydroxy-5beta-cholan-24-oic Acid
PrecursorMZ: 783.57774
RT: 4.5889
ExactMass: 392.29265975
Spectrum_type: 2
charge: -1
Formula: C24H40O4
SMILES: C[C@H](CCC(=O)O)[C@H]1CC[C@@H]2[C@@]1([C@@H](C[C@H]3[C@H]2CC[C@H]4[C@@]3(CC[C@H](C4)O)C)O)C
Method: HCD
Collision_energy: [28.333334]
Isolation_window: 4.0
Ion_mode: N
Num Peaks: 13
97.4630	0.3
97.4662	0.3
345.2801	0.5
365.3066	0.5
391.1802	0.7
391.2010	0.7
391.2853	100.0
391.3694	0.5
391.3909	0.8
392.2886	22.9
393.2915	1.9
783.5788	0.6
784.5821	0.4

Name: 4,6,8-Trihydroxy-7-methoxy-3-methyl-3,4-dihydroisochromen-1-one
PrecursorMZ: 239.05585
RT: 2.1872
ExactMass: 240.0633881
Spectrum_type: 2
charge: -1
Formula: C11H12O6
SMILES: CC1C(C2=CC(=C(C(=C2C(=O)O1)O)OC)O)O
Method: HCD
Collision_energy: [28.333334]
Isolation_window: 4.0
Ion_mode: N
Num Peaks: 73
59.0129	6.7
71.0129	4.3
72.9922	5.8
79.9561	5.6
80.9643	39.7
83.0131	3.3
85.0285	4.1
87.0078	3.7
93.0337	3.7
94.0289	10.2
95.0131	4.0
95.0492	5.8
96.9592	25.7
97.0286	3.7
99.0079	9.8
101.0235	11.0
107.0493	4.4
109.0286	2.8
109.0649	23.9
111.0442	4.2
113.0236	6.2
115.0028	15.1
123.0445	7.2
124.0396	65.6
125.0599	3.9
128.0345	4.6
133.0651	4.3
135.0445	12.5
136.9906	7.3
139.0392	4.1
149.0603	8.5
150.0222	10.9
150.0548	8.1
151.0394	6.7
151.0758	10.3
152.0702	6.3
152.9855	3.1
153.0549	15.8
153.0664	3.9
160.0608	4.0
162.9700	10.9
165.0552	2.9
167.0340	2.9
167.0709	2.8
169.0498	5.4
177.0550	12.7
179.0347	5.8
180.9806	38.6
181.0853	3.8
193.0499	15.1
194.0466	5.0
194.0810	4.2
195.0649	19.1
196.0600	9.2
197.0438	17.4
197.0816	3.8
221.0448	12.5
223.0254	4.7
237.0409	9.0
237.0928	16.4
238.0395	17.1
238.0714	3.6
238.0956	3.6
239.0228	8.8
239.0566	49.4
239.1077	100.0
240.0175	5.1
240.0525	20.4
240.1105	15.2
241.0023	76.7
241.0357	72.1
241.0717	15.8
241.1252	16.8

Name: 4,6-Dihydroxy-4-(hydroxymethyl)-3,4a,8,8-tetramethyl-5,6,7,8a-tetrahydronaphthalen-1-one
PrecursorMZ: 267.15983
RT: 5.1139
ExactMass: 268.16745924
Spectrum_type: 2
charge: -1
Formula: C15H24O4
SMILES: CC1=CC(=O)C2C(CC(CC2(C1(CO)O)C)O)(C)C
Method: HCD
Collision_energy: [28.333334]
Isolation_window: 4.0
Ion_mode: N
Num Peaks: 41
57.0337	23.5
59.0130	10.1
69.0336	12.5
74.0238	5.9
83.0493	5.6
95.0491	4.4
96.9591	16.2
98.0601	4.4
119.0857	7.6
121.0649	4.2
123.0807	5.6
135.0807	12.9
137.0963	63.8
138.0997	4.8
153.0916	6.8
165.0662	7.2
166.0500	3.7
166.0695	6.4
168.0770	8.0
181.0864	3.6
187.1338	4.1
205.1592	36.4
206.1628	5.7
207.1746	11.5
222.0957	5.7
223.1699	18.4
225.1853	11.4
251.1651	7.2
265.1459	4.2
266.0673	5.2
266.1028	4.3
266.1490	17.5
267.0926	18.2
267.1264	6.3
267.1601	100.0
268.0854	3.9
268.1197	12.5
268.1634	17.8
269.1398	16.5
269.1755	49.5
269.2484	25.5

Name: 4,7-diamino-5-(3-fluorophenyl)-2-(prop-2-yn-1-ylsulfanyl)-5H-pyrano)2,3-d(pyrimidine-6-carbonitrile
PrecursorMZ: 352.06764
RT: 0.56
ExactMass: 353.07465936
Spectrum_type: 2
charge: -1
Formula: C17H12FN5OS
SMILES: C#CCSC1=NC(=C2C(C(=C(OC2=N1)N)C#N)C3=CC(=CC=C3)F)N
Method: HCD
Collision_energy: [28.333334]
Isolation_window: 4.0
Ion_mode: N
Num Peaks: 26
61.9875	7.4
87.0080	3.8
101.0236	5.0
116.9277	7.4
137.0239	3.9
166.0139	11.8
181.0498	6.1
194.0091	11.0
209.0810	6.5
223.0971	4.0
238.0354	13.9
250.0339	3.9
252.0511	25.3
253.1081	15.9
278.0302	7.6
282.1106	7.1
292.0466	11.4
334.0571	4.4
350.1681	15.4
351.1439	21.1
351.1810	18.4
352.0674	100.0
352.1394	5.2
352.1855	3.9
353.0678	22.5
353.1993	9.5

Name: 4-(4-hydroxy-2,6,6-trimethyl-1-cyclohexen-1-yl)-2-butanyl beta-D-glucopyranoside
PrecursorMZ: 373.22334
RT: 5.1594
ExactMass: 374.23045342
Spectrum_type: 2
charge: -1
Formula: C19H34O7
SMILES: CC1=C(C(CC(C1)O)(C)C)CCC(C)O[C@H]2[C@@H]([C@H]([C@@H]([C@H](O2)CO)O)O)O
Method: HCD
Collision_energy: [28.333334]
Isolation_window: 4.0
Ion_mode: N
Num Peaks: 79
57.0338	2.0
59.0130	8.6
69.0337	2.1
71.0130	5.6
72.9923	3.6
73.0287	2.5
74.0239	2.7
78.9582	15.8
83.0494	3.6
85.0286	2.5
87.0079	4.0
88.0396	2.4
89.0236	1.7
95.0496	1.9
97.0653	2.0
105.0186	2.5
109.0286	3.4
111.0445	2.1
112.0397	1.7
113.0233	2.9
113.0349	1.7
114.0552	4.4
115.0393	2.6
125.0239	3.1
125.0962	2.6
127.0505	2.2
128.0346	6.1
130.0865	4.5
135.0447	5.6
171.1021	3.8
181.0501	3.6
201.1125	3.4
218.0458	4.4
222.0781	2.3
223.1335	2.5
227.1654	2.2
235.2069	6.7
251.1651	3.5
255.0678	1.7
261.1862	10.1
262.1905	1.7
263.1662	1.7
271.1556	4.0
279.1968	15.2
280.2000	3.2
293.2132	1.7
297.2084	2.6
303.1822	5.4
305.1760	8.1
315.0886	2.4
323.1865	29.3
324.1903	5.6
329.1039	2.2
331.1601	1.8
331.2286	3.7
340.1852	2.8
341.1971	27.9
342.2000	6.2
353.2351	2.1
354.1987	1.9
354.2384	3.2
355.2128	8.5
355.2616	2.6
371.2458	14.1
372.1138	3.8
372.2092	9.6
372.2476	21.0
373.0974	3.7
373.1336	1.7
373.1885	5.6
373.2235	100.0
373.2603	9.8
373.2669	8.0
374.1268	5.7
374.2271	24.9
375.1067	5.7
375.1982	12.3
375.2144	10.0
375.2900	17.3

Name: 4-)2-)(1R,4aS,5R,6R,8aS)-6-hydroxy-5-(hydroxymethyl)-5,8a-dimethyl-2-methylidene-3,4,4a,6,7,8-hexahydro-1H-naphthalen-1-yl(acetyl(-2H-furan-5-one
PrecursorMZ: 347.18593
RT: 1.9997
ExactMass: 348.19367399
Spectrum_type: 2
charge: -1
Formula: C20H28O5
SMILES: C[C@@]12CC[C@H]([C@@]([C@H]1CCC(=C)[C@H]2CC(=O)C3=CCOC3=O)(C)CO)O
Method: HCD
Collision_energy: [28.333334]
Isolation_window: 4.0
Ion_mode: N
Num Peaks: 41
59.0129	4.9
120.0809	5.9
124.0757	3.1
148.0760	2.2
201.1135	1.9
215.1181	7.3
228.1392	4.8
241.1346	1.5
243.1134	6.6
243.1501	4.2
253.1342	9.7
256.1352	2.9
269.1291	1.8
271.1451	19.2
272.1485	3.4
273.1606	10.9
285.1857	5.5
287.1399	26.7
288.1433	3.6
301.1815	3.2
303.1965	9.9
304.1997	2.0
315.1071	1.7
315.1349	100.0
316.1381	17.7
317.1485	4.4
319.1909	1.5
345.1716	1.6
345.2277	6.9
346.1742	2.9
346.2314	2.7
347.1545	26.5
347.1594	17.4
347.1890	16.4
347.1938	5.5
347.2443	10.6
348.1593	5.4
348.1907	4.0
348.2501	1.7
349.1723	9.1
349.2032	15.0

Name: 4-Bromo-3-hydroxybenzoic acid
PrecursorMZ: 214.93441
RT: 0.9336
Spectrum_type: 2
charge: -1
SMILES: O=C(O)c1cc(O)c(Br)cc1
Method: HCD
Collision_energy: [28.333334]
Isolation_window: 4.0
Ion_mode: N
Num Peaks: 6
78.9179	100.0
80.9158	45.5
170.9444	95.4
172.9422	54.7
214.9344	91.7
216.9322	54.3

Name: 4-Hydroxy-3,5,6-trimethyl-2H-pyran-2-one
PrecursorMZ: 153.05498
RT: 2.91
ExactMass: 154.062994177
Spectrum_type: 2
charge: -1
Formula: C8H10O3
SMILES: CC1=C(OC(=O)C(=C1O)C)C
Method: HCD
Collision_energy: [28.333334]
Isolation_window: 4.0
Ion_mode: N
Num Peaks: 21
59.0130	20.4
101.0136	17.7
107.0493	12.6
108.0447	8.9
108.9332	3.9
109.0289	5.6
109.0650	34.7
111.0440	4.0
124.9834	6.3
126.0090	6.2
128.0246	16.9
136.0155	4.1
151.0394	10.5
152.0339	7.8
152.0710	3.9
153.0207	4.7
153.0550	100.0
154.0498	7.3
154.0610	7.4
154.9461	4.5
155.0347	6.7

Name: 4-Styrenesulfonic acid
PrecursorMZ: 183.01125
RT: 4.0724
ExactMass: 184.01941529
Spectrum_type: 2
charge: -1
Formula: C8H8O3S
SMILES: C=CC1=CC=C(C=C1)S(=O)(=O)O
Method: HCD
Collision_energy: [28.333334]
Isolation_window: 4.0
Ion_mode: N
Num Peaks: 7
79.9560	2.5
119.0492	11.6
183.0113	100.0
183.1383	1.6
184.0143	8.7
184.9908	3.6
185.0072	2.1

Name: 5-(acetylamino)-2-methyl-N-((1R)-1-(1-naphthalenyl)ethyl)benzamide
PrecursorMZ: 381.13737
RT: 0.9486
ExactMass: 346.168127949
Spectrum_type: 2
charge: -1
Formula: C22H22N2O2
SMILES: CC1=C(C=C(C=C1)NC(=O)C)C(=O)N[C@H](C)C2=CC=CC3=CC=CC=C32
Method: HCD
Collision_energy: [28.333334]
Isolation_window: 4.0
Ion_mode: N
Num Peaks: 19
79.9562	1.3
80.9642	1.4
96.9591	5.0
110.9745	0.7
271.1702	3.5
272.1729	0.6
335.3314	3.9
336.3358	1.0
337.3478	2.1
341.3056	0.7
381.1372	100.0
381.2319	7.6
381.3364	13.1
382.1404	20.6
382.2357	1.5
382.3406	3.1
383.1495	15.1
383.1903	16.4
383.3533	6.3

Name: 5-))2-(3-Carboxyanilino)pyrimidin-4-yl(amino(-2-hydroxybenzoic acid
PrecursorMZ: 365.08814
RT: 2.7909333333333333
ExactMass: 366.09641956
Spectrum_type: 2
charge: -1
Formula: C18H14N4O5
SMILES: C1=CC(=CC(=C1)NC2=NC=CC(=N2)NC3=CC(=C(C=C3)O)C(=O)O)C(=O)O
Method: HCD
Collision_energy: [28.333334]
Isolation_window: 4.0
Ion_mode: N
Num Peaks: 12
59.0130	6.6
137.0236	11.5
161.0601	14.6
205.0865	8.9
215.1073	12.4
233.0458	6.9
233.1179	11.1
277.1081	100.0
278.1110	16.7
321.0982	18.3
365.0886	38.2
366.0897	9.4

Name: 6-Hydroxynaphthalene-2-sulfonate
PrecursorMZ: 223.00687
RT: 1.202
ExactMass: 223.00650487
Spectrum_type: 2
charge: -1
Formula: C10H7O4S-
SMILES: C1=CC2=C(C=CC(=C2)S(=O)(=O)[O-])C=C1O
Method: HCD
Collision_energy: [28.333334]
Isolation_window: 4.0
Ion_mode: N
Num Peaks: 8
79.9560	1.7
126.9042	1.6
159.0448	2.5
223.0068	100.0
223.0581	3.0
224.0100	10.9
224.8032	16.6
225.0021	2.4

Name: 7-Hydroxy-6-methoxy-4-methyl-3-(2-morpholino-2-oxoethyl)-2-oxo-2H-chromene-8-carbaldehyde
PrecursorMZ: 360.10868
RT: 2.8969
ExactMass: 361.11615195
Spectrum_type: 2
charge: -1
Formula: C18H19NO7
SMILES: CC1=C(C(=O)OC2=C(C(=C(C=C12)OC)O)C=O)CC(=O)N3CCOCC3
Method: HCD
Collision_energy: [28.333334]
Isolation_window: 4.0
Ion_mode: N
Num Peaks: 9
96.9591	5.2
120.0080	4.1
358.2835	3.5
359.0990	3.3
359.1517	6.6
360.1088	100.0
361.1121	22.0
361.1669	7.3
361.2736	5.2

Name: 8-(2,3-Dihydroxy-3-methylbutyl)-7-methoxychromen-2-one
PrecursorMZ: 277.10809
RT: 1.09365
ExactMass: 278.11542367
Spectrum_type: 2
charge: -1
Formula: C15H18O5
SMILES: CC(C)(C(CC1=C(C=CC2=C1OC(=O)C=C2)OC)O)O
Method: HCD
Collision_energy: [28.333334]
Isolation_window: 4.0
Ion_mode: N
Num Peaks: 70
58.0288	1.4
59.0130	3.3
72.9923	2.2
75.0078	1.6
79.9564	1.5
80.9642	5.2
85.0284	1.6
85.0651	1.8
87.0078	3.4
89.0234	1.4
105.0186	2.2
111.0444	3.9
113.0233	1.9
115.0391	1.4
121.0283	1.4
123.0316	1.5
123.0440	1.4
135.0449	1.9
136.0759	2.5
139.0390	1.3
143.0497	2.7
145.0659	1.8
147.0447	2.5
149.0602	10.7
151.0393	1.4
161.0599	1.8
164.0707	3.6
171.1168	2.9
187.0758	1.4
187.1121	4.6
188.0927	1.9
189.0555	2.7
189.0914	6.9
189.1278	13.1
191.0707	2.8
191.1063	3.4
197.1179	2.4
205.0500	1.5
205.0865	1.4
215.0731	1.9
215.1081	3.0
217.0855	2.6
229.1433	1.9
230.1029	1.5
231.1029	3.5
232.0614	1.7
232.0963	2.3
233.0817	11.4
233.1178	12.9
234.0774	2.6
234.1133	2.5
235.0604	1.7
235.0969	6.3
257.1411	3.1
258.0989	6.7
259.0981	7.9
260.0985	2.2
261.0765	1.8
275.0963	10.9
275.1505	16.1
276.0894	6.2
276.1534	4.1
277.0723	19.3
277.1078	100.0
277.2174	1.7
278.0702	4.3
278.1103	16.6
279.0530	3.1
279.0879	35.5
279.1217	4.4

Name: 9-(Decanoyloxy)octadecanoic acid
PrecursorMZ: 453.39489
RT: 0.85084
ExactMass: 454.4022102
Spectrum_type: 2
charge: -1
Formula: C28H54O4
SMILES: CCCCCCCCCC(CCCCCCCC(=O)O)OC(=O)CCCCCCCCC
Method: HCD
Collision_energy: [28.333334]
Isolation_window: 4.0
Ion_mode: N
Num Peaks: 21
59.0129	8.8
73.0286	17.6
87.0442	100.0
96.9591	11.5
337.3474	16.8
365.3422	58.6
365.3807	6.5
366.3462	12.9
379.3583	16.7
382.3404	8.9
383.3530	92.0
384.3565	25.1
393.3740	17.4
397.3685	16.4
398.3726	5.7
411.3845	46.3
412.3881	13.9
453.2698	39.2
453.3951	63.3
454.2746	9.6
454.3991	18.3

Name: 9-Henicosanoyloxyoctadecanoic acid
PrecursorMZ: 607.5663
RT: 0.7739
ExactMass: 608.5743609
Spectrum_type: 2
charge: -1
Formula: C39H76O4
SMILES: CCCCCCCCCCCCCCCCCCCCC(=O)OC(CCCCCCCCC)CCCCCCCC(=O)O
Method: HCD
Collision_energy: [28.333334]
Isolation_window: 4.0
Ion_mode: N
Num Peaks: 30
67.5095	2.2
69.0453	3.8
69.3350	2.9
96.9591	3.8
227.2012	3.1
241.2169	100.0
242.2202	17.9
255.2327	3.5
267.2331	1.9
337.3474	10.2
338.3514	1.9
355.3219	2.0
363.3268	3.8
364.3308	3.4
365.3422	34.0
366.3453	7.0
369.3374	2.6
381.3370	8.0
382.3406	7.2
383.3530	67.7
384.3563	14.9
605.5521	1.8
606.5571	9.7
606.5630	5.8
607.5670	50.7
608.4649	5.7
608.5700	19.2
608.9660	5.0
609.4722	15.1
609.5734	3.5

Name: 9-Hydroperoxyoctadeca-10,12-dienoic acid
PrecursorMZ: 311.22233
RT: 4.576
ExactMass: 312.2300595
Spectrum_type: 2
charge: -1
Formula: C18H32O4
SMILES: CCCCCC=CC=CC(CCCCCCCC(=O)O)OO
Method: HCD
Collision_energy: [28.333334]
Isolation_window: 4.0
Ion_mode: N
Num Peaks: 11
183.0107	4.6
249.2219	20.0
250.2252	3.9
293.2119	13.9
294.2138	2.4
311.1683	100.0
311.2228	39.4
312.1715	18.9
312.2260	7.4
313.1665	3.6
313.2374	2.6

Name: Antiangiogenic agent 3
PrecursorMZ: 359.11385
RT: 1.2236
ExactMass: 360.12090297
Spectrum_type: 2
charge: -1
Formula: C19H20O7
SMILES: CC1=C(C(=C2C(OC(=O)C2=C1OC)OCCC3=CC=C(C=C3)O)CO)O
Method: HCD
Collision_energy: [28.333334]
Isolation_window: 4.0
Ion_mode: N
Num Peaks: 16
61.9875	6.4
134.0364	9.7
137.0238	1.3
149.0601	15.4
150.0640	1.2
151.0867	1.4
178.0265	19.2
179.0304	1.7
193.0499	100.0
194.0534	10.5
315.1335	1.8
358.1398	1.2
359.1139	44.4
360.1165	9.7
361.0879	1.6
361.1358	1.4

Name: Benzylsuccinic acid
PrecursorMZ: 207.06583
RT: 6.206
ExactMass: 208.07355886
Spectrum_type: 2
charge: -1
Formula: C11H12O4
SMILES: C1=CC=C(C=C1)CC(CC(=O)O)C(=O)O
Method: HCD
Collision_energy: [28.333334]
Isolation_window: 4.0
Ion_mode: N
Num Peaks: 9
119.0857	2.9
121.0651	12.2
122.0366	3.9
162.0550	4.2
163.0758	100.0
164.0793	9.6
205.0716	4.0
205.1588	6.6
207.0663	3.3

Name: Brazilein
PrecursorMZ: 283.06133
RT: 1.1173
ExactMass: 284.06847348
Spectrum_type: 2
charge: -1
Formula: C16H12O5
SMILES: C1C2=CC(=C(C=C2C3=C4C=CC(=O)C=C4OCC31O)O)O
Method: HCD
Collision_energy: [28.333334]
Isolation_window: 4.0
Ion_mode: N
Num Peaks: 24
109.0286	0.8
167.0713	0.5
175.0392	0.5
240.0431	1.3
253.0497	0.7
254.0554	0.5
255.0663	2.0
268.0379	11.3
269.0411	1.9
281.0441	1.4
282.0500	1.9
282.0771	0.8
282.1388	0.7
282.9962	0.7
283.0091	0.5
283.0612	100.0
283.1276	0.6
283.1442	1.8
283.2281	0.8
283.2641	2.0
283.6483	0.5
284.0645	17.1
284.0899	0.5
285.0727	2.5

PrecursorMZ: 354.08783
RT: 6.7924
ExactMass: 355.09569129
Spectrum_type: 2
charge: -1
Formula: C21H13N3O3
SMILES: C1=CC=C2C(=C1)C3=NC4=CC=CC=C4C(=O)N3C5=C(C=CC=C5O)C(=O)N2
Method: HCD
Collision_energy: [28.333334]
Isolation_window: 4.0
Ion_mode: N
Num Peaks: 5
193.0730	24.1
245.0679	31.4
320.1001	21.7
354.0873	100.0
355.0929	19.3

PrecursorMZ: 349.20224
RT: 1.0511
Spectrum_type: 2
charge: -1
SMILES: CC/C=C\CC1C(=O)C=CC1(CCCCCCCC(=O)O)OC(C)=O
Method: HCD
Collision_energy: [28.333334]
Isolation_window: 4.0
Ion_mode: N
Num Peaks: 76
58.0052	0.5
59.0129	1.3
61.9875	2.6
71.0129	0.8
72.9922	1.3
73.0286	1.1
79.9565	1.1
80.9643	0.9
85.0287	0.6
87.0079	1.2
88.0395	0.5
89.0234	0.5
97.0285	0.6
99.0442	0.6
101.0237	0.6
109.0286	1.5
111.0443	0.9
114.0550	0.4
123.0443	0.7
125.0239	0.6
130.0863	0.7
135.0444	1.8
137.0600	0.5
139.0397	0.6
147.0444	0.5
151.0397	0.7
153.0548	0.5
164.0710	0.4
165.0546	0.4
171.0659	0.8
177.0552	0.5
181.0495	0.7
257.1915	1.7
261.1861	0.4
263.2022	0.4
273.1859	0.7
275.2018	1.3
277.1811	0.5
285.0552	0.4
285.1871	0.8
287.0970	0.6
287.2015	4.2
288.2055	0.8
289.1803	0.4
303.1964	5.5
304.1223	0.9
304.1986	1.3
305.1052	1.1
305.1765	1.2
305.2119	12.2
306.2149	2.2
307.1032	1.2
307.1919	0.6
307.2269	1.0
319.1918	1.2
331.1932	0.6
337.2024	1.6
347.1497	1.6
347.1872	1.1
348.1115	5.2
348.1517	2.4
348.1913	0.6
349.0938	5.5
349.1310	3.2
349.1684	4.0
349.2022	100.0
349.2727	0.5
349.2911	0.6
350.0921	1.1
350.1271	3.2
350.1717	1.3
350.2056	20.9
351.1091	6.4
351.1460	0.8
351.1817	3.1
351.2159	3.8

PrecursorMZ: 277.0718
RT: 0.6615
Spectrum_type: 2
charge: -1
SMILES: CC12CC(O)C(O)C=C1c1c(C(=O)O2)c(O)cc(O)c1
Method: HCD
Collision_energy: [28.333334]
Isolation_window: 4.0
Ion_mode: N
Num Peaks: 94
59.0129	4.9
71.0128	1.9
72.9922	3.0
73.0284	2.0
80.9642	1.6
85.0285	2.5
87.0078	30.2
87.0555	2.4
93.0336	4.6
96.9591	4.1
97.0287	2.7
101.0599	14.7
109.0288	2.2
109.0397	1.9
111.0442	4.0
112.0395	10.9
113.0232	1.5
119.0492	2.0
122.0600	1.7
126.0549	1.6
127.0504	19.2
128.0537	1.5
129.0185	1.6
129.0660	7.6
129.1025	2.5
130.0867	4.1
133.0288	7.3
134.0600	2.0
135.0443	19.2
136.0759	23.8
137.0237	1.5
137.0794	2.0
138.0553	4.0
139.0389	1.4
140.0710	2.0
141.1024	1.8
145.0650	1.5
147.0447	3.9
149.0603	4.8
155.0344	3.0
161.0599	3.2
163.0394	1.8
164.0707	4.9
173.0447	19.5
173.0599	4.2
174.0471	2.2
175.0390	1.6
175.0751	2.1
177.0550	36.7
178.0598	3.2
187.0750	2.3
189.0549	3.9
189.0906	3.1
190.0863	4.3
191.0707	2.2
191.1198	3.4
203.0712	1.6
205.0503	1.6
214.0870	3.8
215.0710	3.4
217.0502	15.8
217.0862	1.6
218.0537	1.5
228.0896	1.5
231.0660	3.1
232.0975	6.2
232.1337	1.7
233.0620	8.4
233.0827	5.1
234.0762	6.0
234.1141	1.5
235.0609	1.7
235.0967	2.5
246.0753	1.5
257.1295	11.7
258.1334	3.7
259.0614	7.9
260.0633	1.5
261.0762	1.4
275.0543	1.6
275.1143	18.2
275.1697	6.3
276.0564	2.1
276.0876	10.8
276.1154	4.3
276.1721	2.0
277.0717	100.0
277.1179	14.0
277.1551	10.9
278.0731	17.0
278.1048	6.5
279.0551	4.4
279.0873	54.9
279.1189	1.6

PrecursorMZ: 399.14998
RT: 3.2725
Spectrum_type: 2
charge: -1
SMILES: CCCO[C@@H]1O[C@H](CO)[C@@H](O)[C@H](O)[C@H]1O[C@@H]1OC[C@@H](O)[C@H](O)[C@H]1O
Method: HCD
Collision_energy: [28.333334]
Isolation_window: 4.0
Ion_mode: N
Num Peaks: 44
55.0179	3.6
59.0128	26.3
61.9873	44.1
71.0128	66.0
72.9920	5.8
73.0284	38.7
81.0335	3.5
83.0127	52.0
85.0286	5.4
87.0075	8.7
89.0233	23.9
95.0127	3.1
96.9590	9.4
97.0283	26.8
99.0079	6.3
101.0232	100.0
102.0267	3.0
113.0233	11.7
115.0389	12.0
116.9275	7.7
117.0545	11.6
119.0338	22.0
125.0232	6.3
131.0813	5.1
143.0337	12.2
145.0496	3.2
146.0449	3.1
157.0495	24.1
159.0652	62.3
160.0595	6.0
161.0445	87.8
162.0476	4.7
163.0603	2.9
174.0877	6.9
181.0708	10.7
219.0865	11.4
237.0972	11.6
246.1084	3.1
279.1088	9.7
336.1407	4.3
341.1066	3.3
355.1240	9.4
399.1424	4.6
401.1659	48.2

Name: CDDO-dhTFEA
PrecursorMZ: 573.33053
RT: 0.7971
ExactMass: 574.33822779
Spectrum_type: 2
charge: -1
Formula: C33H45F3N2O3
SMILES: C[C@@]12CC[C@@H]3[C@@]([C@H]1CC(=O)[C@H]4[C@]2(CC[C@@]5([C@H]4CC(CC5)(C)C)C(=O)NCC(F)(F)F)C)(C=C(C(=O)C3(C)C)C#N)C
Method: HCD
Collision_energy: [28.333334]
Isolation_window: 4.0
Ion_mode: N
Num Peaks: 10
63.7016	2.1
63.7054	4.5
63.8168	1.0
69.1711	1.0
79.9564	0.9
96.9591	20.0
122.9750	1.4
573.3312	100.0
574.3348	22.9
575.3341	5.5

Name: Camp
PrecursorMZ: 328.04524
RT: 6.8238
ExactMass: 329.05252012
Spectrum_type: 2
charge: -1
Formula: C10H12N5O6P
SMILES: C1[C@@H]2[C@H]([C@H]([C@@H](O2)N3C=NC4=C(N=CN=C43)N)O)OP(=O)(O1)O
Method: HCD
Collision_energy: [28.333334]
Isolation_window: 4.0
Ion_mode: N
Num Peaks: 15
78.9582	18.5
88.0396	4.8
96.9688	4.9
115.0029	4.7
119.0495	9.3
128.0347	7.8
134.0465	100.0
135.0509	4.5
211.0014	8.1
225.0906	5.2
241.1229	17.5
267.1024	7.7
285.1138	6.5
328.1091	5.1
329.1034	25.7

Name: Cinnamoylglycine
PrecursorMZ: 204.06624
RT: 5.5062
ExactMass: 205.07389321
Spectrum_type: 2
charge: -1
Formula: C11H11NO3
SMILES: C1=CC=C(C=C1)/C=C/C(=O)NCC(=O)O
Method: HCD
Collision_energy: [28.333334]
Isolation_window: 4.0
Ion_mode: N
Num Peaks: 7
142.0865	15.2
158.1378	14.4
160.0763	17.3
202.1274	21.7
204.0662	100.0
205.0694	11.8
205.1597	19.5

Name: Citramalic acid, (+)-
PrecursorMZ: 147.02921
RT: 5.2343
ExactMass: 148.03717335
Spectrum_type: 2
charge: -1
Formula: C5H8O5
SMILES: C[C@](CC(=O)O)(C(=O)O)O
Method: HCD
Collision_energy: [28.333334]
Isolation_window: 4.0
Ion_mode: N
Num Peaks: 11
72.9922	13.3
85.0286	28.5
87.0078	7.6
129.0185	18.7
145.0401	14.4
145.9999	6.2
146.0241	100.0
146.0350	12.1
147.0193	60.1
147.0293	40.3
148.9518	17.3

Name: DL-Acetylproline
PrecursorMZ: 156.06593
RT: 5.2284
ExactMass: 157.07389321
Spectrum_type: 2
charge: -1
Formula: C7H11NO3
SMILES: CC(=O)N1CCCC1C(=O)O
Method: HCD
Collision_energy: [28.333334]
Isolation_window: 4.0
Ion_mode: N
Num Peaks: 15
68.0245	21.3
83.0492	5.1
84.0083	7.3
84.0445	4.0
110.0604	4.7
112.0397	5.8
113.0599	4.4
114.0552	100.0
115.0586	6.1
128.0343	8.6
156.0410	4.5
156.0659	52.7
156.8941	13.8
157.0864	12.3
157.1227	32.2

Name: Decarboxylated 8,5'-diferulic acid
PrecursorMZ: 341.10282
RT: 5.8335
ExactMass: 342.11033829
Spectrum_type: 2
charge: -1
Formula: C19H18O6
SMILES: COC1=CC(=CC(=C1O)/C=C/C2=CC(=C(C=C2)O)OC)/C=C/C(=O)O
Method: HCD
Collision_energy: [28.333334]
Isolation_window: 4.0
Ion_mode: N
Num Peaks: 14
59.0129	9.0
91.0392	23.8
249.0680	12.9
267.0660	54.6
282.0896	29.6
297.1128	18.7
311.0561	11.3
326.0795	32.0
341.1030	100.0
341.1970	34.7
342.1068	17.0
342.1984	10.9
343.1168	9.9
343.2131	35.6

Name: Dibutyl phosphate
PrecursorMZ: 209.09407
RT: 2.0511
ExactMass: 210.10209608
Spectrum_type: 2
charge: -1
Formula: C8H19O4P
SMILES: CCCCOP(=O)(O)OCCCC
Method: HCD
Collision_energy: [28.333334]
Isolation_window: 4.0
Ion_mode: N
Num Peaks: 15
59.0128	7.5
69.1321	4.5
78.9580	100.0
79.9565	6.4
80.9643	11.8
96.9590	7.3
153.0313	73.3
164.1067	4.7
167.1067	4.7
208.0280	17.0
209.0481	8.5
209.0947	80.7
210.0979	6.8
211.0611	4.0
211.0967	4.8

Name: Dihydrocitrinone
PrecursorMZ: 265.0716
RT: 1.2904
ExactMass: 266.07903816
Spectrum_type: 2
charge: -1
Formula: C13H14O6
SMILES: C[C@@H]1[C@H](OC(=O)C2=C(C(=C(C(=C12)C)O)C(=O)O)O)C
Method: HCD
Collision_energy: [28.333334]
Isolation_window: 4.0
Ion_mode: N
Num Peaks: 15
87.0077	17.2
96.9591	40.9
99.0442	18.5
165.0550	15.2
167.0280	10.2
205.0504	19.8
206.0125	15.4
221.0816	9.4
247.0615	7.8
263.0922	7.9
265.0718	100.0
265.1478	60.3
266.0746	17.3
266.1506	8.6
267.0885	27.0

Name: Dihydrogedunic acid, methyl ester
PrecursorMZ: 475.23395
RT: 3.0516
ExactMass: 476.2410181
Spectrum_type: 2
charge: -1
Formula: C26H36O8
SMILES: CC(=O)O[C@@H]1CC2[C@](CCC(=O)C2(C)C)(C3[C@@]1(C45C(O4)C(=O)O[C@H]([C@@]5(CC3)C)C(=O)OC)C)C
Method: HCD
Collision_energy: [28.333334]
Isolation_window: 4.0
Ion_mode: N
Num Peaks: 60
52.8023	2.0
52.8052	4.6
52.9166	1.5
57.0338	2.6
59.0130	4.3
61.9873	1.6
71.0129	2.7
72.9921	1.7
73.0286	15.1
74.0238	1.6
78.9582	4.1
79.9564	1.5
80.9643	2.3
83.0494	2.9
87.0080	2.9
94.9800	15.1
96.9593	3.0
97.0284	2.4
107.0494	2.8
109.0650	1.6
123.0804	1.8
128.0346	1.4
130.0863	2.2
141.0916	2.8
152.9952	31.3
153.0915	11.6
164.0708	1.8
175.1121	1.6
197.0808	2.8
231.1755	1.5
279.2337	4.7
281.2487	7.4
283.2067	1.4
283.2635	1.5
285.2226	10.7
286.2257	2.5
295.2645	4.2
307.2647	2.9
309.2799	8.1
311.2013	1.6
329.2115	3.7
343.1917	2.9
369.2440	3.2
387.2543	10.9
388.2569	2.1
401.2346	1.4
403.2854	1.5
413.2329	3.5
431.2441	29.0
431.3112	1.8
432.2479	7.1
473.2894	1.7
474.1440	1.4
475.2335	100.0
475.3039	13.6
476.1683	1.5
476.2345	25.8
476.3086	2.7
477.1382	1.5
477.3209	14.4

Name: Epiafzelechin trimethyl ether
PrecursorMZ: 315.12386
RT: 5.7995
ExactMass: 316.13107373
Spectrum_type: 2
charge: -1
Formula: C18H20O5
SMILES: COC1=CC=C(C=C1)[C@@H]2[C@@H](CC3=C(O2)C=C(C=C3OC)OC)O
Method: HCD
Collision_energy: [28.333334]
Isolation_window: 4.0
Ion_mode: N
Num Peaks: 105
57.0336	1.6
59.0130	8.1
69.3203	1.5
71.0130	2.3
72.9922	3.7
73.0287	2.0
74.0238	4.9
75.0079	8.6
79.9565	3.6
80.9644	3.9
83.0493	3.2
85.0286	1.8
87.0079	2.7
87.0443	4.7
93.0337	4.2
95.0493	1.6
96.9592	19.3
97.0284	1.9
97.0650	5.6
99.0078	4.2
99.0439	1.4
100.0032	1.5
101.0234	1.7
109.0282	1.3
109.0648	1.3
111.0440	1.5
111.0807	4.1
114.0551	1.7
116.0705	1.6
119.0491	1.5
121.0287	3.7
125.0963	5.4
127.0501	1.6
130.0866	4.5
135.0809	3.5
139.1120	3.2
143.0703	1.8
145.0651	1.1
147.0442	1.1
147.0810	2.9
149.0599	3.2
153.0916	2.9
159.1023	3.5
163.0753	1.4
165.0908	1.4
171.1021	5.2
173.0811	1.9
173.1177	1.6
183.1031	2.2
187.0963	2.2
197.0819	3.0
197.1172	1.6
213.0917	1.1
215.0925	6.2
225.0923	5.2
226.0971	1.4
237.0917	1.5
237.1491	1.5
239.0825	2.1
241.1233	77.9
242.1267	12.2
242.1870	1.4
251.2016	6.3
251.2384	3.3
252.2055	1.9
253.1818	1.7
267.1027	12.1
268.1059	2.1
269.1179	4.4
270.0879	1.3
270.1217	2.9
271.1344	2.4
271.1699	6.0
273.1221	1.5
285.1132	16.2
286.1169	3.6
295.1918	5.9
295.2278	2.2
296.1947	1.8
297.1134	8.1
297.1708	1.7
297.2069	1.5
298.1169	1.8
313.1072	4.4
313.1102	2.1
313.1661	6.0
313.2027	25.9
313.2392	7.1
314.1160	12.1
314.1675	3.4
314.2060	8.5
314.2418	1.9
315.0754	2.8
315.1244	100.0
315.1781	8.5
315.1816	32.4
315.2154	2.2
315.6291	5.6
316.1271	20.5
316.1857	9.0
317.0732	1.4
317.1022	2.7
317.1067	12.2
317.1521	2.4
317.1965	8.9

Name: Epsilon-Viniferin
PrecursorMZ: 453.13417
RT: 4.6728
ExactMass: 454.14163842
Spectrum_type: 2
charge: -1
Formula: C28H22O6
SMILES: C1=CC(=CC=C1/C=C/C2=C3[C@H]([C@@H](OC3=CC(=C2)O)C4=CC=C(C=C4)O)C5=CC(=CC(=C5)O)O)O
Method: HCD
Collision_energy: [28.333334]
Isolation_window: 4.0
Ion_mode: N
Num Peaks: 21
50.3495	4.3
93.0336	9.0
96.9590	4.7
119.0491	4.8
197.0606	3.4
225.0555	11.7
226.0620	6.5
240.0426	3.3
253.0501	5.7
333.0754	4.6
343.0972	3.3
345.0763	5.8
346.0830	6.4
347.0917	15.0
359.0924	11.1
369.1133	5.8
385.1444	3.5
411.1242	7.3
435.1255	4.3
453.1343	100.0
454.1379	32.2

Name: Forskolin
PrecursorMZ: 409.22318
RT: 7.4048
ExactMass: 410.23045342
Spectrum_type: 2
charge: -1
Formula: C22H34O7
SMILES: CC(=O)O[C@H]1[C@H]([C@@H]2[C@]([C@H](CCC2(C)C)O)([C@@]3([C@@]1(O[C@@](CC3=O)(C)C=C)C)O)C)O
Method: HCD
Collision_energy: [28.333334]
Isolation_window: 4.0
Ion_mode: N
Num Peaks: 67
57.0338	2.3
59.0130	7.5
69.0338	1.9
71.0129	3.2
71.0493	2.0
83.0494	5.5
95.0493	1.7
97.0650	3.4
101.0236	3.2
109.0650	2.0
114.0553	2.9
115.0393	3.1
123.0805	1.7
128.0345	4.9
129.0547	1.9
135.0449	1.9
155.1070	2.4
180.0652	1.9
181.1223	1.9
205.1595	1.7
249.1499	1.7
259.2073	3.5
261.2233	2.2
277.2171	5.8
285.1874	1.8
285.2224	3.0
287.2018	1.9
303.1966	8.0
303.2329	6.8
305.2128	6.1
319.1908	1.8
319.2277	3.5
321.2067	6.6
321.2437	18.8
322.2470	3.7
323.2224	2.0
329.2117	5.3
331.1905	2.1
331.2282	4.3
347.1856	4.3
347.2230	11.5
348.2265	2.2
349.2014	5.6
349.2388	9.6
363.2183	6.3
364.2213	3.3
365.1955	6.9
365.2337	30.9
366.2384	6.6
367.2110	5.8
367.2497	10.4
373.2031	2.7
375.2192	5.0
391.2139	11.9
392.2175	2.9
393.1900	2.0
393.2315	12.2
407.1671	3.5
407.2119	11.4
408.1670	6.6
408.2118	5.6
409.1833	20.3
409.2239	100.0
410.1867	4.9
410.2313	24.3
411.1990	27.1
411.2396	56.4

Name: Galdosol
PrecursorMZ: 343.15487
RT: 0.5431
ExactMass: 344.16237386
Spectrum_type: 2
charge: -1
Formula: C20H24O5
SMILES: CC(C)C1=C(C(=C2C(=C1)C(=O)[C@@H]3[C@@H]4[C@@]2(CCCC4(C)C)C(=O)O3)O)O
Method: HCD
Collision_energy: [28.333334]
Isolation_window: 4.0
Ion_mode: N
Num Peaks: 53
59.0130	0.9
79.9563	8.9
80.9641	1.1
96.9591	3.3
106.9796	0.8
125.0598	5.2
127.0755	14.9
128.0786	0.9
140.0106	0.9
149.0962	0.8
173.0967	2.2
189.0914	12.0
190.0946	1.6
195.0655	3.8
197.0965	1.1
203.0702	1.4
215.1074	3.9
217.0874	1.1
224.0683	1.3
231.1027	1.9
241.0866	2.3
259.0974	2.4
270.0387	1.5
280.9829	1.1
297.1500	0.8
297.2430	1.7
298.2464	1.7
299.0946	1.7
299.1285	1.1
299.1620	1.5
299.2589	7.7
300.2627	1.4
301.1082	1.6
301.1773	1.1
315.1580	1.4
316.1314	2.4
325.1442	1.8
341.2700	1.3
342.0617	1.0
342.1075	3.2
342.1392	1.1
342.1713	12.6
343.0823	6.8
343.1188	10.4
343.1547	100.0
343.2852	5.7
344.0816	1.6
344.1180	3.6
344.1556	20.1
345.0978	14.2
345.1362	16.8
345.1706	6.7
345.2097	2.2

Name: Gallocatechin
PrecursorMZ: 305.0668
RT: 3.3668
ExactMass: 306.07395278
Spectrum_type: 2
charge: -1
Formula: C15H14O7
SMILES: C1[C@@H]([C@H](OC2=CC(=CC(=C21)O)O)C3=CC(=C(C(=C3)O)O)O)O
Method: HCD
Collision_energy: [28.333334]
Isolation_window: 4.0
Ion_mode: N
Num Peaks: 36
59.0129	12.2
61.9874	3.3
69.0337	9.3
113.0236	7.5
124.0158	25.8
125.0232	4.1
134.0364	3.9
135.0444	53.2
136.0526	25.9
137.0602	30.8
147.0446	8.3
149.0601	3.8
150.0316	5.5
151.0395	12.4
159.0444	12.8
161.0611	4.3
171.0808	9.0
173.0603	15.2
175.0754	4.2
181.0501	100.0
182.0537	8.3
189.0551	20.4
189.0913	16.2
199.0760	23.5
200.0799	4.9
201.0554	9.2
202.0616	3.7
217.0867	93.6
218.0901	11.9
233.0816	13.4
243.0674	4.7
261.0769	88.3
262.0801	14.0
305.0666	64.8
306.0704	11.7
307.0821	7.2

Name: Gentiobiose
PrecursorMZ: 341.10873
RT: 6.9255
ExactMass: 342.11621151
Spectrum_type: 2
charge: -1
Formula: C12H22O11
SMILES: C([C@@H]1[C@H]([C@@H]([C@H]([C@@H](O1)OC[C@H]([C@H]([C@@H]([C@H](C=O)O)O)O)O)O)O)O)O
Method: HCD
Collision_energy: [28.333334]
Isolation_window: 4.0
Ion_mode: N
Num Peaks: 9
71.0130	9.5
75.0079	34.1
85.0286	16.6
113.0234	20.9
151.0607	20.4
339.2014	9.9
341.1095	100.0
341.1968	7.9
342.1164	14.2

Name: Gibberellin A79
PrecursorMZ: 363.14583
RT: 0.6164
ExactMass: 364.1522031
Spectrum_type: 2
charge: -1
Formula: C19H24O7
SMILES: CC12C3C(C45CC(CCC4C3(C(C(C1O)O)O)OC2=O)C(=C)C5)C(=O)O
Method: HCD
Collision_energy: [28.333334]
Isolation_window: 4.0
Ion_mode: N
Num Peaks: 37
58.0052	13.3
59.0130	4.7
61.9875	14.0
71.0129	2.7
73.0285	3.0
119.0857	2.6
171.1021	3.3
182.0454	2.8
201.1276	2.2
203.1441	3.3
213.1280	4.6
215.1440	3.3
217.1597	2.4
229.1594	6.4
239.1439	7.4
243.1366	3.1
255.1390	3.6
257.1547	45.6
258.1578	7.6
275.1654	62.7
276.1688	12.1
301.1463	3.8
318.1763	3.5
319.1558	12.7
320.1580	2.3
345.1352	4.5
361.1646	4.9
362.1255	3.5
362.1669	13.2
363.1447	100.0
363.1816	10.4
364.1063	2.6
364.1476	22.1
364.1855	3.0
365.1159	2.2
365.1574	2.9
365.1970	28.5

Name: GlyTouCan:G22453RH
PrecursorMZ: 457.15657
RT: 8.3038
ExactMass: 412.15807632
Spectrum_type: 2
charge: -1
Formula: C16H28O12
SMILES: CC(C)C(=O)O[C@H]1[C@@H]([C@H](O[C@@H]([C@@H]1O)O[C@@H]2[C@@H]([C@H]([C@@H]([C@H](O2)CO)O)O)O)CO)O
Method: HCD
Collision_energy: [28.333334]
Isolation_window: 4.0
Ion_mode: N
Num Peaks: 14
71.0129	5.0
89.0235	43.2
101.0235	12.1
113.0233	5.4
115.0392	15.6
133.0498	23.0
161.0449	6.4
293.0879	6.3
367.1244	8.0
397.1345	13.3
415.1457	15.1
457.1567	56.6
458.1597	11.9
459.1725	100.0

Name: Glyceraldehyde
PrecursorMZ: 89.02351
RT: 3.668
ExactMass: 90.031694049
Spectrum_type: 2
charge: -1
Formula: C3H6O3
SMILES: C(C(C=O)O)O
Method: HCD
Collision_energy: [28.333334]
Isolation_window: 4.0
Ion_mode: N
Num Peaks: 11
58.0051	12.4
59.0130	93.0
71.0130	28.4
72.9922	16.8
87.0078	49.4
87.0443	58.7
88.0396	23.2
89.0138	30.4
89.0234	48.1
90.0087	12.1
91.0293	100.0

Name: Hematoxylin
PrecursorMZ: 301.07156
RT: 2.7575
ExactMass: 302.07903816
Spectrum_type: 2
charge: -1
Formula: C16H14O6
SMILES: C1C2=CC(=C(C=C2[C@H]3[C@@]1(COC4=C3C=CC(=C4O)O)O)O)O
Method: HCD
Collision_energy: [28.333334]
Isolation_window: 4.0
Ion_mode: N
Num Peaks: 55
59.0129	11.3
87.0078	0.5
89.0234	0.5
93.0335	2.2
106.0414	0.9
107.0493	7.6
108.0525	0.5
109.0286	0.5
119.0491	0.8
121.0287	0.4
122.0363	0.9
123.0447	0.5
123.0804	0.9
125.0238	0.4
133.0650	0.7
135.0442	32.6
136.0474	2.4
137.0601	0.7
149.0598	0.9
150.0675	0.9
151.0391	0.4
151.0756	21.0
152.0789	1.9
181.0496	0.8
213.0915	7.0
214.0947	1.0
229.0866	7.2
229.1197	0.7
230.0899	0.9
237.0932	0.5
239.0718	0.6
239.1075	4.8
240.1102	0.8
241.0867	9.1
242.0901	1.6
255.1029	1.8
256.1055	0.6
257.0817	17.1
257.1178	9.7
258.0849	2.5
258.1211	1.5
283.0982	2.2
299.0931	2.1
299.2589	5.7
300.0990	0.4
300.2626	1.4
301.0752	3.3
301.1078	100.0
301.1803	0.7
301.9640	2.0
302.0788	0.7
302.1112	17.8
302.9617	1.1
303.0737	0.7
303.1142	1.0

Name: Histamine
PrecursorMZ: 110.07148
RT: 5.6244
ExactMass: 111.0796473
Spectrum_type: 2
charge: -1
Formula: C5H9N3
SMILES: C1=C(NC=N1)CCN
Method: HCD
Collision_energy: [28.333334]
Isolation_window: 4.0
Ion_mode: N
Num Peaks: 3
80.0371	30.8
81.0449	38.0
110.0715	100.0

Name: Homoeriodictyol
PrecursorMZ: 301.07172
RT: 0.8576
ExactMass: 302.07903816
Spectrum_type: 2
charge: -1
Formula: C16H14O6
SMILES: COC1=C(C=CC(=C1)[C@@H]2CC(=O)C3=C(C=C(C=C3O2)O)O)O
Method: HCD
Collision_energy: [28.333334]
Isolation_window: 4.0
Ion_mode: N
Num Peaks: 5
285.0405	17.0
286.0481	74.7
299.1514	26.5
301.0716	100.0
302.0750	16.9

Name: Int-777
PrecursorMZ: 449.32696
RT: 1.4542
ExactMass: 450.33452456
Spectrum_type: 2
charge: -1
Formula: C27H46O5
SMILES: CC[C@@H]1[C@@H]2C[C@@H](CC[C@@]2([C@H]3C[C@@H]([C@]4([C@H]([C@@H]3[C@@H]1O)CC[C@@H]4[C@H](C)C[C@H](C)C(=O)O)C)O)C)O
Method: HCD
Collision_energy: [28.333334]
Isolation_window: 4.0
Ion_mode: N
Num Peaks: 7
74.0238	7.0
407.3170	4.9
447.3145	4.2
448.3115	21.0
449.3284	100.0
450.3320	28.6
451.3110	7.3

Name: Kobusone
PrecursorMZ: 221.15402
RT: 1.1252666666666666
ExactMass: 222.16197994
Spectrum_type: 2
charge: -1
Formula: C14H22O2
SMILES: C[C@@]12CC[C@@H]3[C@H](CC3(C)C)C(=O)CC[C@H]1O2
Method: HCD
Collision_energy: [28.333334]
Isolation_window: 4.0
Ion_mode: N
Num Peaks: 15
74.9896	1.3
93.0003	1.0
130.9306	0.7
149.0088	0.9
191.0556	1.3
206.9963	0.9
220.1465	1.7
221.1032	0.6
221.1068	0.7
221.1541	58.1
222.1575	8.9
223.0278	100.0
223.0735	0.7
223.1334	1.3
241.0384	2.7

Name: L-Rhamnose
PrecursorMZ: 163.06035
RT: 0.7347
ExactMass: 164.06847348
Spectrum_type: 2
charge: -1
Formula: C6H12O5
SMILES: C[C@H]1[C@@H]([C@H]([C@H](C(O1)O)O)O)O
Method: HCD
Collision_energy: [28.333334]
Isolation_window: 4.0
Ion_mode: N
Num Peaks: 62
57.0336	0.8
59.0129	2.3
69.0336	0.5
70.0289	0.5
71.0128	2.0
71.0491	0.4
72.9921	1.3
73.0285	3.3
74.0238	2.3
75.0078	8.7
75.0270	1.1
75.0441	0.4
81.0335	0.5
85.0285	3.1
87.0077	7.3
87.0441	1.9
89.0234	4.3
97.0282	0.8
97.0648	0.5
99.0272	0.5
99.0441	3.5
101.0234	34.1
102.0267	2.0
105.0184	0.4
115.0391	2.5
115.0585	0.4
115.0754	3.4
116.0343	0.7
116.0785	0.9
117.0184	1.2
117.0376	1.1
117.0547	2.0
117.0800	3.6
119.0339	0.7
119.0486	1.2
121.0283	0.6
121.0646	0.8
129.0184	0.4
131.0339	0.9
133.0497	3.8
135.0288	0.8
143.0341	2.9
143.0596	0.5
145.0496	1.2
149.9982	0.5
161.0171	0.6
161.0231	1.0
161.0447	100.0
161.0700	3.7
161.0815	1.4
162.0196	0.5
162.0479	10.8
163.0239	0.7
163.0382	0.7
163.0492	1.4
163.0605	15.0
163.0751	0.7
164.0639	0.6
164.0716	0.6
165.0211	1.1
165.0408	1.2
165.0548	0.9

Name: Leu-Gly-Gly
PrecursorMZ: 244.13026
RT: 5.9442
ExactMass: 245.1375561
Spectrum_type: 2
charge: -1
Formula: C10H19N3O4
SMILES: CC(C)C[C@@H](C(=O)NCC(=O)NCC(=O)O)N
Method: HCD
Collision_energy: [28.333334]
Isolation_window: 4.0
Ion_mode: N
Num Peaks: 9
74.0239	100.0
114.0189	15.8
129.1024	42.1
130.0866	29.7
143.1181	28.6
169.0981	21.8
200.1402	51.5
226.1200	27.6
244.1309	97.2

Name: Loureirin B
PrecursorMZ: 315.12392
RT: 4.9778
ExactMass: 316.13107373
Spectrum_type: 2
charge: -1
Formula: C18H20O5
SMILES: COC1=CC(=C(C(=C1)OC)CCC(=O)C2=CC=C(C=C2)O)OC
Method: HCD
Collision_energy: [28.333334]
Isolation_window: 4.0
Ion_mode: N
Num Peaks: 22
121.0286	3.9
145.0651	1.2
147.0448	1.2
149.0600	2.3
241.1232	99.8
242.1265	15.3
267.1027	13.9
268.1066	2.0
270.1208	1.5
271.1335	2.1
285.1133	15.9
286.1164	2.1
297.1132	6.4
298.1158	1.1
313.2023	1.6
314.1111	2.8
315.0940	1.3
315.1239	100.0
315.1781	8.1
316.1269	18.7
317.1307	1.8
317.1489	1.1

Name: Methylprednisolone
PrecursorMZ: 419.20726
RT: 2.5528
ExactMass: 374.20932405
Spectrum_type: 2
charge: -1
Formula: C22H30O5
SMILES: C[C@H]1C[C@H]2[C@@H]3CC[C@@]([C@]3(C[C@@H]([C@@H]2[C@@]4(C1=CC(=O)C=C4)C)O)C)(C(=O)CO)O
Method: HCD
Collision_energy: [28.333334]
Isolation_window: 4.0
Ion_mode: N
Num Peaks: 34
59.0130	2.0
60.9922	1.8
63.9615	1.8
69.0528	1.8
69.1867	1.7
73.0284	1.1
76.9693	1.1
79.9563	1.7
87.0078	1.0
106.9799	5.4
114.0550	3.2
130.0864	1.2
259.1454	2.4
303.1350	5.8
313.1807	7.9
319.1913	2.5
331.1914	100.0
332.1947	21.7
333.1989	2.2
333.2031	2.7
342.2076	1.4
357.1707	2.2
375.2537	1.1
377.2706	1.6
417.2472	1.9
418.2182	2.8
418.2231	3.1
419.1189	1.1
419.2032	20.5
419.2507	2.5
420.2035	3.2
420.2071	5.3
421.2158	2.5
421.2623	7.9

Name: Miyabenol C
PrecursorMZ: 679.1972
RT: 4.8204
ExactMass: 680.20463259
Spectrum_type: 2
charge: -1
Formula: C42H32O9
SMILES: C1=CC(=CC(=C1)O)[C@@H]2[C@H](C3=C(C=C(C=C3O2)O)/C=C/C4=CC=C(C=C4)O)C5=CC6=C(C(=C5)O)O[C@H]([C@@H]6C7=CC(=CC(=C7)O)O)C8=CC=C(C=C8)O
Method: HCD
Collision_energy: [28.333334]
Isolation_window: 4.0
Ion_mode: N
Num Peaks: 11
227.0712	5.3
333.0762	6.4
335.0915	5.8
343.0978	6.4
345.0763	11.9
451.1189	8.8
573.1544	8.2
585.1545	5.2
679.1973	100.0
680.2007	39.5
681.2081	5.7

Name: Monomethylsulochrin
PrecursorMZ: 381.0745
RT: 5.2843
ExactMass: 346.10525291
Spectrum_type: 2
charge: -1
Formula: C18H18O7
SMILES: CC1=CC(=C(C(=C1)OC)C(=O)C2=C(C=C(C=C2OC)O)C(=O)OC)O
Method: HCD
Collision_energy: [28.333334]
Isolation_window: 4.0
Ion_mode: N
Num Peaks: 4
137.0238	13.1
139.0391	31.1
345.0977	100.0
346.1012	15.3

Name: N,N-Dimethylglycine
PrecursorMZ: 102.05493
RT: 2.7084
ExactMass: 103.06332853
Spectrum_type: 2
charge: -1
Formula: C4H9NO2
SMILES: CN(C)CC(=O)O
Method: HCD
Collision_energy: [28.333334]
Isolation_window: 4.0
Ion_mode: N
Num Peaks: 4
59.0128	100.0
60.0081	24.1
84.0444	6.2
102.0549	59.3

Name: N-(2-((5-(4-methoxyphenyl)-1H-imidazol-2-yl)thio)ethyl)pivalamide
PrecursorMZ: 368.12087
RT: 1.6415
ExactMass: 333.15109816
Spectrum_type: 2
charge: -1
Formula: C17H23N3O2S
SMILES: CC(C)(C)C(=O)NCCSC1=NC=C(N1)C2=CC=C(C=C2)OC
Method: HCD
Collision_energy: [28.333334]
Isolation_window: 4.0
Ion_mode: N
Num Peaks: 6
59.0130	1.1
61.9874	100.0
154.0615	1.1
366.2139	1.1
367.1481	0.9
368.0843	0.8

Name: N-(2-(2-chlorophenyl)-2-(1H-indol-3-yl)ethyl)-3-methylbutanamide
PrecursorMZ: 399.14834
RT: 5.1139
ExactMass: 354.1498911
Spectrum_type: 2
charge: -1
Formula: C21H23ClN2O
SMILES: CC(C)CC(=O)NCC(C1=CC=CC=C1Cl)C2=CNC3=CC=CC=C32
Method: HCD
Collision_energy: [28.333334]
Isolation_window: 4.0
Ion_mode: N
Num Peaks: 14
96.9592	2.4
139.1121	1.7
209.1181	2.7
244.1554	5.6
251.1291	3.0
273.1603	2.6
397.2630	6.1
398.2667	3.1
399.1492	100.0
399.2362	1.8
399.2782	7.0
400.1521	20.9
400.2313	4.7
401.1545	4.7

Name: N-)(2S)-3-cyclohexyl-1-))(2S,3S)-3-methyl-1-oxo-1-spiro)indene-1,4'-piperidine(-1'-ylpentan-2-yl(amino(-1-oxopropan-2-yl(-1,2-oxazole-5-carboxamide
PrecursorMZ: 591.31913
RT: 4.7855
ExactMass: 546.32060583
Spectrum_type: 2
charge: -1
Formula: C32H42N4O4
SMILES: CC[C@H](C)[C@@H](C(=O)N1CCC2(CC1)C=CC3=CC=CC=C23)NC(=O)[C@H](CC4CCCCC4)NC(=O)C5=CC=NO5
Method: HCD
Collision_energy: [28.333334]
Isolation_window: 4.0
Ion_mode: N
Num Peaks: 39
69.0504	11.0
69.3000	7.3
97.0160	5.6
97.4652	7.1
120.0809	73.6
121.0845	7.0
124.0758	44.8
134.0967	15.2
164.0708	16.2
243.1497	24.7
245.1656	37.5
246.1689	6.0
247.1813	13.2
253.1705	25.9
255.1514	6.0
257.1293	13.7
257.1655	10.7
259.1811	17.1
277.2178	9.0
286.1772	7.0
289.1556	14.6
291.1712	40.6
292.1752	6.0
376.2386	6.9
378.2553	21.3
379.2595	6.3
422.2435	9.0
526.2191	11.5
545.3129	12.5
546.3173	14.8
547.3285	62.1
548.3317	13.2
549.3420	7.6
589.3003	16.1
590.3074	22.8
591.3188	100.0
592.3222	27.9
593.2560	13.0
593.3451	7.1

Name: N-Acetyl-Muramic Acid
PrecursorMZ: 292.10381
RT: 6.1101
ExactMass: 293.11106656
Spectrum_type: 2
charge: -1
Formula: C11H19NO8
SMILES: C[C@H](C(=O)O)O[C@H]1[C@@H]([C@H](OC([C@@H]1NC(=O)C)O)CO)O
Method: HCD
Collision_energy: [28.333334]
Isolation_window: 4.0
Ion_mode: N
Num Peaks: 10
58.0290	3.2
59.0130	1.9
83.0129	7.1
89.0235	100.0
90.0268	2.9
140.0346	3.7
142.0503	9.2
221.1543	2.8
236.1051	3.7
293.1799	2.1

Name: N-Acetylaspartylglutamic acid
PrecursorMZ: 303.08304
RT: 5.3537
ExactMass: 304.09066547
Spectrum_type: 2
charge: -1
Formula: C11H16N2O8
SMILES: CC(=O)N[C@@H](CC(=O)O)C(=O)N[C@@H](CCC(=O)O)C(=O)O
Method: HCD
Collision_energy: [28.333334]
Isolation_window: 4.0
Ion_mode: N
Num Peaks: 12
96.0081	61.3
115.0027	16.1
128.0343	100.0
145.0497	16.8
146.0449	26.9
155.0453	16.0
182.0452	16.0
285.0726	69.2
301.0683	9.5
303.0848	19.3
304.0664	25.8
305.0645	11.7

Name: N-acetyl-L-threonine
PrecursorMZ: 160.06092
RT: 5.4479
ExactMass: 161.06880783
Spectrum_type: 2
charge: -1
Formula: C6H11NO4
SMILES: C[C@H]([C@@H](C(=O)O)NC(=O)C)O
Method: HCD
Collision_energy: [28.333334]
Isolation_window: 4.0
Ion_mode: N
Num Peaks: 9
59.0130	8.4
70.0289	17.9
72.0447	5.0
74.0238	100.0
98.0238	29.6
116.0344	44.3
158.9115	5.7
160.0398	6.2
160.0606	9.9

Name: N-oleoyl phenylalanine
PrecursorMZ: 428.31641
RT: 1.0372
ExactMass: 429.32429423
Spectrum_type: 2
charge: -1
Formula: C27H43NO3
SMILES: CCCCCCCC/C=C\CCCCCCCC(=O)N[C@@H](CC1=CC=CC=C1)C(=O)O
Method: HCD
Collision_energy: [28.333334]
Isolation_window: 4.0
Ion_mode: N
Num Peaks: 26
58.0289	2.3
59.0130	1.1
69.4308	0.8
72.0081	2.3
78.9581	1.3
91.0543	11.2
147.0442	25.7
148.0477	1.7
164.0708	100.0
165.0744	7.9
280.2643	8.1
281.2669	1.3
282.2798	4.0
292.2642	3.8
293.2863	4.3
294.2836	1.1
363.3256	1.0
384.3574	0.9
409.3309	2.2
427.3017	1.9
427.3715	1.5
428.3167	85.0
428.3608	1.9
429.2776	3.1
429.3224	24.0
430.3318	29.1

Name: N2-(4-(1H-benzo(d)imidazol-2-yl)phenyl)-N4-(4-fluorophenyl)-6-morpholino-1,3,5-triazine-2,4-diamine
PrecursorMZ: 481.19027
RT: 2.0102
ExactMass: 482.19788555
Spectrum_type: 2
charge: -1
Formula: C26H23FN8O
SMILES: C1COCCN1C2=NC(=NC(=N2)NC3=CC=C(C=C3)F)NC4=CC=C(C=C4)C5=NC6=CC=CC=C6N5
Method: HCD
Collision_energy: [28.333334]
Isolation_window: 4.0
Ion_mode: N
Num Peaks: 3
96.9592	26.0
481.1903	100.0
482.1958	21.2

Name: N2-Acetyl-DL-lysine
PrecursorMZ: 187.10826
RT: 5.5489
ExactMass: 188.11609238
Spectrum_type: 2
charge: -1
Formula: C8H16N2O3
SMILES: CC(=O)NC(CCCCN)C(=O)O
Method: HCD
Collision_energy: [28.333334]
Isolation_window: 4.0
Ion_mode: N
Num Peaks: 53
58.0289	16.7
59.0130	5.6
71.0132	3.6
73.0286	10.1
74.0238	22.4
83.0493	22.4
84.0446	13.2
85.0286	3.2
86.0239	1.9
87.0079	2.1
87.0442	2.2
88.0394	20.7
98.0602	4.4
99.0192	2.2
99.0443	2.3
100.0395	2.2
102.0551	100.0
103.0582	2.1
112.0158	3.4
112.0396	4.0
113.0432	2.9
114.0551	4.0
114.0914	2.1
115.0392	2.1
124.0396	3.0
124.0760	2.8
125.0238	2.6
125.0433	2.7
125.0601	4.7
125.0964	4.2
126.0550	2.6
126.0915	5.1
127.0393	11.2
130.0864	2.8
141.0742	2.1
142.0864	6.5
143.0707	10.7
143.1182	35.4
144.0658	31.6
144.0771	2.1
144.1221	2.8
146.0816	18.4
168.0658	2.1
185.0649	4.8
185.1537	2.3
186.0769	13.4
187.0610	11.2
187.1088	49.5
188.0725	2.4
188.0923	25.7
188.1117	4.3
189.0772	5.3
189.1123	8.3

Name: Nimodipine
PrecursorMZ: 417.16818
RT: 3.0145
ExactMass: 418.17400117
Spectrum_type: 2
charge: -1
Formula: C21H26N2O7
SMILES: CC1=C(C(C(=C(N1)C)C(=O)OC(C)C)C2=CC(=CC=C2)[N+](=O)[O-])C(=O)OCCOC
Method: HCD
Collision_energy: [28.333334]
Isolation_window: 4.0
Ion_mode: N
Num Peaks: 8
96.9592	11.3
381.1915	100.0
382.1937	17.9
415.1800	18.6
415.2831	11.5
416.1809	22.7
417.2048	57.2
418.2043	11.7

Name: Nitrendipine
PrecursorMZ: 359.12507
RT: 1.4054
ExactMass: 360.13213636
Spectrum_type: 2
charge: -1
Formula: C18H20N2O6
SMILES: CCOC(=O)C1=C(NC(=C(C1C2=CC(=CC=C2)[N+](=O)[O-])C(=O)OC)C)C
Method: HCD
Collision_energy: [28.333334]
Isolation_window: 4.0
Ion_mode: N
Num Peaks: 25
61.9875	4.9
115.9197	4.4
116.9275	4.8
127.0504	5.6
135.0444	4.5
144.0295	17.0
149.0604	6.2
165.0661	5.4
203.0708	5.9
215.0543	4.1
246.0770	11.6
255.0898	10.4
257.1057	18.5
270.1139	17.4
271.0968	17.5
272.1291	41.0
273.1326	6.7
300.1117	14.5
315.1352	80.7
316.1384	14.3
358.0893	4.4
359.0809	16.7
359.1247	100.0
360.1260	21.5
361.1314	12.3

Name: P-Coumaric Acid
PrecursorMZ: 327.08751
RT: 4.0494
ExactMass: 164.047344113
Spectrum_type: 2
charge: -1
Formula: C9H8O3
SMILES: C1=CC(=CC=C1/C=C/C(=O)O)O
Method: HCD
Collision_energy: [28.333334]
Isolation_window: 4.0
Ion_mode: N
Num Peaks: 12
61.9875	10.7
119.0494	13.4
163.0395	9.6
237.0920	7.9
239.1080	6.1
283.0976	35.2
284.1010	6.8
325.1846	14.0
326.1869	3.3
327.0875	100.0
328.0907	19.4
329.0897	5.9

Name: P5F8AW8Auz
PrecursorMZ: 494.29434
RT: 9.6059
ExactMass: 495.30184471
Spectrum_type: 2
charge: -1
Formula: C27H45NO5S
SMILES: C[C@H](CCC(=O)N[C@@H](CS)C(=O)O)[C@H]1CC[C@@H]2[C@@]1(CC[C@H]3[C@H]2[C@@H](C[C@H]4[C@@]3(CC[C@H](C4)O)C)O)C
Method: HCD
Collision_energy: [28.333334]
Isolation_window: 4.0
Ion_mode: N
Num Peaks: 5
60.9922	12.1
131.0818	72.0
132.0852	3.3
174.0878	100.0
175.0915	6.0

Name: PC(18:3(9Z,12Z,15Z)/0:0)
PrecursorMZ: 707.48613
RT: 1.6702
ExactMass: 517.31683987
Spectrum_type: 2
charge: -1
Formula: C26H48NO7P
SMILES: CC/C=C\C/C=C\C/C=C\CCCCCCCC(=O)OC[C@H](COP(=O)([O-])OCC[N+](C)(C)C)O
Method: HCD
Collision_energy: [28.333334]
Isolation_window: 4.0
Ion_mode: N
Num Peaks: 30
78.5037	1.0
78.6071	1.4
78.6122	2.4
78.7187	0.6
78.7239	1.0
78.9580	3.0
96.9685	0.6
152.9949	12.8
209.0215	1.1
227.2012	2.4
241.2169	88.2
242.2203	13.0
243.2226	0.7
255.2326	100.0
255.2883	0.6
256.2360	19.7
257.2389	1.3
269.2484	3.1
270.2532	0.8
279.2332	0.8
377.2091	0.7
451.2446	0.8
464.2840	7.8
465.2878	2.4
466.2849	1.0
705.5062	6.7
706.5087	26.2
707.4889	70.5
708.4916	27.3
709.4981	5.1

Name: PE(16:0/18:0)
PrecursorMZ: 718.53981
RT: 1.5987
ExactMass: 719.54650544
Spectrum_type: 2
charge: -1
Formula: C39H78NO8P
SMILES: CCCCCCCCCCCCCCCCCC(=O)O[C@H](COC(=O)CCCCCCCCCCCCCCC)COP(=O)(O)OCCN
Method: HCD
Collision_energy: [28.333334]
Isolation_window: 4.0
Ion_mode: N
Num Peaks: 14
74.0239	7.8
78.9582	69.1
79.8353	2.3
79.8406	4.4
96.9687	5.5
97.4630	1.7
152.9952	46.1
171.0058	77.8
172.0095	1.8
716.5779	9.9
717.5282	5.5
718.5403	100.0
719.5443	40.0
720.5549	36.2

Name: Perfluorooctanoic acid
PrecursorMZ: 412.96645
RT: 0.5178
ExactMass: 413.9737017
Spectrum_type: 2
charge: -1
Formula: C8HF15O2
SMILES: C(=O)(C(C(C(C(C(C(C(F)(F)F)(F)F)(F)F)(F)F)(F)F)(F)F)(F)F)O
Method: HCD
Collision_energy: [28.333334]
Isolation_window: 4.0
Ion_mode: N
Num Peaks: 20
79.9563	1.9
96.9591	12.5
118.9915	8.9
168.9885	81.6
169.9921	2.8
218.9856	17.9
368.9763	100.0
369.9795	7.6
411.1051	2.7
411.1439	4.1
411.1864	7.8
412.1896	3.2
412.9655	2.7
413.1203	3.3
413.1628	9.6
413.2015	7.6
413.3202	2.3
414.1599	2.8
415.1742	7.4
415.2192	2.4

Name: Phenylbutyrylglutamine
PrecursorMZ: 291.13518
RT: 2.5156
ExactMass: 292.14230712
Spectrum_type: 2
charge: -1
Formula: C15H20N2O4
SMILES: C1=CC=C(C=C1)CCCC(=O)NC(CCC(=O)N)C(=O)O
Method: HCD
Collision_energy: [28.333334]
Isolation_window: 4.0
Ion_mode: N
Num Peaks: 25
59.0130	2.4
61.9875	2.3
71.0130	2.2
85.0286	2.0
87.0078	3.5
89.0235	2.9
99.0442	1.5
113.0236	1.9
119.0494	100.0
120.0527	8.9
127.0868	16.0
128.0709	8.8
145.0287	13.5
145.0975	7.0
147.0920	3.0
161.0456	2.1
171.0769	32.4
172.0808	2.2
247.1453	5.0
290.1203	2.4
290.1397	1.9
291.1352	64.0
292.0840	2.0
292.1386	10.6
293.0886	5.5

Name: Phosphoric Acid
PrecursorMZ: 390.9008
RT: 5.4258
ExactMass: 97.97689557
Spectrum_type: 2
charge: -1
Formula: H3O4P
SMILES: OP(=O)(O)O
Method: HCD
Collision_energy: [28.333334]
Isolation_window: 4.0
Ion_mode: N
Num Peaks: 4
96.9687	49.9
176.9355	40.5
194.9461	100.0
292.9239	14.0

Name: Physcion
PrecursorMZ: 283.06136
RT: 0.8254
ExactMass: 284.06847348
Spectrum_type: 2
charge: -1
Formula: C16H12O5
SMILES: CC1=CC2=C(C(=C1)O)C(=O)C3=C(C2=O)C=C(C=C3O)OC
Method: HCD
Collision_energy: [28.333334]
Isolation_window: 4.0
Ion_mode: N
Num Peaks: 17
61.9876	3.1
109.0284	2.5
124.0397	2.7
184.0606	3.8
268.0379	11.2
281.0449	2.6
281.2484	5.2
283.0157	23.8
283.0612	100.0
283.2310	4.7
283.2641	85.3
284.0173	2.9
284.0634	15.7
284.1177	2.8
284.2675	16.2
285.0745	6.2
285.1106	2.9

Name: Picein
PrecursorMZ: 297.09814
RT: 0.6393
ExactMass: 298.10525291
Spectrum_type: 2
charge: -1
Formula: C14H18O7
SMILES: CC(=O)C1=CC=C(C=C1)O[C@H]2[C@@H]([C@H]([C@@H]([C@H](O2)CO)O)O)O
Method: HCD
Collision_energy: [28.333334]
Isolation_window: 4.0
Ion_mode: N
Num Peaks: 40
59.0130	6.2
85.0286	3.4
87.0079	4.9
97.0288	4.5
99.0440	3.9
111.0080	4.9
116.0709	8.6
123.0444	4.8
125.0600	3.6
130.0865	11.2
137.0601	4.9
139.0394	19.8
153.0548	4.6
168.0660	8.5
181.0498	7.9
181.0857	5.4
182.0810	6.5
195.0661	4.8
209.0809	5.2
226.0842	7.3
251.1290	4.2
253.0718	5.7
253.1447	8.5
277.1452	5.1
295.0824	17.2
295.1192	15.5
295.1554	23.8
296.0852	11.1
296.1197	8.8
296.1579	5.9
297.0980	100.0
297.1340	17.9
297.1709	30.0
297.2078	4.9
297.2437	8.9
298.1010	14.9
298.1351	3.5
298.1722	4.9
299.1604	27.9
299.1896	5.6

Name: Prednisone
PrecursorMZ: 357.17088
RT: 0.7976
ExactMass: 358.17802393
Spectrum_type: 2
charge: -1
Formula: C21H26O5
SMILES: C[C@]12CC(=O)[C@H]3[C@H]([C@@H]1CC[C@@]2(C(=O)CO)O)CCC4=CC(=O)C=C[C@]34C
Method: HCD
Collision_energy: [28.333334]
Isolation_window: 4.0
Ion_mode: N
Num Peaks: 15
97.4076	2.5
125.0600	13.1
187.1124	6.7
195.0661	4.1
255.1030	3.7
273.1135	8.6
339.1592	4.9
355.1906	2.6
356.1898	3.9
357.0981	2.4
357.1353	5.4
357.1708	100.0
358.1740	24.2
359.1490	9.8
359.1864	27.8

Name: Pregnenolone sulfate
PrecursorMZ: 395.19016
RT: 0.5379
ExactMass: 396.19704529
Spectrum_type: 2
charge: -1
Formula: C21H32O5S
SMILES: CC(=O)[C@H]1CC[C@@H]2[C@@]1(CC[C@H]3[C@H]2CC=C4[C@@]3(CC[C@@H](C4)OS(=O)(=O)O)C)C
Method: HCD
Collision_energy: [28.333334]
Isolation_window: 4.0
Ion_mode: N
Num Peaks: 20
79.9563	0.5
96.9463	0.6
96.9488	0.5
96.9592	73.7
96.9697	0.4
96.9724	0.6
97.9585	0.4
98.9550	1.7
130.0865	1.3
393.1766	1.4
393.2330	0.4
394.1788	0.9
394.3345	0.8
395.0831	0.6
395.1035	0.8
395.1901	100.0
395.2990	0.5
395.3308	0.5
396.1934	23.8
397.2057	82.3

Name: Pyromellitic Acid
PrecursorMZ: 252.99861
RT: 3.063
ExactMass: 254.00626715
Spectrum_type: 2
charge: -1
Formula: C10H6O8
SMILES: C1=C(C(=CC(=C1C(=O)O)C(=O)O)C(=O)O)C(=O)O
Method: HCD
Collision_energy: [28.333334]
Isolation_window: 4.0
Ion_mode: N
Num Peaks: 13
80.9642	15.9
121.0286	95.5
122.0319	7.3
137.0237	14.4
165.0186	93.7
165.0546	6.6
171.0291	6.6
209.0088	26.4
251.0568	6.8
252.9992	100.0
253.0365	19.0
254.0059	10.8
255.2331	10.9

Name: SB-423562
PrecursorMZ: 471.20571
RT: 1.1200333333333332
ExactMass: 436.23620751
Spectrum_type: 2
charge: -1
Formula: C26H32N2O4
SMILES: CC(C)(CC1CC2=CC=CC=C2C1)NC[C@H](COC3=C(C=CC(=C3)CCC(=O)O)C#N)O
Method: HCD
Collision_energy: [28.333334]
Isolation_window: 4.0
Ion_mode: N
Num Peaks: 8
52.3577	4.5
96.9592	7.6
317.2122	23.6
318.2151	4.4
319.2297	3.8
471.2069	100.0
472.2102	23.0
473.2164	8.7

Name: Sinapic acid 4-O-sulfate
PrecursorMZ: 303.01819
RT: 1.6592
ExactMass: 304.02528851
Spectrum_type: 2
charge: -1
Formula: C11H12O8S
SMILES: COC1=CC(=CC(=C1OS(=O)(=O)O)OC)/C=C/C(=O)O
Method: HCD
Collision_energy: [28.333334]
Isolation_window: 4.0
Ion_mode: N
Num Peaks: 11
61.9875	7.0
96.9593	6.7
161.0600	7.8
179.0708	20.2
205.0502	14.2
223.0609	100.0
224.0646	11.0
303.0182	71.7
303.0741	2.7
304.0207	8.6
305.0688	10.7

Name: Tenuazonic Acid
PrecursorMZ: 196.09739
RT: 9.7727
ExactMass: 197.10519334
Spectrum_type: 2
charge: -1
Formula: C10H15NO3
SMILES: CC[C@H](C)[C@H]1C(=C(C(=O)N1)C(=O)C)O
Method: HCD
Collision_energy: [28.333334]
Isolation_window: 4.0
Ion_mode: N
Num Peaks: 66
59.0130	10.2
66.0340	7.3
69.0337	7.8
75.0079	4.8
79.9565	8.2
80.9643	48.8
87.0079	4.6
93.0450	4.7
94.0289	15.5
96.0446	100.0
97.0479	5.0
98.0239	6.5
99.0442	16.2
107.0494	4.2
107.0606	22.1
108.0446	44.2
109.0286	20.5
109.0652	4.1
110.0239	17.4
110.0353	8.2
112.0508	26.2
114.0552	34.6
122.0603	14.1
123.0319	8.0
123.0444	5.6
124.0399	6.8
125.0348	4.6
127.0505	5.9
129.0184	4.6
135.0446	5.5
150.0553	5.1
151.0392	9.5
151.0507	37.9
151.0760	5.7
152.0346	33.2
152.0708	8.7
152.1074	32.1
153.0188	9.2
153.0551	5.9
153.0665	4.1
153.0916	4.7
154.0503	4.8
154.0863	6.6
164.0347	6.7
176.8947	4.5
178.0867	76.8
179.0012	5.9
179.0905	9.5
180.0776	10.9
194.0823	4.4
194.9056	20.2
194.9966	24.4
195.0264	8.2
195.0285	9.1
195.0502	5.5
195.0647	6.3
196.0250	7.5
196.0594	7.8
196.0972	34.5
197.0093	15.3
197.0447	5.0
197.0676	4.9
197.1176	5.1
198.0751	8.7
198.0882	5.2
198.0917	5.6

Name: Trachelosperogenin A1
PrecursorMZ: 679.37007
RT: 5.4595
ExactMass: 680.37717722
Spectrum_type: 2
charge: -1
Formula: C36H56O12
SMILES: C[C@@H]1CC[C@@]2(CC[C@@]3(C(=CCC4[C@]3(CCC5[C@@]4(C[C@H]([C@@H]([C@]5(C)C(=O)O)O)O)C)C)[C@@H]2[C@]1(C)O)C)C(=O)O[C@H]6[C@@H]([C@H]([C@@H]([C@H](O6)CO)O)O)O
Method: HCD
Collision_energy: [28.333334]
Isolation_window: 4.0
Ion_mode: N
Num Peaks: 7
75.4882	4.4
499.3065	8.8
517.3173	61.4
518.3208	18.9
679.3711	100.0
680.3738	35.2
681.3759	5.1

Name: Urospermal
PrecursorMZ: 277.10795
RT: 5.6823
ExactMass: 278.11542367
Spectrum_type: 2
charge: -1
Formula: C15H18O5
SMILES: C=C1[C@@H]2[C@H](C/C(=C\CC/C(=C/[C@H]2OC1=O)/CO)/C=O)O
Method: HCD
Collision_energy: [28.333334]
Isolation_window: 4.0
Ion_mode: N
Num Peaks: 19
114.0553	6.1
128.0345	6.3
130.0864	28.7
149.0602	22.9
157.0975	13.3
169.1339	39.9
185.0925	29.8
189.1277	22.6
204.0883	6.2
213.1240	60.3
215.1065	9.3
232.0838	6.3
233.1164	12.4
259.0967	14.9
262.0988	24.7
277.1092	92.6
277.1217	100.0
278.1124	15.8
279.1184	6.2

Name: Vanillic acid 4-sulfate
PrecursorMZ: 246.99169
RT: 2.7739
ExactMass: 247.99907376
Spectrum_type: 2
charge: -1
Formula: C8H8O7S
SMILES: COC1=C(C=CC(=C1)C(=O)O)OS(=O)(=O)O
Method: HCD
Collision_energy: [28.333334]
Isolation_window: 4.0
Ion_mode: N
Num Peaks: 21
61.9875	100.0
79.9564	4.1
96.9591	37.5
123.0443	4.7
127.0393	2.4
152.0107	7.6
167.0342	76.9
168.0382	5.1
192.0618	4.0
193.0699	3.0
203.0023	2.9
203.0337	2.3
245.8950	2.2
246.9916	24.1
247.0457	23.7
247.5479	5.6
247.9946	2.2
248.0543	16.7
248.0796	2.3
248.5555	4.3
248.9720	2.0

Name: Volemitol
PrecursorMZ: 211.08179
RT: 4.0188
ExactMass: 212.08960285
Spectrum_type: 2
charge: -1
Formula: C7H16O7
SMILES: C([C@H]([C@H](C([C@@H]([C@@H](CO)O)O)O)O)O)O
Method: HCD
Collision_energy: [28.333334]
Isolation_window: 4.0
Ion_mode: N
Num Peaks: 45
59.0128	8.6
61.9874	2.1
67.0292	1.1
71.0128	9.6
73.0285	4.4
85.0284	4.5
88.0395	1.6
89.0233	16.2
97.0283	1.2
97.0396	2.2
100.0393	1.0
101.0233	21.1
102.0267	1.1
112.0393	1.1
113.0234	4.2
114.0547	1.2
115.0389	2.7
119.0339	8.1
121.0398	7.9
123.0551	0.8
127.0503	0.9
131.0340	3.6
139.0502	3.4
143.0341	0.9
149.0447	3.2
150.0548	0.8
151.0504	1.1
167.0815	4.1
168.0647	2.5
171.0765	0.9
183.0883	1.4
193.0712	14.1
194.0436	1.8
209.0674	12.9
210.0152	1.4
210.0427	0.9
210.0718	2.5
210.1109	1.7
211.0817	100.0
211.1043	1.0
211.1143	0.8
212.0558	0.9
212.0850	8.7
213.0842	1.5
213.1239	1.2

Name: Zosteric acid
PrecursorMZ: 242.99685
RT: 2.2989
ExactMass: 244.00415914
Spectrum_type: 2
charge: -1
Formula: C9H8O6S
SMILES: C1=CC(=CC=C1/C=C/C(=O)O)OS(=O)(=O)O
Method: HCD
Collision_energy: [28.333334]
Isolation_window: 4.0
Ion_mode: N
Num Peaks: 39
61.2529	0.2
79.9525	0.1
79.9564	5.1
80.9643	0.1
91.0545	0.4
93.0337	0.2
96.9592	1.1
106.0417	0.2
107.0494	0.6
119.0494	11.4
121.0650	6.0
135.0444	0.1
137.0601	0.5
163.0396	1.4
164.9855	0.2
165.0177	0.1
165.0261	0.4
165.0321	0.2
165.0551	56.5
165.0781	0.4
165.0840	0.4
165.0922	0.1
165.1168	0.1
171.0115	0.2
181.0502	0.4
183.0659	0.1
206.0451	0.2
242.9974	0.2
244.8868	0.3
244.9308	0.1
244.9444	0.2
244.9606	0.8
244.9711	0.7
245.0125	100.0
245.0533	0.3
245.0656	0.7
245.0800	0.2
245.0949	0.1
245.1243	0.2

Name: methyl (1R,4aS,9S,10S)-10-acetyloxy-5,9-dihydroxy-1,4a-dimethyl-2-oxo-7-propan-2-yl-10,10a-dihydro-9H-phenanthrene-1-carboxylate
PrecursorMZ: 415.21562
RT: 1.1864
ExactMass: 416.18350323
Spectrum_type: 2
charge: -1
Formula: C23H28O7
SMILES: CC(C)C1=CC2=C(C(=C1)O)[C@]3(C=CC(=O)[C@](C3C([C@H]2O)OC(=O)C)(C)C(=O)OC)C
Method: HCD
Collision_energy: [28.333334]
Isolation_window: 4.0
Ion_mode: N
Num Peaks: 15
59.0129	1.4
69.5400	0.6
96.9591	26.6
98.9549	1.4
357.1719	1.0
375.1819	1.6
413.2004	17.0
414.2040	15.8
415.0189	1.0
415.2166	100.0
415.3311	0.8
416.2198	24.3
417.1949	2.0
417.2170	4.8
417.2308	1.1

Name: methyl (4aR)-5,6-dihydroxy-1,1-dimethyl-7-propan-2-yl-2,3,4,9,10,10a-hexahydrophenanthrene-4a-carboxylate
PrecursorMZ: 345.20714
RT: 0.8164
ExactMass: 346.21440943
Spectrum_type: 2
charge: -1
Formula: C21H30O4
SMILES: CC(C)C1=C(C(=C2C(=C1)CCC3[C@@]2(CCCC3(C)C)C(=O)OC)O)O
Method: HCD
Collision_energy: [28.333334]
Isolation_window: 4.0
Ion_mode: N
Num Peaks: 19
286.1940	100.0
287.1974	17.3
299.2378	13.4
300.2412	9.5
301.1813	18.8
301.2174	72.3
301.2540	96.5
302.2209	14.2
302.2573	19.8
303.2684	6.2
343.2268	6.8
344.1592	9.8
344.2314	8.9
345.1707	6.9
345.2070	70.6
345.2443	81.2
346.2099	13.7
346.2480	17.3
347.2546	4.9

Name: methyl N-)(3,4-dimethoxyphenyl)carbonyl(-beta-alanylleucinate
PrecursorMZ: 425.19263
RT: 2.1146
ExactMass: 380.19473662
Spectrum_type: 2
charge: -1
Formula: C19H28N2O6
SMILES: CC(C)CC(C(=O)OC)NC(=O)CCNC(=O)C1=CC(=C(C=C1)OC)OC
Method: HCD
Collision_energy: [28.333334]
Isolation_window: 4.0
Ion_mode: N
Num Peaks: 24
101.0233	6.2
115.0866	3.9
116.0707	35.4
127.0866	8.6
151.0250	11.1
164.0711	5.2
248.1291	7.6
263.1399	100.0
264.1433	17.0
305.1505	10.5
335.1610	78.3
336.1646	13.1
347.1611	5.4
365.1711	6.3
381.2995	6.3
405.2640	6.3
407.2794	8.6
423.2750	60.6
424.2782	28.0
425.1990	25.6
425.2911	69.5
426.1992	9.6
426.2934	14.9
427.3049	5.3

Name: n-Octyl sulfate
PrecursorMZ: 209.08494
RT: 0.5554333333333333
ExactMass: 209.08475519
Spectrum_type: 2
charge: -1
Formula: C8H17O4S-
SMILES: CCCCCCCCOS(=O)(=O)[O-]
Method: HCD
Collision_energy: [28.333334]
Isolation_window: 4.0
Ion_mode: N
Num Peaks: 11
61.9874	0.5
79.9569	0.6
96.9592	38.8
98.9550	1.0
209.0438	0.8
209.0524	0.8
209.0849	100.0
209.1270	0.6
209.9485	0.5
210.0883	9.0
211.0798	3.0

Name: ((3S,5R,8R,9R,10R,12R,13R,14R,17S)-12-hydroxy-17-((2R)-2-hydroxy-6-methoxy-6-methylheptan-2-yl)-4,4,8,10,14-pentamethyl-2,3,5,6,7,9,11,12,13,15,16,17-dodecahydro-1H-cyclopenta(a)phenanthren-3-yl) hexanoate
PrecursorMZ: 589.48324
RT: 0.9529
ExactMass: 590.4910252
Spectrum_type: 2
charge: -1
Formula: C37H66O5
SMILES: CCCCCC(=O)O[C@H]1CC[C@]2([C@H](C1(C)C)CC[C@@]3([C@@H]2C[C@H]([C@H]4[C@]3(CC[C@@H]4[C@@](C)(CCCC(C)(C)OC)O)C)O)C)C
Method: HCD
Collision_energy: [28.333334]
Isolation_window: 4.0
Ion_mode: N
Num Peaks: 38
65.5001	4.6
65.6071	2.9
69.1697	4.0
96.9591	25.7
125.0963	4.6
277.2174	9.8
279.2326	14.2
281.2484	11.2
295.2285	3.3
297.2433	22.6
298.2464	3.6
299.2586	4.0
307.2639	4.0
309.2792	16.2
391.3580	2.7
403.3586	5.9
413.3798	2.7
457.3673	3.8
459.3844	3.9
495.4585	4.6
513.4637	6.8
514.4684	2.9
515.4811	4.5
539.4472	6.9
555.4734	2.5
556.4721	4.2
557.4560	26.7
558.4588	7.6
559.4711	11.7
587.4689	5.3
587.4766	4.8
588.4699	19.4
589.4829	100.0
590.4393	64.5
590.4872	31.6
591.4407	8.1
591.4945	28.4
591.5186	15.8

Name: (2E,4E,7R,12S,13S)-12-hydroxy-13-(hydroxymethyl)-3,5,7-trimethyltetradeca-2,4-dienedioic acid
PrecursorMZ: 341.19683
RT: 4.6103
ExactMass: 342.20423867
Spectrum_type: 2
charge: -1
Formula: C18H30O6
SMILES: C[C@H](CCCC[C@@H]([C@H](CO)C(=O)O)O)C/C(=C/C(=C/C(=O)O)/C)/C
Method: HCD
Collision_energy: [28.333334]
Isolation_window: 4.0
Ion_mode: N
Num Peaks: 21
91.0391	18.3
96.9594	9.9
171.1019	24.0
221.1543	9.4
249.0667	16.6
261.1861	14.8
279.1961	17.4
305.1766	10.6
311.1862	12.2
323.1862	20.7
339.1998	16.4
339.3267	42.6
340.2034	29.6
340.3300	20.2
341.1429	19.3
341.1970	100.0
341.2346	17.1
342.1997	19.2
343.1221	10.9
343.2125	97.4
343.2546	11.5

Name: (2R)-1-(2-amino-3-carboxypropanoyl)pyrrolidine-2-carboxylic acid
PrecursorMZ: 229.08264
RT: 8.559
ExactMass: 230.09027155
Spectrum_type: 2
charge: -1
Formula: C9H14N2O5
SMILES: C1C[C@@H](N(C1)C(=O)C(CC(=O)O)N)C(=O)O
Method: HCD
Collision_energy: [28.333334]
Isolation_window: 4.0
Ion_mode: N
Num Peaks: 42
58.0402	2.0
72.0446	7.4
100.0396	1.9
112.0508	2.6
112.0872	1.7
113.0348	33.6
113.0714	2.2
114.0189	2.0
114.0387	2.4
114.0552	100.0
115.0585	5.3
116.0709	4.1
128.0711	2.7
130.0866	2.7
131.0819	45.2
132.0851	1.4
142.0504	1.9
143.1183	20.6
145.0976	27.2
156.0773	4.2
168.0661	2.0
168.1136	2.7
169.0978	1.4
173.1038	38.9
174.1078	2.0
185.1654	3.4
187.1083	95.0
188.1123	7.2
189.0875	2.3
210.0885	6.4
212.1038	7.5
227.2014	2.4
228.0988	1.8
228.1014	9.3
229.0818	2.2
229.1195	27.5
229.1316	64.0
229.1549	11.0
230.1222	3.4
230.1349	6.0
231.0982	5.4
231.1350	2.7

Name: (2R)-2,3-dihydroxy(1,2-13C2)propanoic acid
PrecursorMZ: 105.01837
RT: 7.5549
ExactMass: 108.03331834
Spectrum_type: 2
charge: -1
Formula: C3H6O4
SMILES: C([13C@H]([13C](=O)O)O)O
Method: HCD
Collision_energy: [28.333334]
Isolation_window: 4.0
Ion_mode: N
Num Peaks: 7
59.0130	19.1
72.9922	71.2
73.9957	1.9
75.0079	27.3
103.0027	1.3
105.0184	100.0
106.0219	3.5

Name: (2R)-2,5-diacetamidopentanoic acid
PrecursorMZ: 215.10327
RT: 4.4639
ExactMass: 216.111007
Spectrum_type: 2
charge: -1
Formula: C9H16N2O4
SMILES: CC(=O)NCCC[C@H](C(=O)O)NC(=O)C
Method: HCD
Collision_energy: [28.333334]
Isolation_window: 4.0
Ion_mode: N
Num Peaks: 20
59.0129	19.3
87.0079	20.8
88.0394	40.6
96.0320	64.0
114.0187	24.4
116.0708	33.3
130.0864	44.8
144.0447	20.8
156.0662	30.5
171.1136	36.8
171.1497	36.0
173.0926	30.5
187.1082	53.8
214.0177	38.2
215.0375	63.4
215.0564	92.6
215.1056	67.7
215.1398	100.0
215.1646	27.2
217.1199	37.4

Name: (2R)-2-((4-(2,2-dimethylpropyl)bicyclo(2.2.1)heptane-1-carbonyl)amino)-3-(2,2-dimethylpropylsulfanyl)propanoic acid
PrecursorMZ: 382.24239
RT: 0.9172
ExactMass: 383.24941522
Spectrum_type: 2
charge: -1
Formula: C21H37NO3S
SMILES: CC(C)(C)CC12CCC(C1)(CC2)C(=O)N[C@@H](CSCC(C)(C)C)C(=O)O
Method: HCD
Collision_energy: [28.333334]
Isolation_window: 4.0
Ion_mode: N
Num Peaks: 16
84.0446	31.7
253.1997	12.3
267.2156	8.0
304.2638	3.6
335.3321	34.0
336.3351	8.1
337.3477	27.5
338.2529	27.4
338.3492	4.6
339.2553	6.3
381.3378	100.0
382.2427	16.8
382.3405	25.3
383.2493	5.0
383.3536	66.4
384.3569	10.1

Name: (2S)-2-acetamido-3-(4-hydroxyphenyl)propanoate
PrecursorMZ: 222.07687
RT: 6.6857
ExactMass: 222.07663286
Spectrum_type: 2
charge: -1
Formula: C11H12NO4-
SMILES: CC(=O)N[C@@H](CC1=CC=C(C=C1)O)C(=O)[O-]
Method: HCD
Collision_energy: [28.333334]
Isolation_window: 4.0
Ion_mode: N
Num Peaks: 38
58.0290	100.0
59.0130	5.8
72.9921	2.5
119.0494	84.3
120.0525	7.7
123.0443	3.3
124.0395	9.5
133.0650	4.5
133.1011	2.5
135.0445	5.0
147.0443	2.5
149.0601	8.0
151.0504	4.0
161.0601	7.8
162.0552	15.9
163.0389	2.4
176.0460	5.5
176.0705	2.8
177.0539	13.6
177.0902	4.0
178.0500	3.0
178.0853	3.4
179.0697	8.8
179.1066	9.9
180.0660	64.2
180.1021	2.4
181.0694	6.0
205.0500	28.0
221.0442	13.9
221.0801	6.7
222.0768	77.3
223.0597	16.0
223.0790	7.2
223.0970	3.7
223.0999	3.9
223.1337	2.4
224.0571	4.1
224.0920	4.4

Name: (2S,3R,4R,5S,6R)-2-(3,5-dihydroxyphenoxy)-6-(hydroxymethyl)oxane-3,4,5-triol
PrecursorMZ: 269.06674
RT: 4.5647
ExactMass: 288.08451746
Spectrum_type: 2
charge: -1
Formula: C12H16O8
SMILES: C1=C(C=C(C=C1O)O[C@H]2[C@@H]([C@@H]([C@@H]([C@H](O2)CO)O)O)O)O
Method: HCD
Collision_energy: [28.333334]
Isolation_window: 4.0
Ion_mode: N
Num Peaks: 33
59.0130	3.0
71.0129	3.9
72.9922	3.6
85.0285	4.4
87.0079	3.4
88.0395	5.4
96.0080	3.3
97.0285	6.1
109.0286	3.5
115.0391	4.9
123.0080	27.5
123.0445	3.0
124.0160	18.1
125.0237	100.0
126.0268	7.2
139.0392	2.9
163.1119	4.5
179.0344	2.8
184.0009	5.1
188.1109	7.1
207.1387	5.3
268.0817	5.2
268.0851	4.2
268.1196	5.9
269.0670	20.5
269.1040	17.7
269.1417	5.9
269.2127	3.1
269.2487	5.7
269.6059	5.1
270.0996	7.8
271.0823	20.8
271.2285	3.5

Name: (2S,5R,6Z)-3,3-dimethyl-7-oxo-6-(2-oxopropylidene)-4-thia-1-azabicyclo(3.2.0)heptane-2-carboxylic acid
PrecursorMZ: 254.04918
RT: 6.0935
ExactMass: 255.05652907
Spectrum_type: 2
charge: -1
Formula: C11H13NO4S
SMILES: CC(=O)/C=C/1\[C@@H]2N(C1=O)[C@H](C(S2)(C)C)C(=O)O
Method: HCD
Collision_energy: [28.333334]
Isolation_window: 4.0
Ion_mode: N
Num Peaks: 121
59.0130	1.6
69.0337	2.3
69.1604	1.2
71.0129	1.1
72.9922	1.0
73.0286	1.9
74.0238	0.7
79.9563	0.8
80.9642	1.5
81.0336	0.9
83.0128	0.9
83.0492	0.7
84.0446	3.9
85.0287	0.9
87.0079	1.4
88.0395	1.3
95.0130	4.2
95.0492	0.8
96.0082	1.8
96.0445	1.2
96.9591	1.8
97.0286	4.0
97.0650	1.8
97.4639	0.6
98.0238	0.7
99.0443	1.2
108.0447	2.3
109.0399	1.9
109.0652	0.8
111.0444	1.7
111.0556	1.3
111.0807	2.5
112.0394	0.9
114.0375	4.6
114.0551	3.5
115.0397	0.6
116.0710	0.9
120.0447	1.6
122.0602	0.7
123.0444	0.7
123.0808	1.0
124.0397	1.7
125.0237	4.9
125.0964	1.0
126.0553	2.6
128.0345	3.6
134.0601	0.6
135.0444	0.8
136.0403	0.9
136.0759	1.0
137.0598	0.7
137.0963	0.7
138.0554	0.9
139.0506	0.6
140.0170	1.1
143.0341	0.7
149.0599	1.0
150.0551	0.9
151.0393	0.7
151.0756	0.7
152.0343	0.7
152.0710	0.9
153.0660	2.9
154.0503	1.1
155.0819	0.8
162.0554	1.3
164.0709	1.9
165.0665	0.8
166.0615	0.7
167.0461	1.2
167.0819	0.7
169.0615	3.8
176.0712	9.0
177.0745	0.6
178.0631	0.6
180.0660	3.5
181.0982	2.0
182.0276	100.0
182.0812	0.6
183.0309	8.2
184.0225	2.2
191.1434	0.7
192.0660	5.2
193.0690	0.6
193.1226	0.6
193.1593	8.8
194.0816	0.9
196.0609	1.4
209.0933	0.8
209.1538	2.5
210.0591	17.6
210.0769	2.1
211.0615	2.0
211.1104	1.4
211.1700	4.6
212.0555	0.6
234.0889	1.6
236.0561	1.1
236.0934	0.8
237.1494	17.2
238.1530	1.1
240.0897	0.7
252.0840	1.3
252.0887	2.0
253.0396	1.6
253.0831	8.0
253.1194	2.0
253.1453	2.7
253.2175	0.8
254.0665	5.9
254.1036	1.9
254.1453	0.9
254.6053	0.8
255.0618	0.6
255.0899	2.9
255.0957	1.7
255.1603	42.4
255.2329	69.9
256.0831	0.8
256.1628	2.7
256.2363	2.1

Name: (3R)-4,4-dideuterio-2-(3,4-dihydroxyphenyl)-2,3-dihydrochromene-3,5,7-triol
PrecursorMZ: 289.07172
RT: 6.1572
ExactMass: 292.09159165
Spectrum_type: 2
charge: -1
Formula: C15H14O6
SMILES: [2H]C1([C@H](C(OC2=CC(=CC(=C21)O)O)C3=CC(=C(C=C3)O)O)O)[2H]
Method: HCD
Collision_energy: [28.333334]
Isolation_window: 4.0
Ion_mode: N
Num Peaks: 14
59.0129	16.0
74.0239	16.9
123.0444	22.1
125.0236	42.9
137.0235	100.0
151.0394	29.9
166.0265	18.9
167.0343	25.0
258.1457	19.7
271.0616	14.6
288.1564	22.4
289.0689	78.7
289.0946	14.7
289.1643	42.0

Name: (E)-N~6~-((2E)-1-carboxy-3-(2-carboxyphenyl)prop-2-en-1-ylidene)-L-lysine
PrecursorMZ: 347.12491
RT: 6.3209
ExactMass: 348.13213636
Spectrum_type: 2
charge: -1
Formula: C17H20N2O6
SMILES: C1=CC=C(C(=C1)/C=C/C(=NCCCC[C@@H](C(=O)O)N)C(=O)O)C(=O)O
Method: HCD
Collision_energy: [28.333334]
Isolation_window: 4.0
Ion_mode: N
Num Peaks: 8
110.0605	33.1
122.0604	85.5
144.0447	38.8
162.0554	73.4
267.1147	48.0
285.1242	100.0
303.1346	27.1
347.1277	27.5

Name: (E,6R)-2-methyl-6-((3R,5R,6S,7S,8R,9S,10R,12S,13R,14S,17R)-3,6,7,12-tetrahydroxy-10,13-dimethyl-2,3,4,5,6,7,8,9,11,12,14,15,16,17-tetradecahydro-1H-cyclopenta(a)phenanthren-17-yl)hept-2-enoic acid
PrecursorMZ: 463.30692
RT: 4.7415
ExactMass: 464.31378912
Spectrum_type: 2
charge: -1
Formula: C27H44O6
SMILES: C[C@H](CC/C=C(\C)/C(=O)O)[C@H]1CC[C@@H]2[C@@]1([C@H](C[C@H]3[C@H]2[C@@H]([C@H]([C@H]4[C@@]3(CC[C@H](C4)O)C)O)O)O)C
Method: HCD
Collision_energy: [28.333334]
Isolation_window: 4.0
Ion_mode: N
Num Peaks: 169
51.3676	1.7
51.3705	3.2
51.4772	2.1
51.4799	4.7
51.5913	1.3
51.7012	2.2
51.7039	3.7
57.0337	2.3
59.0130	5.5
61.9875	2.0
69.0338	1.8
71.0130	4.9
71.0494	1.9
72.9923	6.3
73.0286	20.4
74.0239	20.3
75.0079	6.3
78.9582	9.4
78.9851	1.2
83.0494	2.4
85.0287	2.6
85.0650	1.0
86.0239	1.0
87.0079	3.3
87.0443	4.9
88.0395	33.8
89.0235	3.5
91.0544	1.0
93.0337	1.1
95.0494	1.3
96.0083	1.3
96.9687	7.0
97.0286	1.1
97.0650	1.0
98.0240	1.2
99.0079	1.0
99.0444	1.6
101.0236	1.8
107.0497	0.9
108.0450	0.9
109.0289	1.3
109.0652	0.9
110.0240	1.1
111.0080	1.5
111.0445	1.7
112.0395	1.2
113.0237	3.0
113.0350	2.7
113.0603	1.0
114.0190	0.9
114.0552	7.8
115.0393	1.8
116.0345	10.1
116.0709	2.7
123.0446	1.5
124.0396	1.2
125.0240	1.3
126.0556	1.2
127.0508	3.2
128.0345	3.9
130.0866	6.0
135.0445	4.3
136.0397	1.6
137.0238	1.1
137.0601	1.0
138.0551	1.5
139.0065	1.0
139.0397	1.0
146.0607	1.0
147.0449	1.2
149.0604	1.0
150.0551	1.3
151.0260	0.9
151.0396	1.1
152.0709	1.2
155.0825	1.0
156.0664	1.1
164.0712	3.0
165.0416	3.4
165.0552	1.1
173.0455	2.9
180.0665	1.2
191.0560	1.0
191.0838	1.9
192.0664	1.3
195.0655	3.3
195.1136	5.2
203.0842	1.5
204.0862	1.0
244.0969	1.6
255.1597	1.6
257.0939	1.0
269.1290	2.4
287.1399	1.4
288.0886	1.9
290.1391	1.0
313.1214	1.2
329.1029	3.6
347.2235	3.7
348.2282	1.0
357.1470	1.1
373.2764	1.7
376.2018	1.4
383.2961	10.3
384.2996	2.8
389.2690	1.6
389.2740	0.9
391.2894	1.5
393.2677	0.9
399.2893	2.2
401.3071	33.6
402.3101	8.5
403.2828	1.6
415.2879	1.2
417.2913	1.4
417.2956	1.5
417.3052	3.5
417.3395	1.1
417.3481	1.1
418.2948	1.2
418.3040	2.0
418.3104	1.1
418.3453	1.3
419.1918	1.1
419.2768	2.1
419.3173	50.5
419.3252	7.5
420.1996	1.0
420.3203	13.5
420.3277	1.9
421.2945	4.2
421.3251	1.8
432.3123	1.5
433.2967	16.2
434.2997	4.1
435.3131	3.0
444.1805	1.0
445.2932	1.5
445.3003	6.1
446.3024	2.5
447.2752	1.0
447.3193	0.9
461.2850	3.3
461.2958	6.5
461.3362	6.3
461.3420	2.5
462.1405	1.8
462.1903	6.1
462.1952	2.3
462.2868	13.8
462.3270	70.1
462.3340	13.6
463.1295	1.6
463.1693	2.1
463.1757	3.1
463.2124	1.1
463.3073	100.0
464.1609	2.7
464.1827	2.4
464.1896	1.4
464.2263	2.3
464.2460	3.2
464.3085	34.1
465.1333	1.5
465.1461	3.5
465.1838	1.5
465.1968	1.9
465.2526	1.2
465.3249	85.0

Name: 1-((1R)-1-((2S)-1-chloro-3-hydroxypropan-2-yl)oxy-2-hydroxyethyl)pyrimidine-2,4-dione
PrecursorMZ: 263.04401
RT: 5.078
ExactMass: 264.0512992
Spectrum_type: 2
charge: -1
Formula: C9H13ClN2O5
SMILES: C1=CN(C(=O)NC1=O)[C@@H](CO)O[C@@H](CO)CCl
Method: HCD
Collision_energy: [28.333334]
Isolation_window: 4.0
Ion_mode: N
Num Peaks: 7
111.0191	8.7
136.0760	100.0
137.0601	7.2
137.0796	12.4
261.1609	6.3
264.1594	5.7
265.1470	8.1

Name: 1-(2,5-Diamino-5-oxopentanoyl)pyrrolidine-2-carboxylic acid
PrecursorMZ: 242.11416
RT: 6.8950499999999995
ExactMass: 243.12190603
Spectrum_type: 2
charge: -1
Formula: C10H17N3O4
SMILES: C1CC(N(C1)C(=O)C(CCC(=O)N)N)C(=O)O
Method: HCD
Collision_energy: [28.333334]
Isolation_window: 4.0
Ion_mode: N
Num Peaks: 8
114.0551	14.6
127.0504	100.0
128.0344	4.4
128.0537	4.3
240.8705	5.2
241.2169	31.6
242.1147	17.9
242.2207	6.5

Name: 1-(2-((1-Acetylpyrrolidine-2-carbonyl)amino)acetyl)pyrrolidine-2-carboxylic acid
PrecursorMZ: 310.14082
RT: 4.6157
ExactMass: 311.14812078
Spectrum_type: 2
charge: -1
Formula: C14H21N3O5
SMILES: CC(=O)N1CCCC1C(=O)NCC(=O)N2CCCC2C(=O)O
Method: HCD
Collision_energy: [28.333334]
Isolation_window: 4.0
Ion_mode: N
Num Peaks: 37
72.9922	14.8
74.0239	9.0
82.0290	12.0
83.0493	30.5
86.0239	28.2
87.0077	13.2
88.0394	8.4
96.0447	9.5
98.0236	8.3
100.0394	10.0
112.0394	9.9
113.0348	25.2
114.0552	53.8
116.0710	7.9
124.0397	11.5
127.0504	26.3
130.0865	14.9
135.0441	9.2
137.0598	8.9
164.0352	9.3
181.0983	8.2
204.0665	11.6
223.1344	8.4
238.1209	8.6
250.1207	10.6
266.1513	45.6
269.1179	9.1
309.0715	30.4
309.1020	26.8
309.1451	26.4
310.0968	13.7
310.1406	88.3
311.0783	18.2
311.1137	58.7
311.1708	100.0
312.1156	11.1
312.1567	37.5

Name: 2-(((2R)-5-oxopyrrolidine-2-carbonyl)amino)propanoic acid
PrecursorMZ: 199.07193
RT: 5.67445
ExactMass: 200.07970687
Spectrum_type: 2
charge: -1
Formula: C8H12N2O4
SMILES: CC(C(=O)O)NC(=O)[C@H]1CCC(=O)N1
Method: HCD
Collision_energy: [28.333334]
Isolation_window: 4.0
Ion_mode: N
Num Peaks: 36
59.0129	2.1
60.9921	4.0
82.0289	15.4
84.0446	5.6
88.0395	15.5
96.0444	1.9
98.0238	3.2
99.0555	17.7
108.0446	1.9
109.0479	2.9
112.0395	3.9
112.0760	2.3
113.0348	16.1
114.0552	2.9
116.0708	22.6
125.0588	4.9
126.0427	2.5
126.0550	2.7
127.0505	13.8
127.0870	3.3
128.0344	2.7
128.1072	4.5
136.0762	2.0
154.0866	2.8
154.0978	25.3
155.0819	88.4
155.1024	2.3
156.0853	6.0
198.0741	3.5
199.0721	100.0
199.0944	1.9
199.1321	2.8
199.1697	9.1
200.0751	7.7
200.0926	14.2
201.1118	8.7

Name: 2-((2-Amino-3-hydroxybutanoyl)amino)acetic acid
PrecursorMZ: 175.07185
RT: 6.8833
ExactMass: 176.07970687
Spectrum_type: 2
charge: -1
Formula: C6H12N2O4
SMILES: CC(C(C(=O)NCC(=O)O)N)O
Method: HCD
Collision_energy: [28.333334]
Isolation_window: 4.0
Ion_mode: N
Num Peaks: 4
74.0238	44.1
87.0555	23.0
131.0454	100.0
177.0190	7.7

Name: 2-((4-(((2-Amino-3-methylbutanoyl)amino)methyl)cyclohexanecarbonyl)amino)-3-methylbutanoic acid
PrecursorMZ: 354.23981
RT: 2.6794
ExactMass: 355.24710654
Spectrum_type: 2
charge: -1
Formula: C18H33N3O4
SMILES: CC(C)C(C(=O)NCC1CCC(CC1)C(=O)NC(C(C)C)C(=O)O)N
Method: HCD
Collision_energy: [28.333334]
Isolation_window: 4.0
Ion_mode: N
Num Peaks: 8
97.4663	12.0
116.0708	58.9
130.0865	27.4
237.1603	17.0
310.2508	20.3
354.2402	100.0
355.2440	23.2
356.2558	25.2

Name: 2-(1,3-dimethyl-2,6-dioxopurin-7-yl)-N-(1H-indol-3-ylmethyl)acetamide
PrecursorMZ: 365.13687
RT: 5.027
ExactMass: 366.14403846
Spectrum_type: 2
charge: -1
Formula: C18H18N6O3
SMILES: CN1C2=C(C(=O)N(C1=O)C)N(C=N2)CC(=O)NCC3=CNC4=CC=CC=C43
Method: HCD
Collision_energy: [28.333334]
Isolation_window: 4.0
Ion_mode: N
Num Peaks: 25
61.9875	5.9
93.0448	3.0
95.0242	15.2
98.0350	2.7
99.0191	11.0
108.0558	7.5
112.0506	2.5
113.0346	2.9
114.0550	2.8
135.0668	15.2
155.0327	2.5
156.0407	10.5
175.0620	50.4
176.0656	4.7
179.0568	9.7
192.0886	64.5
193.0725	13.8
193.0913	5.1
204.0880	2.7
236.0787	12.4
285.0983	4.7
321.1482	9.7
364.1489	3.3
365.1369	100.0
366.1396	19.5

Name: 2-(1-(4-Amino-4-oxobutyl)-4-hexyl-2,5-dioxopyrrol-3-yl)acetic acid
PrecursorMZ: 323.16067
RT: 4.9475
ExactMass: 324.16852187
Spectrum_type: 2
charge: -1
Formula: C16H24N2O5
SMILES: CCCCCCC1=C(C(=O)N(C1=O)CCCC(=O)N)CC(=O)O
Method: HCD
Collision_energy: [28.333334]
Isolation_window: 4.0
Ion_mode: N
Num Peaks: 70
59.0129	2.8
78.9580	14.0
80.9642	2.8
95.9514	1.8
96.0808	2.2
96.9591	6.1
110.0965	10.4
114.0548	2.8
124.0758	100.0
124.9818	2.3
125.0793	8.7
130.0862	2.3
135.0807	2.7
136.0758	4.9
137.0599	2.1
150.0918	2.0
151.0954	2.5
152.9950	15.5
154.0864	4.1
162.0004	3.1
165.1025	54.0
166.1064	4.7
167.0815	2.1
171.0062	2.5
183.0110	3.3
192.0657	2.6
196.0521	8.4
235.0598	2.2
235.1812	23.5
236.1843	3.4
237.0917	9.1
237.1230	2.5
261.1609	4.1
263.9755	3.6
265.2534	3.0
279.1711	25.1
279.1973	2.0
280.1750	3.5
286.1766	3.3
293.1770	3.4
306.9970	3.2
321.1709	17.9
321.2023	19.5
321.2065	28.3
322.0918	3.5
322.0938	2.9
322.1156	10.7
322.1345	4.4
322.1742	14.6
322.2092	21.2
322.6173	4.0
323.0761	4.3
323.0807	2.4
323.1185	10.3
323.1227	14.5
323.1606	37.8
323.2164	2.3
323.2226	2.6
323.6216	2.6
323.6252	4.9
323.6505	2.4
324.1120	5.6
324.1535	7.0
324.1597	13.2
324.1627	7.1
325.0069	29.6
325.0110	3.8
325.0699	8.1
325.0950	3.6
325.1832	94.9

Name: 5-Amino-2-))5-hydroxy-5-(hydroxymethyl)-2-methoxy-3-oxocyclohexen-1-yl(amino(-5-oxopentanoic acid
PrecursorMZ: 253.11932
RT: 2.3116
ExactMass: 316.12705098
Spectrum_type: 2
charge: -1
Formula: C13H20N2O7
SMILES: COC1=C(CC(CC1=O)(CO)O)NC(CCC(=O)N)C(=O)O
Method: HCD
Collision_energy: [28.333334]
Isolation_window: 4.0
Ion_mode: N
Num Peaks: 22
59.0130	52.2
61.9875	20.2
71.0130	1.6
89.0236	1.5
94.0289	21.9
101.0235	1.6
118.0403	3.1
124.0396	52.9
125.0432	2.5
128.0709	4.8
192.0873	1.9
193.0714	12.8
223.1084	8.5
237.0991	1.4
252.0994	14.9
253.0742	2.3
253.0983	2.1
253.1195	100.0
254.1232	12.2
255.0269	1.7
255.1112	1.6
255.2334	1.5

Name: 5-hydroxy-1-(4-hydroxy-3-methoxyphenyl)(413C)decan-3-one
PrecursorMZ: 293.1753
RT: 3.91
ExactMass: 295.18646414
Spectrum_type: 2
charge: -1
Formula: C17H26O4
SMILES: CCCCCC([13CH2]C(=O)CCC1=CC(=C(C=C1)O)OC)O
Method: HCD
Collision_energy: [28.333334]
Isolation_window: 4.0
Ion_mode: N
Num Peaks: 8
220.1464	34.5
221.1539	95.0
222.1567	15.2
236.1049	100.0
237.1079	16.6
291.1998	21.9
293.1779	58.9
295.2274	15.9

Name: N-carbamoyl-L-valinate
PrecursorMZ: 159.07666
RT: 6.5751
ExactMass: 159.07696722
Spectrum_type: 2
charge: -1
Formula: C6H11N2O3-
SMILES: CC(C)[C@@H](C(=O)[O-])NC(=O)N
Method: HCD
Collision_energy: [28.333334]
Isolation_window: 4.0
Ion_mode: N
Num Peaks: 10
60.9922	5.3
72.9689	3.0
115.0754	4.7
116.0707	100.0
117.0741	5.6
157.1225	4.8
159.0652	4.8
159.8935	3.2
160.0397	7.5
161.0450	5.0

Name: N2-(3-Carboxy-1-oxopropyl)-L-lysine
PrecursorMZ: 245.11403
RT: 9.0952
ExactMass: 246.12157168
Spectrum_type: 2
charge: -1
Formula: C10H18N2O5
SMILES: C(CCN)C[C@@H](C(=O)O)NC(=O)CCC(=O)O
Method: HCD
Collision_energy: [28.333334]
Isolation_window: 4.0
Ion_mode: N
Num Peaks: 11
98.0238	16.2
128.0343	6.5
130.0864	8.0
131.0818	7.3
145.0975	100.0
146.1012	5.0
183.1133	50.5
184.0724	5.3
227.1035	46.5
243.1714	9.4
245.1126	9.6

PrecursorMZ: 114.01881
RT: 5.2898
Spectrum_type: 2
charge: -1
SMILES: N=C(O)/C=C\C(=O)O
Method: HCD
Collision_energy: [28.333334]
Isolation_window: 4.0
Ion_mode: N
Num Peaks: 6
70.0290	100.0
71.0493	6.5
114.0189	11.5
114.9332	29.6
115.0756	15.1
115.9201	8.1

