Name: (+)-Betulonic acid
PrecursorMZ: 499.34092
RT: 9.8269
ExactMass: 454.34469533
Spectrum_type: 2
charge: -1
Formula: C30H46O3
SMILES: CC(=C)[C@@H]1CC[C@]2([C@H]1[C@H]3CC[C@@H]4[C@]5(CCC(=O)C([C@@H]5CC[C@]4([C@@]3(CC2)C)C)(C)C)C)C(=O)O
Method: HCD
Collision_energy: [28.333334]
Isolation_window: 4.0
Ion_mode: N
Num Peaks: 5
50.3720	4.3
97.4634	3.7
453.3360	100.0
454.3392	29.7
455.3449	3.9

Name: (+)-Eriodictyol
PrecursorMZ: 287.0564
RT: 5.15852
ExactMass: 288.0633881
Spectrum_type: 2
charge: -1
Formula: C15H12O6
SMILES: C1[C@H](OC2=CC(=CC(=C2C1=O)O)O)C3=CC(=C(C=C3)O)O
Method: HCD
Collision_energy: [28.333334]
Isolation_window: 4.0
Ion_mode: N
Num Peaks: 3
135.0444	56.1
151.0030	100.0
287.0567	27.8

Name: (+)-Genipin
PrecursorMZ: 225.07653
RT: 3.78668
ExactMass: 226.08412354
Spectrum_type: 2
charge: -1
Formula: C11H14O5
SMILES: COC(=O)C1=CO[C@H]([C@H]2[C@@H]1CC=C2CO)O
Method: HCD
Collision_energy: [28.333334]
Isolation_window: 4.0
Ion_mode: N
Num Peaks: 20
136.0521	11.0
137.0240	10.0
139.0029	16.1
149.0244	7.5
149.0601	67.8
151.0394	49.9
154.0266	15.8
164.0472	66.9
165.0186	20.5
165.0551	68.9
166.0625	13.8
179.0707	11.3
180.0425	9.5
181.0500	23.2
181.0862	11.5
208.0372	26.3
209.0411	10.8
223.0604	14.9
225.0770	100.0
226.0809	11.1

Name: (+)-Gibberellic Acid
PrecursorMZ: 345.13462
RT: 3.759
ExactMass: 346.14163842
Spectrum_type: 2
charge: -1
Formula: C19H22O6
SMILES: C[C@@]12[C@H](C=C[C@@]3([C@@H]1[C@@H]([C@]45[C@H]3CC[C@](C4)(C(=C)C5)O)C(=O)O)OC2=O)O
Method: HCD
Collision_energy: [28.333334]
Isolation_window: 4.0
Ion_mode: N
Num Peaks: 20
96.9592	3.0
109.0288	2.3
121.0288	2.5
123.0443	3.8
124.0158	15.3
125.0237	7.9
135.0444	6.0
150.0321	2.0
151.0394	2.9
153.0553	2.5
165.0550	3.6
191.0709	2.8
221.0815	3.2
303.1260	2.0
345.0996	13.7
345.1354	100.0
346.1024	2.8
346.1382	18.9
347.1125	22.2
347.1479	3.1

Name: (+)-Pinocembrin
PrecursorMZ: 255.06634
RT: 6.92456923076923
ExactMass: 256.07355886
Spectrum_type: 2
charge: -1
Formula: C15H12O4
SMILES: C1[C@H](OC2=CC(=CC(=C2C1=O)O)O)C3=CC=CC=C3
Method: HCD
Collision_energy: [28.333334]
Isolation_window: 4.0
Ion_mode: N
Num Peaks: 18
65.0022	0.9
83.0128	1.4
107.0129	1.5
145.0650	1.5
151.0029	4.5
169.0656	0.9
171.0443	0.9
187.0759	1.4
210.9493	1.9
211.0763	2.1
213.0553	5.2
219.8449	1.1
228.9599	1.3
255.0662	100.0
255.1095	1.1
256.0695	15.8
257.0718	1.2
257.1296	4.9

Name: (+)-Ursolic Acid
PrecursorMZ: 455.35317
RT: 9.4429
ExactMass: 456.36034539
Spectrum_type: 2
charge: -1
Formula: C30H48O3
SMILES: C[C@@H]1CC[C@@]2(CC[C@@]3(C(=CC[C@H]4[C@]3(CC[C@@H]5[C@@]4(CC[C@@H](C5(C)C)O)C)C)[C@@H]2[C@H]1C)C)C(=O)O
Method: HCD
Collision_energy: [28.333334]
Isolation_window: 4.0
Ion_mode: N
Num Peaks: 10
50.5934	1.9
50.5960	4.8
50.7075	1.5
61.9875	2.1
135.0304	1.8
453.3388	1.0
454.3439	1.3
455.3533	100.0
456.3567	31.9
457.3631	3.9

Name: (+-)-3-(4-Hydroxyphenyl)lactic acid
PrecursorMZ: 181.04995
RT: 2.4442
ExactMass: 182.0579088
Spectrum_type: 2
charge: -1
Formula: C9H10O4
SMILES: C1=CC(=CC=C1CC(C(=O)O)O)O
Method: HCD
Collision_energy: [28.333334]
Isolation_window: 4.0
Ion_mode: N
Num Peaks: 8
57.0336	1.0
95.0492	15.7
96.0525	1.1
119.0494	1.6
122.0364	0.8
137.0599	100.0
138.0633	8.8
181.0500	2.0

Name: (+-)-3-Hydroxydodecanoic acid
PrecursorMZ: 215.16491
RT: 7.0464
ExactMass: 216.17254462
Spectrum_type: 2
charge: -1
Formula: C12H24O3
SMILES: CCCCCCCCCC(CC(=O)O)O
Method: HCD
Collision_energy: [28.333334]
Isolation_window: 4.0
Ion_mode: N
Num Peaks: 3
59.0129	100.0
215.0096	14.5
215.1647	33.3

Name: (+-)-3-Methyladipic acid
PrecursorMZ: 159.06559
RT: 3.0111
ExactMass: 160.07355886
Spectrum_type: 2
charge: -1
Formula: C7H12O4
SMILES: CC(CCC(=O)O)CC(=O)O
Method: HCD
Collision_energy: [28.333334]
Isolation_window: 4.0
Ion_mode: N
Num Peaks: 24
57.0338	2.1
65.0137	2.3
71.0130	1.5
73.0287	2.3
85.0286	1.7
86.0240	1.9
87.0079	1.9
91.0293	1.8
95.0495	2.1
97.0650	32.5
98.0683	2.1
113.0600	5.4
115.0756	100.0
116.0790	6.3
132.0560	1.7
133.0401	2.4
133.0513	1.9
134.0354	2.1
141.0551	9.6
157.0505	3.8
159.0658	61.1
160.0693	4.7
160.8417	2.4
161.0815	6.0

Name: (+-)-3-Phenyllactic acid
PrecursorMZ: 165.05515
RT: 3.4931
ExactMass: 166.062994177
Spectrum_type: 2
charge: -1
Formula: C9H10O3
SMILES: C1=CC=C(C=C1)CC(C(=O)O)O
Method: HCD
Collision_energy: [28.333334]
Isolation_window: 4.0
Ion_mode: N
Num Peaks: 28
59.0130	78.5
65.9977	3.3
66.0341	7.8
82.0402	3.6
93.0337	27.8
94.0290	6.3
95.0242	3.5
119.0495	56.1
120.0526	10.7
120.0554	4.0
121.0288	69.3
121.0521	4.5
121.0652	32.6
122.0325	5.7
122.0605	4.0
123.0445	15.0
135.0447	2.8
136.0509	3.3
137.0351	4.3
163.0396	8.5
163.1123	5.5
164.0171	8.0
164.0455	4.1
165.0189	7.2
165.0552	100.0
165.1270	2.6
166.0595	9.2
167.0344	7.5

Name: (+-)-Dihydrodaidzein
PrecursorMZ: 255.06528
RT: 4.911376923076923
ExactMass: 256.07355886
Spectrum_type: 2
charge: -1
Formula: C15H12O4
SMILES: C1C(C(=O)C2=C(O1)C=C(C=C2)O)C3=CC=C(C=C3)O
Method: HCD
Collision_energy: [28.333334]
Isolation_window: 4.0
Ion_mode: N
Num Peaks: 3
149.0230	93.6
255.0653	100.0
256.0685	16.7

Name: (-)-Arctigenin
PrecursorMZ: 371.15015
RT: 6.2877
ExactMass: 372.15728848
Spectrum_type: 2
charge: -1
Formula: C21H24O6
SMILES: COC1=C(C=C(C=C1)C[C@H]2COC(=O)[C@@H]2CC3=CC(=C(C=C3)O)OC)OC
Method: HCD
Collision_energy: [28.333334]
Isolation_window: 4.0
Ion_mode: N
Num Peaks: 11
59.0129	44.2
253.1233	30.0
265.1230	5.7
283.1338	97.6
284.1376	15.4
301.1443	71.0
302.1479	13.8
343.1552	62.2
344.1574	12.8
371.1500	100.0
372.1536	22.6

Name: (-)-Mandelic acid
PrecursorMZ: 151.03932
RT: 2.822085714285714
ExactMass: 152.047344113
Spectrum_type: 2
charge: -1
Formula: C8H8O3
SMILES: C1=CC=C(C=C1)[C@H](C(=O)O)O
Method: HCD
Collision_energy: [28.333334]
Isolation_window: 4.0
Ion_mode: N
Num Peaks: 29
65.0136	2.5
65.0387	5.7
65.9976	2.8
66.0340	4.2
67.0293	3.2
68.0132	2.0
81.0449	3.0
82.0289	1.8
91.0292	2.0
95.0241	1.9
105.0336	3.3
106.0406	2.4
106.9921	2.3
107.0493	14.7
108.0207	2.3
109.0286	12.1
109.0397	4.2
110.0238	8.4
111.0194	1.9
122.0357	3.1
123.0191	3.3
125.0348	3.2
134.0352	2.2
149.0236	6.5
150.0296	2.6
151.0393	100.0
151.0483	3.2
152.0432	8.6
152.0703	1.7

Name: (-)-Matairesinol
PrecursorMZ: 357.13287
RT: 5.9579
ExactMass: 358.14163842
Spectrum_type: 2
charge: -1
Formula: C20H22O6
SMILES: COC1=C(C=CC(=C1)C[C@H]2COC(=O)[C@@H]2CC3=CC(=C(C=C3)O)OC)O
Method: HCD
Collision_energy: [28.333334]
Isolation_window: 4.0
Ion_mode: N
Num Peaks: 21
122.0359	6.7
123.0439	6.4
135.0437	5.6
136.0516	3.8
137.0594	18.2
147.0437	6.3
149.0593	1.9
151.0751	5.0
161.0594	2.1
163.0752	1.8
175.0749	3.5
195.0650	3.9
209.0807	2.1
219.0650	14.4
220.0687	1.5
283.0971	1.6
313.1432	13.4
314.1462	2.5
357.1331	100.0
358.1366	20.6
359.1400	2.4

Name: (-)-Secoisolariciresinol
PrecursorMZ: 407.17168
RT: 4.3589
ExactMass: 362.17293854
Spectrum_type: 2
charge: -1
Formula: C20H26O6
SMILES: COC1=C(C=CC(=C1)C[C@@H](CO)[C@@H](CC2=CC(=C(C=C2)O)OC)CO)O
Method: HCD
Collision_energy: [28.333334]
Isolation_window: 4.0
Ion_mode: N
Num Peaks: 6
61.9875	8.1
165.0551	11.0
179.0707	3.6
346.1427	8.8
361.1661	100.0
362.1691	21.2

Name: (10)-Gingerol
PrecursorMZ: 349.23862
RT: 8.6706
ExactMass: 350.24570956
Spectrum_type: 2
charge: -1
Formula: C21H34O4
SMILES: CCCCCCCCC[C@@H](CC(=O)CCC1=CC(=C(C=C1)O)OC)O
Method: HCD
Collision_energy: [28.333334]
Isolation_window: 4.0
Ion_mode: N
Num Peaks: 7
68.9972	29.7
71.0494	11.7
305.2484	12.9
347.2222	8.5
348.2279	13.4
349.2383	100.0
350.2423	24.1

Name: (1S,4R)-1-methyl-4-(prop-1-en-2-yl)cyclohex-2-en-1-ol
PrecursorMZ: 283.06107
RT: 6.9497
ExactMass: 152.12011513
Spectrum_type: 2
charge: -1
Formula: C10H16O
SMILES: CC(=C)[C@@H]1CC[C@](C=C1)(C)O
Method: HCD
Collision_energy: [28.333334]
Isolation_window: 4.0
Ion_mode: N
Num Peaks: 3
268.0377	63.8
283.0611	100.0
284.0646	17.4

Name: (2-Hydroxyphenyl)acetic acid
PrecursorMZ: 151.03941
RT: 3.5512
ExactMass: 152.047344113
Spectrum_type: 2
charge: -1
Formula: C8H8O3
SMILES: C1=CC=C(C(=C1)CC(=O)O)O
Method: HCD
Collision_energy: [28.333334]
Isolation_window: 4.0
Ion_mode: N
Num Peaks: 25
65.0136	9.0
65.9976	10.2
66.0340	14.8
67.0292	11.9
68.0133	8.1
81.0448	16.1
82.0401	7.5
95.0241	7.3
106.0403	9.4
106.9921	23.5
107.0243	5.8
108.0558	7.0
108.9879	7.2
109.0398	17.6
110.0238	27.1
122.0350	8.1
123.0192	10.8
125.0347	9.5
134.0351	5.9
136.0158	100.0
137.0190	8.9
150.0296	8.0
150.0665	7.2
151.0396	24.1
152.0451	7.3

Name: (2S,3R)-2,3,4-Trihydroxybutanoic acid
PrecursorMZ: 135.02956
RT: 0.9574833333333334
ExactMass: 136.03717335
Spectrum_type: 2
charge: -1
Formula: C4H8O5
SMILES: C([C@H]([C@@H](C(=O)O)O)O)O
Method: HCD
Collision_energy: [28.333334]
Isolation_window: 4.0
Ion_mode: N
Num Peaks: 15
59.0129	4.9
71.0129	9.3
72.9921	13.8
75.0078	100.0
87.0078	10.8
89.0235	5.5
92.0244	26.2
107.0353	15.1
117.0184	7.2
133.0498	4.3
134.0463	73.1
134.8644	10.7
135.0294	73.1
135.0506	4.4
136.0323	4.3

Name: (3,4-Dimethoxyphenyl)acetic acid
PrecursorMZ: 195.06569
RT: 4.030214285714286
ExactMass: 196.07355886
Spectrum_type: 2
charge: -1
Formula: C10H12O4
SMILES: COC1=C(C=C(C=C1)CC(=O)O)OC
Method: HCD
Collision_energy: [28.333334]
Isolation_window: 4.0
Ion_mode: N
Num Peaks: 7
73.0285	100.0
121.0286	64.6
122.0315	5.3
149.0600	17.8
153.0913	8.0
195.0656	96.4
196.0696	11.2

Name: (3alpha,5beta,12beta)-3,12-Dihydroxycholan-24-oic acid
PrecursorMZ: 391.28575
RT: 6.786561538461538
ExactMass: 392.29265975
Spectrum_type: 2
charge: -1
Formula: C24H40O4
SMILES: C[C@H](CCC(=O)O)[C@H]1CC[C@@H]2[C@@]1([C@@H](C[C@H]3[C@H]2CC[C@H]4[C@@]3(CC[C@H](C4)O)C)O)C
Method: HCD
Collision_energy: [28.333334]
Isolation_window: 4.0
Ion_mode: N
Num Peaks: 2
391.2857	100.0
392.2890	26.5

Name: (6)-Gingerol
PrecursorMZ: 293.17598
RT: 6.8052
ExactMass: 294.18310931
Spectrum_type: 2
charge: -1
Formula: C17H26O4
SMILES: CCCCC[C@@H](CC(=O)CCC1=CC(=C(C=C1)O)OC)O
Method: HCD
Collision_energy: [28.333334]
Isolation_window: 4.0
Ion_mode: N
Num Peaks: 15
109.0286	4.2
121.0287	70.5
122.0321	4.5
139.1122	83.5
140.1155	7.8
171.1385	80.0
172.1420	8.1
220.1469	5.1
221.1544	11.2
236.1053	12.8
261.1497	30.6
262.1536	4.3
293.1767	100.0
293.2116	14.2
294.1801	17.6

Name: 1,2,3,4-Tetrahydro-2,4-dioxo-5-pyrimidinecarboxylic acid
PrecursorMZ: 155.0091
RT: 0.9554666666666667
ExactMass: 156.01710661
Spectrum_type: 2
charge: -1
Formula: C5H4N2O4
SMILES: C1=C(C(=O)NC(=O)N1)C(=O)O
Method: HCD
Collision_energy: [28.333334]
Isolation_window: 4.0
Ion_mode: N
Num Peaks: 18
71.0129	0.6
79.9563	0.6
80.9642	3.3
111.0031	0.8
111.0063	0.6
111.0190	100.0
111.0318	0.5
111.0351	0.7
111.0442	0.6
112.0159	0.6
112.0224	4.2
113.0346	0.5
152.9855	2.5
153.0202	0.9
154.0620	1.1
155.0095	2.4
155.0458	0.5
156.0663	0.5

Name: 1,2,3-Propanetricarboxylic acid
PrecursorMZ: 175.02417
RT: 1.1870333333333334
ExactMass: 176.03208797
Spectrum_type: 2
charge: -1
Formula: C6H8O6
SMILES: C(C(CC(=O)O)C(=O)O)C(=O)O
Method: HCD
Collision_energy: [28.333334]
Isolation_window: 4.0
Ion_mode: N
Num Peaks: 39
59.0129	3.0
69.0337	16.9
71.0129	5.5
72.9922	2.4
73.0285	2.0
75.0078	6.3
85.0285	5.4
87.0078	10.6
87.0442	20.5
88.0394	4.2
89.0234	25.8
101.0236	1.5
105.0185	3.0
111.0443	2.1
112.0395	1.7
113.0235	14.8
114.0187	1.4
115.0027	1.9
115.0391	2.3
128.0346	1.4
129.0549	1.4
130.0501	2.6
131.0341	8.2
132.0656	2.8
146.9604	3.5
155.0344	4.1
156.0658	1.8
157.0135	100.0
158.0169	7.3
159.0292	4.1
173.0235	2.0
173.0449	12.4
173.0800	2.8
174.0385	1.6
174.0760	2.4
174.1129	5.1
175.0242	14.1
175.0606	6.7
177.0398	7.5

Name: 1,5-Dihydro-1-beta-D-ribofuranosyl-4H-pyrazolo(3,4-d)pyrimidin-4-one
PrecursorMZ: 267.07305
RT: 1.18789
ExactMass: 268.0807695
Spectrum_type: 2
charge: -1
Formula: C10H12N4O5
SMILES: C1=NN(C2=C1C(=O)NC=N2)[C@H]3[C@@H]([C@@H]([C@H](O3)CO)O)O
Method: HCD
Collision_energy: [28.333334]
Isolation_window: 4.0
Ion_mode: N
Num Peaks: 3
135.0303	100.0
267.0732	71.9
268.0759	10.2

Name: 1-Methylxanthine
PrecursorMZ: 165.04125
RT: 0.9581
ExactMass: 166.04907545
Spectrum_type: 2
charge: -1
Formula: C6H6N4O2
SMILES: CN1C(=O)C2=C(NC1=O)N=CN2
Method: HCD
Collision_energy: [28.333334]
Isolation_window: 4.0
Ion_mode: N
Num Peaks: 30
59.0130	0.9
71.0130	0.9
75.0079	2.1
79.9565	2.5
80.9643	12.8
85.0287	0.9
93.0338	1.2
106.9800	1.0
108.0196	7.5
121.0288	13.3
122.0336	0.9
122.0605	1.3
123.0444	1.7
124.0508	1.0
126.0302	5.9
150.0178	0.7
150.0316	1.0
163.0616	0.8
164.0350	0.7
164.0573	1.0
164.8358	3.6
164.9865	3.2
165.0196	1.9
165.0413	100.0
165.0640	0.8
165.0704	0.8
166.0174	10.9
166.0451	5.3
167.0340	0.8
167.0370	3.2

Name: 1-Myristoyl-sn-glycero-3-phosphocholine
PrecursorMZ: 512.29873
RT: 7.2188
ExactMass: 467.3011898
Spectrum_type: 2
charge: -1
Formula: C22H46NO7P
SMILES: CCCCCCCCCCCCCC(=O)OC[C@H](COP(=O)([O-])OCC[N+](C)(C)C)O
Method: HCD
Collision_energy: [28.333334]
Isolation_window: 4.0
Ion_mode: N
Num Peaks: 6
224.0690	9.1
227.2011	100.0
228.2045	15.5
452.2781	56.9
453.2823	12.8
511.3251	8.6

Name: 1-Octadecanoyl-sn-glycero-3-phosphoethanolamine
PrecursorMZ: 480.30855
RT: 8.43985
ExactMass: 481.31683987
Spectrum_type: 2
charge: -1
Formula: C23H48NO7P
SMILES: CCCCCCCCCCCCCCCCCC(=O)OC[C@H](COP(=O)(O)OCCN)O
Method: HCD
Collision_energy: [28.333334]
Isolation_window: 4.0
Ion_mode: N
Num Peaks: 13
78.9580	4.5
115.0391	2.6
140.0110	4.2
196.0375	10.4
283.2641	100.0
284.2675	17.4
435.3494	2.6
461.3275	4.8
463.3436	4.4
479.3378	42.0
480.3046	40.3
481.3614	24.7
482.3627	5.4

Name: 10-Hydroxydecanoic Acid
PrecursorMZ: 187.13344
RT: 4.7408
ExactMass: 188.1412445
Spectrum_type: 2
charge: -1
Formula: C10H20O3
SMILES: C(CCCCC(=O)O)CCCCO
Method: HCD
Collision_energy: [28.333334]
Isolation_window: 4.0
Ion_mode: N
Num Peaks: 17
99.9248	7.6
99.9481	8.7
100.9525	11.2
115.9198	4.8
121.0510	4.6
125.0961	5.1
141.1278	5.1
143.9379	7.3
144.9224	6.0
144.9422	4.1
160.0509	4.7
186.0784	4.8
187.0611	3.6
187.0981	6.1
187.1333	100.0
188.1108	4.1
188.1366	11.2

Name: 12-(3-Adamantan-1-yl-ureido)dodecanoic acid
PrecursorMZ: 391.29729
RT: 8.093133333333332
ExactMass: 392.30389314
Spectrum_type: 2
charge: -1
Formula: C23H40N2O3
SMILES: C1C2CC3CC1CC(C2)(C3)NC(=O)NCCCCCCCCCCCC(=O)O
Method: HCD
Collision_energy: [28.333334]
Isolation_window: 4.0
Ion_mode: N
Num Peaks: 6
150.0553	29.0
167.0819	54.0
240.2331	38.2
390.2308	13.6
391.2966	100.0
392.3000	26.5

Name: 12-Hydroxydodecanoic Acid
PrecursorMZ: 215.16493
RT: 5.7824
ExactMass: 216.17254462
Spectrum_type: 2
charge: -1
Formula: C12H24O3
SMILES: C(CCCCCC(=O)O)CCCCCO
Method: HCD
Collision_energy: [28.333334]
Isolation_window: 4.0
Ion_mode: N
Num Peaks: 5
213.9628	3.9
215.0094	31.5
215.1648	100.0
216.0128	3.7
216.1681	11.8

Name: 12-Hydroxystearic acid
PrecursorMZ: 299.25924
RT: 8.48645
ExactMass: 300.26644501
Spectrum_type: 2
charge: -1
Formula: C18H36O3
SMILES: CCCCCCC(CCCCCCCCCCC(=O)O)O
Method: HCD
Collision_energy: [28.333334]
Isolation_window: 4.0
Ion_mode: N
Num Peaks: 3
297.2417	8.0
299.2590	100.0
300.2624	22.5

Name: 12-Ketolithocholic acid
PrecursorMZ: 389.26979
RT: 6.939118644067797
ExactMass: 390.27700969
Spectrum_type: 2
charge: -1
Formula: C24H38O4
SMILES: C[C@H](CCC(=O)O)[C@H]1CC[C@@H]2[C@@]1(C(=O)C[C@H]3[C@H]2CC[C@H]4[C@@]3(CC[C@H](C4)O)C)C
Method: HCD
Collision_energy: [28.333334]
Isolation_window: 4.0
Ion_mode: N
Num Peaks: 7
345.2804	1.8
388.2140	0.9
389.1870	0.7
389.2698	100.0
390.2731	25.4
391.2128	2.0
391.2853	43.7

Name: 18Alpha-Glycyrrhetinic Acid
PrecursorMZ: 469.33149
RT: 8.1327
ExactMass: 470.33960994
Spectrum_type: 2
charge: -1
Formula: C30H46O4
SMILES: C[C@]12CC[C@](C[C@@H]1C3=CC(=O)[C@@H]4[C@]5(CC[C@@H](C([C@@H]5CC[C@]4([C@@]3(CC2)C)C)(C)C)O)C)(C)C(=O)O
Method: HCD
Collision_energy: [28.333334]
Isolation_window: 4.0
Ion_mode: N
Num Peaks: 5
52.1493	4.6
325.1837	14.8
469.3318	100.0
470.3352	32.5
471.3451	14.4

Name: 2,3-Dihydroxybenzoic Acid
PrecursorMZ: 153.01867
RT: 2.9017333333333335
ExactMass: 154.02660867
Spectrum_type: 2
charge: -1
Formula: C7H6O4
SMILES: C1=CC(=C(C(=C1)O)O)C(=O)O
Method: HCD
Collision_energy: [28.333334]
Isolation_window: 4.0
Ion_mode: N
Num Peaks: 18
66.0340	14.7
67.0293	13.8
68.0133	10.3
81.0448	12.2
82.0290	9.8
95.0242	8.8
106.9922	12.1
109.0286	78.3
109.0396	12.4
110.0240	31.9
111.0192	9.5
125.0347	14.5
135.0082	22.1
151.0392	23.1
151.0507	13.2
152.0455	10.5
152.0708	11.9
153.0186	100.0

Name: 2,4-Dihydroxybenzoic Acid
PrecursorMZ: 153.01871
RT: 2.93085
ExactMass: 154.02660867
Spectrum_type: 2
charge: -1
Formula: C7H6O4
SMILES: C1=CC(=C(C=C1O)O)C(=O)O
Method: HCD
Collision_energy: [28.333334]
Isolation_window: 4.0
Ion_mode: N
Num Peaks: 15
66.0340	6.9
93.0337	3.6
107.0493	5.1
108.0207	3.9
108.0446	23.1
109.0286	100.0
110.0239	5.1
110.0321	5.8
121.0287	5.0
123.0444	4.4
139.0393	5.2
151.0394	7.3
153.0186	96.7
153.0536	3.1
154.0222	7.1

Name: 2,5-Dihydroxybenzoic acid
PrecursorMZ: 153.0186
RT: 2.6334
ExactMass: 154.02660867
Spectrum_type: 2
charge: -1
Formula: C7H6O4
SMILES: C1=CC(=C(C=C1O)C(=O)O)O
Method: HCD
Collision_energy: [28.333334]
Isolation_window: 4.0
Ion_mode: N
Num Peaks: 24
66.0339	4.0
67.0293	2.1
69.0336	2.3
71.0130	2.2
81.0335	2.7
81.0447	2.0
82.0289	2.1
85.0285	12.0
95.0128	12.4
108.0207	51.2
108.0446	2.9
109.0286	100.0
109.0404	2.2
110.0238	6.3
110.0320	6.6
111.0441	3.8
123.0078	10.2
125.0348	2.2
138.0678	3.2
151.0393	3.0
152.0107	13.1
152.0343	2.5
153.0185	85.4
154.0222	6.3

Name: 2,6-Dihydroxybenzoic Acid
PrecursorMZ: 153.01872
RT: 3.0557499999999997
ExactMass: 154.02660867
Spectrum_type: 2
charge: -1
Formula: C7H6O4
SMILES: C1=CC(=C(C(=C1)O)C(=O)O)O
Method: HCD
Collision_energy: [28.333334]
Isolation_window: 4.0
Ion_mode: N
Num Peaks: 21
65.0388	5.6
65.9976	1.3
66.0341	2.4
67.0180	1.7
67.0293	2.3
68.0134	1.5
69.3186	1.3
81.0450	1.8
82.0290	1.7
95.0243	1.5
109.0287	82.8
109.0398	2.0
110.0240	4.5
110.0321	5.0
111.0194	1.5
125.0349	2.4
135.0082	26.4
136.0113	1.9
152.0458	1.4
153.0188	100.0
154.0222	8.1

Name: 2,6-Dimethoxybenzoic Acid
PrecursorMZ: 181.05004
RT: 4.01835
ExactMass: 182.0579088
Spectrum_type: 2
charge: -1
Formula: C9H10O4
SMILES: COC1=C(C(=CC=C1)OC)C(=O)O
Method: HCD
Collision_energy: [28.333334]
Isolation_window: 4.0
Ion_mode: N
Num Peaks: 23
59.0129	54.6
68.9948	5.5
90.9970	3.9
95.0492	2.1
109.0285	16.4
109.0397	2.8
109.0649	11.5
112.9846	18.0
119.0494	9.7
121.0285	15.9
122.0360	2.0
134.9871	10.6
135.0442	14.8
136.0486	2.2
136.0762	2.5
137.0599	100.0
138.0190	4.2
138.0547	3.3
138.0636	7.1
178.9770	2.4
179.1183	8.7
181.0499	77.5
182.0539	7.2

Name: 2-Acetamidophenol
PrecursorMZ: 150.0554
RT: 3.1
ExactMass: 151.06332853
Spectrum_type: 2
charge: -1
Formula: C8H9NO2
SMILES: CC(=O)NC1=CC=CC=C1O
Method: HCD
Collision_energy: [28.333334]
Isolation_window: 4.0
Ion_mode: N
Num Peaks: 10
65.0137	1.8
65.9977	2.2
106.0403	2.4
108.0447	100.0
109.0402	1.9
109.0480	7.8
123.0194	2.0
148.0508	1.6
150.0304	2.0
150.0556	5.1

Name: 2-Aminobenzenesulfonic acid
PrecursorMZ: 172.0069
RT: 0.8787
ExactMass: 173.01466426
Spectrum_type: 2
charge: -1
Formula: C6H7NO3S
SMILES: C1=CC=C(C(=C1)N)S(=O)(=O)O
Method: HCD
Collision_energy: [28.333334]
Isolation_window: 4.0
Ion_mode: N
Num Peaks: 20
61.9875	31.8
69.1332	2.1
75.0079	5.9
79.9564	3.8
89.0235	3.5
100.0080	2.0
101.0044	4.7
108.0447	2.5
115.0201	4.7
124.8906	2.4
143.0150	3.7
154.9469	2.5
170.0260	2.9
170.8327	2.3
172.0069	100.0
172.0276	5.9
172.8305	2.2
173.0101	6.5
173.0258	26.7
174.0020	3.0

Name: 2-Furancarboxylic acid
PrecursorMZ: 157.01341
RT: 2.2346
ExactMass: 112.016043985
Spectrum_type: 2
charge: -1
Formula: C5H4O3
SMILES: C1=COC(=C1)C(=O)O
Method: HCD
Collision_energy: [28.333334]
Isolation_window: 4.0
Ion_mode: N
Num Peaks: 20
59.0129	6.8
69.0336	100.0
71.0129	15.0
82.9951	80.0
85.0285	6.5
88.0395	8.4
97.0650	10.7
113.0235	25.0
113.0598	17.3
114.0551	50.4
115.0754	10.7
116.0708	8.0
126.9850	6.4
156.0659	42.1
156.9958	7.7
157.0134	24.7
157.0500	12.8
158.0814	12.8
159.0655	70.2
159.0771	10.1

Name: 2-Isopropylmalic acid
PrecursorMZ: 175.06148
RT: 2.4378
ExactMass: 176.06847348
Spectrum_type: 2
charge: -1
Formula: C7H12O5
SMILES: CC(C)C(CC(=O)O)(C(=O)O)O
Method: HCD
Collision_energy: [28.333334]
Isolation_window: 4.0
Ion_mode: N
Num Peaks: 12
85.0649	35.0
105.0449	3.7
113.0599	40.8
115.0392	100.0
116.0425	5.0
131.0706	8.6
132.9714	4.7
146.9605	18.1
148.0509	3.9
157.0500	14.3
175.0606	99.1
176.0641	6.6

Name: 2-Methylbutyrylglycine
PrecursorMZ: 158.08164
RT: 2.3132166666666665
ExactMass: 159.08954328
Spectrum_type: 2
charge: -1
Formula: C7H13NO3
SMILES: CCC(C)C(=O)NCC(=O)O
Method: HCD
Collision_energy: [28.333334]
Isolation_window: 4.0
Ion_mode: N
Num Peaks: 13
71.0130	9.9
86.0238	16.6
87.0078	11.4
88.9871	9.9
97.0648	16.1
113.0599	16.0
114.0915	11.9
115.0755	12.9
130.9827	13.0
140.0709	100.0
157.0502	20.5
158.0814	22.3
159.0660	26.3

Name: 2-Methylglutaric Acid
PrecursorMZ: 145.04992
RT: 2.0836
ExactMass: 146.0579088
Spectrum_type: 2
charge: -1
Formula: C6H10O4
SMILES: CC(CCC(=O)O)C(=O)O
Method: HCD
Collision_energy: [28.333334]
Isolation_window: 4.0
Ion_mode: N
Num Peaks: 2
101.0598	96.0
144.0447	100.0

Name: 2-Methylhippuric Acid
PrecursorMZ: 192.06604
RT: 3.4785833333333334
ExactMass: 193.07389321
Spectrum_type: 2
charge: -1
Formula: C10H11NO3
SMILES: CC1=CC=CC=C1C(=O)NCC(=O)O
Method: HCD
Collision_energy: [28.333334]
Isolation_window: 4.0
Ion_mode: N
Num Peaks: 17
91.0544	15.3
102.9478	37.2
109.0286	26.4
123.0559	4.9
144.0445	16.1
146.0603	55.5
146.9377	12.7
147.0444	45.5
147.0631	13.6
148.0497	6.3
148.0761	13.0
165.0548	15.9
190.0498	10.4
191.0549	11.1
192.0659	100.0
193.0500	17.6
193.0694	13.5

Name: 2-Phenylbenzimidazole-5-Sulfonic Acid
PrecursorMZ: 273.03415
RT: 2.5427285714285714
ExactMass: 274.04121336
Spectrum_type: 2
charge: -1
Formula: C13H10N2O3S
SMILES: C1=CC=C(C=C1)C2=NC3=C(N2)C=C(C=C3)S(=O)(=O)O
Method: HCD
Collision_energy: [28.333334]
Isolation_window: 4.0
Ion_mode: N
Num Peaks: 3
193.0765	32.4
273.0341	100.0
274.0376	13.0

Name: 20-Hydroxyecdysone
PrecursorMZ: 525.30691
RT: 3.4935
ExactMass: 480.30870374
Spectrum_type: 2
charge: -1
Formula: C27H44O7
SMILES: C[C@]12CC[C@H]3C(=CC(=O)[C@H]4[C@@]3(C[C@@H]([C@@H](C4)O)O)C)[C@@]1(CC[C@@H]2[C@](C)([C@@H](CCC(C)(C)O)O)O)O
Method: HCD
Collision_energy: [28.333334]
Isolation_window: 4.0
Ion_mode: N
Num Peaks: 17
53.2570	4.7
58.3690	4.8
83.0493	12.0
85.0285	5.2
115.0755	2.5
159.1019	42.0
160.1052	3.7
301.1805	6.0
319.1912	18.4
320.1943	3.6
461.2914	3.0
479.3016	98.2
480.3045	24.9
481.3085	3.3
525.3071	100.0
526.3107	28.2
527.3122	3.8

Name: 3,4',7-Trihydroxyflavone
PrecursorMZ: 269.04439
RT: 4.9173
ExactMass: 270.05282342
Spectrum_type: 2
charge: -1
Formula: C15H10O5
SMILES: C1=CC(=CC=C1C2=C(C(=O)C3=C(O2)C=C(C=C3)O)O)O
Method: HCD
Collision_energy: [28.333334]
Isolation_window: 4.0
Ion_mode: N
Num Peaks: 5
197.0595	11.5
241.0496	100.0
242.0528	15.1
269.0446	53.2
270.0482	9.3

Name: 3,4,5-Trimethoxycinnamic acid
PrecursorMZ: 237.07579
RT: 4.866
ExactMass: 238.08412354
Spectrum_type: 2
charge: -1
Formula: C12H14O5
SMILES: COC1=CC(=CC(=C1OC)OC)/C=C/C(=O)O
Method: HCD
Collision_energy: [28.333334]
Isolation_window: 4.0
Ion_mode: N
Num Peaks: 9
138.0548	10.3
149.0958	5.6
175.0752	26.1
176.0798	4.0
193.0857	78.0
194.0901	7.3
237.0757	100.0
238.0787	13.9
238.1076	3.9

Name: 3,5-Dihydroxybenzoic Acid
PrecursorMZ: 153.01865
RT: 2.0400846153846155
ExactMass: 154.02660867
Spectrum_type: 2
charge: -1
Formula: C7H6O4
SMILES: C1=C(C=C(C=C1O)O)C(=O)O
Method: HCD
Collision_energy: [28.333334]
Isolation_window: 4.0
Ion_mode: N
Num Peaks: 20
65.9975	4.9
66.0340	6.8
67.0293	5.0
68.0132	4.8
72.9921	6.4
78.9850	27.8
81.0448	5.1
82.0288	5.9
84.0081	6.9
91.0293	4.9
106.9921	5.2
109.0286	100.0
110.0238	15.5
110.0322	5.3
124.0759	7.6
125.0347	5.4
135.0195	4.9
152.0709	57.2
153.0187	36.9
153.0745	4.5

Name: 3-(m-Methoxyphenyl)propionic acid
PrecursorMZ: 179.07062
RT: 5.0783
ExactMass: 180.078644241
Spectrum_type: 2
charge: -1
Formula: C10H12O3
SMILES: COC1=CC=CC(=C1)CCC(=O)O
Method: HCD
Collision_energy: [28.333334]
Isolation_window: 4.0
Ion_mode: N
Num Peaks: 9
90.9972	25.0
109.0398	12.8
120.0571	100.0
134.9872	82.6
135.0808	33.0
137.0963	39.2
178.9771	18.6
179.0708	16.1
181.0866	17.7

Name: 3-Feruloylquinic acid
PrecursorMZ: 367.1037
RT: 3.024966666666667
Spectrum_type: 2
charge: -1
SMILES: COC1=C(C=CC(=C1)/C=C/C(=O)O[C@@H]2C[C@](C[C@H]([C@@H]2O)O)(C(=O)O)O)O
Method: HCD
Collision_energy: [28.333334]
Isolation_window: 4.0
Ion_mode: N
Num Peaks: 10
134.0367	32.1
135.0397	2.6
149.0602	7.5
155.0343	3.6
173.0451	5.8
178.0269	5.1
193.0503	100.0
194.0537	10.9
367.1040	19.4
368.1079	3.7

Name: 3-Hydroxy-3-methylglutaric acid
PrecursorMZ: 161.04482
RT: 0.9693923076923077
ExactMass: 162.05282342
Spectrum_type: 2
charge: -1
Formula: C6H10O5
SMILES: CC(CC(=O)O)(CC(=O)O)O
Method: HCD
Collision_energy: [28.333334]
Isolation_window: 4.0
Ion_mode: N
Num Peaks: 43
59.0129	19.3
71.0129	83.6
72.9921	7.0
73.0285	27.4
75.0078	5.8
83.0129	7.1
85.0285	36.6
87.0078	8.9
87.0553	10.3
88.0031	5.8
88.0394	87.4
88.9870	17.7
89.0233	5.7
90.9350	6.5
92.9270	5.2
95.0128	15.2
98.0237	13.5
98.0601	8.5
99.0078	10.2
99.0443	6.4
100.0394	17.3
101.0234	21.2
102.0188	5.1
102.9877	15.8
103.9883	6.1
104.0344	5.5
104.9853	6.7
105.0184	6.5
113.0234	32.9
115.0867	45.2
116.0707	10.2
130.9827	32.3
131.0341	5.2
131.9837	17.4
132.9800	19.3
142.0499	9.7
144.0659	8.4
159.0664	4.6
159.0767	100.0
160.0609	18.8
160.0802	9.3
161.0454	4.2
162.0765	16.9

Name: 3-Hydroxyanthranilic Acid
PrecursorMZ: 152.03461
RT: 2.1739
ExactMass: 153.042593085
Spectrum_type: 2
charge: -1
Formula: C7H7NO3
SMILES: C1=CC(=C(C(=C1)O)N)C(=O)O
Method: HCD
Collision_energy: [28.333334]
Isolation_window: 4.0
Ion_mode: N
Num Peaks: 27
65.9976	2.4
66.0340	4.5
67.0292	2.8
68.0133	1.9
72.9922	2.1
81.0449	2.4
82.0290	2.6
91.0290	2.0
96.0081	2.0
106.9921	6.8
108.0446	4.9
109.0160	9.0
109.0399	3.6
110.0240	6.4
111.0190	2.5
123.0191	2.0
123.0442	2.7
125.0346	3.0
135.0189	1.9
135.0445	2.0
137.0109	4.4
151.0391	4.0
151.0506	2.7
152.0345	100.0
152.0701	4.7
153.0380	7.2
153.0549	4.4

Name: 3-Hydroxybenzoic Acid
PrecursorMZ: 137.02376
RT: 2.9663
ExactMass: 138.031694049
Spectrum_type: 2
charge: -1
Formula: C7H6O3
SMILES: C1=CC(=CC(=C1)O)C(=O)O
Method: HCD
Collision_energy: [28.333334]
Isolation_window: 4.0
Ion_mode: N
Num Peaks: 9
93.0337	85.2
94.0370	6.5
109.0287	7.6
109.0649	4.3
134.0368	5.8
135.0445	100.0
136.0479	10.1
137.0238	32.4
137.0601	53.3

Name: 3-Hydroxydecanoic acid
PrecursorMZ: 187.13338
RT: 5.9891
ExactMass: 188.1412445
Spectrum_type: 2
charge: -1
Formula: C10H20O3
SMILES: CCCCCCCC(CC(=O)O)O
Method: HCD
Collision_energy: [28.333334]
Isolation_window: 4.0
Ion_mode: N
Num Peaks: 10
59.0130	100.0
61.9874	26.8
99.9249	22.4
99.9481	19.7
100.9525	23.0
103.0140	18.7
141.8672	22.7
143.9380	13.5
159.8781	12.5
187.1334	22.1

Name: 3-Methylglutaconic acid
PrecursorMZ: 143.03433
RT: 2.2237
ExactMass: 144.04225873
Spectrum_type: 2
charge: -1
Formula: C6H8O4
SMILES: C/C(=C\C(=O)O)/CC(=O)O
Method: HCD
Collision_energy: [28.333334]
Isolation_window: 4.0
Ion_mode: N
Num Peaks: 4
99.0442	53.1
101.0599	100.0
144.0446	35.5
145.0499	44.0

Name: 3-Methylglutaric acid
PrecursorMZ: 191.05639
RT: 1.0343
ExactMass: 146.0579088
Spectrum_type: 2
charge: -1
Formula: C6H10O4
SMILES: CC(CC(=O)O)CC(=O)O
Method: HCD
Collision_energy: [28.333334]
Isolation_window: 4.0
Ion_mode: N
Num Peaks: 17
59.0129	2.7
72.9922	2.9
84.0446	3.3
85.0285	18.7
87.0078	21.5
93.0336	4.1
101.0234	7.8
111.0078	54.3
111.0441	2.3
112.0111	3.5
128.0345	2.3
129.0184	4.8
173.0450	4.4
190.0716	2.4
191.0198	10.2
191.0555	100.0
192.0588	7.0

Name: 3-Methylsalicylic Acid
PrecursorMZ: 151.03934
RT: 5.7464
ExactMass: 152.047344113
Spectrum_type: 2
charge: -1
Formula: C8H8O3
SMILES: CC1=C(C(=CC=C1)C(=O)O)O
Method: HCD
Collision_energy: [28.333334]
Isolation_window: 4.0
Ion_mode: N
Num Peaks: 10
65.0387	14.0
106.9922	4.3
107.0493	27.6
108.0533	1.7
109.0286	17.8
109.0394	1.7
135.0079	3.1
151.0393	100.0
152.0433	7.7
153.0185	2.5

Name: 3-Methylxanthine
PrecursorMZ: 165.04104
RT: 1.4781782608695653
ExactMass: 166.04907545
Spectrum_type: 2
charge: -1
Formula: C6H6N4O2
SMILES: CN1C2=C(C(=O)NC1=O)NC=N2
Method: HCD
Collision_energy: [28.333334]
Isolation_window: 4.0
Ion_mode: N
Num Peaks: 7
72.0082	29.4
119.0494	1.2
147.0443	100.0
148.0477	10.2
164.0710	69.1
165.0411	8.8
165.0745	7.4

Name: 3-Oxochola-4,6-dien-24-oic Acid
PrecursorMZ: 369.24355
RT: 7.7419
ExactMass: 370.25079494
Spectrum_type: 2
charge: -1
Formula: C24H34O3
SMILES: C[C@H](CCC(=O)O)[C@H]1CC[C@@H]2[C@@]1(CC[C@H]3[C@H]2C=CC4=CC(=O)CC[C@]34C)C
Method: HCD
Collision_energy: [28.333334]
Isolation_window: 4.0
Ion_mode: N
Num Peaks: 7
325.2538	2.5
327.1630	1.9
367.2309	4.4
368.2333	2.4
369.2437	100.0
370.2467	26.6
371.2513	2.5

Name: 3-Oxocholic acid
PrecursorMZ: 405.26466
RT: 6.2745
ExactMass: 406.27192431
Spectrum_type: 2
charge: -1
Formula: C24H38O5
SMILES: C[C@H](CCC(=O)O)[C@H]1CC[C@@H]2[C@@]1([C@H](C[C@H]3[C@H]2[C@@H](C[C@H]4[C@@]3(CCC(=O)C4)C)O)O)C
Method: HCD
Collision_energy: [28.333334]
Isolation_window: 4.0
Ion_mode: N
Num Peaks: 16
69.0336	1.1
289.2173	2.6
343.2639	2.6
345.2776	0.5
361.2747	3.2
362.2790	0.7
363.2905	1.7
389.2705	0.8
405.1774	0.5
405.2646	66.6
406.2679	17.3
407.1671	0.6
407.1934	0.8
407.2798	100.0
407.3697	0.5
407.3921	0.6

Name: 3-Phenylbutyric acid
PrecursorMZ: 163.07594
RT: 5.67065
ExactMass: 164.083729621
Spectrum_type: 2
charge: -1
Formula: C10H12O2
SMILES: CC(CC(=O)O)C1=CC=CC=C1
Method: HCD
Collision_energy: [28.333334]
Isolation_window: 4.0
Ion_mode: N
Num Peaks: 9
119.0495	14.9
119.0859	20.6
121.0288	100.0
121.0514	14.2
121.0650	23.9
162.8387	12.7
163.0757	37.6
165.0187	10.5
165.0547	6.8

Name: 3-coumaric acid, (E)-
PrecursorMZ: 163.03942
RT: 3.4161
ExactMass: 164.047344113
Spectrum_type: 2
charge: -1
Formula: C9H8O3
SMILES: C1=CC(=CC(=C1)O)/C=C/C(=O)O
Method: HCD
Collision_energy: [28.333334]
Isolation_window: 4.0
Ion_mode: N
Num Peaks: 19
59.0129	1.0
65.0136	1.3
65.9976	1.0
82.0402	1.5
91.0291	1.0
94.9921	0.8
119.0493	100.0
120.0524	8.2
121.0399	1.4
121.0510	4.4
134.0352	1.3
136.0505	1.7
137.0346	1.1
162.0550	0.8
163.0030	0.9
163.0393	20.4
163.0617	1.3
164.0439	2.4
165.0550	2.3

Name: 4-Aminosalicylic Acid
PrecursorMZ: 152.03461
RT: 2.6584583333333334
ExactMass: 153.042593085
Spectrum_type: 2
charge: -1
Formula: C7H7NO3
SMILES: C1=CC(=C(C=C1N)O)C(=O)O
Method: HCD
Collision_energy: [28.333334]
Isolation_window: 4.0
Ion_mode: N
Num Peaks: 26
65.0136	3.4
65.9976	3.4
66.0340	21.6
67.0293	5.4
68.0132	3.3
72.9922	2.2
81.0449	6.3
82.0289	3.3
83.0240	2.2
91.0292	2.5
95.0241	2.2
106.0400	2.6
106.9921	11.4
108.0446	100.0
108.9878	3.2
109.0398	5.8
109.0479	6.4
110.0239	14.4
111.0191	3.3
123.0191	3.0
125.0348	4.2
134.0351	2.9
150.0304	2.2
151.0395	9.7
152.0345	4.9
152.0454	2.7

Name: 4-Hydroxybenzaldehyde
PrecursorMZ: 121.0281
RT: 3.2757
ExactMass: 122.03677943
Spectrum_type: 2
charge: -1
Formula: C7H6O2
SMILES: C1=CC(=CC=C1C=O)O
Method: HCD
Collision_energy: [28.333334]
Isolation_window: 4.0
Ion_mode: N
Num Peaks: 5
79.0296	12.4
82.0166	10.9
120.0562	20.6
121.0291	100.0
122.0357	35.0

Name: 4-Hydroxybenzoic Acid
PrecursorMZ: 137.02379
RT: 2.7348
ExactMass: 138.031694049
Spectrum_type: 2
charge: -1
Formula: C7H6O3
SMILES: C1=CC(=CC=C1C(=O)O)O
Method: HCD
Collision_energy: [28.333334]
Isolation_window: 4.0
Ion_mode: N
Num Peaks: 8
92.9192	6.6
93.0338	13.4
123.0319	61.5
136.0160	3.9
136.8623	10.6
137.0238	100.0
138.0273	8.3
138.0554	63.3

Name: 4-Hydroxycoumarin
PrecursorMZ: 161.02378
RT: 4.5353
ExactMass: 162.031694049
Spectrum_type: 2
charge: -1
Formula: C9H6O3
SMILES: C1=CC=C2C(=C1)C(=CC(=O)O2)O
Method: HCD
Collision_energy: [28.333334]
Isolation_window: 4.0
Ion_mode: N
Num Peaks: 16
59.0130	2.8
61.9875	2.0
65.0137	2.3
117.0337	4.9
121.0510	5.8
132.0559	1.9
133.0400	1.5
133.0510	2.5
134.0350	2.3
159.0558	3.6
159.0668	1.7
160.0395	2.3
161.0237	100.0
161.0695	1.6
162.0274	9.4
163.0028	1.6

Name: 4-Hydroxyhippuric acid
PrecursorMZ: 194.04543
RT: 2.0437666666666665
ExactMass: 195.05315777
Spectrum_type: 2
charge: -1
Formula: C9H9NO4
SMILES: C1=CC(=CC=C1C(=O)NCC(=O)O)O
Method: HCD
Collision_energy: [28.333334]
Isolation_window: 4.0
Ion_mode: N
Num Peaks: 8
123.0445	26.6
125.0238	23.1
137.0239	44.0
151.0396	100.0
176.0346	16.2
193.0501	16.7
194.0453	59.1
195.0523	14.3

Name: 4-Hydroxyphenylpyruvic Acid
PrecursorMZ: 179.0345
RT: 4.7789
ExactMass: 180.04225873
Spectrum_type: 2
charge: -1
Formula: C9H8O4
SMILES: C1=CC(=CC=C1CC(=O)C(=O)O)O
Method: HCD
Collision_energy: [28.333334]
Isolation_window: 4.0
Ion_mode: N
Num Peaks: 11
90.9973	31.3
92.9192	3.7
108.0209	17.1
134.9874	100.0
135.9908	3.1
136.0160	6.2
136.9829	4.8
151.0394	4.5
178.9775	23.5
179.0345	46.1
180.0384	4.4

Name: 4-Morpholineethanesulfonic acid
PrecursorMZ: 194.04894
RT: 0.9036
ExactMass: 195.05652907
Spectrum_type: 2
charge: -1
Formula: C6H13NO4S
SMILES: C1COCCN1CCS(=O)(=O)O
Method: HCD
Collision_energy: [28.333334]
Isolation_window: 4.0
Ion_mode: N
Num Peaks: 44
59.0131	1.4
61.9875	0.9
79.9564	11.0
80.9643	12.3
86.0603	0.8
87.0079	0.7
96.9593	4.4
106.9801	6.6
108.0447	1.0
123.0445	1.6
124.0067	3.3
125.0237	2.5
128.0710	1.0
130.0867	2.3
133.0503	0.5
135.0127	0.7
135.0305	6.1
137.0238	1.9
149.0602	0.5
150.0552	0.6
151.0396	4.2
152.0339	0.7
153.0414	0.6
158.8460	0.5
160.8417	5.2
163.0510	0.6
165.0188	0.7
177.0288	0.7
192.0525	0.6
193.0177	0.8
193.0353	0.6
193.0509	5.4
194.0125	2.2
194.0490	100.0
194.0785	0.8
194.0837	0.6
194.0863	0.7
194.9968	4.5
195.0311	3.8
195.0519	7.1
195.0693	4.5
195.8107	3.5
196.0443	2.7
196.0609	1.4

Name: 4-O-Feruloylquinic acid
PrecursorMZ: 367.10227
RT: 3.4363
ExactMass: 368.11073221
Spectrum_type: 2
charge: -1
Formula: C17H20O9
SMILES: COC1=C(C=CC(=C1)/C=C/C(=O)OC2[C@@H](CC(C[C@H]2O)(C(=O)O)O)O)O
Method: HCD
Collision_energy: [28.333334]
Isolation_window: 4.0
Ion_mode: N
Num Peaks: 52
59.0127	1.8
67.0178	1.7
71.0127	3.2
72.9921	1.4
84.0444	1.7
85.0281	1.5
87.0075	3.8
88.0392	1.2
93.0333	14.7
101.0231	1.2
111.0439	5.0
114.0548	1.7
115.0024	2.4
124.0395	1.3
128.0338	1.7
129.0178	1.6
130.0860	1.5
134.0360	6.5
136.0755	2.7
137.0232	4.2
149.0594	1.7
151.0211	6.8
155.0338	5.1
161.0232	11.0
162.0218	10.0
167.1178	1.9
173.0443	100.0
174.0476	6.4
193.0494	15.8
194.0541	1.2
194.0810	3.4
195.0111	15.9
209.1414	2.0
253.1190	1.3
259.1450	1.3
277.1184	3.0
323.1866	3.5
324.0538	7.4
365.0915	1.9
365.0955	2.9
365.1347	4.0
366.1260	1.8
366.1311	1.6
366.2054	1.8
366.2094	3.4
367.1032	26.9
367.1763	24.1
368.1046	4.8
368.1436	3.1
368.1798	5.2
368.1844	3.3
369.1226	2.5

Name: 4-Pyridoxic Acid
PrecursorMZ: 182.04539
RT: 0.9181
ExactMass: 183.05315777
Spectrum_type: 2
charge: -1
Formula: C8H9NO4
SMILES: CC1=NC=C(C(=C1O)C(=O)O)CO
Method: HCD
Collision_energy: [28.333334]
Isolation_window: 4.0
Ion_mode: N
Num Peaks: 17
80.9643	6.0
83.0242	5.7
89.0234	7.3
94.0653	49.9
96.9592	14.1
96.9686	9.9
138.0553	100.0
139.0193	9.8
139.0589	6.3
140.0152	28.2
162.0480	5.7
164.9856	11.5
180.0589	14.7
181.0589	6.1
182.0455	16.2
182.9952	9.7
184.0051	22.0

Name: 5,4'-Dihydroxy-7,3'-dimethoxyflavone
PrecursorMZ: 313.07035
RT: 6.886457142857143
ExactMass: 314.07903816
Spectrum_type: 2
charge: -1
Formula: C17H14O6
SMILES: COC1=CC(=C2C(=C1)OC(=CC2=O)C3=CC(=C(C=C3)O)OC)O
Method: HCD
Collision_energy: [28.333334]
Isolation_window: 4.0
Ion_mode: N
Num Peaks: 14
91.0387	8.0
183.0105	5.5
247.1688	13.5
283.0235	20.8
298.0468	42.3
299.0508	6.4
311.1673	91.4
311.2203	16.7
312.1706	27.1
313.0703	100.0
313.1691	6.0
313.2368	30.5
314.0738	18.6
314.2397	6.3

Name: 5-Hydroxyferulic acid
PrecursorMZ: 209.04506
RT: 3.2866
ExactMass: 210.05282342
Spectrum_type: 2
charge: -1
Formula: C10H10O5
SMILES: COC1=CC(=CC(=C1O)O)/C=C/C(=O)O
Method: HCD
Collision_energy: [28.333334]
Isolation_window: 4.0
Ion_mode: N
Num Peaks: 5
59.0129	15.2
118.9920	12.2
121.0285	100.0
162.9820	24.9
209.0450	21.6

Name: 6-Acetylaminocaproic acid
PrecursorMZ: 172.09724
RT: 2.5014241379310347
ExactMass: 173.10519334
Spectrum_type: 2
charge: -1
Formula: C8H15NO3
SMILES: CC(=O)NCCCCCC(=O)O
Method: HCD
Collision_energy: [28.333334]
Isolation_window: 4.0
Ion_mode: N
Num Peaks: 14
72.0446	7.2
72.9922	5.9
82.9952	11.5
86.0238	8.1
99.9248	6.4
100.0393	6.9
116.0708	17.3
126.9849	9.3
128.1072	20.1
142.9459	5.6
171.0111	100.0
172.0141	7.5
172.0972	24.4
173.0232	18.3

Name: 6-Mercaptopurine
PrecursorMZ: 151.0062
RT: 1.013
ExactMass: 152.01566732
Spectrum_type: 2
charge: -1
Formula: C5H4N4S
SMILES: C1=NC2=C(N1)C(=S)N=CN2
Method: HCD
Collision_energy: [28.333334]
Isolation_window: 4.0
Ion_mode: N
Num Peaks: 22
63.9615	11.9
71.0129	1.2
78.9753	0.6
78.9850	100.0
78.9945	0.8
79.0083	0.4
79.9842	0.7
79.9884	1.1
80.9642	6.7
80.9807	2.5
87.0442	1.7
89.0234	1.2
108.0194	2.2
108.0446	2.7
109.0286	0.9
109.0399	0.9
149.0450	0.5
151.0066	4.2
151.0253	8.4
152.0002	0.6
152.0338	0.7
152.9855	6.0

Name: 7-Methylguanine
PrecursorMZ: 164.05716
RT: 0.9395
ExactMass: 165.06505986
Spectrum_type: 2
charge: -1
Formula: C6H7N5O
SMILES: CN1C=NC2=C1C(=O)NC(=N2)N
Method: HCD
Collision_energy: [28.333334]
Isolation_window: 4.0
Ion_mode: N
Num Peaks: 28
59.0129	3.0
61.9875	2.2
71.0129	3.3
72.9923	1.6
73.0286	2.7
75.0079	8.3
79.9564	4.4
80.9643	3.2
85.0285	3.9
89.0235	11.5
101.0235	5.0
105.0185	2.7
106.0276	3.9
119.0341	3.2
121.0512	10.1
136.9315	2.9
145.0502	2.8
147.0303	7.6
149.0336	5.7
162.8385	10.4
163.0033	2.1
163.0607	17.8
164.0571	100.0
164.8358	4.3
165.0221	4.9
165.0399	8.9
165.0604	6.2
166.0171	8.3

Name: 7alpha-Hydroxy-3-oxo-4-cholen-24-oic acid
PrecursorMZ: 387.25449
RT: 6.6667
ExactMass: 388.26135963
Spectrum_type: 2
charge: -1
Formula: C24H36O4
SMILES: C[C@H](CCC(=O)O)[C@H]1CC[C@@H]2[C@@]1(CC[C@H]3[C@H]2[C@@H](CC4=CC(=O)CC[C@]34C)O)C
Method: HCD
Collision_energy: [28.333334]
Isolation_window: 4.0
Ion_mode: N
Num Peaks: 24
73.0285	5.2
116.0496	1.8
122.0601	1.3
123.0806	6.0
171.1021	1.3
211.1333	1.4
263.1646	1.3
269.1297	3.9
293.2117	2.3
294.2165	1.3
311.2225	5.3
312.2265	3.0
343.2646	1.1
359.2807	2.0
369.2434	5.5
370.2469	1.5
385.2622	3.7
386.2690	2.6
387.2542	100.0
388.2574	26.2
389.2703	22.3
405.2644	7.4
406.2681	1.9
407.2796	3.9

Name: 7alpha-Hydroxy-3-oxo-5beta-cholan-24-oic acid
PrecursorMZ: 389.27009
RT: 7.407492647058824
ExactMass: 390.27700969
Spectrum_type: 2
charge: -1
Formula: C24H38O4
SMILES: C[C@H](CCC(=O)O)[C@H]1CC[C@@H]2[C@@]1(CC[C@H]3[C@H]2[C@@H](C[C@H]4[C@@]3(CCC(=O)C4)C)O)C
Method: HCD
Collision_energy: [28.333334]
Isolation_window: 4.0
Ion_mode: N
Num Peaks: 13
59.0129	0.7
96.9591	5.8
327.2694	2.0
343.2642	2.0
345.2799	4.4
346.2828	1.0
353.2491	0.7
363.2907	0.7
389.1882	0.8
389.2702	100.0
390.2734	25.8
391.2159	4.7
391.2851	17.4

Name: 7beta-Hydroxylathyrol
PrecursorMZ: 349.20225
RT: 5.534216666666667
ExactMass: 350.20932405
Spectrum_type: 2
charge: -1
Formula: C20H30O5
SMILES: C[C@H]1C[C@]2([C@H]([C@H]1O)[C@H](C(=C)[C@@H](C[C@H]3[C@H](C3(C)C)/C=C(\C2=O)/C)O)O)O
Method: HCD
Collision_energy: [28.333334]
Isolation_window: 4.0
Ion_mode: N
Num Peaks: 6
305.2126	5.3
349.1663	6.2
349.2020	100.0
350.2055	22.7
351.1807	13.2
351.2174	8.2

Name: Abscisic Acid
PrecursorMZ: 263.12894
RT: 4.6632
ExactMass: 264.13615911
Spectrum_type: 2
charge: -1
Formula: C15H20O4
SMILES: CC1=CC(=O)CC([C@]1(/C=C/C(=C\C(=O)O)/C)O)(C)C
Method: HCD
Collision_energy: [28.333334]
Isolation_window: 4.0
Ion_mode: N
Num Peaks: 23
59.0129	40.6
69.0336	6.6
107.0494	10.2
135.0443	87.3
136.0473	25.3
139.0756	8.9
151.0756	19.6
152.0835	10.6
173.0600	12.4
189.0550	51.3
190.0587	19.1
199.0761	10.8
201.0554	18.3
201.1281	9.6
202.0593	9.9
204.1151	14.1
215.0708	7.5
217.0866	46.8
218.0901	27.2
219.1384	23.4
261.0767	100.0
262.0803	66.2
263.0840	10.7

Name: Acetylhistamine
PrecursorMZ: 152.08225
RT: 0.9237533333333333
ExactMass: 153.090211983
Spectrum_type: 2
charge: -1
Formula: C7H11N3O
SMILES: CC(=O)NCCC1=CN=CN1
Method: HCD
Collision_energy: [28.333334]
Isolation_window: 4.0
Ion_mode: N
Num Peaks: 24
58.0290	1.2
59.0129	0.5
71.0129	0.9
72.9922	0.4
75.0078	1.0
79.9563	1.0
80.9642	4.1
81.0448	2.7
89.0234	0.4
93.0449	0.9
108.0447	0.3
110.0241	0.5
110.0554	0.6
110.0714	100.0
110.0838	0.6
110.0873	0.5
111.0682	0.9
111.0748	5.3
150.0478	0.3
152.0014	1.5
152.0821	11.9
152.9854	3.2
153.0217	2.9
153.0864	0.8

Name: Adenine
PrecursorMZ: 134.0466
RT: 0.935392
ExactMass: 135.05449518
Spectrum_type: 2
charge: -1
Formula: C5H5N5
SMILES: C1=NC2=NC=NC(=C2N1)N
Method: HCD
Collision_energy: [28.333334]
Isolation_window: 4.0
Ion_mode: N
Num Peaks: 11
65.0136	1.8
75.0078	1.8
80.9644	3.1
92.0245	75.4
93.0279	2.0
107.0354	11.8
134.0464	58.5
134.8649	1.6
135.0304	100.0
135.0492	2.6
136.0347	2.8

Name: Adenosine
PrecursorMZ: 266.08872
RT: 0.8957
ExactMass: 267.09675391
Spectrum_type: 2
charge: -1
Formula: C10H13N5O4
SMILES: C1=NC(=C2C(=N1)N(C=N2)[C@H]3[C@@H]([C@@H]([C@H](O3)CO)O)O)N
Method: HCD
Collision_energy: [28.333334]
Isolation_window: 4.0
Ion_mode: N
Num Peaks: 15
59.0129	25.4
71.0129	5.6
72.9922	2.6
83.0128	3.0
89.0234	19.7
100.0394	21.1
101.0234	33.1
112.9845	2.8
118.0501	3.0
119.0340	67.3
120.0375	2.3
142.0501	4.0
184.0011	100.0
220.0822	4.0
267.9638	2.3

Name: Adipic Acid
PrecursorMZ: 145.04991
RT: 2.0429
ExactMass: 146.0579088
Spectrum_type: 2
charge: -1
Formula: C6H10O4
SMILES: C(CCC(=O)O)CC(=O)O
Method: HCD
Collision_energy: [28.333334]
Isolation_window: 4.0
Ion_mode: N
Num Peaks: 3
83.0493	91.1
101.0598	100.0
145.0499	38.5

Name: Afalanine
PrecursorMZ: 206.0815
RT: 3.8181
ExactMass: 207.08954328
Spectrum_type: 2
charge: -1
Formula: C11H13NO3
SMILES: CC(=O)NC(CC1=CC=CC=C1)C(=O)O
Method: HCD
Collision_energy: [28.333334]
Isolation_window: 4.0
Ion_mode: N
Num Peaks: 9
58.0289	10.7
70.0289	6.9
118.9921	33.2
147.0443	14.0
162.9820	100.0
164.0709	50.7
165.0744	5.3
206.0816	22.8
206.9721	30.2

Name: Alisol B
PrecursorMZ: 471.34812
RT: 8.333
ExactMass: 472.35526001
Spectrum_type: 2
charge: -1
Formula: C30H48O4
SMILES: C[C@H](C[C@@H]([C@@H]1C(O1)(C)C)O)C2=C3C[C@@H]([C@H]4[C@]5(CCC(=O)C([C@@H]5CC[C@@]4([C@]3(CC2)C)C)(C)C)C)O
Method: HCD
Collision_energy: [28.333334]
Isolation_window: 4.0
Ion_mode: N
Num Peaks: 10
52.3706	2.1
52.3734	4.5
52.4849	1.3
61.9874	1.8
163.0757	5.5
469.3368	1.6
470.3406	1.9
471.3483	100.0
472.3520	31.0
473.3610	9.0

Name: Allocholic acid
PrecursorMZ: 407.28045
RT: 6.1012
ExactMass: 408.28757437
Spectrum_type: 2
charge: -1
Formula: C24H40O5
SMILES: C[C@H](CCC(=O)O)[C@H]1CC[C@@H]2[C@@]1([C@H](C[C@H]3[C@H]2[C@@H](C[C@@H]4[C@@]3(CC[C@H](C4)O)C)O)O)C
Method: HCD
Collision_energy: [28.333334]
Isolation_window: 4.0
Ion_mode: N
Num Peaks: 12
59.0129	8.2
343.2645	1.3
344.2668	1.3
389.2698	1.7
405.2646	47.0
406.2679	72.0
407.2795	100.0
408.2835	23.3
409.2223	2.8
409.2844	2.3
425.2908	24.5
426.2940	6.7

Name: Alloisoleucine, DL-
PrecursorMZ: 130.08638
RT: 1.2232407407407406
ExactMass: 131.094628657
Spectrum_type: 2
charge: -1
Formula: C6H13NO2
SMILES: CC[C@@H](C)[C@@H](C(=O)O)N
Method: HCD
Collision_energy: [28.333334]
Isolation_window: 4.0
Ion_mode: N
Num Peaks: 6
69.0336	8.4
87.0442	100.0
88.0475	3.2
113.0234	7.7
130.0864	7.3
131.0342	20.6

Name: Aloesin
PrecursorMZ: 393.11825
RT: 2.4772
ExactMass: 394.12638228
Spectrum_type: 2
charge: -1
Formula: C19H22O9
SMILES: CC1=CC(=C(C2=C1C(=O)C=C(O2)CC(=O)C)[C@H]3[C@@H]([C@H]([C@@H]([C@H](O3)CO)O)O)O)O
Method: HCD
Collision_energy: [28.333334]
Isolation_window: 4.0
Ion_mode: N
Num Peaks: 10
72.9921	34.7
73.0284	10.7
201.0911	9.1
231.1386	8.0
245.0810	9.3
275.1278	6.9
319.1181	100.0
320.1218	16.1
393.1192	47.6
394.1209	11.8

Name: Alpha-Aminoadipic Acid
PrecursorMZ: 160.06083
RT: 0.8932117647058824
Spectrum_type: 2
charge: -1
Method: HCD
Collision_energy: [28.333334]
Isolation_window: 4.0
Ion_mode: N
Num Peaks: 13
83.0493	1.5
86.9928	1.2
102.9878	6.8
113.0598	11.9
114.9878	1.5
121.0287	1.4
130.9828	21.2
131.9837	3.0
132.9801	3.0
157.0499	7.7
159.0655	100.0
160.0692	7.8
161.0701	1.2

Name: An inositol
PrecursorMZ: 179.05557
RT: 0.8892
ExactMass: 180.0633881
Spectrum_type: 2
charge: -1
Formula: C6H12O6
SMILES: C1(C(C(C(C(C1O)O)O)O)O)O
Method: HCD
Collision_energy: [28.333334]
Isolation_window: 4.0
Ion_mode: N
Num Peaks: 20
59.0130	52.7
71.0130	40.8
72.9922	6.1
73.0286	19.5
75.0078	24.3
85.0286	10.6
87.0079	11.7
89.0235	60.0
99.0079	5.8
101.0235	15.9
112.9848	6.6
113.0235	6.9
119.0341	26.9
131.0341	7.9
133.0500	4.0
161.0449	34.1
177.0395	3.6
179.0556	100.0
180.0587	6.6
181.0721	3.8

Name: Anacardic Acid
PrecursorMZ: 347.25936
RT: 10.64862105263158
ExactMass: 348.26644501
Spectrum_type: 2
charge: -1
Formula: C22H36O3
SMILES: CCCCCCCCCCCCCCCC1=C(C(=CC=C1)O)C(=O)O
Method: HCD
Collision_energy: [28.333334]
Isolation_window: 4.0
Ion_mode: N
Num Peaks: 6
303.2694	100.0
304.2728	21.3
305.2765	1.8
347.2593	85.6
348.2627	21.5
349.2658	2.2

Name: Andrographolide
PrecursorMZ: 349.20239
RT: 4.8126
ExactMass: 350.20932405
Spectrum_type: 2
charge: -1
Formula: C20H30O5
SMILES: C[C@@]12CC[C@H]([C@@]([C@H]1CCC(=C)[C@H]2C/C=C/3\[C@@H](COC3=O)O)(C)CO)O
Method: HCD
Collision_energy: [28.333334]
Isolation_window: 4.0
Ion_mode: N
Num Peaks: 23
73.0285	15.8
187.1120	4.9
213.1275	3.0
217.1592	6.3
219.1137	8.5
231.1387	6.8
243.1387	15.5
244.1426	2.3
261.1496	17.1
262.1524	3.3
275.1287	7.1
287.1308	3.1
305.1393	31.6
306.1425	5.8
315.1353	5.0
316.1378	3.9
319.1186	14.9
320.1225	2.7
349.1307	88.5
349.2016	100.0
350.1338	18.0
350.2048	19.8
351.1398	2.5

Name: Anthranilic Acid
PrecursorMZ: 136.03977
RT: 3.6943
ExactMass: 137.047678466
Spectrum_type: 2
charge: -1
Formula: C7H7NO2
SMILES: C1=CC=C(C(=C1)C(=O)O)N
Method: HCD
Collision_energy: [28.333334]
Isolation_window: 4.0
Ion_mode: N
Num Peaks: 10
92.0496	100.0
93.0336	5.7
93.0530	7.5
134.0353	4.4
135.0442	5.8
135.9701	9.1
136.0395	19.9
136.0506	6.1
137.0235	6.9
137.0348	6.6

Name: Apigenin
PrecursorMZ: 269.0456
RT: 5.463244444444444
ExactMass: 270.05282342
Spectrum_type: 2
charge: -1
Formula: C15H10O5
SMILES: C1=CC(=CC=C1C2=CC(=O)C3=C(C=C(C=C3O2)O)O)O
Method: HCD
Collision_energy: [28.333334]
Isolation_window: 4.0
Ion_mode: N
Num Peaks: 5
151.0026	1.0
165.0186	36.5
269.0455	100.0
270.0489	15.3
271.0611	38.8

Name: Arachidonic Acid
PrecursorMZ: 303.23295
RT: 9.4766
ExactMass: 304.240230259
Spectrum_type: 2
charge: -1
Formula: C20H32O2
SMILES: CCCCC/C=C\C/C=C\C/C=C\C/C=C\CCCC(=O)O
Method: HCD
Collision_energy: [28.333334]
Isolation_window: 4.0
Ion_mode: N
Num Peaks: 5
59.0130	5.8
259.2430	12.2
303.2330	100.0
304.2364	21.3
305.2479	4.6

Name: Asiatic Acid
PrecursorMZ: 487.34313
RT: 6.6889
ExactMass: 488.35017463
Spectrum_type: 2
charge: -1
Formula: C30H48O5
SMILES: C[C@@H]1CC[C@@]2(CC[C@@]3(C(=CC[C@H]4[C@]3(CC[C@@H]5[C@@]4(C[C@H]([C@@H]([C@@]5(C)CO)O)O)C)C)[C@@H]2[C@H]1C)C)C(=O)O
Method: HCD
Collision_energy: [28.333334]
Isolation_window: 4.0
Ion_mode: N
Num Peaks: 3
486.3325	5.7
487.3435	100.0
488.3469	33.2

Name: Aspirin
PrecursorMZ: 179.03445
RT: 4.3111
ExactMass: 180.04225873
Spectrum_type: 2
charge: -1
Formula: C9H8O4
SMILES: CC(=O)OC1=CC=CC=C1C(=O)O
Method: HCD
Collision_energy: [28.333334]
Isolation_window: 4.0
Ion_mode: N
Num Peaks: 10
90.9972	27.5
92.9928	2.1
109.0400	2.2
134.9872	100.0
135.9906	2.1
136.9828	8.3
178.9772	24.5
179.0344	58.1
180.0379	6.1
180.9727	2.0

Name: Azelaic Acid
PrecursorMZ: 187.097
RT: 3.9924
ExactMass: 188.10485899
Spectrum_type: 2
charge: -1
Formula: C9H16O4
SMILES: C(CCCC(=O)O)CCCC(=O)O
Method: HCD
Collision_energy: [28.333334]
Isolation_window: 4.0
Ion_mode: N
Num Peaks: 4
125.0963	100.0
144.9225	16.9
160.0509	21.0
187.0969	76.7

Name: Benzenepentanoic acid
PrecursorMZ: 177.09153
RT: 6.3208
ExactMass: 178.099379685
Spectrum_type: 2
charge: -1
Formula: C11H14O2
SMILES: C1=CC=C(C=C1)CCCCC(=O)O
Method: HCD
Collision_energy: [28.333334]
Isolation_window: 4.0
Ion_mode: N
Num Peaks: 5
90.9972	14.8
134.9872	57.3
177.0915	100.0
178.0950	12.7
178.9771	14.2

Name: Benzenepropanoic acid
PrecursorMZ: 149.06008
RT: 5.0172
Spectrum_type: 2
charge: -1
Method: HCD
Collision_energy: [28.333334]
Isolation_window: 4.0
Ion_mode: N
Num Peaks: 2
106.9921	73.7
149.0600	100.0

Name: Benzoic Acid
PrecursorMZ: 121.02866
RT: 4.312
ExactMass: 122.03677943
Spectrum_type: 2
charge: -1
Formula: C7H6O2
SMILES: C1=CC=C(C=C1)C(=O)O
Method: HCD
Collision_energy: [28.333334]
Isolation_window: 4.0
Ion_mode: N
Num Peaks: 4
79.0295	36.9
120.0563	100.0
121.0514	45.6
122.0355	88.6

Name: Beta-Leucine
PrecursorMZ: 130.08642
RT: 0.9752
ExactMass: 131.094628657
Spectrum_type: 2
charge: -1
Formula: C6H13NO2
SMILES: CC(C)C(CC(=O)O)N
Method: HCD
Collision_energy: [28.333334]
Isolation_window: 4.0
Ion_mode: N
Num Peaks: 7
65.0136	13.5
85.0285	34.5
87.0441	26.7
89.0136	10.9
130.0404	38.7
130.0864	100.0
131.0353	44.4

Name: Betulinic Acid
PrecursorMZ: 455.35311
RT: 9.2559
ExactMass: 456.36034539
Spectrum_type: 2
charge: -1
Formula: C30H48O3
SMILES: CC(=C)[C@@H]1CC[C@]2([C@H]1[C@H]3CC[C@@H]4[C@]5(CC[C@@H](C([C@@H]5CC[C@]4([C@@]3(CC2)C)C)(C)C)O)C)C(=O)O
Method: HCD
Collision_energy: [28.333334]
Isolation_window: 4.0
Ion_mode: N
Num Peaks: 6
50.5934	1.9
50.5961	4.7
50.7075	1.4
455.3535	100.0
456.3569	31.1
457.3600	3.3

Name: Bicine
PrecursorMZ: 162.07651
RT: 0.8785000000000001
ExactMass: 163.0844579
Spectrum_type: 2
charge: -1
Formula: C6H13NO4
SMILES: C(CO)N(CCO)CC(=O)O
Method: HCD
Collision_energy: [28.333334]
Isolation_window: 4.0
Ion_mode: N
Num Peaks: 12
59.0130	3.1
98.0602	5.7
100.0758	11.1
118.9917	7.1
119.0493	3.5
144.0659	6.8
160.8415	99.0
161.8421	3.2
162.0765	31.6
162.8384	100.0
163.0032	5.6
163.8394	10.0

Name: Biochanin A
PrecursorMZ: 283.0608
RT: 6.890921739130435
ExactMass: 284.06847348
Spectrum_type: 2
charge: -1
Formula: C16H12O5
SMILES: COC1=CC=C(C=C1)C2=COC3=CC(=CC(=C3C2=O)O)O
Method: HCD
Collision_energy: [28.333334]
Isolation_window: 4.0
Ion_mode: N
Num Peaks: 4
268.0375	55.1
269.0407	7.7
283.0609	100.0
284.0644	16.2

Name: Biotin
PrecursorMZ: 243.08096
RT: 3.1867875
ExactMass: 244.08816355
Spectrum_type: 2
charge: -1
Formula: C10H16N2O3S
SMILES: C1[C@H]2[C@@H]([C@@H](S1)CCCCC(=O)O)NC(=O)N2
Method: HCD
Collision_energy: [28.333334]
Isolation_window: 4.0
Ion_mode: N
Num Peaks: 7
156.0849	5.4
166.0868	22.9
197.1293	7.1
200.0748	34.1
241.1196	6.8
243.0809	100.0
244.0835	12.0

Name: Bisdemethoxycurcumin
PrecursorMZ: 307.09802
RT: 5.52775
ExactMass: 308.10485899
Spectrum_type: 2
charge: -1
Formula: C19H16O4
SMILES: C1=CC(=CC=C1/C=C/C(=O)CC(=O)/C=C/C2=CC=C(C=C2)O)O
Method: HCD
Collision_energy: [28.333334]
Isolation_window: 4.0
Ion_mode: N
Num Peaks: 15
99.0077	2.2
119.0494	100.0
120.0528	7.7
136.0523	14.2
143.0495	44.9
144.0528	4.3
149.0601	4.4
187.0396	42.7
188.0428	4.6
209.1536	1.9
261.1861	5.8
291.1964	2.2
305.1761	27.1
306.1794	7.8
307.0984	5.6

Name: C2-Ceramide
PrecursorMZ: 340.28568
RT: 8.5628
ExactMass: 341.29299411
Spectrum_type: 2
charge: -1
Formula: C20H39NO3
SMILES: CCCCCCCCCCCCC/C=C/[C@H]([C@H](CO)NC(=O)C)O
Method: HCD
Collision_energy: [28.333334]
Isolation_window: 4.0
Ion_mode: N
Num Peaks: 7
116.0707	43.4
240.2322	2.9
296.2957	21.3
297.2989	3.6
339.1999	7.5
340.2856	100.0
341.2896	19.8

Name: Caffeic Acid
PrecursorMZ: 179.03448
RT: 2.9918
ExactMass: 180.04225873
Spectrum_type: 2
charge: -1
Formula: C9H8O4
SMILES: C1=CC(=C(C=C1/C=C/C(=O)O)O)O
Method: HCD
Collision_energy: [28.333334]
Isolation_window: 4.0
Ion_mode: N
Num Peaks: 12
93.0337	2.7
135.0444	4.6
136.0394	1.8
137.0237	33.1
137.0595	1.7
138.0271	2.6
151.0394	15.8
152.0426	1.3
179.0344	100.0
180.0379	9.8
181.0136	1.6
181.0522	1.1

Name: Capsaicin
PrecursorMZ: 304.19227
RT: 7.03116
ExactMass: 305.19909372
Spectrum_type: 2
charge: -1
Formula: C18H27NO3
SMILES: CC(C)/C=C/CCCCC(=O)NCC1=CC(=C(C=C1)O)OC
Method: HCD
Collision_energy: [28.333334]
Isolation_window: 4.0
Ion_mode: N
Num Peaks: 3
121.0289	100.0
182.1547	89.5
304.1926	32.4

Name: Carnosol
PrecursorMZ: 329.17592
RT: 7.933373684210526
ExactMass: 330.18310931
Spectrum_type: 2
charge: -1
Formula: C20H26O4
SMILES: CC(C)C1=C(C(=C2C(=C1)[C@@H]3C[C@@H]4[C@@]2(CCCC4(C)C)C(=O)O3)O)O
Method: HCD
Collision_energy: [28.333334]
Isolation_window: 4.0
Ion_mode: N
Num Peaks: 8
285.1206	0.7
285.1860	100.0
285.2521	0.7
286.1894	20.0
287.1916	1.6
299.1654	2.2
329.1758	16.0
330.1791	3.5

Name: Chlorogenic Acid
PrecursorMZ: 353.08792
RT: 2.6135
ExactMass: 354.09508215
Spectrum_type: 2
charge: -1
Formula: C16H18O9
SMILES: C1[C@H]([C@H]([C@@H](C[C@@]1(C(=O)O)O)OC(=O)/C=C/C2=CC(=C(C=C2)O)O)O)O
Method: HCD
Collision_energy: [28.333334]
Isolation_window: 4.0
Ion_mode: N
Num Peaks: 13
88.9871	2.9
173.0451	3.0
191.0554	100.0
192.0588	6.9
205.0499	3.7
233.0452	15.5
352.1057	3.3
353.0888	18.6
353.1329	4.1
353.1973	15.3
354.0920	2.9
354.2024	3.6
355.1046	3.2

Name: Cholenic acid
PrecursorMZ: 419.28018
RT: 7.5339
ExactMass: 374.28209507
Spectrum_type: 2
charge: -1
Formula: C24H38O3
SMILES: C[C@H](CCC(=O)O)[C@H]1CC[C@@H]2[C@@]1(CC[C@H]3[C@H]2CC=C4[C@@]3(CC[C@@H](C4)O)C)C
Method: HCD
Collision_energy: [28.333334]
Isolation_window: 4.0
Ion_mode: N
Num Peaks: 4
149.0601	41.6
372.1722	24.0
419.2801	100.0
420.2826	24.5

Name: Cholic Acid
PrecursorMZ: 407.27898
RT: 6.4984
ExactMass: 408.28757437
Spectrum_type: 2
charge: -1
Formula: C24H40O5
SMILES: C[C@H](CCC(=O)O)[C@H]1CC[C@@H]2[C@@]1([C@H](C[C@H]3[C@H]2[C@@H](C[C@H]4[C@@]3(CC[C@H](C4)O)C)O)O)C
Method: HCD
Collision_energy: [28.333334]
Isolation_window: 4.0
Ion_mode: N
Num Peaks: 9
59.0127	6.5
347.2581	2.5
389.2691	4.2
390.2729	1.2
406.2744	1.0
407.2792	100.0
407.3923	0.8
408.2824	26.5
409.2899	2.6

Name: Chrysoeriol
PrecursorMZ: 299.05638
RT: 5.4331
ExactMass: 300.0633881
Spectrum_type: 2
charge: -1
Formula: C16H12O6
SMILES: COC1=C(C=CC(=C1)C2=CC(=O)C3=C(C=C(C=C3O2)O)O)O
Method: HCD
Collision_energy: [28.333334]
Isolation_window: 4.0
Ion_mode: N
Num Peaks: 9
139.0376	5.3
255.1027	6.9
284.0328	100.0
285.0359	14.0
297.1541	5.6
299.0565	63.1
299.0921	4.8
299.2594	5.4
300.0591	10.4

Name: Cirsimaritin
PrecursorMZ: 313.07205
RT: 6.2335
ExactMass: 314.07903816
Spectrum_type: 2
charge: -1
Formula: C17H14O6
SMILES: COC1=C(C(=C2C(=C1)OC(=CC2=O)C3=CC=C(C=C3)O)O)OC
Method: HCD
Collision_energy: [28.333334]
Isolation_window: 4.0
Ion_mode: N
Num Peaks: 16
149.0602	6.1
163.0395	9.8
164.0470	4.5
269.1549	36.0
270.1581	7.2
283.0246	10.3
297.0398	6.3
298.0479	12.2
311.1313	3.6
311.1689	48.4
311.2213	6.8
312.1724	12.6
313.0722	27.6
313.1445	100.0
314.0751	5.2
314.1478	22.2

Name: Citrulline
PrecursorMZ: 174.08785
RT: 0.8676222222222222
ExactMass: 175.09569129
Spectrum_type: 2
charge: -1
Formula: C6H13N3O3
SMILES: C(C[C@@H](C(=O)O)N)CNC(=O)N
Method: HCD
Collision_energy: [28.333334]
Isolation_window: 4.0
Ion_mode: N
Num Peaks: 10
61.9875	4.0
88.9871	2.7
118.0501	2.7
131.0818	100.0
132.0856	4.8
146.9604	3.7
154.9468	2.8
173.0237	2.9
174.0751	1.7
174.0899	1.2

Name: Coniferaldehyde
PrecursorMZ: 177.05513
RT: 4.2805
ExactMass: 178.062994177
Spectrum_type: 2
charge: -1
Formula: C10H10O3
SMILES: COC1=C(C=CC(=C1)/C=C/C=O)O
Method: HCD
Collision_energy: [28.333334]
Isolation_window: 4.0
Ion_mode: N
Num Peaks: 10
90.9972	28.0
93.0337	4.1
132.9713	4.1
134.0355	4.4
134.9871	100.0
162.0315	71.9
163.0351	7.1
177.0549	16.7
178.9771	22.6
179.0341	4.8

Name: Corosolic Acid
PrecursorMZ: 471.34853
RT: 8.219
ExactMass: 472.35526001
Spectrum_type: 2
charge: -1
Formula: C30H48O4
SMILES: C[C@@H]1CC[C@@]2(CC[C@@]3(C(=CC[C@H]4[C@]3(CC[C@@H]5[C@@]4(C[C@H]([C@@H](C5(C)C)O)O)C)C)[C@@H]2[C@H]1C)C)C(=O)O
Method: HCD
Collision_energy: [28.333334]
Isolation_window: 4.0
Ion_mode: N
Num Peaks: 8
52.3706	1.8
52.3735	4.5
52.4849	1.3
69.2126	1.3
150.0415	7.4
471.3489	100.0
472.3523	30.5
473.3587	4.9

Name: Cortisol
PrecursorMZ: 361.20138
RT: 5.1193
ExactMass: 362.20932405
Spectrum_type: 2
charge: -1
Formula: C21H30O5
SMILES: C[C@]12CCC(=O)C=C1CC[C@@H]3[C@@H]2[C@H](C[C@]4([C@H]3CC[C@@]4(C(=O)CO)O)C)O
Method: HCD
Collision_energy: [28.333334]
Isolation_window: 4.0
Ion_mode: N
Num Peaks: 8
255.1743	14.8
283.1696	4.2
285.1847	61.9
286.1879	13.7
317.2111	8.6
361.2009	100.0
362.2041	21.8
363.2152	6.0

Name: Curcumin
PrecursorMZ: 367.11895
RT: 7.196390909090909
ExactMass: 368.12598835
Spectrum_type: 2
charge: -1
Formula: C21H20O6
SMILES: COC1=C(C=CC(=C1)/C=C/C(=O)CC(=O)/C=C/C2=CC(=C(C=C2)O)OC)O
Method: HCD
Collision_energy: [28.333334]
Isolation_window: 4.0
Ion_mode: N
Num Peaks: 19
134.0365	46.7
149.0601	100.0
150.0632	9.0
158.0364	13.4
173.0602	42.8
174.0633	4.9
202.0263	4.8
217.0501	54.5
218.0539	6.8
280.0205	39.1
281.0245	5.1
282.0172	13.5
297.1531	8.6
334.2024	15.8
365.2321	15.8
366.0571	11.3
366.2299	6.3
367.1189	11.7
367.2319	6.7

Name: Cycloastragenol
PrecursorMZ: 489.35747
RT: 6.8496
ExactMass: 490.36582469
Spectrum_type: 2
charge: -1
Formula: C30H50O5
SMILES: C[C@]12CC[C@@]34C[C@@]35CC[C@@H](C([C@@H]5[C@H](C[C@H]4[C@@]1(C[C@@H]([C@@H]2[C@]6(CC[C@H](O6)C(C)(C)O)C)O)C)O)(C)C)O
Method: HCD
Collision_energy: [28.333334]
Isolation_window: 4.0
Ion_mode: N
Num Peaks: 14
54.3715	2.2
54.3745	4.4
54.4860	1.5
57.0335	23.5
71.0490	12.9
367.2985	1.5
427.3568	15.3
428.3609	4.1
487.3413	4.3
488.3457	9.0
489.3577	100.0
490.3612	31.4
491.3651	1.8
491.3761	8.1

Name: D-Cellobiose
PrecursorMZ: 341.10733
RT: 0.8744
ExactMass: 342.11621151
Spectrum_type: 2
charge: -1
Formula: C12H22O11
SMILES: C([C@@H]1[C@H]([C@@H]([C@H]([C@@H](O1)O[C@@H]2[C@H](O[C@H]([C@@H]([C@H]2O)O)O)CO)O)O)O)O
Method: HCD
Collision_energy: [28.333334]
Isolation_window: 4.0
Ion_mode: N
Num Peaks: 15
59.0127	28.7
69.1159	10.1
71.0126	68.6
73.0282	39.8
83.0125	15.7
89.0231	59.8
97.0281	45.6
101.0230	100.0
113.0230	21.5
115.0387	12.6
119.0336	13.6
143.0335	26.3
161.0441	94.3
179.0547	31.2
221.0651	15.7

Name: D-Glucuronic Acid
PrecursorMZ: 193.03458
RT: 0.8703
ExactMass: 194.04265265
Spectrum_type: 2
charge: -1
Formula: C6H10O7
SMILES: [C@@H]1([C@@H]([C@H](OC([C@@H]1O)O)C(=O)O)O)O
Method: HCD
Collision_energy: [28.333334]
Isolation_window: 4.0
Ion_mode: N
Num Peaks: 11
59.0129	46.5
71.0129	56.8
72.9921	100.0
73.0285	17.3
80.9642	39.7
85.0285	51.4
89.0234	44.3
101.0234	46.5
103.0027	53.1
113.0234	73.5
193.0354	21.6

Name: D-Glutamine
PrecursorMZ: 145.06115
RT: 0.8626272727272727
ExactMass: 146.06914219
Spectrum_type: 2
charge: -1
Formula: C5H10N2O3
SMILES: C(CC(=O)N)[C@H](C(=O)O)N
Method: HCD
Collision_energy: [28.333334]
Isolation_window: 4.0
Ion_mode: N
Num Peaks: 14
74.9610	5.2
84.0445	6.3
85.0285	5.0
88.9871	4.4
92.9588	5.0
101.0711	4.3
102.0551	100.0
109.0398	8.8
125.0345	4.5
127.0504	22.0
128.0344	58.7
145.0610	23.5
145.0974	42.9
146.0451	32.5

Name: D-Gulonic acid
PrecursorMZ: 195.05051
RT: 0.87038
ExactMass: 196.05830272
Spectrum_type: 2
charge: -1
Formula: C6H12O7
SMILES: C([C@H]([C@@H]([C@H]([C@H](C(=O)O)O)O)O)O)O
Method: HCD
Collision_energy: [28.333334]
Isolation_window: 4.0
Ion_mode: N
Num Peaks: 17
59.0129	5.0
61.9874	4.8
71.0129	4.3
72.9922	4.6
75.0078	42.1
85.0286	4.2
87.0078	10.5
89.0234	4.8
96.9591	100.0
98.9549	4.1
99.0078	8.4
129.0185	35.2
152.8943	4.2
159.0290	4.5
177.0400	6.0
195.0505	72.2
196.0534	4.2

Name: D-Mannose
PrecursorMZ: 179.05527
RT: 0.8665
ExactMass: 180.0633881
Spectrum_type: 2
charge: -1
Formula: C6H12O6
SMILES: C([C@@H]1[C@H]([C@@H]([C@@H](C(O1)O)O)O)O)O
Method: HCD
Collision_energy: [28.333334]
Isolation_window: 4.0
Ion_mode: N
Num Peaks: 10
59.0129	88.1
71.0129	100.0
72.9922	14.4
89.0234	87.8
101.0235	23.7
104.0343	19.0
113.0235	18.7
119.0342	15.6
134.9871	49.5
179.0560	26.7

Name: D-Pyroglutamic acid
PrecursorMZ: 128.03434
RT: 0.917375
ExactMass: 129.042593085
Spectrum_type: 2
charge: -1
Formula: C5H7NO3
SMILES: C1CC(=O)N[C@H]1C(=O)O
Method: HCD
Collision_energy: [28.333334]
Isolation_window: 4.0
Ion_mode: N
Num Peaks: 9
82.0288	4.8
85.0286	8.9
85.0398	6.0
103.0028	4.5
128.0344	100.0
128.0708	4.8
129.0380	6.8
130.0402	9.3
130.0864	10.4

Name: D-Ribose
PrecursorMZ: 149.04486
RT: 0.89982
ExactMass: 150.05282342
Spectrum_type: 2
charge: -1
Formula: C5H10O5
SMILES: C1[C@H]([C@H]([C@H](C(O1)O)O)O)O
Method: HCD
Collision_energy: [28.333334]
Isolation_window: 4.0
Ion_mode: N
Num Peaks: 9
59.0130	99.4
71.0129	15.7
73.0286	18.8
75.0078	19.2
85.0285	18.5
89.0235	23.9
101.0235	14.8
131.0342	40.6
149.0448	100.0

Name: D-Tryptophan
PrecursorMZ: 203.08226
RT: 2.3880153846153847
ExactMass: 204.08987763
Spectrum_type: 2
charge: -1
Formula: C11H12N2O2
SMILES: C1=CC=C2C(=C1)C(=CN2)C[C@H](C(=O)O)N
Method: HCD
Collision_energy: [28.333334]
Isolation_window: 4.0
Ion_mode: N
Num Peaks: 15
72.0082	34.5
74.0238	31.5
104.9765	10.1
116.0497	92.3
130.0866	14.3
142.0654	25.7
157.1341	25.8
159.0916	29.6
201.0769	13.2
201.1242	51.4
202.1262	10.9
202.1435	25.4
202.9409	28.0
203.0811	100.0
204.0842	13.2

Name: Decanal
PrecursorMZ: 311.29425
RT: 10.645277777777777
ExactMass: 156.151415257
Spectrum_type: 2
charge: -1
Formula: C10H20O
SMILES: CCCCCCCCCC=O
Method: HCD
Collision_energy: [28.333334]
Isolation_window: 4.0
Ion_mode: N
Num Peaks: 7
183.0105	3.9
309.2786	20.8
310.2823	14.1
311.1675	100.0
311.2942	72.6
312.1709	19.3
312.2975	14.6

Name: Dehydroabietic Acid
PrecursorMZ: 299.20188
RT: 8.9604
ExactMass: 300.208930132
Spectrum_type: 2
charge: -1
Formula: C20H28O2
SMILES: CC(C)C1=CC2=C(C=C1)[C@]3(CCC[C@@]([C@@H]3CC2)(C)C(=O)O)C
Method: HCD
Collision_energy: [28.333334]
Isolation_window: 4.0
Ion_mode: N
Num Peaks: 5
297.2436	17.4
298.2472	7.0
299.2021	100.0
299.2592	8.5
300.2058	20.6

Name: Dehydroascorbic Acid
PrecursorMZ: 173.00869
RT: 0.9190333333333334
ExactMass: 174.01643791
Spectrum_type: 2
charge: -1
Formula: C6H6O6
SMILES: C([C@@H]([C@@H]1C(=O)C(=O)C(=O)O1)O)O
Method: HCD
Collision_energy: [28.333334]
Isolation_window: 4.0
Ion_mode: N
Num Peaks: 35
59.0130	0.9
71.0130	0.6
73.0285	1.2
74.0239	0.7
75.0078	3.2
85.0178	0.8
85.0286	100.0
85.0392	0.6
86.0319	4.4
87.0079	0.9
88.0395	3.3
102.0551	1.0
105.0184	1.1
111.0079	14.9
112.0111	0.7
112.0396	0.6
114.0188	1.0
115.0027	0.7
128.0709	4.8
129.0185	24.2
130.0219	1.4
130.0502	1.6
130.0865	9.8
131.0818	1.9
132.0658	0.6
146.9605	0.8
154.9466	0.6
156.0660	1.0
172.0067	1.0
172.0609	4.5
173.0084	2.4
173.0241	1.1
173.0926	0.9
174.0406	1.8
174.0765	8.2

Name: Dehydroepiandrosterone Sulfate
PrecursorMZ: 367.15737
RT: 5.357438461538462
ExactMass: 368.16574516
Spectrum_type: 2
charge: -1
Formula: C19H28O5S
SMILES: C[C@]12CC[C@H]3[C@H]([C@@H]1CCC2=O)CC=C4[C@@]3(CC[C@@H](C4)OS(=O)(=O)O)C
Method: HCD
Collision_energy: [28.333334]
Isolation_window: 4.0
Ion_mode: N
Num Peaks: 4
96.9588	59.2
367.1573	100.0
368.1601	22.2
369.1733	30.6

Name: Demethoxycurcumin
PrecursorMZ: 337.10843
RT: 7.14145
ExactMass: 338.11542367
Spectrum_type: 2
charge: -1
Formula: C20H18O5
SMILES: COC1=C(C=CC(=C1)/C=C/C(=O)CC(=O)/C=C/C2=CC=C(C=C2)O)O
Method: HCD
Collision_energy: [28.333334]
Isolation_window: 4.0
Ion_mode: N
Num Peaks: 14
207.1389	3.0
233.0818	5.7
282.0532	6.0
314.0434	16.6
315.0463	3.1
335.2231	8.2
336.2235	2.4
337.1084	100.0
337.1812	2.0
337.2382	7.8
338.1118	21.6
338.2427	1.7
339.1238	10.8
339.1998	28.3

Name: Deoxyandrographolide
PrecursorMZ: 333.20602
RT: 6.0342
ExactMass: 334.21440943
Spectrum_type: 2
charge: -1
Formula: C20H30O4
SMILES: C[C@@]12CC[C@H]([C@@]([C@H]1CCC(=C)[C@H]2CCC3=CCOC3=O)(C)CO)O
Method: HCD
Collision_energy: [28.333334]
Isolation_window: 4.0
Ion_mode: N
Num Peaks: 5
207.1386	3.2
333.1729	2.9
333.2060	100.0
334.2093	21.2
335.1814	3.0

Name: Deoxycholic Acid
PrecursorMZ: 391.28603
RT: 7.289379411764706
ExactMass: 392.29265975
Spectrum_type: 2
charge: -1
Formula: C24H40O4
SMILES: C[C@H](CCC(=O)O)[C@H]1CC[C@@H]2[C@@]1([C@H](C[C@H]3[C@H]2CC[C@H]4[C@@]3(CC[C@H](C4)O)C)O)C
Method: HCD
Collision_energy: [28.333334]
Isolation_window: 4.0
Ion_mode: N
Num Peaks: 2
391.2862	100.0
392.2896	25.9

Name: Deoxyinosine
PrecursorMZ: 251.07817
RT: 0.9365
ExactMass: 252.08585488
Spectrum_type: 2
charge: -1
Formula: C10H12N4O4
SMILES: C1[C@@H]([C@H](O[C@H]1N2C=NC3=C2N=CNC3=O)CO)O
Method: HCD
Collision_energy: [28.333334]
Isolation_window: 4.0
Ion_mode: N
Num Peaks: 6
89.0233	3.4
135.0304	100.0
136.0344	4.1
161.0462	10.5
251.0785	99.1
252.0814	11.1

Name: Didymin
PrecursorMZ: 593.18862
RT: 4.998875
ExactMass: 594.19485575
Spectrum_type: 2
charge: -1
Formula: C28H34O14
SMILES: C[C@H]1[C@@H]([C@H]([C@H]([C@@H](O1)OC[C@@H]2[C@H]([C@@H]([C@H]([C@@H](O2)OC3=CC(=C4C(=O)C[C@H](OC4=C3)C5=CC=C(C=C5)OC)O)O)O)O)O)O)O
Method: HCD
Collision_energy: [28.333334]
Isolation_window: 4.0
Ion_mode: N
Num Peaks: 17
65.9120	1.0
151.0030	1.7
164.0111	1.7
196.0010	1.5
241.0873	2.0
243.0671	1.3
270.0538	2.7
285.0773	100.0
286.0806	14.6
287.0835	1.4
299.0926	1.5
309.0773	5.7
310.0803	1.1
327.0879	3.3
593.1889	24.2
594.1921	6.3
595.1930	1.2

Name: Dihydrocapsaicin
PrecursorMZ: 306.20803
RT: 7.39200625
ExactMass: 307.21474379
Spectrum_type: 2
charge: -1
Formula: C18H29NO3
SMILES: CC(C)CCCCCCC(=O)NCC1=CC(=C(C=C1)O)OC
Method: HCD
Collision_energy: [28.333334]
Isolation_window: 4.0
Ion_mode: N
Num Peaks: 5
121.0289	54.5
184.1705	100.0
185.1739	10.7
228.1606	10.9
306.2081	22.0

Name: Dihydrokaempferol
PrecursorMZ: 287.05638
RT: 4.7522
ExactMass: 288.0633881
Spectrum_type: 2
charge: -1
Formula: C15H12O6
SMILES: C1=CC(=CC=C1[C@@H]2[C@H](C(=O)C3=C(C=C(C=C3O2)O)O)O)O
Method: HCD
Collision_energy: [28.333334]
Isolation_window: 4.0
Ion_mode: N
Num Peaks: 10
108.0208	1.7
122.0367	2.1
165.0187	31.4
166.0222	2.3
287.0583	14.8
287.0961	1.3
287.1290	100.0
288.0616	2.2
288.1324	18.2
289.1355	1.2

Name: Diosmetin
PrecursorMZ: 299.05639
RT: 5.598416666666667
ExactMass: 300.0633881
Spectrum_type: 2
charge: -1
Formula: C16H12O6
SMILES: COC1=C(C=C(C=C1)C2=CC(=O)C3=C(C=C(C=C3O2)O)O)O
Method: HCD
Collision_energy: [28.333334]
Isolation_window: 4.0
Ion_mode: N
Num Peaks: 11
149.0603	6.0
165.0010	5.7
284.0328	100.0
285.0362	16.2
297.1532	6.6
299.0565	84.4
299.1257	10.6
299.2589	6.3
300.0594	14.6
301.0168	8.0
301.1445	16.8

Name: Dl-Tryptophan
PrecursorMZ: 203.08206
RT: 2.3254642857142858
ExactMass: 204.08987763
Spectrum_type: 2
charge: -1
Formula: C11H12N2O2
SMILES: C1=CC=C2C(=C1)C(=CN2)CC(C(=O)O)N
Method: HCD
Collision_energy: [28.333334]
Isolation_window: 4.0
Ion_mode: N
Num Peaks: 10
72.0081	31.3
74.0238	27.7
104.9764	14.3
116.0496	82.1
130.0864	12.9
142.0654	23.4
159.0921	24.2
202.9409	45.9
203.0819	100.0
204.0852	12.2

Name: Doconexent
PrecursorMZ: 327.23348
RT: 9.628
ExactMass: 328.240230259
Spectrum_type: 2
charge: -1
Formula: C22H32O2
SMILES: CC/C=C\C/C=C\C/C=C\C/C=C\C/C=C\C/C=C\CCC(=O)O
Method: HCD
Collision_energy: [28.333334]
Isolation_window: 4.0
Ion_mode: N
Num Peaks: 4
283.2432	50.1
325.1847	51.8
326.1891	41.3
327.2332	100.0

Name: Dodecanedioic Acid
PrecursorMZ: 229.1443
RT: 5.6342
ExactMass: 230.15180918
Spectrum_type: 2
charge: -1
Formula: C12H22O4
SMILES: C(CCCCCC(=O)O)CCCCC(=O)O
Method: HCD
Collision_energy: [28.333334]
Isolation_window: 4.0
Ion_mode: N
Num Peaks: 12
59.0129	56.2
129.0548	100.0
130.0865	31.7
138.9639	22.5
167.1433	19.9
182.9540	90.4
184.9500	19.1
210.9491	24.8
211.1333	40.8
228.1597	14.1
228.9595	18.7
229.1441	31.1

Name: Dorzagliatin
PrecursorMZ: 461.15953
RT: 6.562
ExactMass: 462.1669977
Spectrum_type: 2
charge: -1
Formula: C22H27ClN4O5
SMILES: CC(C)C[C@@H](C(=O)NC1=NN(C=C1)C[C@H](CO)O)N2CC(=CC2=O)OC3=CC=CC=C3Cl
Method: HCD
Collision_energy: [28.333334]
Isolation_window: 4.0
Ion_mode: N
Num Peaks: 7
109.0284	29.5
269.1177	25.8
311.1280	15.1
313.1073	35.7
355.1183	15.9
461.1596	100.0
462.1633	31.2

Name: Eicosanoic Acid
PrecursorMZ: 311.29555
RT: 10.88596923076923
ExactMass: 312.302830514
Spectrum_type: 2
charge: -1
Formula: C20H40O2
SMILES: CCCCCCCCCCCCCCCCCCCC(=O)O
Method: HCD
Collision_energy: [28.333334]
Isolation_window: 4.0
Ion_mode: N
Num Peaks: 6
91.0210	1.3
309.3164	1.0
311.1723	2.3
311.2954	100.0
312.2988	22.2
313.3031	1.3

Name: Elaidic Acid
PrecursorMZ: 281.2487
RT: 9.9591
ExactMass: 282.255880323
Spectrum_type: 2
charge: -1
Formula: C18H34O2
SMILES: CCCCCCCC/C=C/CCCCCCCC(=O)O
Method: HCD
Collision_energy: [28.333334]
Isolation_window: 4.0
Ion_mode: N
Num Peaks: 2
281.2485	100.0
282.2517	20.3

Name: Embelin
PrecursorMZ: 587.35831
RT: 6.655705714285714
ExactMass: 294.18310931
Spectrum_type: 2
charge: -1
Formula: C17H26O4
SMILES: CCCCCCCCCCCC1=C(C(=O)C=C(C1=O)O)O
Method: HCD
Collision_energy: [28.333334]
Isolation_window: 4.0
Ion_mode: N
Num Peaks: 7
97.4656	8.2
220.1459	19.5
221.1540	69.7
236.1048	92.7
237.1090	11.5
293.1755	100.0
294.1786	15.0

Name: Emodin
PrecursorMZ: 269.0444
RT: 7.5523
ExactMass: 270.05282342
Spectrum_type: 2
charge: -1
Formula: C15H10O5
SMILES: CC1=CC2=C(C(=C1)O)C(=O)C3=C(C2=O)C=C(C=C3O)O
Method: HCD
Collision_energy: [28.333334]
Isolation_window: 4.0
Ion_mode: N
Num Peaks: 6
225.0545	3.2
256.0366	5.8
269.0445	100.0
269.2113	4.2
270.0481	15.5
271.0603	12.4

Name: Epigallocatechin
PrecursorMZ: 305.06642
RT: 0.8861
ExactMass: 306.07395278
Spectrum_type: 2
charge: -1
Formula: C15H14O7
SMILES: C1[C@H]([C@H](OC2=CC(=CC(=C21)O)O)C3=CC(=C(C(=C3)O)O)O)O
Method: HCD
Collision_energy: [28.333334]
Isolation_window: 4.0
Ion_mode: N
Num Peaks: 12
129.0194	28.1
130.0158	94.5
131.0121	100.0
174.0231	53.9
174.0421	91.7
175.0193	46.6
175.0385	99.8
217.0335	33.6
218.0299	77.6
219.0261	46.3
287.0618	29.7
288.0573	39.7

Name: Erucic Acid
PrecursorMZ: 337.31082
RT: 10.9512
ExactMass: 338.318480578
Spectrum_type: 2
charge: -1
Formula: C22H42O2
SMILES: CCCCCCCC/C=C\CCCCCCCCCCCC(=O)O
Method: HCD
Collision_energy: [28.333334]
Isolation_window: 4.0
Ion_mode: N
Num Peaks: 3
337.3112	100.0
338.3144	22.4
339.2000	16.1

Name: Esculetin
PrecursorMZ: 177.01872
RT: 2.8693
ExactMass: 178.02660867
Spectrum_type: 2
charge: -1
Formula: C9H6O4
SMILES: C1=CC(=O)OC2=CC(=C(C=C21)O)O
Method: HCD
Collision_energy: [28.333334]
Isolation_window: 4.0
Ion_mode: N
Num Peaks: 27
65.9975	5.1
85.0286	14.8
85.0649	10.6
89.0387	10.1
90.9972	15.6
101.0599	17.9
105.0449	6.3
106.0405	4.4
113.0599	35.3
129.0549	38.4
131.0705	26.8
132.9715	7.1
133.0287	45.8
134.0340	6.8
134.9871	61.5
135.0080	38.2
135.0443	12.4
146.9605	18.4
148.0506	6.8
151.0028	11.5
175.0969	90.5
176.1004	11.2
176.9613	4.5
177.0187	100.0
178.0222	9.4
178.9771	15.0
179.0350	5.2

Name: Ethopabate
PrecursorMZ: 236.09225
RT: 4.9941
ExactMass: 237.10010796
Spectrum_type: 2
charge: -1
Formula: C12H15NO4
SMILES: CCOC1=C(C=CC(=C1)NC(=O)C)C(=O)OC
Method: HCD
Collision_energy: [28.333334]
Isolation_window: 4.0
Ion_mode: N
Num Peaks: 13
63.9616	11.2
79.9563	9.0
93.0336	22.5
116.0530	5.3
116.0708	5.2
130.0417	6.6
131.0494	12.3
145.0285	4.0
188.1115	3.7
192.1024	100.0
193.1061	10.0
236.0933	69.4
237.0928	26.6

Name: Ethylmalonic acid
PrecursorMZ: 131.03434
RT: 2.1096
ExactMass: 132.04225873
Spectrum_type: 2
charge: -1
Formula: C5H8O4
SMILES: CCC(C(=O)O)C(=O)O
Method: HCD
Collision_energy: [28.333334]
Isolation_window: 4.0
Ion_mode: N
Num Peaks: 4
59.0130	19.7
87.0442	100.0
130.0404	35.8
131.0349	44.0

Name: Ferulic Acid
PrecursorMZ: 193.05007
RT: 3.8657
ExactMass: 194.0579088
Spectrum_type: 2
charge: -1
Formula: C10H10O4
SMILES: COC1=C(C=CC(=C1)/C=C/C(=O)O)O
Method: HCD
Collision_energy: [28.333334]
Isolation_window: 4.0
Ion_mode: N
Num Peaks: 11
123.0078	14.2
124.0156	13.0
134.0364	84.6
137.0234	9.9
149.0601	38.5
151.1121	25.0
178.0262	27.3
193.0500	92.4
194.0541	11.3
195.0292	100.0
195.1016	10.0

Name: Feruloyltyramine
PrecursorMZ: 312.12422
RT: 4.83535625
ExactMass: 313.13140809
Spectrum_type: 2
charge: -1
Formula: C18H19NO4
SMILES: COC1=C(C=CC(=C1)/C=C/C(=O)NCCC2=CC=C(C=C2)O)O
Method: HCD
Collision_energy: [28.333334]
Isolation_window: 4.0
Ion_mode: N
Num Peaks: 19
81.0336	4.5
119.0495	10.6
121.0651	11.4
122.0363	2.4
123.0443	100.0
124.0476	4.7
135.0445	5.3
147.0445	23.7
148.0523	17.6
165.0550	8.4
178.0504	14.2
189.0553	5.5
190.0498	4.3
269.1184	6.5
297.1006	8.5
311.0925	2.6
312.1243	39.1
313.1072	82.6
314.1104	11.0

Name: Formononetin
PrecursorMZ: 267.06636
RT: 6.081414285714286
ExactMass: 268.07355886
Spectrum_type: 2
charge: -1
Formula: C16H12O4
SMILES: COC1=CC=C(C=C1)C2=COC3=C(C2=O)C=CC(=C3)O
Method: HCD
Collision_energy: [28.333334]
Isolation_window: 4.0
Ion_mode: N
Num Peaks: 7
252.0428	62.3
253.0462	9.9
265.1507	1.1
267.0663	100.0
268.0697	16.6
269.0735	1.5
269.1209	3.0

Name: Galactitol
PrecursorMZ: 181.07117
RT: 0.8681
ExactMass: 182.07903816
Spectrum_type: 2
charge: -1
Formula: C6H14O6
SMILES: C([C@H]([C@@H]([C@@H]([C@H](CO)O)O)O)O)O
Method: HCD
Collision_energy: [28.333334]
Isolation_window: 4.0
Ion_mode: N
Num Peaks: 3
61.9874	100.0
139.0190	90.2
181.0716	92.0

Name: Galacturonic Acid
PrecursorMZ: 193.03477
RT: 0.8913
ExactMass: 194.04265265
Spectrum_type: 2
charge: -1
Formula: C6H10O7
SMILES: C(=O)[C@@H]([C@H]([C@H]([C@@H](C(=O)O)O)O)O)O
Method: HCD
Collision_energy: [28.333334]
Isolation_window: 4.0
Ion_mode: N
Num Peaks: 9
61.9875	37.1
75.0078	49.2
85.0285	31.9
87.0078	42.4
102.9478	66.5
111.0078	100.0
146.9862	24.8
148.9836	50.9
149.0021	33.5

Name: Gallocatechin
PrecursorMZ: 305.06978
RT: 0.9997
ExactMass: 306.07395278
Spectrum_type: 2
charge: -1
Formula: C15H14O7
SMILES: C1[C@@H]([C@H](OC2=CC(=CC(=C21)O)O)C3=CC(=C(C(=C3)O)O)O)O
Method: HCD
Collision_energy: [28.333334]
Isolation_window: 4.0
Ion_mode: N
Num Peaks: 12
59.0129	23.3
87.0078	2.3
96.9591	77.1
130.0865	2.3
225.1128	36.5
226.1165	5.0
227.1292	2.2
303.1461	3.3
305.0698	100.0
305.1580	2.5
306.0727	13.2
307.0845	5.6

Name: Gamma-Aminobutyric Acid
PrecursorMZ: 148.06065
RT: 0.8454
ExactMass: 103.06332853
Spectrum_type: 2
charge: -1
Formula: C4H9NO2
SMILES: C(CC(=O)O)CN
Method: HCD
Collision_energy: [28.333334]
Isolation_window: 4.0
Ion_mode: N
Num Peaks: 4
98.0239	51.3
118.0501	100.0
120.9541	23.9
148.0608	37.5

Name: Ginkgolic acid II
PrecursorMZ: 373.27349
RT: 10.7445
ExactMass: 374.28209507
Spectrum_type: 2
charge: -1
Formula: C24H38O3
SMILES: CCCCCC/C=C\CCCCCCCCCC1=C(C(=CC=C1)O)C(=O)O
Method: HCD
Collision_energy: [28.333334]
Isolation_window: 4.0
Ion_mode: N
Num Peaks: 4
68.9998	5.8
145.0281	10.2
373.2736	100.0
374.2772	22.6

Name: Ginkgolide A
PrecursorMZ: 407.13505
RT: 5.2193249999999995
ExactMass: 408.14203234
Spectrum_type: 2
charge: -1
Formula: C20H24O9
SMILES: C[C@@H]1C(=O)O[C@@H]2[C@]1([C@@]34C(=O)O[C@H]5[C@]3(C2)[C@@]6([C@@H](C5)C(C)(C)C)[C@H](C(=O)O[C@H]6O4)O)O
Method: HCD
Collision_energy: [28.333334]
Isolation_window: 4.0
Ion_mode: N
Num Peaks: 6
61.9875	75.0
149.0600	10.8
165.0550	55.8
195.0657	100.0
196.0689	9.8
361.1298	17.4

Name: Ginsenoside Rh3
PrecursorMZ: 603.4281
RT: 8.971775
ExactMass: 604.43390425
Spectrum_type: 2
charge: -1
Formula: C36H60O7
SMILES: CC(=CC/C=C(/C)\[C@H]1CC[C@@]2([C@@H]1[C@@H](C[C@H]3[C@]2(CC[C@@H]4[C@@]3(CC[C@@H](C4(C)C)O[C@H]5[C@@H]([C@H]([C@@H]([C@H](O5)CO)O)O)O)C)C)O)C)C
Method: HCD
Collision_energy: [28.333334]
Isolation_window: 4.0
Ion_mode: N
Num Peaks: 23
67.0456	2.2
67.0497	4.2
73.0398	4.4
119.0494	4.6
162.0553	13.8
185.1077	12.8
202.1344	57.2
203.1375	6.3
228.1141	2.1
254.2485	2.5
259.1564	12.2
294.2437	4.0
311.2702	11.8
348.1713	3.5
365.1984	8.0
366.2016	1.9
400.2862	3.5
417.3104	2.6
497.3863	28.1
498.3899	8.6
603.4282	100.0
604.4314	36.9
605.4349	5.6

Name: Glabridin
PrecursorMZ: 323.12753
RT: 7.6667
ExactMass: 324.13615911
Spectrum_type: 2
charge: -1
Formula: C20H20O4
SMILES: CC1(C=CC2=C(O1)C=CC3=C2OC[C@H](C3)C4=C(C=C(C=C4)O)O)C
Method: HCD
Collision_energy: [28.333334]
Isolation_window: 4.0
Ion_mode: N
Num Peaks: 8
135.0075	28.9
153.0181	27.0
187.1115	55.0
323.1278	56.4
323.1675	15.3
324.1310	10.0
325.0314	7.7
325.1827	100.0

Name: Glycitein
PrecursorMZ: 283.06149
RT: 4.83940625
ExactMass: 284.06847348
Spectrum_type: 2
charge: -1
Formula: C16H12O5
SMILES: COC1=C(C=C2C(=C1)C(=O)C(=CO2)C3=CC=C(C=C3)O)O
Method: HCD
Collision_energy: [28.333334]
Isolation_window: 4.0
Ion_mode: N
Num Peaks: 7
253.1447	15.9
268.0382	15.1
283.0616	100.0
283.1552	24.5
284.0654	22.3
284.1575	4.3
285.1711	42.3

Name: Glycocholic Acid
PrecursorMZ: 464.3019
RT: 5.70776
ExactMass: 465.30903809
Spectrum_type: 2
charge: -1
Formula: C26H43NO6
SMILES: C[C@H](CCC(=O)NCC(=O)O)[C@H]1CC[C@@H]2[C@@]1([C@H](C[C@H]3[C@H]2[C@@H](C[C@H]4[C@@]3(CC[C@H](C4)O)C)O)O)C
Method: HCD
Collision_energy: [28.333334]
Isolation_window: 4.0
Ion_mode: N
Num Peaks: 8
51.5905	4.1
74.0238	28.0
75.0078	4.5
89.0233	5.1
463.3084	13.3
464.3022	100.0
465.3155	46.3
466.3234	7.9

Name: Glycodeoxycholic Acid
PrecursorMZ: 448.3053
RT: 6.519995238095238
ExactMass: 449.31412347
Spectrum_type: 2
charge: -1
Formula: C26H43NO5
SMILES: C[C@H](CCC(=O)NCC(=O)O)[C@H]1CC[C@@H]2[C@@]1([C@H](C[C@H]3[C@H]2CC[C@H]4[C@@]3(CC[C@H](C4)O)C)O)C
Method: HCD
Collision_energy: [28.333334]
Isolation_window: 4.0
Ion_mode: N
Num Peaks: 4
69.2700	6.7
74.0236	39.1
448.3058	100.0
449.3086	25.9

Name: Glycyl-L-leucine
PrecursorMZ: 187.10826
RT: 1.90120625
ExactMass: 188.11609238
Spectrum_type: 2
charge: -1
Formula: C8H16N2O3
SMILES: CC(C)C[C@@H](C(=O)O)NC(=O)CN
Method: HCD
Collision_energy: [28.333334]
Isolation_window: 4.0
Ion_mode: N
Num Peaks: 23
59.0130	8.6
73.0398	12.5
87.0079	6.0
88.0395	8.3
97.0648	7.1
99.0444	10.3
99.0806	19.8
109.0649	5.9
125.0601	8.0
127.0756	100.0
130.0865	39.3
143.0705	16.3
143.1182	26.9
144.9219	6.2
145.0863	14.9
169.0862	10.1
171.0656	24.4
186.0762	10.1
187.0607	51.4
187.0962	18.3
187.1084	43.9
188.0907	7.7
189.0763	70.3

Name: Glycyrrhetinic Acid
PrecursorMZ: 469.33085
RT: 8.1586
ExactMass: 470.33960994
Spectrum_type: 2
charge: -1
Formula: C30H46O4
SMILES: C[C@]12CC[C@](C[C@H]1C3=CC(=O)[C@@H]4[C@]5(CC[C@@H](C([C@@H]5CC[C@]4([C@@]3(CC2)C)C)(C)C)O)C)(C)C(=O)O
Method: HCD
Collision_energy: [28.333334]
Isolation_window: 4.0
Ion_mode: N
Num Peaks: 45
52.0297	0.2
52.0325	0.5
52.1464	0.7
52.1492	1.6
52.2607	0.5
52.3704	1.9
52.3732	4.6
52.3755	0.3
61.9872	0.4
69.2456	0.2
78.9578	5.6
152.9946	6.8
153.9980	1.1
154.9987	0.4
227.0316	0.3
239.2367	0.2
240.2403	0.3
241.2165	1.6
242.2191	0.2
248.0790	0.4
325.1832	1.5
376.2328	0.2
393.2407	0.3
394.2433	0.9
409.3093	0.2
423.3258	5.8
424.3293	1.9
425.3405	0.4
453.3369	2.4
467.2763	1.7
468.2800	11.4
469.2813	1.5
469.3316	34.2
469.4707	0.3
470.2777	0.3
470.3348	11.2
471.1220	0.2
471.1675	0.2
471.2072	0.8
471.2382	0.6
471.2935	0.6
471.3467	100.0
471.4587	0.5
471.4869	0.7
471.5278	0.2

Name: Glyoxylic Acid
PrecursorMZ: 118.99763
RT: 0.94555
ExactMass: 74.000393922
Spectrum_type: 2
charge: -1
Formula: C2H2O3
SMILES: C(=O)C(=O)O
Method: HCD
Collision_energy: [28.333334]
Isolation_window: 4.0
Ion_mode: N
Num Peaks: 1
72.9925	100.0

Name: Gnf-2
PrecursorMZ: 373.09126
RT: 6.0564
ExactMass: 374.09906016
Spectrum_type: 2
charge: -1
Formula: C18H13F3N4O2
SMILES: C1=CC(=CC(=C1)C(=O)N)C2=CC(=NC=N2)NC3=CC=C(C=C3)OC(F)(F)F
Method: HCD
Collision_energy: [28.333334]
Isolation_window: 4.0
Ion_mode: N
Num Peaks: 10
112.0153	15.3
147.0803	31.2
160.8409	21.8
162.8380	22.1
171.0288	14.6
175.0750	60.6
211.0386	31.3
373.0205	12.7
373.0916	100.0
374.0952	20.2

Name: Guanosine
PrecursorMZ: 282.08305
RT: 1.1266333333333334
ExactMass: 283.09166853
Spectrum_type: 2
charge: -1
Formula: C10H13N5O5
SMILES: C1=NC2=C(N1[C@H]3[C@@H]([C@@H]([C@H](O3)CO)O)O)N=C(NC2=O)N
Method: HCD
Collision_energy: [28.333334]
Isolation_window: 4.0
Ion_mode: N
Num Peaks: 13
88.9867	2.1
133.0141	6.2
135.0299	1.8
150.0408	100.0
151.0248	90.5
151.0427	4.7
152.0291	3.0
237.0866	1.9
281.0882	2.8
282.0833	36.3
282.9878	6.0
283.0660	33.0
284.0692	2.8

Name: Hesperidin
PrecursorMZ: 609.18273
RT: 4.244982352941177
ExactMass: 610.18977037
Spectrum_type: 2
charge: -1
Formula: C28H34O15
SMILES: C[C@H]1[C@@H]([C@H]([C@H]([C@@H](O1)OC[C@@H]2[C@H]([C@@H]([C@H]([C@@H](O2)OC3=CC(=C4C(=O)C[C@H](OC4=C3)C5=CC(=C(C=C5)OC)O)O)O)O)O)O)O)O
Method: HCD
Collision_energy: [28.333334]
Isolation_window: 4.0
Ion_mode: N
Num Peaks: 15
125.0236	3.1
151.0029	2.1
164.0105	1.5
196.0004	1.6
242.0581	3.9
257.0820	2.8
258.0530	1.4
283.0613	1.8
286.0480	8.2
301.0715	100.0
302.0749	15.5
325.0716	6.8
343.0826	2.9
609.1823	28.9
610.1857	8.3

Name: Hexadecanedioic acid
PrecursorMZ: 285.20702
RT: 7.6458
ExactMass: 286.21440943
Spectrum_type: 2
charge: -1
Formula: C16H30O4
SMILES: C(CCCCCCCC(=O)O)CCCCCCC(=O)O
Method: HCD
Collision_energy: [28.333334]
Isolation_window: 4.0
Ion_mode: N
Num Peaks: 2
267.1964	100.0
268.2002	16.4

Name: Hydroxycaprylic Acid
PrecursorMZ: 159.10192
RT: 5.092884615384615
ExactMass: 160.109944368
Spectrum_type: 2
charge: -1
Formula: C8H16O3
SMILES: CCCCCCC(C(=O)O)O
Method: HCD
Collision_energy: [28.333334]
Isolation_window: 4.0
Ion_mode: N
Num Peaks: 9
113.0600	12.8
113.0962	54.2
130.9827	11.9
132.0557	8.1
133.0510	6.2
157.0504	13.5
159.0656	100.0
159.1018	60.5
160.0692	7.7

Name: Indole-3-Acetic Acid
PrecursorMZ: 174.05553
RT: 4.6256
ExactMass: 175.06332853
Spectrum_type: 2
charge: -1
Formula: C10H9NO2
SMILES: C1=CC=C2C(=C1)C(=CN2)CC(=O)O
Method: HCD
Collision_energy: [28.333334]
Isolation_window: 4.0
Ion_mode: N
Num Peaks: 8
65.0137	5.5
146.9605	24.7
148.0507	8.2
159.0319	100.0
160.0355	9.4
173.0235	11.0
174.0553	38.4
175.0602	6.6

Name: Indole-3-Carboxaldehyde
PrecursorMZ: 144.04483
RT: 4.27283
ExactMass: 145.052763847
Spectrum_type: 2
charge: -1
Formula: C9H7NO
SMILES: C1=CC=C2C(=C1)C(=CN2)C=O
Method: HCD
Collision_energy: [28.333334]
Isolation_window: 4.0
Ion_mode: N
Num Peaks: 8
116.0498	0.8
118.0403	1.3
144.0209	0.8
144.0265	0.5
144.0448	100.0
144.0636	0.5
144.0684	0.7
145.0483	11.3

Name: Indole-3-Carboxylic Acid
PrecursorMZ: 160.03984
RT: 4.0472
ExactMass: 161.047678466
Spectrum_type: 2
charge: -1
Formula: C9H7NO2
SMILES: C1=CC=C2C(=C1)C(=CN2)C(=O)O
Method: HCD
Collision_energy: [28.333334]
Isolation_window: 4.0
Ion_mode: N
Num Peaks: 15
65.0136	3.0
91.0293	3.4
106.0402	2.7
116.0498	100.0
117.0531	7.3
118.0402	2.2
130.9829	4.9
132.0558	2.7
133.0400	3.0
133.0512	3.2
134.0350	3.4
159.0666	4.7
160.0398	18.5
160.8416	3.0
161.0455	2.6

Name: Indole-3-pyruvic acid
PrecursorMZ: 202.05055
RT: 5.2184
ExactMass: 203.058243149
Spectrum_type: 2
charge: -1
Formula: C11H9NO3
SMILES: C1=CC=C2C(=C1)C(=CN2)CC(=O)C(=O)O
Method: HCD
Collision_energy: [28.333334]
Isolation_window: 4.0
Ion_mode: N
Num Peaks: 10
131.0367	3.2
139.1120	3.5
142.0291	6.4
144.0447	3.1
159.0320	5.2
174.0552	23.2
175.0608	3.2
201.1128	5.6
202.0505	100.0
203.0540	11.8

Name: Indoleacrylic acid
PrecursorMZ: 186.05554
RT: 5.0649750000000004
ExactMass: 187.06332853
Spectrum_type: 2
charge: -1
Formula: C11H9NO2
SMILES: C1=CC=C2C(=C1)C=C(N2)/C=C/C(=O)O
Method: HCD
Collision_energy: [28.333334]
Isolation_window: 4.0
Ion_mode: N
Num Peaks: 12
61.9875	4.3
99.9248	6.8
99.9481	6.4
125.0964	4.0
141.8673	6.8
143.9380	3.9
144.0448	30.4
158.0604	13.7
159.8783	3.9
186.0555	100.0
187.0593	13.9
187.0972	4.0

Name: Ingenol
PrecursorMZ: 347.18676
RT: 5.259
ExactMass: 348.19367399
Spectrum_type: 2
charge: -1
Formula: C20H28O5
SMILES: C[C@@H]1C[C@@H]2[C@@H](C2(C)C)[C@@H]3C=C([C@H]([C@]4([C@@]1(C3=O)C=C([C@@H]4O)C)O)O)CO
Method: HCD
Collision_energy: [28.333334]
Isolation_window: 4.0
Ion_mode: N
Num Peaks: 5
183.0655	4.5
189.1280	5.9
285.1859	7.4
347.1866	100.0
348.1901	21.1

Name: Inosine
PrecursorMZ: 267.07222
RT: 1.0175
ExactMass: 268.0807695
Spectrum_type: 2
charge: -1
Formula: C10H12N4O5
SMILES: C1=NC2=C(C(=O)N1)N=CN2[C@H]3[C@@H]([C@@H]([C@H](O3)CO)O)O
Method: HCD
Collision_energy: [28.333334]
Isolation_window: 4.0
Ion_mode: N
Num Peaks: 5
88.9867	1.8
135.0298	100.0
136.0340	4.4
267.0723	78.2
268.0754	9.2

Name: Irigenin
PrecursorMZ: 359.0776
RT: 5.891566666666667
ExactMass: 360.08451746
Spectrum_type: 2
charge: -1
Formula: C18H16O8
SMILES: COC1=CC(=CC(=C1OC)O)C2=COC3=C(C2=O)C(=C(C(=C3)O)OC)O
Method: HCD
Collision_energy: [28.333334]
Isolation_window: 4.0
Ion_mode: N
Num Peaks: 16
61.9875	10.8
79.9564	45.4
95.0493	29.7
131.0342	9.3
209.1292	100.0
210.1327	10.1
221.1292	27.4
245.1907	19.5
329.0303	55.1
330.0344	10.0
344.0538	25.7
359.0778	54.0
359.1881	20.4
359.2705	99.9
360.0816	11.1
360.2733	24.7

Name: Isoallolithocholic Acid
PrecursorMZ: 375.29038
RT: 7.8414
ExactMass: 376.29774513
Spectrum_type: 2
charge: -1
Formula: C24H40O3
SMILES: C[C@H](CCC(=O)O)[C@H]1CC[C@@H]2[C@@]1(CC[C@H]3[C@H]2CC[C@@H]4[C@@]3(CC[C@@H](C4)O)C)C
Method: HCD
Collision_energy: [28.333334]
Isolation_window: 4.0
Ion_mode: N
Num Peaks: 8
91.0211	0.8
375.1906	0.6
375.2122	0.7
375.2903	100.0
375.3675	0.5
375.3903	0.7
376.2936	25.6
377.2963	2.5

Name: Isobutyrylglycine
PrecursorMZ: 144.06571
RT: 1.7089181818181818
ExactMass: 145.07389321
Spectrum_type: 2
charge: -1
Formula: C6H11NO3
SMILES: CC(C)C(=O)NCC(=O)O
Method: HCD
Collision_energy: [28.333334]
Isolation_window: 4.0
Ion_mode: N
Num Peaks: 1
102.0551	100.0

Name: Isocitric Acid
PrecursorMZ: 191.01918
RT: 0.9472272727272727
ExactMass: 192.02700259
Spectrum_type: 2
charge: -1
Formula: C6H8O7
SMILES: C(C(C(C(=O)O)O)C(=O)O)C(=O)O
Method: HCD
Collision_energy: [28.333334]
Isolation_window: 4.0
Ion_mode: N
Num Peaks: 14
57.0337	2.1
85.0285	24.0
86.0319	1.0
87.0078	35.6
88.0112	1.0
111.0079	100.0
112.0111	5.7
129.0185	8.2
130.9977	1.7
173.0086	2.8
191.0192	17.8
191.0554	16.5
192.0223	1.1
192.0588	1.4

Name: Isoferulic Acid
PrecursorMZ: 193.05009
RT: 4.1537
ExactMass: 194.0579088
Spectrum_type: 2
charge: -1
Formula: C10H10O4
SMILES: COC1=C(C=C(C=C1)/C=C/C(=O)O)O
Method: HCD
Collision_energy: [28.333334]
Isolation_window: 4.0
Ion_mode: N
Num Peaks: 5
134.0362	9.4
149.0237	4.1
161.0238	31.2
193.0500	100.0
194.0534	10.8

Name: Isopentenyladenine
PrecursorMZ: 202.10939
RT: 3.2502
ExactMass: 203.11709544
Spectrum_type: 2
charge: -1
Formula: C10H13N5
SMILES: CC(=CCNC1=NC=NC2=C1NC=N2)C
Method: HCD
Collision_energy: [28.333334]
Isolation_window: 4.0
Ion_mode: N
Num Peaks: 9
88.9871	4.8
104.9764	4.8
110.9690	10.2
133.0386	35.5
134.0463	100.0
135.0497	4.2
202.1092	95.3
202.9407	16.2
203.1125	11.1

Name: Isopimaric Acid
PrecursorMZ: 301.21738
RT: 9.3078
ExactMass: 302.224580195
Spectrum_type: 2
charge: -1
Formula: C20H30O2
SMILES: C[C@@]1(CC[C@H]2C(=CC[C@@H]3[C@@]2(CCC[C@@]3(C)C(=O)O)C)C1)C=C
Method: HCD
Collision_energy: [28.333334]
Isolation_window: 4.0
Ion_mode: N
Num Peaks: 3
301.2172	100.0
302.2205	20.5
303.2250	1.7

Name: Isoxanthohumol
PrecursorMZ: 353.13896
RT: 6.136107142857143
ExactMass: 354.1467238
Spectrum_type: 2
charge: -1
Formula: C21H22O5
SMILES: CC(=CCC1=C2C(=C(C=C1O)OC)C(=O)CC(O2)C3=CC=C(C=C3)O)C
Method: HCD
Collision_energy: [28.333334]
Isolation_window: 4.0
Ion_mode: N
Num Peaks: 3
119.0492	100.0
233.0815	49.2
353.1394	83.8

Name: Itaconic acid
PrecursorMZ: 129.0184
RT: 1.8002
ExactMass: 130.02660867
Spectrum_type: 2
charge: -1
Formula: C5H6O4
SMILES: C=C(CC(=O)O)C(=O)O
Method: HCD
Collision_energy: [28.333334]
Isolation_window: 4.0
Ion_mode: N
Num Peaks: 8
69.0336	9.2
85.0285	7.6
87.0442	100.0
103.0027	2.1
113.0235	9.4
128.0344	18.7
130.0865	11.1
131.0342	22.0

Name: Kahweol
PrecursorMZ: 359.18971
RT: 5.8628
ExactMass: 314.18819469
Spectrum_type: 2
charge: -1
Formula: C20H26O3
SMILES: C[C@@]12C=CC3=C([C@H]1CC[C@]45[C@H]2CC[C@H](C4)[C@](C5)(CO)O)C=CO3
Method: HCD
Collision_energy: [28.333334]
Isolation_window: 4.0
Ion_mode: N
Num Peaks: 3
79.9564	100.0
359.1899	48.7
360.1930	10.3

Name: L-(+)-Cysteine
PrecursorMZ: 166.01707
RT: 0.8801
ExactMass: 121.01974964
Spectrum_type: 2
charge: -1
Formula: C3H7NO2S
SMILES: C([C@@H](C(=O)O)N)S
Method: HCD
Collision_energy: [28.333334]
Isolation_window: 4.0
Ion_mode: N
Num Peaks: 22
59.0129	0.8
71.0129	1.1
73.0285	1.1
75.0078	3.2
79.9564	10.9
80.9642	4.3
81.0335	1.0
85.0285	1.0
87.0442	2.6
94.9800	1.0
100.0395	1.3
102.0551	3.3
103.0392	1.0
106.9799	9.0
117.0547	1.1
124.0065	5.3
165.0411	1.9
165.0764	1.2
166.0172	100.0
167.0011	1.0
167.0200	4.0
168.0120	2.2

Name: L-Alanyl-L-leucine
PrecursorMZ: 201.12406
RT: 0.9124
ExactMass: 202.13174244
Spectrum_type: 2
charge: -1
Formula: C9H18N2O3
SMILES: C[C@@H](C(=O)N[C@@H](CC(C)C)C(=O)O)N
Method: HCD
Collision_energy: [28.333334]
Isolation_window: 4.0
Ion_mode: N
Num Peaks: 42
59.0130	2.0
71.0129	8.5
72.0446	6.1
74.0239	1.8
81.0449	1.9
84.0446	2.6
86.0240	1.9
88.0393	2.3
100.0395	17.4
102.0552	1.8
112.0396	2.3
114.0552	5.0
115.0029	2.2
115.0390	2.1
127.0506	2.0
128.0345	11.0
128.0710	3.2
130.0502	7.5
130.0866	2.1
131.0817	4.7
133.0134	3.4
139.0393	1.9
140.0345	2.7
140.0711	2.6
145.0975	100.0
146.1013	6.2
156.0659	4.9
157.1340	19.2
158.0453	2.2
158.0817	5.4
171.0771	2.1
184.0605	5.0
200.0555	3.2
200.0922	5.1
201.0389	2.1
201.0878	4.2
201.1240	51.8
202.0354	3.1
202.0716	27.3
202.1082	1.9
202.1270	5.2
203.1034	3.2

Name: L-Pyroglutamic Acid
PrecursorMZ: 174.03998
RT: 1.1158896551724138
ExactMass: 129.042593085
Spectrum_type: 2
charge: -1
Formula: C5H7NO3
SMILES: C1CC(=O)N[C@@H]1C(=O)O
Method: HCD
Collision_energy: [28.333334]
Isolation_window: 4.0
Ion_mode: N
Num Peaks: 25
58.0289	26.7
59.0129	19.3
71.0129	8.4
85.0286	4.4
88.0394	100.0
96.9922	4.4
102.0553	4.4
111.0078	3.6
112.0395	10.8
114.0187	21.1
115.0027	16.7
128.0344	6.5
128.0707	7.1
129.1024	4.2
130.0501	38.3
130.0865	12.1
156.0294	9.5
156.0659	13.2
157.0136	8.3
172.0608	7.6
172.0972	9.1
173.0919	8.5
174.0401	34.5
174.0763	12.3
175.0605	8.4

Name: L-Sorbose
PrecursorMZ: 215.03238
RT: 0.8617
ExactMass: 180.0633881
Spectrum_type: 2
charge: -1
Formula: C6H12O6
SMILES: C1[C@@H]([C@H]([C@@H](C(O1)(CO)O)O)O)O
Method: HCD
Collision_energy: [28.333334]
Isolation_window: 4.0
Ion_mode: N
Num Peaks: 4
71.0129	32.7
89.0234	100.0
179.0557	28.9
215.0326	56.6

Name: L-Tartaric acid
PrecursorMZ: 149.00842
RT: 0.91688
ExactMass: 150.01643791
Spectrum_type: 2
charge: -1
Formula: C4H6O6
SMILES: [C@@H]([C@H](C(=O)O)O)(C(=O)O)O
Method: HCD
Collision_energy: [28.333334]
Isolation_window: 4.0
Ion_mode: N
Num Peaks: 4
61.9875	100.0
72.9921	44.1
87.0078	63.3
149.0086	40.4

Name: Lactulose
PrecursorMZ: 341.10729
RT: 0.8691
ExactMass: 342.11621151
Spectrum_type: 2
charge: -1
Formula: C12H22O11
SMILES: C([C@@H]1[C@@H]([C@@H]([C@H]([C@@H](O1)O[C@@H]2[C@H](O[C@@]([C@H]2O)(CO)O)CO)O)O)O)O
Method: HCD
Collision_energy: [28.333334]
Isolation_window: 4.0
Ion_mode: N
Num Peaks: 12
59.0126	28.2
71.0126	72.7
73.0282	37.0
89.0230	61.0
97.0281	42.3
101.0230	100.0
102.9553	37.4
113.0231	23.8
119.0336	21.1
143.0333	25.7
161.0442	90.5
179.0550	31.0

Name: Latanoprost
PrecursorMZ: 431.28
RT: 7.5006
ExactMass: 432.28757437
Spectrum_type: 2
charge: -1
Formula: C26H40O5
SMILES: CC(C)OC(=O)CCC/C=C\C[C@H]1[C@H](C[C@H]([C@@H]1CC[C@H](CCC2=CC=CC=C2)O)O)O
Method: HCD
Collision_energy: [28.333334]
Isolation_window: 4.0
Ion_mode: N
Num Peaks: 5
74.0238	47.2
387.2896	5.0
431.2798	48.6
432.3140	100.0
433.3170	18.6

Name: Lauric Acid
PrecursorMZ: 199.16949
RT: 8.483542857142856
ExactMass: 200.177630004
Spectrum_type: 2
charge: -1
Formula: C12H24O2
SMILES: CCCCCCCCCCCC(=O)O
Method: HCD
Collision_energy: [28.333334]
Isolation_window: 4.0
Ion_mode: N
Num Peaks: 8
61.9874	9.7
98.9557	8.8
110.9420	7.0
142.9456	14.1
170.9406	8.3
199.1696	100.0
200.1732	12.1
201.1128	8.8

Name: Licoisoflavone A
PrecursorMZ: 353.10147
RT: 7.257833333333333
ExactMass: 354.11033829
Spectrum_type: 2
charge: -1
Formula: C20H18O6
SMILES: CC(=CCC1=C(C=CC(=C1O)C2=COC3=CC(=CC(=C3C2=O)O)O)O)C
Method: HCD
Collision_energy: [28.333334]
Isolation_window: 4.0
Ion_mode: N
Num Peaks: 10
83.0126	3.7
216.0414	4.7
243.1017	5.7
267.1009	3.3
284.0314	16.0
285.1120	20.4
286.1150	4.1
333.2423	4.1
353.1018	100.0
354.1048	24.9

Name: Linoleic Acid
PrecursorMZ: 279.23286
RT: 9.4646
ExactMass: 280.240230259
Spectrum_type: 2
charge: -1
Formula: C18H32O2
SMILES: CCCCC/C=C\C/C=C\CCCCCCCC(=O)O
Method: HCD
Collision_energy: [28.333334]
Isolation_window: 4.0
Ion_mode: N
Num Peaks: 2
279.2326	100.0
280.2362	19.3

Name: Linolenic Acid
PrecursorMZ: 277.21709
RT: 9.101
ExactMass: 278.224580195
Spectrum_type: 2
charge: -1
Formula: C18H30O2
SMILES: CC/C=C\C/C=C\C/C=C\CCCCCCCC(=O)O
Method: HCD
Collision_energy: [28.333334]
Isolation_window: 4.0
Ion_mode: N
Num Peaks: 4
59.0129	1.2
277.2170	100.0
278.2205	18.5
279.2245	1.7

Name: Linseed Acid
PrecursorMZ: 555.4417
RT: 9.2825
ExactMass: 278.224580195
Spectrum_type: 2
charge: -1
Formula: C18H30O2
SMILES: CCC=CCC=CCC=CCCCCCCCC(=O)O
Method: HCD
Collision_energy: [28.333334]
Isolation_window: 4.0
Ion_mode: N
Num Peaks: 2
277.2182	100.0
278.2218	16.7

Name: Lovastatin
PrecursorMZ: 403.24926
RT: 8.4937
ExactMass: 404.25627424
Spectrum_type: 2
charge: -1
Formula: C24H36O5
SMILES: CC[C@H](C)C(=O)O[C@H]1C[C@H](C=C2[C@H]1[C@H]([C@H](C=C2)C)CC[C@@H]3C[C@H](CC(=O)O3)O)C
Method: HCD
Collision_energy: [28.333334]
Isolation_window: 4.0
Ion_mode: N
Num Peaks: 8
91.0211	11.6
114.0677	18.1
245.1909	64.2
246.1942	11.8
289.1803	12.3
359.2590	15.9
403.2491	100.0
404.2520	27.2

Name: Madecassic Acid
PrecursorMZ: 503.33745
RT: 6.1938
ExactMass: 504.34508925
Spectrum_type: 2
charge: -1
Formula: C30H48O6
SMILES: C[C@@H]1CC[C@@]2(CC[C@@]3(C(=CC[C@H]4[C@]3(C[C@H]([C@@H]5[C@@]4(C[C@H]([C@@H]([C@@]5(C)CO)O)O)C)O)C)[C@@H]2[C@H]1C)C)C(=O)O
Method: HCD
Collision_energy: [28.333334]
Isolation_window: 4.0
Ion_mode: N
Num Peaks: 4
485.3267	15.1
503.3374	100.0
504.3404	28.6
505.3465	4.7

Name: Mandelic Acid
PrecursorMZ: 151.03932
RT: 3.009
ExactMass: 152.047344113
Spectrum_type: 2
charge: -1
Formula: C8H8O3
SMILES: C1=CC=C(C=C1)C(C(=O)O)O
Method: HCD
Collision_energy: [28.333334]
Isolation_window: 4.0
Ion_mode: N
Num Peaks: 15
65.0386	5.7
66.0340	6.5
81.0448	5.6
93.0336	31.8
107.0493	53.4
108.0445	11.1
109.0286	71.7
109.0395	7.2
110.0238	10.5
121.0286	31.4
123.0443	5.8
135.0080	21.3
139.0392	12.4
151.0392	6.1
153.0186	100.0

Name: Medicagenic acid
PrecursorMZ: 501.31999
RT: 7.4415
ExactMass: 502.32943918
Spectrum_type: 2
charge: -1
Formula: C30H46O6
SMILES: C[C@@]12CC[C@@H]3[C@@]([C@H]1CC=C4[C@]2(CC[C@@]5([C@H]4CC(CC5)(C)C)C(=O)O)C)(C[C@@H]([C@@H]([C@@]3(C)C(=O)O)O)O)C
Method: HCD
Collision_energy: [28.333334]
Isolation_window: 4.0
Ion_mode: N
Num Peaks: 3
439.3203	19.2
501.3202	100.0
502.3240	31.1

Name: Mesaconic acid
PrecursorMZ: 129.01838
RT: 1.397
ExactMass: 130.02660867
Spectrum_type: 2
charge: -1
Formula: C5H6O4
SMILES: C/C(=C\C(=O)O)/C(=O)O
Method: HCD
Collision_energy: [28.333334]
Isolation_window: 4.0
Ion_mode: N
Num Peaks: 5
85.0285	42.2
87.0442	87.5
128.0344	100.0
130.0865	62.8
131.0342	22.7

Name: Methyl Caffeate
PrecursorMZ: 193.05002
RT: 4.47595
ExactMass: 194.0579088
Spectrum_type: 2
charge: -1
Formula: C10H10O4
SMILES: COC(=O)/C=C/C1=CC(=C(C=C1)O)O
Method: HCD
Collision_energy: [28.333334]
Isolation_window: 4.0
Ion_mode: N
Num Peaks: 7
90.9325	79.5
102.9477	58.4
103.9478	39.0
121.0286	100.0
121.0648	52.1
193.0501	47.9
193.0886	35.4

Name: Methyl cholate
PrecursorMZ: 421.29671
RT: 7.4329
ExactMass: 422.30322444
Spectrum_type: 2
charge: -1
Formula: C25H42O5
SMILES: C[C@H](CCC(=O)OC)[C@H]1CC[C@@H]2[C@@]1([C@H](C[C@H]3[C@H]2[C@@H](C[C@H]4[C@@]3(CC[C@H](C4)O)C)O)O)C
Method: HCD
Collision_energy: [28.333334]
Isolation_window: 4.0
Ion_mode: N
Num Peaks: 13
69.3796	2.9
136.0524	29.7
149.0603	3.7
165.0917	56.2
166.0950	5.5
255.1970	17.8
403.2861	11.1
404.2896	3.4
419.2809	4.4
420.2861	5.5
420.2891	4.0
421.2969	100.0
422.3005	25.1

Name: Methyl indole-3-carboxylate
PrecursorMZ: 174.05541
RT: 5.4423
ExactMass: 175.06332853
Spectrum_type: 2
charge: -1
Formula: C10H9NO2
SMILES: COC(=O)C1=CNC2=CC=CC=C21
Method: HCD
Collision_energy: [28.333334]
Isolation_window: 4.0
Ion_mode: N
Num Peaks: 12
59.0130	7.7
118.9655	5.7
127.1120	21.0
128.1155	2.5
146.9604	40.6
148.0507	2.6
173.0238	5.5
173.1176	100.0
174.0553	28.4
174.1209	9.9
174.9553	4.3
175.0598	3.9

Name: Methyl p-coumarate
PrecursorMZ: 177.05511
RT: 5.275
ExactMass: 178.062994177
Spectrum_type: 2
charge: -1
Formula: C10H10O3
SMILES: COC(=O)C=CC1=CC=C(C=C1)O
Method: HCD
Collision_energy: [28.333334]
Isolation_window: 4.0
Ion_mode: N
Num Peaks: 8
106.0403	4.5
121.0287	11.4
134.0353	6.7
134.9871	17.9
145.0287	21.8
162.0316	7.2
177.0551	100.0
178.0590	10.7

Name: Methyl-P-Coumarate
PrecursorMZ: 177.05517
RT: 5.163757142857143
ExactMass: 178.062994177
Spectrum_type: 2
charge: -1
Formula: C10H10O3
SMILES: COC(=O)/C=C/C1=CC=C(C=C1)O
Method: HCD
Collision_energy: [28.333334]
Isolation_window: 4.0
Ion_mode: N
Num Peaks: 10
83.0129	14.6
90.9972	28.8
93.0336	75.8
94.0367	4.9
134.9872	100.0
135.0442	3.7
175.0758	25.4
177.0550	13.0
178.9772	26.4
179.0166	3.7

Name: Methylmalonic Acid
PrecursorMZ: 117.01929
RT: 1.0282
ExactMass: 118.02660867
Spectrum_type: 2
charge: -1
Formula: C4H6O4
SMILES: CC(C(=O)O)C(=O)O
Method: HCD
Collision_energy: [28.333334]
Isolation_window: 4.0
Ion_mode: N
Num Peaks: 7
59.0131	16.0
71.0131	15.6
73.0287	100.0
74.0240	5.6
99.0080	9.8
116.9278	9.0
117.0187	25.9

Name: Methylparaben
PrecursorMZ: 151.03911
RT: 4.4353
ExactMass: 152.047344113
Spectrum_type: 2
charge: -1
Formula: C8H8O3
SMILES: COC(=O)C1=CC=C(C=C1)O
Method: HCD
Collision_energy: [28.333334]
Isolation_window: 4.0
Ion_mode: N
Num Peaks: 4
67.0293	17.0
109.0398	28.1
136.0157	47.1
151.0392	100.0

Name: Mono(2-ethylhexyl) phthalate
PrecursorMZ: 277.14457
RT: 7.7696
ExactMass: 278.15180918
Spectrum_type: 2
charge: -1
Formula: C16H22O4
SMILES: CCCCC(CC)COC(=O)C1=CC=CC=C1C(=O)O
Method: HCD
Collision_energy: [28.333334]
Isolation_window: 4.0
Ion_mode: N
Num Peaks: 12
107.0493	6.0
121.0287	29.5
127.1120	40.3
134.0365	92.6
135.0392	6.3
147.0079	6.2
233.1544	9.1
277.1449	63.1
277.2172	100.0
278.1478	10.8
278.2205	20.3
279.1969	7.6

Name: Monomethyl glutarate
PrecursorMZ: 145.05061
RT: 2.6612
ExactMass: 146.0579088
Spectrum_type: 2
charge: -1
Formula: C6H10O4
SMILES: COC(=O)CCCC(=O)O
Method: HCD
Collision_energy: [28.333334]
Isolation_window: 4.0
Ion_mode: N
Num Peaks: 11
65.9977	5.2
83.0493	8.4
101.0599	100.0
102.0633	6.5
118.0401	12.1
119.0244	11.6
127.0393	7.4
144.0202	6.2
144.0439	7.1
145.0502	35.3
146.0351	12.4

Name: Monomethyl phthalate
PrecursorMZ: 179.03429
RT: 4.063066666666667
ExactMass: 180.04225873
Spectrum_type: 2
charge: -1
Formula: C9H8O4
SMILES: COC(=O)C1=CC=CC=C1C(=O)O
Method: HCD
Collision_energy: [28.333334]
Isolation_window: 4.0
Ion_mode: N
Num Peaks: 14
82.0400	2.9
90.9971	28.8
92.0496	5.2
107.0493	6.6
109.0398	5.2
134.0602	7.5
134.9871	100.0
136.0394	4.0
136.0507	2.8
136.9828	3.6
178.0488	2.8
178.9770	23.9
179.0345	3.2
179.0565	2.7

Name: Myristic Acid
PrecursorMZ: 227.20133
RT: 9.2446
ExactMass: 228.208930132
Spectrum_type: 2
charge: -1
Formula: C14H28O2
SMILES: CCCCCCCCCCCCCC(=O)O
Method: HCD
Collision_energy: [28.333334]
Isolation_window: 4.0
Ion_mode: N
Num Peaks: 4
69.1064	1.2
141.9120	1.2
227.2015	100.0
228.2048	14.9

Name: N-(2-Furoyl)Glycine
PrecursorMZ: 168.02957
RT: 2.1304
ExactMass: 169.0375077
Spectrum_type: 2
charge: -1
Formula: C7H7NO4
SMILES: C1=COC(=C1)C(=O)NCC(=O)O
Method: HCD
Collision_energy: [28.333334]
Isolation_window: 4.0
Ion_mode: N
Num Peaks: 9
68.0133	12.1
80.0496	100.0
97.0398	14.4
98.0238	20.3
123.0442	14.7
124.0395	55.4
125.0348	12.2
167.0344	21.6
168.0290	26.4

Name: N-ACETYL-beta-D-GLUCOSAMINE
PrecursorMZ: 220.08232
RT: 0.8807111111111111
ExactMass: 221.0899372
Spectrum_type: 2
charge: -1
Formula: C8H15NO6
SMILES: CC(=O)N[C@@H]1[C@H]([C@@H]([C@H](O[C@H]1O)CO)O)O
Method: HCD
Collision_energy: [28.333334]
Isolation_window: 4.0
Ion_mode: N
Num Peaks: 30
59.0129	4.8
71.0129	3.7
74.0238	3.1
84.0447	3.5
84.0808	3.1
88.9871	3.5
100.0394	3.3
102.0551	5.5
114.0551	9.5
118.0500	19.5
128.0341	3.0
131.0453	13.6
132.0659	5.2
140.0709	13.6
146.0452	5.0
148.9539	96.8
149.9538	4.9
154.9466	15.5
156.0657	4.5
158.0451	4.1
158.0815	6.6
172.9572	22.3
175.0720	3.4
176.0557	10.5
176.0921	13.9
202.0715	100.0
203.0750	9.5
220.0822	30.4
220.9394	8.0
222.0434	8.1

Name: N-Acetyl-L-Aspartic Acid
PrecursorMZ: 174.04011
RT: 0.9089
ExactMass: 175.04807239
Spectrum_type: 2
charge: -1
Formula: C6H9NO5
SMILES: CC(=O)N[C@@H](CC(=O)O)C(=O)O
Method: HCD
Collision_energy: [28.333334]
Isolation_window: 4.0
Ion_mode: N
Num Peaks: 40
58.0289	23.2
59.0129	24.1
69.0336	9.0
71.0129	10.7
72.9922	5.0
73.0285	9.3
74.0238	4.5
84.0445	13.0
85.0285	9.5
86.0601	4.1
87.0078	8.5
88.0394	100.0
93.0336	7.2
102.0551	13.9
111.0079	8.3
111.0442	5.8
112.0396	10.0
113.0233	8.4
114.0187	27.4
115.0027	17.6
128.0346	4.7
128.0708	37.0
129.1023	5.2
130.0501	41.8
130.0865	33.1
131.0342	6.9
131.0817	39.9
132.0657	47.0
156.0295	9.8
156.0658	29.8
172.0071	4.4
172.0608	34.3
173.0444	16.7
173.0568	10.2
173.0928	16.5
174.0399	37.2
174.0763	43.6
175.0248	11.0
175.0604	53.2
176.0547	5.2

Name: N-Acetyl-L-leucine
PrecursorMZ: 172.09719
RT: 3.1846
ExactMass: 173.10519334
Spectrum_type: 2
charge: -1
Formula: C8H15NO3
SMILES: CC(C)C[C@@H](C(=O)O)NC(=O)C
Method: HCD
Collision_energy: [28.333334]
Isolation_window: 4.0
Ion_mode: N
Num Peaks: 12
83.0493	4.1
111.0805	100.0
112.0838	5.0
127.0755	25.3
129.0912	10.3
130.0864	53.8
131.0900	3.2
171.0657	7.0
172.0972	12.6
173.0241	2.9
173.0812	65.1
174.0848	4.0

Name: N-Acetyl-L-phenylalanine
PrecursorMZ: 413.17044
RT: 3.8193
ExactMass: 207.08954328
Spectrum_type: 2
charge: -1
Formula: C11H13NO3
SMILES: CC(=O)N[C@@H](CC1=CC=CC=C1)C(=O)O
Method: HCD
Collision_energy: [28.333334]
Isolation_window: 4.0
Ion_mode: N
Num Peaks: 8
58.0287	5.0
70.0287	4.5
91.0540	1.4
147.0440	7.7
164.0705	36.6
165.0741	3.1
206.0812	100.0
207.0846	11.6

Name: N-Acetyl-L-tryptophan
PrecursorMZ: 245.09305
RT: 3.986711111111111
ExactMass: 246.10044231
Spectrum_type: 2
charge: -1
Formula: C13H14N2O3
SMILES: CC(=O)N[C@@H](CC1=CNC2=CC=CC=C21)C(=O)O
Method: HCD
Collision_energy: [28.333334]
Isolation_window: 4.0
Ion_mode: N
Num Peaks: 12
58.0289	11.3
70.0289	19.8
74.0238	72.9
98.0237	16.6
116.0344	41.8
116.0493	13.9
159.0919	4.9
201.1027	11.2
203.0820	100.0
204.0853	11.3
245.0929	93.6
246.0961	13.0

Name: N-Acetyl-Neuraminic Acid
PrecursorMZ: 308.0989
RT: 0.8800416666666667
ExactMass: 309.10598118
Spectrum_type: 2
charge: -1
Formula: C11H19NO9
SMILES: CC(=O)N[C@@H]1[C@H](CC(O[C@H]1[C@@H]([C@@H](CO)O)O)(C(=O)O)O)O
Method: HCD
Collision_energy: [28.333334]
Isolation_window: 4.0
Ion_mode: N
Num Peaks: 23
87.0078	18.9
89.0234	1.2
98.0603	1.9
101.0235	4.5
102.0551	9.9
124.0067	1.5
128.0345	27.9
129.0378	1.6
144.0657	1.2
145.0606	1.2
146.0451	100.0
147.0488	5.0
168.0274	1.4
170.0452	5.0
188.0561	1.8
200.0559	14.3
201.0592	1.4
218.0666	16.5
219.0699	1.4
260.0771	1.2
290.0881	4.9
307.0663	1.2
308.0989	12.1

Name: N-Acetylasparagine
PrecursorMZ: 173.05625
RT: 0.94962
ExactMass: 174.0640568
Spectrum_type: 2
charge: -1
Formula: C6H10N2O4
SMILES: CC(=O)N[C@@H](CC(=O)N)C(=O)O
Method: HCD
Collision_energy: [28.333334]
Isolation_window: 4.0
Ion_mode: N
Num Peaks: 59
58.0290	1.5
59.0130	2.2
59.0243	1.1
61.9875	4.3
66.0340	1.3
68.0497	6.3
70.0289	1.7
71.0129	3.3
72.0081	1.8
72.9922	1.9
73.0286	1.1
75.0079	14.5
79.9564	1.8
82.0289	3.7
83.0129	3.2
85.0286	6.9
87.0078	1.2
88.9872	1.1
93.0336	1.9
96.9592	2.5
98.0238	1.6
99.0081	1.5
99.0444	1.2
100.0394	5.4
101.0042	1.7
101.9799	1.6
104.9530	2.9
105.0185	3.7
110.0241	1.0
111.0191	3.8
111.0555	3.5
112.0396	2.7
112.9708	1.5
113.0237	2.2
113.0348	22.9
125.0237	1.2
128.0346	3.4
128.0457	2.5
129.0661	3.1
130.0502	25.5
131.0539	1.1
136.9903	1.2
143.0452	2.6
146.9611	1.1
154.9467	1.8
155.0459	1.6
170.9964	5.0
171.9473	3.2
172.0070	12.2
172.9570	1.4
172.9909	2.1
173.0079	1.5
173.0245	4.8
173.0454	4.8
173.0563	100.0
173.9436	1.4
174.0446	1.5
174.0596	6.3
175.0409	5.2

Name: N-Acetyldopamine
PrecursorMZ: 194.08168
RT: 2.3537
ExactMass: 195.08954328
Spectrum_type: 2
charge: -1
Formula: C10H13NO3
SMILES: CC(=O)NCCC1=CC(=C(C=C1)O)O
Method: HCD
Collision_energy: [28.333334]
Isolation_window: 4.0
Ion_mode: N
Num Peaks: 7
91.0291	9.0
94.9921	9.5
109.0398	8.5
123.0443	39.9
123.0553	10.6
194.0816	100.0
195.0860	10.6

Name: N-Acetylserotonin
PrecursorMZ: 263.10376
RT: 2.9255
ExactMass: 218.105527694
Spectrum_type: 2
charge: -1
Formula: C12H14N2O2
SMILES: CC(=O)NCCC1=CNC2=C1C=C(C=C2)O
Method: HCD
Collision_energy: [28.333334]
Isolation_window: 4.0
Ion_mode: N
Num Peaks: 13
109.0398	1.5
114.0550	2.1
115.0868	0.9
125.0350	1.6
127.0504	11.5
128.0344	3.3
145.0610	100.0
146.0649	5.0
261.1249	2.8
262.1277	1.0
263.1038	13.0
263.1406	1.4
264.1077	2.0

Name: N-Acetyltryptophan
PrecursorMZ: 245.09222
RT: 3.9838666666666667
ExactMass: 246.10044231
Spectrum_type: 2
charge: -1
Formula: C13H14N2O3
SMILES: CC(=O)NC(CC1=CNC2=CC=CC=C21)C(=O)O
Method: HCD
Collision_energy: [28.333334]
Isolation_window: 4.0
Ion_mode: N
Num Peaks: 11
58.0288	13.2
70.0288	18.6
74.0236	64.9
98.0235	13.8
116.0341	43.8
116.0492	14.5
201.1019	9.3
203.0815	100.0
204.0851	10.8
245.0924	85.7
246.0956	13.0

Name: N-Palmitoylglycine
PrecursorMZ: 312.25399
RT: 9.0388
ExactMass: 313.26169398
Spectrum_type: 2
charge: -1
Formula: C18H35NO3
SMILES: CCCCCCCCCCCCCCCC(=O)NCC(=O)O
Method: HCD
Collision_energy: [28.333334]
Isolation_window: 4.0
Ion_mode: N
Num Peaks: 3
74.0237	100.0
311.1680	41.8
312.2541	81.8

Name: Naringenin
PrecursorMZ: 271.06155
RT: 5.563910526315789
ExactMass: 272.06847348
Spectrum_type: 2
charge: -1
Formula: C15H12O5
SMILES: C1[C@H](OC2=CC(=CC(=C2C1=O)O)O)C3=CC=C(C=C3)O
Method: HCD
Collision_energy: [28.333334]
Isolation_window: 4.0
Ion_mode: N
Num Peaks: 19
93.0337	2.0
107.0129	2.1
109.0286	1.9
119.0494	6.6
146.0366	3.4
151.0030	15.3
152.0061	1.1
159.0445	6.2
165.0188	1.6
177.0187	2.2
187.0395	3.6
230.1182	1.1
269.0457	1.3
269.1211	1.3
271.0614	25.0
271.1918	2.3
272.0681	4.4
272.1294	100.0
273.1334	8.0

Name: Nerol
PrecursorMZ: 199.13313
RT: 6.073616666666667
ExactMass: 154.135765193
Spectrum_type: 2
charge: -1
Formula: C10H18O
SMILES: CC(=CCC/C(=C\CO)/C)C
Method: HCD
Collision_energy: [28.333334]
Isolation_window: 4.0
Ion_mode: N
Num Peaks: 13
61.9874	25.9
98.9557	61.1
110.9420	11.1
114.9506	40.1
126.9506	30.4
141.9492	10.7
142.9456	100.0
143.9456	6.7
154.9456	29.5
170.9406	49.3
199.1332	73.8
200.1366	9.6
201.1125	8.7

Name: Nervonic Acid
PrecursorMZ: 365.34224
RT: 11.1379
ExactMass: 366.349780706
Spectrum_type: 2
charge: -1
Formula: C24H46O2
SMILES: CCCCCCCC/C=C\CCCCCCCCCCCCCC(=O)O
Method: HCD
Collision_energy: [28.333334]
Isolation_window: 4.0
Ion_mode: N
Num Peaks: 6
365.2446	1.0
365.3422	100.0
365.4380	0.7
366.3455	25.8
367.2298	0.8
367.3498	2.3

Name: Nmda
PrecursorMZ: 146.04516
RT: 0.874
ExactMass: 147.05315777
Spectrum_type: 2
charge: -1
Formula: C5H9NO4
SMILES: CN[C@H](CC(=O)O)C(=O)O
Method: HCD
Collision_energy: [28.333334]
Isolation_window: 4.0
Ion_mode: N
Num Peaks: 4
61.9874	100.0
102.0551	73.2
128.0345	33.0
146.0451	21.8

Name: Nonivamide
PrecursorMZ: 292.19057
RT: 6.9851125000000005
ExactMass: 293.19909372
Spectrum_type: 2
charge: -1
Formula: C17H27NO3
SMILES: CCCCCCCCC(=O)NCC1=CC(=C(C=C1)O)OC
Method: HCD
Collision_energy: [28.333334]
Isolation_window: 4.0
Ion_mode: N
Num Peaks: 13
113.0957	4.5
121.0281	52.7
122.0313	3.3
170.1536	100.0
171.1570	10.6
214.1437	8.1
221.1532	4.2
236.1042	5.6
291.1963	3.6
292.1906	18.3
293.1769	7.6
293.2110	52.7
294.2140	6.3

Name: Nordihydroguaretic acid
PrecursorMZ: 301.14477
RT: 6.159666666666666
ExactMass: 302.15180918
Spectrum_type: 2
charge: -1
Formula: C18H22O4
SMILES: CC(CC1=CC(=C(C=C1)O)O)C(C)CC2=CC(=C(C=C2)O)O
Method: HCD
Collision_energy: [28.333334]
Isolation_window: 4.0
Ion_mode: N
Num Peaks: 7
109.0287	1.7
122.0365	4.9
135.0441	1.9
301.1446	100.0
301.1751	3.5
302.1480	18.2
303.1514	1.4

Name: O-Coumaric Acid
PrecursorMZ: 163.03951
RT: 4.4134
ExactMass: 164.047344113
Spectrum_type: 2
charge: -1
Formula: C9H8O3
SMILES: C1=CC=C(C(=C1)/C=C/C(=O)O)O
Method: HCD
Collision_energy: [28.333334]
Isolation_window: 4.0
Ion_mode: N
Num Peaks: 23
65.0137	3.2
82.0401	5.9
91.0293	3.0
93.0337	4.7
118.9922	2.9
119.0493	4.3
120.0560	7.4
121.0289	4.2
121.0401	4.1
121.0511	21.1
124.0160	4.9
135.0445	32.5
136.0505	7.1
157.8627	3.6
161.0601	6.3
162.8385	100.0
163.0032	3.2
163.0394	43.1
163.0598	4.5
163.8385	2.8
164.0462	9.2
164.8356	24.4
165.0552	8.6

Name: Octahydrocurcumin
PrecursorMZ: 375.18233
RT: 5.0504
ExactMass: 376.18858861
Spectrum_type: 2
charge: -1
Formula: C21H28O6
SMILES: COC1=C(C=CC(=C1)CCC(CC(CCC2=CC(=C(C=C2)O)OC)O)O)O
Method: HCD
Collision_energy: [28.333334]
Isolation_window: 4.0
Ion_mode: N
Num Peaks: 4
61.9874	100.0
331.1906	15.7
375.1818	12.6
375.2910	25.0

Name: Octanal
PrecursorMZ: 127.11222
RT: 5.58245
ExactMass: 128.12011513
Spectrum_type: 2
charge: -1
Formula: C8H16O
SMILES: CCCCCCCC=O
Method: HCD
Collision_energy: [28.333334]
Isolation_window: 4.0
Ion_mode: N
Num Peaks: 3
126.8805	70.1
127.1123	100.0
128.8774	34.0

Name: Oleanolic Acid
PrecursorMZ: 455.35144
RT: 9.115
ExactMass: 456.36034539
Spectrum_type: 2
charge: -1
Formula: C30H48O3
SMILES: C[C@]12CC[C@@H](C([C@@H]1CC[C@@]3([C@@H]2CC=C4[C@]3(CC[C@@]5([C@H]4CC(CC5)(C)C)C(=O)O)C)C)(C)C)O
Method: HCD
Collision_energy: [28.333334]
Isolation_window: 4.0
Ion_mode: N
Num Peaks: 2
455.3518	100.0
456.3551	32.0

Name: Oleanonic Acid
PrecursorMZ: 453.33783
RT: 9.7205
ExactMass: 454.34469533
Spectrum_type: 2
charge: -1
Formula: C30H46O3
SMILES: C[C@]12CCC(=O)C([C@@H]1CC[C@@]3([C@@H]2CC=C4[C@]3(CC[C@@]5([C@H]4CC(CC5)(C)C)C(=O)O)C)C)(C)C
Method: HCD
Collision_energy: [28.333334]
Isolation_window: 4.0
Ion_mode: N
Num Peaks: 4
281.2484	6.5
453.3384	100.0
454.3424	29.5
455.3526	10.7

Name: Oleic Acid
PrecursorMZ: 281.24848
RT: 9.8469
ExactMass: 282.255880323
Spectrum_type: 2
charge: -1
Formula: C18H34O2
SMILES: CCCCCCCC/C=C\CCCCCCCC(=O)O
Method: HCD
Collision_energy: [28.333334]
Isolation_window: 4.0
Ion_mode: N
Num Peaks: 3
281.2484	100.0
282.2518	19.0
283.2545	1.4

Name: Oridonin
PrecursorMZ: 363.18164
RT: 4.8795
ExactMass: 364.18858861
Spectrum_type: 2
charge: -1
Formula: C20H28O6
SMILES: CC1(CC[C@@H]([C@]23[C@@H]1[C@@H]([C@]([C@]45[C@H]2CC[C@H]([C@H]4O)C(=C)C5=O)(OC3)O)O)O)C
Method: HCD
Collision_energy: [28.333334]
Isolation_window: 4.0
Ion_mode: N
Num Peaks: 11
215.1431	4.0
239.1438	13.7
257.1545	26.1
258.1581	4.7
303.1238	7.8
319.1915	4.0
335.1500	3.9
363.1437	24.8
363.1821	100.0
364.1469	4.3
364.1852	23.0

Name: Orientin
PrecursorMZ: 447.09233
RT: 3.2912
ExactMass: 448.10056145
Spectrum_type: 2
charge: -1
Formula: C21H20O11
SMILES: C1=CC(=C(C=C1C2=CC(=O)C3=C(O2)C(=C(C=C3O)O)[C@H]4[C@@H]([C@H]([C@@H]([C@H](O4)CO)O)O)O)O)O
Method: HCD
Collision_energy: [28.333334]
Isolation_window: 4.0
Ion_mode: N
Num Peaks: 10
285.0395	10.4
297.0387	12.5
299.0552	14.7
327.0505	97.1
328.0534	17.5
339.0511	10.4
357.0609	58.9
358.0656	10.1
447.0927	100.0
448.0962	19.6

Name: P-Coumaric Acid
PrecursorMZ: 163.03952
RT: 3.59
ExactMass: 164.047344113
Spectrum_type: 2
charge: -1
Formula: C9H8O3
SMILES: C1=CC(=CC=C1/C=C/C(=O)O)O
Method: HCD
Collision_energy: [28.333334]
Isolation_window: 4.0
Ion_mode: N
Num Peaks: 17
59.0130	6.7
93.0338	2.6
119.0495	100.0
120.0526	8.6
121.0288	26.1
121.0384	1.1
121.0510	2.7
121.0647	3.3
136.0510	1.3
137.0349	1.3
163.0031	1.5
163.0396	17.8
163.0758	1.2
163.1124	3.7
164.0443	2.0
165.0189	2.6
165.0551	11.7

Name: Palmitoleic Acid
PrecursorMZ: 253.21721
RT: 9.4783
ExactMass: 254.224580195
Spectrum_type: 2
charge: -1
Formula: C16H30O2
SMILES: CCCCCC/C=C\CCCCCCCC(=O)O
Method: HCD
Collision_energy: [28.333334]
Isolation_window: 4.0
Ion_mode: N
Num Peaks: 4
184.0009	2.2
253.2174	100.0
254.2208	16.5
255.0883	6.9

Name: Pantothenic Acid
PrecursorMZ: 218.10304
RT: 1.7068851851851852
ExactMass: 219.11067264
Spectrum_type: 2
charge: -1
Formula: C9H17NO5
SMILES: CC(C)(CO)[C@H](C(=O)NCCC(=O)O)O
Method: HCD
Collision_energy: [28.333334]
Isolation_window: 4.0
Ion_mode: N
Num Peaks: 9
88.0395	60.0
88.9870	12.9
130.0866	17.2
146.0815	23.3
187.1082	30.9
217.0726	15.5
217.1071	13.0
218.1033	20.6
220.0611	100.0

Name: Pentadecanoic Acid
PrecursorMZ: 241.21725
RT: 9.3576
ExactMass: 242.224580195
Spectrum_type: 2
charge: -1
Formula: C15H30O2
SMILES: CCCCCCCCCCCCCCC(=O)O
Method: HCD
Collision_energy: [28.333334]
Isolation_window: 4.0
Ion_mode: N
Num Peaks: 3
241.2172	100.0
242.1777	3.4
242.2205	14.0

Name: Phloretin
PrecursorMZ: 273.07679
RT: 5.31432
ExactMass: 274.08412354
Spectrum_type: 2
charge: -1
Formula: C15H14O5
SMILES: C1=CC(=CC=C1CCC(=O)C2=C(C=C(C=C2O)O)O)O
Method: HCD
Collision_energy: [28.333334]
Isolation_window: 4.0
Ion_mode: N
Num Peaks: 6
125.0238	9.0
152.0107	13.3
152.1073	14.6
273.0768	100.0
274.0799	16.0
274.1454	12.7

Name: Phosphoric acid, diphenyl ester
PrecursorMZ: 249.03134
RT: 4.2027
ExactMass: 250.03949583
Spectrum_type: 2
charge: -1
Formula: C12H11O4P
SMILES: C1=CC=C(C=C1)OP(=O)(O)OC2=CC=CC=C2
Method: HCD
Collision_energy: [28.333334]
Isolation_window: 4.0
Ion_mode: N
Num Peaks: 3
93.0334	19.6
249.0314	100.0
250.0348	12.5

Name: Phthalic Acid
PrecursorMZ: 165.01866
RT: 3.1306
ExactMass: 166.02660867
Spectrum_type: 2
charge: -1
Formula: C8H6O4
SMILES: C1=CC=C(C(=C1)C(=O)O)C(=O)O
Method: HCD
Collision_energy: [28.333334]
Isolation_window: 4.0
Ion_mode: N
Num Peaks: 8
107.0495	1.6
119.0493	57.2
120.0525	4.4
121.0287	7.3
121.0649	100.0
122.0682	8.6
165.0549	28.6
166.0582	2.8

Name: Phytanic Acid
PrecursorMZ: 311.29569
RT: 10.568628571428572
ExactMass: 312.302830514
Spectrum_type: 2
charge: -1
Formula: C20H40O2
SMILES: CC(C)CCCC(C)CCCC(C)CCCC(C)CC(=O)O
Method: HCD
Collision_energy: [28.333334]
Isolation_window: 4.0
Ion_mode: N
Num Peaks: 4
91.0211	3.4
311.1700	3.9
311.2956	100.0
312.2990	22.2

Name: Pimelic Acid
PrecursorMZ: 159.06565
RT: 3.0267
ExactMass: 160.07355886
Spectrum_type: 2
charge: -1
Formula: C7H12O4
SMILES: C(CCC(=O)O)CCC(=O)O
Method: HCD
Collision_energy: [28.333334]
Isolation_window: 4.0
Ion_mode: N
Num Peaks: 8
97.0649	3.2
114.0915	4.3
115.0755	100.0
116.0789	6.1
141.0549	7.5
158.0815	19.1
159.0655	51.5
160.0689	3.5

Name: Pivagabine
PrecursorMZ: 186.11293
RT: 3.1806
ExactMass: 187.1208434
Spectrum_type: 2
charge: -1
Formula: C9H17NO3
SMILES: CC(C)(C)C(=O)NCCCC(=O)O
Method: HCD
Collision_energy: [28.333334]
Isolation_window: 4.0
Ion_mode: N
Num Peaks: 3
125.0962	75.5
160.0507	19.9
186.1128	100.0

Name: Platycodigenin
PrecursorMZ: 519.33304
RT: 6.1277
ExactMass: 520.34000387
Spectrum_type: 2
charge: -1
Formula: C30H48O7
SMILES: C[C@@]12CC[C@@H]3[C@@]([C@H]1CC=C4[C@]2(C[C@H]([C@@]5([C@H]4CC(CC5)(C)C)C(=O)O)O)C)(C[C@@H]([C@@H](C3(CO)CO)O)O)C
Method: HCD
Collision_energy: [28.333334]
Isolation_window: 4.0
Ion_mode: N
Num Peaks: 10
61.9874	9.8
96.9592	9.9
473.3278	87.5
474.3314	25.1
501.3250	9.1
517.3126	26.1
518.3227	30.6
519.3383	100.0
520.3465	29.0
521.3568	77.8

Name: Prosapogenin A
PrecursorMZ: 767.41988
RT: 7.483828571428571
ExactMass: 722.42412741
Spectrum_type: 2
charge: -1
Formula: C39H62O12
SMILES: C[C@@H]1CC[C@@]2([C@H]([C@H]3[C@@H](O2)C[C@@H]4[C@@]3(CC[C@H]5[C@H]4CC=C6[C@@]5(CC[C@@H](C6)O[C@H]7[C@@H]([C@H]([C@@H]([C@H](O7)CO)O)O)O[C@H]8[C@@H]([C@@H]([C@H]([C@@H](O8)C)O)O)O)C)C)C)OC1
Method: HCD
Collision_energy: [28.333334]
Isolation_window: 4.0
Ion_mode: N
Num Peaks: 21
59.0127	27.1
69.0885	3.2
71.0127	24.0
73.0283	3.2
80.1600	4.3
85.0282	4.4
89.0231	41.5
101.0231	27.0
103.0387	6.0
113.0231	14.3
119.0336	20.5
131.0336	4.9
143.0336	8.0
161.0441	3.4
163.0598	7.1
205.0704	7.8
311.1666	4.2
721.4153	100.0
722.4184	37.7
723.4235	6.2
767.4149	3.9

Name: Pseudolaric Acid C
PrecursorMZ: 389.16117
RT: 5.5310500000000005
ExactMass: 390.16785316
Spectrum_type: 2
charge: -1
Formula: C21H26O7
SMILES: C/C(=C\C=C\[C@@]1([C@@H]2CC[C@@]3([C@@]2(CCC(=CC3)C(=O)OC)O)C(=O)O1)C)/C(=O)O
Method: HCD
Collision_energy: [28.333334]
Isolation_window: 4.0
Ion_mode: N
Num Peaks: 2
343.1560	99.4
389.2342	100.0

Name: Pseudouridine
PrecursorMZ: 243.06174
RT: 0.9318
ExactMass: 244.06953611
Spectrum_type: 2
charge: -1
Formula: C9H12N2O6
SMILES: C1=C(C(=O)NC(=O)N1)[C@H]2[C@@H]([C@@H]([C@H](O2)CO)O)O
Method: HCD
Collision_energy: [28.333334]
Isolation_window: 4.0
Ion_mode: N
Num Peaks: 8
110.0241	6.5
116.0707	6.4
140.0345	9.2
153.0297	100.0
154.0334	6.0
183.0406	11.9
243.0182	10.2
243.0619	14.5

Name: Pyropheophorbide a
PrecursorMZ: 533.25636
RT: 10.243358064516128
ExactMass: 534.26309096
Spectrum_type: 2
charge: -1
Formula: C33H34N4O3
SMILES: CCC1=C(C2=NC1=CC3=C(C4=C(CC(=C5[C@H]([C@@H](C(=CC6=NC(=C2)C(=C6C)C=C)N5)C)CCC(=O)O)C4=N3)O)C)C
Method: HCD
Collision_energy: [28.333334]
Isolation_window: 4.0
Ion_mode: N
Num Peaks: 13
52.6947	6.0
59.2521	5.3
446.2079	3.9
460.2276	3.7
474.2432	100.0
475.2462	31.5
476.2501	3.9
489.2667	57.1
490.2704	18.6
533.2569	89.7
533.4244	4.5
534.2601	30.0
535.2639	4.2

Name: Quercetin
PrecursorMZ: 301.03548
RT: 4.8774
ExactMass: 302.04265265
Spectrum_type: 2
charge: -1
Formula: C15H10O7
SMILES: C1=CC(=C(C=C1C2=C(C(=O)C3=C(C=C(C=C3O2)O)O)O)O)O
Method: HCD
Collision_energy: [28.333334]
Isolation_window: 4.0
Ion_mode: N
Num Peaks: 23
107.0130	4.9
109.0286	2.0
121.0286	10.3
151.0029	48.1
152.0064	3.5
169.0134	2.4
178.9979	24.8
180.0018	1.9
253.1234	4.0
271.0247	1.9
273.0410	4.0
286.0845	3.0
299.0199	2.5
299.1285	1.6
299.2604	1.8
300.0265	2.9
301.0353	100.0
301.1081	5.5
301.1446	13.3
302.0389	16.7
302.1482	2.5
303.0403	1.7
303.1233	5.0

Name: Quillaic Acid
PrecursorMZ: 485.32528
RT: 7.6855
ExactMass: 486.33452456
Spectrum_type: 2
charge: -1
Formula: C30H46O5
SMILES: C[C@]12CC[C@@H]([C@@]([C@@H]1CC[C@@]3([C@@H]2CC=C4[C@]3(C[C@H]([C@@]5([C@H]4CC(CC5)(C)C)C(=O)O)O)C)C)(C)C=O)O
Method: HCD
Collision_energy: [28.333334]
Isolation_window: 4.0
Ion_mode: N
Num Peaks: 3
467.3150	13.3
485.3259	100.0
486.3297	28.8

Name: Raffinose
PrecursorMZ: 549.16796
RT: 0.8596666666666667
ExactMass: 504.16903493
Spectrum_type: 2
charge: -1
Formula: C18H32O16
SMILES: C([C@@H]1[C@@H]([C@@H]([C@H]([C@H](O1)OC[C@@H]2[C@H]([C@@H]([C@H]([C@H](O2)O[C@]3([C@H]([C@@H]([C@H](O3)CO)O)O)CO)O)O)O)O)O)O)O
Method: HCD
Collision_energy: [28.333334]
Isolation_window: 4.0
Ion_mode: N
Num Peaks: 13
59.0129	18.5
61.9874	28.1
71.0129	25.2
89.0235	55.6
101.0234	28.9
113.0233	21.1
119.0340	18.1
161.0446	19.6
179.0554	36.5
221.0665	14.8
341.1088	12.3
503.1619	100.0
504.1664	17.0

Name: Rhodojaponin III
PrecursorMZ: 367.21186
RT: 3.2071
ExactMass: 368.21988874
Spectrum_type: 2
charge: -1
Formula: C20H32O6
SMILES: C[C@]1(C[C@@]23C[C@H]([C@]4([C@@H]([C@H]5[C@@H](C4(C)C)O5)[C@]([C@@H]2CC[C@@H]1[C@H]3O)(C)O)O)O)O
Method: HCD
Collision_energy: [28.333334]
Isolation_window: 4.0
Ion_mode: N
Num Peaks: 22
88.9691	3.3
127.0502	1.0
130.0321	1.2
138.0550	0.8
144.0292	0.9
146.0811	7.0
195.0653	1.8
203.0814	1.8
217.1186	3.0
277.1221	11.6
278.1255	1.4
287.2003	1.1
305.2110	0.8
331.1406	3.7
349.2030	0.8
365.1967	1.7
366.1280	0.7
366.2009	1.0
367.1026	2.9
367.2120	100.0
368.2156	21.4
369.2177	2.2

Name: Ricinoleic Acid
PrecursorMZ: 297.24358
RT: 8.0263
ExactMass: 298.25079494
Spectrum_type: 2
charge: -1
Formula: C18H34O3
SMILES: CCCCCC[C@H](C/C=C\CCCCCCCC(=O)O)O
Method: HCD
Collision_energy: [28.333334]
Isolation_window: 4.0
Ion_mode: N
Num Peaks: 5
185.1177	27.4
186.1212	2.7
279.2333	1.8
297.2434	100.0
298.2468	20.8

Name: Salicylic Acid
PrecursorMZ: 137.02379
RT: 4.4724
ExactMass: 138.031694049
Spectrum_type: 2
charge: -1
Formula: C7H6O3
SMILES: C1=CC=C(C(=C1)C(=O)O)O
Method: HCD
Collision_energy: [28.333334]
Isolation_window: 4.0
Ion_mode: N
Num Peaks: 6
92.9192	5.2
93.0338	100.0
94.0371	8.2
136.8622	14.2
137.0238	36.2
138.0187	4.0

Name: Sinapic acid
PrecursorMZ: 223.06084
RT: 3.7384
ExactMass: 224.06847348
Spectrum_type: 2
charge: -1
Formula: C11H12O5
SMILES: COC1=CC(=CC(=C1O)OC)C=CC(=O)O
Method: HCD
Collision_energy: [28.333334]
Isolation_window: 4.0
Ion_mode: N
Num Peaks: 35
59.0129	32.6
94.0288	52.5
96.0445	19.1
108.0445	12.6
109.0160	14.8
119.0492	17.5
120.0809	16.1
123.0316	33.5
124.0396	40.3
133.0650	17.6
135.0444	15.4
135.0810	13.4
136.0760	22.8
137.0235	14.1
138.0552	29.1
148.0759	19.2
149.0238	23.6
152.0107	15.8
163.0394	23.0
164.0470	35.3
178.0325	15.5
178.0863	24.7
178.1227	13.2
179.0707	38.1
180.0655	41.8
180.1020	26.1
181.0862	13.0
193.0136	18.7
208.0372	83.1
222.0766	33.6
223.0608	100.0
223.0944	18.5
224.0927	29.2
225.0771	22.1
225.1116	18.8

Name: Sorbitol
PrecursorMZ: 181.07093
RT: 0.85265
ExactMass: 182.07903816
Spectrum_type: 2
charge: -1
Formula: C6H14O6
SMILES: C([C@H]([C@H]([C@@H]([C@H](CO)O)O)O)O)O
Method: HCD
Collision_energy: [28.333334]
Isolation_window: 4.0
Ion_mode: N
Num Peaks: 17
59.0129	30.7
61.9874	8.7
71.0129	47.8
73.0285	11.9
85.0285	16.2
89.0234	84.5
96.9686	13.5
101.0234	75.2
112.9847	25.5
113.0234	8.7
119.0340	20.6
124.0065	6.5
131.0342	7.7
149.0448	6.3
163.0605	22.5
181.0711	100.0
182.0743	7.1

Name: Stearic Acid
PrecursorMZ: 283.2641
RT: 10.2125
ExactMass: 284.271530387
Spectrum_type: 2
charge: -1
Formula: C18H36O2
SMILES: CCCCCCCCCCCCCCCCCC(=O)O
Method: HCD
Collision_energy: [28.333334]
Isolation_window: 4.0
Ion_mode: N
Num Peaks: 7
281.2485	7.1
282.2520	6.5
283.1992	0.7
283.2640	100.0
283.3294	0.8
284.2674	18.9
285.2700	1.5

Name: Steviol
PrecursorMZ: 317.21242
RT: 7.33136875
ExactMass: 318.21949481
Spectrum_type: 2
charge: -1
Formula: C20H30O3
SMILES: C[C@@]12CCC[C@@]([C@H]1CC[C@]34[C@H]2CC[C@](C3)(C(=C)C4)O)(C)C(=O)O
Method: HCD
Collision_energy: [28.333334]
Isolation_window: 4.0
Ion_mode: N
Num Peaks: 6
275.2018	4.6
315.2468	10.4
317.1853	3.3
317.2122	100.0
318.2154	22.9
319.1914	12.2

Name: Succinylacetone
PrecursorMZ: 157.04991
RT: 2.2629
ExactMass: 158.0579088
Spectrum_type: 2
charge: -1
Formula: C7H10O4
SMILES: CC(=O)CC(=O)CCC(=O)O
Method: HCD
Collision_energy: [28.333334]
Isolation_window: 4.0
Ion_mode: N
Num Peaks: 21
68.0133	8.5
72.9922	9.8
74.0238	9.6
83.0493	14.2
86.0238	19.4
87.0079	11.3
88.0394	32.1
95.0492	21.5
96.0081	8.9
111.0806	16.7
113.0347	8.5
113.0598	79.5
114.0012	9.4
114.0551	9.6
116.0708	100.0
155.0705	18.4
156.0651	10.4
157.0501	71.2
157.0862	54.2
158.0812	41.4
159.0655	97.0

Name: Sucralose
PrecursorMZ: 441.01281
RT: 3.2856750000000003
ExactMass: 396.014551
Spectrum_type: 2
charge: -1
Formula: C12H19Cl3O8
SMILES: C([C@@H]1[C@@H]([C@@H]([C@H]([C@H](O1)O[C@]2([C@H]([C@@H]([C@H](O2)CCl)O)O)CCl)O)O)Cl)O
Method: HCD
Collision_energy: [28.333334]
Isolation_window: 4.0
Ion_mode: N
Num Peaks: 5
359.0308	20.7
361.0281	6.7
395.0075	100.0
396.0109	14.2
397.0047	62.7

Name: Sulfachlorpyridazine
PrecursorMZ: 283.0057
RT: 4.3962666666666665
ExactMass: 284.0134744
Spectrum_type: 2
charge: -1
Formula: C10H9ClN4O2S
SMILES: C1=CC(=CC=C1N)S(=O)(=O)NC2=NN=C(C=C2)Cl
Method: HCD
Collision_energy: [28.333334]
Isolation_window: 4.0
Ion_mode: N
Num Peaks: 4
283.0059	100.0
283.2638	6.9
284.0087	13.5
285.0027	22.6

Name: Sulfadimethoxine
PrecursorMZ: 309.06509
RT: 5.075171428571428
ExactMass: 310.07357611
Spectrum_type: 2
charge: -1
Formula: C12H14N4O4S
SMILES: COC1=NC(=NC(=C1)NS(=O)(=O)C2=CC=C(C=C2)N)OC
Method: HCD
Collision_energy: [28.333334]
Isolation_window: 4.0
Ion_mode: N
Num Peaks: 2
309.0652	100.0
310.0683	11.9

Name: Sunitinib
PrecursorMZ: 397.20535
RT: 5.363345454545454
ExactMass: 398.21180428
Spectrum_type: 2
charge: -1
Formula: C22H27FN4O2
SMILES: CCN(CC)CCNC(=O)C1=C(NC(=C1C)/C=C\2/C3=C(C=CC(=C3)F)NC2=O)C
Method: HCD
Collision_energy: [28.333334]
Isolation_window: 4.0
Ion_mode: N
Num Peaks: 13
79.9563	1.1
96.9591	35.5
98.9545	1.2
353.2705	2.4
395.1968	1.9
395.2457	3.0
396.1938	3.2
396.2484	1.5
397.2066	100.0
397.2559	4.8
398.2098	22.5
398.2595	1.5
399.1845	15.1

Name: Syringic Acid
PrecursorMZ: 197.04521
RT: 3.3008
ExactMass: 198.05282342
Spectrum_type: 2
charge: -1
Formula: C9H10O5
SMILES: COC1=CC(=CC(=C1O)OC)C(=O)O
Method: HCD
Collision_energy: [28.333334]
Isolation_window: 4.0
Ion_mode: N
Num Peaks: 17
59.0130	21.9
79.9564	13.3
98.9558	14.5
114.9506	9.7
123.0443	17.9
125.0238	23.3
135.0444	11.9
137.0237	25.1
142.9459	26.1
151.0395	17.7
152.0471	12.3
153.0552	45.4
165.0551	100.0
170.9406	10.1
179.0343	12.2
196.0370	9.7
197.0450	36.3

Name: Taurine
PrecursorMZ: 124.0064
RT: 0.8610428571428571
ExactMass: 125.01466426
Spectrum_type: 2
charge: -1
Formula: C2H7NO3S
SMILES: C(CS(=O)(=O)O)N
Method: HCD
Collision_energy: [28.333334]
Isolation_window: 4.0
Ion_mode: N
Num Peaks: 8
79.9564	60.7
94.9799	6.1
122.9059	4.1
122.9748	4.7
124.0065	100.0
124.0393	5.2
124.9906	5.3
125.0235	2.9

Name: Taurocholic Acid
PrecursorMZ: 514.28218
RT: 5.071466666666667
ExactMass: 515.29167395
Spectrum_type: 2
charge: -1
Formula: C26H45NO7S
SMILES: C[C@H](CCC(=O)NCCS(=O)(=O)O)[C@H]1CC[C@@H]2[C@@]1([C@H](C[C@H]3[C@H]2[C@@H](C[C@H]4[C@@]3(CC[C@H](C4)O)C)O)O)C
Method: HCD
Collision_energy: [28.333334]
Isolation_window: 4.0
Ion_mode: N
Num Peaks: 8
57.0295	2.7
57.1409	3.1
57.1441	4.5
96.9588	16.6
513.2505	69.3
514.2847	100.0
515.2758	49.6
516.2763	13.2

Name: Taurodeoxycholic Acid
PrecursorMZ: 498.28999
RT: 5.6851
ExactMass: 499.29675933
Spectrum_type: 2
charge: -1
Formula: C26H45NO6S
SMILES: C[C@H](CCC(=O)NCCS(=O)(=O)O)[C@H]1CC[C@@H]2[C@@]1([C@H](C[C@H]3[C@H]2CC[C@H]4[C@@]3(CC[C@H](C4)O)C)O)C
Method: HCD
Collision_energy: [28.333334]
Isolation_window: 4.0
Ion_mode: N
Num Peaks: 3
498.2900	100.0
499.2937	29.8
500.2897	6.6

Name: Tauroursodeoxycholic acid
PrecursorMZ: 498.2898
RT: 4.9727
ExactMass: 499.29675933
Spectrum_type: 2
charge: -1
Formula: C26H45NO6S
SMILES: C[C@H](CCC(=O)NCCS(=O)(=O)O)[C@H]1CC[C@@H]2[C@@]1(CC[C@H]3[C@H]2[C@H](C[C@H]4[C@@]3(CC[C@H](C4)O)C)O)C
Method: HCD
Collision_energy: [28.333334]
Isolation_window: 4.0
Ion_mode: N
Num Peaks: 4
55.3670	4.5
498.2898	100.0
499.2931	26.1
500.2927	5.0

Name: Tectorigenin
PrecursorMZ: 299.05601
RT: 5.4795
ExactMass: 300.0633881
Spectrum_type: 2
charge: -1
Formula: C16H12O6
SMILES: COC1=C(C2=C(C=C1O)OC=C(C2=O)C3=CC=C(C=C3)O)O
Method: HCD
Collision_energy: [28.333334]
Isolation_window: 4.0
Ion_mode: N
Num Peaks: 17
107.0492	16.2
119.0493	7.5
121.0649	6.8
145.0649	2.5
165.0549	6.4
189.0550	9.4
251.1075	2.0
253.1231	25.0
254.1267	6.7
284.0323	18.7
285.0356	2.6
297.1130	100.0
297.1415	2.5
298.1163	28.6
299.0558	14.9
299.1191	3.7
300.0594	2.6

Name: Tenofovir
PrecursorMZ: 286.07099
RT: 0.9338
ExactMass: 287.07834094
Spectrum_type: 2
charge: -1
Formula: C9H14N5O4P
SMILES: C[C@H](CN1C=NC2=C(N=CN=C21)N)OCP(=O)(O)O
Method: HCD
Collision_energy: [28.333334]
Isolation_window: 4.0
Ion_mode: N
Num Peaks: 12
62.9632	6.5
78.9580	1.7
80.9738	10.3
88.9871	2.7
96.9687	1.9
110.9844	15.2
134.0464	77.8
135.0508	3.1
151.0159	24.6
286.0711	100.0
287.0742	10.7
288.0775	1.1

Name: Terephthalic Acid
PrecursorMZ: 165.01876
RT: 2.8054
ExactMass: 166.02660867
Spectrum_type: 2
charge: -1
Formula: C8H6O4
SMILES: C1=CC(=CC=C1C(=O)O)C(=O)O
Method: HCD
Collision_energy: [28.333334]
Isolation_window: 4.0
Ion_mode: N
Num Peaks: 17
82.0402	5.3
96.9591	13.7
119.0492	4.7
120.0559	7.0
121.0286	100.0
121.0511	6.4
122.0329	5.6
122.0605	7.0
123.0443	4.8
136.0507	4.7
137.0349	6.4
152.0106	9.7
163.0397	5.1
165.0188	11.8
165.0412	5.1
165.0556	5.5
167.0366	21.5

Name: Tetradecanedioic acid
PrecursorMZ: 257.17588
RT: 6.623536363636363
ExactMass: 258.18310931
Spectrum_type: 2
charge: -1
Formula: C14H26O4
SMILES: C(CCCCCCC(=O)O)CCCCCC(=O)O
Method: HCD
Collision_energy: [28.333334]
Isolation_window: 4.0
Ion_mode: N
Num Peaks: 10
125.0961	16.1
146.9376	22.0
166.9599	18.7
182.9538	25.2
210.9491	69.4
219.8455	17.1
228.9599	62.6
239.1649	100.0
240.1685	16.7
257.1296	62.2

Name: Tetrahydrocortisone
PrecursorMZ: 363.2183
RT: 5.4369
ExactMass: 364.22497412
Spectrum_type: 2
charge: -1
Formula: C21H32O5
SMILES: C[C@]12CC[C@H](C[C@H]1CC[C@@H]3[C@@H]2C(=O)C[C@]4([C@H]3CC[C@@]4(C(=O)CO)O)C)O
Method: HCD
Collision_energy: [28.333334]
Isolation_window: 4.0
Ion_mode: N
Num Peaks: 8
57.0337	6.2
137.0238	10.2
261.1861	42.4
262.1891	8.0
315.1237	11.5
316.1276	31.2
363.2181	100.0
364.2213	24.3

Name: Tetrahydrocurcumin
PrecursorMZ: 371.1502
RT: 6.8868
ExactMass: 372.15728848
Spectrum_type: 2
charge: -1
Formula: C21H24O6
SMILES: COC1=C(C=CC(=C1)CCC(=O)CC(=O)CCC2=CC(=C(C=C2)O)OC)O
Method: HCD
Collision_energy: [28.333334]
Isolation_window: 4.0
Ion_mode: N
Num Peaks: 9
57.0337	10.8
99.0442	100.0
100.0473	5.5
177.0548	14.3
193.0865	34.6
235.0974	55.6
236.1013	6.9
371.1501	73.8
372.1529	17.0

Name: Theophylline
PrecursorMZ: 179.05679
RT: 2.350751724137931
ExactMass: 180.06472551
Spectrum_type: 2
charge: -1
Formula: C7H8N4O2
SMILES: CN1C2=C(C(=O)N(C1=O)C)NC=N2
Method: HCD
Collision_energy: [28.333334]
Isolation_window: 4.0
Ion_mode: N
Num Peaks: 10
90.9971	1.0
122.0351	3.3
134.9871	3.5
140.0455	0.7
164.0332	10.4
178.9778	0.7
179.0237	0.8
179.0567	100.0
179.0891	0.7
180.0605	7.5

Name: Thymidine
PrecursorMZ: 241.08268
RT: 1.521425
ExactMass: 242.09027155
Spectrum_type: 2
charge: -1
Formula: C10H14N2O5
SMILES: CC1=CN(C(=O)NC1=O)[C@H]2C[C@@H]([C@H](O2)CO)O
Method: HCD
Collision_energy: [28.333334]
Isolation_window: 4.0
Ion_mode: N
Num Peaks: 18
72.9921	34.1
88.9870	35.4
110.0238	35.3
112.0395	18.3
124.0395	87.0
125.0348	40.3
128.0344	29.2
137.0600	16.5
139.0505	14.9
151.0506	19.2
180.0654	16.7
224.0554	14.3
240.0844	26.9
241.0345	18.5
241.0854	100.0
242.0645	32.7
243.0495	22.9
243.0852	19.2

Name: Tormentic Acid
PrecursorMZ: 487.34088
RT: 7.0637
ExactMass: 488.35017463
Spectrum_type: 2
charge: -1
Formula: C30H48O5
SMILES: C[C@@H]1CC[C@@]2(CC[C@@]3(C(=CC[C@H]4[C@]3(CC[C@@H]5[C@@]4(C[C@H]([C@@H](C5(C)C)O)O)C)C)[C@@H]2[C@]1(C)O)C)C(=O)O
Method: HCD
Collision_energy: [28.333334]
Isolation_window: 4.0
Ion_mode: N
Num Peaks: 9
54.1475	2.0
54.1504	4.6
61.9871	2.6
69.2459	2.0
469.3305	13.6
470.3341	4.1
487.3414	100.0
488.3448	29.8
489.3485	3.9

Name: Traumatic Acid
PrecursorMZ: 227.12865
RT: 5.873
ExactMass: 228.13615911
Spectrum_type: 2
charge: -1
Formula: C12H20O4
SMILES: C(CCCCC(=O)O)CCC/C=C/C(=O)O
Method: HCD
Collision_energy: [28.333334]
Isolation_window: 4.0
Ion_mode: N
Num Peaks: 8
108.0445	23.7
182.9541	60.2
183.1384	100.0
185.1545	25.1
210.9490	13.1
227.1285	59.0
228.9596	15.6
229.1445	25.2

Name: Triamcinolone
PrecursorMZ: 393.1701
RT: 4.3395
ExactMass: 394.17916674
Spectrum_type: 2
charge: -1
Formula: C21H27FO6
SMILES: C[C@]12C[C@@H]([C@]3([C@H]([C@@H]1C[C@H]([C@@]2(C(=O)CO)O)O)CCC4=CC(=O)C=C[C@@]43C)F)O
Method: HCD
Collision_energy: [28.333334]
Isolation_window: 4.0
Ion_mode: N
Num Peaks: 8
61.9874	28.5
87.0440	10.2
130.0321	11.6
146.0814	35.0
217.1188	18.9
277.1226	100.0
278.1256	12.0
347.1647	18.7

Name: Tridecanedioic acid
PrecursorMZ: 243.16017
RT: 6.251730434782608
ExactMass: 244.16745924
Spectrum_type: 2
charge: -1
Formula: C13H24O4
SMILES: C(CCCCCC(=O)O)CCCCCC(=O)O
Method: HCD
Collision_energy: [28.333334]
Isolation_window: 4.0
Ion_mode: N
Num Peaks: 4
181.1592	64.2
241.1803	13.1
243.1600	100.0
244.1632	13.9

Name: Triptophenolide
PrecursorMZ: 311.16844
RT: 7.6033
ExactMass: 312.17254462
Spectrum_type: 2
charge: -1
Formula: C20H24O3
SMILES: CC(C)C1=C(C2=C(C=C1)[C@]3(CCC4=C([C@@H]3CC2)COC4=O)C)O
Method: HCD
Collision_energy: [28.333334]
Isolation_window: 4.0
Ion_mode: N
Num Peaks: 11
183.0109	2.3
216.0092	1.2
293.2121	2.7
296.0688	3.7
311.0928	4.3
311.1685	100.0
311.2220	9.0
312.1717	18.9
312.2251	1.6
313.1666	3.1
313.2383	4.5

Name: Turanose
PrecursorMZ: 387.11277
RT: 0.8701923076923077
ExactMass: 342.11621151
Spectrum_type: 2
charge: -1
Formula: C12H22O11
SMILES: C([C@@H]1[C@H]([C@@H]([C@H]([C@H](O1)O[C@@H]([C@@H]([C@@H](CO)O)O)C(=O)CO)O)O)O)O
Method: HCD
Collision_energy: [28.333334]
Isolation_window: 4.0
Ion_mode: N
Num Peaks: 10
59.0127	16.7
71.0126	35.0
73.0282	22.8
89.0231	41.9
97.0282	21.1
101.0230	61.6
112.9843	31.4
143.0334	17.7
161.0441	100.0
179.0545	42.4

Name: Ubenimex
PrecursorMZ: 307.16517
RT: 4.1733
ExactMass: 308.17360725
Spectrum_type: 2
charge: -1
Formula: C16H24N2O4
SMILES: CC(C)C[C@@H](C(=O)O)NC(=O)[C@H]([C@@H](CC1=CC=CC=C1)N)O
Method: HCD
Collision_energy: [28.333334]
Isolation_window: 4.0
Ion_mode: N
Num Peaks: 11
59.0127	22.4
103.9191	16.8
122.0598	26.7
138.0911	52.8
146.9373	18.4
182.0810	91.3
236.8775	13.9
263.1756	36.7
280.8673	17.0
307.1653	100.0
308.1685	21.3

Name: Umbelliferone
PrecursorMZ: 161.02378
RT: 3.9266
ExactMass: 162.031694049
Spectrum_type: 2
charge: -1
Formula: C9H6O3
SMILES: C1=CC(=CC2=C1C=CC(=O)O2)O
Method: HCD
Collision_energy: [28.333334]
Isolation_window: 4.0
Ion_mode: N
Num Peaks: 15
65.0136	4.6
65.9976	3.5
91.0292	5.0
106.0402	3.6
118.0400	3.6
121.0511	9.5
132.0558	4.4
133.0400	5.7
133.0512	5.8
134.0348	6.3
159.0669	4.4
160.0506	3.6
161.0237	100.0
161.0460	3.8
162.0280	9.7

Name: Undecanedioic Acid
PrecursorMZ: 215.12856
RT: 5.286908333333334
ExactMass: 216.13615911
Spectrum_type: 2
charge: -1
Formula: C11H20O4
SMILES: C(CCCCC(=O)O)CCCCC(=O)O
Method: HCD
Collision_energy: [28.333334]
Isolation_window: 4.0
Ion_mode: N
Num Peaks: 11
116.0496	28.6
122.8933	48.6
125.8724	34.8
157.8624	100.0
170.0970	17.1
186.8971	72.6
197.1181	20.7
213.9631	18.5
215.0095	54.6
215.1281	22.3
216.1028	98.3

Name: Uric Acid
PrecursorMZ: 167.02032
RT: 0.9781500000000001
ExactMass: 168.02834
Spectrum_type: 2
charge: -1
Formula: C5H4N4O3
SMILES: C12=C(NC(=O)N1)NC(=O)NC2=O
Method: HCD
Collision_energy: [28.333334]
Isolation_window: 4.0
Ion_mode: N
Num Peaks: 10
69.0084	1.5
96.0194	5.4
98.0238	1.6
123.0067	2.4
124.0144	41.5
125.0181	1.8
142.0250	3.3
166.0126	3.5
167.0204	100.0
168.0248	4.8

Name: Urolithin A
PrecursorMZ: 227.03488
RT: 4.746345714285714
ExactMass: 228.04225873
Spectrum_type: 2
charge: -1
Formula: C13H8O4
SMILES: C1=CC2=C(C=C1O)C(=O)OC3=C2C=CC(=C3)O
Method: HCD
Collision_energy: [28.333334]
Isolation_window: 4.0
Ion_mode: N
Num Peaks: 4
182.9542	9.0
226.0273	10.4
227.0347	100.0
228.0381	13.2

Name: Urolithin C
PrecursorMZ: 243.02988
RT: 4.062046153846154
ExactMass: 244.03717335
Spectrum_type: 2
charge: -1
Formula: C13H8O5
SMILES: C1=CC2=C(C=C1O)OC(=O)C3=CC(=C(C=C23)O)O
Method: HCD
Collision_energy: [28.333334]
Isolation_window: 4.0
Ion_mode: N
Num Peaks: 3
242.0221	3.5
243.0297	100.0
244.0332	13.2

Name: Ursonic Acid
PrecursorMZ: 499.34288
RT: 9.822642857142856
ExactMass: 454.34469533
Spectrum_type: 2
charge: -1
Formula: C30H46O3
SMILES: C[C@@H]1CC[C@@]2(CC[C@@]3(C(=CC[C@H]4[C@]3(CC[C@@H]5[C@@]4(CCC(=O)C5(C)C)C)C)[C@@H]2[C@H]1C)C)C(=O)O
Method: HCD
Collision_energy: [28.333334]
Isolation_window: 4.0
Ion_mode: N
Num Peaks: 2
453.3392	100.0
454.3443	42.2

Name: Usnic Acid
PrecursorMZ: 343.08258
RT: 6.2914
ExactMass: 344.08960285
Spectrum_type: 2
charge: -1
Formula: C18H16O7
SMILES: CC1=C(C(=C2C(=C1O)C3(C(=CC(=O)C(C3=O)C(=O)C)O2)C)C(=O)C)O
Method: HCD
Collision_energy: [28.333334]
Isolation_window: 4.0
Ion_mode: N
Num Peaks: 25
91.0391	9.3
126.0315	18.6
171.1022	16.1
211.1340	8.1
225.1496	12.7
265.1808	13.3
297.2073	79.7
297.9762	7.8
298.2107	18.6
312.9999	77.6
313.0365	44.5
314.0039	10.6
323.1906	12.6
328.0233	93.1
328.0601	65.4
329.0265	13.4
329.0639	12.8
341.1979	100.0
342.2017	25.7
343.0463	79.6
343.0838	83.9
343.2486	58.4
344.0495	15.8
344.0874	14.5
344.2538	11.3

Name: Val-Phe
PrecursorMZ: 263.13944
RT: 2.8962136363636364
ExactMass: 264.1473925
Spectrum_type: 2
charge: -1
Formula: C14H20N2O3
SMILES: CC(C)[C@@H](C(=O)N[C@@H](CC1=CC=CC=C1)C(=O)O)N
Method: HCD
Collision_energy: [28.333334]
Isolation_window: 4.0
Ion_mode: N
Num Peaks: 6
115.0866	67.5
147.0441	19.2
164.0707	13.7
219.1490	6.0
263.1396	100.0
264.1429	13.4

Name: Vanillic Acid
PrecursorMZ: 167.03433
RT: 3.0116
ExactMass: 168.04225873
Spectrum_type: 2
charge: -1
Formula: C8H8O4
SMILES: COC1=C(C=CC(=C1)C(=O)O)O
Method: HCD
Collision_energy: [28.333334]
Isolation_window: 4.0
Ion_mode: N
Num Peaks: 15
82.0401	2.9
95.0131	2.7
95.0241	2.7
97.0398	3.6
98.0239	2.8
108.0206	3.5
109.0287	4.1
109.0399	2.4
121.0287	3.6
122.0365	62.2
123.0444	100.0
124.0480	6.7
137.0236	2.4
166.0259	2.7
167.0344	17.8

Name: Vanillin
PrecursorMZ: 151.03936
RT: 3.7373
ExactMass: 152.047344113
Spectrum_type: 2
charge: -1
Formula: C8H8O3
SMILES: COC1=C(C=CC(=C1)C=O)O
Method: HCD
Collision_energy: [28.333334]
Isolation_window: 4.0
Ion_mode: N
Num Peaks: 23
65.0136	23.3
65.9976	23.7
66.0340	21.5
67.0293	27.9
68.0132	14.1
81.0448	32.6
82.0290	15.4
82.0400	17.6
83.0242	16.9
106.0402	24.2
106.9921	79.0
107.0493	100.0
108.0566	14.4
109.0398	44.1
110.0238	50.0
122.0355	18.3
123.0192	21.3
123.0557	13.6
125.0350	15.7
150.0302	20.5
150.0663	17.1
151.0395	79.5
152.0456	18.3

Name: Xanthine
PrecursorMZ: 151.02541
RT: 1.0455
ExactMass: 152.03342538
Spectrum_type: 2
charge: -1
Formula: C5H4N4O2
SMILES: C1=NC2=C(N1)C(=O)NC(=O)N2
Method: HCD
Collision_energy: [28.333334]
Isolation_window: 4.0
Ion_mode: N
Num Peaks: 15
63.9616	1.5
78.9850	7.4
79.9564	2.3
80.9643	5.5
93.9959	4.3
94.9799	2.5
96.9592	1.7
108.0194	20.9
119.9751	2.2
122.9749	5.6
126.0299	1.6
149.9859	6.0
151.0254	100.0
152.0016	5.4
152.0297	4.8

Name: Xanthohumol
PrecursorMZ: 353.1398
RT: 7.93164
ExactMass: 354.1467238
Spectrum_type: 2
charge: -1
Formula: C21H22O5
SMILES: CC(=CCC1=C(C(=C(C=C1O)OC)C(=O)/C=C/C2=CC=C(C=C2)O)O)C
Method: HCD
Collision_energy: [28.333334]
Isolation_window: 4.0
Ion_mode: N
Num Peaks: 9
119.0494	25.8
233.0820	14.3
249.1132	3.6
353.1428	33.0
353.2158	100.0
354.1464	6.2
354.2190	21.7
355.0830	4.5
355.1550	3.4

Name: Xanthosine
PrecursorMZ: 283.06705
RT: 1.0175
ExactMass: 284.07568412
Spectrum_type: 2
charge: -1
Formula: C10H12N4O6
SMILES: C1=NC2=C(N1[C@H]3[C@@H]([C@@H]([C@H](O3)CO)O)O)NC(=O)NC2=O
Method: HCD
Collision_energy: [28.333334]
Isolation_window: 4.0
Ion_mode: N
Num Peaks: 13
88.9868	1.6
108.0187	1.5
133.0143	6.3
150.0408	100.0
151.0154	1.7
151.0248	97.0
151.0428	4.4
152.0292	4.5
281.0875	1.4
282.0832	37.2
282.9879	5.2
283.0660	36.7
284.0689	4.2

Name: Zearalenone
PrecursorMZ: 317.13977
RT: 7.0175
ExactMass: 318.1467238
Spectrum_type: 2
charge: -1
Formula: C18H22O5
SMILES: C[C@H]1CCCC(=O)CCC/C=C/C2=C(C(=CC(=C2)O)O)C(=O)O1
Method: HCD
Collision_energy: [28.333334]
Isolation_window: 4.0
Ion_mode: N
Num Peaks: 15
79.9565	2.2
96.9592	5.5
229.1597	33.8
230.1629	6.0
255.1393	6.0
273.1500	10.8
274.1532	2.0
299.1288	4.1
315.1264	5.7
315.6282	14.7
316.1349	100.0
316.6365	33.1
317.1389	44.1
317.6402	6.2
318.1425	6.7

Name: Zeatin
PrecursorMZ: 218.10432
RT: 0.9166
ExactMass: 219.11201006
Spectrum_type: 2
charge: -1
Formula: C10H13N5O
SMILES: C/C(=C\CNC1=NC=NC2=C1NC=N2)/CO
Method: HCD
Collision_energy: [28.333334]
Isolation_window: 4.0
Ion_mode: N
Num Peaks: 25
75.0078	1.5
85.0285	1.1
88.0395	5.1
92.0243	1.3
96.9592	16.5
111.0079	12.8
114.0551	1.3
128.0344	1.9
129.0187	1.1
129.1025	1.2
133.0512	4.0
134.0465	7.8
155.1179	1.2
160.0622	100.0
161.0664	7.3
173.0925	4.2
198.1128	1.2
199.0718	1.9
216.0852	1.1
216.1230	1.6
217.0158	5.0
217.0850	3.0
217.1186	5.2
218.1043	58.8
219.1076	6.0

Name: alpha-Methylene butyrolactone
PrecursorMZ: 195.06572
RT: 3.501
ExactMass: 98.03677943
Spectrum_type: 2
charge: -1
Formula: C5H6O2
SMILES: C=C1CCOC1=O
Method: HCD
Collision_energy: [28.333334]
Isolation_window: 4.0
Ion_mode: N
Num Peaks: 7
91.0294	8.8
93.0337	31.2
107.0494	17.0
121.0287	23.1
123.0555	8.9
195.0657	100.0
196.0697	12.6

Name: beta-D N-Acetylgalactosamine
PrecursorMZ: 256.05928
RT: 0.8719
ExactMass: 221.0899372
Spectrum_type: 2
charge: -1
Formula: C8H15NO6
SMILES: CC(=O)N[C@@H](C=O)[C@H]([C@H]([C@@H](CO)O)O)O
Method: HCD
Collision_energy: [28.333334]
Isolation_window: 4.0
Ion_mode: N
Num Peaks: 13
75.0078	26.3
78.9850	11.6
92.9269	8.9
94.9241	14.6
119.0340	14.2
217.8663	11.7
219.8448	100.0
219.8633	28.8
221.8417	45.9
222.8500	13.7
254.0701	9.1
256.0594	18.1
257.0652	12.3

Name: cis-11-Eicosenoic acid
PrecursorMZ: 309.27992
RT: 10.5718
ExactMass: 310.287180451
Spectrum_type: 2
charge: -1
Formula: C20H38O2
SMILES: CCCCCCCC/C=C\CCCCCCCCCC(=O)O
Method: HCD
Collision_energy: [28.333334]
Isolation_window: 4.0
Ion_mode: N
Num Peaks: 8
183.0113	3.5
309.1528	1.3
309.2800	100.0
310.2835	22.0
311.1687	82.0
311.2856	1.3
311.2917	3.5
311.2950	11.2

Name: cis-Aconitic acid
PrecursorMZ: 173.0086
RT: 1.1408
ExactMass: 174.01643791
Spectrum_type: 2
charge: -1
Formula: C6H6O6
SMILES: C(/C(=C/C(=O)O)/C(=O)O)C(=O)O
Method: HCD
Collision_energy: [28.333334]
Isolation_window: 4.0
Ion_mode: N
Num Peaks: 27
58.0289	5.4
59.0130	5.3
69.0336	3.1
71.0129	2.3
72.9922	3.3
85.0286	100.0
86.0318	5.2
87.0442	4.5
88.0395	20.2
103.0029	2.5
111.0079	46.1
112.0108	2.7
112.0396	2.8
113.0234	3.4
114.0188	5.5
115.0028	4.1
129.0185	24.2
130.0501	8.7
131.0342	2.6
146.9606	2.4
156.0295	2.6
157.0136	23.4
171.0185	2.4
173.0086	3.3
173.0240	9.9
174.0410	8.3
175.0246	3.8

Name: delta-Gluconolactone
PrecursorMZ: 177.03991
RT: 0.93805
ExactMass: 178.04773803
Spectrum_type: 2
charge: -1
Formula: C6H10O6
SMILES: C([C@@H]1[C@H]([C@@H]([C@H](C(=O)O1)O)O)O)O
Method: HCD
Collision_energy: [28.333334]
Isolation_window: 4.0
Ion_mode: N
Num Peaks: 39
59.0129	11.4
69.0337	22.1
70.0371	1.9
71.0129	7.8
71.0493	4.8
72.9922	2.7
73.0286	13.4
75.0079	20.6
83.0129	7.0
85.0285	8.8
87.0078	24.9
87.0442	25.3
88.0395	4.8
88.0474	1.9
89.0235	23.9
89.0427	3.0
97.0286	2.6
99.0079	1.9
101.0235	28.4
113.0235	17.7
114.0268	2.1
115.0392	20.3
119.0341	3.4
131.0341	15.6
132.0852	3.4
133.0498	4.2
141.0184	1.7
157.0135	100.0
158.0169	16.6
159.0178	2.8
159.0293	8.9
161.0449	12.1
175.0243	13.7
175.0424	1.7
176.0282	2.3
176.0570	1.8
177.0399	38.7
178.0434	1.9
179.0555	32.2

Name: epsilon-Acetyl-L-lysine
PrecursorMZ: 187.1083
RT: 0.946945
ExactMass: 188.11609238
Spectrum_type: 2
charge: -1
Formula: C8H16N2O3
SMILES: CC(=O)NCCCC[C@@H](C(=O)O)N
Method: HCD
Collision_energy: [28.333334]
Isolation_window: 4.0
Ion_mode: N
Num Peaks: 58
58.0289	9.8
59.0130	8.8
71.0129	4.3
71.0493	9.5
73.0285	9.6
75.0078	5.8
78.9581	4.2
82.0289	5.4
83.0129	5.7
83.0492	7.0
84.0445	7.7
85.0285	8.0
87.0078	58.8
88.0394	29.5
96.0445	4.0
97.0284	8.8
98.0238	12.9
98.0601	6.1
99.0443	6.5
100.0394	8.9
110.9843	11.0
111.0077	4.7
113.0235	4.7
114.0551	10.7
116.0347	4.0
116.0708	9.4
117.0661	6.1
119.0341	10.2
124.0395	4.5
125.0235	5.4
125.0711	13.4
126.0551	8.3
127.0392	5.3
127.0503	12.3
128.0346	4.6
131.0817	8.4
141.0659	6.2
142.0501	57.0
142.0865	11.4
143.1181	15.0
144.0294	9.2
144.0658	11.2
145.0609	25.4
145.0973	19.0
159.0766	4.9
167.0342	4.0
169.0609	6.3
171.0292	12.0
185.0420	5.6
185.0567	4.3
186.0397	21.5
186.0761	10.8
187.0731	29.9
187.1081	100.0
188.0558	28.5
188.0922	6.8
188.1114	8.8
189.0398	23.2

Name: gamma-Hexalactone
PrecursorMZ: 159.06643
RT: 3.5822
ExactMass: 114.068079557
Spectrum_type: 2
charge: -1
Formula: C6H10O2
SMILES: CCC1CCC(=O)O1
Method: HCD
Collision_energy: [28.333334]
Isolation_window: 4.0
Ion_mode: N
Num Peaks: 7
115.0755	100.0
116.0790	5.2
132.0557	4.8
133.0398	4.9
133.0512	5.3
141.0549	7.4
159.0657	48.4

Name: m-Tolylacetic acid
PrecursorMZ: 149.06017
RT: 5.1677333333333335
ExactMass: 150.068079557
Spectrum_type: 2
charge: -1
Formula: C9H10O2
SMILES: CC1=CC(=CC=C1)CC(=O)O
Method: HCD
Collision_energy: [28.333334]
Isolation_window: 4.0
Ion_mode: N
Num Peaks: 2
106.9921	20.1
149.0602	100.0

Name: ((1S,2R,4aR,8aR)-1-acetyloxy-1,4a-dimethyl-6-oxo-7-propan-2-ylidene-2,3,4,5,8,8a-hexahydronaphthalen-2-yl) 3-acetyloxy-2-hydroxy-2-methylbutanoate
PrecursorMZ: 451.23417
RT: 3.3149
ExactMass: 452.2410181
Spectrum_type: 2
charge: -1
Formula: C24H36O8
SMILES: CC(C(C)(C(=O)O[C@@H]1CC[C@@]2(CC(=O)C(=C(C)C)C[C@H]2[C@]1(C)OC(=O)C)C)O)OC(=O)C
Method: HCD
Collision_energy: [28.333334]
Isolation_window: 4.0
Ion_mode: N
Num Peaks: 10
59.0129	38.7
80.9642	3.9
88.9871	5.1
96.9592	5.9
225.1130	100.0
226.1161	13.5
232.0588	4.8
450.2191	19.4
451.2210	6.6
452.2400	4.0

Name: ((1aS,1bS,5S,5aS,6S)-6-hydroxy-6-(hydroxymethyl)-2-(((2R,3R,4S,5S,6R)-3,4,5-trihydroxy-6-(hydroxymethyl)oxan-2-yl)oxymethyl)-1b,5,5a,6a-tetrahydro-1aH-oxireno(3,4)cyclopenta(1,3-d)pyran-5-yl) 3-methylbutanoate
PrecursorMZ: 511.15936
RT: 5.0571
ExactMass: 476.18937645
Spectrum_type: 2
charge: -1
Formula: C21H32O12
SMILES: CC(C)CC(=O)OC1C2C(C3C(C2(CO)O)O3)C(=CO1)COC4C(C(C(C(O4)CO)O)O)O
Method: HCD
Collision_energy: [28.333334]
Isolation_window: 4.0
Ion_mode: N
Num Peaks: 45
56.7962	2.7
59.0118	3.3
74.0225	15.2
97.4659	2.8
114.0546	4.9
145.0284	3.1
150.0309	3.4
161.0225	2.4
162.0308	6.7
165.0545	7.4
195.0648	7.8
225.0759	17.9
247.0599	3.9
258.0527	3.3
261.0757	5.7
263.0551	5.2
271.0595	3.1
273.0754	4.6
274.0829	3.5
275.0547	2.6
276.0627	3.8
277.0707	23.9
278.0743	3.3
289.0700	8.7
289.1063	2.5
290.0761	2.4
291.0858	6.0
305.0654	4.6
315.0863	10.4
318.0733	3.4
332.0894	3.9
333.0969	100.0
334.1009	15.6
345.0969	4.9
465.1751	7.8
465.3040	25.1
466.3063	6.8
493.1491	5.8
509.3308	37.3
510.1841	7.5
510.3340	11.4
511.1584	41.1
511.3347	18.5
512.1565	11.2
512.3391	4.7

Name: ((2R)-2-((E,2S,4R)-4,6-dimethyloct-6-en-2-yl)-6-oxo-2,3-dihydropyran-3-yl) (2E,4E,6S)-8-hydroxy-6-(hydroxymethyl)-4-methylocta-2,4-dienoate
PrecursorMZ: 433.25982
RT: 8.6876
ExactMass: 434.26683893
Spectrum_type: 2
charge: -1
Formula: C25H38O6
SMILES: C/C=C(\C)/C[C@H](C)C[C@H](C)[C@@H]1C(C=CC(=O)O1)OC(=O)/C=C/C(=C/[C@H](CCO)CO)/C
Method: HCD
Collision_energy: [28.333334]
Isolation_window: 4.0
Ion_mode: N
Num Peaks: 12
61.9874	6.3
181.1225	12.2
353.2486	5.1
355.2263	3.4
369.2434	16.4
370.2501	12.7
371.2550	3.4
387.2543	100.0
388.2575	28.1
405.2647	41.2
406.2681	11.4
433.2580	3.7

Name: ((2R)-2-hydroxy-3-(hydroxy-((5R)-2,3,4,5,6-pentahydroxycyclohexyl)oxyphosphoryl)oxypropyl) hexadecanoate
PrecursorMZ: 571.28868
RT: 7.4522
ExactMass: 572.29616399
Spectrum_type: 2
charge: -1
Formula: C25H49O12P
SMILES: CCCCCCCCCCCCCCCC(=O)OC[C@H](COP(=O)(O)OC1C([C@@H](C(C(C1O)O)O)O)O)O
Method: HCD
Collision_energy: [28.333334]
Isolation_window: 4.0
Ion_mode: N
Num Peaks: 12
63.4785	4.1
78.9580	10.3
96.9685	3.9
152.9950	52.2
241.0115	35.6
255.2326	77.4
256.2361	11.7
315.0485	14.7
391.2259	4.1
571.2887	100.0
572.2924	26.9
573.2975	3.4

Name: ((2S)-2-benzamido-3-methylbutyl) (2S,3R)-2-benzamido-3-methylpentanoate
PrecursorMZ: 469.23444
RT: 4.7884
ExactMass: 424.23620751
Spectrum_type: 2
charge: -1
Formula: C25H32N2O4
SMILES: CC[C@@H](C)[C@@H](C(=O)OC[C@H](C(C)C)NC(=O)C1=CC=CC=C1)NC(=O)C2=CC=CC=C2
Method: HCD
Collision_energy: [28.333334]
Isolation_window: 4.0
Ion_mode: N
Num Peaks: 12
86.0601	5.4
91.0543	1.5
96.9591	1.9
98.0602	5.6
147.0443	7.8
164.0710	34.3
165.0745	3.2
234.1132	100.0
235.1166	13.6
423.2752	4.6
470.2600	2.7
471.2458	4.5

Name: ((3S,4R,5S)-5-((2S,3R,4S,5S,6R)-4,5-dihydroxy-6-(hydroxymethyl)-2-(4-hydroxyphenoxy)oxan-3-yl)oxy-3,4-dihydroxyoxolan-3-yl)methyl 4-hydroxybenzoate
PrecursorMZ: 523.14497
RT: 5.4946
Spectrum_type: 2
charge: -1
SMILES: C1[C@@]([C@H]([C@@H](O1)O[C@@H]2[C@H]([C@@H]([C@H](O[C@H]2OC3=CC=C(C=C3)O)CO)O)O)O)(COC(=O)C4=CC=C(C=C4)O)O
Method: HCD
Collision_energy: [28.333334]
Isolation_window: 4.0
Ion_mode: N
Num Peaks: 12
85.0284	100.0
99.0441	84.9
111.0076	56.6
123.0442	20.3
129.0185	33.8
139.0755	37.4
167.0341	80.7
167.0704	60.7
211.0609	25.8
235.0607	28.2
453.2694	36.7
525.2917	85.4

Name: ((4-Hydroxyphenyl)methyl)propanedioic acid
PrecursorMZ: 209.04478
RT: 2.5162
ExactMass: 210.05282342
Spectrum_type: 2
charge: -1
Formula: C10H10O5
SMILES: C1=CC(=CC=C1CC(C(=O)O)C(=O)O)O
Method: HCD
Collision_energy: [28.333334]
Isolation_window: 4.0
Ion_mode: N
Num Peaks: 11
59.0129	8.9
93.0336	6.5
96.9590	17.5
98.0238	2.8
109.0399	2.1
121.0650	9.5
131.0704	4.1
165.0548	100.0
166.0586	9.6
209.0439	4.5
211.0274	5.2

Name: ((6E,10Z)-6-formyl-5-hydroxy-10-(hydroxymethyl)-3-methylidene-2-oxo-3a,4,5,8,9,11a-hexahydrocyclodeca(b)furan-4-yl) 2-methylbutanoate
PrecursorMZ: 377.16109
RT: 4.224
ExactMass: 378.16785316
Spectrum_type: 2
charge: -1
Formula: C20H26O7
SMILES: CCC(C)C(=O)OC1C2C(/C=C(/CC/C=C(\C1O)/C=O)\CO)OC(=O)C2=C
Method: HCD
Collision_energy: [28.333334]
Isolation_window: 4.0
Ion_mode: N
Num Peaks: 17
61.9875	9.2
95.0492	3.2
123.0444	5.6
135.0445	4.4
137.0601	9.8
147.0445	8.6
149.0601	15.1
165.0551	100.0
166.0585	9.5
181.0500	4.1
196.0737	28.7
197.0785	3.8
211.0972	32.9
212.1004	3.7
317.1392	5.1
377.1610	92.0
378.1643	20.4

Name: (+)-Cycloolivil
PrecursorMZ: 421.15059
RT: 4.2582
ExactMass: 376.1522031
Spectrum_type: 2
charge: -1
Formula: C20H24O7
SMILES: COC1=C(C=C2[C@@H]([C@H]([C@@](CC2=C1)(CO)O)CO)C3=CC(=C(C=C3)O)OC)O
Method: HCD
Collision_energy: [28.333334]
Isolation_window: 4.0
Ion_mode: N
Num Peaks: 10
61.9875	14.8
165.0550	100.0
166.0588	9.0
194.0577	12.4
195.0658	15.1
209.0816	48.6
223.0609	15.5
375.1452	98.2
376.1490	19.6
377.1596	12.0

Name: (+)-Epicatechin
PrecursorMZ: 289.07204
RT: 3.3823
ExactMass: 290.07903816
Spectrum_type: 2
charge: -1
Formula: C15H14O6
SMILES: C1[C@@H]([C@@H](OC2=CC(=CC(=C21)O)O)C3=CC(=C(C=C3)O)O)O
Method: HCD
Collision_energy: [28.333334]
Isolation_window: 4.0
Ion_mode: N
Num Peaks: 8
115.0758	30.3
179.0347	14.1
181.0136	17.2
227.0714	100.0
228.0749	14.5
243.0659	23.5
271.0614	19.9
289.0723	67.9

Name: (+)-Pinoresinol
PrecursorMZ: 357.13458
RT: 4.9018
ExactMass: 358.14163842
Spectrum_type: 2
charge: -1
Formula: C20H22O6
SMILES: COC1=C(C=CC(=C1)[C@@H]2[C@H]3CO[C@@H]([C@H]3CO2)C4=CC(=C(C=C4)O)OC)O
Method: HCD
Collision_energy: [28.333334]
Isolation_window: 4.0
Ion_mode: N
Num Peaks: 3
325.1078	28.0
357.1345	100.0
358.1387	20.8

Name: (+-)-2-Hydroxypentanoic acid
PrecursorMZ: 117.05484
RT: 1.7559
ExactMass: 118.062994177
Spectrum_type: 2
charge: -1
Formula: C5H10O3
SMILES: CCCC(C(=O)O)O
Method: HCD
Collision_energy: [28.333334]
Isolation_window: 4.0
Ion_mode: N
Num Peaks: 7
71.0493	100.0
72.0081	17.6
72.9922	41.4
74.0238	30.3
116.0245	41.3
116.9276	37.9
117.0548	62.8

Name: (+-)-3-Hydroxytetradecanoic acid
PrecursorMZ: 243.19647
RT: 7.9149
ExactMass: 244.20384475
Spectrum_type: 2
charge: -1
Formula: C14H28O3
SMILES: CCCCCCCCCCCC(CC(=O)O)O
Method: HCD
Collision_energy: [28.333334]
Isolation_window: 4.0
Ion_mode: N
Num Peaks: 4
59.0129	100.0
60.0163	2.3
243.1962	50.8
244.1995	7.8

Name: (+-)-Citramalic acid
PrecursorMZ: 147.02854
RT: 0.855
ExactMass: 148.03717335
Spectrum_type: 2
charge: -1
Formula: C5H8O5
SMILES: CC(CC(=O)O)(C(=O)O)O
Method: HCD
Collision_energy: [28.333334]
Isolation_window: 4.0
Ion_mode: N
Num Peaks: 14
57.0335	12.8
59.0127	15.9
61.9872	22.6
70.0286	7.3
85.0282	67.4
86.0235	15.5
87.0075	100.0
87.9240	20.0
102.9474	37.4
103.0387	11.3
120.0653	11.2
123.9451	13.4
129.0180	22.6
147.0286	55.9

Name: (+-)-Palmitoyl carnitine
PrecursorMZ: 398.32813
RT: 9.6087
ExactMass: 399.33485892
Spectrum_type: 2
charge: -1
Formula: C23H45NO4
SMILES: CCCCCCCCCCCCCCCC(=O)OC(CC(=O)[O-])C[N+](C)(C)C
Method: HCD
Collision_energy: [28.333334]
Isolation_window: 4.0
Ion_mode: N
Num Peaks: 4
61.9875	25.0
141.0550	100.0
255.2329	71.7
397.2288	38.8

Name: (-)-Asparagine
PrecursorMZ: 113.03474
RT: 2.0825
ExactMass: 132.05349212
Spectrum_type: 2
charge: -1
Formula: C4H8N2O3
SMILES: C([C@@H](C(=O)O)N)C(=O)N
Method: HCD
Collision_energy: [28.333334]
Isolation_window: 4.0
Ion_mode: N
Num Peaks: 4
68.0132	43.4
68.9947	45.4
96.0081	92.9
113.0347	100.0

Name: (-)-Curvularin
PrecursorMZ: 291.12281
RT: 6.3199000000000005
ExactMass: 292.13107373
Spectrum_type: 2
charge: -1
Formula: C16H20O5
SMILES: C[C@H]1CCCCCC(=O)C2=C(CC(=O)O1)C=C(C=C2O)O
Method: HCD
Collision_energy: [28.333334]
Isolation_window: 4.0
Ion_mode: N
Num Peaks: 5
203.1429	69.3
204.1462	11.7
247.1328	25.2
291.1227	100.0
292.1261	15.8

Name: (-)-Mitragynine
PrecursorMZ: 443.2191
RT: 4.3382
ExactMass: 398.22055744
Spectrum_type: 2
charge: -1
Formula: C23H30N2O4
SMILES: CC[C@@H]1CN2CCC3=C([C@@H]2C[C@@H]1/C(=C\OC)/C(=O)OC)NC4=C3C(=CC=C4)OC
Method: HCD
Collision_energy: [28.333334]
Isolation_window: 4.0
Ion_mode: N
Num Peaks: 17
58.0289	2.7
96.9592	3.6
121.0287	3.3
129.1027	2.4
135.0443	41.7
136.0476	3.5
250.1327	2.8
251.1399	25.8
252.1434	3.8
265.1558	12.6
292.1429	4.5
307.1665	4.7
321.1825	2.1
428.1952	6.2
443.2195	100.0
444.2225	27.9
445.1871	11.3

Name: (-)-erythro-Anethole glycol 2-glucoside
PrecursorMZ: 343.13976
RT: 6.5006
ExactMass: 344.14711772
Spectrum_type: 2
charge: -1
Formula: C16H24O8
SMILES: CC(C(C1=CC=C(C=C1)OC)O)OC2C(C(C(C(O2)CO)O)O)O
Method: HCD
Collision_energy: [28.333334]
Isolation_window: 4.0
Ion_mode: N
Num Peaks: 5
69.0336	44.2
71.0129	26.5
85.0286	34.1
111.0806	54.1
113.0235	100.0

Name: (1'R,2'R,4'aS,5S,5'R,6'S,8'aS)-Decahydro-6'-hydroxy-5-(2-hydroxyethyl)-2',5',8'a-trimethylspiro(furan-2(3H),1'(2'H)-naphthalene)-5,5'-dimethanol
PrecursorMZ: 355.2491
RT: 7.4301
ExactMass: 356.25627424
Spectrum_type: 2
charge: -1
Formula: C20H36O5
SMILES: C[C@@H]1CC[C@@H]2[C@@]([C@@]13CC[C@](O3)(CCO)CO)(CC[C@@H]([C@@]2(C)CO)O)C
Method: HCD
Collision_energy: [28.333334]
Isolation_window: 4.0
Ion_mode: N
Num Peaks: 15
59.0129	27.8
83.0492	9.1
115.0392	7.3
255.1602	15.3
271.1338	23.4
315.2550	6.8
337.2391	8.6
353.2175	39.5
354.2178	32.2
355.2107	8.0
355.2495	100.0
355.2844	7.4
356.2130	9.8
356.2583	18.3
357.2656	16.9

Name: (1,9,9b-trihydroxy-6,6,9a-trimethyl-3,5,5a,7,8,9-hexahydro-1H-benzo(e)(2)benzofuran-5-yl) hexanoate
PrecursorMZ: 427.23384
RT: 3.856
ExactMass: 382.2355388
Spectrum_type: 2
charge: -1
Formula: C21H34O6
SMILES: CCCCCC(=O)OC1C=C2COC(C2(C3(C1C(CCC3O)(C)C)C)O)O
Method: HCD
Collision_energy: [28.333334]
Isolation_window: 4.0
Ion_mode: N
Num Peaks: 12
96.9592	11.3
351.2178	60.1
352.2215	13.2
380.2059	5.1
381.2287	88.9
382.2319	21.0
427.1470	6.2
427.1913	4.7
427.2342	100.0
428.2377	24.8
429.1505	18.0
429.2033	5.8

Name: (1-(3,5-Dihydroxyphenyl)-12-hydroxytridecan-2-yl) acetate
PrecursorMZ: 411.23917
RT: 5.1717
ExactMass: 366.24062418
Spectrum_type: 2
charge: -1
Formula: C21H34O5
SMILES: CC(CCCCCCCCCC(CC1=CC(=CC(=C1)O)O)OC(=O)C)O
Method: HCD
Collision_energy: [28.333334]
Isolation_window: 4.0
Ion_mode: N
Num Peaks: 16
109.0287	25.2
135.0445	21.9
275.2013	17.5
303.1964	35.8
305.2122	100.0
306.2158	24.4
365.2335	78.5
366.2378	18.2
410.1212	19.8
410.1662	59.5
411.1495	43.9
411.1925	48.5
411.2404	52.4
412.1397	36.1
412.1904	52.6
413.1659	31.3

Name: (1-hexadecanoyloxy-3-(hydroxy-(2,3,4,5,6-pentahydroxycyclohexyl)oxyphosphoryl)oxypropan-2-yl) (9Z,12Z)-octadeca-9,12-dienoate
PrecursorMZ: 833.51947
RT: 10.6866
ExactMass: 834.52582957
Spectrum_type: 2
charge: -1
Formula: C43H79O13P
SMILES: CCCCCCCCCCCCCCCC(=O)OCC(COP(=O)(O)OC1C(C(C(C(C1O)O)O)O)O)OC(=O)CCCCCCC/C=C\C/C=C\CCCCC
Method: HCD
Collision_energy: [28.333334]
Isolation_window: 4.0
Ion_mode: N
Num Peaks: 20
78.9581	27.9
92.6166	4.7
96.9687	9.7
152.9951	30.1
223.0011	17.9
241.0118	65.0
242.0146	3.5
253.2171	6.3
255.2329	95.4
256.2363	15.0
259.0231	5.2
279.2330	97.1
280.2365	14.9
281.2476	4.3
297.0381	7.5
391.2263	14.4
553.2778	8.9
833.5198	100.0
834.5230	43.6
835.5272	7.5

Name: (1-hexadecanoyloxy-3-(hydroxy-(2,3,4,5,6-pentahydroxycyclohexyl)oxyphosphoryl)oxypropan-2-yl) (Z)-octadec-9-enoate
PrecursorMZ: 835.53263
RT: 8.7833
ExactMass: 836.54147963
Spectrum_type: 2
charge: -1
Formula: C43H81O13P
SMILES: CCCCCCCCCCCCCCCC(=O)OCC(COP(=O)(O)OC1C(C(C(C(C1O)O)O)O)O)OC(=O)CCCCCCC/C=C\CCCCCCCC
Method: HCD
Collision_energy: [28.333334]
Isolation_window: 4.0
Ion_mode: N
Num Peaks: 28
78.9578	26.2
92.8403	4.6
96.9683	8.7
97.4642	2.7
152.9945	25.9
223.0001	14.4
241.0107	56.3
242.0140	4.3
253.2160	3.0
255.2318	77.1
256.2353	15.9
259.0212	5.5
279.2318	14.3
280.2352	6.2
281.2474	62.5
282.2509	11.0
283.2630	3.8
297.0371	6.6
315.0478	2.9
391.2245	9.9
392.2272	2.1
553.2763	7.7
554.2785	2.2
833.5162	10.3
834.5209	18.8
835.5317	100.0
836.5352	43.0
837.5393	8.0

Name: (1-hydroxy-3-(3,4,5-trihydroxy-6-(hydroxymethyl)oxan-2-yl)oxypropan-2-yl) (7E,10E,13E)-hexadeca-7,10,13-trienoate
PrecursorMZ: 531.28108
RT: 7.1194
ExactMass: 486.28288291
Spectrum_type: 2
charge: -1
Formula: C25H42O9
SMILES: CC/C=C/C/C=C/C/C=C/CCCCCC(=O)OC(CO)COC1C(C(C(C(O1)CO)O)O)O
Method: HCD
Collision_energy: [28.333334]
Isolation_window: 4.0
Ion_mode: N
Num Peaks: 3
249.1858	100.0
250.1888	13.5
253.0924	15.0

Name: (10S,11R)-1,10,11-trihydroxy-9-(hydroxymethyl)-1,2,6a,6b,9,12a-hexamethyl-2,3,4,5,6,6a,7,8,8a,10,11,12,13,14b-tetradecahydropicene-4a-carboxylic acid
PrecursorMZ: 549.3438
RT: 5.9733
ExactMass: 504.34508925
Spectrum_type: 2
charge: -1
Formula: C30H48O6
SMILES: CC1CCC2(CCC3(C(=CCC4C3(CCC5C4(C[C@H]([C@H](C5(C)CO)O)O)C)C)C2C1(C)O)C)C(=O)O
Method: HCD
Collision_energy: [28.333334]
Isolation_window: 4.0
Ion_mode: N
Num Peaks: 6
61.9875	100.0
165.0914	36.3
503.3353	51.3
548.3079	81.3
549.3033	72.6
550.3035	33.0

Name: (15Z)-9,12,13-Trihydroxy-15-octadecenoic acid
PrecursorMZ: 329.23365
RT: 6.3508
ExactMass: 330.24062418
Spectrum_type: 2
charge: -1
Formula: C18H34O5
SMILES: CC/C=C\CC(C(CCC(CCCCCCCC(=O)O)O)O)O
Method: HCD
Collision_energy: [28.333334]
Isolation_window: 4.0
Ion_mode: N
Num Peaks: 12
171.1019	6.7
185.1179	5.7
201.1128	4.2
293.2123	5.0
299.0200	10.0
311.2252	6.7
314.0433	11.6
327.2183	7.7
329.0674	13.5
329.2337	100.0
330.2377	18.9
331.1917	36.0

Name: (1E,15E,20aR,24aS)-4,5,6,7,8,9,10,11,12,13,20a,21,23,24-Tetradecahydro-17,19-etheno-22H-benzofuro(3a,3-n)(1,5,10)triazacycloeicosine-3,14,22-trione
PrecursorMZ: 436.22438
RT: 5.8196
ExactMass: 437.23145648
Spectrum_type: 2
charge: -1
Formula: C25H31N3O4
SMILES: C1CCNC(=O)/C=C/[C@]23CCC(=O)C[C@H]2OC4=C3C=C(C=C4)/C=C/C(=O)NCCCNC1
Method: HCD
Collision_energy: [28.333334]
Isolation_window: 4.0
Ion_mode: N
Num Peaks: 14
59.0129	6.8
122.0601	8.0
136.0759	6.7
138.0916	19.0
161.0239	12.5
182.0818	45.5
259.1815	8.8
263.1766	23.8
291.1716	15.5
307.1665	100.0
308.1697	16.5
434.2097	6.7
435.1084	12.4
437.2566	8.7

Name: (1E,5S,10R,12Z,14R,16R,17S,20R)-16-hydroxy-8-methoxy-2,5,13,16-tetramethyl-9-propan-2-yl-6,15,19-trioxatetracyclo(12.5.1.05,10.017,20)icosa-1,8,12-triene-7,18-dione
PrecursorMZ: 445.22357
RT: 8.3629
ExactMass: 446.23045342
Spectrum_type: 2
charge: -1
Formula: C25H34O7
SMILES: C/C/1=C\2/[C@@H]3[C@H](C(=O)O2)[C@](O[C@H]3/C(=C\C[C@@H]4C(=C(C(=O)O[C@]4(CC1)C)OC)C(C)C)/C)(C)O
Method: HCD
Collision_energy: [28.333334]
Isolation_window: 4.0
Ion_mode: N
Num Peaks: 11
98.0000	29.3
99.0079	25.3
299.2014	16.2
300.2045	3.2
301.2173	10.4
355.2272	7.3
399.2178	100.0
400.2211	25.9
401.2264	2.8
445.2599	33.1
446.2631	10.1

Name: (1R,2R,4aS,6aS,6bR,10S,12aR,14bS)-1,8,10-trihydroxy-1,2,6a,6b,9,9,12a-heptamethyl-2,3,4,5,6,6a,7,8,8a,10,11,12,13,14b-tetradecahydropicene-4a-carboxylic acid
PrecursorMZ: 487.3429
RT: 7.92
ExactMass: 488.35017463
Spectrum_type: 2
charge: -1
Formula: C30H48O5
SMILES: C[C@@H]1CC[C@@]2(CC[C@@]3(C(=CCC4[C@]3(CC(C5[C@@]4(CC[C@@H](C5(C)C)O)C)O)C)[C@@H]2[C@]1(C)O)C)C(=O)O
Method: HCD
Collision_energy: [28.333334]
Isolation_window: 4.0
Ion_mode: N
Num Peaks: 5
441.3374	15.3
451.3218	15.8
453.3376	100.0
454.3411	29.6
487.3446	16.3

Name: (1R,2R,4aS,6aS,6bR,9R,10R,11R,12aR)-1,10,11-trihydroxy-9-(hydroxymethyl)-1,2,6a,6b,9,12a-hexamethyl-2,3,4,5,6,6a,7,8,8a,10,11,12,13,14b-tetradecahydropicene-4a-carboxylic acid
PrecursorMZ: 503.33856
RT: 7.7717
ExactMass: 504.34508925
Spectrum_type: 2
charge: -1
Formula: C30H48O6
SMILES: C[C@@H]1CC[C@@]2(CC[C@@]3(C(=CCC4[C@]3(CCC5[C@@]4(C[C@H]([C@@H]([C@@]5(C)CO)O)O)C)C)C2[C@]1(C)O)C)C(=O)O
Method: HCD
Collision_energy: [28.333334]
Isolation_window: 4.0
Ion_mode: N
Num Peaks: 3
503.3384	100.0
504.3420	29.8
505.3571	36.1

Name: (1R,3S,4S,7R,8S)-7-((E)-hex-4-enoyl)-3-hydroxy-8-((2R)-3-hydroxy-2,4-dimethyl-5-oxofuran-2-yl)-5-((2E,4E)-1-hydroxyhexa-2,4-dienylidene)-1,3-dimethylbicyclo(2.2.2)octane-2,6-dione
PrecursorMZ: 497.21848
RT: 4.8031
ExactMass: 498.22536804
Spectrum_type: 2
charge: -1
Formula: C28H34O8
SMILES: C/C=C/CCC(=O)[C@@H]1[C@H]([C@H]2C(=C(/C=C/C=C/C)O)C(=O)[C@@]1(C(=O)[C@@]2(C)O)C)[C@@]3(C(=C(C(=O)O3)C)O)C
Method: HCD
Collision_energy: [28.333334]
Isolation_window: 4.0
Ion_mode: N
Num Peaks: 14
55.2479	2.4
61.9874	1.9
122.0364	1.7
135.0444	1.1
165.0549	8.0
179.0705	1.4
283.1337	2.6
316.1308	1.5
331.1550	100.0
332.1584	19.3
333.1606	1.9
497.2181	50.1
498.2215	15.4
499.2241	1.8

Name: (1R,3aR,4R,6aR)-1,4-bis(4-hydroxy-3-methoxyphenyl)-1,3a,4,6a-tetrahydrofuro(3,4-c)furan-3,6-dione
PrecursorMZ: 385.09326
RT: 4.2759
ExactMass: 386.10016753
Spectrum_type: 2
charge: -1
Formula: C20H18O8
SMILES: COC1=C(C=CC(=C1)[C@H]2[C@H]3[C@H]([C@@H](OC3=O)C4=CC(=C(C=C4)O)OC)C(=O)O2)O
Method: HCD
Collision_energy: [28.333334]
Isolation_window: 4.0
Ion_mode: N
Num Peaks: 18
116.0709	10.1
130.0866	4.9
239.0713	8.3
242.1872	4.8
252.0416	4.9
267.0663	100.0
268.0698	15.8
281.0819	12.1
282.0897	85.1
283.0934	15.4
297.1132	55.0
298.1169	10.0
341.1028	9.9
343.1197	5.8
356.2197	11.0
383.1121	6.2
385.0927	14.2
386.2299	19.1

Name: (1R,4Z,9S)-4-(hydroxymethyl)-11,11-dimethyl-8-methylidenebicyclo(7.2.0)undec-4-en-3-one
PrecursorMZ: 233.1545
RT: 8.0543
ExactMass: 234.16197994
Spectrum_type: 2
charge: -1
Formula: C15H22O2
SMILES: CC1(C[C@H]2[C@H]1CC(=O)/C(=C\CCC2=C)/CO)C
Method: HCD
Collision_energy: [28.333334]
Isolation_window: 4.0
Ion_mode: N
Num Peaks: 8
99.9249	5.0
115.9199	4.2
116.9275	2.4
143.9512	1.8
144.9226	1.8
187.9413	3.1
233.1544	100.0
234.1578	15.0

Name: (1R,4aR,5S)-5-(3-hydroxy-3-methylpent-4-enyl)-1,4a-dimethyl-6-methylidene-3,4,5,7,8,8a-hexahydro-2H-naphthalene-1-carboxylic acid
PrecursorMZ: 319.22798
RT: 10.1805
ExactMass: 320.23514488
Spectrum_type: 2
charge: -1
Formula: C20H32O3
SMILES: C[C@]12CCC[C@@](C1CCC(=C)[C@@H]2CCC(C)(C=C)O)(C)C(=O)O
Method: HCD
Collision_energy: [28.333334]
Isolation_window: 4.0
Ion_mode: N
Num Peaks: 3
318.2556	5.9
319.2276	100.0
320.2308	20.0

Name: (1R,4aS,5R,8aS)-5-(5-hydroxy-3-methylpentyl)-1,4a-dimethyl-6-methylidene-3,4,5,7,8,8a-hexahydro-2H-naphthalene-1-carboxylic acid
PrecursorMZ: 321.24364
RT: 8.5209
ExactMass: 322.25079494
Spectrum_type: 2
charge: -1
Formula: C20H34O3
SMILES: CC(CC[C@@H]1C(=C)CC[C@H]2[C@]1(CCC[C@@]2(C)C(=O)O)C)CCO
Method: HCD
Collision_energy: [28.333334]
Isolation_window: 4.0
Ion_mode: N
Num Peaks: 4
96.9591	12.5
321.2101	41.3
321.2442	100.0
322.2474	21.5

Name: (1R,6R,7S,12S,15S,16S,17S)-6,7-dihydroxy-10,14,15-trimethyl-17-(2-methylpropyl)-2-oxa-18-azatricyclo(10.7.0.01,16)nonadeca-4,10,13-triene-3,19-dione
PrecursorMZ: 416.24449
RT: 7.7642
ExactMass: 417.25152322
Spectrum_type: 2
charge: -1
Formula: C24H35NO5
SMILES: C[C@H]1[C@H]2[C@@H](NC(=O)[C@@]23[C@@H](C=C(CC[C@@H]([C@@H](C=CC(=O)O3)O)O)C)C=C1C)CC(C)C
Method: HCD
Collision_energy: [28.333334]
Isolation_window: 4.0
Ion_mode: N
Num Peaks: 6
61.9874	6.4
370.2509	18.0
398.2342	10.5
416.2444	100.0
417.2516	22.6
418.2570	6.0

Name: (1R,7R)-7-Ethenyl-1,4A,7-trimethyl-3,4,4B,5,6,9,10,10A-octahydro-2H-phenanthrene-1-carboxylic acid
PrecursorMZ: 301.21739
RT: 9.1223
ExactMass: 302.224580195
Spectrum_type: 2
charge: -1
Formula: C20H30O2
SMILES: C[C@@]1(CCC2C(=C1)CCC3C2(CCC[C@@]3(C)C(=O)O)C)C=C
Method: HCD
Collision_energy: [28.333334]
Isolation_window: 4.0
Ion_mode: N
Num Peaks: 7
59.0129	11.6
253.2546	5.2
257.2272	19.5
299.2584	27.5
300.2630	9.5
301.2172	100.0
302.2205	22.2

Name: (1R,8S,9S)-3,4-dihydroxy-8-methoxy-11,11-dimethyl-5-propan-2-yl-16-oxatetracyclo(7.5.2.01,10.02,7)hexadeca-2,4,6-trien-15-one
PrecursorMZ: 359.18675
RT: 7.6046
ExactMass: 360.19367399
Spectrum_type: 2
charge: -1
Formula: C21H28O5
SMILES: CC(C)C1=C(C(=C2C(=C1)[C@@H]([C@@H]3C4[C@@]2(CCCC4(C)C)C(=O)O3)OC)O)O
Method: HCD
Collision_energy: [28.333334]
Isolation_window: 4.0
Ion_mode: N
Num Peaks: 8
227.1074	2.5
268.1473	2.6
283.1706	98.8
284.1740	18.8
329.1763	10.3
359.1870	100.0
360.1902	21.6
361.1949	2.8

Name: (1S,3R,4R,6S,8S,9R,10R,16R)-5,5,9,14-tetramethyltetracyclo(11.2.1.01,10.04,8)hexadecane-3,4,6,9,14,16-hexol
PrecursorMZ: 369.22828
RT: 6.0851
ExactMass: 370.2355388
Spectrum_type: 2
charge: -1
Formula: C20H34O6
SMILES: C[C@]1([C@@H]2CCC3[C@H]([C@@]2(C[C@H]([C@]4([C@H]1C[C@@H](C4(C)C)O)O)O)CC3(C)O)O)O
Method: HCD
Collision_energy: [28.333334]
Isolation_window: 4.0
Ion_mode: N
Num Peaks: 11
59.0129	5.9
305.2124	6.1
325.2374	13.8
351.2180	17.5
367.2118	36.2
368.2158	26.8
369.1908	7.7
369.2286	100.0
370.2305	19.9
371.2056	10.3
371.2448	33.0

Name: (1S,4S,5R,9S,10R,13R,14R)-14-hydroxy-5,9-dimethyl-14-(3-methylbutanoyloxymethyl)tetracyclo(11.2.1.01,10.04,9)hexadecane-5-carboxylic acid
PrecursorMZ: 419.28085
RT: 7.7844
ExactMass: 420.28757437
Spectrum_type: 2
charge: -1
Formula: C25H40O5
SMILES: CC(C)CC(=O)OC[C@]1(C[C@@]23CC[C@H]4[C@]([C@@H]2CC[C@@H]1C3)(CCC[C@@]4(C)C(=O)O)C)O
Method: HCD
Collision_energy: [28.333334]
Isolation_window: 4.0
Ion_mode: N
Num Peaks: 17
61.9875	9.4
80.9643	66.1
136.0522	4.9
149.0602	38.9
191.1069	5.0
227.1650	5.9
237.1496	5.2
269.2119	5.7
357.0133	5.5
357.1707	8.7
373.0448	4.9
375.2919	7.0
401.2701	4.8
419.2809	100.0
420.2844	28.0
421.2271	25.2
421.2782	9.6

Name: (1S,4aR,5S)-5-((E)-5-methoxy-3-methyl-5-oxopent-3-enyl)-1,4a-dimethyl-6-methylidene-3,4,5,7,8,8a-hexahydro-2H-naphthalene-1-carboxylic acid
PrecursorMZ: 347.22179
RT: 6.7161
ExactMass: 348.2300595
Spectrum_type: 2
charge: -1
Formula: C21H32O4
SMILES: C/C(=C\C(=O)OC)/CC[C@H]1C(=C)CCC2[C@@]1(CCC[C@]2(C)C(=O)O)C
Method: HCD
Collision_energy: [28.333334]
Isolation_window: 4.0
Ion_mode: N
Num Peaks: 6
287.2010	51.6
288.2042	11.3
311.2010	14.4
329.2111	14.6
347.2219	100.0
348.2255	22.3

Name: (1S,4aR,6aS,6bR,9R,10R,11R,12aR,14bS)-1,10,11-trihydroxy-9-(hydroxymethyl)-2,2,6a,6b,9,12a-hexamethyl-1,3,4,5,6,6a,7,8,8a,10,11,12,13,14b-tetradecahydropicene-4a-carboxylic acid
PrecursorMZ: 503.33846
RT: 7.6072
ExactMass: 504.34508925
Spectrum_type: 2
charge: -1
Formula: C30H48O6
SMILES: C[C@@]12CCC3[C@@](C1CC=C4[C@]2(CC[C@@]5([C@H]4[C@@H](C(CC5)(C)C)O)C(=O)O)C)(C[C@H]([C@@H]([C@@]3(C)CO)O)O)C
Method: HCD
Collision_energy: [28.333334]
Isolation_window: 4.0
Ion_mode: N
Num Peaks: 4
457.3336	100.0
458.3383	27.3
503.3388	87.9
504.3426	29.9

Name: (1S,4aS,5R)-5-(2-(3-Furyl)ethyl)-1,4a-dimethyl-6-methylenedecahydro-1-naphthalenecarboxylic acid
PrecursorMZ: 315.1968
RT: 8.0855
ExactMass: 316.20384475
Spectrum_type: 2
charge: -1
Formula: C20H28O3
SMILES: C[C@@]12CCC[C@](C1CCC(=C)[C@H]2CCC3=COC=C3)(C)C(=O)O
Method: HCD
Collision_energy: [28.333334]
Isolation_window: 4.0
Ion_mode: N
Num Peaks: 17
251.2381	7.7
252.2414	1.8
271.2071	6.3
272.2112	1.4
295.2278	3.9
296.2317	1.3
313.2388	15.7
314.1185	1.6
314.2423	4.9
315.1323	8.4
315.1968	100.0
315.6287	2.6
316.1356	21.1
316.1994	21.8
316.6365	7.6
317.1359	2.2
317.2029	2.1

Name: (1S,5S,9R,13S,15R)-15-hydroxy-5,9-dimethyl-14-methylidenetetracyclo(11.2.1.01,10.04,9)hexadecane-5-carboxylic acid
PrecursorMZ: 317.21233
RT: 7.005
ExactMass: 318.21949481
Spectrum_type: 2
charge: -1
Formula: C20H30O3
SMILES: C[C@]12CCC[C@](C1CC[C@@]34C2CC[C@@H](C3)C(=C)[C@H]4O)(C)C(=O)O
Method: HCD
Collision_energy: [28.333334]
Isolation_window: 4.0
Ion_mode: N
Num Peaks: 8
299.1648	1.7
315.2529	1.9
317.1767	8.4
317.2118	100.0
318.1796	1.6
318.2151	21.7
319.1898	3.0
319.2233	2.3

Name: (1S,8R,9R)-8-hydroxy-4-(propan-2-ylidene)-10-oxatricyclo(7.2.1.01,5)dodecane-8-carboxylic acid
PrecursorMZ: 265.14433
RT: 5.9965
ExactMass: 266.15180918
Spectrum_type: 2
charge: -1
Formula: C15H22O4
SMILES: CC(=C1CC[C@@]23C1CC[C@@]([C@@H](C2)OC3)(C(=O)O)O)C
Method: HCD
Collision_energy: [28.333334]
Isolation_window: 4.0
Ion_mode: N
Num Peaks: 14
96.9590	8.4
219.1381	11.1
221.1543	100.0
222.1580	14.8
233.0822	10.9
247.1337	21.5
252.0423	16.0
263.1289	23.9
264.1320	13.4
265.1472	74.4
266.1519	10.8
267.0666	24.5
267.1140	10.7
267.1604	13.0

Name: (1alpha,2beta,4aalpha,4bbeta,10beta)-2-Hydroxy-1,4a-dimethyl-8-methylenegibbane-1,10-dicarboxylic acid
PrecursorMZ: 347.18652
RT: 5.0987
ExactMass: 348.19367399
Spectrum_type: 2
charge: -1
Formula: C20H28O5
SMILES: C[C@@]12CC[C@@H]([C@@]([C@H]1[C@@H]([C@]34[C@H]2CC[C@H](C3)C(=C)C4)C(=O)O)(C)C(=O)O)O
Method: HCD
Collision_energy: [28.333334]
Isolation_window: 4.0
Ion_mode: N
Num Peaks: 7
241.1607	6.5
303.1969	6.7
345.1707	6.8
346.1735	6.5
347.1493	12.8
347.1865	100.0
348.1877	31.0

Name: (1r,4R)-4-isopropyl-N-((R)-1-((1-methyl-1H-pyrazol-4-yl)amino)-1-oxo-3-phenylpropan-2-yl)cyclohexanecarboxamide
PrecursorMZ: 441.25071
RT: 7.254766666666667
ExactMass: 396.25252628
Spectrum_type: 2
charge: -1
Formula: C23H32N4O2
SMILES: CC(C)C1CCC(CC1)C(=O)N[C@H](CC2=CC=CC=C2)C(=O)NC3=CN(N=C3)C
Method: HCD
Collision_energy: [28.333334]
Isolation_window: 4.0
Ion_mode: N
Num Peaks: 6
197.1079	100.0
198.1114	14.6
241.0981	23.4
297.1528	10.3
395.2454	48.2
396.2486	12.9

Name: (1r,4R)-N-((R)-1-((1,3,4-thiadiazol-2-yl)amino)-1-oxo-3-phenylpropan-2-yl)-4-isopropylcyclohexanecarboxamide
PrecursorMZ: 399.18554
RT: 3.9692
ExactMass: 400.19329732
Spectrum_type: 2
charge: -1
Formula: C21H28N4O2S
SMILES: CC(C)C1CCC(CC1)C(=O)N[C@H](CC2=CC=CC=C2)C(=O)NC3=NN=CS3
Method: HCD
Collision_energy: [28.333334]
Isolation_window: 4.0
Ion_mode: N
Num Peaks: 12
79.9565	1.0
80.9643	1.7
96.9591	1.7
244.1561	0.9
335.1617	1.1
398.1108	0.9
399.1852	100.0
399.2946	0.7
400.1885	23.5
400.2304	0.7
401.1646	3.7
401.1987	3.6

Name: (2,3-Dimethyloxirane-2,3-diyl)bis((4-hydroxy-3-methoxyphenyl)methanone)
PrecursorMZ: 371.11384
RT: 6.652
ExactMass: 372.12090297
Spectrum_type: 2
charge: -1
Formula: C20H20O7
SMILES: CC1(C(O1)(C)C(=O)C2=CC(=C(C=C2)O)OC)C(=O)C3=CC(=C(C=C3)O)OC
Method: HCD
Collision_energy: [28.333334]
Isolation_window: 4.0
Ion_mode: N
Num Peaks: 5
175.0397	29.1
203.0347	56.0
281.1184	24.2
325.1080	100.0
371.0772	86.0

Name: (2,3-dihydroxy-1-(7-methoxy-2-oxochromen-6-yl)-3-methylbutyl) (Z)-2-methylbut-2-enoate
PrecursorMZ: 375.14518
RT: 3.4042
ExactMass: 376.1522031
Spectrum_type: 2
charge: -1
Formula: C20H24O7
SMILES: C/C=C(/C)\C(=O)OC(C1=C(C=C2C(=C1)C=CC(=O)O2)OC)C(C(C)(C)O)O
Method: HCD
Collision_energy: [28.333334]
Isolation_window: 4.0
Ion_mode: N
Num Peaks: 6
125.0598	1.7
231.1020	1.7
331.1549	7.0
375.1449	100.0
376.1472	23.5
377.1600	10.7

Name: (2,4-Dichlorophenoxy)Acetic Acid
PrecursorMZ: 218.9611
RT: 6.3127
ExactMass: 219.9693994
Spectrum_type: 2
charge: -1
Formula: C8H6Cl2O3
SMILES: C1=CC(=C(C=C1Cl)Cl)OCC(=O)O
Method: HCD
Collision_energy: [28.333334]
Isolation_window: 4.0
Ion_mode: N
Num Peaks: 3
160.9555	100.0
161.9588	6.3
162.9526	43.6

Name: (2-Hydroxy-3-(hydroxy-(2,3,4,5,6-pentahydroxycyclohexyl)oxyphosphoryl)oxypropyl) octadecanoate
PrecursorMZ: 599.32025
RT: 8.048353846153846
ExactMass: 600.32746412
Spectrum_type: 2
charge: -1
Formula: C27H53O12P
SMILES: CCCCCCCCCCCCCCCCCC(=O)OCC(COP(=O)(O)OC1C(C(C(C(C1O)O)O)O)O)O
Method: HCD
Collision_energy: [28.333334]
Isolation_window: 4.0
Ion_mode: N
Num Peaks: 17
78.9580	13.9
79.9563	27.3
124.0064	6.7
152.9951	50.4
241.0115	36.8
283.2641	71.6
284.2676	13.4
315.0485	17.3
510.3208	8.5
554.3094	6.7
597.3655	40.1
598.3763	100.0
599.3104	83.9
599.4010	9.9
600.3108	29.6
600.4002	11.2
601.3339	7.0

Name: (2-Neopentylallyl)succinic acid
PrecursorMZ: 227.12864
RT: 5.2789
ExactMass: 228.13615911
Spectrum_type: 2
charge: -1
Formula: C12H20O4
SMILES: CC(C)(C)CC(=C)CC(CC(=O)O)C(=O)O
Method: HCD
Collision_energy: [28.333334]
Isolation_window: 4.0
Ion_mode: N
Num Peaks: 9
111.0806	2.7
165.1277	24.4
166.1312	3.0
183.1384	29.7
184.1421	2.9
209.1178	22.3
210.1216	2.4
227.1285	100.0
228.1319	12.7

Name: (2-aminoethoxy)(2-(octadeca-9,12-dienoyloxy)-3-(octadecanoyloxy)propoxy)phosphinic acid
PrecursorMZ: 742.54043
RT: 9.772
Spectrum_type: 2
charge: -1
Method: HCD
Collision_energy: [28.333334]
Isolation_window: 4.0
Ion_mode: N
Num Peaks: 18
61.9876	2.3
69.1248	2.4
74.0238	2.8
78.9581	11.6
82.5074	3.2
152.9952	37.0
279.2331	23.7
280.2365	4.1
281.2487	18.4
282.2521	3.1
283.2644	100.0
284.2678	18.0
458.2689	3.3
741.5257	5.1
741.5544	6.0
742.5414	72.7
743.5455	31.4
744.5532	6.8

Name: (2-hydroxy-3-(3,4,5-trihydroxy-6-((3,4,5-trihydroxy-6-(hydroxymethyl)oxan-2-yl)oxymethyl)oxan-2-yl)oxypropyl) (9E,12E,15E)-octadeca-9,12,15-trienoate
PrecursorMZ: 721.36657
RT: 7.20834
ExactMass: 676.36700646
Spectrum_type: 2
charge: -1
Formula: C33H56O14
SMILES: CC/C=C/C/C=C/C/C=C/CCCCCCCC(=O)OCC(COC1C(C(C(C(O1)COC2C(C(C(C(O2)CO)O)O)O)O)O)O)O
Method: HCD
Collision_energy: [28.333334]
Isolation_window: 4.0
Ion_mode: N
Num Peaks: 14
59.0130	18.9
71.0130	18.8
89.0236	37.8
101.0236	27.3
113.0236	16.1
119.0343	18.1
235.0826	13.8
277.2176	84.4
278.2211	14.0
397.1357	100.0
398.1387	17.5
415.1467	29.4
675.3605	39.2
676.3646	15.4

Name: (2-hydroxy-3-(3,4,5-trihydroxy-6-(hydroxymethyl)oxan-2-yl)oxypropyl) (9E,12E)-octadeca-9,12-dienoate
PrecursorMZ: 561.32862
RT: 8.08195
ExactMass: 516.3298331
Spectrum_type: 2
charge: -1
Formula: C27H48O9
SMILES: CCCCC/C=C/C/C=C/CCCCCCCC(=O)OCC(COC1C(C(C(C(O1)CO)O)O)O)O
Method: HCD
Collision_energy: [28.333334]
Isolation_window: 4.0
Ion_mode: N
Num Peaks: 25
59.0130	1.3
79.9565	4.5
89.0235	1.7
101.0237	2.1
153.0298	1.4
161.0453	1.4
205.0412	4.7
235.0822	1.9
243.0618	1.4
253.0931	16.2
255.2334	1.3
279.2333	100.0
280.2366	15.7
281.2388	1.2
515.3232	7.8
516.3273	2.2
532.3462	1.3
559.4026	5.8
559.4092	1.5
560.3397	4.0
560.4097	3.7
561.3364	1.9
561.4145	1.5
562.3571	13.1
563.3668	3.1

Name: (2-hydroxy-3-(3,4,5-trihydroxy-6-(hydroxymethyl)oxan-2-yl)oxypropyl) (9E,12E,15E)-octadeca-9,12,15-trienoate
PrecursorMZ: 559.31065
RT: 7.831566666666666
ExactMass: 514.31418304
Spectrum_type: 2
charge: -1
Formula: C27H46O9
SMILES: CC/C=C/C/C=C/C/C=C/CCCCCCCC(=O)OCC(COC1C(C(C(C(O1)CO)O)O)O)O
Method: HCD
Collision_energy: [28.333334]
Isolation_window: 4.0
Ion_mode: N
Num Peaks: 9
61.9872	3.6
69.1989	3.6
243.1491	9.1
253.0920	15.5
277.2162	100.0
278.2197	16.7
374.2219	4.7
499.3052	5.9
513.3048	5.7

Name: (25R)-17-alpha-hydroxyspirost-5-en-3-beta-yl-O-alpha-L-rhamnopyranosyl-(1->2)-beta-D-glucopyranoside
PrecursorMZ: 783.41781
RT: 5.9912
ExactMass: 738.41904203
Spectrum_type: 2
charge: -1
Formula: C39H62O13
SMILES: C[C@@H]1CC[C@@]2([C@H]([C@]3([C@@H](O2)C[C@@H]4[C@@]3(CC[C@H]5[C@H]4CC=C6[C@@]5(CC[C@@H](C6)O[C@H]7[C@@H]([C@H]([C@@H]([C@H](O7)CO)O)O)O[C@H]8[C@@H]([C@@H]([C@H]([C@@H](O8)C)O)O)O)C)C)O)C)OC1
Method: HCD
Collision_energy: [28.333334]
Isolation_window: 4.0
Ion_mode: N
Num Peaks: 21
59.0129	32.9
61.9874	4.0
71.0129	26.6
73.0285	3.9
81.9378	3.8
85.0285	5.3
89.0234	45.8
101.0234	30.1
103.0391	6.7
113.0235	18.6
119.0340	23.2
131.0340	5.9
143.0342	9.6
161.0449	4.2
163.0605	8.0
179.0558	4.1
205.0712	8.3
737.4123	100.0
738.4158	42.1
739.4169	6.9
783.4164	4.5

Name: (25S)-Delta(7)-dafachronic acid
PrecursorMZ: 413.30698
RT: 10.1185
ExactMass: 414.3133952
Spectrum_type: 2
charge: -1
Formula: C27H42O3
SMILES: C[C@H](CCC[C@H](C)C(=O)O)[C@H]1CC[C@@H]2[C@@]1(CC[C@H]3C2=CC[C@@H]4[C@@]3(CCC(=O)C4)C)C
Method: HCD
Collision_energy: [28.333334]
Isolation_window: 4.0
Ion_mode: N
Num Peaks: 6
411.3497	6.8
412.3519	5.3
413.3077	100.0
413.3586	4.9
414.3109	28.8
415.3208	8.9

Name: (2E)-2-cyano-N-(2-(1H-indol-3-yl)ethyl)-3-(5-(morpholin-4-yl)furan-2-yl)prop-2-enamide
PrecursorMZ: 435.16653
RT: 4.5059
ExactMass: 390.16919058
Spectrum_type: 2
charge: -1
Formula: C22H22N4O3
SMILES: C1COCCN1C2=CC=C(O2)/C=C(\C#N)/C(=O)NCCC3=CNC4=CC=CC=C43
Method: HCD
Collision_energy: [28.333334]
Isolation_window: 4.0
Ion_mode: N
Num Peaks: 5
61.9875	10.6
343.0818	8.6
374.1368	18.0
389.1611	100.0
390.1642	22.4

Name: (2E,4E)-3,5,7-Trimethylocta-2,4-dienedioic acid
PrecursorMZ: 211.09716
RT: 4.2379
ExactMass: 212.10485899
Spectrum_type: 2
charge: -1
Formula: C11H16O4
SMILES: CC(C/C(=C/C(=C/C(=O)O)/C)/C)C(=O)O
Method: HCD
Collision_energy: [28.333334]
Isolation_window: 4.0
Ion_mode: N
Num Peaks: 8
71.0493	75.9
111.0805	64.9
149.0962	68.0
151.1121	87.1
167.1070	94.8
169.1225	54.2
211.0972	100.0
213.1134	43.3

Name: (2E,6E,10Z)-12-hydroxy-10-(hydroxymethyl)-6-methyl-2-(4-methylpent-3-enyl)dodeca-2,6,10-trienoic acid
PrecursorMZ: 335.22295
RT: 8.62
ExactMass: 336.2300595
Spectrum_type: 2
charge: -1
Formula: C20H32O4
SMILES: CC(=CCC/C(=C\CC/C(=C/CC/C(=C/CO)/CO)/C)/C(=O)O)C
Method: HCD
Collision_energy: [28.333334]
Isolation_window: 4.0
Ion_mode: N
Num Peaks: 8
83.0493	38.8
97.0650	40.6
123.0808	42.0
155.0706	21.9
163.1484	23.0
255.2122	27.3
319.2281	100.0
335.2231	30.8

Name: (2E,9E)-4-hydroxy-2,5,5,9-tetramethylcycloundeca-2,9-dien-1-yl 4-hydroxybenzoate
PrecursorMZ: 357.20774
RT: 8.8498
ExactMass: 358.21440943
Spectrum_type: 2
charge: -1
Formula: C22H30O4
SMILES: C/C/1=C\CC(/C(=C/C(C(CCC1)(C)C)O)/C)OC(=O)C2=CC=C(C=C2)O
Method: HCD
Collision_energy: [28.333334]
Isolation_window: 4.0
Ion_mode: N
Num Peaks: 18
57.0329	2.3
79.9554	5.2
233.1546	11.4
234.1581	1.5
235.1343	1.3
245.1549	3.0
245.1912	15.2
257.1913	4.8
295.2074	2.7
313.2175	6.4
314.2203	1.4
315.2333	79.8
356.1909	3.1
357.2062	40.5
357.6997	4.2
358.2090	11.8
358.7065	1.8
359.2233	100.0

Name: (2R)-(((4,7-dimethoxy-1H-indol-2-yl)carbonyl)amino)(4-hydroxyphenyl)ethanoic acid
PrecursorMZ: 369.10904
RT: 7.7085
ExactMass: 370.1164863
Spectrum_type: 2
charge: -1
Formula: C19H18N2O6
SMILES: COC1=C2C=C(NC2=C(C=C1)OC)C(=O)N[C@H](C3=CC=C(C=C3)O)C(=O)O
Method: HCD
Collision_energy: [28.333334]
Isolation_window: 4.0
Ion_mode: N
Num Peaks: 9
118.0290	28.5
136.0396	19.5
146.0240	57.5
162.0190	74.1
221.0716	100.0
265.0617	23.4
309.0517	44.5
311.1682	23.1
367.2312	38.0

Name: (2R)-2-hydroxyoctadecanoic acid
PrecursorMZ: 299.25921
RT: 9.5349
ExactMass: 300.26644501
Spectrum_type: 2
charge: -1
Formula: C18H36O3
SMILES: CCCCCCCCCCCCCCCC[C@H](C(=O)O)O
Method: HCD
Collision_energy: [28.333334]
Isolation_window: 4.0
Ion_mode: N
Num Peaks: 13
75.0078	3.3
225.2220	9.0
226.2256	1.4
253.2536	28.0
254.2569	5.2
271.2280	28.2
272.2315	4.2
281.2488	1.2
297.2177	3.2
298.2221	1.5
299.2591	100.0
300.2626	19.3
301.2652	1.5

Name: (2R)-3-(((2-Aminoethoxy)hydroxyphosphinyl)oxy)-2-hydroxypropyl (9Z,12Z)-9,12-octadecadienoate
PrecursorMZ: 476.27809
RT: 7.6270999999999995
ExactMass: 477.28553974
Spectrum_type: 2
charge: -1
Formula: C23H44NO7P
SMILES: CCCCC/C=C\C/C=C\CCCCCCCC(=O)OC[C@H](COP(=O)(O)OCCN)O
Method: HCD
Collision_energy: [28.333334]
Isolation_window: 4.0
Ion_mode: N
Num Peaks: 8
196.0373	14.2
214.0483	13.8
279.2326	100.0
280.2361	18.7
281.2481	25.2
476.2784	48.2
477.2769	11.1
478.2917	9.9

Name: (2R,2'R,4'aS,6'R,8'aS)-2',4-dihydroxy-6-(hydroxymethyl)-1',1',4'a,6'-tetramethyl-spiro(3H-benzofuran-2,5'-decalin)-7-carbaldehyde
PrecursorMZ: 387.21674
RT: 10.5498
ExactMass: 388.22497412
Spectrum_type: 2
charge: -1
Formula: C23H32O5
SMILES: C[C@@H]1CC[C@@H]2[C@@]([C@@]13CC4=C(C=C(C(=C4O3)C=O)CO)O)(CC[C@H](C2(C)C)O)C
Method: HCD
Collision_energy: [28.333334]
Isolation_window: 4.0
Ion_mode: N
Num Peaks: 7
108.0204	12.8
250.1567	10.4
251.1643	92.0
252.1674	13.0
263.1643	11.5
387.2169	100.0
388.2205	23.9

Name: (2R,3R,6R)-5-((1E,3E)-Hepta-1,3-dienyl)-2,3-dihydroxy-6-(hydroxymethyl)cyclohexan-1-one
PrecursorMZ: 253.14449
RT: 6.1199
ExactMass: 254.15180918
Spectrum_type: 2
charge: -1
Formula: C14H22O4
SMILES: CCC/C=C/C=C/C1C[C@H]([C@H](C(=O)[C@H]1CO)O)O
Method: HCD
Collision_energy: [28.333334]
Isolation_window: 4.0
Ion_mode: N
Num Peaks: 15
59.0129	4.6
79.9565	3.9
111.0805	3.5
191.1436	8.4
193.1592	22.1
209.1542	100.0
210.1577	12.9
211.1700	13.8
237.1494	25.4
252.0729	3.6
253.0503	9.1
253.1445	39.3
254.1478	5.7
255.1059	3.0
255.1600	94.7

Name: (2R,4S,6R)-2-(((1S,2R,4aS,5R,8aS)-2-hydroxy-5-((E)-5-hydroxy-3-methylpent-3-enyl)-1,4a-dimethyl-6-methylidene-3,4,5,7,8,8a-hexahydro-2H-naphthalen-1-yl)methoxy)-6-(hydroxymethyl)oxane-3,4,5-triol
PrecursorMZ: 529.30187
RT: 8.093375
ExactMass: 484.30361836
Spectrum_type: 2
charge: -1
Formula: C26H44O8
SMILES: C/C(=C\CO)/CC[C@@H]1C(=C)CC[C@H]2[C@]1(CC[C@H]([C@]2(C)CO[C@H]3C([C@H](C([C@H](O3)CO)O)O)O)O)C
Method: HCD
Collision_energy: [28.333334]
Isolation_window: 4.0
Ion_mode: N
Num Peaks: 14
59.0130	8.8
71.0130	10.7
75.0078	14.8
85.0285	16.6
99.0076	10.2
113.0234	36.3
249.0613	12.3
267.0720	8.3
279.2327	93.1
280.2361	15.7
528.3375	19.3
529.2999	100.0
530.3036	34.1
531.3033	8.1

Name: (2R,7R,8R,9R,10S,20S)-7,8,9,19-tetrahydroxy-6,17-bis(hydroxymethyl)-2,6,10,17-tetramethylhexacyclo(12.8.1.01,14.02,11.05,10.015,20)tricos-12-ene-20-carboxylic acid
PrecursorMZ: 533.31277
RT: 5.5415
ExactMass: 534.31926842
Spectrum_type: 2
charge: -1
Formula: C30H46O8
SMILES: C[C@@]12CCC3[C@@](C1C=CC45C2(C4)CC[C@@]6(C5CC(CC6O)(C)CO)C(=O)O)([C@H]([C@H]([C@@H](C3(C)CO)O)O)O)C
Method: HCD
Collision_energy: [28.333334]
Isolation_window: 4.0
Ion_mode: N
Num Peaks: 9
61.9875	38.0
101.0599	19.6
111.0444	15.8
116.0497	22.3
165.0914	25.6
533.2473	22.4
533.3204	100.0
534.3273	25.5
535.3344	39.8

Name: (2S)-2-(((4R)-4-((3R,5R,6R,7S,8S,9S,10R,13R,14S,17R)-3,6,7-trihydroxy-10,13-dimethyl-2,3,4,5,6,7,8,9,11,12,14,15,16,17-tetradecahydro-1H-cyclopenta(a)phenanthren-17-yl)pentanoyl)amino)butanedioic acid
PrecursorMZ: 522.30712
RT: 4.7768
ExactMass: 523.31451739
Spectrum_type: 2
charge: -1
Formula: C28H45NO8
SMILES: C[C@H](CCC(=O)N[C@@H](CC(=O)O)C(=O)O)[C@H]1CC[C@@H]2[C@@]1(CC[C@H]3[C@H]2[C@@H]([C@@H]([C@H]4[C@@]3(CC[C@H](C4)O)C)O)O)C
Method: HCD
Collision_energy: [28.333334]
Isolation_window: 4.0
Ion_mode: N
Num Peaks: 8
71.0129	8.4
88.0394	19.0
115.0028	10.4
406.2964	11.8
407.2807	19.5
478.3168	8.6
522.3076	100.0
523.3108	31.1

Name: (2S)-2-(((4R)-4-((3R,5R,6S,8S,9S,10R,13R,14S,17R)-3,6-dihydroxy-10,13-dimethyl-2,3,4,5,6,7,8,9,11,12,14,15,16,17-tetradecahydro-1H-cyclopenta(a)phenanthren-17-yl)pentanoyl)amino)-3-(3,4-dihydroxyphenyl)propanoic acid
PrecursorMZ: 570.34383
RT: 5.9982
ExactMass: 571.3509029
Spectrum_type: 2
charge: -1
Formula: C33H49NO7
SMILES: C[C@H](CCC(=O)N[C@@H](CC1=CC(=C(C=C1)O)O)C(=O)O)[C@H]2CC[C@@H]3[C@@]2(CC[C@H]4[C@H]3C[C@@H]([C@H]5[C@@]4(CC[C@H](C5)O)C)O)C
Method: HCD
Collision_energy: [28.333334]
Isolation_window: 4.0
Ion_mode: N
Num Peaks: 4
180.0659	43.5
526.3537	7.9
570.3437	100.0
571.3469	36.5

Name: (2S)-2-(((4R)-4-((3R,5R,6S,8S,9S,10R,13R,14S,17R)-3,6-dihydroxy-10,13-dimethyl-2,3,4,5,6,7,8,9,11,12,14,15,16,17-tetradecahydro-1H-cyclopenta(a)phenanthren-17-yl)pentanoyl)amino)-4-methylsulfanylbutanoic acid
PrecursorMZ: 522.3255
RT: 7.794449999999999
ExactMass: 523.33314484
Spectrum_type: 2
charge: -1
Formula: C29H49NO5S
SMILES: C[C@H](CCC(=O)N[C@@H](CCSC)C(=O)O)[C@H]1CC[C@@H]2[C@@]1(CC[C@H]3[C@H]2C[C@@H]([C@H]4[C@@]3(CC[C@H](C4)O)C)O)C
Method: HCD
Collision_energy: [28.333334]
Isolation_window: 4.0
Ion_mode: N
Num Peaks: 15
79.9564	27.3
96.9592	8.0
152.9952	5.5
196.9993	5.8
233.0723	8.3
492.3161	9.1
520.2814	20.0
521.2737	45.5
521.2805	32.7
521.3359	36.8
521.3477	5.2
522.3299	100.0
523.3307	34.1
524.3173	8.8
524.3319	6.8

Name: (2S)-2-(((4R)-4-((3R,5S,7R,8R,9S,10S,13R,14S,17R)-3,7-dihydroxy-10,13-dimethyl-2,3,4,5,6,7,8,9,11,12,14,15,16,17-tetradecahydro-1H-cyclopenta(a)phenanthren-17-yl)pentanoyl)amino)-3-methylpentanoic acid
PrecursorMZ: 504.36964
RT: 7.455
ExactMass: 505.37672373
Spectrum_type: 2
charge: -1
Formula: C30H51NO5
SMILES: CCC(C)[C@@H](C(=O)O)NC(=O)CC[C@@H](C)[C@H]1CC[C@@H]2[C@@]1(CC[C@H]3[C@H]2[C@@H](C[C@H]4[C@@]3(CC[C@H](C4)O)C)O)C
Method: HCD
Collision_energy: [28.333334]
Isolation_window: 4.0
Ion_mode: N
Num Peaks: 30
56.0395	2.1
56.0426	4.5
56.1542	1.3
59.0129	15.3
84.0445	1.3
96.9591	2.2
100.0393	2.2
112.0393	1.1
130.0865	50.4
131.0898	2.8
132.0658	3.6
143.0342	1.5
156.0664	1.1
202.0718	2.7
227.2013	60.3
228.2048	8.1
234.0980	14.9
235.1016	1.4
276.1087	15.4
277.1121	1.8
294.1195	8.1
458.3672	1.3
460.3802	4.2
461.3827	1.4
503.2853	1.1
504.3706	100.0
505.3007	11.9
505.3741	29.9
506.3038	2.6
506.3763	3.2

Name: (2S)-3-(1H-Indol-3-YL)-2-((2-(3-(4-methoxyphenyl)-5-methyl-1H-pyrazol-4-YL)acetyl)amino)propanoic acid
PrecursorMZ: 431.17174
RT: 4.6807
ExactMass: 432.17975526
Spectrum_type: 2
charge: -1
Formula: C24H24N4O4
SMILES: CC1=C(C(=NN1)C2=CC=C(C=C2)OC)CC(=O)N[C@@H](CC3=CNC4=CC=CC=C43)C(=O)O
Method: HCD
Collision_energy: [28.333334]
Isolation_window: 4.0
Ion_mode: N
Num Peaks: 15
74.0237	10.5
116.0495	9.7
130.0862	13.9
142.0652	7.7
143.0604	11.0
203.0819	20.3
228.1136	11.0
240.1136	5.8
272.1036	6.2
302.1142	10.1
357.1707	10.6
429.2507	12.4
430.2537	6.9
431.1719	100.0
432.1755	24.4

Name: (2S)-3-hydroxy-2-(((4R)-4-((3R,5R,6R,7S,8S,9S,10R,13R,14S,17R)-3,6,7-trihydroxy-10,13-dimethyl-2,3,4,5,6,7,8,9,11,12,14,15,16,17-tetradecahydro-1H-cyclopenta(a)phenanthren-17-yl)pentanoyl)amino)butanoic acid
PrecursorMZ: 508.32788
RT: 5.6075
ExactMass: 509.33525284
Spectrum_type: 2
charge: -1
Formula: C28H47NO7
SMILES: C[C@H](CCC(=O)N[C@@H](C(C)O)C(=O)O)[C@H]1CC[C@@H]2[C@@]1(CC[C@H]3[C@H]2[C@@H]([C@@H]([C@H]4[C@@]3(CC[C@H](C4)O)C)O)O)C
Method: HCD
Collision_energy: [28.333334]
Isolation_window: 4.0
Ion_mode: N
Num Peaks: 6
74.0238	37.0
118.0500	5.3
464.3017	59.7
465.3048	16.8
508.3280	100.0
509.3312	32.5

Name: (2S)-3-hydroxy-2-(((4R)-4-((3R,5R,6S,7R,8S,9S,10R,13R,14S,17R)-3,6,7-trihydroxy-10,13-dimethyl-2,3,4,5,6,7,8,9,11,12,14,15,16,17-tetradecahydro-1H-cyclopenta(a)phenanthren-17-yl)pentanoyl)amino)butanoic acid
PrecursorMZ: 508.32824
RT: 5.874
ExactMass: 509.33525284
Spectrum_type: 2
charge: -1
Formula: C28H47NO7
SMILES: C[C@H](CCC(=O)N[C@@H](C(C)O)C(=O)O)[C@H]1CC[C@@H]2[C@@]1(CC[C@H]3[C@H]2[C@H]([C@H]([C@H]4[C@@]3(CC[C@H](C4)O)C)O)O)C
Method: HCD
Collision_energy: [28.333334]
Isolation_window: 4.0
Ion_mode: N
Num Peaks: 4
405.2650	74.2
462.3236	100.0
508.3258	85.1
509.3244	32.3

Name: (2S)-3-methyl-2-(((4R)-4-((3R,5R,6R,7S,8S,9S,10R,13R,14S,17R)-3,6,7-trihydroxy-10,13-dimethyl-2,3,4,5,6,7,8,9,11,12,14,15,16,17-tetradecahydro-1H-cyclopenta(a)phenanthren-17-yl)pentanoyl)amino)butanoic acid
PrecursorMZ: 506.34891
RT: 6.5431
ExactMass: 507.35598828
Spectrum_type: 2
charge: -1
Formula: C29H49NO6
SMILES: C[C@H](CCC(=O)N[C@@H](C(C)C)C(=O)O)[C@H]1CC[C@@H]2[C@@]1(CC[C@H]3[C@H]2[C@@H]([C@@H]([C@H]4[C@@]3(CC[C@H](C4)O)C)O)O)C
Method: HCD
Collision_energy: [28.333334]
Isolation_window: 4.0
Ion_mode: N
Num Peaks: 24
56.2594	2.1
56.2625	4.6
56.3709	0.6
56.3740	1.4
74.0238	7.9
78.9582	0.6
79.9565	0.5
87.0079	1.3
96.9592	1.3
124.0065	0.7
442.3327	0.9
444.3486	2.3
445.3511	0.7
504.3366	1.6
505.2545	0.6
505.3421	2.3
506.1921	0.5
506.3491	100.0
506.4738	0.5
506.5043	0.7
507.2885	1.7
507.3526	31.5
508.2870	0.9
508.3590	3.6

Name: (2S)-3-methyl-2-(((4R)-4-((3R,5R,6S,7R,8S,9S,10R,13R,14S,17R)-3,6,7-trihydroxy-10,13-dimethyl-2,3,4,5,6,7,8,9,11,12,14,15,16,17-tetradecahydro-1H-cyclopenta(a)phenanthren-17-yl)pentanoyl)amino)butanoic acid
PrecursorMZ: 506.34839
RT: 5.902671428571429
ExactMass: 507.35598828
Spectrum_type: 2
charge: -1
Formula: C29H49NO6
SMILES: C[C@H](CCC(=O)N[C@@H](C(C)C)C(=O)O)[C@H]1CC[C@@H]2[C@@]1(CC[C@H]3[C@H]2[C@H]([C@H]([C@H]4[C@@]3(CC[C@H](C4)O)C)O)O)C
Method: HCD
Collision_energy: [28.333334]
Isolation_window: 4.0
Ion_mode: N
Num Peaks: 17
56.2594	2.3
56.2625	4.5
56.3740	1.3
74.0238	7.4
96.9590	2.5
130.0864	1.7
148.0519	1.3
163.0755	2.4
444.2595	1.2
444.3487	2.2
504.3724	1.2
505.2559	2.6
505.3330	1.6
506.3488	100.0
507.2939	4.4
507.3547	30.1
508.3578	3.9

Name: (2S)-3-phenyl-2-(((4R)-4-((3R,5S,7R,8R,9S,10S,12S,13R,14S,17R)-3,7,12-trihydroxy-10,13-dimethyl-2,3,4,5,6,7,8,9,11,12,14,15,16,17-tetradecahydro-1H-cyclopenta(a)phenanthren-17-yl)pentanoyl)amino)propanoic acid
PrecursorMZ: 554.34848
RT: 6.3996
ExactMass: 555.35598828
Spectrum_type: 2
charge: -1
Formula: C33H49NO6
SMILES: C[C@H](CCC(=O)N[C@@H](CC1=CC=CC=C1)C(=O)O)[C@H]2CC[C@@H]3[C@@]2([C@H](C[C@H]4[C@H]3[C@@H](C[C@H]5[C@@]4(CC[C@H](C5)O)C)O)O)C
Method: HCD
Collision_energy: [28.333334]
Isolation_window: 4.0
Ion_mode: N
Num Peaks: 15
61.5928	2.3
61.5964	4.0
74.0239	1.8
119.0495	3.0
147.0446	3.8
164.0712	28.5
165.0745	2.2
180.0662	23.9
181.0697	1.9
388.2865	4.2
510.3595	2.8
553.3229	8.1
554.3494	100.0
555.3529	30.5
556.3561	5.2

Name: (2S)-4-amino-4-oxo-2-(((4R)-4-((3R,5R,6R,7S,8S,9S,10R,13R,14S,17R)-3,6,7-trihydroxy-10,13-dimethyl-2,3,4,5,6,7,8,9,11,12,14,15,16,17-tetradecahydro-1H-cyclopenta(a)phenanthren-17-yl)pentanoyl)amino)butanoic acid
PrecursorMZ: 521.32259
RT: 10.4495
ExactMass: 522.33050181
Spectrum_type: 2
charge: -1
Formula: C28H46N2O7
SMILES: C[C@H](CCC(=O)N[C@@H](CC(=O)N)C(=O)O)[C@H]1CC[C@@H]2[C@@]1(CC[C@H]3[C@H]2[C@@H]([C@@H]([C@H]4[C@@]3(CC[C@H](C4)O)C)O)O)C
Method: HCD
Collision_energy: [28.333334]
Isolation_window: 4.0
Ion_mode: N
Num Peaks: 3
521.3230	100.0
522.3266	31.7
523.3336	5.6

Name: (2S)-4-methyl-2-(2-((2-oxo-4-propyl-2H-chromen-7-yl)oxy)propanamido)pentanoic acid
PrecursorMZ: 388.1769
RT: 9.3796
ExactMass: 389.18383758
Spectrum_type: 2
charge: -1
Formula: C21H27NO6
SMILES: CCCC1=CC(=O)OC2=C1C=CC(=C2)OC(C)C(=O)N[C@@H](CC(C)C)C(=O)O
Method: HCD
Collision_energy: [28.333334]
Isolation_window: 4.0
Ion_mode: N
Num Peaks: 18
61.9875	100.0
90.9326	3.2
125.0237	2.7
241.2171	10.0
242.2200	2.0
288.2333	3.5
299.1680	10.4
300.1710	2.2
314.2488	2.2
325.1808	3.2
331.1427	3.6
343.1586	7.1
343.2647	2.2
344.1628	1.7
387.1501	6.2
387.2488	5.8
387.2932	2.2
388.2881	6.0

Name: (2S)-4-methylsulfanyl-2-(((4R)-4-((3R,5R,6R,7S,8S,9S,10R,13R,14S,17R)-3,6,7-trihydroxy-10,13-dimethyl-2,3,4,5,6,7,8,9,11,12,14,15,16,17-tetradecahydro-1H-cyclopenta(a)phenanthren-17-yl)pentanoyl)amino)butanoic acid
PrecursorMZ: 538.32108
RT: 6.0526
ExactMass: 539.32805946
Spectrum_type: 2
charge: -1
Formula: C29H49NO6S
SMILES: C[C@H](CCC(=O)N[C@@H](CCSC)C(=O)O)[C@H]1CC[C@@H]2[C@@]1(CC[C@H]3[C@H]2[C@@H]([C@@H]([C@H]4[C@@]3(CC[C@H](C4)O)C)O)O)C
Method: HCD
Collision_energy: [28.333334]
Isolation_window: 4.0
Ion_mode: N
Num Peaks: 12
59.8117	2.2
59.8152	4.2
100.0394	1.9
164.0379	17.2
430.3328	18.2
431.3360	5.6
474.3226	3.3
523.2971	2.6
537.3230	2.4
538.3210	100.0
539.3242	30.0
540.3228	6.0

Name: (2S)-4-methylsulfanyl-2-(((4R)-4-((3R,5R,6S,7R,8S,9S,10R,13R,14S,17R)-3,6,7-trihydroxy-10,13-dimethyl-2,3,4,5,6,7,8,9,11,12,14,15,16,17-tetradecahydro-1H-cyclopenta(a)phenanthren-17-yl)pentanoyl)amino)butanoic acid
PrecursorMZ: 538.32066
RT: 6.025575
ExactMass: 539.32805946
Spectrum_type: 2
charge: -1
Formula: C29H49NO6S
SMILES: C[C@H](CCC(=O)N[C@@H](CCSC)C(=O)O)[C@H]1CC[C@@H]2[C@@]1(CC[C@H]3[C@H]2[C@H]([C@H]([C@H]4[C@@]3(CC[C@H](C4)O)C)O)O)C
Method: HCD
Collision_energy: [28.333334]
Isolation_window: 4.0
Ion_mode: N
Num Peaks: 5
164.0380	16.3
430.3325	14.1
538.3206	100.0
539.3231	41.7
540.3208	9.4

Name: (2S)-5,7-dihydroxy-2-(4-hydroxyphenyl)-6-((2S,3R,4R,5S,6R)-3,4,5-trihydroxy-6-(((2R,3R,4R,5R,6S)-3,4,5-trihydroxy-6-methyloxan-2-yl)oxymethyl)oxan-2-yl)-2,3-dihydrochromen-4-one
PrecursorMZ: 579.17117
RT: 3.4725
ExactMass: 580.17920569
Spectrum_type: 2
charge: -1
Formula: C27H32O14
SMILES: C[C@H]1[C@@H]([C@H]([C@H]([C@@H](O1)OC[C@@H]2[C@H]([C@@H]([C@H]([C@@H](O2)C3=C(C4=C(C=C3O)O[C@@H](CC4=O)C5=CC=C(C=C5)O)O)O)O)O)O)O)O
Method: HCD
Collision_energy: [28.333334]
Isolation_window: 4.0
Ion_mode: N
Num Peaks: 12
315.0866	17.3
327.0869	7.9
357.0972	19.6
369.0973	15.8
381.0976	16.1
411.1082	7.5
441.1190	11.5
459.1291	100.0
460.1331	19.2
489.1396	20.0
579.1706	67.8
580.1736	19.2

Name: (2S)-5-amino-2-(((4R)-4-((3R,5R,6R,7S,8S,9S,10R,13R,14S,17R)-3,6,7-trihydroxy-10,13-dimethyl-2,3,4,5,6,7,8,9,11,12,14,15,16,17-tetradecahydro-1H-cyclopenta(a)phenanthren-17-yl)pentanoyl)amino)pentanoic acid
PrecursorMZ: 521.36099
RT: 6.4332
ExactMass: 522.36688732
Spectrum_type: 2
charge: -1
Formula: C29H50N2O6
SMILES: C[C@H](CCC(=O)N[C@@H](CCCN)C(=O)O)[C@H]1CC[C@@H]2[C@@]1(CC[C@H]3[C@H]2[C@@H]([C@@H]([C@H]4[C@@]3(CC[C@H](C4)O)C)O)O)C
Method: HCD
Collision_energy: [28.333334]
Isolation_window: 4.0
Ion_mode: N
Num Peaks: 4
475.3544	82.8
476.3581	25.5
521.3606	100.0
522.3650	31.9

Name: (2S)-6-amino-2-(((4R)-4-((3R,5R,6S,7R,8S,9S,10R,13R,14S,17R)-3,6,7-trihydroxy-10,13-dimethyl-2,3,4,5,6,7,8,9,11,12,14,15,16,17-tetradecahydro-1H-cyclopenta(a)phenanthren-17-yl)pentanoyl)amino)hexanoic acid
PrecursorMZ: 535.37591
RT: 5.0453
ExactMass: 536.38253738
Spectrum_type: 2
charge: -1
Formula: C30H52N2O6
SMILES: C[C@H](CCC(=O)N[C@@H](CCCCN)C(=O)O)[C@H]1CC[C@@H]2[C@@]1(CC[C@H]3[C@H]2[C@H]([C@H]([C@H]4[C@@]3(CC[C@H](C4)O)C)O)O)C
Method: HCD
Collision_energy: [28.333334]
Isolation_window: 4.0
Ion_mode: N
Num Peaks: 11
59.4845	2.2
59.4879	4.4
59.5959	0.6
59.5994	1.3
145.0975	4.6
535.2051	0.6
535.2435	0.7
535.3755	100.0
535.5455	0.6
536.3791	30.1
537.3824	4.0

Name: (2S)-8-((E)-3-hydroxy-3-methylbut-1-enyl)-5,7-dimethoxy-2-phenyl-2,3-dihydrochromen-4-one
PrecursorMZ: 367.15528
RT: 8.8073
ExactMass: 368.16237386
Spectrum_type: 2
charge: -1
Formula: C22H24O5
SMILES: CC(C)(/C=C/C1=C2C(=C(C=C1OC)OC)C(=O)C[C@H](O2)C3=CC=CC=C3)O
Method: HCD
Collision_energy: [28.333334]
Isolation_window: 4.0
Ion_mode: N
Num Peaks: 15
119.0494	4.5
190.0630	4.2
217.0503	2.8
218.0581	4.7
220.1466	3.4
233.0819	3.5
278.0800	5.1
297.0772	3.7
297.2421	3.3
309.0769	13.5
337.1078	4.2
365.2348	6.0
367.1551	100.0
367.2312	9.5
368.1586	22.5

Name: (2S,3R)-3-methyl-2-(1-methyl-1H-indole-5-carboxamido)pentanoic acid
PrecursorMZ: 287.14023
RT: 6.6068
ExactMass: 288.1473925
Spectrum_type: 2
charge: -1
Formula: C16H20N2O3
SMILES: CC[C@@H](C)[C@@H](C(=O)O)NC(=O)C1=CC2=C(C=C1)N(C=C2)C
Method: HCD
Collision_energy: [28.333334]
Isolation_window: 4.0
Ion_mode: N
Num Peaks: 5
228.1270	6.1
243.1500	100.0
244.1532	18.8
287.1401	44.4
288.1431	8.2

Name: (2S,3R,10R,13R,14S)-2,3,14-Trihydroxy-10,13-dimethyl-17-((2R,3R,5R)-2,3,5-trihydroxy-5,6-dimethylheptan-2-yl)-2,3,4,5,9,11,12,15,16,17-decahydro-1H-cyclopenta(a)phenanthren-6-one
PrecursorMZ: 539.32295
RT: 8.7536
ExactMass: 494.3243538
Spectrum_type: 2
charge: -1
Formula: C28H46O7
SMILES: CC(C)[C@@](C)(C[C@H]([C@@](C)(C1CC[C@@]2([C@@]1(CCC3C2=CC(=O)C4[C@@]3(C[C@@H]([C@@H](C4)O)O)C)C)O)O)O)O
Method: HCD
Collision_energy: [28.333334]
Isolation_window: 4.0
Ion_mode: N
Num Peaks: 7
61.9874	43.9
69.1005	20.9
491.3764	26.3
492.3782	22.3
493.3164	20.7
539.3635	100.0
540.3666	29.1

Name: (2S,3R,4S,5S,6R)-2-(5-((1E)-2-(3,5-Dihydroxyphenyl)ethenyl)-2-hydroxyphenoxy)-6-(hydroxymethyl)oxane-3,4,5-triol
PrecursorMZ: 405.1192
RT: 4.14805
ExactMass: 406.12638228
Spectrum_type: 2
charge: -1
Formula: C20H22O9
SMILES: C1=CC(=C(C=C1/C=C/C2=CC(=CC(=C2)O)O)O[C@H]3[C@@H]([C@H]([C@@H]([C@H](O3)CO)O)O)O)O
Method: HCD
Collision_energy: [28.333334]
Isolation_window: 4.0
Ion_mode: N
Num Peaks: 7
109.0286	26.2
124.0156	26.1
162.0316	19.5
163.0392	38.1
179.0342	100.0
405.1186	97.0
406.1171	20.1

Name: (2S,3R,5R,10R,13R,14S,17S)-2,3,14-Trihydroxy-10,13-Dimethyl-17-((2R,3R)-2,3,6-Trihydroxy-6-Methylheptan-2-Yl)-2,3,4,5,9,11,12,15,16,17-Decahydro-1H-Cyclopenta(A)Phenanthren-6-One
PrecursorMZ: 479.3014
RT: 6.484
ExactMass: 480.30870374
Spectrum_type: 2
charge: -1
Formula: C27H44O7
SMILES: C[C@]12CCC3C(=CC(=O)[C@H]4[C@@]3(C[C@@H]([C@@H](C4)O)O)C)[C@@]1(CC[C@@H]2[C@](C)([C@@H](CCC(C)(C)O)O)O)O
Method: HCD
Collision_energy: [28.333334]
Isolation_window: 4.0
Ion_mode: N
Num Peaks: 12
61.9875	5.1
165.0550	2.0
389.2696	5.4
407.2807	10.2
433.2974	100.0
434.3008	28.4
435.2710	10.9
451.3071	22.5
452.3110	6.3
479.3062	11.9
480.3088	3.6
481.2775	2.3

Name: (2S,3R,5R,10R,13R,14S,17S)-2,3,14-trihydroxy-10,13-dimethyl-17-((2R,3R,5R)-2,3,6-trihydroxy-5,6-dimethylheptan-2-yl)-2,3,4,5,9,11,12,15,16,17-decahydro-1H-cyclopenta(a)phenanthren-6-one
PrecursorMZ: 493.31728
RT: 6.7968
ExactMass: 494.3243538
Spectrum_type: 2
charge: -1
Formula: C28H46O7
SMILES: C[C@H](C[C@H]([C@@](C)([C@H]1CC[C@@]2([C@@]1(CCC3C2=CC(=O)[C@H]4[C@@]3(C[C@@H]([C@@H](C4)O)O)C)C)O)O)O)C(C)(C)O
Method: HCD
Collision_energy: [28.333334]
Isolation_window: 4.0
Ion_mode: N
Num Peaks: 25
54.8145	4.4
55.0384	4.1
59.0129	9.3
71.0129	4.4
79.9563	4.2
83.0492	3.8
96.9593	3.9
115.0391	10.5
129.0911	4.7
145.0498	8.1
431.3184	4.1
447.3114	4.5
448.3141	4.0
449.3279	36.1
450.3308	9.5
451.3439	10.4
475.3066	9.2
477.3211	10.2
491.2971	12.6
492.3032	13.8
493.3189	100.0
494.2599	11.0
494.3222	31.8
495.2769	18.1
495.3346	87.1

Name: (2S,3R,5R,9R,10R,13R,14S,17S)-17-((2R,3R)-2,3-dihydroxy-6-methyl-5-methylideneheptan-2-yl)-2,3,14-trihydroxy-10,13-dimethyl-2,3,4,5,9,11,12,15,16,17-decahydro-1H-cyclopenta(a)phenanthren-6-one
PrecursorMZ: 521.31186
RT: 6.3432
ExactMass: 476.31378912
Spectrum_type: 2
charge: -1
Formula: C28H44O6
SMILES: CC(C)C(=C)C[C@H]([C@@](C)([C@H]1CC[C@@]2([C@@]1(CC[C@H]3C2=CC(=O)[C@H]4[C@@]3(C[C@@H]([C@@H](C4)O)O)C)C)O)O)O
Method: HCD
Collision_energy: [28.333334]
Isolation_window: 4.0
Ion_mode: N
Num Peaks: 3
87.0078	100.0
475.3054	64.3
521.3057	59.4

Name: (2S,3S)-3-decyl-2-hydroxy-2-(3-methoxy-3-oxopropyl)butanedioic acid
PrecursorMZ: 359.20759
RT: 4.2365
ExactMass: 360.21480336
Spectrum_type: 2
charge: -1
Formula: C18H32O7
SMILES: CCCCCCCCCC[C@H](C(=O)O)[C@@](CCC(=O)OC)(C(=O)O)O
Method: HCD
Collision_energy: [28.333334]
Isolation_window: 4.0
Ion_mode: N
Num Peaks: 48
59.0129	5.9
73.0285	3.1
74.0237	3.3
83.0493	2.5
113.0600	2.5
125.0963	2.2
135.0442	2.0
171.1019	11.1
185.1177	6.6
197.1177	9.2
199.1335	2.7
201.1126	12.2
209.1177	23.7
210.1215	3.4
211.1334	4.8
215.1292	3.2
223.1338	2.6
227.1284	8.0
229.1443	2.0
257.1397	5.6
263.1646	3.0
269.0813	2.2
271.1544	2.8
271.1912	4.2
281.0815	2.3
297.2065	3.0
299.1858	4.9
299.2226	2.6
301.2013	6.0
315.1342	5.7
323.1885	2.3
325.2012	2.3
329.1028	13.1
330.1057	3.2
341.1035	6.0
341.1972	6.0
343.2123	6.4
357.1925	6.4
358.1948	4.0
358.2265	2.7
359.1174	10.3
359.1765	4.3
359.2075	100.0
360.1156	2.1
360.2089	19.0
361.1323	2.6
361.1809	2.0
361.2228	83.3

Name: (2S,3S,4S,5R,6R)-6-(((3S,6aR,6bS,8aS,14bR)-8a-carboxy-4,4,6a,6b,11,11,14b-heptamethyl-1,2,3,4a,5,6,7,8,9,10,12,12a,14,14a-tetradecahydropicen-3-yl)oxy)-3,4,5-trihydroxyoxane-2-carboxylic acid
PrecursorMZ: 631.38523
RT: 7.4637
ExactMass: 632.39243336
Spectrum_type: 2
charge: -1
Formula: C36H56O9
SMILES: C[C@]12CC[C@@H](C(C1CC[C@@]3(C2CC=C4[C@]3(CC[C@@]5(C4CC(CC5)(C)C)C(=O)O)C)C)(C)C)O[C@H]6[C@@H]([C@H]([C@@H]([C@H](O6)C(=O)O)O)O)O
Method: HCD
Collision_energy: [28.333334]
Isolation_window: 4.0
Ion_mode: N
Num Peaks: 5
75.0078	16.4
85.0285	13.6
113.0234	11.1
631.3854	100.0
632.3896	39.1

Name: (2S,3S,9R,12R,13R,14S,15R,16R,17S)-3,12,13,15,16-pentahydroxy-2,6,14,17-tetramethyl-10-oxatetracyclo(7.7.1.02,7.013,17)heptadec-5-ene-4,11-dione
PrecursorMZ: 395.17132
RT: 5.2627
ExactMass: 396.17841785
Spectrum_type: 2
charge: -1
Formula: C20H28O8
SMILES: C[C@H]1[C@H]([C@@H](C2[C@@]3([C@]1([C@H](C(=O)O[C@@H]3CC4[C@@]2([C@@H](C(=O)C=C4C)O)C)O)O)C)O)O
Method: HCD
Collision_energy: [28.333334]
Isolation_window: 4.0
Ion_mode: N
Num Peaks: 20
59.0130	12.6
61.9874	10.5
69.0336	62.3
95.0492	14.7
99.0442	81.3
113.0235	29.3
122.0365	9.1
123.0443	50.8
155.0705	9.8
169.0864	15.9
177.0911	9.0
181.0863	14.3
203.1074	16.7
221.1179	11.6
233.1177	32.1
251.1287	34.4
295.1186	39.5
327.2180	9.3
395.1699	100.0
396.1730	19.9

Name: (2S,3S,9R,13R,14S,16R)-2,3,16-trihydroxy-17-((2R)-2-hydroxy-6-methyl-3-oxohept-6-en-2-yl)-4,4,9,13,14-pentamethyl-1,2,3,7,8,10,12,15,16,17-decahydrocyclopenta(a)phenanthren-11-one
PrecursorMZ: 547.3267
RT: 5.6159
ExactMass: 502.32943918
Spectrum_type: 2
charge: -1
Formula: C30H46O6
SMILES: CC(=C)CCC(=O)[C@@](C)(C1[C@@H](C[C@@]2([C@@]1(CC(=O)[C@@]3(C2CC=C4C3C[C@@H]([C@H](C4(C)C)O)O)C)C)C)O)O
Method: HCD
Collision_energy: [28.333334]
Isolation_window: 4.0
Ion_mode: N
Num Peaks: 17
61.9872	12.8
97.0155	15.7
120.0804	14.4
124.0754	74.6
243.1492	10.0
245.1647	100.0
246.1678	15.0
253.1697	85.6
254.1734	11.5
255.1853	36.5
291.1701	19.2
378.2536	87.3
379.2571	19.5
503.3373	84.6
504.3408	27.3
547.3287	34.2
548.3319	11.9

Name: (2S,4aR,6aR,6aS,6bR,8aR,10R,11S,12aR,14bS)-10,11-dihydroxy-2,6a,6b,9,9,12a-hexamethyl-1,3,4,5,6,6a,7,8,8a,10,11,12,13,14b-tetradecahydropicene-2,4a-dicarboxylic acid
PrecursorMZ: 501.3227
RT: 5.8206
ExactMass: 502.32943918
Spectrum_type: 2
charge: -1
Formula: C30H46O6
SMILES: C[C@@]1(CC[C@@]2(CC[C@@]3(C(=CC[C@H]4[C@]3(CC[C@@H]5[C@@]4(C[C@@H]([C@@H](C5(C)C)O)O)C)C)[C@@H]2C1)C)C(=O)O)C(=O)O
Method: HCD
Collision_energy: [28.333334]
Isolation_window: 4.0
Ion_mode: N
Num Peaks: 9
61.9875	14.4
71.0494	6.2
439.3223	11.2
457.3325	78.4
458.3360	23.8
483.3124	4.8
501.3228	100.0
502.3261	34.6
503.3388	7.2

Name: (2Z)-2-((E)-11-hydroxy-6-(hydroxymethyl)-2,4,8,10-tetramethyldodec-2-enylidene)-4-methylpentanedioic acid
PrecursorMZ: 411.27552
RT: 9.9933
ExactMass: 412.28248899
Spectrum_type: 2
charge: -1
Formula: C23H40O6
SMILES: CC(CC(C)C(C)O)CC(CC(C)/C=C(\C)/C=C(/CC(C)C(=O)O)\C(=O)O)CO
Method: HCD
Collision_energy: [28.333334]
Isolation_window: 4.0
Ion_mode: N
Num Peaks: 5
69.2782	7.3
99.0443	33.5
367.3217	32.0
411.3115	100.0
412.3179	23.3

Name: (2Z)-4,6-dihydroxy-2-((4-hydroxy-3,5-dimethoxyphenyl)methylidene)-1-benzofuran-3-one
PrecursorMZ: 329.06659
RT: 5.5814
ExactMass: 330.07395278
Spectrum_type: 2
charge: -1
Formula: C17H14O7
SMILES: COC1=CC(=CC(=C1O)OC)/C=C\2/C(=O)C3=C(C=C(C=C3O2)O)O
Method: HCD
Collision_energy: [28.333334]
Isolation_window: 4.0
Ion_mode: N
Num Peaks: 9
139.1119	12.8
171.1019	40.3
299.0197	45.2
313.0350	9.5
314.0431	40.4
329.0666	81.0
329.2332	100.0
330.0700	12.6
330.2357	21.1

Name: (2Z,4E)-5-((1R,3R,5R,8S)-8-hydroxy-1,5-dimethyl-3-((2R,3R,4S,5S,6R)-3,4,5-trihydroxy-6-(hydroxymethyl)oxan-2-yl)oxy-6-oxabicyclo(3.2.1)octan-8-yl)-3-methylpenta-2,4-dienoic acid
PrecursorMZ: 443.19151
RT: 2.4939
ExactMass: 444.19954721
Spectrum_type: 2
charge: -1
Formula: C21H32O10
SMILES: C/C(=C/C(=O)O)/C=C/[C@@]1([C@@]2(C[C@H](C[C@]1(OC2)C)O[C@H]3[C@@H]([C@H]([C@@H]([C@H](O3)CO)O)O)O)C)O
Method: HCD
Collision_energy: [28.333334]
Isolation_window: 4.0
Ion_mode: N
Num Peaks: 15
59.0129	16.9
71.0128	17.8
73.0285	3.2
83.0127	2.3
85.0284	5.4
88.9869	3.9
89.0233	21.4
101.0233	23.8
113.0233	11.6
119.0338	11.2
124.0063	2.1
161.0442	2.2
443.1919	100.0
444.1953	24.3
445.1973	2.9

Name: (2alpha,3beta,12alpha,24R)-Lanost-8-ene-2,3,12,21,24,25-hexol
PrecursorMZ: 553.37502
RT: 5.5418
ExactMass: 508.37638937
Spectrum_type: 2
charge: -1
Formula: C30H52O6
SMILES: C[C@@]12CC[C@@H]([C@]1([C@H](CC3=C2CC[C@@H]4[C@@]3(C[C@H]([C@@H](C4(C)C)O)O)C)O)C)[C@@H](CC[C@H](C(C)(C)O)O)CO
Method: HCD
Collision_energy: [28.333334]
Isolation_window: 4.0
Ion_mode: N
Num Peaks: 22
59.0130	23.6
61.9875	18.2
73.0285	23.8
83.0492	21.8
85.0285	28.4
87.0441	34.4
99.0442	27.6
101.0599	36.3
111.0440	19.7
113.0600	36.0
125.0600	19.2
139.0757	18.8
149.0966	20.9
153.0915	24.2
165.0914	57.4
507.3756	60.6
508.3796	18.0
535.3301	18.4
552.3202	27.0
553.3367	100.0
554.3369	27.4
555.3553	47.2

Name: (2beta,3beta,9epsilon,17epsilon,22R)-2,3,14,20,22-Pentahydroxyergost-7-en-6-one
PrecursorMZ: 523.32812
RT: 8.0972
ExactMass: 478.32943918
Spectrum_type: 2
charge: -1
Formula: C28H46O6
SMILES: C[C@@H](C[C@H]([C@@](C)(C1CC[C@@]2([C@@]1(CCC3C2=CC(=O)C4[C@@]3(C[C@@H]([C@@H](C4)O)O)C)C)O)O)O)C(C)C
Method: HCD
Collision_energy: [28.333334]
Isolation_window: 4.0
Ion_mode: N
Num Peaks: 13
61.9875	32.0
73.0285	11.8
287.2217	10.1
449.3281	12.9
477.3212	86.2
478.3243	24.3
505.3527	11.7
521.3456	21.0
522.3550	24.1
523.3687	100.0
524.3696	35.0
525.3236	14.5
525.3748	16.0

Name: (2s,3s)-3,5,7-Trihydroxy-6-methyl-2-(3,4,5-trihydroxyphenyl)chroman-4-one
PrecursorMZ: 333.06194
RT: 5.0623
ExactMass: 334.0688674
Spectrum_type: 2
charge: -1
Formula: C16H14O8
SMILES: CC1=C(C2=C(C=C1O)O[C@H]([C@@H](C2=O)O)C3=CC(=C(C(=C3)O)O)O)O
Method: HCD
Collision_energy: [28.333334]
Isolation_window: 4.0
Ion_mode: N
Num Peaks: 18
94.0290	11.5
165.0552	22.7
166.1231	42.7
193.0136	37.0
244.0064	14.3
245.0453	11.7
287.0562	100.0
287.1647	9.8
288.0595	14.2
315.0511	24.9
331.1556	82.1
331.2437	14.4
332.1568	15.3
332.1877	81.0
333.0616	45.0
333.2036	14.6
334.0651	7.6
334.2065	9.1

Name: (3,4,5-Trihydroxy-6-(hydroxymethyl)oxan-2-yl) 3-(4-hydroxy-3,5-dimethoxyphenyl)prop-2-enoate
PrecursorMZ: 385.11328
RT: 2.917
ExactMass: 386.12129689
Spectrum_type: 2
charge: -1
Formula: C17H22O10
SMILES: COC1=CC(=CC(=C1O)OC)C=CC(=O)OC2C(C(C(C(O2)CO)O)O)O
Method: HCD
Collision_energy: [28.333334]
Isolation_window: 4.0
Ion_mode: N
Num Peaks: 19
59.0128	2.9
75.0076	3.2
85.0283	4.1
115.0026	7.8
135.0442	3.1
163.0865	5.3
173.0447	7.4
174.0160	65.9
175.0227	6.3
191.0551	9.9
209.0940	11.0
267.0868	3.4
295.0817	6.9
325.0928	6.7
384.1771	4.7
385.1135	100.0
385.1562	3.4
386.1169	19.9
387.1203	2.7

Name: (3-(2,3-dihydroxypropoxy(hydroxy)phosphoryl)oxy-2-((Z)-hexadec-9-enoyl)oxypropyl) hexadecanoate
PrecursorMZ: 719.4882
RT: 8.6837
ExactMass: 720.49413552
Spectrum_type: 2
charge: -1
Formula: C38H73O10P
SMILES: CCCCCCCCCCCCCCCC(=O)OCC(COP(=O)(O)OCC(CO)O)OC(=O)CCCCCCC/C=C\CCCCCC
Method: HCD
Collision_energy: [28.333334]
Isolation_window: 4.0
Ion_mode: N
Num Peaks: 27
69.0498	0.7
78.9582	1.3
80.1645	1.0
80.1700	2.0
152.9952	7.4
171.0060	0.6
209.0215	0.8
227.2016	10.8
228.2050	1.4
241.2173	1.6
253.2175	2.4
255.1775	0.8
255.2331	100.0
255.2775	0.7
255.2891	0.7
256.2367	1.4
271.2278	0.7
281.2489	5.7
282.2523	1.1
391.2260	0.8
465.2626	1.3
717.5182	1.0
718.5142	0.9
718.5275	0.9
719.4887	8.4
720.4916	3.4
721.5039	46.8

Name: (3-(hydroxy-(2,3,4,5,6-pentahydroxycyclohexyl)oxyphosphoryl)oxy-2-((Z)-octadec-9-enoyl)oxypropyl) octadecanoate
PrecursorMZ: 863.56386
RT: 10.4432
ExactMass: 864.57277976
Spectrum_type: 2
charge: -1
Formula: C45H85O13P
SMILES: CCCCCCCCCCCCCCCCCC(=O)OCC(COP(=O)(O)OC1C(C(C(C(C1O)O)O)O)O)OC(=O)CCCCCCC/C=C\CCCCCCCC
Method: HCD
Collision_energy: [28.333334]
Isolation_window: 4.0
Ion_mode: N
Num Peaks: 22
78.9579	31.0
96.9684	8.4
97.4648	5.7
152.9947	30.1
223.0003	15.5
241.0111	64.9
242.0155	5.0
259.0217	7.8
279.2325	6.8
281.2479	86.4
282.2513	20.7
283.2635	80.0
284.2668	17.8
297.0378	5.5
419.2561	11.3
581.3077	8.2
796.5324	6.2
861.5491	8.5
862.5524	23.7
863.5642	100.0
864.5679	46.0
865.5700	11.5

Name: (3-Methoxyphenyl)acetic acid
PrecursorMZ: 165.05516
RT: 5.8187
ExactMass: 166.062994177
Spectrum_type: 2
charge: -1
Formula: C9H10O3
SMILES: COC1=CC=CC(=C1)CC(=O)O
Method: HCD
Collision_energy: [28.333334]
Isolation_window: 4.0
Ion_mode: N
Num Peaks: 6
121.0288	100.0
121.0651	45.0
122.0319	6.8
164.8357	29.8
165.0187	10.5
165.0552	21.0

Name: (3As,5aS,5bR,9S,11aR,13aR)-9-hydroxy-5b,8,8,11a-tetramethyl-1-prop-1-en-2-yl-1,2,3,4,5,6,7,7a,9,10,11,11b,12,13,13a,13b-hexadecahydrocyclopenta(a)chrysene-3a,5a-dicarboxylic acid
PrecursorMZ: 485.32736
RT: 6.9634
ExactMass: 486.33452456
Spectrum_type: 2
charge: -1
Formula: C30H46O5
SMILES: CC(=C)C1CC[C@]2(C1[C@H]3CCC4[C@]5(CC[C@@H](C(C5CC[C@]4([C@@]3(CC2)C(=O)O)C)(C)C)O)C)C(=O)O
Method: HCD
Collision_energy: [28.333334]
Isolation_window: 4.0
Ion_mode: N
Num Peaks: 12
53.9238	2.0
53.9267	4.3
54.0382	1.3
61.9874	5.7
417.2655	2.1
425.3058	1.4
441.3384	3.7
469.3357	1.3
485.3273	100.0
486.3307	30.9
487.2738	1.3
487.3419	24.5

Name: (3As,6S,7R,8aR)-8-hydroxy-6,8-dimethyl-3-methylidenespiro(4,5,6,8a-tetrahydro-3aH-cyclohepta(b)furan-7,5'-oxolane)-2,2'-dione
PrecursorMZ: 279.12379
RT: 6.3577
ExactMass: 280.13107373
Spectrum_type: 2
charge: -1
Formula: C15H20O5
SMILES: C[C@H]1CC[C@@H]2[C@H](C([C@@]13CCC(=O)O3)(C)O)OC(=O)C2=C
Method: HCD
Collision_energy: [28.333334]
Isolation_window: 4.0
Ion_mode: N
Num Peaks: 12
123.0806	7.6
125.0598	6.0
133.0651	5.8
151.0756	3.2
191.1435	5.5
217.1228	3.2
235.1336	12.0
236.1370	2.1
261.1136	7.5
279.1237	100.0
280.1269	14.2
281.1354	1.7

Name: (3E,5R,6E,8S,9E,13S,14R)-5-Hydroxy-8-methoxy-5,9,13,14-tetramethyloxacyclotetradeca-3,6,9-trien-2-one
PrecursorMZ: 307.19186
RT: 5.6476
ExactMass: 308.19875937
Spectrum_type: 2
charge: -1
Formula: C18H28O4
SMILES: C[C@H]1CC/C=C(/[C@H](/C=C/[C@@](/C=C/C(=O)O[C@@H]1C)(C)O)OC)\C
Method: HCD
Collision_energy: [28.333334]
Isolation_window: 4.0
Ion_mode: N
Num Peaks: 12
71.0494	17.7
109.0649	5.5
185.1178	31.9
197.1175	5.6
199.1335	5.7
223.1338	12.3
235.1337	25.3
289.1809	16.0
307.1916	100.0
308.1950	20.4
309.1135	8.6
309.2064	5.0

Name: (3R,5R)-7-((1S,2S,8S,8aR)-2-methyl-8-(2-methylbutanoyloxy)-1,2,6,7,8,8a-hexahydronaphthalen-1-yl)-3,5-dihydroxyheptanoic acid
PrecursorMZ: 407.24408
RT: 7.1357
ExactMass: 408.25118886
Spectrum_type: 2
charge: -1
Formula: C23H36O6
SMILES: CCC(C)C(=O)O[C@H]1CCC=C2[C@H]1[C@H]([C@H](C=C2)C)CC[C@H](C[C@H](CC(=O)O)O)O
Method: HCD
Collision_energy: [28.333334]
Isolation_window: 4.0
Ion_mode: N
Num Peaks: 16
135.0442	10.0
195.1384	8.2
235.1335	8.9
319.2638	10.7
320.2681	3.6
345.2434	4.1
350.2463	10.5
363.2534	12.3
365.2693	34.4
405.2661	15.5
405.3062	8.2
406.2628	8.0
406.3170	6.0
407.2830	100.0
408.2852	26.2
409.2589	42.6

Name: (3R,6aR,7S,12aS)-5,6,6a,7,8-pentahydroxy-3-methyl-3,4,5,6,7,12a-hexahydro-2H-benzo(a)anthracene-1,12-dione
PrecursorMZ: 359.11373
RT: 4.1663
ExactMass: 360.12090297
Spectrum_type: 2
charge: -1
Formula: C19H20O7
SMILES: C[C@@H]1CC2=C([C@@H]3C(=O)C4=C([C@@H]([C@]3(C(C2O)O)O)O)C(=CC=C4)O)C(=O)C1
Method: HCD
Collision_energy: [28.333334]
Isolation_window: 4.0
Ion_mode: N
Num Peaks: 24
135.0443	6.6
197.1170	5.9
269.0820	21.9
270.0875	8.0
271.0965	6.0
281.0819	17.0
282.0880	8.0
300.0642	14.4
311.0929	16.4
315.0871	31.0
315.1333	15.5
316.0919	5.5
326.0799	7.2
329.1029	100.0
330.1060	17.5
341.1031	41.5
342.1068	9.2
357.1960	7.1
359.0763	24.3
359.1177	26.0
359.1693	5.6
359.2083	23.7
360.1189	6.3
361.2226	19.3

Name: (3R,7R,8R,8aS)-3,4'-dihydroxy-7'-(2-hydroxyethyl)-4,4,7,8a-tetramethylspiro(2,3,4a,5,6,7-hexahydro-1H-naphthalene-8,2'-3,8-dihydrofuro(2,3-e)isoindole)-6'-one
PrecursorMZ: 428.24433
RT: 4.9459
ExactMass: 429.25152322
Spectrum_type: 2
charge: -1
Formula: C25H35NO5
SMILES: C[C@@H]1CCC2[C@@]([C@@]13CC4=C(C=C5C(=C4O3)CN(C5=O)CCO)O)(CC[C@H](C2(C)C)O)C
Method: HCD
Collision_energy: [28.333334]
Isolation_window: 4.0
Ion_mode: N
Num Peaks: 7
99.0443	3.0
328.1919	15.5
329.1952	3.5
426.2291	2.4
428.2444	100.0
429.2480	27.9
430.2526	4.3

Name: (3S,3aR,4S,6S,6aR,7E,10S,11Z,13R,15E,17aR)-6,13-Dihydroxy-3-(1H-indol-3-ylmethyl)-4,10,12-trimethyl-5-methylene-2,3,3a,4,5,6,6a,9,10,13-decahydro-1H-cyclotrideca(d)isoindole-1,14,17-trione
PrecursorMZ: 573.26119
RT: 5.8431
ExactMass: 528.26242225
Spectrum_type: 2
charge: -1
Formula: C32H36N2O5
SMILES: C[C@H]/1CC=C[C@H]2[C@@H](C(=C)[C@H]([C@@H]3[C@@]2(C(=O)C=CC(=O)[C@@H](/C(=C1)/C)O)C(=O)N[C@H]3CC4=CNC5=CC=CC=C54)C)O
Method: HCD
Collision_energy: [28.333334]
Isolation_window: 4.0
Ion_mode: N
Num Peaks: 10
63.6975	1.8
69.0068	2.2
272.1293	100.0
273.1326	15.4
290.1399	2.1
307.0976	11.7
308.1014	2.2
573.2610	42.2
574.2646	13.4
575.2715	4.5

Name: (3S,4S)-3-hydroxytetradecane-1,3,4-tricarboxylate
PrecursorMZ: 345.19142
RT: 6.8336
ExactMass: 343.1756782
Spectrum_type: 2
charge: -1
Formula: C17H27O7-3
SMILES: CCCCCCCCCC[C@H](C(=O)[O-])[C@@](CCC(=O)[O-])(C(=O)[O-])O
Method: HCD
Collision_energy: [28.333334]
Isolation_window: 4.0
Ion_mode: N
Num Peaks: 17
63.9615	6.8
79.9563	4.3
101.0234	25.3
145.0133	52.7
239.2012	16.7
255.1965	7.5
265.1807	12.1
283.1955	4.1
301.1806	100.0
302.1838	20.1
327.1802	6.6
343.2147	4.6
345.1686	17.6
345.1919	31.0
346.1727	5.6
346.1991	4.8
347.2219	3.6

Name: (3S,4S)-3-hydroxytetradecane-1,3,4-tricarboxylic acid
PrecursorMZ: 345.19175
RT: 6.8105
ExactMass: 346.19915329
Spectrum_type: 2
charge: -1
Formula: C17H30O7
SMILES: CCCCCCCCCC[C@H](C(=O)O)[C@@](CCC(=O)O)(C(=O)O)O
Method: HCD
Collision_energy: [28.333334]
Isolation_window: 4.0
Ion_mode: N
Num Peaks: 14
101.0235	24.9
120.0116	4.9
145.0135	50.2
239.2013	14.9
255.1963	6.4
265.1808	8.9
283.1691	21.0
284.1730	3.7
327.1817	6.8
344.1914	4.4
345.1667	100.0
345.1931	5.9
346.1696	19.0
347.2231	12.0

Name: (3S,5R,8R,9S,10R,13R,14S,17R)-3-((2R,4S,5S)-3,5-dihydroxy-4-methoxy-6-methyloxan-2-yl)oxy-14-hydroxy-13-methyl-17-(5-oxo-2H-furan-3-yl)-1,2,3,4,5,6,7,8,9,11,12,15,16,17-tetradecahydrocyclopenta(a)phenanthrene-10-carbaldehyde
PrecursorMZ: 593.29765
RT: 7.3236
ExactMass: 548.29853298
Spectrum_type: 2
charge: -1
Formula: C30H44O9
SMILES: CC1[C@@H]([C@@H](C([C@@H](O1)O[C@H]2CC[C@]3([C@@H](C2)CC[C@@H]4[C@@H]3CC[C@]5([C@@]4(CC[C@@H]5C6=CC(=O)OC6)O)C)C=O)O)OC)O
Method: HCD
Collision_energy: [28.333334]
Isolation_window: 4.0
Ion_mode: N
Num Peaks: 36
65.9240	3.6
73.0397	3.8
74.0239	7.3
79.9564	14.8
99.0190	7.9
124.0065	3.9
128.0348	3.8
143.0456	5.1
152.9950	7.3
162.0554	3.8
170.1543	7.0
180.0659	15.0
201.0665	5.6
219.0770	6.7
228.1599	4.9
237.0877	8.2
240.0775	20.2
253.0859	5.7
254.0917	4.6
272.0886	8.8
285.1809	3.9
304.0609	3.8
321.0636	20.8
321.1221	5.9
350.1511	14.2
365.1137	4.8
377.1626	5.6
378.1554	5.0
575.2874	6.1
591.3610	8.3
592.3269	20.3
593.2971	100.0
594.3069	11.5
594.3393	38.6
595.2866	8.2
595.3715	6.5

Name: (3aHydroxya2a((9E,12E)aoctadecaa9,12adienoyloxy)propoxy)(2a((3,4,5atrihydroxya6a(hydroxymethyl)oxana2ayl)amino)ethoxy)phosphinic acid
PrecursorMZ: 638.32908
RT: 7.3816
ExactMass: 639.33836316
Spectrum_type: 2
charge: -1
Formula: C29H54NO12P
SMILES: CCCCC/C=C/C/C=C/CCCCCCCC(=O)OC(CO)COP(=O)(O)OCCNC1C(C(C(C(O1)CO)O)O)O
Method: HCD
Collision_energy: [28.333334]
Isolation_window: 4.0
Ion_mode: N
Num Peaks: 25
78.9577	3.4
97.4631	2.8
121.9998	3.6
124.0061	5.5
131.0812	2.6
152.9945	20.5
196.0368	7.3
214.0474	2.8
243.1126	14.2
258.1364	10.6
268.0584	6.6
279.2317	100.0
280.2354	14.9
293.2112	3.2
302.1256	17.4
318.1290	5.0
476.2773	11.2
518.2885	2.8
529.2996	8.8
565.2758	5.9
601.2511	4.0
637.2291	4.3
638.3281	50.5
639.2243	3.2
639.3314	13.9

Name: (3aR,4R,5aS,6S,9aR,9bS)-4,6-dihydroxy-5a,9-dimethyl-3-methylidene-4,5,6,7,9a,9b-hexahydro-3aH-benzo(g)(1)benzofuran-2-one
PrecursorMZ: 263.12893
RT: 6.0519
ExactMass: 264.13615911
Spectrum_type: 2
charge: -1
Formula: C15H20O4
SMILES: CC1=CC[C@@H]([C@@]2([C@@H]1[C@H]3[C@@H]([C@@H](C2)O)C(=C)C(=O)O3)C)O
Method: HCD
Collision_energy: [28.333334]
Isolation_window: 4.0
Ion_mode: N
Num Peaks: 7
219.1387	35.6
220.1422	5.4
247.1337	8.9
262.0870	1.9
263.1288	100.0
264.1321	15.1
265.1450	11.4

Name: (3aR,5E,7S,10E,14E,16aS)-2,7-Dihydroxy-3-((2S)-1-hydroxy-2-propanyl)-6,10,14,16a-tetramethyl-4,7,8,9,12,13,16,16a-octahydrocyclopenta(15)annulen-1(3aH)-one
PrecursorMZ: 401.27027
RT: 8.9259
ExactMass: 402.27700969
Spectrum_type: 2
charge: -1
Formula: C25H38O4
SMILES: C/C/1=C\CCC(=CC[C@]2([C@H](C/C=C(/[C@H](CC1)O)\C)C(=C(C2=O)O)[C@H](C)CO)C)C
Method: HCD
Collision_energy: [28.333334]
Isolation_window: 4.0
Ion_mode: N
Num Peaks: 15
136.0524	12.2
137.0557	0.8
149.0603	61.1
150.0636	6.0
251.2019	5.9
252.2056	0.8
383.2597	8.2
384.2628	2.3
385.2316	0.9
386.2482	0.9
400.1237	1.0
401.2704	100.0
402.2736	28.5
403.2503	6.5
403.2895	2.0

Name: (3beta,16beta,17alpha,18beta,20alpha)-18-Hydroxy-11,17-dimethoxyyohimban-16-carboxylic acid
PrecursorMZ: 399.1926
RT: 3.7174
ExactMass: 400.199822
Spectrum_type: 2
charge: -1
Formula: C22H28N2O5
SMILES: CO[C@H]1[C@@H](C[C@@H]2CN3CCC4=C([C@H]3C[C@@H]2[C@@H]1C(=O)O)NC5=C4C=CC(=C5)OC)O
Method: HCD
Collision_energy: [28.333334]
Isolation_window: 4.0
Ion_mode: N
Num Peaks: 5
171.1130	7.0
235.1450	6.1
251.1397	39.2
399.1925	100.0
400.1962	23.6

Name: (3beta,5alpha,8xi,14xi,25S)-3-Hydroxyspirost-9(11)-en-12-one
PrecursorMZ: 473.29141
RT: 8.4842
ExactMass: 428.29265975
Spectrum_type: 2
charge: -1
Formula: C27H40O4
SMILES: C[C@H]1CC[C@@]2([C@H]([C@H]3[C@@H](O2)CC4[C@@]3(C(=O)C=C5C4CC[C@@H]6[C@@]5(CC[C@@H](C6)O)C)C)C)OC1
Method: HCD
Collision_energy: [28.333334]
Isolation_window: 4.0
Ion_mode: N
Num Peaks: 25
52.5893	3.8
74.0238	5.1
97.0285	6.9
109.0649	20.7
151.0252	3.7
221.1906	6.1
279.2327	4.4
301.2158	2.7
311.2751	3.5
317.2121	4.5
319.2280	3.0
339.2688	2.4
341.2487	4.8
349.2892	4.2
350.2109	2.4
367.2996	4.7
411.2911	5.7
429.3011	20.1
430.3050	5.7
455.2809	6.9
456.2830	2.6
472.3094	3.4
473.2897	100.0
474.2909	30.0
475.2901	6.2

Name: (3beta,5xi,9xi,18xi,22beta)-22,25-Dihydroxyolean-12-en-3-yl 6-deoxy-alpha-L-mannopyranosyl-(1->2)-beta-D-xylopyranosyl-(1->2)-beta-D-glucopyranosiduronic acid
PrecursorMZ: 911.50194
RT: 6.2185
ExactMass: 912.50825095
Spectrum_type: 2
charge: -1
Formula: C47H76O17
SMILES: C[C@H]1[C@@H]([C@H]([C@H]([C@@H](O1)O[C@@H]2[C@H]([C@@H](CO[C@H]2O[C@@H]3[C@H]([C@@H]([C@H](O[C@H]3O[C@H]4CC[C@]5(C(C4(C)C)CC[C@@]6(C5CC=C7[C@]6(CC[C@@]8(C7CC(C[C@H]8O)(C)C)C)C)C)CO)C(=O)O)O)O)O)O)O)O)O
Method: HCD
Collision_energy: [28.333334]
Isolation_window: 4.0
Ion_mode: N
Num Peaks: 32
71.0129	13.4
72.9922	1.6
73.0286	3.6
75.0079	8.4
85.0286	14.3
87.0079	4.5
87.0443	1.5
89.0234	8.2
95.0130	2.2
99.0079	8.8
101.0235	4.3
101.2747	2.7
101.2823	4.0
101.3863	1.3
101.3938	1.9
103.0391	3.2
112.0158	1.1
113.0235	15.9
115.0392	4.2
119.0339	1.2
131.0342	12.2
139.0029	1.8
143.0343	11.2
145.0498	1.5
157.0135	2.9
163.0606	4.7
205.0713	10.9
457.3686	1.7
615.3897	2.0
911.5022	100.0
912.5055	46.7
913.5093	8.5

Name: (4,5-dihydroxy-3,4-bis(hydroxymethyl)-4a,8,8-trimethyl-5,6,7,8a-tetrahydro-1H-naphthalen-1-yl) hexanoate
PrecursorMZ: 383.24419
RT: 5.6874
ExactMass: 384.25118886
Spectrum_type: 2
charge: -1
Formula: C21H36O6
SMILES: CCCCCC(=O)OC1C=C(C(C2(C1C(CCC2O)(C)C)C)(CO)O)CO
Method: HCD
Collision_energy: [28.333334]
Isolation_window: 4.0
Ion_mode: N
Num Peaks: 7
61.9874	17.3
71.0493	11.0
83.0492	10.9
99.0805	9.8
221.1542	20.6
383.2445	100.0
384.2480	21.7

Name: (4-(3-Carbazol-9-yl-2-hydroxy-propyl)-piperazin-1-yl)-phenyl-methanone
PrecursorMZ: 448.17972
RT: 7.495
ExactMass: 413.21032711
Spectrum_type: 2
charge: -1
Formula: C26H27N3O2
SMILES: C1CN(CCN1CC(CN2C3=CC=CC=C3C4=CC=CC=C42)O)C(=O)C5=CC=CC=C5
Method: HCD
Collision_energy: [28.333334]
Isolation_window: 4.0
Ion_mode: N
Num Peaks: 4
326.2122	59.3
360.1999	34.7
404.1902	51.7
448.1802	100.0

Name: (4As,6As,6Br,10S,12Ar)-10-Hydroxy-2,2,6A,6B,9,9,12A-Heptamethyl-1,3,4,5,6,6A,7,8,8A,10,11,12,13,14B-Tetradecahydropicene-4A-Carboxylic Acid
PrecursorMZ: 455.35316
RT: 9.9467
ExactMass: 456.36034539
Spectrum_type: 2
charge: -1
Formula: C30H48O3
SMILES: C[C@]12CC[C@@H](C(C1CC[C@@]3(C2CC=C4[C@]3(CC[C@@]5(C4CC(CC5)(C)C)C(=O)O)C)C)(C)C)O
Method: HCD
Collision_energy: [28.333334]
Isolation_window: 4.0
Ion_mode: N
Num Peaks: 8
50.5961	4.3
61.9874	16.6
85.0285	47.5
131.0341	19.1
283.2638	6.6
455.3539	100.0
456.3577	34.3
457.3703	14.3

Name: (4R)-3-methylidene-4-((E)-3-methyl-4-(4-methyl-5-oxooxolan-2-yl)but-2-enyl)oxolan-2-one
PrecursorMZ: 263.12884
RT: 7.3974
ExactMass: 264.13615911
Spectrum_type: 2
charge: -1
Formula: C15H20O4
SMILES: CC1CC(OC1=O)C/C(=C/C[C@H]2COC(=O)C2=C)/C
Method: HCD
Collision_energy: [28.333334]
Isolation_window: 4.0
Ion_mode: N
Num Peaks: 8
69.0336	29.9
71.0493	21.6
93.0336	34.9
96.9591	24.9
219.1385	62.1
263.1288	100.0
264.1321	16.3
265.1479	92.2

Name: (4Z,10E,13E,16E)-docosa-4,10,13,16-tetraenoic acid
PrecursorMZ: 331.26277
RT: 10.082
ExactMass: 332.271530387
Spectrum_type: 2
charge: -1
Formula: C22H36O2
SMILES: CCCCC/C=C/C/C=C/C/C=C/CCCC/C=C\CCC(=O)O
Method: HCD
Collision_energy: [28.333334]
Isolation_window: 4.0
Ion_mode: N
Num Peaks: 5
268.0939	14.1
331.2628	100.0
332.1726	50.4
332.2651	22.4
332.6736	20.9

Name: (4Z,7Z,10Z,13Z,15E,19Z)-17-Hydroxy-4,7,10,13,15,19-docosahexaenoic acid
PrecursorMZ: 343.22775
RT: 10.0411
ExactMass: 344.23514488
Spectrum_type: 2
charge: -1
Formula: C22H32O3
SMILES: CC/C=C\CC(/C=C/C=C\C/C=C\C/C=C\C/C=C\CCC(=O)O)O
Method: HCD
Collision_energy: [28.333334]
Isolation_window: 4.0
Ion_mode: N
Num Peaks: 8
119.0493	100.0
120.0527	7.1
149.0602	7.4
223.1700	15.9
267.2693	16.2
268.2726	6.4
269.2855	3.5
343.2278	14.6

Name: (4aR)-5-hydroxy-6-methoxy-1,1-dimethyl-7-propan-2-yl-2,3,4,9,10,10a-hexahydrophenanthrene-4a-carboxylic acid
PrecursorMZ: 345.20707
RT: 8.5309
ExactMass: 346.21440943
Spectrum_type: 2
charge: -1
Formula: C21H30O4
SMILES: CC(C)C1=C(C(=C2C(=C1)CCC3[C@@]2(CCCC3(C)C)C(=O)O)O)OC
Method: HCD
Collision_energy: [28.333334]
Isolation_window: 4.0
Ion_mode: N
Num Peaks: 6
286.1936	100.0
287.1969	21.4
301.2172	76.5
302.2205	14.4
345.2068	77.2
346.2096	18.7

Name: (5-Hydroxy-2-(3-hydroxybutyl)-3,3-dimethylcyclohexyl)methyl beta-D-glucopyranoside
PrecursorMZ: 437.23902
RT: 5.1969
ExactMass: 392.2410181
Spectrum_type: 2
charge: -1
Formula: C19H36O8
SMILES: CC(CCC1C(CC(CC1(C)C)O)CO[C@H]2[C@@H]([C@H]([C@@H]([C@H](O2)CO)O)O)O)O
Method: HCD
Collision_energy: [28.333334]
Isolation_window: 4.0
Ion_mode: N
Num Peaks: 11
73.0285	7.2
75.0078	7.2
75.0441	11.6
115.0391	6.0
365.2179	56.4
366.2211	11.1
379.2339	25.4
437.2398	100.0
438.2439	21.7
439.2386	11.1
439.2443	8.2

Name: (5-Hydroxy-2-(4-hydroxy-2,5-bis(hydroxymethyl)-3-(2-methylpropanoyloxy)oxolan-2-yl)oxy-4-(2-methylpropanoyloxy)-6-(2-methylpropanoyloxymethyl)oxan-3-yl) decanoate
PrecursorMZ: 751.37668
RT: 8.7165
ExactMass: 706.37757114
Spectrum_type: 2
charge: -1
Formula: C34H58O15
SMILES: CCCCCCCCCC(=O)OC1C(C(C(OC1OC2(C(C(C(O2)CO)O)OC(=O)C(C)C)CO)COC(=O)C(C)C)O)OC(=O)C(C)C
Method: HCD
Collision_energy: [28.333334]
Isolation_window: 4.0
Ion_mode: N
Num Peaks: 4
87.0442	100.0
171.1384	29.7
751.3750	56.3
752.3777	20.7

Name: (5E)-3,4,9-trihydroxy-2-propyl-2,3,4,7,8,9-hexahydrooxecin-10-one
PrecursorMZ: 243.12369
RT: 3.3573
ExactMass: 244.13107373
Spectrum_type: 2
charge: -1
Formula: C12H20O5
SMILES: CCCC1C(C(/C=C/CCC(C(=O)O1)O)O)O
Method: HCD
Collision_energy: [28.333334]
Isolation_window: 4.0
Ion_mode: N
Num Peaks: 20
73.0108	2.2
114.0552	2.0
124.0396	2.5
126.0554	2.5
155.0704	2.2
163.1121	12.9
181.0866	11.0
181.1227	20.6
182.1261	2.2
225.1130	7.9
226.1446	2.2
241.1067	2.1
242.1377	2.0
243.1236	100.0
243.1537	2.2
243.1598	2.5
244.1267	12.0
244.1553	12.8
245.0440	2.4
245.1027	2.4

Name: (5R,8S)-3,4-dihydroxy-8-((2S)-7-hydroxy-6-methylheptan-2-yl)-5-methyl-5,6,7,8-tetrahydronaphthalene-2-carboxylic acid
PrecursorMZ: 349.20395
RT: 8.1071
ExactMass: 350.20932405
Spectrum_type: 2
charge: -1
Formula: C20H30O5
SMILES: C[C@@H]1CC[C@H](C2=CC(=C(C(=C12)O)O)C(=O)O)[C@@H](C)CCCC(C)CO
Method: HCD
Collision_energy: [28.333334]
Isolation_window: 4.0
Ion_mode: N
Num Peaks: 3
80.9639	100.0
349.2038	55.0
350.2077	9.8

Name: (5R,9S)-5,9-dimethyl-14-methylidenetetracyclo(11.2.1.01,10.04,9)hexadecane-5-carboxylic acid
PrecursorMZ: 301.21746
RT: 9.1398
ExactMass: 302.224580195
Spectrum_type: 2
charge: -1
Formula: C20H30O2
SMILES: C[C@@]12CCC[C@@](C1CCC34C2CCC(C3)C(=C)C4)(C)C(=O)O
Method: HCD
Collision_energy: [28.333334]
Isolation_window: 4.0
Ion_mode: N
Num Peaks: 9
59.0130	8.6
203.1800	3.6
257.2275	17.0
258.2310	3.7
299.2591	100.0
300.2627	34.7
301.2173	76.2
301.2654	3.4
302.2206	17.4

Name: (5S)-5-hydroxy-1,7-bis(4-hydroxyphenyl)heptan-3-one
PrecursorMZ: 349.1215
RT: 5.4571
ExactMass: 314.15180918
Spectrum_type: 2
charge: -1
Formula: C19H22O4
SMILES: C1=CC(=CC=C1CC[C@@H](CC(=O)CCC2=CC=C(C=C2)O)O)O
Method: HCD
Collision_energy: [28.333334]
Isolation_window: 4.0
Ion_mode: N
Num Peaks: 4
149.0602	59.2
163.0763	37.8
313.1441	60.5
349.2030	100.0

Name: (5Z,8Z)-4,7-dihydroxy-2-methyl-2,3,4,7-tetrahydrooxecin-10-one
PrecursorMZ: 197.08149
RT: 3.5801
ExactMass: 198.08920892
Spectrum_type: 2
charge: -1
Formula: C10H14O4
SMILES: CC1CC(/C=C\C(/C=C\C(=O)O1)O)O
Method: HCD
Collision_energy: [28.333334]
Isolation_window: 4.0
Ion_mode: N
Num Peaks: 14
55.0180	9.3
59.0129	5.4
61.9874	3.7
73.0285	3.9
98.9559	2.4
125.0600	1.9
137.0963	6.5
142.9460	2.7
153.0913	7.6
155.1070	100.0
181.0862	2.8
182.0212	3.1
197.0814	4.4
199.0970	67.9

Name: (5xi,6alpha,7beta)-6,11,12-Trihydroxy-7,20-epoxyabieta-8,11,13-trien-20-one
PrecursorMZ: 345.17089
RT: 6.1984
ExactMass: 346.17802393
Spectrum_type: 2
charge: -1
Formula: C20H26O5
SMILES: CC(C)C1=C(C(=C2C(=C1)[C@@H]3[C@@H](C4[C@@]2(CCCC4(C)C)C(=O)O3)O)O)O
Method: HCD
Collision_energy: [28.333334]
Isolation_window: 4.0
Ion_mode: N
Num Peaks: 9
171.1021	1.3
283.1702	28.5
284.1737	5.9
301.1808	100.0
302.1841	20.0
303.1871	1.5
343.2516	2.1
345.1707	34.8
346.1741	8.0

Name: (5xi,9xi,13xi,18xi,19beta)-3-Oxolup-20(29)-en-28-oic acid
PrecursorMZ: 499.34343
RT: 9.6234
ExactMass: 454.34469533
Spectrum_type: 2
charge: -1
Formula: C30H46O3
SMILES: CC(=C)[C@H]1CC[C@]2(C1C3CCC4[C@]5(CCC(=O)C(C5CC[C@]4([C@@]3(CC2)C)C)(C)C)C)C(=O)O
Method: HCD
Collision_energy: [28.333334]
Isolation_window: 4.0
Ion_mode: N
Num Peaks: 11
50.3721	4.5
176.0711	14.3
220.0612	8.3
223.1701	2.9
453.3379	100.0
454.3415	31.2
455.3527	17.4
497.3845	5.8
498.3234	4.2
498.3952	2.8
499.3355	2.6

Name: (6,10a-Dihydroxy-4-(hydroxymethyl)-4,7,11b-trimethyl-9-oxo-1,2,3,4a,5,6,6a,7,11,11a-decahydronaphtho(2,1-f)(1)benzofuran-5-yl) acetate
PrecursorMZ: 407.20765
RT: 6.0138
ExactMass: 408.21480336
Spectrum_type: 2
charge: -1
Formula: C22H32O7
SMILES: CC1C2C(CC3(C1=CC(=O)O3)O)C4(CCCC(C4C(C2O)OC(=O)C)(C)CO)C
Method: HCD
Collision_energy: [28.333334]
Isolation_window: 4.0
Ion_mode: N
Num Peaks: 16
59.0130	4.8
61.9874	5.3
113.0598	10.3
219.1385	13.1
249.1492	8.9
283.2062	10.0
319.2283	7.5
347.2222	5.0
363.2152	19.8
365.2315	9.7
405.2649	33.6
406.2694	18.1
407.2046	100.0
407.2793	11.6
408.2036	23.4
409.2195	57.1

Name: (6-(2-(3,4-dihydroxyphenyl)-8-hydroxy-4-oxochromen-7-yl)oxy-3,4,5-trihydroxyoxan-2-yl)methyl (E)-3-(4-hydroxyphenyl)prop-2-enoate
PrecursorMZ: 593.12791
RT: 7.1293500000000005
ExactMass: 594.13734088
Spectrum_type: 2
charge: -1
Formula: C30H26O13
SMILES: C1=CC(=CC=C1/C=C/C(=O)OCC2C(C(C(C(O2)OC3=C(C4=C(C=C3)C(=O)C=C(O4)C5=CC(=C(C=C5)O)O)O)O)O)O)O
Method: HCD
Collision_energy: [28.333334]
Isolation_window: 4.0
Ion_mode: N
Num Peaks: 4
121.0281	100.0
209.0441	51.0
593.1279	43.6
594.1312	13.4

Name: (6S,9aS)-N-benzyl-6-(4-hydroxybenzyl)-8-(naphthalen-1-ylmethyl)-4,7-dioxooctahydro-1H-pyrazino(1,2-a)pyrimidine-1-carboxamide
PrecursorMZ: 593.24081
RT: 9.6931
ExactMass: 548.24235551
Spectrum_type: 2
charge: -1
Formula: C33H32N4O4
SMILES: C1CN([C@H]2CN(C(=O)[C@@H](N2C1=O)CC3=CC=C(C=C3)O)CC4=CC=CC5=CC=CC=C54)C(=O)NCC6=CC=CC=C6
Method: HCD
Collision_energy: [28.333334]
Isolation_window: 4.0
Ion_mode: N
Num Peaks: 8
211.1335	25.0
488.2219	71.7
489.2244	22.2
503.2448	53.3
547.2353	87.2
548.2360	28.1
591.4639	100.0
592.4687	57.5

Name: (6Z,10E)-4-Hydroxy-6-(hydroxymethyl)-10-methyl-3-methylene-3a,4,5,8,9,11a-hexahydrocyclodeca(b)furan-2(3H)-one
PrecursorMZ: 309.13435
RT: 4.7649
ExactMass: 264.13615911
Spectrum_type: 2
charge: -1
Formula: C15H20O4
SMILES: C/C/1=C\C2C(C(CC(=CCC1)CO)O)C(=C)C(=O)O2
Method: HCD
Collision_energy: [28.333334]
Isolation_window: 4.0
Ion_mode: N
Num Peaks: 9
171.1173	46.8
189.1280	22.8
201.1279	32.1
219.1386	22.3
237.1495	14.9
265.1446	51.9
307.1097	16.8
309.1352	100.0
310.1396	18.8

Name: (6Z,8Z,11Z,14Z)-5-oxoicosa-6,8,11,14-tetraenoic acid
PrecursorMZ: 317.2107
RT: 8.706399999999999
ExactMass: 318.21949481
Spectrum_type: 2
charge: -1
Formula: C20H30O3
SMILES: CCCCC/C=C\C/C=C\C/C=C\C=C/C(=O)CCCC(=O)O
Method: HCD
Collision_energy: [28.333334]
Isolation_window: 4.0
Ion_mode: N
Num Peaks: 15
57.0334	4.3
59.0127	37.4
69.0334	4.3
71.0126	14.1
83.0488	4.2
109.0645	8.2
129.0543	10.8
153.0546	4.5
163.1478	7.2
203.1792	18.6
273.2210	9.8
297.2410	6.1
317.2107	100.0
318.2138	21.9
319.2263	23.3

Name: (7-(3,4-Dihydroxyphenyl)-1-(4-hydroxyphenyl)heptan-3-yl) acetate
PrecursorMZ: 357.1711
RT: 7.6801
ExactMass: 358.17802393
Spectrum_type: 2
charge: -1
Formula: C21H26O5
SMILES: CC(=O)OC(CCCCC1=CC(=C(C=C1)O)O)CCC2=CC=C(C=C2)O
Method: HCD
Collision_energy: [28.333334]
Isolation_window: 4.0
Ion_mode: N
Num Peaks: 14
61.9875	1.0
109.0287	44.1
110.0320	2.6
247.1340	37.4
248.1376	5.7
271.2278	2.0
283.1705	3.1
289.1454	1.4
313.1813	2.3
357.0788	0.7
357.1711	100.0
357.2636	0.9
358.1745	22.6
359.1826	4.5

Name: (7R)-6,7-Dihydro-3,7-dihydroxy-2-(1E)-1-propen-1-ylpyrano(2,3-c)pyrrole-4,5-dione
PrecursorMZ: 222.04035
RT: 2.1347
ExactMass: 223.04807239
Spectrum_type: 2
charge: -1
Formula: C10H9NO5
SMILES: C/C=C/C1=C(C(=O)C2=C(O1)[C@H](NC2=O)O)O
Method: HCD
Collision_energy: [28.333334]
Isolation_window: 4.0
Ion_mode: N
Num Peaks: 25
58.0289	2.8
108.0443	2.8
110.0603	3.5
124.0395	5.7
134.0606	2.9
135.0445	11.8
136.0398	7.5
138.0554	2.8
148.0401	3.2
150.0555	4.8
160.0397	41.0
161.0434	2.9
162.0190	7.6
162.0554	8.5
163.0268	24.7
164.0328	2.6
176.0347	55.0
177.0403	8.3
178.0504	100.0
179.0544	9.6
180.0659	7.2
204.0296	22.3
222.0404	63.1
223.0441	6.7
224.0569	2.5

Name: (8,8-dimethyl-2,10-dioxo-9H-pyrano(2,3-f)chromen-9-yl) (Z)-2-methylbut-2-enoate
PrecursorMZ: 341.10314
RT: 7.55725
ExactMass: 342.11033829
Spectrum_type: 2
charge: -1
Formula: C19H18O6
SMILES: C/C=C(/C)\C(=O)OC1C(=O)C2=C(C=CC3=C2OC(=O)C=C3)OC1(C)C
Method: HCD
Collision_energy: [28.333334]
Isolation_window: 4.0
Ion_mode: N
Num Peaks: 9
123.0442	1.6
176.0472	5.1
197.0268	2.7
339.2000	100.0
340.2033	29.7
341.1032	20.5
341.2001	5.8
342.1067	4.7
342.2029	1.5

Name: (8aR,12S,12aR)-12-hydroxy-4-methyl-4,5,6,7,8,8a,12,12a-octahydro-1H-3-benzoxecine-2,9-dione
PrecursorMZ: 251.12882
RT: 5.219655555555556
ExactMass: 252.13615911
Spectrum_type: 2
charge: -1
Formula: C14H20O4
SMILES: CC1CCCC[C@@H]2[C@@H](CC(=O)O1)[C@H](C=CC2=O)O
Method: HCD
Collision_energy: [28.333334]
Isolation_window: 4.0
Ion_mode: N
Num Peaks: 18
79.9564	2.7
120.9590	1.0
123.0442	4.4
135.0442	2.2
165.1276	1.8
189.1279	15.3
190.1312	2.0
191.1069	2.1
205.1227	1.5
207.1386	18.8
208.1421	2.7
233.1180	34.8
234.1213	5.0
251.1086	2.7
251.1287	100.0
252.0742	2.1
252.1320	14.2
253.1346	1.0

Name: (9,11,13-Trimethyl-8,15-dioxatetracyclo(10.2.2.0~2,7~.0~9,14~)hexadeca-2,4,6-trien-12-yl)methyl phenylcarbamate
PrecursorMZ: 406.20285
RT: 4.4784
ExactMass: 407.20965841
Spectrum_type: 2
charge: -1
Formula: C25H29NO4
SMILES: CC1CC2(C3C(C1(COC3C4=CC=CC=C4O2)COC(=O)NC5=CC=CC=C5)C)C
Method: HCD
Collision_energy: [28.333334]
Isolation_window: 4.0
Ion_mode: N
Num Peaks: 4
405.1888	2.5
406.2030	100.0
407.2065	31.1
408.2101	3.6

Name: (9E)-11a-hydroxy-3,6,10-trimethyl-6,7,8,11-tetrahydro-4H-cyclodeca(b)furan-2,5-dione
PrecursorMZ: 263.12892
RT: 5.6869
ExactMass: 264.13615911
Spectrum_type: 2
charge: -1
Formula: C15H20O4
SMILES: CC1CC/C=C(/CC2(C(=C(C(=O)O2)C)CC1=O)O)\C
Method: HCD
Collision_energy: [28.333334]
Isolation_window: 4.0
Ion_mode: N
Num Peaks: 5
135.0807	20.7
245.1182	23.1
263.1288	100.0
264.1338	18.0
265.1482	57.6

Name: (9E)-12-hydroxyoctadec-9-enoic acid
PrecursorMZ: 297.24265
RT: 8.9879
ExactMass: 298.25079494
Spectrum_type: 2
charge: -1
Formula: C18H34O3
SMILES: CCCCCCC(C/C=C/CCCCCCCC(=O)O)O
Method: HCD
Collision_energy: [28.333334]
Isolation_window: 4.0
Ion_mode: N
Num Peaks: 32
59.0128	0.2
74.8150	0.2
97.4652	0.1
139.1118	0.2
141.1272	1.8
155.1431	0.2
185.1162	0.1
197.1902	0.3
253.2527	1.3
279.2323	0.1
281.2479	2.0
295.2272	1.8
296.2305	1.0
297.1524	1.1
297.1726	0.1
297.1871	0.1
297.2427	18.4
297.3132	0.1
298.1556	0.2
298.2461	3.6
299.1080	0.1
299.1470	0.1
299.1667	0.2
299.1868	0.6
299.2033	0.5
299.2513	0.2
299.2582	100.0
299.3142	0.5
299.3289	0.7
299.3499	0.2
299.3695	0.1
299.4267	0.2

Name: (9E,11Z)-13-Oxo-9,11-octadecadienoic acid
PrecursorMZ: 293.21239
RT: 8.119
ExactMass: 294.21949481
Spectrum_type: 2
charge: -1
Formula: C18H30O3
SMILES: CCCCCC(=O)/C=C\C=C\CCCCCCCC(=O)O
Method: HCD
Collision_energy: [28.333334]
Isolation_window: 4.0
Ion_mode: N
Num Peaks: 11
57.0337	1.4
59.0130	1.5
113.0963	12.6
139.1122	1.3
167.1072	2.2
179.1070	2.1
195.1386	2.0
249.2224	2.3
293.2123	100.0
294.2156	19.6
295.2210	1.8

Name: (9Z)-5,8,11-Trihydroxyoctadec-9-enoic acid
PrecursorMZ: 329.2333
RT: 6.4905
ExactMass: 330.24062418
Spectrum_type: 2
charge: -1
Formula: C18H34O5
SMILES: CCCCCCCC(/C=C\C(CCC(CCCC(=O)O)O)O)O
Method: HCD
Collision_energy: [28.333334]
Isolation_window: 4.0
Ion_mode: N
Num Peaks: 5
185.1174	24.0
201.1127	100.0
293.2124	18.3
311.2228	32.1
329.2330	39.3

Name: (E)-1-(3,4-dihydroxy-2,6-dimethoxyphenyl)-3-phenylprop-2-en-1-one
PrecursorMZ: 299.09261
RT: 6.2867
ExactMass: 300.09977361
Spectrum_type: 2
charge: -1
Formula: C17H16O5
SMILES: COC1=C(C(=C(C(=C1)O)O)OC)C(=O)/C=C/C2=CC=CC=C2
Method: HCD
Collision_energy: [28.333334]
Isolation_window: 4.0
Ion_mode: N
Num Peaks: 13
91.0179	3.8
125.0236	2.7
135.0079	21.7
153.0187	12.8
161.0238	3.0
269.0456	5.7
284.0690	6.9
297.1528	37.0
298.1560	10.7
299.0925	100.0
299.1500	3.7
300.0956	17.1
301.0716	9.6

Name: (E)-1-(3,4-dihydroxyphenyl)-7-(4-hydroxyphenyl)hept-4-en-3-one
PrecursorMZ: 311.12858
RT: 6.9172
ExactMass: 312.13615911
Spectrum_type: 2
charge: -1
Formula: C19H20O4
SMILES: C1=CC(=CC=C1CC/C=C/C(=O)CCC2=CC(=C(C=C2)O)O)O
Method: HCD
Collision_energy: [28.333334]
Isolation_window: 4.0
Ion_mode: N
Num Peaks: 5
93.0336	71.7
119.0493	13.1
217.0864	100.0
311.1296	63.1
311.1685	33.9

Name: (E)-12-Hydroxydodec-3-enoic acid
PrecursorMZ: 213.14944
RT: 7.3374500000000005
ExactMass: 214.15689456
Spectrum_type: 2
charge: -1
Formula: C12H22O3
SMILES: C(CCCCO)CCC/C=C/CC(=O)O
Method: HCD
Collision_energy: [28.333334]
Isolation_window: 4.0
Ion_mode: N
Num Peaks: 7
71.0494	13.3
169.1594	67.2
170.1629	6.2
195.1387	12.8
213.1494	100.0
214.1531	14.0
215.0106	6.9

Name: (E)-2,7-dimethyloct-4-enedioic acid
PrecursorMZ: 199.09702
RT: 4.4565375
ExactMass: 200.10485899
Spectrum_type: 2
charge: -1
Formula: C10H16O4
SMILES: CC(C/C=C/CC(C)C(=O)O)C(=O)O
Method: HCD
Collision_energy: [28.333334]
Isolation_window: 4.0
Ion_mode: N
Num Peaks: 11
73.0286	1.9
130.0864	59.9
131.0899	2.0
137.0962	10.2
153.0913	2.2
155.1069	100.0
156.1115	8.6
156.1380	2.5
199.0970	18.1
200.1021	1.7
200.1285	24.0

Name: (E)-2-(hydroxymethyl)-3-(3-(hydroxymethyl)-6-propan-2-ylcyclohex-2-en-1-yl)prop-2-enoic acid
PrecursorMZ: 253.14436
RT: 5.8522
ExactMass: 254.15180918
Spectrum_type: 2
charge: -1
Formula: C14H22O4
SMILES: CC(C)C1CCC(=CC1/C=C(\CO)/C(=O)O)CO
Method: HCD
Collision_energy: [28.333334]
Isolation_window: 4.0
Ion_mode: N
Num Peaks: 6
191.1434	16.3
209.1541	100.0
210.1574	12.4
235.1341	8.9
253.1442	74.2
254.1474	8.8

Name: (E)-2-(hydroxymethyl)-3-(3-oxo-5-propan-2-yl-4,5,6,7-tetrahydro-1H-2-benzofuran-4-yl)prop-2-enoic acid
PrecursorMZ: 279.12409
RT: 6.2459
ExactMass: 280.13107373
Spectrum_type: 2
charge: -1
Formula: C15H20O5
SMILES: CC(C)C1CCC2=C(C1/C=C(\CO)/C(=O)O)C(=O)OC2
Method: HCD
Collision_energy: [28.333334]
Isolation_window: 4.0
Ion_mode: N
Num Peaks: 17
69.0375	1.4
96.9593	1.9
121.0288	14.8
122.0320	2.5
191.1438	3.7
217.1233	5.8
235.1340	100.0
236.1375	15.4
277.1453	4.1
278.1473	1.9
278.1503	1.7
279.1241	98.9
279.6144	1.3
280.1273	19.1
280.6229	5.1
281.1239	1.8
281.1278	2.1

Name: (E)-3-(3,4-dihydroxy-5-((E)-4-hydroxy-3-methoxystyryl)phenyl)acrylic acid
PrecursorMZ: 327.08697
RT: 4.3482666666666665
Spectrum_type: 2
charge: -1
SMILES: OC(/C=C/C1=CC(O)=C(O)C(/C=C/C2=CC=C(O)C(OC)=C2)=C1)=O
Method: HCD
Collision_energy: [28.333334]
Isolation_window: 4.0
Ion_mode: N
Num Peaks: 28
59.0129	4.9
93.0336	1.8
97.4059	1.4
145.0651	4.0
197.0962	1.6
213.0916	3.5
222.0680	2.4
223.0758	11.2
224.0816	1.9
225.0915	28.4
235.0759	1.5
237.0917	39.1
238.0953	6.1
239.1073	90.1
240.1107	15.1
241.1231	7.9
253.0873	2.5
265.0867	23.2
266.0901	4.4
267.1020	2.8
283.0973	29.7
284.1006	5.9
285.1130	33.6
309.0766	6.7
311.0923	3.6
327.0871	100.0
328.0904	18.0
329.1021	14.9

Name: (E)-3-(acetyloxymethyl)-5-(2-formyl-4-hydroxy-5,5,8a-trimethyl-1,4,4a,6,7,8-hexahydronaphthalen-1-yl)pent-2-enoic acid
PrecursorMZ: 391.213
RT: 6.60548
ExactMass: 392.21988874
Spectrum_type: 2
charge: -1
Formula: C22H32O6
SMILES: CC(=O)OC/C(=C/C(=O)O)/CCC1C(=CC(C2C1(CCCC2(C)C)C)O)C=O
Method: HCD
Collision_energy: [28.333334]
Isolation_window: 4.0
Ion_mode: N
Num Peaks: 19
78.9581	7.2
235.1336	4.7
247.1704	2.7
265.1444	15.8
266.1479	2.3
277.1803	1.4
287.2021	1.7
311.2008	1.7
329.2119	1.8
345.2801	3.4
347.2230	2.2
389.2112	2.3
390.2148	1.6
391.2132	57.0
391.2860	100.0
392.2163	12.5
392.2893	25.4
393.2266	6.3
393.2914	2.4

Name: (E)-4-((1R,4aS,5R,8aS)-6-hydroxy-5-(hydroxymethyl)-5,8a-dimethyl-2-methylidene-3,4,4a,6,7,8-hexahydro-1H-naphthalen-1-yl)-2-(1,2-dihydroxyethyl)but-2-enoic acid
PrecursorMZ: 367.2125
RT: 3.9528
ExactMass: 368.21988874
Spectrum_type: 2
charge: -1
Formula: C20H32O6
SMILES: C[C@@]12CCC([C@@]([C@H]1CCC(=C)[C@H]2C/C=C(\C(CO)O)/C(=O)O)(C)CO)O
Method: HCD
Collision_energy: [28.333334]
Isolation_window: 4.0
Ion_mode: N
Num Peaks: 11
285.1860	0.7
305.2121	0.9
331.1915	1.1
349.2018	1.0
365.1970	1.1
367.1162	0.8
367.2124	100.0
367.2892	0.6
367.3081	0.7
368.2158	20.3
369.2200	2.1

Name: (E)-4-oxonon-2-enoic acid
PrecursorMZ: 169.0864
RT: 5.684
ExactMass: 170.094294304
Spectrum_type: 2
charge: -1
Formula: C9H14O3
SMILES: CCCCCC(=O)/C=C/C(=O)O
Method: HCD
Collision_energy: [28.333334]
Isolation_window: 4.0
Ion_mode: N
Num Peaks: 4
71.0493	16.7
125.0964	100.0
169.0867	17.1
171.0195	18.4

Name: (E)-5-((1R,3R,6S)-2,3-Dimethyltricyclo(2.2.1.02,6)heptan-3-yl)-2-methylpent-2-enoic acid
PrecursorMZ: 233.15436
RT: 8.0563
ExactMass: 234.16197994
Spectrum_type: 2
charge: -1
Formula: C15H22O2
SMILES: C/C(=C\CCC1(C2CC3C1(C3C2)C)C)/C(=O)O
Method: HCD
Collision_energy: [28.333334]
Isolation_window: 4.0
Ion_mode: N
Num Peaks: 6
99.9247	2.4
115.9198	2.8
187.9417	1.7
232.0586	2.1
233.1543	100.0
234.1577	16.6

Name: (E)-5-((1S,4aR,8aR)-2-(hydroxymethyl)-5,5,8a-trimethyl-1,4,4a,6,7,8-hexahydronaphthalen-1-yl)-3-(acetyloxymethyl)pent-2-enoic acid
PrecursorMZ: 377.23298
RT: 8.9638
ExactMass: 378.24062418
Spectrum_type: 2
charge: -1
Formula: C22H34O5
SMILES: CC(=O)OC/C(=C/C(=O)O)/CC[C@@H]1C(=CC[C@H]2[C@]1(CCCC2(C)C)C)CO
Method: HCD
Collision_energy: [28.333334]
Isolation_window: 4.0
Ion_mode: N
Num Peaks: 6
182.0209	68.9
275.1287	40.6
311.1679	88.1
315.2326	100.0
359.2219	69.6
377.2330	92.3

Name: (E)-5-((1S,4aR,8aR)-2-formyl-5,5,8a-trimethyl-1,4,4a,6,7,8-hexahydronaphthalen-1-yl)-3-(acetyloxymethyl)pent-2-enoic acid
PrecursorMZ: 375.21789
RT: 7.2985
ExactMass: 376.22497412
Spectrum_type: 2
charge: -1
Formula: C22H32O5
SMILES: CC(=O)OC/C(=C/C(=O)O)/CC[C@@H]1C(=CC[C@H]2[C@]1(CCCC2(C)C)C)C=O
Method: HCD
Collision_energy: [28.333334]
Isolation_window: 4.0
Ion_mode: N
Num Peaks: 18
59.0129	4.0
61.9874	1.7
86.0238	1.5
130.0501	2.3
223.2066	1.2
257.1913	1.3
271.2068	44.8
272.2102	9.2
283.2067	1.9
285.2225	2.3
295.2067	7.9
296.2104	1.6
313.2168	1.2
330.2652	2.3
331.2275	1.3
375.2178	100.0
376.2210	24.5
377.2250	2.3

Name: (E)-5-(4-methoxy-5-methyl-6-oxopyran-2-yl)-3-methylhex-4-enoic acid
PrecursorMZ: 265.10767
RT: 5.8364
ExactMass: 266.11542367
Spectrum_type: 2
charge: -1
Formula: C14H18O5
SMILES: CC1=C(C=C(OC1=O)/C(=C/C(C)CC(=O)O)/C)OC
Method: HCD
Collision_energy: [28.333334]
Isolation_window: 4.0
Ion_mode: N
Num Peaks: 5
149.1326	31.7
177.1276	100.0
221.1176	68.1
265.1078	66.1
265.1476	25.6

Name: (E)-9-hydroxy-11-(3-hydroxy-5-(1-hydroxypropyl)tetrahydrofuran-2-yl)undec-10-enoic acid
PrecursorMZ: 343.21269
RT: 5.5994
ExactMass: 344.21988874
Spectrum_type: 2
charge: -1
Formula: C18H32O6
SMILES: CCC(C1CC(C(O1)/C=C/C(CCCCCCCC(=O)O)O)O)O
Method: HCD
Collision_energy: [28.333334]
Isolation_window: 4.0
Ion_mode: N
Num Peaks: 10
171.1019	14.1
201.1127	38.9
209.1179	34.8
229.1440	10.9
299.1281	20.3
314.1403	16.5
341.1993	25.1
343.1182	18.2
343.2126	100.0
344.2166	20.1

Name: (E)-N-(1,3-Dihydroxyoctadec-4-en-2-yl)-2-hydroxyhexadecanamide
PrecursorMZ: 612.52
RT: 11.3111
ExactMass: 553.50700962
Spectrum_type: 2
charge: -1
Formula: C34H67NO4
SMILES: CCCCCCCCCCCCCCC(C(=O)NC(CO)C(/C=C/CCCCCCCCCCCCC)O)O
Method: HCD
Collision_energy: [28.333334]
Isolation_window: 4.0
Ion_mode: N
Num Peaks: 22
57.0336	3.1
58.0289	3.3
59.0129	8.1
63.1682	2.1
63.1720	4.2
84.0444	76.8
100.0393	15.9
239.2376	18.4
253.2532	6.1
266.2482	2.0
294.2798	20.5
300.2901	4.8
308.2949	7.1
310.2747	26.4
324.2903	9.8
328.2855	1.4
340.2856	3.3
342.3010	100.0
356.3167	34.9
566.5153	3.9
568.5306	98.6
614.5359	1.7

Name: (E)-undec-2-enedioic acid
PrecursorMZ: 213.1128
RT: 4.1772
ExactMass: 214.12050905
Spectrum_type: 2
charge: -1
Formula: C11H18O4
SMILES: C(CCC/C=C/C(=O)O)CCCC(=O)O
Method: HCD
Collision_energy: [28.333334]
Isolation_window: 4.0
Ion_mode: N
Num Peaks: 6
57.0337	17.5
125.0963	25.7
151.1121	100.0
169.1226	69.0
213.1126	37.3
215.0093	47.0

Name: (E,2S,3R,4R,5S)-4-Acetyloxy-2-amino-3,5,14-trihydroxyicos-6-enoic acid
PrecursorMZ: 430.28121
RT: 6.6702
ExactMass: 431.28830265
Spectrum_type: 2
charge: -1
Formula: C22H41NO7
SMILES: CCCCCCC(CCCCCC/C=C/[C@@H]([C@H]([C@@H]([C@@H](C(=O)O)N)O)OC(=O)C)O)O
Method: HCD
Collision_energy: [28.333334]
Isolation_window: 4.0
Ion_mode: N
Num Peaks: 6
61.9875	40.9
84.0445	24.4
145.0975	72.3
146.1008	24.1
428.3576	100.0
429.3618	25.6

Name: (E,6S)-7-hydroxy-2-methyl-6-((10S,13S,14S,17S)-4,4,10,13,14-pentamethyl-3-oxo-1,2,5,6,7,11,12,15,16,17-decahydrocyclopenta(a)phenanthren-17-yl)hept-2-enoic acid
PrecursorMZ: 469.33254
RT: 8.7625
ExactMass: 470.33960994
Spectrum_type: 2
charge: -1
Formula: C30H46O4
SMILES: C/C(=C\CC[C@H](CO)[C@@H]1CC[C@]2([C@]1(CCC3=C2CCC4[C@@]3(CCC(=O)C4(C)C)C)C)C)/C(=O)O
Method: HCD
Collision_energy: [28.333334]
Isolation_window: 4.0
Ion_mode: N
Num Peaks: 5
52.1495	4.4
407.3312	4.8
469.3335	100.0
470.3367	31.6
471.3410	4.8

Name: (RS)-Salsolinol
PrecursorMZ: 178.08685
RT: 5.7837
ExactMass: 179.094628657
Spectrum_type: 2
charge: -1
Formula: C10H13NO2
SMILES: CC1C2=CC(=C(C=C2CCN1)O)O
Method: HCD
Collision_energy: [28.333334]
Isolation_window: 4.0
Ion_mode: N
Num Peaks: 7
79.9564	3.4
90.9972	26.6
134.9872	100.0
178.0868	67.5
178.9774	24.9
179.0900	6.8
180.0330	4.4

Name: (S)-2-(3-(1-methyl-1H-benzo(d)imidazol-5-yl)propanamido)-3-phenylpropanoic acid
PrecursorMZ: 350.15026
RT: 4.2109
ExactMass: 351.15829154
Spectrum_type: 2
charge: -1
Formula: C20H21N3O3
SMILES: CN1C=NC2=C1C=CC(=C2)CCC(=O)N[C@@H](CC3=CC=CC=C3)C(=O)O
Method: HCD
Collision_energy: [28.333334]
Isolation_window: 4.0
Ion_mode: N
Num Peaks: 17
71.0241	4.1
73.0396	25.1
123.0551	4.5
130.0651	10.4
130.0862	19.7
147.0441	15.1
164.0706	17.4
202.0976	33.6
221.0921	10.5
277.1550	8.6
306.1612	7.4
306.2165	4.2
349.1760	6.8
350.1507	100.0
350.2076	30.8
351.1536	24.0
351.2108	5.5

Name: (S)-3-(1-(2-(5-methoxy-1H-indol-3-yl)ethyl)-2,5-dioxoimidazolidin-4-yl)propanoic acid
PrecursorMZ: 344.12418
RT: 3.7013
ExactMass: 345.13247072
Spectrum_type: 2
charge: -1
Formula: C17H19N3O5
SMILES: COC1=CC2=C(C=C1)NC=C2CCN3C(=O)[C@@H](NC3=O)CCC(=O)O
Method: HCD
Collision_energy: [28.333334]
Isolation_window: 4.0
Ion_mode: N
Num Peaks: 31
82.0287	3.8
84.0443	4.1
98.0236	53.7
113.0345	11.1
116.0706	10.6
117.0740	5.6
118.0651	55.4
127.0502	32.3
128.0343	4.7
130.0862	8.6
137.0705	6.6
138.0549	10.6
153.0294	7.6
164.0705	13.1
172.0757	15.7
179.0455	8.1
181.0608	67.1
182.0642	4.7
189.1024	17.5
216.0658	9.0
225.1129	5.4
255.1055	6.4
282.1246	4.7
298.2026	3.7
300.1345	79.2
301.1380	14.8
342.1972	22.5
343.1923	4.1
344.1243	100.0
345.1299	19.0
346.1329	4.1

Name: (S)-3-(1H-indol-3-yl)-2-(2-(2-oxo-5-phenylpyrazin-1(2H)-yl)acetamido)propanoic acid
PrecursorMZ: 415.1419
RT: 6.2514
ExactMass: 416.14845513
Spectrum_type: 2
charge: -1
Formula: C23H20N4O4
SMILES: C1=CC=C(C=C1)C2=CN(C(=O)C=N2)CC(=O)N[C@@H](CC3=CNC4=CC=CC=C43)C(=O)O
Method: HCD
Collision_energy: [28.333334]
Isolation_window: 4.0
Ion_mode: N
Num Peaks: 9
185.0716	100.0
186.0752	10.0
212.0830	3.8
242.0936	65.2
243.0970	10.2
371.1517	39.6
372.1567	9.2
415.1416	51.3
416.1450	14.6

Name: (S)-4',7-Dihydroxy-3',8-diprenylflavanone
PrecursorMZ: 391.18947
RT: 4.8266
ExactMass: 392.19875937
Spectrum_type: 2
charge: -1
Formula: C25H28O4
SMILES: CC(=CCC1=C(C=CC(=C1)C2CC(=O)C3=C(O2)C(=C(C=C3)O)CC=C(C)C)O)C
Method: HCD
Collision_energy: [28.333334]
Isolation_window: 4.0
Ion_mode: N
Num Peaks: 12
75.0078	3.5
78.9581	95.9
79.9563	4.2
80.9642	2.7
96.9687	11.5
333.1447	3.6
373.1787	2.9
389.2540	3.3
390.1999	1.9
391.1890	100.0
392.1917	20.2
393.1952	12.5

Name: (S)-4-methyl-2-(2-(pyridin-2-yl)quinoline-4-carboxamido)pentanoic acid
PrecursorMZ: 362.15159
RT: 4.6144
ExactMass: 363.15829154
Spectrum_type: 2
charge: -1
Formula: C21H21N3O3
SMILES: CC(C)C[C@@H](C(=O)O)NC(=O)C1=CC(=NC2=CC=CC=C21)C3=CC=CC=N3
Method: HCD
Collision_energy: [28.333334]
Isolation_window: 4.0
Ion_mode: N
Num Peaks: 11
83.0492	6.7
142.0651	19.4
143.0601	20.5
147.0441	10.0
164.0706	27.5
171.0914	7.4
214.0978	33.1
233.0916	8.5
318.1600	6.5
362.1504	100.0
363.1537	21.7

Name: (S)-5,7-Dihydroxy-2-(4-hydroxy-3-(3-methylbut-2-en-1-yl)phenyl)chroman-4-one
PrecursorMZ: 339.12385
RT: 7.3042
ExactMass: 340.13107373
Spectrum_type: 2
charge: -1
Formula: C20H20O5
SMILES: CC(=CCC1=C(C=CC(=C1)[C@@H]2CC(=O)C3=C(C=C(C=C3O2)O)O)O)C
Method: HCD
Collision_energy: [28.333334]
Isolation_window: 4.0
Ion_mode: N
Num Peaks: 17
107.0128	5.1
151.0029	30.1
161.0963	3.4
169.0135	2.6
177.0185	3.6
187.1121	17.3
219.0659	4.3
233.0816	37.4
234.0853	5.0
337.1081	10.6
337.1793	3.8
338.1112	5.2
339.1241	100.0
339.1993	95.6
340.1271	23.1
340.2026	19.4
341.1348	2.9

Name: (S)-N-(1-(7-(4-aminobutylamino)heptylamino)-3-(4-hydroxyphenyl)-1-oxopropan-2-yl)butyramide
PrecursorMZ: 469.29422
RT: 6.1988
ExactMass: 434.32569121
Spectrum_type: 2
charge: -1
Formula: C24H42N4O3
SMILES: CCCC(=O)N[C@@H](CC1=CC=C(C=C1)O)C(=O)NCCCCCCCNCCCCN
Method: HCD
Collision_energy: [28.333334]
Isolation_window: 4.0
Ion_mode: N
Num Peaks: 7
61.9872	5.1
425.3049	100.0
426.3083	29.1
427.3110	3.6
469.2952	36.5
470.2985	10.7
471.3149	6.3

Name: (S)-N-(2-(5-methoxy-1H-indol-3-yl)ethyl)-4-methyl-2-(1-oxoisoindolin-2-yl)pentanamide
PrecursorMZ: 418.21397
RT: 4.8397
ExactMass: 419.2208918
Spectrum_type: 2
charge: -1
Formula: C25H29N3O3
SMILES: CC(C)C[C@@H](C(=O)NCCC1=CNC2=C1C=C(C=C2)OC)N3CC4=CC=CC=C4C3=O
Method: HCD
Collision_energy: [28.333334]
Isolation_window: 4.0
Ion_mode: N
Num Peaks: 6
116.0496	100.0
249.1394	36.5
358.1914	11.8
374.2242	18.1
418.2139	57.2
419.2162	16.0

Name: (S)-Pmpa
PrecursorMZ: 286.07061
RT: 1.15425
ExactMass: 287.07834094
Spectrum_type: 2
charge: -1
Formula: C9H14N5O4P
SMILES: C[C@@H](CN1C=NC2=C(N=CN=C21)N)OCP(=O)(O)O
Method: HCD
Collision_energy: [28.333334]
Isolation_window: 4.0
Ion_mode: N
Num Peaks: 8
62.9632	7.0
80.9737	10.7
110.9843	17.0
134.0463	82.2
135.0505	4.4
151.0157	25.0
286.0708	100.0
287.0737	10.9

Name: (S)-mandelic acid
PrecursorMZ: 303.0874
RT: 2.9898
ExactMass: 152.047344113
Spectrum_type: 2
charge: -1
Formula: C8H8O3
SMILES: C1=CC=C(C=C1)[C@@H](C(=O)O)O
Method: HCD
Collision_energy: [28.333334]
Isolation_window: 4.0
Ion_mode: N
Num Peaks: 5
88.9871	15.5
93.0336	55.6
107.0493	100.0
121.0286	38.5
151.0394	97.5

Name: (S)-methyl 2-(4-(3-(1H-indol-3-yl)propanoyl)piperazine-1-carboxamido)propanoate
PrecursorMZ: 431.19303
RT: 10.4301
ExactMass: 386.19540532
Spectrum_type: 2
charge: -1
Formula: C20H26N4O4
SMILES: C[C@@H](C(=O)OC)NC(=O)N1CCN(CC1)C(=O)CCC2=CNC3=CC=CC=C32
Method: HCD
Collision_energy: [28.333334]
Isolation_window: 4.0
Ion_mode: N
Num Peaks: 5
90.9321	90.5
283.2632	49.2
373.1886	100.0
385.1923	52.1
385.1962	45.6

Name: (S)-tert-butyl 2-(4-(3-ethylureido)phenyl)-4-(3-methylmorpholino)-5,6-dihydropyrido(3,4-d)pyrimidine-7(8H)-carboxylate
PrecursorMZ: 495.27258
RT: 7.7722
ExactMass: 496.27980365
Spectrum_type: 2
charge: -1
Formula: C26H36N6O4
SMILES: CCNC(=O)NC1=CC=C(C=C1)C2=NC3=C(CCN(C3)C(=O)OC(C)(C)C)C(=N2)N4CCOC[C@@H]4C
Method: HCD
Collision_energy: [28.333334]
Isolation_window: 4.0
Ion_mode: N
Num Peaks: 17
55.2523	4.5
79.9564	38.1
96.9591	11.6
152.9950	4.0
163.0756	9.0
243.0330	5.5
267.2328	25.8
268.2364	3.8
417.3009	22.2
495.2655	5.8
495.2717	11.3
495.3173	10.1
495.3338	9.1
496.2743	2.6
496.3325	3.4
497.2573	100.0
497.3470	6.1

Name: (Z)-2-octylpent-2-enedioic acid
PrecursorMZ: 241.14453
RT: 5.936
ExactMass: 242.15180918
Spectrum_type: 2
charge: -1
Formula: C13H22O4
SMILES: CCCCCCCC/C(=C/CC(=O)O)/C(=O)O
Method: HCD
Collision_energy: [28.333334]
Isolation_window: 4.0
Ion_mode: N
Num Peaks: 5
179.1436	29.5
197.1543	32.1
223.1339	24.7
241.1445	100.0
242.1482	12.6

Name: (Z)-8-((9Z,12Z,15Z)-octadeca-9,12,15-trienoyl)oxyoctadec-9-enoic acid
PrecursorMZ: 557.45823
RT: 11.8976
ExactMass: 558.46481045
Spectrum_type: 2
charge: -1
Formula: C36H62O4
SMILES: CCCCCCCC/C=C\C(CCCCCCC(=O)O)OC(=O)CCCCCCC/C=C\C/C=C\C/C=C\CC
Method: HCD
Collision_energy: [28.333334]
Isolation_window: 4.0
Ion_mode: N
Num Peaks: 17
61.9416	4.1
277.2171	9.4
278.2233	2.2
279.2328	19.2
281.2485	13.8
291.2693	13.4
292.2732	2.4
295.2278	8.8
297.2429	3.6
335.2588	4.8
495.4575	4.1
539.4480	5.5
555.4415	5.7
556.4452	12.7
557.4575	100.0
558.4609	34.6
559.4721	30.7

Name: (Z,6S)-2-methyl-6-((10R,13S,14S,17S)-4,4,10,13,14-pentamethyl-3-oxo-1,2,5,6,9,11,12,15,16,17-decahydrocyclopenta(a)phenanthren-17-yl)hept-2-enoic acid
PrecursorMZ: 453.33785
RT: 8.8127
ExactMass: 454.34469533
Spectrum_type: 2
charge: -1
Formula: C30H46O3
SMILES: C[C@@H](CC/C=C(/C)\C(=O)O)[C@@H]1CC[C@]2([C@]1(CCC3C2=CCC4[C@@]3(CCC(=O)C4(C)C)C)C)C
Method: HCD
Collision_energy: [28.333334]
Isolation_window: 4.0
Ion_mode: N
Num Peaks: 6
50.3695	1.9
50.3721	4.8
50.4836	1.5
453.3378	100.0
454.3413	31.9
455.3524	24.7

Name: 1(4H)-Dibenzofuranone, 2,6-diacetyl-4a,9b-dihydro-3,7,9-trihydroxy-4a-methoxy-8,9b-dimethyl-
PrecursorMZ: 375.10739
RT: 3.2748
ExactMass: 376.11581759
Spectrum_type: 2
charge: -1
Formula: C19H20O8
SMILES: CC1=C(C(=C2C(=C1O)C3(C(=C(C(=O)CC3(O2)OC)C(=O)C)O)C)C(=O)C)O
Method: HCD
Collision_energy: [28.333334]
Isolation_window: 4.0
Ion_mode: N
Num Peaks: 21
225.0904	2.7
238.0626	4.1
239.0698	4.0
241.0492	11.5
253.0499	4.3
255.0651	6.3
256.0729	20.0
257.0776	3.6
268.0731	23.6
269.0779	6.3
271.0611	14.9
271.0964	100.0
272.0999	16.0
283.0965	19.7
284.0998	3.7
299.0915	11.9
313.1070	4.9
331.1176	90.0
332.1209	18.7
375.1075	48.5
376.1113	10.6

Name: 1,10a-Dihydroxy-4,4,7,11b-tetramethyl-1,2,3,4a,5,6,6a,7,11,11a-decahydronaphtho(2,1-f)(1)benzofuran-9-one
PrecursorMZ: 333.20733
RT: 6.9282
ExactMass: 334.21440943
Spectrum_type: 2
charge: -1
Formula: C20H30O4
SMILES: CC1C2CCC3C(CCC(C3(C2CC4(C1=CC(=O)O4)O)C)O)(C)C
Method: HCD
Collision_energy: [28.333334]
Isolation_window: 4.0
Ion_mode: N
Num Peaks: 10
289.2174	83.3
290.2207	16.8
307.0983	10.9
313.2387	17.9
331.1837	10.1
332.1873	8.7
333.2072	100.0
334.2100	27.0
335.0925	19.3
335.2224	9.9

Name: 1,17,19-trihydroxy-7-methyl-3-oxapentacyclo(9.8.0.02,4.05,10.013,18)nonadeca-5(10),13(18),14,16-tetraene-9,12-dione
PrecursorMZ: 341.10245
RT: 4.0723
ExactMass: 342.11033829
Spectrum_type: 2
charge: -1
Formula: C19H18O6
SMILES: CC1CC2=C(C3C(=O)C4=C(C(C3(C5C2O5)O)O)C(=CC=C4)O)C(=O)C1
Method: HCD
Collision_energy: [28.333334]
Isolation_window: 4.0
Ion_mode: N
Num Peaks: 40
59.0128	1.0
91.0179	1.3
108.0206	1.6
114.0551	2.0
115.0027	1.1
123.0442	7.4
128.0344	1.3
130.0863	2.0
158.0364	4.1
159.0441	1.4
173.0599	10.2
174.0634	1.2
189.0550	1.5
202.0263	3.1
203.0342	3.9
209.0718	2.4
209.1295	2.7
217.0499	5.2
253.0623	1.3
267.0659	28.7
268.0695	4.8
281.0812	2.2
282.0892	35.0
283.0609	1.0
283.0924	6.6
284.0681	2.6
296.0684	5.0
297.0736	1.1
297.1128	5.5
298.1170	1.1
311.0561	2.3
325.0713	1.9
326.0791	36.5
327.0834	7.8
339.1542	2.1
341.1025	100.0
341.1684	1.9
341.1976	1.2
342.1061	20.8
343.1151	1.7

Name: 1,2,3,4-Tetrahydro-Beta-Carboline-3-Carboxylic Acid
PrecursorMZ: 215.08216
RT: 2.9258166666666665
ExactMass: 216.08987763
Spectrum_type: 2
charge: -1
Formula: C12H12N2O2
SMILES: C1C(NCC2=C1C3=CC=CC=C3N2)C(=O)O
Method: HCD
Collision_energy: [28.333334]
Isolation_window: 4.0
Ion_mode: N
Num Peaks: 11
72.0082	10.6
86.0238	100.0
92.0496	61.8
116.0496	64.2
142.0654	24.1
169.0762	11.6
171.0919	88.1
213.9625	10.8
215.0094	49.1
215.0818	67.2
216.0859	9.6

Name: 1,2-Benzenedicarboxylic acid, 1-decyl ester
PrecursorMZ: 305.17617
RT: 8.6702
ExactMass: 306.18310931
Spectrum_type: 2
charge: -1
Formula: C18H26O4
SMILES: CCCCCCCCCCOC(=O)C1=CC=CC=C1C(=O)O
Method: HCD
Collision_energy: [28.333334]
Isolation_window: 4.0
Ion_mode: N
Num Peaks: 8
121.0289	48.6
134.0367	94.6
155.1436	66.4
261.1862	17.2
287.2024	20.0
305.1764	100.0
305.2129	40.2
306.1801	24.6

Name: 1,2-Dioleoyl-sn-glycero-3-phosphoglycerol
PrecursorMZ: 773.53431
RT: 11.532
ExactMass: 774.54108571
Spectrum_type: 2
charge: -1
Formula: C42H79O10P
SMILES: CCCCCCCC/C=C\CCCCCCCC(=O)OC[C@H](COP(=O)(O)OCC(CO)O)OC(=O)CCCCCCC/C=C\CCCCCCCC
Method: HCD
Collision_energy: [28.333334]
Isolation_window: 4.0
Ion_mode: N
Num Peaks: 15
78.9580	1.6
85.9512	1.6
152.9950	8.6
255.2327	4.1
279.2329	15.8
280.2364	3.3
281.2485	100.0
282.2519	18.6
283.2640	11.6
284.2671	2.7
771.5461	2.3
772.5372	2.7
773.5343	35.9
774.5371	15.8
775.5322	4.7

Name: 1,2-Dipalmitoyl-sn-glycero-3-phosphoethanolamine
PrecursorMZ: 690.50763
RT: 10.7322
ExactMass: 691.51520532
Spectrum_type: 2
charge: -1
Formula: C37H74NO8P
SMILES: CCCCCCCCCCCCCCCC(=O)OC[C@H](COP(=O)(O)OCCN)OC(=O)CCCCCCCCCCCCCCC
Method: HCD
Collision_energy: [28.333334]
Isolation_window: 4.0
Ion_mode: N
Num Peaks: 6
78.9581	74.4
152.9950	52.8
171.0057	86.0
690.5075	100.0
691.5132	35.2
692.5242	97.3

Name: 1,2-Dipentadecanoyl-sn-glycero-3-phospho-(1'-sn-glycerol)
PrecursorMZ: 693.47096
RT: 9.5398
ExactMass: 694.47848546
Spectrum_type: 2
charge: -1
Formula: C36H71O10P
SMILES: CCCCCCCCCCCCCCC(=O)OC[C@H](COP(=O)(O)OC[C@H](CO)O)OC(=O)CCCCCCCCCCCCCC
Method: HCD
Collision_energy: [28.333334]
Isolation_window: 4.0
Ion_mode: N
Num Peaks: 6
77.0548	3.8
391.2841	100.0
392.2874	21.8
693.4714	78.1
694.4752	33.1
695.4787	5.7

Name: 1,2-di-(6Z,9Z,12Z-octadecatrienoyl)-sn-glycero-3-phospho-(1'-myo-inositol)
PrecursorMZ: 853.48655
RT: 10.1158
ExactMass: 854.49452944
Spectrum_type: 2
charge: -1
Formula: C45H75O13P
SMILES: CCCCC/C=C\C/C=C\C/C=C\CCCCC(=O)OC[C@H](COP(=O)(O)OC1C([C@@H](C(C(C1O)O)O)O)O)OC(=O)CCCC/C=C\C/C=C\C/C=C\CCCCC
Method: HCD
Collision_energy: [28.333334]
Isolation_window: 4.0
Ion_mode: N
Num Peaks: 7
78.9581	16.5
152.9950	21.7
241.0115	38.8
277.2170	100.0
278.2205	17.0
853.4874	93.9
854.4913	42.0

Name: 1,3,6,8-Tetrahydroxy-2-(1-hydroxyhexyl)anthracene-9,10-dione
PrecursorMZ: 371.11378
RT: 4.8815
ExactMass: 372.12090297
Spectrum_type: 2
charge: -1
Formula: C20H20O7
SMILES: CCCCCC(C1=C(C=C2C(=C1O)C(=O)C3=C(C2=O)C=C(C=C3O)O)O)O
Method: HCD
Collision_energy: [28.333334]
Isolation_window: 4.0
Ion_mode: N
Num Peaks: 4
191.0709	30.8
341.1035	31.5
353.1035	49.5
371.1144	100.0

Name: 1,3-Dideacetyl-7-deacetoxy-7-oxokhivorin
PrecursorMZ: 457.22362
RT: 6.8197
ExactMass: 458.23045342
Spectrum_type: 2
charge: -1
Formula: C26H34O7
SMILES: C[C@@]12CCC3[C@]4([C@H](C[C@H](C(C4CC(=O)[C@]3(C15C(O5)C(=O)O[C@H]2C6=COC=C6)C)(C)C)O)O)C
Method: HCD
Collision_energy: [28.333334]
Isolation_window: 4.0
Ion_mode: N
Num Peaks: 36
50.8039	4.6
59.0130	5.1
73.0285	6.8
85.0649	6.8
96.9592	7.1
111.0442	22.8
113.0599	10.5
181.0500	9.0
217.1231	6.5
233.1180	69.1
234.1219	9.8
235.1338	12.5
237.1128	10.1
247.1327	5.0
249.1131	30.5
250.1161	4.8
251.1287	29.5
259.1902	6.4
278.1159	52.7
279.1186	8.6
295.2282	7.4
329.1758	76.7
330.1788	14.6
337.2379	5.8
347.1863	41.4
348.1904	8.7
361.1656	32.9
362.1671	5.5
455.3018	32.3
456.3096	13.7
457.2234	100.0
457.3272	35.3
458.2259	27.6
458.3194	8.8
459.2377	10.3
459.3055	28.4

Name: 1,4-Cyclohexanedicarboxylic acid
PrecursorMZ: 171.06562
RT: 2.8022
ExactMass: 172.07355886
Spectrum_type: 2
charge: -1
Formula: C8H12O4
SMILES: C1CC(CCC1C(=O)O)C(=O)O
Method: HCD
Collision_energy: [28.333334]
Isolation_window: 4.0
Ion_mode: N
Num Peaks: 7
99.9248	50.3
115.9197	30.5
127.0755	71.0
171.0192	30.7
171.0658	100.0
171.9097	42.0
173.0239	54.6

Name: 1,4-dihydroxy-2-(hydroxymethyl)-5,5,8a-trimethyl-4a,6,7,8-tetrahydro-4H-naphthalene-1-carboxylic acid
PrecursorMZ: 283.15526
RT: 3.5649
ExactMass: 284.16237386
Spectrum_type: 2
charge: -1
Formula: C15H24O5
SMILES: CC1(CCCC2(C1C(C=C(C2(C(=O)O)O)CO)O)C)C
Method: HCD
Collision_energy: [28.333334]
Isolation_window: 4.0
Ion_mode: N
Num Peaks: 21
113.0601	1.2
115.0756	3.1
138.0680	5.0
139.0760	3.3
168.0786	5.8
191.1436	3.7
194.1313	1.1
203.1436	3.2
209.1543	1.5
221.1549	2.4
235.1335	2.6
237.1493	1.0
247.1338	3.9
253.1446	78.6
254.1480	11.9
265.1447	11.6
266.1485	1.9
283.1552	100.0
284.1586	15.9
285.0996	0.9
285.1706	6.4

Name: 1,4a-dimethyl-9-oxo-7-propan-2-yl-3,4,10,10a-tetrahydro-2H-phenanthrene-1-carboxylic acid
PrecursorMZ: 313.18016
RT: 7.6765
ExactMass: 314.18819469
Spectrum_type: 2
charge: -1
Formula: C20H26O3
SMILES: CC(C)C1=CC2=C(C=C1)C3(CCCC(C3CC2=O)(C)C(=O)O)C
Method: HCD
Collision_energy: [28.333334]
Isolation_window: 4.0
Ion_mode: N
Num Peaks: 7
183.0107	1.2
298.1558	1.2
311.1675	10.7
312.1710	15.0
313.1800	100.0
314.1834	21.3
315.1870	1.9

Name: 1,5,8-trihydroxy-4-methoxy-3-((2S,3R,4S,5S,6R)-3,4,5-trihydroxy-6-(hydroxymethyl)oxan-2-yl)oxyxanthen-9-one
PrecursorMZ: 451.08864
RT: 2.6984
ExactMass: 452.09547607
Spectrum_type: 2
charge: -1
Formula: C20H20O12
SMILES: COC1=C(C=C(C2=C1OC3=C(C=CC(=C3C2=O)O)O)O)O[C@H]4[C@@H]([C@H]([C@@H]([C@H](O4)CO)O)O)O
Method: HCD
Collision_energy: [28.333334]
Isolation_window: 4.0
Ion_mode: N
Num Peaks: 6
60.9922	6.0
88.9870	100.0
135.0444	3.5
181.0497	5.4
451.1227	12.5
452.1179	4.1

Name: 1,7-Bis(3,4-dihydroxyphenyl)-6-hydroxyheptan-3-one
PrecursorMZ: 345.13465
RT: 4.152733333333333
ExactMass: 346.14163842
Spectrum_type: 2
charge: -1
Formula: C19H22O6
SMILES: C1=CC(=C(C=C1CCC(=O)CCC(CC2=CC(=C(C=C2)O)O)O)O)O
Method: HCD
Collision_energy: [28.333334]
Isolation_window: 4.0
Ion_mode: N
Num Peaks: 27
109.0285	5.7
121.0288	7.1
124.0161	5.0
135.0445	7.2
137.0599	5.4
150.0317	9.8
161.0598	6.7
163.0394	12.8
165.0551	26.7
171.1022	11.6
178.0630	9.3
179.0709	29.0
181.0502	23.6
271.1338	7.1
283.0965	4.0
299.1282	4.4
301.1440	7.8
315.1239	22.5
343.2127	28.0
344.0859	7.6
344.2160	10.3
345.0969	12.3
345.1347	100.0
345.2270	19.0
346.1375	20.3
347.1126	6.5
347.1493	13.6

Name: 1,7-Bis(3,4-dihydroxyphenyl)heptan-3-yl acetate
PrecursorMZ: 373.16643
RT: 8.3931
ExactMass: 374.17293854
Spectrum_type: 2
charge: -1
Formula: C21H26O6
SMILES: CC(=O)OC(CCCCC1=CC(=C(C=C1)O)O)CCC2=CC(=C(C=C2)O)O
Method: HCD
Collision_energy: [28.333334]
Isolation_window: 4.0
Ion_mode: N
Num Peaks: 10
245.0824	3.1
258.0904	9.4
299.1656	4.7
314.1531	10.8
315.1575	2.1
329.1766	8.3
330.1814	1.8
373.1664	21.1
374.1722	7.5
375.2914	100.0

Name: 1,7-Bis(4-Hydroxyphenyl)Heptan-3-One
PrecursorMZ: 343.15516
RT: 6.6366700000000005
ExactMass: 298.15689456
Spectrum_type: 2
charge: -1
Formula: C19H22O3
SMILES: C1=CC(=CC=C1CCCCC(=O)CCC2=CC=C(C=C2)O)O
Method: HCD
Collision_energy: [28.333334]
Isolation_window: 4.0
Ion_mode: N
Num Peaks: 9
191.1072	35.3
192.1102	4.2
297.1496	100.0
298.1528	19.4
299.1631	5.7
301.1809	84.6
343.1550	24.4
344.1576	6.9
345.1709	45.7

Name: 1,7-Bis(4-hydroxyphenyl)-3,5-heptanediol
PrecursorMZ: 315.16051
RT: 5.13361
ExactMass: 316.16745924
Spectrum_type: 2
charge: -1
Formula: C19H24O4
SMILES: C1=CC(=CC=C1CCC(CC(CCC2=CC=C(C=C2)O)O)O)O
Method: HCD
Collision_energy: [28.333334]
Isolation_window: 4.0
Ion_mode: N
Num Peaks: 20
119.0495	1.8
121.0288	1.0
121.0651	3.6
123.0446	0.8
131.0495	3.2
145.0655	1.1
147.0809	11.4
148.0843	1.2
149.0601	27.9
150.0636	2.2
163.0758	4.8
164.0791	0.7
270.1212	0.8
297.1497	1.5
313.1083	2.7
313.1445	0.8
314.1121	4.9
315.1604	100.0
316.1636	20.0
317.1664	1.5

Name: 1,7-Bis(4-hydroxyphenyl)-5-methoxyheptan-3-one
PrecursorMZ: 327.16051
RT: 6.1343
ExactMass: 328.16745924
Spectrum_type: 2
charge: -1
Formula: C20H24O4
SMILES: COC(CCC1=CC=C(C=C1)O)CC(=O)CCC2=CC=C(C=C2)O
Method: HCD
Collision_energy: [28.333334]
Isolation_window: 4.0
Ion_mode: N
Num Peaks: 12
93.0337	32.5
131.0495	37.5
189.0916	100.0
190.0949	11.0
201.0917	5.5
221.1180	18.5
295.1344	8.0
311.9910	4.8
325.1837	8.0
327.1603	88.5
328.1637	17.3
329.2331	23.7

Name: 1,9b-Dihydroxy-6,6,9a-trimethyl-1,5,5a,7,8,9-hexahydrobenzo(e)(2)benzofuran-3-one
PrecursorMZ: 265.14451
RT: 4.5593
ExactMass: 266.15180918
Spectrum_type: 2
charge: -1
Formula: C15H22O4
SMILES: CC1(CCCC2(C1CC=C3C2(C(OC3=O)O)O)C)C
Method: HCD
Collision_energy: [28.333334]
Isolation_window: 4.0
Ion_mode: N
Num Peaks: 10
59.0129	15.1
99.0442	9.6
153.0917	11.1
203.1436	64.5
221.1543	100.0
222.1576	14.9
223.1335	18.0
265.1462	23.9
267.1238	32.0
267.1599	17.4

Name: 1-(((2S,3R,11bR)-3-ethyl-9,10-dimethoxy-2,3,4,6,7,11b-hexahydro-1H-benzo(a)quinolizin-2-yl)methyl)-7-methoxy-3,4-dihydro-2H-isoquinolin-6-one
PrecursorMZ: 463.26091
RT: 4.8745
ExactMass: 464.26750763
Spectrum_type: 2
charge: -1
Formula: C28H36N2O4
SMILES: CC[C@H]1CN2CCC3=CC(=C(C=C3[C@H]2C[C@H]1CC4=NCCC5=CC(=C(C=C54)OC)O)OC)OC
Method: HCD
Collision_energy: [28.333334]
Isolation_window: 4.0
Ion_mode: N
Num Peaks: 5
61.9874	8.5
312.1968	100.0
313.2001	19.8
463.2606	59.9
464.2673	18.1

Name: 1-((2S)-3-(1H-indol-3-yl)-2-((2-methylpropan-2-yl)oxycarbonylamino)propanoyl)piperidine-4-carboxylic acid
PrecursorMZ: 414.20406
RT: 4.7548
ExactMass: 415.21072103
Spectrum_type: 2
charge: -1
Formula: C22H29N3O5
SMILES: CC(C)(C)OC(=O)N[C@@H](CC1=CNC2=CC=CC=C21)C(=O)N3CCC(CC3)C(=O)O
Method: HCD
Collision_energy: [28.333334]
Isolation_window: 4.0
Ion_mode: N
Num Peaks: 7
80.9644	6.8
97.0287	69.1
284.1406	8.2
382.1779	38.4
383.1809	7.8
414.2046	100.0
415.2076	22.1

Name: 1-((5-(Azepane-1-carbonyl)-1H-pyrrol-3-YL)sulfonyl)-N-((furan-2-YL)methyl)piperidine-3-carboxamide
PrecursorMZ: 461.18578
RT: 3.5479
ExactMass: 462.19369124
Spectrum_type: 2
charge: -1
Formula: C22H30N4O5S
SMILES: C1CCCN(CC1)C(=O)C2=CC(=CN2)S(=O)(=O)N3CCCC(C3)C(=O)NCC4=CC=CO4
Method: HCD
Collision_energy: [28.333334]
Isolation_window: 4.0
Ion_mode: N
Num Peaks: 9
51.2443	4.1
79.9565	4.4
96.9593	79.1
459.1646	4.9
460.2068	8.4
461.1864	100.0
462.1887	23.4
463.1900	5.2
463.2000	19.9

Name: 1-(2,4,5-trimethoxyphenyl)-2,3,4,9-tetrahydro-1H-pyrido(3,4-b)indole-3-carboxylic acid
PrecursorMZ: 381.14606
RT: 5.3928
ExactMass: 382.15287181
Spectrum_type: 2
charge: -1
Formula: C21H22N2O5
SMILES: COC1=CC(=C(C=C1C2C3=C(CC(N2)C(=O)O)C4=CC=CC=C4N3)OC)OC
Method: HCD
Collision_energy: [28.333334]
Isolation_window: 4.0
Ion_mode: N
Num Peaks: 14
61.9875	15.2
74.0239	33.0
98.0238	15.6
121.0286	4.2
176.0711	53.9
177.0745	5.9
193.0736	3.9
220.0613	40.9
221.0653	4.9
252.0877	55.1
253.0906	6.8
308.1332	4.4
381.1460	100.0
382.1492	22.7

Name: 1-(3,4-Dihydroxyphenyl)-7-(4-hydroxyphenyl)heptan-3-one
PrecursorMZ: 313.14413
RT: 5.2196
ExactMass: 314.15180918
Spectrum_type: 2
charge: -1
Formula: C19H22O4
SMILES: C1=CC(=CC=C1CCCCC(=O)CCC2=CC(=C(C=C2)O)O)O
Method: HCD
Collision_energy: [28.333334]
Isolation_window: 4.0
Ion_mode: N
Num Peaks: 9
109.0285	53.7
121.0285	80.5
149.0599	82.4
163.0759	9.9
203.0710	17.7
269.1180	11.4
313.1088	100.0
313.1449	19.5
314.1120	19.3

Name: 1-(9Z,12Z-Octadecadienoyl)-2-hydroxy-sn-glycero-3-phosphoethanolamine (NMR)
PrecursorMZ: 476.27689
RT: 7.6878
Spectrum_type: 2
charge: -1
SMILES: CCCCC/C=C\C/C=C\CCCCCCCC(=O)OC[C@H](COP(=O)(O)OCCN)O
Method: HCD
Collision_energy: [28.333334]
Isolation_window: 4.0
Ion_mode: N
Num Peaks: 16
78.9579	4.9
140.0104	3.6
163.0752	30.4
164.0785	3.7
179.0701	5.0
196.0369	12.9
205.1224	3.6
239.2007	4.8
279.2320	100.0
280.2356	19.1
475.3436	36.9
476.2797	43.8
476.3468	12.3
477.2840	9.8
477.3591	29.7
478.3621	7.4

Name: 1-(9Z,12Z-octadecadienoyl)-glycero-3-phospho-(1'-sn-glycerol)
PrecursorMZ: 507.27276
RT: 7.66075
ExactMass: 508.28012001
Spectrum_type: 2
charge: -1
Formula: C24H45O9P
SMILES: CCCCC/C=C\C/C=C\CCCCCCCC(=O)OC[C@H](COP(=O)(O)OC[C@H](CO)O)O
Method: HCD
Collision_energy: [28.333334]
Isolation_window: 4.0
Ion_mode: N
Num Peaks: 18
56.3652	2.8
61.9875	17.9
69.0434	1.9
69.2200	1.6
78.9581	4.4
97.4664	1.2
152.9951	26.2
171.0059	1.9
227.0323	5.4
245.0432	1.5
279.2329	100.0
280.2363	18.8
281.2396	1.6
506.2907	1.6
507.2728	64.5
507.3361	1.5
508.2760	16.3
509.2846	6.7

Name: 1-(9Z,12Z-octadecadienoyl)-sn-glycero-3-phosphocholine
PrecursorMZ: 564.33051
RT: 7.672188235294118
ExactMass: 519.33248993
Spectrum_type: 2
charge: -1
Formula: C26H50NO7P
SMILES: CCCCC/C=C\C/C=C\CCCCCCCC(=O)OC[C@H](COP(=O)([O-])OCC[N+](C)(C)C)O
Method: HCD
Collision_energy: [28.333334]
Isolation_window: 4.0
Ion_mode: N
Num Peaks: 7
223.0872	7.9
224.0692	10.9
279.2326	100.0
280.2362	17.8
504.3096	49.9
505.3121	12.8
564.3320	5.9

Name: 1-(9Z-heptadecenoyl)-sn-glycero-3-phosphoethanolamine
PrecursorMZ: 464.27879
RT: 7.72833
ExactMass: 465.28553974
Spectrum_type: 2
charge: -1
Formula: C22H44NO7P
SMILES: CCCCCCC/C=C\CCCCCCCC(=O)OC[C@H](COP(=O)(O)OCCN)O
Method: HCD
Collision_energy: [28.333334]
Isolation_window: 4.0
Ion_mode: N
Num Peaks: 4
267.2329	100.0
268.2364	15.0
464.2782	29.0
465.2803	7.8

Name: 1-(9Z-octadecenoyl)-sn-glycero-3-phospho-(1'-myo-inositol)
PrecursorMZ: 597.30455
RT: 7.5372
ExactMass: 598.31181406
Spectrum_type: 2
charge: -1
Formula: C27H51O12P
SMILES: CCCCCCCC/C=C\CCCCCCCC(=O)OC[C@H](COP(=O)(O)OC1C([C@@H](C(C(C1O)O)O)O)O)O
Method: HCD
Collision_energy: [28.333334]
Isolation_window: 4.0
Ion_mode: N
Num Peaks: 21
66.3693	4.5
78.9580	15.7
79.9564	19.9
96.9686	4.7
124.0063	2.9
152.9950	65.1
178.0171	3.9
241.0114	43.2
281.2484	97.1
282.2518	15.9
300.1275	4.2
315.0483	18.8
357.1982	4.7
417.2412	3.9
595.3420	5.3
596.3618	46.8
597.2997	100.0
598.3064	22.8
598.3774	16.9
599.3086	3.5
599.3965	3.7

Name: 1-(9Z-octadecenoyl)-sn-glycero-3-phospho-(1'-sn-glycerol)
PrecursorMZ: 509.28869
RT: 8.2069
ExactMass: 510.29577007
Spectrum_type: 2
charge: -1
Formula: C24H47O9P
SMILES: CCCCCCCC/C=C\CCCCCCCC(=O)OC[C@H](COP(=O)(O)OC[C@H](CO)O)O
Method: HCD
Collision_energy: [28.333334]
Isolation_window: 4.0
Ion_mode: N
Num Peaks: 23
56.5892	6.4
59.0129	97.4
61.9874	8.1
73.0286	10.2
78.9580	11.7
79.9564	6.5
96.9591	81.4
152.9951	43.7
229.0176	5.8
239.2380	9.1
281.2484	26.9
283.2642	74.5
375.2306	9.4
449.2673	7.0
507.3126	43.6
507.3708	6.3
508.3171	44.1
509.2857	100.0
509.3331	70.0
510.2871	21.1
510.3338	24.1
511.2993	36.4
511.3469	31.1

Name: 1-(9Z-octadecenoyl)-sn-glycero-3-phosphocholine
PrecursorMZ: 566.34622
RT: 8.072688888888889
ExactMass: 521.34814
Spectrum_type: 2
charge: -1
Formula: C26H52NO7P
SMILES: CCCCCCCC/C=C\CCCCCCCC(=O)OC[C@H](COP(=O)([O-])OCC[N+](C)(C)C)O
Method: HCD
Collision_energy: [28.333334]
Isolation_window: 4.0
Ion_mode: N
Num Peaks: 18
56.2598	1.8
78.9580	4.3
135.9700	10.5
152.9950	8.6
168.0423	1.5
224.0690	1.4
242.0795	2.4
255.2324	4.1
279.2318	1.5
281.2483	100.0
282.2518	17.1
506.3250	40.8
507.3288	11.4
564.3868	2.1
565.3933	2.7
566.3434	6.4
567.3878	2.8
568.3265	1.5

Name: 1-(9Z-octadecenyl)-sn-glycero-3-phosphoethanolamine
PrecursorMZ: 464.31434
RT: 8.73475
ExactMass: 465.32192525
Spectrum_type: 2
charge: -1
Formula: C23H48NO6P
SMILES: CCCCCCCC/C=C\CCCCCCCCOC[C@H](COP(=O)(O)OCCN)O
Method: HCD
Collision_energy: [28.333334]
Isolation_window: 4.0
Ion_mode: N
Num Peaks: 6
78.9581	44.4
140.0109	17.7
196.0373	47.7
267.2701	12.8
464.3145	100.0
465.3183	21.2

Name: 1-Docosanoyl-glycero-3-phosphoethanolamine
PrecursorMZ: 536.37258
RT: 9.667300000000001
ExactMass: 537.37944012
Spectrum_type: 2
charge: -1
Formula: C27H56NO7P
SMILES: CCCCCCCCCCCCCCCCCCCCCC(=O)OC[C@H](COP(=O)(O)OCCN)O
Method: HCD
Collision_energy: [28.333334]
Isolation_window: 4.0
Ion_mode: N
Num Peaks: 16
68.9949	3.4
78.9582	32.3
140.0112	38.5
196.0377	11.2
339.3272	100.0
340.3307	19.9
534.3731	4.3
535.3094	31.0
535.3785	4.4
536.3079	6.8
536.3809	74.7
537.3238	31.9
537.3825	14.7
537.3914	16.9
538.3311	8.1
538.4026	24.4

Name: 1-Hexadecanoyl-sn-glycero-3-phospho-(1'-sn-glycerol)
PrecursorMZ: 483.27225
RT: 7.6627
ExactMass: 484.28012001
Spectrum_type: 2
charge: -1
Formula: C22H45O9P
SMILES: CCCCCCCCCCCCCCCC(=O)OC[C@H](COP(=O)(O)OC[C@H](CO)O)O
Method: HCD
Collision_energy: [28.333334]
Isolation_window: 4.0
Ion_mode: N
Num Peaks: 16
53.7025	6.3
96.9591	6.1
152.9949	10.9
255.2326	62.7
256.2360	9.4
481.2988	3.7
482.3017	5.3
483.2622	19.5
483.2700	33.9
483.3180	100.0
483.3250	4.0
484.2644	4.0
484.2728	8.6
484.3212	30.2
485.3175	5.7
485.3288	7.2

Name: 1-Hexadecanoyl-sn-glycero-3-phosphoethanolamine
PrecursorMZ: 452.27787
RT: 7.801086363636363
ExactMass: 453.28553974
Spectrum_type: 2
charge: -1
Formula: C21H44NO7P
SMILES: CCCCCCCCCCCCCCCC(=O)OC[C@H](COP(=O)(O)OCCN)O
Method: HCD
Collision_energy: [28.333334]
Isolation_window: 4.0
Ion_mode: N
Num Peaks: 9
50.2544	2.0
78.9580	4.2
140.0110	3.4
196.0374	10.5
214.0478	2.2
255.2327	100.0
256.2360	15.7
452.2782	45.8
453.2817	9.7

Name: 1-Hexadecyl-2-pentadecanoyl-glycero-3-phosphoethanolamine
PrecursorMZ: 662.51251
RT: 8.9132
ExactMass: 663.5202907
Spectrum_type: 2
charge: -1
Formula: C36H74NO7P
SMILES: CCCCCCCCCCCCCCCCOC[C@H](COP(=O)(O)OCCN)OC(=O)CCCCCCCCCCCCCC
Method: HCD
Collision_energy: [28.333334]
Isolation_window: 4.0
Ion_mode: N
Num Peaks: 11
78.9582	9.8
116.0708	25.1
130.0865	38.1
152.9952	12.7
171.0058	7.2
298.2503	17.2
342.2400	100.0
343.2430	16.0
662.5129	31.7
663.2911	6.3
663.5179	9.8

Name: 1-Methyl 2-hydroxy-1,2,3-propanetricarboxylate
PrecursorMZ: 205.03452
RT: 1.0514
ExactMass: 206.04265265
Spectrum_type: 2
charge: -1
Formula: C7H10O7
SMILES: COC(=O)CC(CC(=O)O)(C(=O)O)O
Method: HCD
Collision_energy: [28.333334]
Isolation_window: 4.0
Ion_mode: N
Num Peaks: 51
58.0289	7.0
59.0129	14.8
63.9615	5.0
71.0129	10.4
71.0492	11.0
72.9921	9.2
73.0285	9.3
75.0077	5.8
79.9564	7.2
84.0444	8.1
85.0285	10.7
86.0237	26.1
87.0077	31.6
88.0393	6.4
89.0233	6.4
98.0601	32.9
99.0441	21.9
100.0393	4.3
101.0233	26.5
111.0077	25.5
114.0185	4.9
114.0552	4.3
115.0027	5.0
115.0390	11.2
117.0184	7.1
125.0234	100.0
126.0270	4.7
128.0343	5.0
129.0183	4.3
134.0272	5.3
140.0707	8.4
142.0499	28.7
143.0340	12.3
143.0705	14.0
145.0133	23.8
145.0495	12.2
158.0814	20.0
159.0656	6.3
164.0377	21.7
173.0085	4.4
186.0764	10.5
187.0240	22.5
187.0605	11.0
191.0249	13.6
203.0559	7.3
203.0754	17.7
204.0877	55.8
205.0347	34.9
205.0718	23.7
205.0912	5.7
206.0490	33.3

Name: 1-Methyl-1,2,3,4-tetrahydro-beta-carboline-3-carboxylic acid
PrecursorMZ: 229.09794
RT: 3.0765
ExactMass: 230.105527694
Spectrum_type: 2
charge: -1
Formula: C13H14N2O2
SMILES: CC1C2=C(CC(N1)C(=O)O)C3=CC=CC=C3N2
Method: HCD
Collision_energy: [28.333334]
Isolation_window: 4.0
Ion_mode: N
Num Peaks: 8
92.0495	19.7
100.0394	100.0
116.0497	75.9
142.0653	30.1
182.9539	22.3
185.1078	49.2
229.0979	77.3
230.1017	13.1

Name: 1-N,3-N-bis(2-(cyclohexen-1-yl)ethyl)benzene-1,3-dicarboxamide
PrecursorMZ: 415.21587
RT: 5.2191
ExactMass: 380.246378268
Spectrum_type: 2
charge: -1
Formula: C24H32N2O2
SMILES: C1CCC(=CC1)CCNC(=O)C2=CC(=CC=C2)C(=O)NCCC3=CCCCC3
Method: HCD
Collision_energy: [28.333334]
Isolation_window: 4.0
Ion_mode: N
Num Peaks: 11
79.9564	3.2
96.9591	21.2
137.0599	1.5
317.1750	1.3
413.1995	2.0
414.2449	1.4
415.1371	7.6
415.2163	100.0
416.1488	1.3
416.2196	23.6
417.2276	7.7

Name: 1-Naphthalenecarboxylic acid, 1,2,3,4,4a,5,8,8a-octahydro-1,4a,6-trimethyl-5-((2,3,5-trihydroxy-4-methylene-7-oxabicyclo(4.1.0)hept-1-yl)methyl)-
PrecursorMZ: 391.21317
RT: 7.5216
ExactMass: 392.21988874
Spectrum_type: 2
charge: -1
Formula: C22H32O6
SMILES: CC1=CCC2C(C1CC34C(C(C(=C)C(C3O4)O)O)O)(CCCC2(C)C(=O)O)C
Method: HCD
Collision_energy: [28.333334]
Isolation_window: 4.0
Ion_mode: N
Num Peaks: 21
245.1911	4.4
273.2220	4.3
283.2071	3.6
285.2224	20.3
286.2256	4.1
301.2174	41.7
302.2207	9.0
345.2076	3.8
346.2113	1.9
347.2228	73.5
348.2263	16.8
355.1913	2.3
373.2019	6.4
389.1969	2.6
389.2696	3.8
390.2003	2.6
391.2129	100.0
391.2857	48.4
392.2163	23.2
392.2890	11.3
393.2193	2.7

Name: 1-Oleoyl phosphatidylethanolamine
PrecursorMZ: 478.2942
RT: 7.98885
ExactMass: 479.3011898
Spectrum_type: 2
charge: -1
Formula: C23H46NO7P
SMILES: CCCCCCCC/C=C\CCCCCCCC(=O)OCC(COP(=O)(O)OCCN)O
Method: HCD
Collision_energy: [28.333334]
Isolation_window: 4.0
Ion_mode: N
Num Peaks: 20
78.9580	5.7
140.0111	3.8
152.9951	4.2
162.0678	19.3
163.0751	4.0
177.0914	33.1
178.0948	4.5
196.0373	10.5
281.2485	100.0
282.2518	17.8
431.3166	2.7
433.3328	2.7
435.3491	2.9
477.3165	7.9
477.3614	10.6
478.2942	45.4
478.3655	34.3
479.2846	8.2
479.3419	18.8
480.3480	3.2

Name: 1-Oleoyl-sn-glycerol 3-phosphate
PrecursorMZ: 435.25191
RT: 8.2979
ExactMass: 436.25899064
Spectrum_type: 2
charge: -1
Formula: C21H41O7P
SMILES: CCCCCCCC/C=C\CCCCCCCC(=O)OC[C@H](COP(=O)(O)O)O
Method: HCD
Collision_energy: [28.333334]
Isolation_window: 4.0
Ion_mode: N
Num Peaks: 8
78.9580	19.3
96.9686	2.2
152.9950	100.0
153.9983	3.7
171.0056	2.0
281.2492	1.3
435.2515	22.3
436.2549	5.3

Name: 1-Oleoylglycerophosphoserine
PrecursorMZ: 522.28203
RT: 7.991
ExactMass: 523.29101904
Spectrum_type: 2
charge: -1
Formula: C24H46NO9P
SMILES: CCCCCCCC/C=C/CCCCCCCC(=O)OCC(COP(=O)(O)OCC(C(=O)O)N)O
Method: HCD
Collision_energy: [28.333334]
Isolation_window: 4.0
Ion_mode: N
Num Peaks: 20
58.0332	1.2
69.0350	1.4
78.9579	21.9
79.9561	1.2
96.9684	1.8
152.9946	100.0
153.0048	1.5
153.9980	2.7
171.0052	2.8
255.2320	8.2
281.2476	2.0
409.2361	1.5
435.2506	24.3
436.2541	4.6
521.3356	5.6
522.2800	28.0
523.2814	7.4
523.3462	1.7
524.2883	3.1
524.2955	3.1

Name: 1-Palmitoyl-2-myristoyl-sn-glycero-3-phosphocholine
PrecursorMZ: 690.50796
RT: 10.960566666666667
ExactMass: 705.53085538
Spectrum_type: 2
charge: -1
Formula: C38H76NO8P
SMILES: CCCCCCCCCCCCCCCC(=O)OC[C@H](COP(=O)([O-])OCC[N+](C)(C)C)OC(=O)CCCCCCCCCCCCC
Method: HCD
Collision_energy: [28.333334]
Isolation_window: 4.0
Ion_mode: N
Num Peaks: 13
74.0238	16.5
76.7258	2.5
78.9581	5.5
97.3384	1.9
152.9951	22.5
255.2329	100.0
256.2364	15.5
434.2682	3.2
643.4945	3.0
689.4912	2.0
690.5091	58.1
691.5129	23.5
692.5182	3.8

Name: 1-Palmitoyl-2-oleoyl-sn-glycero-3-phosphocholine
PrecursorMZ: 804.57713
RT: 11.4801
ExactMass: 759.57780557
Spectrum_type: 2
charge: -1
Formula: C42H82NO8P
SMILES: CCCCCCCCCCCCCCCC(=O)OC[C@H](COP(=O)([O-])OCC[N+](C)(C)C)OC(=O)CCCCCCC/C=C\CCCCCCCC
Method: HCD
Collision_energy: [28.333334]
Isolation_window: 4.0
Ion_mode: N
Num Peaks: 14
78.9581	2.8
82.7312	2.0
168.0424	4.8
224.0690	3.0
255.2329	43.6
256.2363	5.7
281.2486	100.0
282.2520	17.6
480.3076	2.0
744.5556	42.1
745.5602	18.5
746.5640	2.1
804.5779	8.2
805.5823	4.3

Name: 1-Palmitoyl-2-oleoyl-sn-glycero-3-phosphoethanolamine
PrecursorMZ: 716.52227
RT: 9.9597
ExactMass: 717.53085538
Spectrum_type: 2
charge: -1
Formula: C39H76NO8P
SMILES: CCCCCCCCCCCCCCCC(=O)OC[C@H](COP(=O)(O)OCCN)OC(=O)CCCCCCC/C=C\CCCCCCCC
Method: HCD
Collision_energy: [28.333334]
Isolation_window: 4.0
Ion_mode: N
Num Peaks: 8
78.9578	9.9
152.9945	26.2
255.2320	100.0
256.2353	22.9
281.2476	15.6
715.5080	16.4
716.5206	52.8
717.5232	19.6

Name: 1-Palmitoyl-2-oleoyl-sn-glycerol
PrecursorMZ: 452.2781
RT: 7.8471
ExactMass: 594.52232533
Spectrum_type: 2
charge: -1
Formula: C37H70O5
SMILES: CCCCCCCCCCCCCCCC(=O)OC[C@H](CO)OC(=O)CCCCCCC/C=C\CCCCCCCC
Method: HCD
Collision_energy: [28.333334]
Isolation_window: 4.0
Ion_mode: N
Num Peaks: 15
50.2544	1.8
78.9581	3.9
140.0109	3.2
152.9951	1.4
196.0374	10.4
214.0480	1.8
255.2327	100.0
256.2362	16.4
257.2386	1.3
451.3038	1.3
452.2782	40.1
453.2662	2.5
453.2758	1.2
453.2816	8.9
454.2826	1.2

Name: 1-Palmitoyl-lysophosphatidylcholine
PrecursorMZ: 540.33084
RT: 7.7253
ExactMass: 495.33248993
Spectrum_type: 2
charge: -1
Formula: C24H50NO7P
SMILES: CCCCCCCCCCCCCCCC(=O)OC[C@@H](COP(=O)([O-])OCC[N+](C)(C)C)O
Method: HCD
Collision_energy: [28.333334]
Isolation_window: 4.0
Ion_mode: N
Num Peaks: 6
224.0688	9.1
255.2327	100.0
256.2362	17.1
480.3095	58.0
481.3142	12.6
540.3301	5.4

Name: 1-Palmitoyl-sn-glycero-3-phosphocholine
PrecursorMZ: 540.33061
RT: 7.7552200000000004
ExactMass: 495.33248993
Spectrum_type: 2
charge: -1
Formula: C24H50NO7P
SMILES: CCCCCCCCCCCCCCCC(=O)OC[C@H](COP(=O)([O-])OCC[N+](C)(C)C)O
Method: HCD
Collision_energy: [28.333334]
Isolation_window: 4.0
Ion_mode: N
Num Peaks: 7
78.9580	3.3
224.0690	9.9
255.2326	100.0
256.2362	16.4
480.3095	56.5
481.3120	13.5
540.3309	6.7

Name: 1-Pentadecanoyl-2-hexadecanoyl-glycero-3-phosphoethanolamine
PrecursorMZ: 676.49199
RT: 10.3819
ExactMass: 677.49955525
Spectrum_type: 2
charge: -1
Formula: C36H72NO8P
SMILES: CCCCCCCCCCCCCCCC(=O)O[C@H](COC(=O)CCCCCCCCCCCCCC)COP(=O)(O)OCCN
Method: HCD
Collision_energy: [28.333334]
Isolation_window: 4.0
Ion_mode: N
Num Peaks: 5
78.9581	49.3
152.9950	39.3
171.0056	60.8
676.4929	100.0
677.4966	39.3

Name: 1-Stearoyl-2-hydroxy-sn-glycero-3-phosphoethanolamine
PrecursorMZ: 480.30943
RT: 8.498800000000001
ExactMass: 481.31683987
Spectrum_type: 2
charge: -1
Formula: C23H48NO7P
SMILES: CCCCCCCCCCCCCCCCCC(=O)OC[C@H](COP(=O)([O-])OCC[NH3+])O
Method: HCD
Collision_energy: [28.333334]
Isolation_window: 4.0
Ion_mode: N
Num Peaks: 10
78.9581	3.6
140.0107	3.2
196.0374	11.0
214.0481	2.2
283.2641	100.0
284.2675	16.7
479.3397	2.9
480.3093	37.3
481.2994	2.5
481.3118	9.7

Name: 1-Stearoyl-sn-glycero-3-phosphocholine
PrecursorMZ: 508.34077
RT: 9.0064
ExactMass: 523.36379006
Spectrum_type: 2
charge: -1
Formula: C26H54NO7P
SMILES: CCCCCCCCCCCCCCCCCC(=O)OC[C@H](COP(=O)([O-])OCC[N+](C)(C)C)O
Method: HCD
Collision_energy: [28.333334]
Isolation_window: 4.0
Ion_mode: N
Num Peaks: 13
56.4824	1.5
56.4855	4.1
56.5971	1.1
78.9580	32.8
140.0109	46.7
152.9950	0.9
214.0479	0.9
311.2951	28.5
312.2985	5.9
507.3729	3.8
508.3550	100.0
509.3584	28.9
510.3621	3.5

Name: 1-Tridecanoyl-sn-glycero-3-phosphoethanolamine
PrecursorMZ: 410.2318
RT: 6.7142
ExactMass: 411.23858955
Spectrum_type: 2
charge: -1
Formula: C18H38NO7P
SMILES: CCCCCCCCCCCCC(=O)OC[C@H](COP(=O)(O)OCCN)O
Method: HCD
Collision_energy: [28.333334]
Isolation_window: 4.0
Ion_mode: N
Num Peaks: 11
74.0238	3.9
78.9581	4.7
140.0111	3.5
152.9950	3.0
196.0376	9.7
213.1856	100.0
214.1891	13.3
409.2197	2.3
409.2693	4.2
410.2311	45.7
411.2353	15.2

Name: 1-amino-1,3-dicarboxycyclopentane, trans-(1R,3S)-
PrecursorMZ: 172.06098
RT: 1.2476
ExactMass: 173.06880783
Spectrum_type: 2
charge: -1
Formula: C7H11NO4
SMILES: C1C[C@@](C[C@H]1C(=O)O)(C(=O)O)N
Method: HCD
Collision_energy: [28.333334]
Isolation_window: 4.0
Ion_mode: N
Num Peaks: 50
57.0337	4.8
58.0290	6.6
59.0130	15.1
69.0337	5.3
70.0290	5.1
71.0130	8.9
71.0493	5.6
72.9922	9.4
73.0286	10.9
74.0238	100.0
81.0336	9.7
83.0493	19.5
84.0445	19.0
85.0286	12.2
85.0649	4.0
86.0238	7.2
87.0079	4.0
88.0395	16.5
93.0336	12.2
97.0285	6.1
98.0238	7.8
99.0079	7.9
99.0442	24.0
100.0395	14.7
100.0759	4.4
103.0392	9.4
109.0286	11.2
110.0604	4.8
111.0080	10.9
111.0443	33.8
112.0396	24.0
113.0236	14.7
126.0552	9.7
127.0392	19.5
127.0504	5.4
127.0760	4.6
128.0345	5.8
128.0709	21.3
129.0549	35.2
130.0501	21.0
153.0188	6.3
154.0500	4.3
155.0343	15.4
171.0304	7.0
171.0656	6.5
172.0609	62.1
173.0234	8.5
173.0451	46.4
173.0807	41.7
174.0761	23.0

Name: 1-ethyl-N-(3-(1-ethyl-4-methoxy-1H-indol-2-yl)-1H-pyrazol-5-yl)-1H-pyrazole-5-carboxamide
PrecursorMZ: 377.17245
RT: 5.0424
ExactMass: 378.18042397
Spectrum_type: 2
charge: -1
Formula: C20H22N6O2
SMILES: CCN1C2=C(C=C1C3=CC(=NN3)NC(=O)C4=CC=NN4CC)C(=CC=C2)OC
Method: HCD
Collision_energy: [28.333334]
Isolation_window: 4.0
Ion_mode: N
Num Peaks: 4
176.0712	54.0
208.0973	26.5
377.1696	100.0
378.1728	22.6

Name: 1-hexadecanoyl-2-(11R, 12S-methylene-octadecanoyl)-sn-glycero-3-phospho-(1'-sn-glycerol)
PrecursorMZ: 761.53297
RT: 10.1721
ExactMass: 762.54108571
Spectrum_type: 2
charge: -1
Formula: C41H79O10P
SMILES: CCCCCCCCCCCCCCCC(=O)OC[C@H](COP(=O)(O)OC[C@H](CO)O)OC(=O)CCCCCCCCC[C@@H]1C[C@@H]1CCCCCC
Method: HCD
Collision_energy: [28.333334]
Isolation_window: 4.0
Ion_mode: N
Num Peaks: 10
61.9872	2.4
84.6122	2.3
84.6180	3.9
371.2584	4.2
389.2683	10.0
759.5504	2.3
760.5509	2.8
761.5337	100.0
762.5375	50.1
763.5483	47.3

Name: 10,12,15-Octadecatrienoic acid, 9-hydroxy-
PrecursorMZ: 293.2123
RT: 7.5405
ExactMass: 294.21949481
Spectrum_type: 2
charge: -1
Formula: C18H30O3
SMILES: CCC=CCC=CC=CC(CCCCCCCC(=O)O)O
Method: HCD
Collision_energy: [28.333334]
Isolation_window: 4.0
Ion_mode: N
Num Peaks: 8
220.1459	23.8
221.1542	74.0
235.1700	60.2
236.1049	68.5
275.2015	88.0
293.1778	63.6
293.2120	100.0
295.2263	20.8

Name: 10-Desacetylbaccatin III
PrecursorMZ: 543.22416
RT: 6.2489
ExactMass: 544.23084734
Spectrum_type: 2
charge: -1
Formula: C29H36O10
SMILES: CC1=C2C(C(=O)C3(C(CC4C(C3C(C(C2(C)C)(CC1O)O)OC(=O)C5=CC=CC=C5)(CO4)OC(=O)C)O)C)O
Method: HCD
Collision_energy: [28.333334]
Isolation_window: 4.0
Ion_mode: N
Num Peaks: 15
97.0649	21.9
109.0285	25.5
121.0286	16.2
135.0442	26.4
148.0521	21.0
163.0755	28.2
187.0756	15.7
231.1018	28.1
259.0972	31.1
307.1184	30.3
513.2129	68.7
514.2154	22.1
525.2121	16.8
543.2244	100.0
544.2290	34.0

Name: 10-oxo-11-propyl-N-(2-(2-thienyl)ethyl)-10,11-dihydropyrido(3,2-b)(1,4)benzoxazepine-8-sulfonamide
PrecursorMZ: 442.09021
RT: 10.095600000000001
ExactMass: 443.09734851
Spectrum_type: 2
charge: -1
Formula: C21H21N3O4S2
SMILES: CCCN1C2=C(C=CC=N2)OC3=C(C1=O)C=C(C=C3)S(=O)(=O)NCCC4=CC=CS4
Method: HCD
Collision_energy: [28.333334]
Isolation_window: 4.0
Ion_mode: N
Num Peaks: 9
61.9873	2.0
158.8467	3.0
160.8415	100.0
161.8418	2.1
162.8384	42.5
407.1231	3.5
442.0904	68.6
443.0938	14.6
444.0877	35.8

Name: 1017657-64-5
PrecursorMZ: 374.16057
RT: 8.4938
Spectrum_type: 2
charge: -1
SMILES: COCCCN1C(=O)C(O)=C(C(=O)C2CC2)C1c1cc(OC)c(OC)cc1
Method: HCD
Collision_energy: [28.333334]
Isolation_window: 4.0
Ion_mode: N
Num Peaks: 5
300.1725	16.6
330.1708	100.0
331.1742	21.2
374.1608	45.7
375.1643	9.7

Name: 11,12-dihydroxy-13-methoxy-4,5,8-trimethyl-3-(2-methylpropyl)-1H,2H,3H,4H,6aH,9H,10H,11H,12H,13H,14H,15H,15bH-cycloundeca(e)isoindole-1,15-dione
PrecursorMZ: 432.27622
RT: 9.47185
ExactMass: 433.28282334
Spectrum_type: 2
charge: -1
Formula: C25H39NO5
SMILES: CC1C2C(NC(=O)C23C(/C=C(\CCC(C(C(CC3=O)OC)O)O)/C)C=C1C)CC(C)C
Method: HCD
Collision_energy: [28.333334]
Isolation_window: 4.0
Ion_mode: N
Num Peaks: 19
69.0210	1.3
108.0447	100.0
109.0481	7.0
134.0242	2.4
149.0967	3.5
152.0348	75.2
153.0384	6.0
388.2866	6.3
389.2901	1.5
415.3630	2.4
430.3464	2.0
431.3126	6.2
431.3545	3.6
432.2763	95.2
433.2797	24.8
433.3340	1.2
433.3694	29.5
434.2846	3.0
434.3750	6.7

Name: 11-(3-ethoxyphenyl)-3,3-dimethyl-2,3,4-trihydro-5H,10H,11H-benzo(1,2-f)benzo(b)1,4-diazepin-1-one
PrecursorMZ: 397.1692
RT: 5.246
ExactMass: 362.199428076
Spectrum_type: 2
charge: -1
Formula: C23H26N2O2
SMILES: CCOC1=CC=CC(=C1)C2C3=C(CC(CC3=O)(C)C)NC4=CC=CC=C4N2
Method: HCD
Collision_energy: [28.333334]
Isolation_window: 4.0
Ion_mode: N
Num Peaks: 19
96.9591	3.4
179.0707	2.5
195.0655	2.3
321.1707	3.2
339.1813	5.9
353.1799	6.5
353.2696	3.7
379.2102	3.5
395.2069	15.8
395.2462	4.5
396.2064	6.3
397.1692	100.0
397.2227	31.0
397.2609	5.5
398.1722	22.7
398.2257	6.6
399.1681	2.6
399.1959	2.3
399.2422	8.9

Name: 11-Deoxycortisol
PrecursorMZ: 345.20671
RT: 8.4899
ExactMass: 346.21440943
Spectrum_type: 2
charge: -1
Formula: C21H30O4
SMILES: C[C@]12CCC(=O)C=C1CC[C@@H]3[C@@H]2CC[C@]4([C@H]3CC[C@@]4(C(=O)CO)O)C
Method: HCD
Collision_energy: [28.333334]
Isolation_window: 4.0
Ion_mode: N
Num Peaks: 5
300.2050	10.4
327.1959	16.3
344.1942	10.3
345.2069	100.0
346.2100	22.4

Name: 11-Docosenoic acid
PrecursorMZ: 337.31101
RT: 10.9442
ExactMass: 338.318480578
Spectrum_type: 2
charge: -1
Formula: C22H42O2
SMILES: CCCCCCCCCC/C=C/CCCCCCCCCC(=O)O
Method: HCD
Collision_energy: [28.333334]
Isolation_window: 4.0
Ion_mode: N
Num Peaks: 3
337.3110	100.0
338.3143	24.4
339.2000	11.5

Name: 11-Eicosenoic Acid
PrecursorMZ: 309.27986
RT: 10.3346
ExactMass: 310.287180451
Spectrum_type: 2
charge: -1
Formula: C20H38O2
SMILES: CCCCCCCC/C=C/CCCCCCCCCC(=O)O
Method: HCD
Collision_energy: [28.333334]
Isolation_window: 4.0
Ion_mode: N
Num Peaks: 5
308.1385	1.7
309.2798	100.0
310.2832	22.6
311.1704	1.8
311.2951	9.5

Name: 11-HDoHE
PrecursorMZ: 343.22807
RT: 8.75635
ExactMass: 344.23514488
Spectrum_type: 2
charge: -1
Formula: C22H32O3
SMILES: CC/C=C\C/C=C\C/C=C\CC(/C=C/C=C\C/C=C\CCC(=O)O)O
Method: HCD
Collision_energy: [28.333334]
Isolation_window: 4.0
Ion_mode: N
Num Peaks: 12
59.0130	100.0
60.0163	2.3
69.1854	2.1
95.0494	5.3
283.2070	15.5
284.2104	4.2
297.2443	2.9
341.2701	6.9
342.2725	3.6
343.2282	54.9
343.2831	3.6
344.2309	13.2

Name: 11-Hete
PrecursorMZ: 319.22779
RT: 8.5868
ExactMass: 320.23514488
Spectrum_type: 2
charge: -1
Formula: C20H32O3
SMILES: CCCCC/C=C\C=C\C(C/C=C\C/C=C\CCCC(=O)O)O
Method: HCD
Collision_energy: [28.333334]
Isolation_window: 4.0
Ion_mode: N
Num Peaks: 4
275.2374	17.2
301.2167	15.8
319.2275	100.0
320.2309	20.7

Name: 11S,12R-EpETrE
PrecursorMZ: 319.22786
RT: 8.273
ExactMass: 320.23514488
Spectrum_type: 2
charge: -1
Formula: C20H32O3
SMILES: CCCCC/C=C\C[C@@H]1[C@@H](O1)C/C=C\C/C=C\CCCC(=O)O
Method: HCD
Collision_energy: [28.333334]
Isolation_window: 4.0
Ion_mode: N
Num Peaks: 14
59.0129	11.6
61.9875	4.4
167.1068	8.1
179.1070	20.7
221.1541	26.4
257.2273	9.1
299.2015	4.6
301.2168	15.6
303.2327	38.5
317.2119	35.1
318.2151	16.4
319.2275	100.0
320.2311	21.7
321.2430	72.1

Name: 12,13-DiHOME
PrecursorMZ: 313.23841
RT: 6.8322
ExactMass: 314.24570956
Spectrum_type: 2
charge: -1
Formula: C18H34O4
SMILES: CCCCCC(C(C/C=C\CCCCCCCC(=O)O)O)O
Method: HCD
Collision_energy: [28.333334]
Isolation_window: 4.0
Ion_mode: N
Num Peaks: 20
99.0806	1.7
129.0912	3.2
169.1224	1.9
171.1018	1.5
183.1384	4.5
195.1384	3.6
201.1127	1.8
277.2171	1.3
295.1947	1.7
295.2279	3.6
297.2424	1.3
311.2228	4.9
312.1703	2.3
312.2258	5.3
313.2073	4.1
313.2383	100.0
314.1198	1.5
314.2417	18.5
315.1270	7.3
315.2536	32.8

Name: 12,13-DiHOME(9)
PrecursorMZ: 313.23848
RT: 6.5126
ExactMass: 314.24570956
Spectrum_type: 2
charge: -1
Formula: C18H34O4
SMILES: CCCCCC(C(C/C=C/CCCCCCCC(=O)O)O)O
Method: HCD
Collision_energy: [28.333334]
Isolation_window: 4.0
Ion_mode: N
Num Peaks: 10
99.0806	2.4
171.1019	32.8
172.1057	2.9
195.1385	17.1
213.1492	8.0
277.2163	2.7
295.2274	4.5
313.2384	100.0
314.2419	18.9
315.2538	44.7

Name: 12-Hydroperoxyoctadeca-9,13,15-trienoic acid
PrecursorMZ: 309.20715
RT: 7.9172
ExactMass: 310.21440943
Spectrum_type: 2
charge: -1
Formula: C18H30O4
SMILES: CCC=CC=CC(CC=CCCCCCCCC(=O)O)OO
Method: HCD
Collision_energy: [28.333334]
Isolation_window: 4.0
Ion_mode: N
Num Peaks: 14
165.1278	6.8
213.1492	4.4
247.2062	4.7
291.1965	33.7
292.1997	6.3
293.2122	100.0
308.1376	24.0
308.6392	8.5
309.1379	5.1
309.1741	4.9
309.2073	24.9
310.2110	4.4
311.1684	21.0
311.2249	5.4

Name: 12-Hydroxy-13-(hydroxymethyl)-3,5,7-trimethyl-2,4-tetradecadienedioic acid
PrecursorMZ: 341.19681
RT: 5.7683
ExactMass: 342.20423867
Spectrum_type: 2
charge: -1
Formula: C18H30O6
SMILES: CC(CCCCC(C(CO)C(=O)O)O)C/C(=C/C(=C/C(=O)O)/C)/C
Method: HCD
Collision_energy: [28.333334]
Isolation_window: 4.0
Ion_mode: N
Num Peaks: 17
91.0390	4.1
143.0705	12.4
261.1857	9.9
279.1961	8.9
297.2070	4.4
305.1748	5.5
308.1379	6.0
323.1862	28.2
324.1897	5.9
339.1809	12.3
339.2181	5.9
340.1841	9.1
341.1105	6.9
341.1968	100.0
342.1586	5.3
342.2004	19.3
343.2119	21.0

Name: 12-Hydroxyjasmonic acid
PrecursorMZ: 225.11283
RT: 3.3319
ExactMass: 226.12050905
Spectrum_type: 2
charge: -1
Formula: C12H18O4
SMILES: C1CC(=O)[C@@H]([C@H]1CC(=O)O)C/C=C\CCO
Method: HCD
Collision_energy: [28.333334]
Isolation_window: 4.0
Ion_mode: N
Num Peaks: 9
59.0129	100.0
124.0396	4.4
147.0808	2.9
165.0914	5.2
165.1277	4.0
181.1224	2.5
225.1128	44.9
226.1165	6.0
227.1284	26.1

Name: 12-Sulfooxyjasmonate
PrecursorMZ: 305.06999
RT: 2.8947000000000003
ExactMass: 306.07732408
Spectrum_type: 2
charge: -1
Formula: C12H18O7S
SMILES: C1CC(=O)[C@@H]([C@H]1CC(=O)O)C/C=C\CCOS(=O)(=O)O
Method: HCD
Collision_energy: [28.333334]
Isolation_window: 4.0
Ion_mode: N
Num Peaks: 8
59.0129	19.8
96.9591	71.5
225.1128	37.2
226.1163	4.4
227.1286	4.6
305.0698	100.0
306.0729	14.1
307.0878	13.3

Name: 12-oxo-ETE
PrecursorMZ: 317.21208
RT: 8.392
ExactMass: 318.21949481
Spectrum_type: 2
charge: -1
Formula: C20H30O3
SMILES: CCCCC/C=C\CC(=O)/C=C/C=C\C/C=C\CCCC(=O)O
Method: HCD
Collision_energy: [28.333334]
Isolation_window: 4.0
Ion_mode: N
Num Peaks: 5
113.0963	69.6
139.1123	18.5
273.2235	18.7
317.2123	100.0
318.2147	18.1

Name: 12a-HYDROXY-5-DEOXYDEHYDROMUNDUSERONE
PrecursorMZ: 341.10302
RT: 4.9929
ExactMass: 342.11033829
Spectrum_type: 2
charge: -1
Formula: C19H18O6
SMILES: COC1=CC2=C(C=C1)C=C3C4=CC(=C(C=C4OCC3(O2)O)OC)OC
Method: HCD
Collision_energy: [28.333334]
Isolation_window: 4.0
Ion_mode: N
Num Peaks: 19
59.0129	8.1
71.0128	4.7
89.0234	8.2
91.0391	34.5
179.1071	7.7
223.0973	6.0
249.0673	24.4
267.0660	56.4
268.0695	10.6
282.0894	33.2
283.0938	7.5
297.1128	21.5
311.0565	11.4
326.0794	35.5
327.0820	7.1
341.1028	100.0
341.1934	11.0
342.1060	20.9
343.1167	7.2

Name: 13-Hydroxyoctadeca-9,11-dienoic acid
PrecursorMZ: 295.22776
RT: 8.5235
ExactMass: 296.23514488
Spectrum_type: 2
charge: -1
Formula: C18H32O3
SMILES: CCCCCC(C=CC=CCCCCCCCC(=O)O)O
Method: HCD
Collision_energy: [28.333334]
Isolation_window: 4.0
Ion_mode: N
Num Peaks: 9
155.1431	4.6
251.2376	3.2
277.2171	2.0
293.2119	4.7
294.2155	2.0
295.2275	100.0
296.2308	18.6
297.1529	2.2
297.2426	4.8

Name: 13-Labdene-2,8,15-triol (ent-2a,8a,13E)-form)
PrecursorMZ: 323.25927
RT: 9.095
ExactMass: 324.26644501
Spectrum_type: 2
charge: -1
Formula: C20H36O3
SMILES: C/C(=C/CO)/CC[C@@H]1[C@@](CC[C@H]2[C@]1(C[C@@H](CC2(C)C)O)C)(C)O
Method: HCD
Collision_energy: [28.333334]
Isolation_window: 4.0
Ion_mode: N
Num Peaks: 7
183.0111	1.8
197.0266	1.9
323.1756	1.7
323.2591	37.2
324.2622	7.7
325.1845	100.0
325.2677	2.0

Name: 13-Oxo-7-(3,4,5-trihydroxy-6-(methoxymethyl)oxan-2-yl)oxytetradecanoic acid
PrecursorMZ: 433.24394
RT: 4.2854
ExactMass: 434.25158279
Spectrum_type: 2
charge: -1
Formula: C21H38O9
SMILES: CC(=O)CCCCCC(CCCCCC(=O)O)OC1C(C(C(C(O1)COC)O)O)O
Method: HCD
Collision_energy: [28.333334]
Isolation_window: 4.0
Ion_mode: N
Num Peaks: 23
59.0128	5.2
91.0388	8.4
97.0647	4.9
141.0545	5.0
167.0337	3.8
171.1014	7.2
191.0338	6.6
197.1174	13.7
199.1329	7.5
209.1177	6.0
215.1277	4.6
223.0969	8.8
223.1324	4.6
233.0446	32.8
234.0482	5.2
263.1648	4.1
341.1964	8.1
355.0815	23.1
356.0847	5.4
433.1092	8.3
433.2417	100.0
434.2474	19.8
435.2500	5.4

Name: 13-Oxo-9,11-tridecadienoic acid
PrecursorMZ: 223.13368
RT: 6.40685
ExactMass: 224.1412445
Spectrum_type: 2
charge: -1
Formula: C13H20O3
SMILES: C(CCC/C=C/C=C/C=O)CCCC(=O)O
Method: HCD
Collision_energy: [28.333334]
Isolation_window: 4.0
Ion_mode: N
Num Peaks: 4
195.1386	25.0
205.1230	19.3
221.8421	17.2
223.1337	100.0

Name: 14,16-Dihydroxy-4-methyl-3-oxabicyclo(10.4.0)hexadeca-1(12),13,15-trien-2-one
PrecursorMZ: 277.14453
RT: 8.1899
ExactMass: 278.15180918
Spectrum_type: 2
charge: -1
Formula: C16H22O4
SMILES: CC1CCCCCCCC2=C(C(=CC(=C2)O)O)C(=O)O1
Method: HCD
Collision_energy: [28.333334]
Isolation_window: 4.0
Ion_mode: N
Num Peaks: 3
233.1545	11.0
277.1445	100.0
278.1478	15.9

Name: 14-(Hydroxymethyl)-5,9-dimethyltetracyclo(11.2.1.0~1,10~.0~4,9~)hexadecan-5-ol
PrecursorMZ: 291.23325
RT: 7.5514
ExactMass: 292.240230259
Spectrum_type: 2
charge: -1
Formula: C19H32O2
SMILES: CC12CCCC(C1CCC34C2CCC(C3)C(C4)CO)(C)O
Method: HCD
Collision_energy: [28.333334]
Isolation_window: 4.0
Ion_mode: N
Num Peaks: 13
57.0337	5.0
113.0964	14.3
121.1015	19.3
171.1021	32.6
183.1384	5.9
193.1596	6.6
231.2116	5.5
235.1702	32.9
275.2020	92.9
291.2329	40.7
292.2358	9.2
293.1801	5.8
293.2122	100.0

Name: 14-Deoxy-11,12-dehydroandrographolide
PrecursorMZ: 331.19003
RT: 6.5344
ExactMass: 332.19875937
Spectrum_type: 2
charge: -1
Formula: C20H28O4
SMILES: C[C@@]12CC[C@H]([C@@]([C@H]1CCC(=C)[C@H]2/C=C/C3=CCOC3=O)(C)CO)O
Method: HCD
Collision_energy: [28.333334]
Isolation_window: 4.0
Ion_mode: N
Num Peaks: 6
329.2322	7.7
330.2358	3.0
331.1903	100.0
331.2460	4.1
332.1937	20.9
333.1973	2.2

Name: 14-Epiandrographolide
PrecursorMZ: 349.20222
RT: 5.3457
ExactMass: 350.20932405
Spectrum_type: 2
charge: -1
Formula: C20H30O5
SMILES: C[C@@]12CC[C@H]([C@@]([C@H]1CCC(=C)[C@H]2C/C=C/3\[C@H](COC3=O)O)(C)CO)O
Method: HCD
Collision_energy: [28.333334]
Isolation_window: 4.0
Ion_mode: N
Num Peaks: 9
61.9875	6.6
287.2014	7.5
319.1914	66.7
320.1948	14.6
347.1873	6.3
348.1910	2.8
349.2020	100.0
350.2053	21.5
351.2107	2.5

Name: 14-Methylpentadecanoic acid
PrecursorMZ: 255.23248
RT: 11.8274
ExactMass: 256.240230259
Spectrum_type: 2
charge: -1
Formula: C16H32O2
SMILES: CC(C)CCCCCCCCCCCCC(=O)O
Method: HCD
Collision_energy: [28.333334]
Isolation_window: 4.0
Ion_mode: N
Num Peaks: 3
255.1065	2.7
255.2329	100.0
256.2363	16.2

Name: 15,17-Dihydroxy-4-methyl-3-oxabicyclo(12.4.0)octadeca-1(14),12,15,17-tetraene-2,8-dione
PrecursorMZ: 317.13946
RT: 6.8922
ExactMass: 318.1467238
Spectrum_type: 2
charge: -1
Formula: C18H22O5
SMILES: CC1CCCC(=O)CCCC=CC2=C(C=C(C=C2O)O)C(=O)O1
Method: HCD
Collision_energy: [28.333334]
Isolation_window: 4.0
Ion_mode: N
Num Peaks: 10
131.0493	4.1
149.0602	4.2
175.0394	11.6
273.1500	10.9
315.2513	5.3
317.1396	100.0
317.1742	7.0
317.2136	5.5
318.1432	19.8
319.1537	7.0

Name: 15-Acetoxykaur-16-en-18-oic acid
PrecursorMZ: 359.22314
RT: 9.2202
ExactMass: 360.2300595
Spectrum_type: 2
charge: -1
Formula: C22H32O4
SMILES: CC(=O)O[C@H]1C(=C)[C@H]2CCC3[C@]1(C2)CCC4[C@]3(CCC[C@@]4(C)C(=O)O)C
Method: HCD
Collision_energy: [28.333334]
Isolation_window: 4.0
Ion_mode: N
Num Peaks: 13
79.9564	2.6
122.0364	4.6
135.0443	3.7
137.0238	1.1
154.0264	1.2
315.2329	88.0
316.2362	20.1
317.2404	1.7
357.2088	1.4
359.2231	100.0
359.2966	1.4
360.2261	23.2
361.2321	2.5

Name: 15-Tetracosenoic acid
PrecursorMZ: 365.34093
RT: 11.8066
ExactMass: 366.349780706
Spectrum_type: 2
charge: -1
Formula: C24H46O2
SMILES: CCCCCCCC/C=C/CCCCCCCCCCCCCC(=O)O
Method: HCD
Collision_energy: [28.333334]
Isolation_window: 4.0
Ion_mode: N
Num Peaks: 7
365.3412	15.8
366.3446	3.9
367.2601	0.5
367.2817	0.6
367.3566	100.0
367.4327	0.6
367.4528	0.7

Name: 15-oxo-ETE
PrecursorMZ: 317.21203
RT: 8.2333
ExactMass: 318.21949481
Spectrum_type: 2
charge: -1
Formula: C20H30O3
SMILES: CCCCCC(=O)/C=C/C=C\C/C=C\C/C=C\CCCC(=O)O
Method: HCD
Collision_energy: [28.333334]
Isolation_window: 4.0
Ion_mode: N
Num Peaks: 23
57.0337	4.2
59.0130	5.7
107.0856	2.8
113.0963	41.8
121.1014	2.9
125.0963	4.6
139.1120	11.7
147.1171	3.2
165.1277	4.9
219.1389	3.0
273.2224	15.5
274.2256	2.5
297.2342	8.2
299.1649	3.0
315.1991	7.3
315.2325	2.8
316.1987	6.2
317.1757	15.0
317.2115	100.0
317.2431	2.5
318.1780	3.4
318.2145	19.3
319.2276	18.9

Name: 15a-Acetoxy-27-hydroxyphysachenolide D
PrecursorMZ: 601.26495
RT: 6.04255
Spectrum_type: 2
charge: -1
SMILES: C[C@@](C(O1)CC(C)=C(CO)C1=O)(O)[C@@]2(O)[C@]3(COC(C)=O)[C@]([C@@H](OC(C)=O)C2)(O)C4CC=C([C@@]5(C)C4CC3)CC=CC5=O
Method: HCD
Collision_energy: [28.333334]
Isolation_window: 4.0
Ion_mode: N
Num Peaks: 14
66.8093	3.9
215.1178	7.7
243.1484	3.6
269.1285	100.0
270.1316	14.3
287.1391	33.6
288.1433	4.5
313.1181	19.6
599.3853	6.3
600.3908	4.4
601.2654	84.9
601.3799	8.1
602.2681	24.7
603.2647	3.7

Name: 16,17-Dihydroxykauran-18-oic acid
PrecursorMZ: 335.22317
RT: 5.7053
ExactMass: 336.2300595
Spectrum_type: 2
charge: -1
Formula: C20H32O4
SMILES: CC12CCCC(C1CCC34C2CCC(C3)C(C4)(CO)O)(C)C(=O)O
Method: HCD
Collision_energy: [28.333334]
Isolation_window: 4.0
Ion_mode: N
Num Peaks: 4
333.2072	1.7
335.2230	100.0
336.2264	21.7
337.2350	1.9

Name: 16-Acetoxy-6-oxo-7,13-labdadien-15-oic acid
PrecursorMZ: 375.21852
RT: 7.1178
ExactMass: 376.22497412
Spectrum_type: 2
charge: -1
Formula: C22H32O5
SMILES: CC1=CC(=O)[C@H]2[C@]([C@@H]1CC/C(=C\C(=O)O)/COC(=O)C)(CCCC2(C)C)C
Method: HCD
Collision_energy: [28.333334]
Isolation_window: 4.0
Ion_mode: N
Num Peaks: 23
57.0338	8.1
205.1233	28.5
231.1754	3.9
243.1757	29.8
244.1790	3.4
255.1757	6.0
257.1912	6.3
269.1915	4.5
271.2078	6.9
297.2229	4.8
301.1814	17.1
313.2170	14.7
331.2284	14.0
333.2085	4.8
373.2044	5.9
373.2752	16.9
374.2022	13.1
374.2775	6.4
375.1807	6.0
375.2191	100.0
376.2226	27.4
377.1948	21.6
377.2348	63.5

Name: 16-HDoHE
PrecursorMZ: 343.22801
RT: 10.2256
ExactMass: 344.23514488
Spectrum_type: 2
charge: -1
Formula: C22H32O3
SMILES: CC/C=C\C=C\C(C/C=C\C/C=C\C/C=C\C/C=C\CCC(=O)O)O
Method: HCD
Collision_energy: [28.333334]
Isolation_window: 4.0
Ion_mode: N
Num Peaks: 8
75.0078	30.0
299.2378	100.0
300.2417	23.2
301.2531	40.2
341.3057	12.8
343.2277	96.0
344.2307	26.1
345.2433	40.3

Name: 16-Hydroxyhexadecanoic acid
PrecursorMZ: 271.22806
RT: 7.6635
ExactMass: 272.23514488
Spectrum_type: 2
charge: -1
Formula: C16H32O3
SMILES: C(CCCCCCCC(=O)O)CCCCCCCO
Method: HCD
Collision_energy: [28.333334]
Isolation_window: 4.0
Ion_mode: N
Num Peaks: 8
113.0964	0.8
141.1279	0.7
225.2222	1.2
253.2173	1.6
269.2118	0.8
271.2279	100.0
272.2312	17.2
273.2345	1.3

Name: 18-Hepe
PrecursorMZ: 317.21203
RT: 7.3488
ExactMass: 318.21949481
Spectrum_type: 2
charge: -1
Formula: C20H30O3
SMILES: CCC(/C=C/C=C\C/C=C\C/C=C\C/C=C\CCCC(=O)O)O
Method: HCD
Collision_energy: [28.333334]
Isolation_window: 4.0
Ion_mode: N
Num Peaks: 6
297.2442	4.5
315.2551	53.9
316.2585	26.6
317.2133	100.0
317.2595	3.6
318.2167	22.1

Name: 19-Hydroxybufalin
PrecursorMZ: 447.23891
RT: 6.8005
ExactMass: 402.24062418
Spectrum_type: 2
charge: -1
Formula: C24H34O5
SMILES: C[C@]12CC[C@H]3[C@H]([C@]1(CC[C@@H]2C4=COC(=O)C=C4)O)CC[C@H]5[C@@]3(CC[C@@H](C5)O)CO
Method: HCD
Collision_energy: [28.333334]
Isolation_window: 4.0
Ion_mode: N
Num Peaks: 13
61.9875	3.4
136.0520	5.5
137.0599	28.1
151.0757	5.8
163.0392	21.7
299.2017	7.3
371.2223	8.7
403.2474	12.6
404.2482	2.8
415.2115	3.3
447.2378	100.0
448.2406	27.0
449.2466	7.4

Name: 1H-2-Benzoxacyclotetradecin-1,7(8H)-dione, 3,4,5,6,9,10-hexahydro-8,9,16-trihydroxy-14-methoxy-3-methyl-, (3S,8S,9R,11E)-
PrecursorMZ: 363.14528
RT: 6.2659
ExactMass: 364.1522031
Spectrum_type: 2
charge: -1
Formula: C19H24O7
SMILES: C[C@H]1CCCC(=O)[C@@H]([C@@H](C/C=C/C2=C(C(=CC(=C2)OC)O)C(=O)O1)O)O
Method: HCD
Collision_energy: [28.333334]
Isolation_window: 4.0
Ion_mode: N
Num Peaks: 17
151.0388	1.9
179.0342	5.5
193.0498	3.1
195.0655	2.1
221.0451	13.4
250.0845	100.0
251.0881	15.0
294.0745	32.8
295.0777	5.2
361.1655	3.6
361.2047	2.0
363.1446	56.9
363.1825	6.1
363.2195	2.1
364.1477	11.9
365.1434	20.1
365.1966	10.6

Name: 1H-Indole-3-acetic acid, 2,3-dihydro-3-hydroxy-2-oxo-
PrecursorMZ: 206.04541
RT: 2.058422222222222
ExactMass: 207.05315777
Spectrum_type: 2
charge: -1
Formula: C10H9NO4
SMILES: C1=CC=C2C(=C1)C(C(=O)N2)(CC(=O)O)O
Method: HCD
Collision_energy: [28.333334]
Isolation_window: 4.0
Ion_mode: N
Num Peaks: 12
92.0496	4.3
118.0288	7.3
118.0653	13.1
134.0603	89.8
135.0639	7.2
144.0447	85.0
145.0482	8.1
146.0240	100.0
147.0274	8.7
162.0552	12.8
162.9822	7.2
206.0451	12.4

Name: 1H-Naphtho(1,2-c)pyran-7-propanoic acid, dodecahydro-8-(1-hydroxy-1-methylethyl)-3-(methoxycarbonyl)-3,4a,7,10a-tetramethyl-5-methylene-1,4-dioxo-
PrecursorMZ: 477.24889
RT: 5.2237
ExactMass: 478.25666817
Spectrum_type: 2
charge: -1
Formula: C26H38O8
SMILES: CC12CCC(C(C1CC(=C)C3(C2C(=O)OC(C3=O)(C)C(=O)OC)C)(C)CCC(=O)O)C(C)(C)O
Method: HCD
Collision_energy: [28.333334]
Isolation_window: 4.0
Ion_mode: N
Num Peaks: 11
53.0290	3.4
53.2530	4.4
331.2274	10.2
375.2170	3.3
417.2657	4.3
419.2084	3.5
433.2605	4.1
435.2751	6.7
477.2487	76.8
478.2526	20.7
479.2642	100.0

Name: 1H-Pyrrole-1-carboxamide, 3-ethyl-2,5-dihydro-4-methyl-N-2-4-(trans-4-methylcyclohexyl)aminocarbonylaminosulfonylphenylethyl-2-oxo-
PrecursorMZ: 489.21699
RT: 4.5036
ExactMass: 490.22499137
Spectrum_type: 2
charge: -1
Formula: C24H34N4O5S
SMILES: CCC1=C(CN(C1=O)C(=O)NCCC2=CC=C(C=C2)S(=O)(=O)NC(=O)NC3CCC(CC3)C)C
Method: HCD
Collision_energy: [28.333334]
Isolation_window: 4.0
Ion_mode: N
Num Peaks: 11
54.3559	1.9
54.3590	4.3
69.0059	1.6
96.9593	8.2
335.2233	8.6
336.2263	1.9
487.2389	14.5
488.2423	12.0
489.2172	100.0
490.2205	23.6
491.2185	6.7

Name: 2',4',6'-Trihydroxyacetophenone
PrecursorMZ: 167.03439
RT: 2.7642
ExactMass: 168.04225873
Spectrum_type: 2
charge: -1
Formula: C8H8O4
SMILES: CC(=O)C1=C(C=C(C=C1O)O)O
Method: HCD
Collision_energy: [28.333334]
Isolation_window: 4.0
Ion_mode: N
Num Peaks: 36
59.0130	1.9
68.0134	1.3
79.0545	2.1
81.0337	1.5
83.0242	1.2
93.0337	1.4
95.0132	1.5
95.0241	1.6
95.0494	1.9
97.0398	1.8
97.0651	1.6
98.0240	1.9
107.0496	3.6
108.0209	15.9
109.0295	2.9
109.0398	1.6
121.0288	15.8
122.0328	2.3
123.0082	1.4
123.0444	100.0
124.0477	7.7
125.0237	1.9
125.0349	1.6
125.0601	6.0
139.0395	1.6
139.0505	1.4
149.0242	2.2
150.0555	1.3
151.0026	1.2
165.0189	2.0
165.0550	1.9
166.0495	2.4
167.0344	15.4
168.0394	1.7
169.0136	2.0
169.0503	1.6

Name: 2',4'-Dihydroxy-4-methoxychalcone
PrecursorMZ: 269.08212
RT: 6.1433
ExactMass: 270.08920892
Spectrum_type: 2
charge: -1
Formula: C16H14O4
SMILES: COC1=CC=C(C=C1)/C=C/C(=O)C2=C(C=C(C=C2)O)O
Method: HCD
Collision_energy: [28.333334]
Isolation_window: 4.0
Ion_mode: N
Num Peaks: 13
91.0179	3.3
135.0079	23.5
136.0114	1.4
153.0186	12.5
154.0218	0.9
254.0584	10.5
255.0620	1.7
269.0354	0.9
269.0820	100.0
269.1210	14.1
270.0854	16.4
270.1243	2.1
271.0882	1.4

Name: 2',4'-Dihydroxychalcone
PrecursorMZ: 239.07114
RT: 6.2164
ExactMass: 240.078644241
Spectrum_type: 2
charge: -1
Formula: C15H12O3
SMILES: C1=CC=C(C=C1)/C=C/C(=O)C2=C(C=C(C=C2)O)O
Method: HCD
Collision_energy: [28.333334]
Isolation_window: 4.0
Ion_mode: N
Num Peaks: 9
91.0177	2.5
135.0080	6.8
153.0183	3.9
197.0602	20.2
198.0634	2.8
237.0678	2.2
239.0712	100.0
240.0748	14.9
241.0501	2.4

Name: 2',5'-Dihydroxy-4-methoxychalcone
PrecursorMZ: 269.0815
RT: 6.3366
ExactMass: 270.08920892
Spectrum_type: 2
charge: -1
Formula: C16H14O4
SMILES: COC1=CC=C(C=C1)/C=C/C(=O)C2=C(C=CC(=C2)O)O
Method: HCD
Collision_energy: [28.333334]
Isolation_window: 4.0
Ion_mode: N
Num Peaks: 8
135.0078	12.7
153.0186	9.3
254.0581	5.3
269.0818	61.2
269.1216	100.0
270.0850	9.8
270.1247	15.5
270.2069	4.0

Name: 2'-Hydroxybenzophenone
PrecursorMZ: 197.06031
RT: 5.85365
ExactMass: 198.068079557
Spectrum_type: 2
charge: -1
Formula: C13H10O2
SMILES: C1=CC=C(C=C1)C(=O)C2=CC=CC=C2O
Method: HCD
Collision_energy: [28.333334]
Isolation_window: 4.0
Ion_mode: N
Num Peaks: 3
195.1384	4.8
197.0602	100.0
198.0635	13.9

Name: 2'-Methoxyformonetin
PrecursorMZ: 297.07596
RT: 7.2321
ExactMass: 298.08412354
Spectrum_type: 2
charge: -1
Formula: C17H14O5
SMILES: COC1=CC(=C(C=C1)C2=COC3=C(C2=O)C=CC(=C3)O)OC
Method: HCD
Collision_energy: [28.333334]
Isolation_window: 4.0
Ion_mode: N
Num Peaks: 10
183.0108	5.6
282.0525	5.4
283.0561	0.9
297.0797	7.8
297.1521	100.0
297.2428	1.2
298.0820	1.6
298.0852	0.7
298.1553	17.9
299.1490	2.7

Name: 2'-O-methylinosine
PrecursorMZ: 281.08902
RT: 2.1007
ExactMass: 282.09641956
Spectrum_type: 2
charge: -1
Formula: C11H14N4O5
SMILES: CO[C@@H]1[C@@H]([C@H](O[C@H]1N2C=NC3=C2N=CNC3=O)CO)O
Method: HCD
Collision_energy: [28.333334]
Isolation_window: 4.0
Ion_mode: N
Num Peaks: 7
88.9872	7.2
108.0194	9.2
164.0332	13.9
165.0410	71.0
191.0568	17.2
281.0890	100.0
282.0924	13.7

Name: 2,2',5'-Trihydroxychalcone
PrecursorMZ: 511.14031
RT: 4.8157
ExactMass: 256.07355886
Spectrum_type: 2
charge: -1
Formula: C15H12O4
SMILES: C1=CC=C(C(=C1)/C=C/C(=O)C2=C(C=CC(=C2)O)O)O
Method: HCD
Collision_energy: [28.333334]
Isolation_window: 4.0
Ion_mode: N
Num Peaks: 4
149.0238	23.8
255.0663	100.0
256.0698	14.8
510.1280	2.7

Name: 2,2'-Dihydroxy-4-methoxybenzophenone
PrecursorMZ: 243.06613
RT: 5.2383
ExactMass: 244.07355886
Spectrum_type: 2
charge: -1
Formula: C14H12O4
SMILES: COC1=CC(=C(C=C1)C(=O)C2=CC=CC=C2O)O
Method: HCD
Collision_energy: [28.333334]
Isolation_window: 4.0
Ion_mode: N
Num Peaks: 24
91.0179	1.6
93.0337	1.7
108.0206	1.3
109.0286	18.7
123.0444	1.3
133.0287	3.5
134.0234	1.3
135.0079	7.7
136.0161	2.3
149.0236	3.6
153.0187	3.9
173.1178	1.8
181.1592	2.7
199.0759	1.3
225.0552	3.8
225.1491	4.4
242.1758	14.7
243.0663	100.0
243.0927	7.3
243.1579	2.8
243.1803	1.8
244.0697	14.4
244.0960	1.8
245.0732	1.1

Name: 2,2'-Methylenebis(4-ethyl-6-tert-butylphenol)
PrecursorMZ: 367.26441
RT: 10.0352
ExactMass: 368.271530387
Spectrum_type: 2
charge: -1
Formula: C25H36O2
SMILES: CCC1=CC(=C(C(=C1)C(C)(C)C)O)CC2=C(C(=CC(=C2)CC)C(C)(C)C)O
Method: HCD
Collision_energy: [28.333334]
Isolation_window: 4.0
Ion_mode: N
Num Peaks: 4
177.1278	80.0
178.1313	9.8
367.2643	100.0
368.2675	27.8

Name: 2,2'-Methylenebis(4-methyl-6-tert-butylphenol)
PrecursorMZ: 339.2329
RT: 9.6919
ExactMass: 340.240230259
Spectrum_type: 2
charge: -1
Formula: C23H32O2
SMILES: CC1=CC(=C(C(=C1)C(C)(C)C)O)CC2=C(C(=CC(=C2)C)C(C)(C)C)O
Method: HCD
Collision_energy: [28.333334]
Isolation_window: 4.0
Ion_mode: N
Num Peaks: 5
163.1120	22.8
339.1993	100.0
339.2341	22.5
340.2025	22.9
340.2373	4.7

Name: 2,3,24-Trihydroxy-12-ursen-28-oic acid
PrecursorMZ: 487.34313
RT: 5.921
ExactMass: 488.35017463
Spectrum_type: 2
charge: -1
Formula: C30H48O5
SMILES: C[C@@H]1CC[C@@]2(CC[C@@]3(C(=CC[C@H]4[C@]3(CC[C@@H]5[C@@]4(C[C@H]([C@H]([C@]5(C)CO)O)O)C)C)[C@@H]2[C@H]1C)C)C(=O)O
Method: HCD
Collision_energy: [28.333334]
Isolation_window: 4.0
Ion_mode: N
Num Peaks: 9
54.1478	1.7
54.1507	4.0
96.9592	2.3
485.3182	3.0
486.3203	9.3
487.3432	100.0
488.3468	30.4
489.2852	3.7
489.3463	3.5

Name: 2,3-Bis((4-hydroxy-3-methoxyphenyl)methyl)butane-1,4-diol
PrecursorMZ: 361.166
RT: 4.0716
ExactMass: 362.17293854
Spectrum_type: 2
charge: -1
Formula: C20H26O6
SMILES: COC1=C(C=CC(=C1)CC(CO)C(CC2=CC(=C(C=C2)O)OC)CO)O
Method: HCD
Collision_energy: [28.333334]
Isolation_window: 4.0
Ion_mode: N
Num Peaks: 27
111.0442	3.2
113.0598	0.7
125.0600	1.5
127.0756	1.0
171.1019	1.1
181.0498	0.6
195.0655	0.8
201.1125	0.9
209.1175	0.9
249.1131	4.1
250.1164	2.0
251.1292	0.7
305.1398	1.5
345.1717	0.9
359.1518	1.1
359.2080	6.4
360.1526	2.0
360.2116	2.7
361.0920	0.9
361.1338	1.1
361.1665	23.9
361.2211	2.8
362.1684	5.6
363.0869	0.7
363.1065	0.7
363.1472	2.7
363.1815	100.0

Name: 2,3-Dihydro-5,7-dihydroxy-2-(4-hydroxyphenyl)-8-(3-methyl-2-buten-1-yl)-4H-1-benzopyran-4-one
PrecursorMZ: 339.1238
RT: 7.6053
ExactMass: 340.13107373
Spectrum_type: 2
charge: -1
Formula: C20H20O5
SMILES: CC(=CCC1=C2C(=C(C=C1O)O)C(=O)CC(O2)C3=CC=C(C=C3)O)C
Method: HCD
Collision_energy: [28.333334]
Isolation_window: 4.0
Ion_mode: N
Num Peaks: 20
93.0336	4.4
119.0494	34.6
120.0527	2.7
133.0650	6.8
151.0757	4.1
175.0758	5.5
176.0109	3.1
197.0265	1.6
219.0659	57.7
220.0693	7.3
233.0816	3.3
237.0761	1.4
245.0818	4.3
337.1828	1.6
339.1241	100.0
339.1995	84.2
340.1275	21.0
340.2027	17.4
341.1338	1.9
341.2049	1.9

Name: 2,3-Dihydroxy-3-methylbutanoic acid
PrecursorMZ: 133.0498
RT: 1.1000333333333334
ExactMass: 134.0579088
Spectrum_type: 2
charge: -1
Formula: C5H10O4
SMILES: CC(C)(C(C(=O)O)O)O
Method: HCD
Collision_energy: [28.333334]
Isolation_window: 4.0
Ion_mode: N
Num Peaks: 6
71.0129	81.7
87.0078	62.5
87.0442	10.1
89.0234	13.8
115.0025	10.4
133.0498	100.0

Name: 2,3-Dihydroxy-4-Methoxyacetophenone
PrecursorMZ: 181.05007
RT: 5.1012
ExactMass: 182.0579088
Spectrum_type: 2
charge: -1
Formula: C9H10O4
SMILES: CC(=O)C1=C(C(=C(C=C1)OC)O)O
Method: HCD
Collision_energy: [28.333334]
Isolation_window: 4.0
Ion_mode: N
Num Peaks: 23
63.9614	2.9
68.9948	5.1
79.9565	3.5
83.0242	3.2
90.9972	14.6
92.9191	3.1
92.9928	3.4
112.9847	13.9
116.0709	2.5
134.9871	48.7
135.9904	2.6
136.9088	2.9
136.9827	14.5
138.0315	2.6
139.0395	3.7
166.0264	66.8
167.0298	5.7
178.9772	10.5
179.0597	6.1
180.0316	4.4
180.9723	3.2
181.0500	100.0
182.0544	9.1

Name: 2,3-Dihydroxybenzoate
PrecursorMZ: 153.01844
RT: 2.1663
ExactMass: 153.01878364
Spectrum_type: 2
charge: -1
Formula: C7H5O4-
SMILES: C1=CC(=C(C(=C1)O)[O-])C(=O)O
Method: HCD
Collision_energy: [28.333334]
Isolation_window: 4.0
Ion_mode: N
Num Peaks: 30
65.0137	3.0
65.9976	7.7
66.0340	8.9
67.0292	7.8
68.0132	6.0
72.9921	9.0
81.0448	7.5
82.0288	5.8
83.0241	4.1
84.0081	3.0
84.0444	2.5
91.0292	7.4
95.0242	5.0
96.0081	2.9
98.0238	4.8
108.0205	3.3
109.0285	100.0
109.0391	4.5
110.0238	19.7
110.0321	5.6
111.0193	6.8
125.0346	10.0
126.0187	4.3
127.0506	2.5
134.0351	5.0
135.0192	4.3
152.0454	4.8
153.0186	27.2
153.0298	2.8
155.0356	6.7

Name: 2,4-Bis(2-ethylhexyl) hydrogen 1,2,4-benzenetricarboxylate
PrecursorMZ: 433.25971
RT: 6.1742
ExactMass: 434.26683893
Spectrum_type: 2
charge: -1
Formula: C25H38O6
SMILES: CCCCC(CC)COC(=O)C1=CC(=C(C=C1)C(=O)O)C(=O)OCC(CC)CCCC
Method: HCD
Collision_energy: [28.333334]
Isolation_window: 4.0
Ion_mode: N
Num Peaks: 13
61.9875	7.4
271.2069	1.3
289.2170	1.4
387.2544	10.2
388.2576	2.6
389.2713	1.0
405.2651	9.3
406.2681	2.6
407.2806	9.9
433.1362	0.8
433.2599	100.0
434.2633	27.9
435.2753	50.4

Name: 2,4-Diacetylphloroglucinol
PrecursorMZ: 209.04527
RT: 2.8722
ExactMass: 210.05282342
Spectrum_type: 2
charge: -1
Formula: C10H10O5
SMILES: CC(=O)C1=C(C(=C(C=C1O)O)C(=O)C)O
Method: HCD
Collision_energy: [28.333334]
Isolation_window: 4.0
Ion_mode: N
Num Peaks: 21
72.9922	23.1
94.0289	10.8
109.0161	6.9
119.0494	16.5
123.0318	13.3
123.0444	6.3
135.0443	5.7
147.0444	25.6
152.0106	9.0
163.0393	11.7
164.1071	6.9
165.0550	12.4
166.0866	6.8
167.0345	5.1
191.0345	100.0
192.0383	11.6
209.0452	52.0
210.0492	6.1
210.0757	6.2
211.0250	9.2
211.0616	5.4

Name: 2,4-Dihydroxy-6-(6alpha,10-dihydroxy-trans-1-undecenyl)benzoic acid mu-lactone
PrecursorMZ: 319.15519
RT: 7.0395
ExactMass: 320.16237386
Spectrum_type: 2
charge: -1
Formula: C18H24O5
SMILES: CC1CCCC(CCCC=CC2=C(C(=CC(=C2)O)O)C(=O)O1)O
Method: HCD
Collision_energy: [28.333334]
Isolation_window: 4.0
Ion_mode: N
Num Peaks: 15
229.1598	8.8
230.1633	1.5
231.1753	100.0
232.1787	17.2
239.1442	1.2
257.1549	5.9
258.1576	1.2
275.1657	5.3
301.1447	36.0
302.1479	6.8
317.1359	5.2
317.6355	2.1
319.1554	92.1
320.1587	17.8
321.1630	1.1

Name: 2,4-Dihydroxybenzophenone
PrecursorMZ: 213.05528
RT: 4.3788
ExactMass: 214.062994177
Spectrum_type: 2
charge: -1
Formula: C13H10O3
SMILES: C1=CC=C(C=C1)C(=O)C2=C(C=C(C=C2)O)O
Method: HCD
Collision_energy: [28.333334]
Isolation_window: 4.0
Ion_mode: N
Num Peaks: 4
213.0554	100.0
214.0582	13.8
214.1443	7.8
215.0096	22.7

Name: 2,4-Dihydroxyheptadec-16-enyl acetate
PrecursorMZ: 327.25413
RT: 7.6895
ExactMass: 328.26135963
Spectrum_type: 2
charge: -1
Formula: C19H36O4
SMILES: CC(=O)OCC(CC(CCCCCCCCCCCC=C)O)O
Method: HCD
Collision_energy: [28.333334]
Isolation_window: 4.0
Ion_mode: N
Num Peaks: 11
181.1227	11.7
183.0113	4.4
213.1491	12.6
277.2172	5.1
295.2279	5.6
325.1842	62.4
326.1875	100.0
327.1847	26.4
327.2537	60.0
328.1866	4.6
328.2570	12.4

Name: 2,4-Dihydroxyheptadec-16-ynyl acetate
PrecursorMZ: 325.23839
RT: 7.6715
ExactMass: 326.24570956
Spectrum_type: 2
charge: -1
Formula: C19H34O4
SMILES: CC(=O)OCC(CC(CCCCCCCCCCCC#C)O)O
Method: HCD
Collision_energy: [28.333334]
Isolation_window: 4.0
Ion_mode: N
Num Peaks: 10
171.1021	1.7
183.0111	2.0
197.0268	1.6
275.2017	1.3
309.1885	2.7
325.1842	100.0
325.2376	4.2
326.1875	19.8
327.1836	3.6
327.2531	3.8

Name: 2,4-Dihydroxyquinoline
PrecursorMZ: 160.0396
RT: 4.6476
ExactMass: 161.047678466
Spectrum_type: 2
charge: -1
Formula: C9H7NO2
SMILES: C1=CC=C2C(=C1)C(=CC(=O)N2)O
Method: HCD
Collision_energy: [28.333334]
Isolation_window: 4.0
Ion_mode: N
Num Peaks: 5
132.0452	17.7
159.0673	4.3
160.0402	100.0
160.8419	22.2
161.0442	10.6

Name: 2,4-Dinitrophenol
PrecursorMZ: 183.00411
RT: 5.5076
ExactMass: 184.01202123
Spectrum_type: 2
charge: -1
Formula: C6H4N2O5
SMILES: C1=CC(=C(C=C1[N+](=O)[O-])[N+](=O)[O-])O
Method: HCD
Collision_energy: [28.333334]
Isolation_window: 4.0
Ion_mode: N
Num Peaks: 7
83.0241	5.9
112.9846	15.4
123.0079	8.0
136.9827	6.3
153.0059	12.9
183.0041	100.0
184.0079	6.8

Name: 2,4-difluoro-N-(2-(4-((furan-2-ylmethyl)amino)-1H-pyrazolo(3,4-d)pyrimidin-1-yl)ethyl)benzamide
PrecursorMZ: 397.12348
RT: 7.6593
ExactMass: 398.1302801
Spectrum_type: 2
charge: -1
Formula: C19H16F2N6O2
SMILES: C1=COC(=C1)CNC2=C3C=NN(C3=NC=N2)CCNC(=O)C4=C(C=C(C=C4)F)F
Method: HCD
Collision_energy: [28.333334]
Isolation_window: 4.0
Ion_mode: N
Num Peaks: 4
309.1443	12.6
353.1340	24.9
397.1237	100.0
398.1269	22.2

Name: 2,4-dihydroxy-3-((E)-4-hydroxy-3-methyl-5-(1,2,6-trimethyl-3-oxocyclohexyl)pent-2-enyl)-6-methylbenzaldehyde
PrecursorMZ: 387.21805
RT: 9.0055
ExactMass: 388.22497412
Spectrum_type: 2
charge: -1
Formula: C23H32O5
SMILES: CC1CCC(=O)C(C1(C)CC(/C(=C/CC2=C(C=C(C(=C2O)C=O)C)O)/C)O)C
Method: HCD
Collision_energy: [28.333334]
Isolation_window: 4.0
Ion_mode: N
Num Peaks: 17
219.1385	4.0
231.1749	5.2
245.1912	3.4
271.2067	3.0
273.1861	5.0
285.2224	21.8
286.2261	4.3
297.2223	34.1
298.2257	6.8
315.2329	10.5
341.2121	13.8
342.2152	3.9
359.2959	9.2
387.2176	100.0
388.2210	24.1
389.2676	4.5
389.3066	20.1

Name: 2,4a,6a,6b,9,9,12a-Heptamethyl-10,13-dioxo-1,2,3,4,4a,5,6,6a,6b,7,8,8a,9,10,11,12,12a,12b,13,14b-icosahydro-picene-2-carboxylic acid
PrecursorMZ: 467.31636
RT: 10.689
ExactMass: 468.32395988
Spectrum_type: 2
charge: -1
Formula: C30H44O4
SMILES: CC1(C2CCC3(C(C2(CCC1=O)C)C(=O)C=C4C3(CCC5(C4CC(CC5)(C)C(=O)O)C)C)C)C
Method: HCD
Collision_energy: [28.333334]
Isolation_window: 4.0
Ion_mode: N
Num Peaks: 4
286.1933	69.9
287.1994	26.2
423.3273	53.0
467.3162	100.0

Name: 2,5-Diaminopentanoic Acid
PrecursorMZ: 131.07057
RT: 1.978
ExactMass: 132.08987763
Spectrum_type: 2
charge: -1
Formula: C5H12N2O2
SMILES: C(CC(C(=O)O)N)CN
Method: HCD
Collision_energy: [28.333334]
Isolation_window: 4.0
Ion_mode: N
Num Peaks: 7
71.0493	43.4
85.0649	100.0
87.0442	23.1
103.0025	15.8
130.0402	15.3
131.0350	16.1
131.0706	84.6

Name: 2,5-Dimethylbenzenesulfonic acid
PrecursorMZ: 185.02717
RT: 2.8921
ExactMass: 186.03506535
Spectrum_type: 2
charge: -1
Formula: C8H10O3S
SMILES: CC1=CC(=C(C=C1)C)S(=O)(=O)O
Method: HCD
Collision_energy: [28.333334]
Isolation_window: 4.0
Ion_mode: N
Num Peaks: 7
79.9562	4.7
112.9847	4.6
121.0650	3.6
185.0271	100.0
186.0304	10.1
187.0062	4.6
187.0965	3.6

Name: 2,7,8-Trimethyl-2-(beta-carboxyethyl)-6-hydroxychroman
PrecursorMZ: 263.12918
RT: 5.5455000000000005
ExactMass: 264.13615911
Spectrum_type: 2
charge: -1
Formula: C15H20O4
SMILES: CC1=C(C=C2CCC(OC2=C1C)(C)CCC(=O)O)O
Method: HCD
Collision_energy: [28.333334]
Isolation_window: 4.0
Ion_mode: N
Num Peaks: 14
99.0442	6.7
123.0443	8.0
149.0601	22.5
150.0681	9.4
151.0763	9.7
153.0916	9.0
219.1388	100.0
220.1419	14.6
233.1181	19.9
251.1286	6.9
262.1212	19.3
263.1290	54.6
264.1337	7.5
265.1494	17.8

Name: 2-(((4R)-4-((3R,5R,8R,9S,10S,13R,14S,17R)-3-hydroxy-10,13-dimethyl-2,3,4,5,6,7,8,9,11,12,14,15,16,17-tetradecahydro-1H-cyclopenta(a)phenanthren-17-yl)pentanoyl)amino)acetic acid
PrecursorMZ: 432.3114
RT: 7.0472
ExactMass: 433.31920885
Spectrum_type: 2
charge: -1
Formula: C26H43NO4
SMILES: CC(CCC(=O)NCC(=O)O)C1CCC2C1(CCC3C2CCC4C3(CCC(C4)O)C)C
Method: HCD
Collision_energy: [28.333334]
Isolation_window: 4.0
Ion_mode: N
Num Peaks: 6
74.0237	61.4
75.0272	1.5
388.3217	3.2
432.3116	100.0
433.3149	29.7
434.3163	3.8

Name: 2-((1H-Indol-2-YL)formamido)-N-((4-methoxyphenyl)methyl)-3-methylbutanamide
PrecursorMZ: 414.15969
RT: 7.2024
ExactMass: 379.18959167
Spectrum_type: 2
charge: -1
Formula: C22H25N3O3
SMILES: CC(C)[C@H](C(=O)NCC1=CC=C(C=C1)OC)NC(=O)C2=CC3=CC=CC=C3N2
Method: HCD
Collision_energy: [28.333334]
Isolation_window: 4.0
Ion_mode: N
Num Peaks: 21
59.0130	1.5
73.0109	13.5
75.0079	100.0
94.0290	10.9
100.0396	7.7
106.9800	4.4
140.0343	1.6
145.0863	5.3
172.0610	4.8
181.1052	6.6
183.1206	2.4
185.1180	6.1
209.1180	7.1
227.1288	5.0
279.1604	27.0
280.1638	4.5
287.1502	2.4
414.1596	26.0
415.1637	6.3
415.2325	5.1
416.1723	3.4

Name: 2-((1H-Indol-2-YL)formamido)-N-(2-(4-methoxyphenyl)ethyl)-3-methylbutanamide
PrecursorMZ: 392.19849
RT: 4.9153
ExactMass: 393.20524173
Spectrum_type: 2
charge: -1
Formula: C23H27N3O3
SMILES: CC(C)[C@H](C(=O)NCCC1=CC=C(C=C1)OC)NC(=O)C2=CC3=CC=CC=C3N2
Method: HCD
Collision_energy: [28.333334]
Isolation_window: 4.0
Ion_mode: N
Num Peaks: 20
99.0191	9.6
127.0505	6.2
135.0304	8.7
140.0710	5.2
155.0820	23.5
167.0820	11.1
169.0976	39.1
181.0981	4.2
210.0920	80.4
211.0951	12.7
222.0919	8.2
236.1079	5.9
243.1505	5.3
391.1235	4.3
392.1596	5.2
392.1992	100.0
393.1494	6.2
393.2020	27.2
393.2520	17.2
394.1397	6.0

Name: 2-((1R,2R)-3-oxo-2-((Z)-5-(3,4,5-trihydroxy-6-(hydroxymethyl)oxan-2-yl)oxypent-2-enyl)cyclopentyl)acetic acid
PrecursorMZ: 387.16628
RT: 3.0207
ExactMass: 388.17333247
Spectrum_type: 2
charge: -1
Formula: C18H28O9
SMILES: C1CC(=O)[C@@H]([C@H]1CC(=O)O)C/C=C\CCOC2C(C(C(C(O2)CO)O)O)O
Method: HCD
Collision_energy: [28.333334]
Isolation_window: 4.0
Ion_mode: N
Num Peaks: 15
59.0129	36.2
71.0129	8.7
89.0234	14.5
101.0234	10.5
113.0236	4.7
119.0341	7.6
130.0864	3.6
163.1119	5.4
207.1020	14.8
246.1139	3.9
350.1611	3.2
387.1661	100.0
387.2196	3.4
388.1690	20.1
389.1771	3.5

Name: 2-((1S,5S)-5-methyl-4-(3-oxobutyl)cyclohept-3-en-1-yl)prop-2-enoic acid
PrecursorMZ: 249.14932
RT: 8.6605
ExactMass: 250.15689456
Spectrum_type: 2
charge: -1
Formula: C15H22O3
SMILES: C[C@H]1CC[C@@H](CC=C1CCC(=O)C)C(=C)C(=O)O
Method: HCD
Collision_energy: [28.333334]
Isolation_window: 4.0
Ion_mode: N
Num Peaks: 3
205.1603	16.6
249.1503	100.0
250.1540	15.8

Name: 2-((2'R,8R,8As)-2',4,4,7,8a-pentamethylspiro(2,3,4a,5-tetrahydro-1H-naphthalene-8,5'-oxolane)-2'-yl)acetic acid
PrecursorMZ: 319.22729
RT: 10.2135
ExactMass: 320.23514488
Spectrum_type: 2
charge: -1
Formula: C20H32O3
SMILES: CC1=CCC2[C@@]([C@@]13CC[C@](O3)(C)CC(=O)O)(CCCC2(C)C)C
Method: HCD
Collision_energy: [28.333334]
Isolation_window: 4.0
Ion_mode: N
Num Peaks: 6
275.2375	100.0
276.2410	19.9
318.1582	4.2
319.2274	94.0
320.2306	18.3
321.2073	3.1

Name: 2-((2-(2,5-dimethylphenoxy)acetyl)amino)-3-(1H-indol-3-yl)propanoic acid
PrecursorMZ: 365.1508
RT: 5.7879
ExactMass: 366.15795719
Spectrum_type: 2
charge: -1
Formula: C21H22N2O4
SMILES: CC1=CC(=C(C=C1)C)OCC(=O)NC(CC2=CNC3=CC=CC=C32)C(=O)O
Method: HCD
Collision_energy: [28.333334]
Isolation_window: 4.0
Ion_mode: N
Num Peaks: 10
74.0238	17.3
98.0238	79.0
141.8675	9.3
160.0759	21.2
204.0661	66.6
236.0926	100.0
237.0960	15.9
363.9243	11.7
365.1508	80.3
366.1539	22.4

Name: 2-((2S,4aR,8aS)-2-hydroxy-4a-methyl-8-methylidene-3,4,5,6,7,8a-hexahydro-1H-naphthalen-2-yl)prop-2-enoic acid
PrecursorMZ: 249.14954
RT: 8.4639
ExactMass: 250.15689456
Spectrum_type: 2
charge: -1
Formula: C15H22O3
SMILES: C[C@]12CCCC(=C)[C@@H]1C[C@@](CC2)(C(=C)C(=O)O)O
Method: HCD
Collision_energy: [28.333334]
Isolation_window: 4.0
Ion_mode: N
Num Peaks: 6
184.0012	2.3
205.1592	17.1
206.1631	2.3
248.0800	5.2
249.1494	100.0
250.1529	15.4

Name: 2-((3-(1H-indol-3-yl)propanoyl)amino)butanoic acid
PrecursorMZ: 273.12474
RT: 4.8959
ExactMass: 274.13174244
Spectrum_type: 2
charge: -1
Formula: C15H18N2O3
SMILES: CCC(C(=O)O)NC(=O)CCC1=CNC2=CC=CC=C21
Method: HCD
Collision_energy: [28.333334]
Isolation_window: 4.0
Ion_mode: N
Num Peaks: 20
74.0238	47.6
86.0602	7.9
94.0289	17.6
98.0602	9.2
116.0497	10.4
124.0396	100.0
125.0430	7.2
126.0552	8.7
130.0655	1.9
144.0659	27.5
159.0923	3.5
203.0822	51.3
204.0857	6.2
229.1349	4.6
243.1137	2.1
272.0926	4.5
273.1007	2.3
273.1247	66.0
273.1683	7.9
274.1294	9.4

Name: 2-((3-Cyano-5-oxo-5,6,7,8-tetrahydroquinolin-2-YL)sulfanyl)-N-(4-phenyl-1,3-thiazol-2-YL)acetamide
PrecursorMZ: 419.06376
RT: 0.8623
ExactMass: 420.07146811
Spectrum_type: 2
charge: -1
Formula: C21H16N4O2S2
SMILES: C1CC2=C(C=C(C(=N2)SCC(=O)NC3=NC(=CS3)C4=CC=CC=C4)C#N)C(=O)C1
Method: HCD
Collision_energy: [28.333334]
Isolation_window: 4.0
Ion_mode: N
Num Peaks: 10
70.9451	7.5
72.9421	7.7
94.0167	9.1
96.0137	4.0
129.9936	74.5
131.9906	100.0
133.9876	13.6
225.0190	30.0
227.0161	82.5
229.0133	30.7

Name: 2-((3S)-3-hydroxy-4a,8-dimethyl-2,3,4,5,6,7-hexahydro-1H-naphthalen-2-yl)prop-2-enoic acid
PrecursorMZ: 249.14955
RT: 6.6022
ExactMass: 250.15689456
Spectrum_type: 2
charge: -1
Formula: C15H22O3
SMILES: CC1=C2CC([C@H](CC2(CCC1)C)O)C(=C)C(=O)O
Method: HCD
Collision_energy: [28.333334]
Isolation_window: 4.0
Ion_mode: N
Num Peaks: 7
184.0011	8.2
231.1386	10.1
248.0797	18.0
248.5814	6.4
249.0563	8.7
249.1495	100.0
250.1529	16.2

Name: 2-(1,3-benzothiazol-2-yl)-5-(2-(4-methoxyphenyl)ethyl)-4-methyl-1H-pyrazolo(4,3-c)pyridine-3,6-dione
PrecursorMZ: 431.11861
RT: 3.009
ExactMass: 432.12561169
Spectrum_type: 2
charge: -1
Formula: C23H20N4O3S
SMILES: CC1=C2C(=CC(=O)N1CCC3=CC=C(C=C3)OC)NN(C2=O)C4=NC5=CC=CC=C5S4
Method: HCD
Collision_energy: [28.333334]
Isolation_window: 4.0
Ion_mode: N
Num Peaks: 23
59.0128	3.3
71.0128	5.1
85.0283	7.0
87.0076	2.6
88.9870	2.5
89.0233	2.4
91.0389	2.3
111.0076	2.6
113.0233	7.3
123.0440	15.0
153.0181	6.0
167.0339	100.0
168.0374	8.3
191.0552	2.2
227.0553	4.6
241.0711	5.0
263.0766	16.5
281.0875	4.8
355.1029	4.8
399.0924	6.3
431.1186	65.0
432.1220	13.2
433.1163	4.2

Name: 2-(1,3-dimethyl-8-((3-methylbutyl)amino)-2,6-dioxo-1,2,3,6-tetrahydro-7H-purin-7-yl)-N-(3-methylbutyl)acetamide
PrecursorMZ: 391.24616
RT: 8.2054
ExactMass: 392.2535889
Spectrum_type: 2
charge: -1
Formula: C19H32N6O3
SMILES: CC(C)CCNC1=NC2=C(N1CC(=O)NCCC(C)C)C(=O)N(C(=O)N2C)C
Method: HCD
Collision_energy: [28.333334]
Isolation_window: 4.0
Ion_mode: N
Num Peaks: 5
323.2588	100.0
324.2622	20.4
391.2451	45.9
391.2876	7.3
392.2493	12.0

Name: 2-(1-(4-(diethylamino)phenyl)-4a-hydroxyoctahydroisoquinolin-2(1H)-yl)-N-(4-methoxyphenyl)acetamide
PrecursorMZ: 500.26942
RT: 4.5861
ExactMass: 465.29914211
Spectrum_type: 2
charge: -1
Formula: C28H39N3O3
SMILES: CCN(CC)C1=CC=C(C=C1)C2C3CCCCC3(CCN2CC(=O)NC4=CC=C(C=C4)OC)O
Method: HCD
Collision_energy: [28.333334]
Isolation_window: 4.0
Ion_mode: N
Num Peaks: 12
55.5841	1.9
55.5871	4.7
55.6955	0.5
55.6986	1.2
96.9592	0.7
124.0068	0.7
499.2670	0.5
500.1173	0.6
500.2698	100.0
500.4226	0.6
501.2733	27.7
502.2712	6.7

Name: 2-(14-Methylpentadecanoylamino)-3-phenylpropanoic acid
PrecursorMZ: 402.30156
RT: 9.852905263157895
ExactMass: 403.30864417
Spectrum_type: 2
charge: -1
Formula: C25H41NO3
SMILES: CC(C)CCCCCCCCCCCCC(=O)NC(CC1=CC=CC=C1)C(=O)O
Method: HCD
Collision_energy: [28.333334]
Isolation_window: 4.0
Ion_mode: N
Num Peaks: 10
91.0543	4.6
147.0443	18.6
164.0710	71.1
165.0744	6.0
254.2490	14.3
255.2524	3.0
266.2494	4.0
402.3017	100.0
403.3057	26.5
404.3086	3.6

Name: 2-(2,4-Dihydroxyphenyl)-5,7-dihydroxy-8-(5-hydroxy-5-methyl-2-prop-1-en-2-ylhexyl)-2,3-dihydrochromen-4-one
PrecursorMZ: 441.19201
RT: 7.3514
ExactMass: 442.19915329
Spectrum_type: 2
charge: -1
Formula: C25H30O7
SMILES: CC(=C)C(CCC(C)(C)O)CC1=C2C(=C(C=C1O)O)C(=O)CC(O2)C3=C(C=C(C=C3)O)O
Method: HCD
Collision_energy: [28.333334]
Isolation_window: 4.0
Ion_mode: N
Num Peaks: 10
61.9875	1.1
161.0237	100.0
162.0270	8.8
395.1864	18.0
396.1898	5.0
413.1972	3.2
414.2004	0.8
441.1929	5.2
441.2525	0.8
442.1979	1.3

Name: 2-(2,4-Dimethoxyphenyl)-5-hydroxy-7,8-dimethoxyflavone
PrecursorMZ: 357.09818
RT: 4.777
ExactMass: 358.10525291
Spectrum_type: 2
charge: -1
Formula: C19H18O7
SMILES: COC1=CC(=C(C=C1)C2=CC(=O)C3=C(O2)C(=C(C=C3O)OC)OC)OC
Method: HCD
Collision_energy: [28.333334]
Isolation_window: 4.0
Ion_mode: N
Num Peaks: 10
109.0285	3.3
121.0287	9.6
296.0693	3.9
297.0768	100.0
298.0802	20.0
309.0774	3.5
327.0873	49.8
328.0904	8.9
357.1015	9.6
358.1676	2.9

Name: 2-(2-((Z)-pent-2-enyl)-3-(3,4,5-trihydroxy-6-(hydroxymethyl)oxan-2-yl)oxycyclopentyl)acetic acid
PrecursorMZ: 373.18686
RT: 5.0451
ExactMass: 374.19406791
Spectrum_type: 2
charge: -1
Formula: C18H30O8
SMILES: CC/C=C\CC1C(CCC1OC2C(C(C(C(O2)CO)O)O)O)CC(=O)O
Method: HCD
Collision_energy: [28.333334]
Isolation_window: 4.0
Ion_mode: N
Num Peaks: 21
79.9564	13.5
80.9643	8.8
96.9592	3.4
101.0234	53.7
171.1019	6.1
209.1542	8.3
223.0610	5.4
227.1648	15.5
228.1681	3.0
271.1550	28.7
272.1588	4.2
355.1757	8.1
371.1977	9.5
371.2456	4.4
372.1547	3.5
372.2016	4.4
373.1866	100.0
373.2584	24.9
374.1920	18.8
374.2621	6.4
375.1866	16.6

Name: 2-(2-Acetyl-3-hydroxy-5-methoxyphenyl)acetic acid
PrecursorMZ: 223.06014
RT: 3.0073
ExactMass: 224.06847348
Spectrum_type: 2
charge: -1
Formula: C11H12O5
SMILES: CC(=O)C1=C(C=C(C=C1O)OC)CC(=O)O
Method: HCD
Collision_energy: [28.333334]
Isolation_window: 4.0
Ion_mode: N
Num Peaks: 71
57.0336	3.9
58.0288	4.7
59.0128	13.2
71.0126	2.2
72.9921	3.2
74.0236	7.2
78.9670	4.1
87.0076	6.3
93.0334	3.1
95.0490	2.1
98.0236	2.3
99.0075	2.4
105.0181	2.2
107.0490	3.1
108.0206	3.2
108.0442	6.4
109.0283	17.1
109.0648	2.5
113.0233	4.7
115.0389	6.8
116.0342	2.6
119.0491	2.9
121.0283	16.9
122.0601	3.0
123.0440	55.6
123.0554	6.8
124.0392	3.3
124.0473	4.2
134.0599	4.0
135.0441	9.9
136.0756	3.1
137.0236	4.8
137.0597	28.3
137.0956	2.2
144.0441	2.9
149.0596	2.6
151.0504	2.2
151.0755	3.0
152.0166	2.6
152.0342	2.6
161.0597	14.7
162.0545	5.5
163.0390	13.8
163.0868	2.4
164.0337	4.7
164.0468	29.5
165.0504	2.6
165.0545	13.4
177.0539	2.8
178.0493	3.2
178.0862	18.8
179.0702	100.0
179.1168	2.6
180.0117	6.8
180.0646	7.6
180.0756	8.8
180.1008	2.8
181.0495	25.9
188.0340	8.8
193.0128	2.1
205.0497	5.8
206.0441	2.5
222.0762	7.6
223.0600	53.0
224.0556	23.8
224.0635	3.1
224.0894	6.6
224.0921	2.9
225.0400	11.6
225.0762	8.7
225.1120	1.9

Name: 2-(2-hydroxybut-3-en-2-yl)-3a,6,6,9a-tetramethyl-2,4,5,5a,7,8,9,9b-octahydro-1H-benzo(e)(1)benzofuran-4,5-diol
PrecursorMZ: 337.2385
RT: 7.2346
ExactMass: 338.24570956
Spectrum_type: 2
charge: -1
Formula: C20H34O4
SMILES: CC1(CCCC2(C1C(C(C3(C2CC(O3)C(C)(C=C)O)C)O)O)C)C
Method: HCD
Collision_energy: [28.333334]
Isolation_window: 4.0
Ion_mode: N
Num Peaks: 13
59.0129	6.5
87.0443	4.3
99.0806	7.7
129.0912	23.0
207.1386	51.8
208.1421	8.2
223.1698	12.1
293.2124	6.5
311.2228	31.0
319.2284	5.7
337.2385	100.0
338.2419	21.0
339.1990	29.6

Name: 2-(3,4-dihydro-2H-1,5-benzodioxepin-7-yl)-N-(3-isopentyl-4-oxo-3,4-dihydro-6-quinazolinyl)acetamide
PrecursorMZ: 466.19811
RT: 5.7413
ExactMass: 421.20015635
Spectrum_type: 2
charge: -1
Formula: C24H27N3O4
SMILES: CC(C)CCN1C=NC2=C(C1=O)C=C(C=C2)NC(=O)CC3=CC4=C(C=C3)OCCCO4
Method: HCD
Collision_energy: [28.333334]
Isolation_window: 4.0
Ion_mode: N
Num Peaks: 5
255.1496	55.7
350.1873	43.9
378.2202	39.2
422.2089	74.4
466.1986	100.0

Name: 2-(3-((E)-6-acetyloxy-2-hydroxy-6-methyl-3-oxohept-4-en-2-yl)-6-(carboxymethyl)-2-hydroxy-3a,5a,9b-trimethyl-5-oxo-2,3,4,6,9,9a-hexahydro-1H-cyclopenta(a)naphthalen-7-yl)-2-methylpropanoic acid
PrecursorMZ: 589.30228
RT: 4.988300000000001
ExactMass: 590.30909766
Spectrum_type: 2
charge: -1
Formula: C32H46O10
SMILES: CC(=O)OC(C)(C)/C=C/C(=O)C(C)(C1C(CC2(C1(CC(=O)C3(C2CC=C(C3CC(=O)O)C(C)(C)C(=O)O)C)C)C)O)O
Method: HCD
Collision_energy: [28.333334]
Isolation_window: 4.0
Ion_mode: N
Num Peaks: 32
61.9873	5.2
69.0434	5.0
97.0157	8.4
120.0807	88.9
121.0841	5.8
123.0680	4.6
124.0756	36.3
134.0964	5.1
152.0708	5.3
164.0706	29.8
243.1495	32.6
245.1651	17.0
251.1548	10.9
252.1608	4.8
253.1703	27.3
254.1741	5.0
255.1495	8.5
257.1653	12.7
287.1391	4.8
289.1551	19.9
291.1706	4.9
341.1492	8.2
376.2391	24.8
377.2429	8.8
378.2528	7.0
420.2288	11.1
545.3124	49.0
546.3162	14.4
547.3249	8.8
589.3021	100.0
590.3049	31.7
591.3156	18.7

Name: 2-(3-(2,4'-Dihydroxy-3,6-dimethoxy-(1,1'-biphenyl)-4-yl)-5-oxo-2,5-dihydrofuran-2-yl)acetic acid
PrecursorMZ: 385.09248
RT: 3.99318
ExactMass: 386.10016753
Spectrum_type: 2
charge: -1
Formula: C20H18O8
SMILES: COC1=C(C(=C(C(=C1)C2=CC(=O)OC2CC(=O)O)OC)O)C3=CC=C(C=C3)O
Method: HCD
Collision_energy: [28.333334]
Isolation_window: 4.0
Ion_mode: N
Num Peaks: 17
267.0662	14.6
281.0813	10.0
282.0890	25.9
283.0957	10.4
317.1498	6.1
325.0725	6.8
326.0789	12.9
339.1317	12.3
341.1028	17.0
343.1192	10.3
370.0699	6.6
384.1690	7.6
385.0927	100.0
385.1822	12.2
386.0949	20.5
387.1078	5.9
387.2032	8.3

Name: 2-(3-(6-acetyloxy-2-hydroxy-6-methyl-3-oxoheptan-2-yl)-6-(carboxymethyl)-2-hydroxy-3a,5a,9b-trimethyl-5-oxo-2,3,4,6,9,9a-hexahydro-1H-cyclopenta(a)naphthalen-7-yl)-2-methylpropanoic acid
PrecursorMZ: 591.31834
RT: 4.96
ExactMass: 592.32474772
Spectrum_type: 2
charge: -1
Formula: C32H48O10
SMILES: CC(=O)OC(C)(C)CCC(=O)C(C)(C1C(CC2(C1(CC(=O)C3(C2CC=C(C3CC(=O)O)C(C)(C)C(=O)O)C)C)C)O)O
Method: HCD
Collision_energy: [28.333334]
Isolation_window: 4.0
Ion_mode: N
Num Peaks: 11
120.0809	49.5
124.0757	54.7
245.1656	53.8
247.1807	27.7
259.1814	34.8
291.1711	80.8
547.3285	53.7
549.3438	50.8
591.3182	100.0
592.3214	43.2
593.3338	86.6

Name: 2-(4,5-dihydroxy-7,7a-dimethyl-2-oxo-5,6,7,7b-tetrahydro-4H-naphtho(1,2-b)oxiren-1a-yl)prop-2-enyl 2,3,4-trihydroxybutanoate
PrecursorMZ: 397.15068
RT: 2.4284
ExactMass: 398.1576824
Spectrum_type: 2
charge: -1
Formula: C19H26O9
SMILES: CC1CC(C(C2=CC(=O)C3(C(C12C)O3)C(=C)COC(=O)C(C(CO)O)O)O)O
Method: HCD
Collision_energy: [28.333334]
Isolation_window: 4.0
Ion_mode: N
Num Peaks: 15
88.9869	4.5
128.0345	5.7
154.0617	6.5
219.1026	5.1
231.1385	12.0
249.1494	28.4
275.1281	6.4
293.1394	30.8
337.1294	100.0
338.1329	18.2
381.0976	10.6
396.1719	7.4
397.1509	67.4
398.1550	17.7
399.1513	6.8

Name: 2-(4-((1-methyl-1H-1,3-benzodiazol-2-yl)methyl)piperazin-1-yl)-N-(4-(trifluoromethoxy)phenyl)acetamide
PrecursorMZ: 446.18071
RT: 6.1405
ExactMass: 447.18820951
Spectrum_type: 2
charge: -1
Formula: C22H24F3N5O2
SMILES: CN1C2=CC=CC=C2N=C1CN3CCN(CC3)CC(=O)NC4=CC=C(C=C4)OC(F)(F)F
Method: HCD
Collision_energy: [28.333334]
Isolation_window: 4.0
Ion_mode: N
Num Peaks: 38
69.0940	1.0
71.0125	1.1
74.0235	1.2
88.0391	5.9
100.0027	1.0
115.0022	1.3
116.0704	1.3
128.0340	1.7
131.0813	1.3
163.0387	4.6
164.0464	2.3
165.0543	2.5
167.0699	1.2
206.0571	1.3
207.0651	8.6
208.0591	2.5
208.0962	1.3
210.1120	2.4
269.1536	4.5
282.1336	1.5
287.1646	1.8
312.1594	0.9
313.1420	1.0
330.1704	2.1
365.2829	0.9
374.1596	4.8
375.1635	1.1
399.3219	9.6
400.3258	2.5
402.1904	1.5
418.1861	1.0
445.2928	1.9
445.2956	2.7
446.1806	100.0
446.2828	2.0
447.1840	25.3
448.1834	3.7
448.3063	2.2

Name: 2-(4-((Bis((1-tert-butyl-1H-1,2,3-triazol-4-yl)methyl)amino)methyl)-1H-1,2,3-triazol-1-yl)acetic acid
PrecursorMZ: 429.24753
RT: 7.4824
ExactMass: 430.25532024
Spectrum_type: 2
charge: -1
Formula: C19H30N10O2
SMILES: CC(C)(C)N1C=C(N=N1)CN(CC2=CN(N=N2)CC(=O)O)CC3=CN(N=N3)C(C)(C)C
Method: HCD
Collision_energy: [28.333334]
Isolation_window: 4.0
Ion_mode: N
Num Peaks: 6
291.1957	30.8
385.2325	17.5
429.2540	50.1
429.3036	32.4
431.2736	53.7
431.3162	100.0

Name: 2-(4-(4-(4-(Hydroxydiphenylmethyl)piperidin-1-yl)butanoyl)phenyl)-2-methylpropanoic acid
PrecursorMZ: 498.26452
RT: 6.4558
ExactMass: 499.27225866
Spectrum_type: 2
charge: -1
Formula: C32H37NO4
SMILES: CC(C)(C1=CC=C(C=C1)C(=O)CCCN2CCC(CC2)C(C3=CC=CC=C3)(C4=CC=CC=C4)O)C(=O)O
Method: HCD
Collision_energy: [28.333334]
Isolation_window: 4.0
Ion_mode: N
Num Peaks: 10
376.2281	52.0
454.2747	48.5
455.2786	15.7
456.2901	17.8
497.2927	43.8
497.3493	54.3
498.2859	13.9
498.3645	17.3
499.3097	100.0
500.3157	17.7

Name: 2-(4-chlorobenzyl)-1-(4-methoxyphenyl)-2,3,4,9-tetrahydro-1H-beta-carboline
PrecursorMZ: 401.14262
RT: 9.1528
ExactMass: 402.1498911
Spectrum_type: 2
charge: -1
Formula: C25H23ClN2O
SMILES: COC1=CC=C(C=C1)C2C3=C(CCN2CC4=CC=C(C=C4)Cl)C5=CC=CC=C5N3
Method: HCD
Collision_energy: [28.333334]
Isolation_window: 4.0
Ion_mode: N
Num Peaks: 4
126.8803	31.6
357.1891	51.3
365.1667	58.3
403.0900	100.0

Name: 2-(4-hydroxy-3-methoxyphenyl)-N-(2-(4-hydroxyphenyl)ethyl)-5-((E)-3-(2-(4-hydroxyphenyl)ethylamino)-3-oxoprop-1-enyl)-7-methoxy-2,3-dihydro-1-benzofuran-3-carboxamide
PrecursorMZ: 623.23853
RT: 6.1744
ExactMass: 624.24716611
Spectrum_type: 2
charge: -1
Formula: C36H36N2O8
SMILES: COC1=CC(=CC2=C1OC(C2C(=O)NCCC3=CC=C(C=C3)O)C4=CC(=C(C=C4)O)OC)/C=C/C(=O)NCCC5=CC=C(C=C5)O
Method: HCD
Collision_energy: [28.333334]
Isolation_window: 4.0
Ion_mode: N
Num Peaks: 20
61.9873	9.3
68.9907	9.9
108.0205	13.8
282.0892	20.7
283.0964	10.7
297.1124	64.5
298.1073	11.2
298.1131	10.3
402.1345	16.9
413.1265	8.7
428.1483	15.5
430.1281	17.4
432.1823	56.2
433.1847	14.2
445.1522	20.0
460.1757	49.4
461.1796	10.6
471.1542	14.5
623.2385	100.0
624.2411	30.9

Name: 2-(4-hydroxyphenyl)-7-((2S,3R,4S,5S,6R)-3,4,5-trihydroxy-6-(hydroxymethyl)oxan-2-yl)oxy-2,3-dihydrochromen-4-one
PrecursorMZ: 417.11923
RT: 5.24
ExactMass: 418.12638228
Spectrum_type: 2
charge: -1
Formula: C21H22O9
SMILES: C1C(OC2=C(C1=O)C=CC(=C2)O[C@H]3[C@@H]([C@H]([C@@H]([C@H](O3)CO)O)O)O)C4=CC=C(C=C4)O
Method: HCD
Collision_energy: [28.333334]
Isolation_window: 4.0
Ion_mode: N
Num Peaks: 5
179.0707	6.0
208.0372	29.0
223.0608	100.0
224.0639	10.4
417.1181	7.3

Name: 2-(4a-Methyl-8-methylidene-4-(3-methylpentanoyloxy)-1,2,3,4,5,6,7,8a-octahydronaphthalen-2-yl)prop-2-enoic acid
PrecursorMZ: 347.22277
RT: 7.7351
ExactMass: 348.2300595
Spectrum_type: 2
charge: -1
Formula: C21H32O4
SMILES: CCC(C)CC(=O)OC1CC(CC2C1(CCCC2=C)C)C(=C)C(=O)O
Method: HCD
Collision_energy: [28.333334]
Isolation_window: 4.0
Ion_mode: N
Num Peaks: 7
150.0678	12.6
163.0757	68.5
164.0792	6.3
183.1389	4.2
345.2437	6.2
347.2227	100.0
348.2263	25.4

Name: 2-(5-(2-((2-(5-(2-Oxopropyl)tetrahydrofuran-2-yl)propanoyl)oxy)butyl)tetrahydrofuran-2-yl)propanoic acid
PrecursorMZ: 397.22371
RT: 4.7463
ExactMass: 398.23045342
Spectrum_type: 2
charge: -1
Formula: C21H34O7
SMILES: CCC(CC1CCC(O1)C(C)C(=O)O)OC(=O)C(C)C2CCC(O2)CC(=O)C
Method: HCD
Collision_energy: [28.333334]
Isolation_window: 4.0
Ion_mode: N
Num Peaks: 33
99.0805	6.1
125.0599	6.1
131.0708	4.1
139.0757	3.9
179.0704	5.0
195.0657	26.2
196.0692	6.4
207.1022	6.7
223.1337	7.2
225.1492	4.4
251.1282	6.5
263.1287	13.2
264.1323	6.9
265.1447	20.0
266.1483	5.0
269.1397	10.8
271.1549	5.1
281.1399	5.0
283.1544	8.5
321.1700	4.8
339.1811	12.1
351.2183	4.6
363.1814	9.9
364.1853	6.0
379.2140	7.4
395.2072	100.0
396.2108	81.6
397.1721	16.7
397.2213	94.5
398.1703	5.5
398.2262	19.4
399.1861	6.0
399.2371	8.2

Name: 2-(5-(2-(2-(5-(2-Hydroxybutyl)oxolan-2-yl)propanoyloxy)butyl)oxolan-2-yl)propanoic acid
PrecursorMZ: 413.2544
RT: 4.9275
ExactMass: 414.26175355
Spectrum_type: 2
charge: -1
Formula: C22H38O7
SMILES: CCC(CC1CCC(O1)C(C)C(=O)OC(CC)CC2CCC(O2)C(C)C(=O)O)O
Method: HCD
Collision_energy: [28.333334]
Isolation_window: 4.0
Ion_mode: N
Num Peaks: 5
367.2491	12.6
412.1810	16.2
413.1979	12.5
413.2540	100.0
414.2566	25.8

Name: 2-(5-(2-(2-(5-(2-Hydroxypropyl)oxolan-2-yl)propanoyloxy)propyl)oxolan-2-yl)propanoic acid
PrecursorMZ: 385.22362
RT: 5.8867
ExactMass: 386.23045342
Spectrum_type: 2
charge: -1
Formula: C20H34O7
SMILES: CC(CC1CCC(O1)C(C)C(=O)OC(C)CC2CCC(O2)C(C)C(=O)O)O
Method: HCD
Collision_energy: [28.333334]
Isolation_window: 4.0
Ion_mode: N
Num Peaks: 15
74.0060	5.2
131.0706	6.6
159.1022	7.4
181.1227	6.6
209.1367	18.3
235.1523	13.7
305.2122	4.3
323.2223	5.7
341.2349	5.1
367.2122	15.0
383.2065	11.0
384.1778	12.5
385.2236	100.0
386.2268	20.2
387.2403	17.2

Name: 2-(5-(Cyclohex-3-ene-1-carbonyl)-octahydropyrrolo(3,4-c)pyrrol-2-yl)-6-ethyl-5-fluoro-3,4-dihydropyrimidin-4-one
PrecursorMZ: 359.18882
RT: 5.9475999999999996
ExactMass: 360.19615422
Spectrum_type: 2
charge: -1
Formula: C19H25FN4O2
SMILES: CCC1=C(C(=O)NC(=N1)N2CC3CN(CC3C2)C(=O)C4CCC=CC4)F
Method: HCD
Collision_energy: [28.333334]
Isolation_window: 4.0
Ion_mode: N
Num Peaks: 8
79.9562	100.0
81.9520	2.3
197.1170	3.6
359.1890	53.8
359.2797	3.4
360.1914	11.2
361.1892	2.1
361.2054	9.0

Name: 2-(6-hydroxy-2-(4-hydroxy-3-methoxyphenyl)-3-azabicyclo(4.4.0)dec-3-yl)-N-naph thylacetamide
PrecursorMZ: 459.22894
RT: 7.461
ExactMass: 460.23620751
Spectrum_type: 2
charge: -1
Formula: C28H32N2O4
SMILES: COC1=C(C=CC(=C1)C2C3CCCCC3(CCN2CC(=O)NC4=CC=CC5=CC=CC=C54)O)O
Method: HCD
Collision_energy: [28.333334]
Isolation_window: 4.0
Ion_mode: N
Num Peaks: 5
191.1064	17.4
311.1676	10.1
312.1704	14.9
459.2289	100.0
460.2324	29.2

Name: 2-(7,8-Dihydroxy-4a,8-dimethyl-1,2,3,4,5,6,7,8a-octahydronaphthalen-2-yl)prop-2-enoic acid
PrecursorMZ: 267.16044
RT: 6.3349
ExactMass: 268.16745924
Spectrum_type: 2
charge: -1
Formula: C15H24O4
SMILES: CC12CCC(CC1C(C(CC2)O)(C)O)C(=C)C(=O)O
Method: HCD
Collision_energy: [28.333334]
Isolation_window: 4.0
Ion_mode: N
Num Peaks: 14
96.9593	6.8
205.1594	7.0
223.1701	100.0
224.1735	13.8
240.0430	7.1
241.0507	9.2
249.1500	5.7
265.1486	13.9
267.1603	66.2
267.1960	12.5
268.1656	11.6
269.0454	23.0
269.1213	10.0
269.1762	7.0

Name: 2-(7-Hydroxy-4-methyloctoxy)carbonylbenzoic acid
PrecursorMZ: 307.15412
RT: 6.3665
ExactMass: 308.16237386
Spectrum_type: 2
charge: -1
Formula: C17H24O5
SMILES: CC(CCCOC(=O)C1=CC=CC=C1C(=O)O)CCC(C)O
Method: HCD
Collision_energy: [28.333334]
Isolation_window: 4.0
Ion_mode: N
Num Peaks: 10
103.9190	6.5
121.0280	7.0
146.9375	9.0
220.1095	71.2
221.1131	9.1
235.1331	100.0
236.1363	15.4
236.8780	5.0
280.8681	6.2
307.1554	16.8

Name: 2-(7-Hydroxyoctyl)pentanedioic acid
PrecursorMZ: 259.15502
RT: 5.03185
ExactMass: 260.16237386
Spectrum_type: 2
charge: -1
Formula: C13H24O5
SMILES: CC(CCCCCCC(CCC(=O)O)C(=O)O)O
Method: HCD
Collision_energy: [28.333334]
Isolation_window: 4.0
Ion_mode: N
Num Peaks: 12
59.0130	26.8
187.0986	9.5
197.1542	34.2
199.1335	100.0
200.1368	12.3
241.1444	13.8
242.1059	20.9
243.1091	10.0
257.1292	45.1
258.1328	22.4
259.1551	93.2
260.1590	15.2

Name: 2-(7-hydroxy-4,8-dimethyl-2-oxochromen-3-yl)-N-(3-morpholin-4-ylpropyl)acetamide
PrecursorMZ: 373.1766
RT: 4.2059
ExactMass: 374.18417193
Spectrum_type: 2
charge: -1
Formula: C20H26N2O5
SMILES: CC1=C(C(=O)OC2=C1C=CC(=C2C)O)CC(=O)NCCCN3CCOCC3
Method: HCD
Collision_energy: [28.333334]
Isolation_window: 4.0
Ion_mode: N
Num Peaks: 7
200.0710	100.0
201.0746	13.1
226.0867	36.4
329.1504	91.6
330.1544	18.5
355.1666	32.7
373.1762	11.2

Name: 2-(8-Hydroxyoctyl)-6-methoxybenzoic acid
PrecursorMZ: 279.15898
RT: 6.9996
ExactMass: 280.16745924
Spectrum_type: 2
charge: -1
Formula: C16H24O4
SMILES: COC1=CC=CC(=C1C(=O)O)CCCCCCCCO
Method: HCD
Collision_energy: [28.333334]
Isolation_window: 4.0
Ion_mode: N
Num Peaks: 11
116.0708	11.2
121.0286	31.9
151.0757	100.0
152.0793	9.8
178.0993	9.6
207.1381	11.6
235.1700	57.7
236.1734	10.7
277.1448	8.9
279.1597	29.4
281.1430	9.3

Name: 2-Acetoxy-6-pentadecylbenzoic acid
PrecursorMZ: 389.26992
RT: 7.1353
ExactMass: 390.27700969
Spectrum_type: 2
charge: -1
Formula: C24H38O4
SMILES: CCCCCCCCCCCCCCCC1=C(C(=CC=C1)OC(=O)C)C(=O)O
Method: HCD
Collision_energy: [28.333334]
Isolation_window: 4.0
Ion_mode: N
Num Peaks: 9
343.2642	9.2
344.2676	2.3
345.2793	1.7
387.2543	8.1
388.2579	4.1
389.2698	100.0
390.2732	25.3
391.2856	31.1
409.2960	1.6

Name: 2-Acetylhydroquinone
PrecursorMZ: 151.03947
RT: 2.6146
ExactMass: 152.047344113
Spectrum_type: 2
charge: -1
Formula: C8H8O3
SMILES: CC(=O)C1=C(C=CC(=C1)O)O
Method: HCD
Collision_energy: [28.333334]
Isolation_window: 4.0
Ion_mode: N
Num Peaks: 11
81.0336	2.7
85.0286	8.4
95.0130	9.5
107.0494	9.4
108.0208	45.2
109.0286	100.0
110.0239	2.0
123.0080	8.1
151.0394	10.7
152.0109	10.6
153.0187	71.9

Name: 2-Aminophenol
PrecursorMZ: 108.04467
RT: 2.6274
ExactMass: 109.052763847
Spectrum_type: 2
charge: -1
Formula: C6H7NO
SMILES: C1=CC=C(C(=C1)N)O
Method: HCD
Collision_energy: [28.333334]
Isolation_window: 4.0
Ion_mode: N
Num Peaks: 17
58.0290	5.7
64.0184	7.3
65.0137	53.0
65.9977	19.5
67.0293	67.3
68.0134	4.3
79.0293	8.0
82.0289	18.9
106.0402	64.1
107.0247	8.8
107.0361	25.1
107.0436	6.4
108.0199	8.1
108.0447	100.0
109.0286	23.5
109.0399	34.4
109.0479	6.5

Name: 2-Dec-9-enyl-3-hydroxypentanedioic acid
PrecursorMZ: 285.17066
RT: 2.9277
ExactMass: 286.17802393
Spectrum_type: 2
charge: -1
Formula: C15H26O5
SMILES: C=CCCCCCCCCC(C(CC(=O)O)O)C(=O)O
Method: HCD
Collision_energy: [28.333334]
Isolation_window: 4.0
Ion_mode: N
Num Peaks: 15
87.0077	0.5
101.0598	1.0
113.0963	1.3
139.0759	0.7
139.1121	0.8
141.0911	0.6
157.1224	0.8
193.1592	0.6
241.1805	0.5
267.1598	1.0
285.1041	0.7
285.1707	100.0
285.2373	0.6
286.1742	16.3
287.1767	1.2

Name: 2-Dec-9-enylpentanedioic acid
PrecursorMZ: 269.17593
RT: 6.7652
ExactMass: 270.18310931
Spectrum_type: 2
charge: -1
Formula: C15H26O4
SMILES: C=CCCCCCCCCC(CCC(=O)O)C(=O)O
Method: HCD
Collision_energy: [28.333334]
Isolation_window: 4.0
Ion_mode: N
Num Peaks: 9
207.1749	33.1
223.1697	10.0
225.1859	18.3
251.1652	31.9
269.1254	22.8
269.1757	100.0
269.2111	10.0
270.1788	15.5
271.1920	12.1

Name: 2-Decyl-3-hydroxypentanedioic acid
PrecursorMZ: 287.1864
RT: 6.261
ExactMass: 288.19367399
Spectrum_type: 2
charge: -1
Formula: C15H28O5
SMILES: CCCCCCCCCCC(C(CC(=O)O)O)C(=O)O
Method: HCD
Collision_energy: [28.333334]
Isolation_window: 4.0
Ion_mode: N
Num Peaks: 7
78.9581	5.8
225.1857	19.1
241.1807	22.3
285.2072	10.8
287.1866	100.0
287.2209	7.1
288.1899	15.4

Name: 2-Deoxyglucose
PrecursorMZ: 209.06632
RT: 0.8915
ExactMass: 164.06847348
Spectrum_type: 2
charge: -1
Formula: C6H12O5
SMILES: C(C=O)[C@H]([C@@H]([C@@H](CO)O)O)O
Method: HCD
Collision_energy: [28.333334]
Isolation_window: 4.0
Ion_mode: N
Num Peaks: 41
57.0337	5.6
59.0129	31.5
68.9972	2.3
71.0129	24.4
72.9922	5.6
73.0285	7.7
75.0078	16.6
80.9642	7.1
83.0129	11.1
85.0285	27.2
87.0078	66.2
87.0441	2.3
89.0234	47.3
96.9592	6.5
97.0286	3.1
99.0078	23.2
101.0235	20.4
111.0078	9.9
113.0236	4.7
115.0392	8.5
119.0340	7.8
123.0116	2.6
124.0065	22.2
128.0343	4.4
129.0185	100.0
130.0220	5.7
131.0340	11.0
141.0185	10.3
149.0448	6.9
152.9856	10.9
159.0292	31.3
166.0173	5.6
191.0556	40.6
192.0591	3.2
207.0505	12.8
208.0536	2.5
209.0663	89.9
210.0074	5.9
210.0696	7.5
211.0274	2.0
211.0831	4.3

Name: 2-Dodecoxyethyl hydrogen sulfate
PrecursorMZ: 309.17385
RT: 5.7965
ExactMass: 310.18139523
Spectrum_type: 2
charge: -1
Formula: C14H30O5S
SMILES: CCCCCCCCCCCCOCCOS(=O)(=O)O
Method: HCD
Collision_energy: [28.333334]
Isolation_window: 4.0
Ion_mode: N
Num Peaks: 3
96.9591	28.1
309.1739	100.0
310.1770	15.0

Name: 2-Hydroxy-2-(3-hydroxy-4-methoxyphenyl)acetic acid
PrecursorMZ: 197.04511
RT: 2.5847
ExactMass: 198.05282342
Spectrum_type: 2
charge: -1
Formula: C9H10O5
SMILES: COC1=C(C=C(C=C1)C(C(=O)O)O)O
Method: HCD
Collision_energy: [28.333334]
Isolation_window: 4.0
Ion_mode: N
Num Peaks: 31
59.0130	9.8
81.0338	4.0
95.0495	3.8
96.0082	4.9
98.0240	4.5
107.0495	3.7
109.0288	10.6
109.0651	12.0
111.0445	5.1
111.0807	100.0
123.0444	41.6
124.0159	5.1
125.0239	7.2
125.0600	6.0
135.0445	89.6
136.0479	6.2
137.0239	12.9
137.0601	30.0
151.0396	18.5
151.0757	5.0
152.0473	20.5
153.0552	76.9
154.0588	5.9
155.0708	18.0
179.0346	15.1
181.0504	11.5
196.0376	22.2
197.0451	77.3
198.0488	8.0
199.0609	9.8
199.0973	6.4

Name: 2-Hydroxy-3,4-dimethoxybenzoic acid
PrecursorMZ: 197.04512
RT: 2.3751
ExactMass: 198.05282342
Spectrum_type: 2
charge: -1
Formula: C9H10O5
SMILES: COC1=C(C(=C(C=C1)C(=O)O)O)OC
Method: HCD
Collision_energy: [28.333334]
Isolation_window: 4.0
Ion_mode: N
Num Peaks: 31
59.0130	11.1
96.0082	10.1
107.0496	4.6
109.0287	21.4
109.0650	14.8
111.0443	7.6
111.0807	32.8
123.0444	39.8
124.0160	7.1
125.0238	22.0
125.0600	8.2
135.0445	91.7
136.0479	7.3
137.0238	15.4
137.0601	14.1
151.0394	41.9
152.0473	31.4
152.0707	7.2
153.0189	25.9
153.0551	82.4
154.0587	7.5
155.0710	8.1
179.0344	15.7
181.0499	4.4
195.0299	5.6
196.0374	39.1
197.0115	9.7
197.0283	5.0
197.0450	100.0
198.0491	10.8
199.0616	4.9

Name: 2-Hydroxy-4,5',8a'-trimethyl-1'-oxo-4-vinyloctahydro-1'H-spiro(cyclopentane-1,2'-naphthalene)-5'-carboxylic acid
PrecursorMZ: 333.20744
RT: 7.5787
ExactMass: 334.21440943
Spectrum_type: 2
charge: -1
Formula: C20H30O4
SMILES: CC12CCCC(C1CCC3(C2=O)CC(CC3O)(C)C=C)(C)C(=O)O
Method: HCD
Collision_energy: [28.333334]
Isolation_window: 4.0
Ion_mode: N
Num Peaks: 18
61.9876	1.2
136.0523	12.3
149.0602	57.9
150.0636	5.1
183.1387	6.7
185.1182	1.5
249.1503	2.1
289.2172	1.2
315.1971	8.1
316.2001	1.5
318.1837	2.2
331.1933	1.4
332.1975	2.3
333.1226	1.3
333.2077	100.0
333.2410	1.2
334.2110	21.1
335.2222	5.6

Name: 2-Hydroxy-4-methoxy-3,5-bis(3-methylbut-2-enyl)-6-pentylbenzoic acid
PrecursorMZ: 373.23858
RT: 8.1324
ExactMass: 374.24570956
Spectrum_type: 2
charge: -1
Formula: C23H34O4
SMILES: CCCCCC1=C(C(=C(C(=C1C(=O)O)O)CC=C(C)C)OC)CC=C(C)C
Method: HCD
Collision_energy: [28.333334]
Isolation_window: 4.0
Ion_mode: N
Num Peaks: 5
136.0522	10.3
149.0600	55.3
223.1698	7.1
373.2382	100.0
374.2415	27.0

Name: 2-Hydroxy-4-methoxy-3-(3-methyl-2-buten-1-yl)-6-pentylbenzoic acid
PrecursorMZ: 305.17588
RT: 6.818233333333334
ExactMass: 306.18310931
Spectrum_type: 2
charge: -1
Formula: C18H26O4
SMILES: CCCCCC1=CC(=C(C(=C1C(=O)O)O)CC=C(C)C)OC
Method: HCD
Collision_energy: [28.333334]
Isolation_window: 4.0
Ion_mode: N
Num Peaks: 5
136.0521	47.3
149.0599	16.1
261.1859	21.2
305.1757	100.0
306.1792	20.8

Name: 2-Hydroxy-4-methoxy-6-pentylbenzoic acid
PrecursorMZ: 497.21509
RT: 3.5535
ExactMass: 238.12050905
Spectrum_type: 2
charge: -1
Formula: C13H18O4
SMILES: CCCCCC1=C(C(=CC(=C1)OC)O)C(=O)O
Method: HCD
Collision_energy: [28.333334]
Isolation_window: 4.0
Ion_mode: N
Num Peaks: 20
55.2478	4.1
59.0130	2.6
78.9581	59.0
88.9870	3.3
96.9689	2.9
120.0116	6.8
122.0075	5.4
122.0602	2.9
136.0761	8.2
152.9951	31.6
171.0058	33.8
195.0654	7.1
196.0683	2.9
228.1389	4.3
479.2078	2.7
496.1721	3.2
496.2348	2.6
497.2163	100.0
498.2197	25.4
499.2333	9.9

Name: 2-Hydroxy-6-(8Z,11Z)-8,11,14-pentadecatrien-1-ylbenzoic acid
PrecursorMZ: 341.21239
RT: 9.5267
ExactMass: 342.21949481
Spectrum_type: 2
charge: -1
Formula: C22H30O3
SMILES: C=CC/C=C\C/C=C\CCCCCCCC1=C(C(=CC=C1)O)C(=O)O
Method: HCD
Collision_energy: [28.333334]
Isolation_window: 4.0
Ion_mode: N
Num Peaks: 6
119.0494	4.2
295.2071	5.3
297.2223	62.7
298.2258	13.5
341.2121	100.0
342.2158	22.6

Name: 2-Hydroxyadipic acid
PrecursorMZ: 161.04491
RT: 1.53705
ExactMass: 162.05282342
Spectrum_type: 2
charge: -1
Formula: C6H10O5
SMILES: C(CC(C(=O)O)O)CC(=O)O
Method: HCD
Collision_energy: [28.333334]
Isolation_window: 4.0
Ion_mode: N
Num Peaks: 11
59.0129	4.1
71.0129	3.8
71.0493	25.2
99.0442	42.3
101.0235	100.0
102.0268	4.1
115.0392	4.5
117.0548	9.5
143.0342	17.4
161.0448	74.3
162.0485	4.0

Name: 2-Methoxy-12-methyloctadec-17-en-5-ynoyl anhydride
PrecursorMZ: 153.01832
RT: 10.3556
ExactMass: 626.4910252
Spectrum_type: 2
charge: -1
Formula: C40H66O5
SMILES: CC(CCCCCC#CCCC(C(=O)OC(=O)C(CCC#CCCCCCC(C)CCCCC=C)OC)OC)CCCCC=C
Method: HCD
Collision_energy: [28.333334]
Isolation_window: 4.0
Ion_mode: N
Num Peaks: 9
67.0179	7.3
83.0492	8.2
109.0285	8.1
111.0441	9.6
125.0234	100.0
126.0265	5.7
153.0185	15.5
153.0548	12.6
155.0339	6.7

Name: 2-Methoxy-5-nitrophenol
PrecursorMZ: 168.0296
RT: 5.0655
ExactMass: 169.0375077
Spectrum_type: 2
charge: -1
Formula: C7H7NO4
SMILES: COC1=C(C=C(C=C1)[N+](=O)[O-])O
Method: HCD
Collision_energy: [28.333334]
Isolation_window: 4.0
Ion_mode: N
Num Peaks: 6
123.0081	4.9
125.0965	2.6
153.0061	100.0
154.0097	5.5
168.0296	27.4
168.8357	4.0

Name: 2-Methoxy-6-pentadecylbenzoic acid
PrecursorMZ: 361.27494
RT: 10.946933333333334
ExactMass: 362.28209507
Spectrum_type: 2
charge: -1
Formula: C23H38O3
SMILES: CCCCCCCCCCCCCCCC1=C(C(=CC=C1)OC)C(=O)O
Method: HCD
Collision_energy: [28.333334]
Isolation_window: 4.0
Ion_mode: N
Num Peaks: 5
317.2849	45.0
318.2883	9.9
361.2751	100.0
362.2783	25.2
363.2827	2.3

Name: 2-Methoxydecanoic acid
PrecursorMZ: 363.18139
RT: 6.1089
ExactMass: 202.15689456
Spectrum_type: 2
charge: -1
Formula: C11H22O3
SMILES: CCCCCCCCC(C(=O)O)OC
Method: HCD
Collision_energy: [28.333334]
Isolation_window: 4.0
Ion_mode: N
Num Peaks: 13
113.0598	4.2
205.1228	9.9
257.1908	45.5
258.1941	7.2
275.2015	7.9
277.2164	4.1
301.1816	2.9
319.1912	30.4
320.1948	5.0
321.2068	7.4
363.1810	100.0
364.1843	22.2
365.1962	26.0

Name: 2-Methyl-6-nitro-4(1H)-quinolone
PrecursorMZ: 203.04588
RT: 3.1567499999999997
ExactMass: 204.05349212
Spectrum_type: 2
charge: -1
Formula: C10H8N2O3
SMILES: CC1=CC(=O)C2=C(N1)C=CC(=C2)[N+](=O)[O-]
Method: HCD
Collision_energy: [28.333334]
Isolation_window: 4.0
Ion_mode: N
Num Peaks: 6
104.9765	17.9
160.0398	33.7
202.0382	9.5
202.9412	57.3
203.0457	100.0
204.0496	12.2

Name: 2-Methyl-N-(1-methylpiperidin-4-YL)-7-(2-methylpropanamido)quinoline-5-carboxamide
PrecursorMZ: 367.21406
RT: 8.192575
ExactMass: 368.22122615
Spectrum_type: 2
charge: -1
Formula: C21H28N4O2
SMILES: CC1=NC2=CC(=CC(=C2C=C1)C(=O)NC3CCN(CC3)C)NC(=O)C(C)C
Method: HCD
Collision_energy: [28.333334]
Isolation_window: 4.0
Ion_mode: N
Num Peaks: 7
96.9587	17.2
183.1378	7.4
297.2424	15.4
298.2458	7.6
365.2294	9.1
367.2142	100.0
368.2176	20.8

Name: 2-Methylbenzenesulfonic acid
PrecursorMZ: 171.01154
RT: 2.422
ExactMass: 172.01941529
Spectrum_type: 2
charge: -1
Formula: C7H8O3S
SMILES: CC1=CC=CC=C1S(=O)(=O)O
Method: HCD
Collision_energy: [28.333334]
Isolation_window: 4.0
Ion_mode: N
Num Peaks: 16
72.9923	1.3
79.9564	3.7
82.9953	46.3
83.9987	2.1
84.9911	1.3
86.0239	1.2
93.0338	10.1
98.0240	1.7
100.0398	1.4
107.0495	4.8
126.9852	27.1
127.9888	1.3
171.0117	100.0
172.0150	7.7
172.9911	11.7
173.0068	2.6

Name: 2-Naphthaleneacetic acid, decahydro-1-hydroxy-4a-methyl-alpha,8-bis(methylene)-, (1S-(1alpha,2beta,4abeta,8aalpha))-
PrecursorMZ: 249.14963
RT: 7.3192
ExactMass: 250.15689456
Spectrum_type: 2
charge: -1
Formula: C15H22O3
SMILES: C[C@]12CCCC(=C)[C@@H]1[C@H]([C@@H](CC2)C(=C)C(=O)O)O
Method: HCD
Collision_energy: [28.333334]
Isolation_window: 4.0
Ion_mode: N
Num Peaks: 7
184.0012	8.5
219.1387	4.5
231.1391	3.6
248.0800	22.0
248.5815	6.6
249.1496	100.0
250.1531	15.9

Name: 2-Naphthalenesulfonic acid
PrecursorMZ: 207.01165
RT: 3.5736499999999998
ExactMass: 208.01941529
Spectrum_type: 2
charge: -1
Formula: C10H8O3S
SMILES: C1=CC=C2C=C(C=CC2=C1)S(=O)(=O)O
Method: HCD
Collision_energy: [28.333334]
Isolation_window: 4.0
Ion_mode: N
Num Peaks: 8
118.9921	4.8
143.0496	6.2
162.9821	13.9
206.0794	8.7
206.9720	3.9
207.0115	100.0
208.0149	10.4
209.0062	2.9

Name: 2-O-E-p-coumaroyl alphitolic acid
PrecursorMZ: 617.38553
RT: 8.97998
ExactMass: 618.39203944
Spectrum_type: 2
charge: -1
Formula: C39H54O6
SMILES: CC(=C)[C@@H]1CC[C@]2([C@H]1[C@H]3CC[C@H]4[C@]([C@@]3(CC2)C)(CC[C@@H]5[C@@]4(C[C@H]([C@@H](C5(C)C)O)OC(=O)/C=C/C6=CC=C(C=C6)O)C)C)C(=O)O
Method: HCD
Collision_energy: [28.333334]
Isolation_window: 4.0
Ion_mode: N
Num Peaks: 12
61.9875	3.6
68.5964	2.2
68.6006	4.2
68.7121	1.8
119.0494	2.6
145.0288	34.2
146.0322	3.0
297.2434	2.8
497.3293	1.9
617.3856	100.0
618.3887	40.3
619.3926	5.4

Name: 2-Oxoadipic acid
PrecursorMZ: 159.02944
RT: 0.9187
ExactMass: 160.03717335
Spectrum_type: 2
charge: -1
Formula: C6H8O5
SMILES: C(CC(=O)C(=O)O)CC(=O)O
Method: HCD
Collision_energy: [28.333334]
Isolation_window: 4.0
Ion_mode: N
Num Peaks: 28
57.0337	42.0
59.0130	22.8
61.9875	4.1
69.0337	9.4
71.0131	7.9
71.0493	5.0
73.0285	4.8
85.0286	9.6
87.0079	37.8
87.0555	4.4
89.0236	10.6
95.0493	4.2
97.0286	97.4
97.0651	6.8
98.0318	5.3
99.0443	100.0
101.0236	36.4
103.0027	4.4
113.0599	10.4
115.0392	12.3
131.0128	6.0
143.0342	6.7
159.0097	7.1
159.0291	18.7
159.0459	5.7
159.0657	24.7
160.8415	5.4
161.0450	37.3

Name: 2-Oxoglutaric Acid
PrecursorMZ: 145.01345
RT: 1.338125
ExactMass: 146.02152329
Spectrum_type: 2
charge: -1
Formula: C5H6O5
SMILES: C(CC(=O)O)C(=O)C(=O)O
Method: HCD
Collision_energy: [28.333334]
Isolation_window: 4.0
Ion_mode: N
Num Peaks: 9
57.0337	17.0
73.0286	39.2
85.0285	100.0
87.0078	50.5
101.0235	47.2
103.0391	19.7
117.0185	21.7
129.0185	41.9
147.0291	64.9

Name: 2-Phenoxyethyl 4-(3-chloro-4-hydroxy-5-methoxyphenyl)-6-methyl-2-oxo-1,2,3,4-tetrahydropyrimidine-5-carboxylate
PrecursorMZ: 431.1024
RT: 0.8711
ExactMass: 432.1088141
Spectrum_type: 2
charge: -1
Formula: C21H21ClN2O6
SMILES: CC1=C(C(NC(=O)N1)C2=CC(=C(C(=C2)Cl)O)OC)C(=O)OCCOC3=CC=CC=C3
Method: HCD
Collision_energy: [28.333334]
Isolation_window: 4.0
Ion_mode: N
Num Peaks: 3
60.9919	6.8
88.0026	5.5
88.9867	100.0

Name: 2-acetamido-3-(4-methoxyphenyl)propanoic Acid
PrecursorMZ: 236.09182
RT: 2.9231
ExactMass: 237.10010796
Spectrum_type: 2
charge: -1
Formula: C12H15NO4
SMILES: CC(=O)NC(CC1=CC=C(C=C1)OC)C(=O)O
Method: HCD
Collision_energy: [28.333334]
Isolation_window: 4.0
Ion_mode: N
Num Peaks: 34
72.0444	19.8
74.0237	3.3
84.0444	14.3
87.0077	3.9
93.0333	2.8
106.0411	2.0
107.0491	28.3
108.0207	1.5
108.0523	1.9
119.0490	6.7
130.0499	3.1
135.0442	4.4
148.0757	2.6
149.0597	4.3
149.0711	3.9
163.0390	13.3
164.0704	1.7
165.0551	1.5
175.0752	1.6
180.0656	100.0
181.0692	10.2
191.0831	3.2
192.0657	18.1
192.1019	13.9
193.0688	1.8
193.1047	1.6
194.0445	2.7
194.0813	1.9
235.0702	1.7
236.0584	4.1
236.0921	82.8
237.0757	3.2
237.0956	10.3
238.0720	2.8

Name: 2-amino-9-((2R,4S,5R)-4-hydroxy-5-(hydroxymethyl)oxolan-2-yl)-6,9-dihydro-1H-purin-6-one hydrate
PrecursorMZ: 266.08952
RT: 1.2463
ExactMass: 285.1073186
Spectrum_type: 2
charge: -1
Formula: C10H15N5O5
SMILES: C1[C@@H]([C@H](O[C@H]1N2C=NC3=C2N=C(NC3=O)N)CO)O.O
Method: HCD
Collision_energy: [28.333334]
Isolation_window: 4.0
Ion_mode: N
Num Peaks: 11
72.9921	3.5
80.9643	3.6
101.0235	4.6
133.0147	7.0
135.0304	28.7
150.0414	100.0
151.0451	4.3
176.0571	10.2
266.0896	84.3
267.0700	17.7
267.0954	6.5

Name: 2-heptylhexanedioic Acid
PrecursorMZ: 243.16016
RT: 5.0034
ExactMass: 244.16745924
Spectrum_type: 2
charge: -1
Formula: C13H24O4
SMILES: CCCCCCCC(CCCC(=O)O)C(=O)O
Method: HCD
Collision_energy: [28.333334]
Isolation_window: 4.0
Ion_mode: N
Num Peaks: 4
59.0130	100.0
243.1240	12.5
243.1601	45.7
245.1757	18.4

Name: 2-octyltridecanedioic Acid
PrecursorMZ: 355.28424
RT: 9.2309
ExactMass: 356.29265975
Spectrum_type: 2
charge: -1
Formula: C21H40O4
SMILES: CCCCCCCCC(CCCCCCCCCCC(=O)O)C(=O)O
Method: HCD
Collision_energy: [28.333334]
Isolation_window: 4.0
Ion_mode: N
Num Peaks: 7
293.2839	56.2
294.2876	9.4
337.2735	24.6
353.3051	28.9
354.3070	15.8
355.2838	100.0
356.2879	19.6

Name: 2-oxo-1-(2-oxo-2-(phenylamino)ethyl)-N-propyl-1,2-dihydroquinoline-4-carboxamide
PrecursorMZ: 362.15015
RT: 4.9399
ExactMass: 363.15829154
Spectrum_type: 2
charge: -1
Formula: C21H21N3O3
SMILES: CCCNC(=O)C1=CC(=O)N(C2=CC=CC=C21)CC(=O)NC3=CC=CC=C3
Method: HCD
Collision_energy: [28.333334]
Isolation_window: 4.0
Ion_mode: N
Num Peaks: 21
72.0079	8.1
74.0236	16.6
86.0236	9.3
92.0492	6.1
116.0494	12.2
131.0365	6.7
142.0649	5.1
146.0599	25.7
171.0916	19.0
195.0655	5.2
203.0819	5.5
215.0821	6.1
272.0943	7.0
273.1011	6.7
275.1182	9.7
287.1143	8.8
287.1177	17.7
360.1171	6.4
361.1200	6.9
362.1504	100.0
363.1530	27.3

Name: 20-Hdohe
PrecursorMZ: 343.22729
RT: 10.0181
ExactMass: 344.23514488
Spectrum_type: 2
charge: -1
Formula: C22H32O3
SMILES: CCC(/C=C/C=C\C/C=C\C/C=C\C/C=C\C/C=C\CCC(=O)O)O
Method: HCD
Collision_energy: [28.333334]
Isolation_window: 4.0
Ion_mode: N
Num Peaks: 20
107.0492	1.0
119.0490	2.1
121.0285	1.0
297.2217	2.0
298.2251	3.2
299.1667	0.7
299.2375	100.0
299.3077	0.7
300.2410	21.5
301.2442	1.4
301.2490	0.7
341.1993	0.6
341.2119	2.9
341.3063	0.8
342.2008	0.7
342.2156	5.5
343.2274	87.7
344.2307	20.9
345.2335	1.7
345.2386	0.7

Name: 20-Oxopregnane-3,12-diyl diacetate
PrecursorMZ: 401.25452
RT: 5.1129
ExactMass: 418.27192431
Spectrum_type: 2
charge: -1
Formula: C25H38O5
SMILES: CC(=O)C1CCC2C1(C(CC3C2CCC4C3(CCC(C4)OC(=O)C)C)OC(=O)C)C
Method: HCD
Collision_energy: [28.333334]
Isolation_window: 4.0
Ion_mode: N
Num Peaks: 19
79.9564	92.7
80.9642	5.3
91.0391	3.8
96.9591	10.4
137.0963	7.6
171.1018	24.5
211.1334	11.7
229.1442	12.2
291.1963	4.6
303.1819	5.1
309.2073	4.9
327.2175	4.0
329.2330	21.1
330.2375	3.3
400.1862	6.8
401.2038	100.0
401.2578	60.1
402.2360	40.3
403.2268	4.6

Name: 23-Hydroxyursolic Acid
PrecursorMZ: 471.34604
RT: 9.127
ExactMass: 472.35526001
Spectrum_type: 2
charge: -1
Formula: C30H48O4
SMILES: C[C@@H]1CC[C@@]2(CC[C@@]3(C(=CC[C@H]4[C@]3(CC[C@@H]5[C@@]4(CC[C@@H]([C@@]5(C)CO)O)C)C)[C@@H]2[C@H]1C)C)C(=O)O
Method: HCD
Collision_energy: [28.333334]
Isolation_window: 4.0
Ion_mode: N
Num Peaks: 33
52.3703	0.3
52.3731	0.8
52.5943	2.1
52.5970	4.4
52.5995	0.2
57.0336	0.2
69.2168	0.2
73.0283	0.3
119.0490	0.2
129.0656	0.5
248.0789	0.7
367.2964	0.4
395.3153	0.4
396.3196	0.3
413.3423	0.6
427.3597	0.3
439.3208	0.2
440.3241	0.2
443.3513	7.9
469.3301	0.3
469.3387	0.3
470.3339	0.6
470.3470	0.3
471.3466	17.6
472.3501	5.2
473.1817	0.3
473.2208	0.7
473.2520	0.4
473.2840	1.1
473.2905	0.3
473.3619	100.0
473.4747	0.6
473.5020	0.7

Name: 24-Epibrassinolide
PrecursorMZ: 479.33825
RT: 8.5383
ExactMass: 480.34508925
Spectrum_type: 2
charge: -1
Formula: C28H48O6
SMILES: C[C@@H]([C@H]1CC[C@@H]2[C@@]1(CC[C@H]3[C@H]2COC(=O)[C@@H]4[C@@]3(C[C@H]([C@H](C4)O)O)C)C)[C@H]([C@@H]([C@H](C)C(C)C)O)O
Method: HCD
Collision_energy: [28.333334]
Isolation_window: 4.0
Ion_mode: N
Num Peaks: 22
53.2611	4.8
59.0129	3.7
61.9875	3.2
71.0128	2.8
83.0493	3.0
129.0912	3.2
145.0498	3.6
162.0680	4.0
163.0755	2.5
177.0915	8.5
257.1753	2.7
333.2792	2.5
435.3482	5.7
437.3630	2.7
461.3273	14.3
462.3312	4.8
463.3430	7.1
477.3549	6.4
478.3705	15.9
479.3367	100.0
480.3406	29.2
481.3531	43.7

Name: 2605 Fipronil sulfone
PrecursorMZ: 450.92498
RT: 8.546700000000001
Spectrum_type: 2
charge: -1
SMILES: C1=C(C=C(C(=C1Cl)N2C(=C(C(=N2)C#N)S(=O)(=O)C(F)(F)F)N)Cl)C(F)(F)F
Method: HCD
Collision_energy: [28.333334]
Isolation_window: 4.0
Ion_mode: N
Num Peaks: 14
170.0085	21.9
183.0164	40.2
217.9855	7.1
233.9806	23.2
243.9883	17.0
246.0151	6.0
281.9912	11.1
297.9872	12.3
381.2302	9.4
414.9488	100.0
415.9513	11.1
416.9451	20.0
450.9252	18.7
452.9234	8.6

Name: 2H-(1,6)Dioxacycloundecino(2,3,4-gh)pyrrolizine-2,6(3H)-dione, 4,5,8,10,12,13,13a,13b-octahydro-3,4-dihydroxy-3,4,5-trimethyl-, 11-oxide
PrecursorMZ: 201.11274
RT: 3.1538
ExactMass: 341.14745207
Spectrum_type: 2
charge: -1
Formula: C16H23NO7
SMILES: CC1C(=O)OCC2=CC[N+]3(C2C(CC3)OC(=O)C(C1(C)O)(C)O)[O-]
Method: HCD
Collision_energy: [28.333334]
Isolation_window: 4.0
Ion_mode: N
Num Peaks: 18
57.0337	14.2
59.0129	10.1
73.0286	6.6
85.0285	12.3
87.0442	85.6
113.0598	52.6
121.1014	20.3
137.0963	8.5
139.1120	19.0
155.1070	23.7
156.1012	8.0
157.0865	7.2
157.1226	6.5
183.1020	13.6
199.0969	8.3
201.1126	100.0
202.1089	15.5
203.1284	43.3

Name: 2alpha,3beta,12alpha,21,24(R),25-Hexahydroxylanost-8-ene
PrecursorMZ: 553.37332
RT: 6.0239
ExactMass: 508.37638937
Spectrum_type: 2
charge: -1
Formula: C30H52O6
SMILES: CC1(C2CCC3=C(C2(CC(C1O)O)C)CC(C4(C3(CCC4C(CCC(C(C)(C)O)O)CO)C)C)O)C
Method: HCD
Collision_energy: [28.333334]
Isolation_window: 4.0
Ion_mode: N
Num Peaks: 10
61.9873	88.8
69.0741	30.5
487.3419	49.0
507.3722	100.0
509.3810	36.6
509.3882	61.3
552.3126	46.6
553.3171	99.6
554.3217	35.8
555.3347	67.1

Name: 2alpha,3beta,19alpha-Trihydroxyolean-12-en-28-oic acid
PrecursorMZ: 487.34277
RT: 8.057
ExactMass: 488.35017463
Spectrum_type: 2
charge: -1
Formula: C30H48O5
SMILES: C[C@@]12CCC3[C@@](C1CC=C4[C@]2(CC[C@@]5([C@H]4[C@@H](C(CC5)(C)C)O)C(=O)O)C)(C[C@H]([C@@H](C3(C)C)O)O)C
Method: HCD
Collision_energy: [28.333334]
Isolation_window: 4.0
Ion_mode: N
Num Peaks: 12
50.3720	5.2
407.3335	8.5
441.3377	12.8
442.3392	4.5
451.3217	17.0
452.3236	4.6
453.3375	100.0
454.3406	31.7
486.2812	17.5
487.2790	6.3
487.3431	46.9
488.3471	15.2

Name: 3',4',5'-Trimethoxyflavonol
PrecursorMZ: 327.08746
RT: 5.0165
ExactMass: 328.09468823
Spectrum_type: 2
charge: -1
Formula: C18H16O6
SMILES: COC1=CC(=CC(=C1OC)OC)C2=C(C(=O)C3=CC=CC=C3O2)O
Method: HCD
Collision_energy: [28.333334]
Isolation_window: 4.0
Ion_mode: N
Num Peaks: 15
121.0286	15.0
135.0441	12.4
267.0666	9.6
268.0739	55.1
269.0789	18.0
271.1336	13.2
283.0976	35.6
312.0636	37.2
312.1003	30.6
325.1084	15.7
327.0872	100.0
327.1239	37.3
328.0901	18.5
329.1026	27.1
329.1398	29.8

Name: 3',5-Dihydroxy-3,4',5',7-tetramethoxyflavone
PrecursorMZ: 373.09231
RT: 5.356
ExactMass: 374.10016753
Spectrum_type: 2
charge: -1
Formula: C19H18O8
SMILES: COC1=CC(=C2C(=C1)OC(=C(C2=O)OC)C3=CC(=C(C(=C3)OC)OC)O)O
Method: HCD
Collision_energy: [28.333334]
Isolation_window: 4.0
Ion_mode: N
Num Peaks: 6
328.0218	13.3
343.0455	81.5
344.0483	14.5
358.0695	15.8
373.0924	100.0
374.0951	19.5

Name: 3'-(1''-(3-Methylbutanoyl))-angeloyl vaginidiol
PrecursorMZ: 427.17665
RT: 5.4132
ExactMass: 428.18350323
Spectrum_type: 2
charge: -1
Formula: C24H28O7
SMILES: C/C=C(/C)\C(=O)OC1C(OC2=C1C3=C(C=C2)C=CC(=O)O3)C(C)(C)OC(=O)CC(C)C
Method: HCD
Collision_energy: [28.333334]
Isolation_window: 4.0
Ion_mode: N
Num Peaks: 5
327.1599	20.3
355.1916	15.1
383.1868	100.0
384.1904	22.8
427.1771	26.6

Name: 3'-Hydroxy-5,6,7,4'-tetramethoxyflavone
PrecursorMZ: 357.09805
RT: 4.8325
ExactMass: 358.10525291
Spectrum_type: 2
charge: -1
Formula: C19H18O7
SMILES: COC1=C(C=C(C=C1)C2=CC(=O)C3=C(C(=C(C=C3O2)OC)OC)OC)O
Method: HCD
Collision_energy: [28.333334]
Isolation_window: 4.0
Ion_mode: N
Num Peaks: 16
120.0115	6.5
124.0156	11.7
137.0235	7.3
161.0600	8.4
268.0736	10.1
280.0740	7.5
283.0971	19.4
295.0975	6.6
297.0766	9.4
298.0834	6.2
313.1078	19.6
355.1749	6.2
357.0981	100.0
357.1916	17.0
358.1005	18.8
359.2052	5.4

Name: 3,4,5-Trihydroxy-2-(3-methylbutanoyl)-4-(3-methylbut-2-en-1-yl)-5-(4-methylpent-3-enoyl)cyclopent-2-en-1-one
PrecursorMZ: 377.1979
RT: 6.1461
ExactMass: 378.20423867
Spectrum_type: 2
charge: -1
Formula: C21H30O6
SMILES: CC(C)CC(=O)C1=C(C(C(C1=O)(C(=O)CC=C(C)C)O)(CC=C(C)C)O)O
Method: HCD
Collision_energy: [28.333334]
Isolation_window: 4.0
Ion_mode: N
Num Peaks: 33
79.9564	7.9
96.9591	6.5
99.0806	8.8
101.0599	4.0
125.0599	10.8
127.0755	3.5
139.0756	22.4
141.0549	13.6
155.0702	3.3
165.0550	3.9
179.0707	7.9
195.0654	7.2
197.0815	4.8
223.1335	26.5
224.1373	4.5
235.1340	3.0
247.1336	3.1
249.1127	2.7
251.1287	4.1
253.1441	2.7
263.1288	26.7
264.1329	4.3
265.1444	6.9
275.1290	3.8
281.1393	6.8
283.1556	4.6
359.1867	3.2
361.2022	5.8
375.1817	8.0
376.1860	4.3
377.1976	100.0
378.2010	22.0
379.2130	64.2

Name: 3,4,5-trimethoxy-N-(2-(2-methylphenoxy)ethyl)benzamide
PrecursorMZ: 390.1564
RT: 6.2617
ExactMass: 345.15762283
Spectrum_type: 2
charge: -1
Formula: C19H23NO5
SMILES: CC1=CC=CC=C1OCCNC(=O)C2=CC(=C(C(=C2)OC)OC)OC
Method: HCD
Collision_energy: [28.333334]
Isolation_window: 4.0
Ion_mode: N
Num Peaks: 3
61.9875	100.0
389.0664	5.3
389.1358	7.7

Name: 3,4,5-trimethoxy-N-(2-(5-methoxy-2-methyl-1H-indol-3-yl)ethyl)benzamide
PrecursorMZ: 443.18134
RT: 5.4017
ExactMass: 398.18417193
Spectrum_type: 2
charge: -1
Formula: C22H26N2O5
SMILES: CC1=C(C2=C(N1)C=CC(=C2)OC)CCNC(=O)C3=CC(=C(C(=C3)OC)OC)OC
Method: HCD
Collision_energy: [28.333334]
Isolation_window: 4.0
Ion_mode: N
Num Peaks: 5
241.1340	72.7
339.1701	54.4
367.1651	93.3
411.1551	100.0
443.1813	54.7

Name: 3,4-Dihydro-6,8-dihydroxy-3-(10-hydroxyundecyl)isocoumarin
PrecursorMZ: 349.20208
RT: 6.0992
ExactMass: 350.20932405
Spectrum_type: 2
charge: -1
Formula: C20H30O5
SMILES: CC(CCCCCCCCCC1CC2=C(C(=CC(=C2)O)O)C(=O)O1)O
Method: HCD
Collision_energy: [28.333334]
Isolation_window: 4.0
Ion_mode: N
Num Peaks: 14
136.0522	6.3
149.0600	65.3
150.0634	6.6
157.0863	10.4
176.0833	2.3
191.1071	7.4
199.1334	12.4
287.2007	1.8
331.1915	4.2
347.1811	5.4
348.1900	2.7
349.2020	100.0
350.2053	22.3
351.2188	1.9

Name: 3,4-Dimethoxycinnamic acid
PrecursorMZ: 415.13944
RT: 4.8672
ExactMass: 208.07355886
Spectrum_type: 2
charge: -1
Formula: C11H12O4
SMILES: COC1=C(C=C(C=C1)/C=C/C(=O)O)OC
Method: HCD
Collision_energy: [28.333334]
Isolation_window: 4.0
Ion_mode: N
Num Peaks: 9
185.0707	100.0
186.0742	12.9
212.0818	3.3
242.0923	70.9
243.0954	11.0
371.1501	39.1
372.1533	9.9
415.1399	56.9
416.1430	15.5

Name: 3,4-dihydroxy-5-((2S,3R,4S,5S,6R)-3,4,5-trihydroxy-6-((4-(2-hydroxypropan-2-yl)cyclohexene-1-carbonyl)oxymethyl)oxan-2-yl)oxybenzoic acid
PrecursorMZ: 497.16576
RT: 7.4561
ExactMass: 498.17372639
Spectrum_type: 2
charge: -1
Formula: C23H30O12
SMILES: CC(C)(C1CCC(=CC1)C(=O)OC[C@@H]2[C@H]([C@@H]([C@H]([C@@H](O2)OC3=CC(=CC(=C3O)O)C(=O)O)O)O)O)O
Method: HCD
Collision_energy: [28.333334]
Isolation_window: 4.0
Ion_mode: N
Num Peaks: 6
171.9824	70.5
172.9902	16.8
417.2097	9.9
497.1660	100.0
498.1694	23.6
499.1657	9.3

Name: 3,5,6-Trihydroxy-2-(2-methylbutanoyl)-4,6-bis(3-methylbut-2-en-1-yl)cyclohexa-2,4-dien-1-one
PrecursorMZ: 361.20229
RT: 7.73465
ExactMass: 362.20932405
Spectrum_type: 2
charge: -1
Formula: C21H30O5
SMILES: CCC(C)C(=O)C1=C(C(=C(C(C1=O)(CC=C(C)C)O)O)CC=C(C)C)O
Method: HCD
Collision_energy: [28.333334]
Isolation_window: 4.0
Ion_mode: N
Num Peaks: 20
99.0808	3.0
125.0601	5.7
179.0708	2.9
195.0657	56.0
196.0689	5.9
221.1542	10.5
223.0608	13.2
235.1336	6.1
247.1337	15.1
248.1394	4.8
251.1288	3.0
265.1445	42.7
266.1471	5.7
292.1320	5.2
343.1916	6.3
359.1867	3.7
361.1657	6.3
361.2024	100.0
362.2031	22.2
362.2388	3.5

Name: 3,5-Dihydroxy-1-(3,4-dihydroxyphenyl)-7-(4-hydroxyphenyl)heptane
PrecursorMZ: 331.15542
RT: 4.3087
ExactMass: 332.16237386
Spectrum_type: 2
charge: -1
Formula: C19H24O5
SMILES: C1=CC(=CC=C1CCC(CC(CCC2=CC(=C(C=C2)O)O)O)O)O
Method: HCD
Collision_energy: [28.333334]
Isolation_window: 4.0
Ion_mode: N
Num Peaks: 19
95.0494	2.5
109.0287	1.0
123.0444	4.2
131.0494	1.3
137.0242	1.1
137.0601	19.1
138.0635	1.4
149.0601	16.9
150.0637	1.5
163.0758	5.6
165.0550	3.1
167.0707	2.2
181.0864	2.8
313.1447	1.5
329.1031	2.4
330.1056	1.3
331.1554	100.0
332.1588	20.5
333.1660	1.2

Name: 3,5-Dihydroxy-2-(4-hydroxyphenyl)-7-(3,4,5-trihydroxy-6-(hydroxymethyl)oxan-2-yl)oxy-2,3-dihydrochromen-4-one
PrecursorMZ: 495.11495
RT: 3.331
ExactMass: 450.11621151
Spectrum_type: 2
charge: -1
Formula: C21H22O11
SMILES: C1=CC(=CC=C1C2C(C(=O)C3=C(C=C(C=C3O2)OC4C(C(C(C(O4)CO)O)O)O)O)O)O
Method: HCD
Collision_energy: [28.333334]
Isolation_window: 4.0
Ion_mode: N
Num Peaks: 39
55.0114	2.5
55.0144	3.9
59.0130	1.3
88.9872	1.9
125.0236	2.4
135.0443	2.7
149.0603	1.5
151.0031	1.4
167.0343	2.9
173.0449	2.2
179.0347	1.5
191.0555	1.1
193.0137	9.1
205.0137	2.6
209.0459	1.4
223.0247	1.6
235.0247	25.7
236.0282	2.5
265.0356	7.8
267.2324	1.2
315.0519	4.6
327.0511	1.4
339.0535	1.2
357.0619	83.9
358.0653	14.7
359.0667	1.5
375.0724	42.9
376.0758	7.4
387.0726	22.8
388.0760	5.0
405.0822	3.1
459.0942	2.5
477.1040	15.8
478.1084	4.0
494.1014	2.9
495.1144	100.0
495.2677	4.4
496.1176	22.6
497.1186	3.8

Name: 3,5-Dihydroxydecanoic acid
PrecursorMZ: 203.12834
RT: 4.2064
ExactMass: 204.13615911
Spectrum_type: 2
charge: -1
Formula: C10H20O4
SMILES: CCCCCC(CC(CC(=O)O)O)O
Method: HCD
Collision_energy: [28.333334]
Isolation_window: 4.0
Ion_mode: N
Num Peaks: 17
57.0337	6.2
59.0129	31.1
71.0129	5.4
87.0441	12.7
99.0805	11.6
113.0962	10.7
129.0912	5.7
157.1225	29.2
167.1071	4.9
172.0397	8.4
175.0622	3.8
185.1176	100.0
186.1209	10.6
201.1127	6.8
202.0500	5.4
203.1282	73.5
204.1315	7.3

Name: 3,7,12-Tris(acetyloxy)cholan-24-oic acid
PrecursorMZ: 533.31228
RT: 5.509
ExactMass: 534.31926842
Spectrum_type: 2
charge: -1
Formula: C30H46O8
SMILES: CC(CCC(=O)O)C1CCC2C1(C(CC3C2C(CC4C3(CCC(C4)OC(=O)C)C)OC(=O)C)OC(=O)C)C
Method: HCD
Collision_energy: [28.333334]
Isolation_window: 4.0
Ion_mode: N
Num Peaks: 9
73.0286	10.8
305.2124	18.5
357.2438	17.4
431.2806	28.7
489.3226	100.0
490.3262	22.7
491.3370	58.5
533.3143	11.0
535.3287	12.8

Name: 3,7-Dihydroxy-3',4',5'-trimethoxyflavone
PrecursorMZ: 343.0822
RT: 6.472
ExactMass: 344.08960285
Spectrum_type: 2
charge: -1
Formula: C18H16O7
SMILES: COC1=CC(=CC(=C1OC)OC)C2=C(C(=O)C3=C(O2)C=C(C=C3)O)O
Method: HCD
Collision_energy: [28.333334]
Isolation_window: 4.0
Ion_mode: N
Num Peaks: 15
283.1702	12.2
298.0116	11.6
313.0353	100.0
314.0387	16.7
315.0448	3.4
328.0585	53.6
329.0624	9.3
341.1820	4.0
341.2334	7.2
343.0822	93.0
343.1550	8.4
343.2115	8.7
343.2498	13.9
344.0859	19.1
345.1704	38.4

Name: 3,7-Dihydroxy-3',4'-dimethoxyflavone
PrecursorMZ: 313.07197
RT: 6.6379
ExactMass: 314.07903816
Spectrum_type: 2
charge: -1
Formula: C17H14O6
SMILES: COC1=C(C=C(C=C1)C2=C(C(=O)C3=C(O2)C=C(C=C3)O)O)OC
Method: HCD
Collision_energy: [28.333334]
Isolation_window: 4.0
Ion_mode: N
Num Peaks: 23
87.0442	3.0
183.0113	2.2
223.1698	7.4
255.0293	3.9
283.0248	18.7
284.0268	2.7
293.2124	4.7
297.0400	2.3
298.0482	40.9
299.0518	6.5
311.0212	2.1
311.1305	9.0
311.1687	73.7
311.2229	31.0
312.0257	3.3
312.1339	3.4
312.1720	21.2
312.2266	7.5
313.0719	100.0
313.1721	5.1
313.2382	32.3
314.0755	18.6
314.2412	6.0

Name: 3,7-Epoxycaryophyllan-6-one
PrecursorMZ: 235.17023
RT: 5.8614
ExactMass: 236.177630004
Spectrum_type: 2
charge: -1
Formula: C15H24O2
SMILES: CC1(CC2C1CCC3(C(=O)CCC2(O3)C)C)C
Method: HCD
Collision_energy: [28.333334]
Isolation_window: 4.0
Ion_mode: N
Num Peaks: 13
63.9615	6.4
79.9564	6.6
103.9194	6.3
116.0531	2.6
151.0757	9.2
153.0189	3.4
172.1337	2.5
177.0916	5.4
178.0992	9.0
179.1065	2.5
235.1701	100.0
236.0961	11.3
236.1735	17.9

Name: 3,9-Dihydroxy-1,4,7,10-tetramethylbenzo(b)(1,4)benzodioxepin-6-one
PrecursorMZ: 299.09258
RT: 4.80576
ExactMass: 300.09977361
Spectrum_type: 2
charge: -1
Formula: C17H16O5
SMILES: CC1=CC(=C(C2=C1C(=O)OC3=C(O2)C(=CC(=C3C)O)C)C)O
Method: HCD
Collision_energy: [28.333334]
Isolation_window: 4.0
Ion_mode: N
Num Peaks: 13
109.0285	47.0
121.0648	5.4
133.0286	23.0
165.0548	4.8
225.0551	6.2
239.0710	22.9
240.0763	6.2
255.1023	71.5
256.1051	12.6
297.1709	4.3
299.0924	100.0
299.1843	3.4
300.0955	18.7

Name: 3-((4-Hydroxyphenyl)methyl)-2,3,6,7,8,8a-hexahydropyrrolo(1,2-a)pyrazine-1,4-dione
PrecursorMZ: 259.1087
RT: 2.5799
ExactMass: 260.11609238
Spectrum_type: 2
charge: -1
Formula: C14H16N2O3
SMILES: C1CC2C(=O)NC(C(=O)N2C1)CC3=CC=C(C=C3)O
Method: HCD
Collision_energy: [28.333334]
Isolation_window: 4.0
Ion_mode: N
Num Peaks: 14
72.0082	5.6
72.9921	4.5
81.9925	5.4
84.0082	3.6
111.0554	5.3
114.0550	7.7
124.0395	5.3
125.0347	18.5
142.0502	3.9
151.0504	9.2
153.0661	51.5
167.0454	6.0
259.1086	100.0
260.1126	13.6

Name: 3-((4-chlorobenzoyl)amino)propanoic Acid
PrecursorMZ: 226.02687
RT: 4.75245
ExactMass: 227.0349209
Spectrum_type: 2
charge: -1
Formula: C10H10ClNO3
SMILES: C1=CC(=CC=C1C(=O)NCCC(=O)O)Cl
Method: HCD
Collision_energy: [28.333334]
Isolation_window: 4.0
Ion_mode: N
Num Peaks: 7
183.0444	0.9
226.0269	11.4
226.9874	0.6
226.9983	0.5
227.0345	100.0
227.0813	0.6
228.0379	10.5

Name: 3-((Diethylamino)carbonyl)benzoic acid
PrecursorMZ: 220.09731
RT: 5.3971
ExactMass: 221.10519334
Spectrum_type: 2
charge: -1
Formula: C12H15NO3
SMILES: CCN(CC)C(=O)C1=CC(=CC=C1)C(=O)O
Method: HCD
Collision_energy: [28.333334]
Isolation_window: 4.0
Ion_mode: N
Num Peaks: 4
117.0700	18.5
176.1072	92.2
220.0973	100.0
221.1012	12.4

Name: 3-(1-((3-Fluorophenyl)methanesulfonyl)pyrrolidin-2-YL)-5-methyl-4H-1,2,4-triazole
PrecursorMZ: 359.07536
RT: 0.907
ExactMass: 324.10562513
Spectrum_type: 2
charge: -1
Formula: C14H17FN4O2S
SMILES: CC1=NC(=NN1)[C@@H]2CCCN2S(=O)(=O)CC3=CC(=CC=C3)F
Method: HCD
Collision_energy: [28.333334]
Isolation_window: 4.0
Ion_mode: N
Num Peaks: 8
108.9010	26.2
112.9847	24.1
118.9298	16.0
134.0460	17.5
323.0977	15.1
359.0749	100.0
360.0779	14.5
361.0715	23.4

Name: 3-(2,4-Dichlorophenyl)-7-hydroxychromen-2-one
PrecursorMZ: 304.97766
RT: 7.4738
ExactMass: 305.9850495
Spectrum_type: 2
charge: -1
Formula: C15H8Cl2O3
SMILES: C1=CC2=C(C=C1O)OC(=O)C(=C2)C3=C(C=C(C=C3)Cl)Cl
Method: HCD
Collision_energy: [28.333334]
Isolation_window: 4.0
Ion_mode: N
Num Peaks: 8
260.9876	63.5
261.9914	9.8
262.9849	24.3
269.0006	10.0
302.9968	11.1
304.9754	100.0
305.9793	17.1
306.9743	42.2

Name: 3-(2,6-Dihydroxyphenyl)-4-hydroxy-6-methylisobenzofuran-1(3H)-one
PrecursorMZ: 271.06168
RT: 5.9955
ExactMass: 272.06847348
Spectrum_type: 2
charge: -1
Formula: C15H12O5
SMILES: CC1=CC2=C(C(OC2=O)C3=C(C=CC=C3O)O)C(=C1)O
Method: HCD
Collision_energy: [28.333334]
Isolation_window: 4.0
Ion_mode: N
Num Peaks: 8
209.0608	3.4
225.0557	5.1
227.0714	100.0
228.0749	14.5
253.0508	9.0
271.0615	40.5
272.0655	6.7
272.1285	3.5

Name: 3-(2-(2,3-dihydroxy-5,6,8a-trimethyloctahydro-2H-spiro(naphthalene-1,2'-oxiran)-5-yl)ethyl)-5-hydroxyfuran-2(5H)-one
PrecursorMZ: 365.19684
RT: 4.4807
ExactMass: 366.20423867
Spectrum_type: 2
charge: -1
Formula: C20H30O6
SMILES: CC1CCC2(C(C1(C)CCC3=CC(OC3=O)O)CC(C(C24CO4)O)O)C
Method: HCD
Collision_energy: [28.333334]
Isolation_window: 4.0
Ion_mode: N
Num Peaks: 9
96.9591	2.8
273.1866	2.7
275.2015	14.2
288.1427	2.6
303.1962	7.9
364.1746	4.6
365.1968	100.0
366.1994	22.1
367.2093	3.6

Name: 3-(2-(2-Hydroxy-4-methoxyphenyl)-2-oxoethyl)-6,7-dimethoxy-1(3H)-isobenzofuranone
PrecursorMZ: 357.09816
RT: 4.5539
ExactMass: 358.10525291
Spectrum_type: 2
charge: -1
Formula: C19H18O7
SMILES: COC1=CC(=C(C=C1)C(=O)CC2C3=C(C(=C(C=C3)OC)OC)C(=O)O2)O
Method: HCD
Collision_energy: [28.333334]
Isolation_window: 4.0
Ion_mode: N
Num Peaks: 8
115.0866	11.2
266.0587	9.3
268.0374	11.5
281.0817	21.1
283.0611	100.0
284.0647	15.4
297.0775	15.8
325.0717	49.1

Name: 3-(2-(4-Hydroxy-3-methoxyphenyl)-2-oxoethyl)-6,7-dimethoxy-1(3H)-isobenzofuranone
PrecursorMZ: 357.097
RT: 4.933
ExactMass: 358.10525291
Spectrum_type: 2
charge: -1
Formula: C19H18O7
SMILES: COC1=C(C2=C(C=C1)C(OC2=O)CC(=O)C3=CC(=C(C=C3)O)OC)OC
Method: HCD
Collision_energy: [28.333334]
Isolation_window: 4.0
Ion_mode: N
Num Peaks: 71
59.0127	2.6
105.0333	26.0
109.0282	9.6
121.0282	6.6
123.0439	2.9
124.0153	4.0
133.0283	22.5
134.0360	5.5
137.0231	3.6
137.0596	10.0
139.1116	5.6
149.0232	10.0
150.0311	8.4
161.0230	2.5
161.0596	11.7
176.0468	5.1
177.0181	90.5
181.0494	31.3
183.1013	3.5
192.0414	4.5
201.1120	15.9
209.1177	2.8
215.1284	4.9
223.0753	9.4
224.0786	2.6
225.0918	2.8
237.0551	2.5
252.0781	5.1
265.0863	4.4
267.0656	10.2
267.1014	4.8
268.0728	10.3
270.0523	2.8
277.0857	3.0
279.0650	5.4
280.0728	14.8
281.0775	3.8
283.0600	3.7
283.0966	21.1
284.1000	4.0
285.0761	2.8
293.0808	2.5
294.0520	3.2
294.0883	5.6
295.0956	10.0
297.0757	18.2
298.0822	9.7
300.0639	2.8
308.0685	4.2
309.0759	21.1
310.0797	5.3
312.0624	3.8
313.1070	20.4
314.1114	4.1
326.0786	25.0
327.0860	30.8
328.0897	6.3
339.0864	51.4
340.0897	10.3
342.0730	7.7
357.0969	100.0
357.1347	6.4
357.1897	9.7
357.2282	4.6
358.1000	19.5
358.1820	2.6
359.0763	96.1
359.1154	4.2
359.1555	2.4
359.2053	9.6
359.2439	4.8

Name: 3-(2-Hydroxyphenyl)propanoate
PrecursorMZ: 165.05509
RT: 5.0021
ExactMass: 165.055169145
Spectrum_type: 2
charge: -1
Formula: C9H9O3-
SMILES: C1=CC=C(C(=C1)CCC(=O)[O-])O
Method: HCD
Collision_energy: [28.333334]
Isolation_window: 4.0
Ion_mode: N
Num Peaks: 15
59.0130	2.9
61.9875	1.3
82.0402	2.9
97.0399	1.2
106.0414	2.2
119.0494	10.1
120.0551	1.8
121.0286	1.5
121.0510	4.7
121.0650	100.0
122.0683	8.5
124.0508	1.3
147.0444	9.9
165.0550	28.2
166.0586	3.3

Name: 3-(2-Methylpyrimidin-5-yl)-9-(5,6,7,8-tetrahydro-1,8-naphthyridin-2-yl)nonanoic acid
PrecursorMZ: 381.2302
RT: 8.5765
ExactMass: 382.23687621
Spectrum_type: 2
charge: -1
Formula: C22H30N4O2
SMILES: CC1=NC=C(C=N1)C(CCCCCCC2=NC3=C(CCCN3)C=C2)CC(=O)O
Method: HCD
Collision_energy: [28.333334]
Isolation_window: 4.0
Ion_mode: N
Num Peaks: 4
96.9588	18.1
381.2306	100.0
382.2337	18.6
383.2306	4.5

Name: 3-(3,5-Dihydroxyphenyl)-1-propanoic acid
PrecursorMZ: 363.10889
RT: 3.958
ExactMass: 182.0579088
Spectrum_type: 2
charge: -1
Formula: C9H10O4
SMILES: C1=C(C=C(C=C1O)O)CCC(=O)O
Method: HCD
Collision_energy: [28.333334]
Isolation_window: 4.0
Ion_mode: N
Num Peaks: 22
109.0289	14.0
135.0442	41.6
179.0342	14.4
181.0499	49.1
317.1031	12.4
317.1398	13.3
361.0922	13.8
361.1299	16.3
361.1679	35.2
361.2235	68.1
362.0908	16.1
362.1363	13.8
362.1710	13.7
362.2275	18.7
363.1080	23.6
363.1468	16.1
363.1815	100.0
363.2204	19.8
364.1445	15.2
364.1850	22.9
365.1623	23.9
365.2340	43.0

Name: 3-(3-Ethylureido)cyclohexyl (4-fluorophenyl)carbamate
PrecursorMZ: 358.13343
RT: 6.085866666666667
ExactMass: 323.16451973
Spectrum_type: 2
charge: -1
Formula: C16H22FN3O3
SMILES: CCNC(=O)NC1CCCC(C1)OC(=O)NC2=CC=C(C=C2)F
Method: HCD
Collision_energy: [28.333334]
Isolation_window: 4.0
Ion_mode: N
Num Peaks: 3
116.0491	52.9
358.1334	100.0
359.1367	27.7

Name: 3-(3-Hydroxy-4-methoxyphenyl)prop-2-enoic acid
PrecursorMZ: 387.10873
RT: 4.8706499999999995
ExactMass: 194.0579088
Spectrum_type: 2
charge: -1
Formula: C10H10O4
SMILES: COC1=C(C=C(C=C1)C=CC(=O)O)O
Method: HCD
Collision_energy: [28.333334]
Isolation_window: 4.0
Ion_mode: N
Num Peaks: 32
59.0129	9.6
74.0238	2.8
135.0444	4.1
136.0521	3.0
148.0158	3.7
149.0238	2.2
150.0313	6.4
151.0754	2.8
153.0548	4.5
163.0392	16.0
164.0708	3.5
178.0499	1.7
195.0656	100.0
196.0690	10.9
222.1245	2.6
225.0759	2.7
283.0980	1.9
311.0925	4.7
343.1186	10.2
344.1205	1.7
367.2129	1.7
385.1843	3.5
385.2234	11.9
386.1578	2.4
386.2186	4.5
387.1093	9.3
387.2004	3.8
387.2391	14.4
388.1884	6.4
388.2410	3.0
389.1256	2.3
389.2569	4.7

Name: 3-(4-(5-(Acetyloxymethyl)-3,4-dihydroxyoxolan-2-yl)oxy-3-(2,5-dihydroxy-6-methylhept-6-en-2-yl)-6,9a,9b-trimethyl-7-prop-1-en-2-yl-1,2,3,3a,4,5,5a,7,8,9-decahydrocyclopenta(a)naphthalen-6-yl)propanoic acid
PrecursorMZ: 663.4115
RT: 7.7283
ExactMass: 664.41864811
Spectrum_type: 2
charge: -1
Formula: C37H60O10
SMILES: CC(=C)C1CCC2(C(C1(C)CCC(=O)O)CC(C3C2(CCC3C(C)(CCC(C(=C)C)O)O)C)OC4C(C(C(O4)COC(=O)C)O)O)C
Method: HCD
Collision_energy: [28.333334]
Isolation_window: 4.0
Ion_mode: N
Num Peaks: 4
59.0129	100.0
575.3950	54.4
617.4054	62.4
663.4145	45.4

Name: 3-(4-Hydroxy-3-Methoxyphenyl)Prop-2-Enoic Acid
PrecursorMZ: 387.10884
RT: 4.4502
ExactMass: 194.0579088
Spectrum_type: 2
charge: -1
Formula: C10H10O4
SMILES: COC1=C(C=CC(=C1)C=CC(=O)O)O
Method: HCD
Collision_energy: [28.333334]
Isolation_window: 4.0
Ion_mode: N
Num Peaks: 13
148.0522	27.9
162.0314	41.6
180.0421	42.9
193.0497	17.0
224.0324	32.5
284.1055	19.5
299.1288	100.0
300.1320	23.4
319.1908	51.0
343.1185	36.8
387.1088	58.3
387.1795	25.2
388.1112	13.4

Name: 3-(4-Hydroxy-3-methoxyphenyl)propyl 3-(4-hydroxyphenyl)propanoate
PrecursorMZ: 329.13977
RT: 6.7207
ExactMass: 330.1467238
Spectrum_type: 2
charge: -1
Formula: C19H22O5
SMILES: COC1=C(C=CC(=C1)CCCOC(=O)CCC2=CC=C(C=C2)O)O
Method: HCD
Collision_energy: [28.333334]
Isolation_window: 4.0
Ion_mode: N
Num Peaks: 10
149.0602	17.8
164.0473	47.8
165.0509	4.7
179.0709	100.0
180.0743	10.9
327.1855	9.1
327.2194	4.5
328.1912	6.1
329.2330	6.8
331.1920	5.8

Name: 3-(4-Hydroxyphenyl)-5-methoxy-4-oxo-4H-1-benzopyran-7-yl hexopyranoside
PrecursorMZ: 445.11428
RT: 3.937533333333333
ExactMass: 446.12129689
Spectrum_type: 2
charge: -1
Formula: C22H22O10
SMILES: COC1=CC(=CC2=C1C(=O)C(=CO2)C3=CC=C(C=C3)O)O[C@H]4[C@@H]([C@H]([C@@H]([C@H](O4)CO)O)O)O
Method: HCD
Collision_energy: [28.333334]
Isolation_window: 4.0
Ion_mode: N
Num Peaks: 24
96.9591	6.6
121.0286	15.8
153.0550	12.0
173.0232	4.0
188.0471	18.7
189.0547	11.1
203.0709	16.2
232.0376	8.6
233.0444	5.7
247.0609	8.1
312.0639	5.5
327.0873	56.7
328.0904	11.5
341.1025	8.4
342.1107	18.9
371.0769	5.8
385.0919	4.9
386.1007	14.0
401.1244	100.0
402.1278	24.1
445.1146	4.2
445.1902	13.1
446.1909	4.8
447.2061	31.4

Name: 3-(4-Hydroxyphenyl)propionic acid
PrecursorMZ: 353.10075
RT: 3.2962
ExactMass: 166.062994177
Spectrum_type: 2
charge: -1
Formula: C9H10O3
SMILES: C1=CC(=CC=C1CCC(=O)O)O
Method: HCD
Collision_energy: [28.333334]
Isolation_window: 4.0
Ion_mode: N
Num Peaks: 9
93.0339	3.7
121.0650	4.3
165.0551	100.0
166.0585	9.8
187.0372	56.2
188.0407	5.9
205.0483	4.2
353.1010	52.6
354.1045	11.1

Name: 3-(4-Methoxy-3-(3-phenylpropoxy)phenyl)propanoic acid
PrecursorMZ: 313.14422
RT: 5.537966666666667
ExactMass: 314.15180918
Spectrum_type: 2
charge: -1
Formula: C19H22O4
SMILES: COC1=C(C=C(C=C1)CCC(=O)O)OCCCC2=CC=CC=C2
Method: HCD
Collision_energy: [28.333334]
Isolation_window: 4.0
Ion_mode: N
Num Peaks: 5
149.0599	100.0
150.0633	8.5
163.0756	49.9
313.1444	15.6
315.1583	8.1

Name: 3-(4-Methoxy-6-oxopyran-2-yl)butanoic acid
PrecursorMZ: 211.06019
RT: 2.6682
ExactMass: 212.06847348
Spectrum_type: 2
charge: -1
Formula: C10H12O5
SMILES: CC(CC(=O)O)C1=CC(=CC(=O)O1)OC
Method: HCD
Collision_energy: [28.333334]
Isolation_window: 4.0
Ion_mode: N
Num Peaks: 41
57.0335	4.8
59.0128	9.3
72.9920	100.0
74.9899	6.0
87.0076	10.8
95.0490	5.1
98.0235	6.8
109.0282	11.8
109.0647	10.9
111.0439	5.9
112.0393	15.0
121.0646	6.2
123.0440	6.6
123.0805	6.8
125.0596	5.3
134.0362	5.8
136.0157	6.6
137.0597	41.5
138.0546	14.5
149.0599	33.8
150.0911	5.4
151.0390	32.6
151.0753	10.3
152.0463	8.5
165.0545	9.4
166.0492	12.3
166.0856	7.8
167.0334	5.2
167.0701	58.7
169.0858	9.7
170.0449	5.3
181.0496	4.8
193.0491	20.6
195.0654	5.5
209.0810	8.1
210.0751	8.1
211.0599	68.0
212.0601	8.2
212.0915	13.4
213.0416	6.0
213.0756	24.3

Name: 3-(4-hydroxy-3-methoxyphenyl)-2-(hydroxymethyl)-2,3-dihydro-7H-(1,4)dioxino(2,3-g)chromen-7-one
PrecursorMZ: 355.08263
RT: 6.277
ExactMass: 356.08960285
Spectrum_type: 2
charge: -1
Formula: C19H16O7
SMILES: COC1=C(C=CC(=C1)C2C(OC3=C(O2)C=C4C(=C3)C=CC(=O)O4)CO)O
Method: HCD
Collision_energy: [28.333334]
Isolation_window: 4.0
Ion_mode: N
Num Peaks: 9
133.0288	5.6
177.0186	14.8
177.0545	4.1
205.0500	4.4
327.0872	7.1
355.0824	100.0
355.1951	5.6
356.0859	20.8
357.0930	3.8

Name: 3-(6-hydroxy-7-methyloctyl)-3,6-dihydro-1H-furo(3,4-c)furan-4-one
PrecursorMZ: 267.16026
RT: 6.4853
ExactMass: 268.16745924
Spectrum_type: 2
charge: -1
Formula: C15H24O4
SMILES: CC(C)C(CCCCCC1C2=C(CO1)COC2=O)O
Method: HCD
Collision_energy: [28.333334]
Isolation_window: 4.0
Ion_mode: N
Num Peaks: 15
96.9591	40.5
205.1589	12.7
207.1747	5.0
223.1700	100.0
224.1734	14.1
249.1499	6.7
251.1648	13.5
265.1479	91.0
266.1508	25.8
267.1128	10.5
267.1596	54.5
267.1957	15.6
268.1633	10.4
269.1222	6.5
269.1758	42.3

Name: 3-(8-Hydroxyoctyl)phenol
PrecursorMZ: 221.15429
RT: 7.9842
ExactMass: 222.16197994
Spectrum_type: 2
charge: -1
Formula: C14H22O2
SMILES: C1=CC(=CC(=C1)O)CCCCCCCCO
Method: HCD
Collision_energy: [28.333334]
Isolation_window: 4.0
Ion_mode: N
Num Peaks: 3
135.9700	2.9
221.1542	100.0
222.1577	14.4

Name: 3-(Sulfooxy)benzenepropanoic acid
PrecursorMZ: 245.01233
RT: 2.6867
ExactMass: 246.01980921
Spectrum_type: 2
charge: -1
Formula: C9H10O6S
SMILES: C1=CC(=CC(=C1)OS(=O)(=O)O)CCC(=O)O
Method: HCD
Collision_energy: [28.333334]
Isolation_window: 4.0
Ion_mode: N
Num Peaks: 21
59.0129	3.7
79.9563	6.9
87.0442	2.8
119.0493	14.0
121.0649	9.5
123.0442	7.1
130.0865	10.1
155.0707	9.0
165.0549	68.5
166.0584	6.0
199.0590	2.5
199.1809	10.4
243.1236	11.5
243.1711	30.5
244.1276	2.9
244.1745	6.3
245.0122	100.0
245.1393	12.8
246.0158	9.9
246.1705	2.4
247.0088	2.9

Name: 3-(isopropoxycarbonyl)-2-methyl-1H-indol-5-yl morpholine-4-carboxylate
PrecursorMZ: 345.14594
RT: 6.0983
ExactMass: 346.15287181
Spectrum_type: 2
charge: -1
Formula: C18H22N2O5
SMILES: CC1=C(C2=C(N1)C=CC(=C2)OC(=O)N3CCOCC3)C(=O)OC(C)C
Method: HCD
Collision_energy: [28.333334]
Isolation_window: 4.0
Ion_mode: N
Num Peaks: 8
148.0762	16.1
152.0711	11.5
160.0399	15.0
254.1062	10.3
269.1299	100.0
270.1339	14.9
345.1461	68.0
346.1501	13.6

Name: 3-(p-Methoxyphenyl)propionic acid
PrecursorMZ: 179.07069
RT: 6.3957
ExactMass: 180.078644241
Spectrum_type: 2
charge: -1
Formula: C10H12O3
SMILES: COC1=CC=C(C=C1)CCC(=O)O
Method: HCD
Collision_energy: [28.333334]
Isolation_window: 4.0
Ion_mode: N
Num Peaks: 12
79.9563	2.5
90.9971	3.1
116.0707	2.5
134.9871	12.1
135.0807	90.9
136.0841	8.2
162.0679	6.9
178.9779	2.7
179.0585	1.8
179.0707	100.0
180.0330	3.5
180.0745	10.8

Name: 3-Amino-3-(4-hydroxyphenyl)propanoic acid
PrecursorMZ: 180.0658
RT: 4.4915
ExactMass: 181.07389321
Spectrum_type: 2
charge: -1
Formula: C9H11NO3
SMILES: C1=CC(=CC=C1C(CC(=O)O)N)O
Method: HCD
Collision_energy: [28.333334]
Isolation_window: 4.0
Ion_mode: N
Num Peaks: 5
90.9971	15.5
95.0491	12.6
134.9872	48.7
136.0759	100.0
180.0656	12.1

Name: 3-Amino-4-hydroxybenzoate
PrecursorMZ: 152.03466
RT: 5.4614
ExactMass: 152.034768053
Spectrum_type: 2
charge: -1
Formula: C7H6NO3-
SMILES: C1=CC(=C(C=C1C(=O)O)N)[O-]
Method: HCD
Collision_energy: [28.333334]
Isolation_window: 4.0
Ion_mode: N
Num Peaks: 7
106.9921	7.1
108.9877	6.1
109.0398	2.9
122.0365	11.8
137.9953	2.2
152.0346	100.0
153.0382	8.3

Name: 3-DEOXO-3beta-HYDROXYMEXICANOLIDE 16-ENOL ETHER
PrecursorMZ: 483.23696
RT: 4.5801
ExactMass: 484.24610348
Spectrum_type: 2
charge: -1
Formula: C28H36O7
SMILES: C[C@@]12CCC3C(=C1C=C(O[C@H]2C4=COC=C4)OC)C[C@H]5[C@@H](C([C@@H]([C@@]3(C5=O)C)CC(=O)OC)(C)C)O
Method: HCD
Collision_energy: [28.333334]
Isolation_window: 4.0
Ion_mode: N
Num Peaks: 13
53.6915	2.1
53.6944	4.2
78.9581	67.5
96.9687	6.5
152.9951	34.8
154.0615	5.3
171.0058	39.3
391.1895	20.2
392.1928	3.6
438.2061	2.4
483.2367	100.0
484.2409	20.5
485.2327	3.0

Name: 3-Dehydroshikimate
PrecursorMZ: 171.02936
RT: 1.4725
ExactMass: 172.03717335
Spectrum_type: 2
charge: -1
Formula: C7H8O5
SMILES: C1[C@H]([C@@H](C(=O)C=C1C(=O)O)O)O
Method: HCD
Collision_energy: [28.333334]
Isolation_window: 4.0
Ion_mode: N
Num Peaks: 41
58.0290	26.0
59.0130	4.4
65.0388	10.3
68.0132	4.3
69.0336	4.4
71.0130	4.4
72.9922	7.2
83.0493	5.5
85.0286	7.8
85.0650	8.8
86.0239	8.0
96.0082	28.6
97.0286	92.5
97.0650	4.0
98.0239	9.0
98.0319	4.9
99.0078	5.0
99.0441	5.8
100.0395	6.3
109.0287	4.6
111.0443	94.8
113.0237	4.1
125.0236	9.5
125.0600	9.0
127.0140	4.0
127.0395	10.2
127.0758	3.9
129.0550	6.6
129.1025	10.0
155.0343	100.0
169.0498	9.3
170.0438	3.9
170.9965	7.4
171.0190	4.8
171.0317	6.0
171.0655	15.2
171.1137	7.3
172.0070	4.4
173.0236	6.0
173.0448	35.2
173.0812	20.0

Name: 3-GluA Soyasapogenol B
PrecursorMZ: 633.40099
RT: 6.671749999999999
ExactMass: 634.40808342
Spectrum_type: 2
charge: -1
Formula: C36H58O9
SMILES: C[C@@]12CC[C@@]3(C(=CCC4[C@]3(CCC5[C@@]4(CC[C@@H]([C@]5(C)CO)O[C@H]6[C@@H]([C@H]([C@@H]([C@H](O6)C(=O)O)O)O)O)C)C)[C@@H]1CC(C[C@H]2O)(C)C)C
Method: HCD
Collision_energy: [28.333334]
Isolation_window: 4.0
Ion_mode: N
Num Peaks: 18
59.0130	1.2
70.3758	2.3
70.3801	4.2
70.4916	1.7
71.0129	2.3
75.0078	17.8
85.0285	15.9
87.0077	1.3
95.0128	1.6
99.0079	1.8
113.0234	18.0
116.0106	2.2
157.0135	2.4
175.0241	1.5
632.3834	10.2
633.4011	100.0
634.4049	39.6
635.4123	5.1

Name: 3-HYDROXY-4-(SUCCIN-2-YL)-CARYOLANE delta-LACTONE
PrecursorMZ: 319.19141
RT: 4.3394
ExactMass: 320.19875937
Spectrum_type: 2
charge: -1
Formula: C19H28O4
SMILES: C[C@@]12CCC3C(CC(=O)O[C@]3(C1)C4CC(C4CC2)(C)C)C(=O)O
Method: HCD
Collision_energy: [28.333334]
Isolation_window: 4.0
Ion_mode: N
Num Peaks: 8
83.0492	0.9
273.1862	1.1
275.2017	2.5
319.1305	0.7
319.1914	100.0
319.2704	0.7
320.1948	20.1
321.1979	1.9

Name: 3-Hydroxy-3'-methoxyflavone
PrecursorMZ: 267.06568
RT: 5.0597
ExactMass: 268.07355886
Spectrum_type: 2
charge: -1
Formula: C16H12O4
SMILES: COC1=CC=CC(=C1)C2=C(C(=O)C3=CC=CC=C3O2)O
Method: HCD
Collision_energy: [28.333334]
Isolation_window: 4.0
Ion_mode: N
Num Peaks: 3
239.0709	6.8
267.0656	100.0
268.0696	18.4

Name: 3-Hydroxy-5,5,8a-trimethyl-3,4,4a,6,7,8-hexahydronaphthalene-2-carboxylic acid
PrecursorMZ: 237.14895
RT: 7.4088
ExactMass: 238.15689456
Spectrum_type: 2
charge: -1
Formula: C14H22O3
SMILES: CC1(CCCC2(C1CC(C(=C2)C(=O)O)O)C)C
Method: HCD
Collision_energy: [28.333334]
Isolation_window: 4.0
Ion_mode: N
Num Peaks: 6
57.0336	11.6
103.9191	3.6
167.1068	3.6
195.1382	5.6
237.1491	100.0
238.1523	14.3

Name: 3-Hydroxy-6,6-dimethyl-2-(3,4,5-trimethoxyphenyl)-3,5,6,7-tetrahydrobenzimidaz ol-4-one
PrecursorMZ: 345.1462
RT: 6.3081
ExactMass: 346.15287181
Spectrum_type: 2
charge: -1
Formula: C18H22N2O5
SMILES: CC1(CC2=C(C(=O)C1)N(C(=N2)C3=CC(=C(C(=C3)OC)OC)OC)O)C
Method: HCD
Collision_energy: [28.333334]
Isolation_window: 4.0
Ion_mode: N
Num Peaks: 10
86.0238	85.8
128.0709	28.9
172.0764	63.4
187.0871	35.7
230.1552	29.2
255.1506	29.0
258.1136	35.6
301.1558	18.0
345.1434	100.0
346.1468	25.6

Name: 3-Hydroxy-7-methoxy-2-(4-methoxyphenyl)-4H-chromen-4-one
PrecursorMZ: 297.07706
RT: 5.495
ExactMass: 298.08412354
Spectrum_type: 2
charge: -1
Formula: C17H14O5
SMILES: COC1=CC=C(C=C1)C2=C(C(=O)C3=C(O2)C=C(C=C3)OC)O
Method: HCD
Collision_energy: [28.333334]
Isolation_window: 4.0
Ion_mode: N
Num Peaks: 5
254.0585	29.4
282.0537	88.1
283.0595	36.5
297.0774	100.0
298.0826	30.7

Name: 3-Hydroxy-9-Methoxy-6-Oxo-1,7-Bis(2-Oxoheptyl)Benzo(B)(1,4)Benzodioxepine-2-Carboxylic Acid
PrecursorMZ: 557.23854
RT: 6.6912
ExactMass: 526.22028266
Spectrum_type: 2
charge: -1
Formula: C29H34O9
SMILES: CCCCCC(=O)CC1=C2C(=CC(=C1)OC)OC3=C(C=C(C(=C3CC(=O)CCCCC)C(=O)O)O)OC2=O
Method: HCD
Collision_energy: [28.333334]
Isolation_window: 4.0
Ion_mode: N
Num Peaks: 13
267.1128	100.0
268.1167	14.7
300.1103	14.5
311.1035	7.8
391.1891	70.2
392.1926	17.9
435.1785	32.2
436.1823	6.8
513.2474	6.3
555.3558	10.1
556.3561	6.9
557.2384	85.8
558.2419	27.3

Name: 3-Hydroxyacetaminophen
PrecursorMZ: 166.0503
RT: 2.1806
ExactMass: 167.058243149
Spectrum_type: 2
charge: -1
Formula: C8H9NO3
SMILES: CC(=O)NC1=CC(=C(C=C1)O)O
Method: HCD
Collision_energy: [28.333334]
Isolation_window: 4.0
Ion_mode: N
Num Peaks: 10
68.0132	2.8
94.9921	10.1
95.0241	2.7
97.0398	2.9
109.0398	2.5
123.0316	4.7
137.0348	3.0
164.9611	3.0
166.0503	100.0
167.0546	7.4

Name: 3-Hydroxyaspartic acid
PrecursorMZ: 148.02414
RT: 0.9151
ExactMass: 149.03242232
Spectrum_type: 2
charge: -1
Formula: C4H7NO5
SMILES: C(C(C(=O)O)O)(C(=O)O)N
Method: HCD
Collision_energy: [28.333334]
Isolation_window: 4.0
Ion_mode: N
Num Peaks: 4
61.9874	69.3
72.9921	45.5
86.0237	100.0
87.0078	38.3

Name: 3-Hydroxybenzyl alcohol
PrecursorMZ: 123.04438
RT: 2.1865
ExactMass: 124.052429494
Spectrum_type: 2
charge: -1
Formula: C7H8O2
SMILES: C1=CC(=CC(=C1)O)CO
Method: HCD
Collision_energy: [28.333334]
Isolation_window: 4.0
Ion_mode: N
Num Peaks: 10
81.0337	3.2
93.0336	6.6
95.0129	2.6
95.0493	10.5
105.0336	2.2
108.0208	2.2
121.0285	3.2
122.0365	12.2
123.0443	100.0
124.0476	10.0

Name: 3-Hydroxybutyric Acid
PrecursorMZ: 103.03911
RT: 1.2038
ExactMass: 104.047344113
Spectrum_type: 2
charge: -1
Formula: C4H8O3
SMILES: CC(CC(=O)O)O
Method: HCD
Collision_energy: [28.333334]
Isolation_window: 4.0
Ion_mode: N
Num Peaks: 4
57.0338	2.3
59.0129	100.0
60.0163	2.5
103.0391	14.5

Name: 3-Hydroxyglutaric acid
PrecursorMZ: 147.02908
RT: 1.615
ExactMass: 148.03717335
Spectrum_type: 2
charge: -1
Formula: C5H8O5
SMILES: C(C(CC(=O)O)O)C(=O)O
Method: HCD
Collision_energy: [28.333334]
Isolation_window: 4.0
Ion_mode: N
Num Peaks: 4
85.0285	100.0
86.0238	90.6
102.9477	75.6
164.9610	69.7

Name: 3-Hydroxykynurenine
PrecursorMZ: 206.04553
RT: 1.9904
ExactMass: 224.07970687
Spectrum_type: 2
charge: -1
Formula: C10H12N2O4
SMILES: C1=CC(=C(C(=C1)O)N)C(=O)CC(C(=O)O)N
Method: HCD
Collision_energy: [28.333334]
Isolation_window: 4.0
Ion_mode: N
Num Peaks: 13
132.0447	2.0
144.0448	15.5
145.0481	1.7
148.0399	2.4
159.0316	1.2
160.0398	100.0
161.0432	9.3
162.0554	68.1
163.0589	6.2
176.0347	2.2
188.0348	7.2
206.0454	25.3
207.0486	2.7

Name: 3-Hydroxymandelic acid
PrecursorMZ: 167.03387
RT: 1.9119
ExactMass: 168.04225873
Spectrum_type: 2
charge: -1
Formula: C8H8O4
SMILES: C1=CC(=CC(=C1)O)C(C(=O)O)O
Method: HCD
Collision_energy: [28.333334]
Isolation_window: 4.0
Ion_mode: N
Num Peaks: 8
98.0238	4.1
121.0284	100.0
122.0313	7.1
123.0441	10.1
125.0346	3.9
125.0598	14.6
167.0339	9.5
169.0499	3.5

Name: 3-Hydroxynonanoic acid
PrecursorMZ: 173.11765
RT: 5.821669230769231
ExactMass: 174.125594432
Spectrum_type: 2
charge: -1
Formula: C9H18O3
SMILES: CCCCCCC(CC(=O)O)O
Method: HCD
Collision_energy: [28.333334]
Isolation_window: 4.0
Ion_mode: N
Num Peaks: 5
127.1119	31.5
128.1152	2.9
146.9600	1.4
173.1175	100.0
174.1209	10.1

Name: 3-Hydroxyoctanedioic acid
PrecursorMZ: 189.07726
RT: 3.3585
ExactMass: 190.08412354
Spectrum_type: 2
charge: -1
Formula: C8H14O5
SMILES: C(CCC(=O)O)CC(CC(=O)O)O
Method: HCD
Collision_energy: [28.333334]
Isolation_window: 4.0
Ion_mode: N
Num Peaks: 4
102.9480	38.6
127.0754	31.6
129.0548	100.0
189.0766	88.8

Name: 3-Hydroxysebacic acid
PrecursorMZ: 217.10757
RT: 3.5455
ExactMass: 218.11542367
Spectrum_type: 2
charge: -1
Formula: C10H18O5
SMILES: C(CCCC(=O)O)CCC(CC(=O)O)O
Method: HCD
Collision_energy: [28.333334]
Isolation_window: 4.0
Ion_mode: N
Num Peaks: 8
137.0964	2.2
155.1070	28.4
156.1105	2.6
171.1019	20.8
172.1055	1.9
199.0970	5.2
217.1076	100.0
218.1110	11.7

Name: 3-Indol-3-yl-2-(2-(2-methylphenoxy)acetylamino)propanoic acid
PrecursorMZ: 351.13528
RT: 4.9921
ExactMass: 352.14230712
Spectrum_type: 2
charge: -1
Formula: C20H20N2O4
SMILES: CC1=CC=CC=C1OCC(=O)NC(CC2=CNC3=CC=CC=C32)C(=O)O
Method: HCD
Collision_energy: [28.333334]
Isolation_window: 4.0
Ion_mode: N
Num Peaks: 24
58.0289	2.7
72.0445	7.5
74.0238	54.5
98.0240	4.1
116.0497	13.1
116.0708	3.3
142.0657	2.4
147.0443	2.3
159.0921	5.1
164.0711	5.5
178.0867	7.4
201.1027	4.3
203.0821	77.8
204.0660	2.8
204.0854	8.2
222.0768	26.4
223.0800	3.0
272.1288	3.3
292.1680	3.3
307.1453	6.1
316.1359	3.3
351.1351	100.0
351.1755	3.8
352.1385	24.3

Name: 3-Indoleacrylic acid
PrecursorMZ: 186.05551
RT: 2.7704
ExactMass: 187.06332853
Spectrum_type: 2
charge: -1
Formula: C11H9NO2
SMILES: C1=CC=C2C(=C1)C(=CN2)/C=C/C(=O)O
Method: HCD
Collision_energy: [28.333334]
Isolation_window: 4.0
Ion_mode: N
Num Peaks: 6
98.0238	1.9
99.9250	2.1
142.0655	100.0
143.0690	9.5
160.0513	2.2
186.0552	3.9

Name: 3-Methoxy-4-(2-methoxy-4-(1,2,3-trihydroxypropyl)phenoxy)benzoic acid
PrecursorMZ: 363.10859
RT: 3.30375
ExactMass: 364.11581759
Spectrum_type: 2
charge: -1
Formula: C18H20O8
SMILES: COC1=C(C=CC(=C1)C(C(CO)O)O)OC2=C(C=C(C=C2)C(=O)O)OC
Method: HCD
Collision_energy: [28.333334]
Isolation_window: 4.0
Ion_mode: N
Num Peaks: 6
150.0314	34.7
165.0550	100.0
167.0342	80.0
195.0660	48.6
315.0876	43.3
363.1077	20.3

Name: 3-Methyl-2-((2,3,4-trihydroxy-5-(hydroxymethyl)oxolan-2-yl)methylamino)pentanoic acid
PrecursorMZ: 292.14011
RT: 1.21925
ExactMass: 293.14745207
Spectrum_type: 2
charge: -1
Formula: C12H23NO7
SMILES: CCC(C)C(C(=O)O)NCC1(C(C(C(O1)CO)O)O)O
Method: HCD
Collision_energy: [28.333334]
Isolation_window: 4.0
Ion_mode: N
Num Peaks: 15
89.0234	4.9
101.0234	13.4
128.0344	15.4
128.9671	19.6
130.0865	100.0
131.0899	5.9
172.0974	3.8
200.0557	5.6
200.9520	12.9
202.1079	12.0
274.1295	3.1
290.0881	3.3
292.1035	3.1
292.1402	5.1
293.0871	3.0

Name: 3-Methylcatechol
PrecursorMZ: 123.04433
RT: 2.0224
ExactMass: 124.052429494
Spectrum_type: 2
charge: -1
Formula: C7H8O2
SMILES: CC1=C(C(=CC=C1)O)O
Method: HCD
Collision_energy: [28.333334]
Isolation_window: 4.0
Ion_mode: N
Num Peaks: 7
81.0336	100.0
94.0289	15.4
121.0286	16.9
122.0248	10.5
122.0352	15.9
123.0443	89.6
124.0395	9.2

Name: 3-Methylorsellinic acid
PrecursorMZ: 181.04973
RT: 2.5221
ExactMass: 182.0579088
Spectrum_type: 2
charge: -1
Formula: C9H10O4
SMILES: CC1=CC(=C(C(=C1C(=O)O)O)C)O
Method: HCD
Collision_energy: [28.333334]
Isolation_window: 4.0
Ion_mode: N
Num Peaks: 18
57.0337	1.0
68.0132	1.1
90.9971	1.2
95.0241	1.7
95.0492	18.2
96.0526	1.0
98.0238	1.0
109.0397	1.9
110.0238	1.2
119.0495	1.7
125.0347	1.1
134.9871	2.1
135.9903	1.1
137.0360	1.5
137.0599	100.0
138.0633	8.8
153.0297	0.9
181.0497	1.0

Name: 3-Methyloxindole
PrecursorMZ: 146.06051
RT: 3.3298
ExactMass: 147.068413911
Spectrum_type: 2
charge: -1
Formula: C9H9NO
SMILES: CC1C2=CC=CC=C2NC1=O
Method: HCD
Collision_energy: [28.333334]
Isolation_window: 4.0
Ion_mode: N
Num Peaks: 12
85.0286	5.7
101.0235	3.5
116.0498	3.6
118.0292	2.4
118.0401	2.7
128.0499	3.7
131.0369	16.9
144.0447	37.4
145.0485	6.6
146.0255	2.3
146.0604	100.0
147.0645	16.9

Name: 3-O-(Beta-D-Xylopyranosyl(1->3)-Beta-D-Glucopyranosiduronic Acid)Oleanolic Acid
PrecursorMZ: 763.42479
RT: 6.9642
ExactMass: 764.43469209
Spectrum_type: 2
charge: -1
Formula: C41H64O13
SMILES: C[C@]12CC[C@@H](C([C@@H]1CC[C@@]3([C@@H]2CC=C4[C@]3(CC[C@@]5([C@H]4CC(CC5)(C)C)C(=O)O)C)C)(C)C)O[C@H]6[C@@H]([C@H]([C@@H]([C@H](O6)C(=O)O)O)O[C@H]7[C@@H]([C@H]([C@@H](CO7)O)O)O)O
Method: HCD
Collision_energy: [28.333334]
Isolation_window: 4.0
Ion_mode: N
Num Peaks: 21
59.0127	6.0
71.0126	10.1
75.0075	8.6
84.8224	2.6
84.8282	4.3
84.9395	1.8
85.0282	6.9
87.0075	1.4
89.0231	13.0
99.0074	7.2
101.0229	1.8
113.0231	9.2
131.0335	2.6
157.0128	4.5
255.0682	2.6
407.3303	1.6
455.3526	1.5
613.3711	1.7
763.4253	100.0
764.4281	41.8
765.4304	8.2

Name: 3-O-Methylfunicone
PrecursorMZ: 387.10872
RT: 3.7735
ExactMass: 388.11581759
Spectrum_type: 2
charge: -1
Formula: C20H20O8
SMILES: C/C=C/C1=C(C(=O)C(=CO1)C(=O)C2=C(C=C(C=C2OC)OC)C(=O)OC)OC
Method: HCD
Collision_energy: [28.333334]
Isolation_window: 4.0
Ion_mode: N
Num Peaks: 10
134.0365	63.2
145.0651	22.3
149.0602	18.4
165.0548	13.3
181.0498	14.7
193.0500	87.9
343.1178	20.0
387.1088	100.0
388.1090	22.9
389.1251	31.4

Name: 3-acetyl-2-(1,3-benzodioxol-5-yl)-4-hydroxy-1-(3-morpholin-4-ylpropyl)-2H-pyrrol-5-one
PrecursorMZ: 387.1557
RT: 4.6236
ExactMass: 388.16343649
Spectrum_type: 2
charge: -1
Formula: C20H24N2O6
SMILES: CC(=O)C1=C(C(=O)N(C1C2=CC3=C(C=C2)OCO3)CCCN4CCOCC4)O
Method: HCD
Collision_energy: [28.333334]
Isolation_window: 4.0
Ion_mode: N
Num Peaks: 20
122.0602	8.0
136.0762	4.6
150.0916	4.8
192.1024	9.5
194.0822	4.6
219.0897	8.4
220.0974	100.0
221.1009	13.0
245.1294	11.9
257.1300	4.2
271.1451	18.8
313.1527	4.7
315.1350	38.9
316.1383	8.5
325.1559	14.9
327.1340	4.4
341.1477	14.8
343.1664	11.9
387.1562	90.9
388.1600	20.1

Name: 3-methyl-N-(5-methyl-2-(4-methylpiperidine-1-carbonyl)-1H-indol-3-yl)benzamide
PrecursorMZ: 388.2035
RT: 6.5103
ExactMass: 389.21032711
Spectrum_type: 2
charge: -1
Formula: C24H27N3O2
SMILES: CC1CCN(CC1)C(=O)C2=C(C3=C(N2)C=CC(=C3)C)NC(=O)C4=CC=CC(=C4)C
Method: HCD
Collision_energy: [28.333334]
Isolation_window: 4.0
Ion_mode: N
Num Peaks: 6
263.1191	9.1
264.1266	37.8
265.1344	100.0
266.1375	17.6
388.2030	77.2
389.2064	19.4

Name: 3-phenyl-2-((3,4,5-trimethoxybenzoyl)amino)propanoic Acid
PrecursorMZ: 358.13
RT: 4.1817
ExactMass: 359.13688739
Spectrum_type: 2
charge: -1
Formula: C19H21NO6
SMILES: COC1=CC(=CC(=C1OC)OC)C(=O)NC(CC2=CC=CC=C2)C(=O)O
Method: HCD
Collision_energy: [28.333334]
Isolation_window: 4.0
Ion_mode: N
Num Peaks: 16
74.0239	20.8
98.0238	16.8
121.0288	7.6
176.0711	35.0
180.0660	7.1
191.0709	20.3
203.0709	6.4
204.0658	9.3
220.0613	37.6
221.0822	6.1
236.0927	8.9
252.0877	31.5
315.1231	7.3
329.1033	9.8
358.1300	100.0
359.1297	16.2

Name: 3a-Hydroxy-3,5a,9-trimethyl-3,4,5,6,7,9b-hexahydrobenzo(g)(1)benzofuran-2,8-dione
PrecursorMZ: 263.1291
RT: 6.0394
ExactMass: 264.13615911
Spectrum_type: 2
charge: -1
Formula: C15H20O4
SMILES: CC1C(=O)OC2C1(CCC3(C2=C(C(=O)CC3)C)C)O
Method: HCD
Collision_energy: [28.333334]
Isolation_window: 4.0
Ion_mode: N
Num Peaks: 8
96.9592	1.1
219.1387	35.9
220.1421	5.2
245.1180	0.9
247.1339	3.2
263.1289	100.0
264.1324	14.8
265.1466	4.6

Name: 3a-Hydroxy-3-(hydroxymethyl)-1,1,3,5-tetramethyl-2,4,5,6,7,7a-hexahydroindene-4-carboxylic acid
PrecursorMZ: 269.17618
RT: 5.2548
ExactMass: 270.18310931
Spectrum_type: 2
charge: -1
Formula: C15H26O4
SMILES: CC1CCC2C(CC(C2(C1C(=O)O)O)(C)CO)(C)C
Method: HCD
Collision_energy: [28.333334]
Isolation_window: 4.0
Ion_mode: N
Num Peaks: 7
233.1545	9.8
269.1204	8.5
269.1760	100.0
270.1793	15.2
271.0613	4.3
271.0974	7.9
271.1915	10.2

Name: 3a-Hydroxycholanoic acid
PrecursorMZ: 375.29085
RT: 8.394733333333333
ExactMass: 376.29774513
Spectrum_type: 2
charge: -1
Formula: C24H40O3
SMILES: C[C@H](CCC(=O)O)[C@H]1CC[C@@H]2[C@@]1(CC[C@H]3[C@H]2CCC4[C@@]3(CC[C@H](C4)O)C)C
Method: HCD
Collision_energy: [28.333334]
Isolation_window: 4.0
Ion_mode: N
Num Peaks: 7
61.9875	2.8
108.0446	16.0
373.2720	2.8
374.3087	5.4
375.2907	100.0
376.2939	24.2
377.2995	2.1

Name: 3aH-Cyclopenta(a)chrysene-3a-carboxylic acid, 1-acetyleicosahydro-9-hydroxy-5a,5b,8,8,11a-pentamethyl-, (1R,3aS,5aR,5bR,9S,11aR)-
PrecursorMZ: 457.33258
RT: 6.5393
ExactMass: 458.33960994
Spectrum_type: 2
charge: -1
Formula: C29H46O4
SMILES: CC(=O)[C@@H]1CC[C@]2(C1C3CCC4[C@]5(CC[C@@H](C(C5CC[C@]4([C@@]3(CC2)C)C)(C)C)O)C)C(=O)O
Method: HCD
Collision_energy: [28.333334]
Isolation_window: 4.0
Ion_mode: N
Num Peaks: 5
50.8160	4.3
61.9874	3.5
457.3329	100.0
458.3361	32.3
459.3478	6.1

Name: 3beta-Hydroxy-23,24-bisnorchol-5-enic acid
PrecursorMZ: 345.2435
RT: 10.1473
ExactMass: 346.25079494
Spectrum_type: 2
charge: -1
Formula: C22H34O3
SMILES: CC([C@H]1CCC2[C@@]1(CCC3C2CC=C4[C@@]3(CC[C@@H](C4)O)C)C)C(=O)O
Method: HCD
Collision_energy: [28.333334]
Isolation_window: 4.0
Ion_mode: N
Num Peaks: 4
301.2534	100.0
302.2566	21.5
345.2433	84.8
346.2472	20.7

Name: 4',6,7-Trimethoxyisoflavone
PrecursorMZ: 174.05556
RT: 4.7981
ExactMass: 312.09977361
Spectrum_type: 2
charge: -1
Formula: C18H16O5
SMILES: COC1=CC=C(C=C1)C2=COC3=CC(=C(C=C3C2=O)OC)OC
Method: HCD
Collision_energy: [28.333334]
Isolation_window: 4.0
Ion_mode: N
Num Peaks: 10
118.9656	7.2
128.8773	6.9
146.9606	51.8
159.0321	100.0
160.0355	8.2
172.8304	26.3
174.0557	40.3
174.8281	14.1
174.9559	4.7
175.0593	3.5

Name: 4'-Demethylpodophyllotoxin
PrecursorMZ: 445.11456
RT: 3.8914
ExactMass: 400.11581759
Spectrum_type: 2
charge: -1
Formula: C21H20O8
SMILES: COC1=CC(=CC(=C1O)OC)[C@H]2[C@@H]3[C@H](COC3=O)[C@H](C4=CC5=C(C=C24)OCO5)O
Method: HCD
Collision_energy: [28.333334]
Isolation_window: 4.0
Ion_mode: N
Num Peaks: 28
121.0286	57.2
153.0550	51.0
173.0237	11.7
174.0315	12.9
175.0393	5.7
176.0470	9.1
188.0473	63.7
189.0550	73.3
190.0591	8.8
203.0708	52.7
204.0744	7.0
232.0375	7.3
233.0440	6.4
247.0613	6.2
257.1659	8.2
312.0650	7.0
326.0793	16.9
327.0873	65.2
328.0909	13.7
341.1030	55.0
342.1099	32.0
386.1004	12.0
401.1245	100.0
402.1275	24.2
402.2038	8.7
445.1138	16.7
446.2239	7.5
447.1304	45.6

Name: 4'-Hydroxypropiophenone
PrecursorMZ: 149.0601
RT: 4.475
ExactMass: 150.068079557
Spectrum_type: 2
charge: -1
Formula: C9H10O2
SMILES: CCC(=O)C1=CC=C(C=C1)O
Method: HCD
Collision_energy: [28.333334]
Isolation_window: 4.0
Ion_mode: N
Num Peaks: 10
93.0336	9.4
105.0337	4.2
106.9922	6.0
108.0207	9.8
123.0445	3.2
136.0159	6.1
149.0240	9.1
149.0601	100.0
150.0635	13.3
151.0393	34.3

Name: 4'-Methoxy-2'-hydroxy chalcone
PrecursorMZ: 313.10816
RT: 4.7951
ExactMass: 254.094294304
Spectrum_type: 2
charge: -1
Formula: C16H14O3
SMILES: COC1=CC(=C(C=C1)C(=O)C=CC2=CC=CC=C2)O
Method: HCD
Collision_energy: [28.333334]
Isolation_window: 4.0
Ion_mode: N
Num Peaks: 18
107.0493	5.4
109.0286	3.7
119.0493	3.6
121.0284	2.1
121.0651	2.9
123.0442	24.4
147.0445	6.4
147.0804	2.1
149.0600	9.2
161.0598	4.2
163.0755	2.8
205.0500	14.0
227.1068	2.0
269.1177	8.9
312.1244	3.3
313.1080	100.0
314.1113	20.0
315.1604	21.8

Name: 4,2',5'-Trihydroxychalcone
PrecursorMZ: 255.06606
RT: 6.7793
ExactMass: 256.07355886
Spectrum_type: 2
charge: -1
Formula: C15H12O4
SMILES: C1=CC(=CC=C1C=CC(=O)C2=C(C=CC(=C2)O)O)O
Method: HCD
Collision_energy: [28.333334]
Isolation_window: 4.0
Ion_mode: N
Num Peaks: 13
59.0129	10.8
83.0128	1.6
107.0131	1.6
151.0028	4.5
195.1747	4.2
211.0762	2.5
211.1695	2.0
213.0550	5.3
255.0660	100.0
255.1961	6.8
256.0694	14.9
256.1989	1.5
257.1737	10.9

Name: 4,6,8-Trihydroxy-3-methyl-3,4-dihydroisochromen-1-one
PrecursorMZ: 209.04518
RT: 2.7644
ExactMass: 210.05282342
Spectrum_type: 2
charge: -1
Formula: C10H10O5
SMILES: CC1C(C2=C(C(=CC(=C2)O)O)C(=O)O1)O
Method: HCD
Collision_energy: [28.333334]
Isolation_window: 4.0
Ion_mode: N
Num Peaks: 28
59.0129	7.6
109.0286	4.9
109.0650	2.9
110.0239	2.1
119.0493	3.0
121.0287	5.4
123.0443	2.6
123.0807	4.6
124.0394	1.5
135.0443	4.6
137.0241	2.9
137.0600	26.1
138.0635	2.4
139.0394	4.1
147.0444	6.1
163.0392	8.4
163.0587	4.9
165.0550	12.8
166.0865	1.5
167.0709	5.5
181.0500	50.8
182.0535	4.9
207.0484	1.5
207.0664	2.8
209.0451	100.0
209.0792	2.3
210.0486	10.3
211.0621	4.0

Name: 4,6-Dihydroxy-3-methyl-2,3-dihydroisoindol-1-one
PrecursorMZ: 178.05036
RT: 2.7479
ExactMass: 179.058243149
Spectrum_type: 2
charge: -1
Formula: C9H9NO3
SMILES: CC1C2=C(C=C(C=C2O)O)C(=O)N1
Method: HCD
Collision_energy: [28.333334]
Isolation_window: 4.0
Ion_mode: N
Num Peaks: 13
90.9972	22.5
95.0240	4.1
109.0398	8.2
132.9716	7.2
134.0603	100.0
134.9871	80.9
135.0451	6.4
135.0639	8.4
136.0395	4.3
137.0347	4.7
176.9618	4.5
178.0500	28.8
178.9771	20.5

Name: 4,6-dihydroxy-3-(1-hydroxyethyl)-5-methoxy-3H-2-benzofuran-1-one
PrecursorMZ: 239.05591
RT: 1.954
ExactMass: 240.0633881
Spectrum_type: 2
charge: -1
Formula: C11H12O6
SMILES: CC(C1C2=C(C(=C(C=C2C(=O)O1)O)OC)O)O
Method: HCD
Collision_energy: [28.333334]
Isolation_window: 4.0
Ion_mode: N
Num Peaks: 59
57.0336	4.3
59.0130	6.4
69.0335	3.4
71.0130	3.5
72.9923	4.2
73.0286	5.7
85.0285	8.0
94.0289	6.1
95.0491	4.8
96.0081	3.7
97.0285	10.6
109.0286	11.1
111.0442	4.2
113.0235	14.1
113.0347	4.1
121.0288	5.0
123.0085	3.8
123.0445	6.7
125.0236	79.4
126.0268	3.8
127.0392	4.0
135.0445	24.1
137.0236	8.6
137.0601	7.2
139.0393	44.1
149.0235	4.1
149.0601	5.2
150.0549	5.0
151.0398	6.0
153.0185	3.2
153.0546	4.7
155.0344	5.4
159.0446	7.7
162.0315	10.5
165.0185	14.4
165.0549	15.2
167.0336	3.5
167.0702	3.3
175.0395	3.5
177.0550	40.1
178.0270	4.6
178.0585	3.6
179.0344	15.2
180.0409	3.1
180.0653	4.6
181.0503	6.6
183.0292	11.6
193.0498	5.9
194.0818	3.4
195.0649	10.1
197.0447	6.3
211.0607	3.6
221.0450	9.4
238.0713	13.4
239.0556	100.0
240.0589	11.3
240.0876	8.6
241.0699	4.1
241.1053	4.4

Name: 4-((5-(5-hydroxy-3-((((2Z)-2-methylbut-2-enoyl)oxy)methyl)pentyl)-8a-(hydroxymethyl)-5,6-dimethyl-3,4,4a,5,6,7,8,8a-octahydronaphthalen-1-yl)methoxy)-4-oxobutanoic acid
PrecursorMZ: 521.31265
RT: 5.4534
ExactMass: 522.31926842
Spectrum_type: 2
charge: -1
Formula: C29H46O8
SMILES: C/C=C(/C)\C(=O)OCC(CCC1(C(CCC2(C1CCC=C2COC(=O)CCC(=O)O)CO)C)C)CCO
Method: HCD
Collision_energy: [28.333334]
Isolation_window: 4.0
Ion_mode: N
Num Peaks: 49
59.0130	16.1
61.9875	8.4
71.0129	8.3
73.0286	14.6
83.0493	30.5
85.0286	19.0
87.0442	24.4
97.0649	18.0
98.0366	8.9
99.0442	18.3
101.0599	29.0
109.0649	10.4
111.0441	11.3
113.0598	16.5
123.0808	9.3
137.0599	16.9
137.0963	9.0
139.0755	10.1
149.0602	8.1
149.0965	18.9
151.0757	21.8
153.0911	13.2
163.0755	10.3
163.1120	8.1
165.0912	17.8
167.1070	12.5
175.0759	21.6
176.0836	9.9
177.0915	20.9
179.0705	9.5
193.0863	20.6
203.1282	22.2
267.1594	8.9
319.1918	43.0
320.1950	8.7
461.2897	9.7
463.3072	8.5
475.2343	15.7
475.3060	16.1
476.3063	8.5
503.3350	13.9
505.3115	10.1
519.3408	14.6
520.3240	17.3
521.2382	29.9
521.3448	100.0
522.2412	8.5
522.3243	29.8
523.3605	50.9

Name: 4-((5-(6-Hydroxy-5,5,8a-trimethyl-2-methylenedecahydro-1-naphthalenyl)-3-methylpentyl)oxy)-4-oxobutanoic acid
PrecursorMZ: 453.2865
RT: 4.7405
ExactMass: 408.28757437
Spectrum_type: 2
charge: -1
Formula: C24H40O5
SMILES: CC(CCC1C(=C)CCC2C1(CCC(C2(C)C)O)C)CCOC(=O)CCC(=O)O
Method: HCD
Collision_energy: [28.333334]
Isolation_window: 4.0
Ion_mode: N
Num Peaks: 25
127.0505	2.6
127.0525	6.5
130.0865	2.9
130.0885	6.5
135.0446	1.9
177.0190	7.8
180.0426	3.7
189.0191	4.8
191.0351	2.4
203.0349	6.1
219.0300	10.6
343.0829	17.4
343.2643	1.9
344.0864	2.8
407.2809	100.0
408.2846	26.2
409.2793	2.1
409.2885	4.0
452.2392	2.7
453.1190	12.9
453.2700	13.8
453.2758	4.9
454.1155	2.7
454.2801	3.2
455.2982	3.1

Name: 4-((E)-3-((2R,3R,4S,5S,6R)-3-((2S,3R,4R)-3,4-dihydroxy-4-(hydroxymethyl)oxolan-2-yl)oxy-4,5-dihydroxy-6-(hydroxymethyl)oxan-2-yl)oxybut-1-enyl)-3,5,5-trimethylcyclohex-2-en-1-one
PrecursorMZ: 501.23495
RT: 7.034
ExactMass: 502.24141202
Spectrum_type: 2
charge: -1
Formula: C24H38O11
SMILES: CC1=CC(=O)CC(C1/C=C/C(C)O[C@H]2[C@@H]([C@H]([C@@H]([C@H](O2)CO)O)O)O[C@H]3[C@@H]([C@](CO3)(CO)O)O)(C)C
Method: HCD
Collision_energy: [28.333334]
Isolation_window: 4.0
Ion_mode: N
Num Peaks: 8
161.0446	34.0
161.0962	37.1
175.1486	100.0
221.1542	30.0
253.0927	37.0
455.2286	42.8
501.3318	31.9
503.3376	20.1

Name: 4-(1,1'-Biphenyl)-2-yl-N-((4-cyanophenyl)methyl)-1-piperazinehexanamide
PrecursorMZ: 511.27096
RT: 6.1205
ExactMass: 466.27326172
Spectrum_type: 2
charge: -1
Formula: C30H34N4O
SMILES: C1CN(CCN1CCCCCC(=O)NCC2=CC=C(C=C2)C#N)C3=CC=CC=C3C4=CC=CC=C4
Method: HCD
Collision_energy: [28.333334]
Isolation_window: 4.0
Ion_mode: N
Num Peaks: 16
56.8063	1.9
56.8095	4.5
61.9871	3.3
87.0438	1.8
96.9587	17.8
115.0748	1.7
467.3355	6.1
509.2547	2.8
509.3450	2.4
509.3813	2.5
510.2601	5.6
510.3510	2.2
511.2709	100.0
511.3530	4.1
512.2742	27.4
513.2761	7.4

Name: 4-(1-(5-(3,4-dimethyl-1H-pyrazol-5-yl)-2,4-dimethylbenzoyl)azetidin-3-yl)benzonitrile
PrecursorMZ: 383.18798
RT: 10.446
ExactMass: 384.1950114
Spectrum_type: 2
charge: -1
Formula: C24H24N4O
SMILES: CC1=CC(=C(C=C1C2=NNC(=C2C)C)C(=O)N3CC(C3)C4=CC=C(C=C4)C#N)C
Method: HCD
Collision_energy: [28.333334]
Isolation_window: 4.0
Ion_mode: N
Num Peaks: 5
99.9244	55.2
115.9194	23.0
116.9271	64.4
383.1883	100.0
384.1914	27.8

Name: 4-(2,4-Dihydroxy-3,5-dimethylbenzoyl)oxy-2-hydroxy-3,5-dimethylbenzoic acid
PrecursorMZ: 345.09798
RT: 4.3146
ExactMass: 346.10525291
Spectrum_type: 2
charge: -1
Formula: C18H18O7
SMILES: CC1=CC(=C(C(=C1O)C)O)C(=O)OC2=C(C(=C(C=C2C)C(=O)O)O)C
Method: HCD
Collision_energy: [28.333334]
Isolation_window: 4.0
Ion_mode: N
Num Peaks: 24
59.0128	7.6
96.9591	9.2
135.0443	100.0
136.0478	7.3
137.0599	10.6
145.0287	5.6
163.0391	6.1
165.0549	31.2
167.0343	15.9
171.1020	5.3
181.0499	72.6
182.0538	6.4
209.0712	5.3
209.1177	7.6
229.1442	8.8
315.0874	11.8
327.0878	6.3
343.2123	65.1
344.2157	22.8
345.0979	17.2
345.1390	8.2
345.1907	5.8
345.2271	13.3
346.1347	6.8

Name: 4-(2-((1R,4aS,5R,6R,8aS)-6-hydroxy-5-(hydroxymethyl)-5,8a-dimethyl-2-methylidene-3,4,4a,6,7,8-hexahydro-1H-naphthalen-1-yl)-1-hydroxyethyl)-2H-furan-5-one
PrecursorMZ: 349.20183
RT: 6.3356
ExactMass: 350.20932405
Spectrum_type: 2
charge: -1
Formula: C20H30O5
SMILES: C[C@@]12CC[C@H]([C@@]([C@H]1CCC(=C)[C@H]2CC(C3=CCOC3=O)O)(C)CO)O
Method: HCD
Collision_energy: [28.333334]
Isolation_window: 4.0
Ion_mode: N
Num Peaks: 17
167.1067	4.9
217.1590	9.9
219.1387	7.0
235.1700	18.4
243.1749	30.6
244.1784	7.5
261.1858	5.6
305.1757	7.1
305.2120	23.5
306.2154	5.9
307.2273	5.9
349.1648	84.2
349.2024	100.0
350.1682	18.4
350.2055	21.1
351.1798	7.2
351.2170	12.6

Name: 4-(2-((1R,4aS,5R,6R,8aS)-6-hydroxy-5-(hydroxymethyl)-5,8a-dimethyl-2-methylidene-3,4,4a,6,7,8-hexahydro-1H-naphthalen-1-yl)acetyl)-2H-furan-5-one
PrecursorMZ: 347.18647
RT: 4.25483
ExactMass: 348.19367399
Spectrum_type: 2
charge: -1
Formula: C20H28O5
SMILES: C[C@@]12CC[C@H]([C@@]([C@H]1CCC(=C)[C@H]2CC(=O)C3=CCOC3=O)(C)CO)O
Method: HCD
Collision_energy: [28.333334]
Isolation_window: 4.0
Ion_mode: N
Num Peaks: 15
73.0285	3.3
255.1754	3.0
273.1859	3.6
285.1858	17.5
286.1885	3.6
301.1809	12.6
303.1967	46.0
304.1999	8.7
305.1508	9.2
305.2100	4.3
345.2271	5.2
347.1862	100.0
348.1896	22.6
349.1385	2.7
349.2021	69.5

Name: 4-(2-Methyl-6-oxopyran-3-YL)butanoic acid
PrecursorMZ: 195.0659
RT: 2.9841
ExactMass: 196.07355886
Spectrum_type: 2
charge: -1
Formula: C10H12O4
SMILES: CC1=C(C=CC(=O)O1)CCCC(=O)O
Method: HCD
Collision_energy: [28.333334]
Isolation_window: 4.0
Ion_mode: N
Num Peaks: 10
59.0129	12.3
81.0336	8.2
91.0293	11.2
109.0397	9.0
123.0444	100.0
123.0552	11.6
133.0652	55.7
135.0445	27.5
177.0551	47.1
195.0659	13.0

Name: 4-(3,12-dihydroxy-10,13-dimethyl-7-sulfooxy-2,3,4,5,6,7,8,9,11,12,14,15,16,17-tetradecahydro-1H-cyclopenta(a)phenanthren-17-yl)pentanoic acid
PrecursorMZ: 487.23758
RT: 4.428
ExactMass: 488.2443894
Spectrum_type: 2
charge: -1
Formula: C24H40O8S
SMILES: CC(CCC(=O)O)C1CCC2C1(C(CC3C2C(CC4C3(CCC(C4)O)C)OS(=O)(=O)O)O)C
Method: HCD
Collision_energy: [28.333334]
Isolation_window: 4.0
Ion_mode: N
Num Peaks: 15
54.1360	2.1
54.1390	4.2
96.9592	29.4
133.0287	1.9
135.0444	2.5
173.0450	1.5
177.0188	1.6
179.0344	5.2
316.1348	4.3
485.2224	2.8
486.2292	3.4
487.1231	3.8
487.2373	100.0
488.2403	27.7
489.2342	6.6

Name: 4-(3,4-Dihydroxyphenyl)-7-hydroxy-5-(3,4,5-trihydroxy-6-((3,4,5-trihydroxyoxan-2-yl)oxymethyl)oxan-2-yl)oxychromen-2-one
PrecursorMZ: 579.13522
RT: 4.4916
ExactMass: 580.14282018
Spectrum_type: 2
charge: -1
Formula: C26H28O15
SMILES: C1C(C(C(C(O1)OCC2C(C(C(C(O2)OC3=CC(=CC4=C3C(=CC(=O)O4)C5=CC(=C(C=C5)O)O)O)O)O)O)O)O)O
Method: HCD
Collision_energy: [28.333334]
Isolation_window: 4.0
Ion_mode: N
Num Peaks: 12
85.0285	100.0
99.0443	25.2
111.0078	51.4
123.0443	16.5
127.0392	54.4
129.0184	45.5
167.0342	81.8
171.0291	22.0
195.0657	79.9
235.0611	28.9
263.0916	18.3
279.0507	14.8

Name: 4-(3-((2-Methylphenyl)carbamoyl)-8-oxo-4H,5H,6H,7H,8H,9H-pyrazolo(3,2-B)quinazolin-9-YL)benzoic acid
PrecursorMZ: 441.15672
RT: 8.6445
ExactMass: 442.1641052
Spectrum_type: 2
charge: -1
Formula: C25H22N4O4
SMILES: CC1=CC=CC=C1NC(=O)C2=C3NC4=C(C(N3N=C2)C5=CC=C(C=C5)C(=O)O)C(=O)CCC4
Method: HCD
Collision_energy: [28.333334]
Isolation_window: 4.0
Ion_mode: N
Num Peaks: 7
279.2322	19.6
349.1459	15.5
351.1614	21.7
353.1774	100.0
354.1802	16.3
397.1667	13.6
441.1569	31.3

Name: 4-(3-hydroxy-10,13-dimethyl-2,3,4,5,6,7,8,9,14,15,16,17-dodecahydro-1H-cyclopenta(a)phenanthren-17-yl)pentanoic acid
PrecursorMZ: 373.27479
RT: 8.707233333333333
ExactMass: 374.28209507
Spectrum_type: 2
charge: -1
Formula: C24H38O3
SMILES: CC(CCC(=O)O)C1CCC2C1(C=CC3C2CCC4C3(CCC(C4)O)C)C
Method: HCD
Collision_energy: [28.333334]
Isolation_window: 4.0
Ion_mode: N
Num Peaks: 3
373.2751	100.0
374.2765	28.8
375.2897	12.3

Name: 4-(3-methyl-5-(5,6,7-trihydroxy-1,2,4a,5-tetramethyl-3,4,6,7,8,8a-hexahydro-2H-naphthalen-1-yl)pentoxy)-4-oxobutanoic acid
PrecursorMZ: 441.28557
RT: 6.2821
ExactMass: 442.29305367
Spectrum_type: 2
charge: -1
Formula: C24H42O7
SMILES: CC1CCC2(C(C1(C)CCC(C)CCOC(=O)CCC(=O)O)CC(C(C2(C)O)O)O)C
Method: HCD
Collision_energy: [28.333334]
Isolation_window: 4.0
Ion_mode: N
Num Peaks: 5
145.0497	10.9
423.2777	11.9
440.2749	9.9
441.2870	100.0
442.2897	24.9

Name: 4-(4-(3-Adamantan-1-ylureido)cyclohexyloxy)benzoic acid
PrecursorMZ: 447.20608
RT: 3.8582
ExactMass: 412.23620751
Spectrum_type: 2
charge: -1
Formula: C24H32N2O4
SMILES: C1CC(CCC1NC(=O)NC23CC4CC(C2)CC(C4)C3)OC5=CC=C(C=C5)C(=O)O
Method: HCD
Collision_energy: [28.333334]
Isolation_window: 4.0
Ion_mode: N
Num Peaks: 7
96.9591	14.5
133.0498	1.2
445.1900	2.2
446.1927	4.6
447.2061	100.0
448.2091	23.9
449.2064	5.5

Name: 4-(4-(4-hydroxy-3-methoxyphenyl)-2,3-dimethylbutyl)benzene-1,2-diol
PrecursorMZ: 361.16569
RT: 5.9367
ExactMass: 316.16745924
Spectrum_type: 2
charge: -1
Formula: C19H24O4
SMILES: CC(CC1=CC(=C(C=C1)O)O)C(C)CC2=CC(=C(C=C2)O)OC
Method: HCD
Collision_energy: [28.333334]
Isolation_window: 4.0
Ion_mode: N
Num Peaks: 13
79.9555	48.5
171.1021	4.6
255.1751	24.9
299.1644	7.5
343.1549	100.0
344.1583	20.8
359.1895	19.1
359.2805	38.3
360.1928	8.3
360.2839	11.6
361.1655	27.2
361.2048	7.8
362.1685	5.3

Name: 4-(4-(Hydroxy-(4-hydroxy-3-methoxyphenyl)methyl)-3-(hydroxymethyl)oxolan-2-yl)-2-methoxyphenol
PrecursorMZ: 375.14508
RT: 4.9951
ExactMass: 376.1522031
Spectrum_type: 2
charge: -1
Formula: C20H24O7
SMILES: COC1=C(C=CC(=C1)C2C(C(CO2)C(C3=CC(=C(C=C3)O)OC)O)CO)O
Method: HCD
Collision_energy: [28.333334]
Isolation_window: 4.0
Ion_mode: N
Num Peaks: 12
59.0129	25.5
101.0235	42.6
225.0764	68.5
267.1141	100.0
269.1291	32.4
297.1134	27.4
299.1402	49.8
329.1392	87.0
373.1837	51.5
373.2605	46.5
374.1938	19.3
375.1466	45.6

Name: 4-(4-(benzyloxy)phenyl)-6-(3-isopropoxypropyl)-3,4,6,7-tetrahydro-1H-pyrrolo(3,4-d)pyrimidine-2,5-dione
PrecursorMZ: 434.20871
RT: 6.331733333333333
ExactMass: 435.21580641
Spectrum_type: 2
charge: -1
Formula: C25H29N3O4
SMILES: CC(C)OCCCN1CC2=C(C1=O)C(NC(=O)N2)C3=CC=C(C=C3)OCC4=CC=CC=C4
Method: HCD
Collision_energy: [28.333334]
Isolation_window: 4.0
Ion_mode: N
Num Peaks: 12
61.9874	5.2
132.0446	19.4
158.0603	100.0
159.0639	10.4
265.1341	36.6
266.1378	7.4
309.1245	22.0
310.1277	4.1
369.2420	4.3
434.2085	65.1
435.2112	18.4
435.3195	9.1

Name: 4-(7-Hydroxy-6-methoxy-2,3-dimethyl-1,2,3,4-tetrahydronaphthalen-1-yl)benzene-1,2-diol
PrecursorMZ: 359.15046
RT: 6.4313
ExactMass: 314.15180918
Spectrum_type: 2
charge: -1
Formula: C19H22O4
SMILES: CC1CC2=CC(=C(C=C2C(C1C)C3=CC(=C(C=C3)O)O)O)OC
Method: HCD
Collision_energy: [28.333334]
Isolation_window: 4.0
Ion_mode: N
Num Peaks: 8
61.9875	100.0
164.0474	9.0
165.0552	21.9
191.1073	23.3
192.1107	2.8
313.1448	17.2
314.1474	3.2
359.1493	7.5

Name: 4-(Acetyloxy)-3-methoxybenzeneacetic acid
PrecursorMZ: 223.06093
RT: 2.7638
ExactMass: 224.06847348
Spectrum_type: 2
charge: -1
Formula: C11H12O5
SMILES: CC(=O)OC1=C(C=C(C=C1)CC(=O)O)OC
Method: HCD
Collision_energy: [28.333334]
Isolation_window: 4.0
Ion_mode: N
Num Peaks: 23
59.0129	8.2
109.0286	11.5
113.0235	12.4
121.0286	9.8
124.0395	100.0
135.0444	9.2
137.0599	15.8
147.0810	7.6
159.0807	27.8
161.0599	7.5
164.0471	15.8
177.0913	52.2
179.0706	52.9
180.0115	6.6
181.0499	14.3
207.1020	6.7
221.0451	10.0
223.0606	60.0
224.0659	6.8
224.0926	12.6
225.0402	13.3
225.0782	12.4
225.1127	49.3

Name: 4-(hydroxymethyl)-2-methoxyphenol
PrecursorMZ: 153.05448
RT: 2.2326
Spectrum_type: 2
charge: -1
SMILES: OC1=C(OC)C=C(CO)C=C1
Method: HCD
Collision_energy: [28.333334]
Isolation_window: 4.0
Ion_mode: N
Num Peaks: 16
66.0338	10.9
67.0289	7.9
68.0130	5.9
78.9578	9.8
81.0446	8.7
82.0286	5.9
91.0290	6.4
110.0235	22.8
111.0188	7.8
125.0345	10.1
135.0439	100.0
136.0475	8.3
152.0451	5.6
152.0704	32.3
152.9946	16.0
153.0545	28.3

Name: 4-Acetamido-N-(3-(morpholin-4-YL)propyl)-2-(piperidin-1-YL)benzamide
PrecursorMZ: 433.24571
RT: 5.5765
ExactMass: 388.2474409
Spectrum_type: 2
charge: -1
Formula: C21H32N4O3
SMILES: CC(=O)NC1=CC(=C(C=C1)C(=O)NCCCN2CCOCC2)N3CCCCC3
Method: HCD
Collision_energy: [28.333334]
Isolation_window: 4.0
Ion_mode: N
Num Peaks: 6
114.0551	100.0
165.1026	86.3
179.1183	71.9
227.1405	13.8
433.2457	83.3
434.2536	19.9

Name: 4-Acetamidobutyric acid
PrecursorMZ: 144.06582
RT: 1.2912
ExactMass: 145.07389321
Spectrum_type: 2
charge: -1
Formula: C6H11NO3
SMILES: CC(=O)NCCCC(=O)O
Method: HCD
Collision_energy: [28.333334]
Isolation_window: 4.0
Ion_mode: N
Num Peaks: 5
58.0289	36.2
100.0030	42.0
100.0758	84.3
102.0551	100.0
144.0658	54.3

Name: 4-Acetylbutyric acid
PrecursorMZ: 129.05493
RT: 2.1953
ExactMass: 130.062994177
Spectrum_type: 2
charge: -1
Formula: C6H10O3
SMILES: CC(=O)CCCC(=O)O
Method: HCD
Collision_energy: [28.333334]
Isolation_window: 4.0
Ion_mode: N
Num Peaks: 9
57.0337	38.4
59.0130	45.7
71.0129	38.9
87.0442	100.0
89.0234	18.0
103.0028	29.2
129.0550	19.7
130.0403	51.8
131.0353	17.2

Name: 4-Fluoro-3-(((5-(1-methyl-1H-pyrazol-3-yl)pyridin-3-yl)methyl)amino)-N-(3-(trifluoromethoxy)phenyl)benzamide
PrecursorMZ: 530.14631
RT: 5.2431
ExactMass: 485.14748751
Spectrum_type: 2
charge: -1
Formula: C24H19F4N5O2
SMILES: CN1C=CC(=N1)C2=CN=CC(=C2)CNC3=C(C=CC(=C3)C(=O)NC4=CC(=CC=C4)OC(F)(F)F)F
Method: HCD
Collision_energy: [28.333334]
Isolation_window: 4.0
Ion_mode: N
Num Peaks: 3
502.1508	27.1
530.1464	100.0
531.1507	30.2

Name: 4-Hydroxy-2',3,4',6'-tetramethoxychalcone
PrecursorMZ: 343.11897
RT: 4.9039
ExactMass: 344.12598835
Spectrum_type: 2
charge: -1
Formula: C19H20O6
SMILES: COC1=CC(=C(C(=C1)OC)C(=O)/C=C/C2=CC(=C(C=C2)O)OC)OC
Method: HCD
Collision_energy: [28.333334]
Isolation_window: 4.0
Ion_mode: N
Num Peaks: 4
310.0836	7.2
328.0944	22.9
343.1175	100.0
344.1205	19.9

Name: 4-Hydroxy-2,5,6-trichloroisophthalonitrile
PrecursorMZ: 244.90808
RT: 5.5255
ExactMass: 245.915446
Spectrum_type: 2
charge: -1
Formula: C8HCl3N2O
SMILES: C(#N)C1=C(C(=C(C(=C1Cl)C#N)Cl)Cl)O
Method: HCD
Collision_energy: [28.333334]
Isolation_window: 4.0
Ion_mode: N
Num Peaks: 5
130.9917	8.0
244.9080	100.0
245.9114	7.5
246.9050	68.5
246.9806	12.7

Name: 4-Hydroxy-2-methoxy-6-methylbenzoic acid
PrecursorMZ: 363.10865
RT: 2.7146
ExactMass: 182.0579088
Spectrum_type: 2
charge: -1
Formula: C9H10O4
SMILES: CC1=CC(=CC(=C1C(=O)O)OC)O
Method: HCD
Collision_energy: [28.333334]
Isolation_window: 4.0
Ion_mode: N
Num Peaks: 3
137.0598	17.8
181.0500	100.0
182.0531	8.4

Name: 4-Hydroxy-3-(3-methylbut-2-en-1-yl)benzoic acid
PrecursorMZ: 205.08659
RT: 5.657
ExactMass: 206.094294304
Spectrum_type: 2
charge: -1
Formula: C12H14O3
SMILES: CC(=CCC1=C(C=CC(=C1)C(=O)O)O)C
Method: HCD
Collision_energy: [28.333334]
Isolation_window: 4.0
Ion_mode: N
Num Peaks: 12
106.0413	19.9
118.9921	12.2
121.0285	6.7
138.0314	11.0
149.0600	15.7
161.0964	100.0
162.0997	12.2
162.9821	32.7
203.0898	6.5
205.0865	77.9
206.0926	19.1
206.9722	13.2

Name: 4-Hydroxy-6,8-dimethyl-2H-1-benzopyran-2-one
PrecursorMZ: 189.05512
RT: 3.5325499999999996
ExactMass: 190.062994177
Spectrum_type: 2
charge: -1
Formula: C11H10O3
SMILES: CC1=CC(=C2C(=C1)C(=CC(=O)O2)O)C
Method: HCD
Collision_energy: [28.333334]
Isolation_window: 4.0
Ion_mode: N
Num Peaks: 9
102.9478	38.1
111.0078	10.8
144.9222	6.6
145.0652	19.6
146.0601	17.3
146.9379	13.2
148.0509	4.2
189.0551	100.0
190.0605	9.4

Name: 4-Hydroxycinnamaldehyde
PrecursorMZ: 147.04442
RT: 3.5663
ExactMass: 148.052429494
Spectrum_type: 2
charge: -1
Formula: C9H8O2
SMILES: C1=CC(=CC=C1/C=C/C=O)O
Method: HCD
Collision_energy: [28.333334]
Isolation_window: 4.0
Ion_mode: N
Num Peaks: 6
102.9480	31.7
106.0403	23.5
118.0401	28.4
119.0494	52.4
147.0444	100.0
148.0507	34.0

Name: 4-Hydroxyphenyl acetate
PrecursorMZ: 151.03933
RT: 2.0957
ExactMass: 152.047344113
Spectrum_type: 2
charge: -1
Formula: C8H8O3
SMILES: CC(=O)OC1=CC=C(C=C1)O
Method: HCD
Collision_energy: [28.333334]
Isolation_window: 4.0
Ion_mode: N
Num Peaks: 14
65.9976	16.9
66.0340	17.9
67.0292	14.5
81.0448	14.6
93.0336	12.6
106.9921	52.0
107.0493	61.5
109.0398	17.3
110.0237	37.3
123.0192	19.2
123.0443	36.7
125.0348	15.2
150.0296	12.6
151.0393	100.0

Name: 4-Hydroxyquinoline
PrecursorMZ: 144.04484
RT: 2.31
ExactMass: 145.052763847
Spectrum_type: 2
charge: -1
Formula: C9H7NO
SMILES: C1=CC=C2C(=C1)C(=O)C=CN2
Method: HCD
Collision_energy: [28.333334]
Isolation_window: 4.0
Ion_mode: N
Num Peaks: 3
116.0496	12.2
144.0447	100.0
145.0483	10.9

Name: 4-Methyl-5-oxo-2-tridecyl-2,5-dihydrofuran-3-carboxylic acid
PrecursorMZ: 323.2229
RT: 9.1001
ExactMass: 324.2300595
Spectrum_type: 2
charge: -1
Formula: C19H32O4
SMILES: CCCCCCCCCCCCCC1C(=C(C(=O)O1)C)C(=O)O
Method: HCD
Collision_energy: [28.333334]
Isolation_window: 4.0
Ion_mode: N
Num Peaks: 7
279.2328	100.0
280.2362	17.6
281.2460	2.0
307.2281	2.6
323.2231	12.2
324.2251	2.8
325.1844	40.7

Name: 4-Methylcatechol
PrecursorMZ: 123.0444
RT: 3.5379
ExactMass: 124.052429494
Spectrum_type: 2
charge: -1
Formula: C7H8O2
SMILES: CC1=CC(=C(C=C1)O)O
Method: HCD
Collision_energy: [28.333334]
Isolation_window: 4.0
Ion_mode: N
Num Peaks: 7
79.0292	2.8
81.0449	2.4
108.0208	3.5
122.0360	14.4
123.0194	2.9
123.0444	100.0
124.0477	8.4

Name: 4-Methylcyclohexyl 4-(4-hydroxy-3-methoxyphenyl)-6-methyl-2-oxo-1,2,3,4-tetrahydropyrimidine-5-carboxylate
PrecursorMZ: 373.17734
RT: 4.1425
ExactMass: 374.18417193
Spectrum_type: 2
charge: -1
Formula: C20H26N2O5
SMILES: CC1CCC(CC1)OC(=O)C2=C(NC(=O)NC2C3=CC(=C(C=C3)O)OC)C
Method: HCD
Collision_energy: [28.333334]
Isolation_window: 4.0
Ion_mode: N
Num Peaks: 31
59.0130	3.4
96.0082	6.3
124.0762	3.5
130.0868	4.5
142.0655	6.4
156.0810	5.8
169.0760	3.7
200.0712	100.0
201.0748	14.6
226.0869	26.8
227.0900	3.2
257.1651	5.3
271.1086	3.6
299.1400	4.8
329.1071	4.5
329.1507	94.6
330.1538	17.2
354.2034	4.0
355.1669	24.8
356.1695	5.7
371.1702	4.6
372.1610	6.4
372.2040	5.0
373.0938	4.7
373.1355	7.7
373.1843	28.3
374.1280	4.6
374.1858	3.8
375.1025	4.3
375.1525	11.1
375.2028	6.2

Name: 4-Methylumbelliferone
PrecursorMZ: 175.0396
RT: 3.7543
ExactMass: 176.047344113
Spectrum_type: 2
charge: -1
Formula: C10H8O3
SMILES: CC1=CC(=O)OC2=C1C=CC(=C2)O
Method: HCD
Collision_energy: [28.333334]
Isolation_window: 4.0
Ion_mode: N
Num Peaks: 10
65.0137	6.1
105.0451	6.3
118.9655	6.7
130.0417	5.9
131.0495	31.2
134.0352	6.4
146.9605	53.0
148.0509	12.3
175.0395	100.0
176.0437	12.2

Name: 4-Oxododecanedioic acid
PrecursorMZ: 243.12356
RT: 4.2712
ExactMass: 244.13107373
Spectrum_type: 2
charge: -1
Formula: C12H20O5
SMILES: C(CCCC(=O)CCC(=O)O)CCCC(=O)O
Method: HCD
Collision_energy: [28.333334]
Isolation_window: 4.0
Ion_mode: N
Num Peaks: 25
59.0129	10.0
96.9591	4.6
181.1228	23.4
183.1020	9.8
195.1384	22.7
196.1419	4.3
197.1172	6.1
199.1339	4.3
201.1125	8.9
207.1021	17.0
223.0278	12.0
224.0279	13.6
225.0256	7.4
225.1128	90.0
226.1163	11.8
227.1291	7.1
241.0740	5.9
241.1442	100.0
242.1477	26.9
243.1221	28.8
243.1609	5.9
244.1252	4.0
245.0662	5.9
245.1394	12.5
245.1760	6.8

Name: 4-hydroxy-3-((2E)-4-hydroxy-3,7-dimethylocta-2,6-dienyl)-5-((E)-4-hydroxy-3-methylbut-2-enyl)benzoic acid
PrecursorMZ: 373.20216
RT: 8.2958
ExactMass: 374.20932405
Spectrum_type: 2
charge: -1
Formula: C22H30O5
SMILES: CC(=CCC(/C(=C/CC1=CC(=CC(=C1O)C/C=C(\C)/CO)C(=O)O)/C)O)C
Method: HCD
Collision_energy: [28.333334]
Isolation_window: 4.0
Ion_mode: N
Num Peaks: 27
107.0493	0.4
182.0214	0.4
201.1280	1.0
203.1436	2.3
204.1467	0.3
229.1231	0.4
231.1388	1.5
232.1425	0.2
275.1290	5.4
276.1321	0.9
311.2017	1.4
312.2057	0.3
355.1917	2.7
356.1943	0.6
371.2605	0.4
372.2619	0.2
373.2028	1.5
373.2754	2.2
374.2045	0.4
374.2780	0.6
375.1631	0.3
375.1940	0.8
375.2146	1.4
375.2499	1.6
375.2904	100.0
375.3919	0.5
393.3006	0.8

Name: 4-hydroxy-3-((2E,6E)-4-hydroxy-3,7,11-trimethyldodeca-2,6,10-trienyl)benzoic acid
PrecursorMZ: 357.20786
RT: 8.3468
ExactMass: 358.21440943
Spectrum_type: 2
charge: -1
Formula: C22H30O4
SMILES: CC(=CCC/C(=C/CC(/C(=C/CC1=C(C=CC(=C1)C(=O)O)O)/C)O)/C)C
Method: HCD
Collision_energy: [28.333334]
Isolation_window: 4.0
Ion_mode: N
Num Peaks: 3
295.2067	14.2
357.2078	100.0
358.2116	25.3

Name: 4-hydroxy-9-(4-hydroxy-3,5-dimethoxy-phenyl)-5a,6,8a,9-tetrahydro-5H-isobenzofuro(6,5-f)(1,3)benzodioxol-8-one
PrecursorMZ: 399.18507
RT: 5.9657
ExactMass: 400.11581759
Spectrum_type: 2
charge: -1
Formula: C21H20O8
SMILES: COC1=CC(=CC(=C1O)OC)C2C3C(CC4=C(C5=C(C=C24)OCO5)O)COC3=O
Method: HCD
Collision_energy: [28.333334]
Isolation_window: 4.0
Ion_mode: N
Num Peaks: 13
79.9565	3.8
96.9593	70.5
98.9551	8.6
98.9634	1.5
271.1015	3.6
319.2283	1.2
355.1955	11.4
356.1988	2.4
397.1872	8.6
398.1884	4.7
399.1844	100.0
400.1846	20.6
401.1970	15.7

Name: 4-methoxy-N-(2-(2-methyl-1H-indol-3-yl)ethyl)benzenesulfonamide
PrecursorMZ: 343.11256
RT: 5.5919
ExactMass: 344.11946368
Spectrum_type: 2
charge: -1
Formula: C18H20N2O3S
SMILES: CC1=C(C2=CC=CC=C2N1)CCNS(=O)(=O)C3=CC=C(C=C3)OC
Method: HCD
Collision_energy: [28.333334]
Isolation_window: 4.0
Ion_mode: N
Num Peaks: 7
186.0015	19.2
187.0091	41.7
313.1017	100.0
314.1052	19.7
341.2237	9.9
343.1123	55.4
344.1155	10.6

Name: 4-methyl-N-(3-methyl-4-(2-oxo-2H-chromen-3-yl)phenyl)-3-nitrobenzamide
PrecursorMZ: 413.11403
RT: 3.0344
ExactMass: 414.12157168
Spectrum_type: 2
charge: -1
Formula: C24H18N2O5
SMILES: CC1=C(C=C(C=C1)C(=O)NC2=CC(=C(C=C2)C3=CC4=CC=CC=C4OC3=O)C)[N+](=O)[O-]
Method: HCD
Collision_energy: [28.333334]
Isolation_window: 4.0
Ion_mode: N
Num Peaks: 30
78.9578	100.0
87.0076	1.9
88.0392	1.6
89.0054	1.7
94.0286	1.4
96.9683	30.5
114.0548	4.4
115.0024	3.1
116.0705	2.3
128.0341	7.0
130.0862	2.4
132.0289	1.5
146.0446	2.4
155.0813	1.7
166.0856	1.5
179.0450	3.8
212.1393	4.8
296.1244	2.7
323.0995	3.2
339.0772	1.8
357.0881	22.5
358.0907	2.8
412.1256	3.8
412.1812	2.2
413.1139	64.7
414.1098	8.1
414.1166	9.5
414.1870	4.0
414.1999	3.2
415.1155	3.6

Name: 4.5-Dimethyl-3-hydroxy-2,5-dihydrofuran-2-one sulfate
PrecursorMZ: 206.99602
RT: 1.1566999999999998
ExactMass: 208.00415914
Spectrum_type: 2
charge: -1
Formula: C6H8O6S
SMILES: CC1C(=C(C(=O)O1)OS(=O)(=O)O)C
Method: HCD
Collision_energy: [28.333334]
Isolation_window: 4.0
Ion_mode: N
Num Peaks: 14
71.0492	2.7
79.9563	100.0
80.9641	23.0
85.0284	5.0
87.0077	3.7
97.4642	2.6
115.0387	3.2
125.0233	3.5
127.0389	3.8
162.9819	4.0
179.0010	8.6
205.0704	2.7
206.9960	50.7
207.9996	3.8

Name: 4MeC13SPC
PrecursorMZ: 383.19038
RT: 5.6077
ExactMass: 384.19704529
Spectrum_type: 2
charge: -1
Formula: C20H32O5S
SMILES: CCC(CCCCCCC(C)CCC(=O)O)C1=CC=C(C=C1)S(=O)(=O)O
Method: HCD
Collision_energy: [28.333334]
Isolation_window: 4.0
Ion_mode: N
Num Peaks: 6
96.9591	32.4
381.1738	3.6
382.1786	2.0
383.1900	100.0
384.1933	23.9
385.2065	30.7

Name: 4alpha-Phorbol 12-myristate 13-acetate
PrecursorMZ: 661.39604
RT: 8.4072
ExactMass: 616.39751874
Spectrum_type: 2
charge: -1
Formula: C36H56O8
SMILES: CCCCCCCCCCCCCC(=O)O[C@@H]1[C@H]([C@]2([C@@H](C=C(C[C@@]3([C@H]2C=C(C3=O)C)O)CO)[C@H]4[C@@]1(C4(C)C)OC(=O)C)O)C
Method: HCD
Collision_energy: [28.333334]
Isolation_window: 4.0
Ion_mode: N
Num Peaks: 5
59.0129	100.0
61.9874	43.4
573.3787	63.9
615.3910	52.9
661.3955	66.0

Name: 5'-(furan-3-yl)-4a-hydroxy-4,7-dimethylspiro(5,6,7,8a-tetrahydro-1H-naphthalene-8,3'-oxolane)-2,2'-dione
PrecursorMZ: 329.13952
RT: 5.0626
ExactMass: 330.1467238
Spectrum_type: 2
charge: -1
Formula: C19H22O5
SMILES: CC1CCC2(C(C13CC(OC3=O)C4=COC=C4)CC(=O)C=C2C)O
Method: HCD
Collision_energy: [28.333334]
Isolation_window: 4.0
Ion_mode: N
Num Peaks: 28
109.0287	4.6
121.0285	1.6
123.0444	1.8
148.0521	1.8
161.0602	1.5
162.0313	1.2
165.0549	2.5
180.0422	1.3
181.0505	2.4
219.0659	2.8
241.1234	3.7
251.1077	3.5
253.1233	9.1
254.1266	1.8
271.1340	100.0
272.1374	18.3
273.1405	1.0
283.1338	1.7
285.1132	11.6
286.1161	2.1
299.1287	2.0
301.1445	54.1
302.1479	10.5
327.1245	1.4
328.0896	1.3
329.1026	4.3
329.1398	6.0
330.1431	1.6

Name: 5'-Thymidylic acid
PrecursorMZ: 321.04837
RT: 1.1935
ExactMass: 322.05660244
Spectrum_type: 2
charge: -1
Formula: C10H15N2O8P
SMILES: CC1=CN(C(=O)NC1=O)[C@H]2C[C@@H]([C@H](O2)COP(=O)(O)O)O
Method: HCD
Collision_energy: [28.333334]
Isolation_window: 4.0
Ion_mode: N
Num Peaks: 11
78.9579	100.0
88.9868	8.8
89.0233	9.6
96.9684	22.5
125.0345	44.6
133.0129	7.9
176.9947	19.7
195.0054	68.0
321.0485	84.7
321.0819	9.7
322.0509	9.0

Name: 5(S)-Hpete
PrecursorMZ: 335.22298
RT: 8.5314
ExactMass: 336.2300595
Spectrum_type: 2
charge: -1
Formula: C20H32O4
SMILES: CCCCC/C=C\C/C=C\C/C=C\C=C\[C@H](CCCC(=O)O)OO
Method: HCD
Collision_energy: [28.333334]
Isolation_window: 4.0
Ion_mode: N
Num Peaks: 4
273.2221	100.0
274.2255	22.8
333.6742	6.4
335.2226	26.9

Name: 5,10,15-Trimethyl-4,9,13-trioxatetracyclo(10.3.0.03,5.08,10)pentadec-1(15)-en-14-one
PrecursorMZ: 263.12889
RT: 6.245
ExactMass: 264.13615911
Spectrum_type: 2
charge: -1
Formula: C15H20O4
SMILES: CC1=C2CC3C(O3)(CCC4C(O4)(CC2OC1=O)C)C
Method: HCD
Collision_energy: [28.333334]
Isolation_window: 4.0
Ion_mode: N
Num Peaks: 5
177.1279	30.3
201.1277	58.0
219.1381	51.4
263.1285	100.0
265.1481	45.4

Name: 5,11,17,19-Tetrahydroxy-15-methyl-2-oxapentacyclo(9.8.0.01,3.04,9.012,17)nonadeca-4(9),5,7-triene-10,13-dione
PrecursorMZ: 359.11375
RT: 3.7949
ExactMass: 360.12090297
Spectrum_type: 2
charge: -1
Formula: C19H20O7
SMILES: CC1CC(=O)C2C(C1)(CC(C34C2(C(=O)C5=C(C3O4)C(=CC=C5)O)O)O)O
Method: HCD
Collision_energy: [28.333334]
Isolation_window: 4.0
Ion_mode: N
Num Peaks: 26
108.0206	4.3
109.0285	5.7
123.0442	1.6
137.0235	31.9
138.0262	1.9
159.0442	2.2
161.0599	9.9
172.0520	2.9
173.0600	21.1
174.0637	2.6
191.0706	100.0
192.0740	11.2
203.0706	36.4
204.0741	5.3
221.0813	26.7
222.0850	3.6
293.0810	1.6
299.0918	1.8
311.0922	9.1
312.0963	2.0
329.1031	2.0
359.1133	84.2
359.2047	2.4
360.1164	18.3
361.1214	1.8
361.2230	5.7

Name: 5,12,20-Trihydroxy-6,8,10,14-eicosatetraenoic acid
PrecursorMZ: 351.21785
RT: 8.6987
ExactMass: 352.22497412
Spectrum_type: 2
charge: -1
Formula: C20H32O5
SMILES: C(CCC=CCC(C=CC=CC=CC(CCCC(=O)O)O)O)CCO
Method: HCD
Collision_energy: [28.333334]
Isolation_window: 4.0
Ion_mode: N
Num Peaks: 9
275.2018	19.5
293.0459	7.9
307.2282	7.6
319.1916	28.6
336.1006	28.0
351.1241	100.0
351.2174	15.0
352.1273	19.6
353.2162	77.4

Name: 5,12-Dihete
PrecursorMZ: 335.22287
RT: 7.8449
ExactMass: 336.2300595
Spectrum_type: 2
charge: -1
Formula: C20H32O4
SMILES: CCCCC/C=C/CC(/C=C/C=C/C=C/C(CCCC(=O)O)O)O
Method: HCD
Collision_energy: [28.333334]
Isolation_window: 4.0
Ion_mode: N
Num Peaks: 7
273.2219	3.5
291.2330	64.5
292.2363	12.9
317.2124	5.0
333.2074	4.2
335.2228	100.0
336.2264	20.7

Name: 5,6-Dihydropenicillic acid
PrecursorMZ: 171.06603
RT: 3.7086
ExactMass: 172.07355886
Spectrum_type: 2
charge: -1
Formula: C8H12O4
SMILES: CC(C)C1(C(=CC(=O)O1)OC)O
Method: HCD
Collision_energy: [28.333334]
Isolation_window: 4.0
Ion_mode: N
Num Peaks: 10
98.9560	6.5
126.8804	35.8
127.0758	100.0
128.0792	8.2
128.8774	17.1
142.9461	6.6
170.8329	99.6
171.0660	21.8
171.1021	15.0
172.8304	60.5

Name: 5,7,3',4'-Tetrahydroxy-6,8-dimethoxyflavone
PrecursorMZ: 345.06194
RT: 5.206799999999999
ExactMass: 346.0688674
Spectrum_type: 2
charge: -1
Formula: C17H14O8
SMILES: COC1=C(C(=C2C(=C1O)C(=O)C=C(O2)C3=CC(=C(C=C3)O)O)OC)O
Method: HCD
Collision_energy: [28.333334]
Isolation_window: 4.0
Ion_mode: N
Num Peaks: 9
135.0441	16.3
269.1297	42.6
313.0349	16.9
315.0146	82.9
330.0381	94.5
331.0416	17.7
345.0619	100.0
345.1444	17.0
346.0641	20.4

Name: 5,7,3'-Trihydroxy-3,6,4',5'-tetramethoxyflavone
PrecursorMZ: 389.08693
RT: 4.2625
ExactMass: 390.09508215
Spectrum_type: 2
charge: -1
Formula: C19H18O9
SMILES: COC1=CC(=CC(=C1OC)O)C2=C(C(=O)C3=C(O2)C=C(C(=C3O)OC)O)OC
Method: HCD
Collision_energy: [28.333334]
Isolation_window: 4.0
Ion_mode: N
Num Peaks: 16
109.0283	14.6
123.0072	9.6
123.0438	8.2
151.0387	37.4
159.0441	30.8
160.0474	4.2
167.0337	24.9
189.0547	28.2
195.0286	100.0
196.0321	10.8
266.0659	5.2
268.0736	5.3
269.0812	16.1
299.0916	10.1
343.0817	25.5
344.0842	4.4

Name: 5,7-Dihydroxy-2-(4-hydroxy-3-methoxyphenyl)-6-(3-methylbut-2-enyl)-2,3-dihydrochromen-4-one
PrecursorMZ: 369.13457
RT: 5.5719
ExactMass: 370.14163842
Spectrum_type: 2
charge: -1
Formula: C21H22O6
SMILES: CC(=CCC1=C(C2=C(C=C1O)OC(CC2=O)C3=CC(=C(C=C3)O)OC)O)C
Method: HCD
Collision_energy: [28.333334]
Isolation_window: 4.0
Ion_mode: N
Num Peaks: 9
135.0444	64.3
189.0552	17.2
207.1022	94.3
208.1055	10.0
325.1439	10.0
341.1388	36.9
342.1436	10.0
369.1349	100.0
370.1372	24.0

Name: 5,7-Dihydroxy-2-(4-methoxyphenyl)-6-(3-methylbut-2-enyl)-2,3-dihydrochromen-4-one
PrecursorMZ: 353.13968
RT: 6.4154333333333335
ExactMass: 354.1467238
Spectrum_type: 2
charge: -1
Formula: C21H22O5
SMILES: CC(=CCC1=C(C2=C(C=C1O)OC(CC2=O)C3=CC=C(C=C3)OC)O)C
Method: HCD
Collision_energy: [28.333334]
Isolation_window: 4.0
Ion_mode: N
Num Peaks: 9
149.0601	21.4
159.0445	10.0
188.0474	12.3
201.0555	15.8
202.0629	23.4
217.0866	29.5
338.1167	11.4
353.1399	100.0
354.1423	20.3

Name: 5,7-Dihydroxy-4-methylcoumarin
PrecursorMZ: 191.03447
RT: 5.1907
ExactMass: 192.04225873
Spectrum_type: 2
charge: -1
Formula: C10H8O4
SMILES: CC1=CC(=O)OC2=CC(=CC(=C12)O)O
Method: HCD
Collision_energy: [28.333334]
Isolation_window: 4.0
Ion_mode: N
Num Peaks: 17
87.9244	8.3
90.9326	3.2
101.9512	2.8
102.9479	100.0
103.9193	8.3
103.9487	2.2
111.0079	4.1
119.0492	2.1
120.0526	3.2
123.9455	2.3
143.8644	3.0
146.9379	36.6
161.0798	2.6
161.8750	2.2
191.0344	43.8
191.0708	3.3
192.0382	4.6

Name: 5,7-Dihydroxy-8-C-geranylflavanone
PrecursorMZ: 391.19123
RT: 8.7931
ExactMass: 392.19875937
Spectrum_type: 2
charge: -1
Formula: C25H28O4
SMILES: CC(=CCC/C(=C/CC1=C2C(=C(C=C1O)O)C(=O)CC(O2)C3=CC=CC=C3)/C)C
Method: HCD
Collision_energy: [28.333334]
Isolation_window: 4.0
Ion_mode: N
Num Peaks: 8
95.0129	25.3
123.0079	16.4
124.0160	8.3
151.0027	7.7
152.0107	26.1
391.1914	100.0
391.2766	10.3
392.1949	23.9

Name: 5,7-Dimethoxy-4'-hydroxyflavanone
PrecursorMZ: 299.09278
RT: 6.08
ExactMass: 300.09977361
Spectrum_type: 2
charge: -1
Formula: C17H16O5
SMILES: COC1=CC2=C(C(=O)CC(O2)C3=CC=C(C=C3)O)C(=C1)OC
Method: HCD
Collision_energy: [28.333334]
Isolation_window: 4.0
Ion_mode: N
Num Peaks: 23
93.0337	1.1
107.0494	2.4
119.0496	1.2
125.0238	1.9
149.0601	19.0
150.0634	1.8
151.0030	5.6
189.0547	1.1
193.0502	20.8
194.0537	1.9
253.1233	2.2
253.1800	1.4
255.1035	1.2
297.1137	7.6
297.1530	11.5
298.1168	3.0
298.1559	3.4
299.0926	100.0
299.1506	1.2
299.1625	1.5
299.2590	4.2
300.0959	17.9
301.0985	1.6

Name: 5,7-dihydroxy-2-(3-hydroxy-4-methoxyphenyl)-3,4-dihydro-2H-1-benzopyran-4-one
PrecursorMZ: 301.07187
RT: 3.7376
ExactMass: 302.07903816
Spectrum_type: 2
charge: -1
Formula: C16H14O6
SMILES: COC1=C(C=C(C=C1)C2CC(=O)C3=C(C=C(C=C3O2)O)O)O
Method: HCD
Collision_energy: [28.333334]
Isolation_window: 4.0
Ion_mode: N
Num Peaks: 36
59.0129	6.7
88.0393	8.3
93.0335	11.4
103.0391	10.2
107.0492	13.8
109.0161	8.9
109.0285	20.6
123.0442	6.9
130.0864	8.8
135.0441	12.3
136.0759	14.1
147.0443	22.3
153.0912	10.3
195.0806	9.5
210.0768	15.2
212.0835	10.2
213.0915	100.0
214.0954	14.5
215.0709	9.0
241.0861	22.5
244.0738	25.5
257.0817	81.8
258.0846	12.4
259.0623	6.8
259.1448	14.9
299.1563	9.1
300.0914	6.7
301.0740	90.3
301.1075	32.8
301.1325	12.9
301.1661	11.6
301.2012	7.3
302.0736	13.8
302.1090	10.2
303.0865	12.2
303.1351	12.8

Name: 5,9-dihydroxy-5,7,7-trimethyl-4,5a,6,8,8a,9-hexahydro-1H-azuleno(5,6-c)furan-3-one
PrecursorMZ: 265.14445
RT: 5.8891
ExactMass: 266.15180918
Spectrum_type: 2
charge: -1
Formula: C15H22O4
SMILES: CC1(CC2C(C1)C(CC3=C(C2O)COC3=O)(C)O)C
Method: HCD
Collision_energy: [28.333334]
Isolation_window: 4.0
Ion_mode: N
Num Peaks: 22
57.0337	17.1
83.0492	7.8
94.0414	3.7
95.0493	10.7
96.9591	10.3
97.0650	5.0
99.0442	3.7
108.0209	4.9
109.0649	4.4
111.0806	19.2
138.0682	4.6
139.0757	9.1
153.0914	15.1
165.0916	5.5
166.0995	4.4
177.1280	7.7
179.1434	4.7
201.1281	5.0
203.1437	19.5
221.1544	28.1
265.1459	100.0
266.1491	15.1

Name: 5-((1S,2R,4aR)-5-(acetyloxymethyl)-1,2,4a-trimethyl-2,3,4,7,8,8a-hexahydronaphthalen-1-yl)-3-methylpentanoic acid
PrecursorMZ: 363.25431
RT: 9.5381
ExactMass: 364.26135963
Spectrum_type: 2
charge: -1
Formula: C22H36O4
SMILES: C[C@@H]1CC[C@@]2(C([C@@]1(C)CCC(C)CC(=O)O)CCC=C2COC(=O)C)C
Method: HCD
Collision_energy: [28.333334]
Isolation_window: 4.0
Ion_mode: N
Num Peaks: 8
101.0233	2.3
331.2280	85.8
332.2314	19.8
333.2418	6.9
348.2306	2.9
363.2541	100.0
363.2871	5.0
364.2575	26.6

Name: 5-((8Z,11Z)-Pentadeca-8,11,14-trien-1-yl)benzene-1,3-diol
PrecursorMZ: 359.22327
RT: 8.6414
ExactMass: 314.224580195
Spectrum_type: 2
charge: -1
Formula: C21H30O2
SMILES: C=CC/C=C\C/C=C\CCCCCCCC1=CC(=CC(=C1)O)O
Method: HCD
Collision_energy: [28.333334]
Isolation_window: 4.0
Ion_mode: N
Num Peaks: 20
57.0338	3.8
203.1434	2.3
205.1233	3.4
219.1389	5.0
231.1758	2.2
233.1549	5.4
245.1911	13.7
246.1943	2.3
257.1914	4.0
297.2231	2.3
299.2381	11.3
313.2182	2.7
315.2330	75.4
316.2363	17.7
317.2484	11.3
357.2077	14.4
358.2109	6.9
359.2230	100.0
360.2265	24.5
361.2386	49.7

Name: 5-((8aS)-2,5,5,8a-tetramethyl-3-oxo-4a,6,7,8-tetrahydro-4H-naphthalen-1-yl)-3-methylpentanoic acid
PrecursorMZ: 319.22777
RT: 9.9993
ExactMass: 320.23514488
Spectrum_type: 2
charge: -1
Formula: C20H32O3
SMILES: CC1=C([C@]2(CCCC(C2CC1=O)(C)C)C)CCC(C)CC(=O)O
Method: HCD
Collision_energy: [28.333334]
Isolation_window: 4.0
Ion_mode: N
Num Peaks: 4
275.2378	100.0
276.2412	21.7
319.2276	96.7
320.2308	20.4

Name: 5-((E)-2-Carboxyethenyl)-2-methoxyphenyl beta-D-glucopyranosiduronic acid
PrecursorMZ: 369.08287
RT: 3.1558
ExactMass: 370.08999677
Spectrum_type: 2
charge: -1
Formula: C16H18O10
SMILES: COC1=C(C=C(C=C1)/C=C/C(=O)O)O[C@H]2[C@@H]([C@H]([C@@H]([C@H](O2)C(=O)O)O)O)O
Method: HCD
Collision_energy: [28.333334]
Isolation_window: 4.0
Ion_mode: N
Num Peaks: 4
178.0265	23.9
179.0343	96.0
221.0454	21.2
323.0771	100.0

Name: 5-((Z)-5-hydroxy-3-methylpent-3-enyl)-1,4a-dimethyl-6-methylidene-3,4,5,7,8,8a-hexahydro-2H-naphthalene-1-carboxylic acid
PrecursorMZ: 319.22773
RT: 7.8319
ExactMass: 320.23514488
Spectrum_type: 2
charge: -1
Formula: C20H32O3
SMILES: C/C(=C/CO)/CCC1C(=C)CCC2C1(CCCC2(C)C(=O)O)C
Method: HCD
Collision_energy: [28.333334]
Isolation_window: 4.0
Ion_mode: N
Num Peaks: 6
69.0336	3.5
317.2117	7.7
318.2131	3.9
319.2275	100.0
320.2307	21.5
321.2427	16.3

Name: 5-(1,2,4a-Trimethyl-5-(3-methylbutanoyloxymethyl)-2,3,4,7,8,8a-hexahydronaphthalen-1-yl)-3-methylpentanoic acid
PrecursorMZ: 405.30121
RT: 7.598
ExactMass: 406.30830982
Spectrum_type: 2
charge: -1
Formula: C25H42O4
SMILES: CC1CCC2(C(C1(C)CCC(C)CC(=O)O)CCC=C2COC(=O)CC(C)C)C
Method: HCD
Collision_energy: [28.333334]
Isolation_window: 4.0
Ion_mode: N
Num Peaks: 4
404.2478	2.4
405.3016	100.0
406.3050	27.6
407.3092	2.2

Name: 5-(10-(3,5-Dihydroxyphenyl)decyl)benzene-1,3-diol
PrecursorMZ: 357.20753
RT: 9.1149
ExactMass: 358.21440943
Spectrum_type: 2
charge: -1
Formula: C22H30O4
SMILES: C1=C(C=C(C=C1O)O)CCCCCCCCCCC2=CC(=CC(=C2)O)O
Method: HCD
Collision_energy: [28.333334]
Isolation_window: 4.0
Ion_mode: N
Num Peaks: 25
74.0239	1.1
75.0079	5.1
84.0446	1.8
122.0366	6.6
124.0160	1.5
135.0444	18.4
136.0478	1.3
137.0238	1.8
149.0601	1.4
154.0266	2.8
258.1626	1.4
272.1780	1.2
297.2458	1.9
311.2019	5.6
312.2059	1.6
312.2369	2.0
313.2176	62.4
314.2211	13.6
315.2328	7.8
356.2250	1.5
356.2839	1.5
357.2076	100.0
358.2105	22.7
359.2178	1.9
359.2226	10.4

Name: 5-(12-(3,5-Dihydroxyphenyl)dodecyl)benzene-1,3-diol
PrecursorMZ: 385.23932
RT: 9.1296
ExactMass: 386.24570956
Spectrum_type: 2
charge: -1
Formula: C24H34O4
SMILES: C1=C(C=C(C=C1O)O)CCCCCCCCCCCCC2=CC(=CC(=C2)O)O
Method: HCD
Collision_energy: [28.333334]
Isolation_window: 4.0
Ion_mode: N
Num Peaks: 10
57.0338	9.4
269.1914	10.9
271.2073	39.5
272.2110	8.5
283.2074	17.2
311.2022	40.8
341.2493	24.7
385.2393	95.9
386.2425	25.9
387.2179	100.0

Name: 5-(2-(3-Hydroxy-5-methoxyphenyl)ethyl)-2-methoxyphenol
PrecursorMZ: 273.11358
RT: 6.4521
ExactMass: 274.12050905
Spectrum_type: 2
charge: -1
Formula: C16H18O4
SMILES: COC1=C(C=C(C=C1)CCC2=CC(=CC(=C2)OC)O)O
Method: HCD
Collision_energy: [28.333334]
Isolation_window: 4.0
Ion_mode: N
Num Peaks: 7
121.0288	6.2
122.0366	21.0
137.0237	7.5
154.0264	9.9
258.0901	6.4
273.1134	100.0
274.1168	15.6

Name: 5-(2-(Furan-3-YL)ethyl)-8-hydroxy-5,6,8A-trimethyl-3,4,4A,6,7,8-hexahydronaphthalene-1-carboxylic acid
PrecursorMZ: 331.1916
RT: 7.4839
ExactMass: 332.19875937
Spectrum_type: 2
charge: -1
Formula: C20H28O4
SMILES: CC1CC(C2(C(C1(C)CCC3=COC=C3)CCC=C2C(=O)O)C)O
Method: HCD
Collision_energy: [28.333334]
Isolation_window: 4.0
Ion_mode: N
Num Peaks: 13
257.1914	4.8
269.1913	11.1
270.1948	2.3
285.1862	2.5
287.2016	7.5
313.1802	1.3
329.1765	4.2
330.1807	2.6
331.1616	3.0
331.1917	100.0
332.1963	21.0
332.6755	1.4
333.2016	1.9

Name: 5-(2-(Furan-3-YL)ethyl)-8A-(hydroxymethyl)-5,6-dimethyl-3,4,4A,6,7,8-hexahydronaphthalene-1-carboxylic acid
PrecursorMZ: 331.19169
RT: 7.1716
ExactMass: 332.19875937
Spectrum_type: 2
charge: -1
Formula: C20H28O4
SMILES: CC1CCC2(C(C1(C)CCC3=COC=C3)CCC=C2C(=O)O)CO
Method: HCD
Collision_energy: [28.333334]
Isolation_window: 4.0
Ion_mode: N
Num Peaks: 9
286.1214	1.0
287.2016	4.2
288.2048	0.8
313.1813	4.3
329.1762	12.7
330.1796	7.4
331.1916	100.0
332.1950	21.9
333.2009	2.7

Name: 5-(2-Methyl-3-(pyridin-3-yl)-1H-indol-1-yl)pentanoic acid
PrecursorMZ: 307.14534
RT: 4.5881
ExactMass: 308.152477885
Spectrum_type: 2
charge: -1
Formula: C19H20N2O2
SMILES: CC1=C(C2=CC=CC=C2N1CCCCC(=O)O)C3=CN=CC=C3
Method: HCD
Collision_energy: [28.333334]
Isolation_window: 4.0
Ion_mode: N
Num Peaks: 5
207.0922	100.0
208.0953	14.2
307.1446	39.8
308.1482	8.3
309.1614	14.1

Name: 5-(3,4-Dihydroxyphenyl)-6,7-dimethyl-5,6,7,8-tetrahydronaphthalene-2,3-diol
PrecursorMZ: 345.13466
RT: 5.0518
ExactMass: 300.13615911
Spectrum_type: 2
charge: -1
Formula: C18H20O4
SMILES: CC1CC2=CC(=C(C=C2C(C1C)C3=CC(=C(C=C3)O)O)O)O
Method: HCD
Collision_energy: [28.333334]
Isolation_window: 4.0
Ion_mode: N
Num Peaks: 4
299.1291	100.0
343.1180	44.5
344.1224	74.7
347.1867	44.9

Name: 5-(3-Furyl)-2a',5'-dihydroxy-8b'-(hydroxymethyl)-7'-methyldodecahydrospiro(furan-3,6'-naphtho(1,8-bc)furan)-2-one
PrecursorMZ: 377.16074
RT: 4.2245
ExactMass: 378.16785316
Spectrum_type: 2
charge: -1
Formula: C20H26O7
SMILES: CC1CC2C3(C(C14CC(OC4=O)C5=COC=C5)C(CCC3(CO2)O)O)CO
Method: HCD
Collision_energy: [28.333334]
Isolation_window: 4.0
Ion_mode: N
Num Peaks: 9
123.0443	6.0
137.0598	10.7
147.0444	8.0
165.0549	100.0
166.0585	9.0
196.0735	31.4
211.0971	36.9
377.1606	86.7
378.1637	19.8

Name: 5-(3-methoxybenzoyl)-4-methyl-1,3,4,5-tetrahydro-2H-1,5-benzodiazepin-2-one
PrecursorMZ: 309.12386
RT: 3.6058
ExactMass: 310.13174244
Spectrum_type: 2
charge: -1
Formula: C18H18N2O3
SMILES: CC1CC(=O)NC2=CC=CC=C2N1C(=O)C3=CC(=CC=C3)OC
Method: HCD
Collision_energy: [28.333334]
Isolation_window: 4.0
Ion_mode: N
Num Peaks: 12
72.0081	8.5
74.0236	34.1
93.0334	7.1
195.0919	7.9
222.0916	55.6
223.0950	8.1
234.0916	19.6
248.1073	7.3
265.1336	13.1
267.1131	6.2
309.1240	100.0
310.1273	20.2

Name: 5-(4-Acetyloxy-3-hydroxy-2,5,5,8a-tetramethyl-3,4,4a,6,7,8-hexahydronaphthalen-1-yl)-3-methylpentanoic acid
PrecursorMZ: 379.24948
RT: 6.9561
ExactMass: 380.25627424
Spectrum_type: 2
charge: -1
Formula: C22H36O5
SMILES: CC1=C(C2(CCCC(C2C(C1O)OC(=O)C)(C)C)C)CCC(C)CC(=O)O
Method: HCD
Collision_energy: [28.333334]
Isolation_window: 4.0
Ion_mode: N
Num Peaks: 21
59.0130	5.8
291.2332	21.5
292.2356	5.1
293.2485	4.1
317.2491	4.5
319.2281	4.5
333.2437	8.3
335.2226	12.8
335.2599	32.7
336.2632	8.0
337.2384	10.4
361.2387	9.2
363.2554	4.0
377.2339	16.9
378.2364	9.6
379.2113	13.2
379.2496	100.0
379.2860	9.2
380.2527	23.7
381.2280	15.9
381.2658	13.1

Name: 5-(4-Carboxy-3-methylbutyl)-5,6,8a-trimethyl-3-oxo-3,4,4a,5,6,7,8,8a-octahydronaphthalene-1-carboxylic acid
PrecursorMZ: 349.20246
RT: 6.3436
ExactMass: 350.20932405
Spectrum_type: 2
charge: -1
Formula: C20H30O5
SMILES: CC1CCC2(C(C1(C)CCC(C)CC(=O)O)CC(=O)C=C2C(=O)O)C
Method: HCD
Collision_energy: [28.333334]
Isolation_window: 4.0
Ion_mode: N
Num Peaks: 5
235.1698	18.1
305.2130	18.7
349.2022	100.0
350.2060	23.0
351.2176	15.2

Name: 5-(4-methyl-5-oxo-2H-furan-3-yl)pentanoic acid
PrecursorMZ: 197.08145
RT: 3.5024
ExactMass: 198.08920892
Spectrum_type: 2
charge: -1
Formula: C10H14O4
SMILES: CC1=C(COC1=O)CCCCC(=O)O
Method: HCD
Collision_energy: [28.333334]
Isolation_window: 4.0
Ion_mode: N
Num Peaks: 12
59.0130	24.8
142.9455	17.3
153.0913	89.6
155.1070	100.0
160.8413	73.4
162.8384	49.6
182.0213	78.5
195.8105	43.8
197.0450	25.3
197.0814	48.4
197.8074	57.8
199.0969	77.0

Name: 5-(5-(acetyloxymethyl)-1,2,4a-trimethyl-7-oxo-3,4,8,8a-tetrahydro-2H-naphthalen-1-yl)-3-methylpentanoic acid
PrecursorMZ: 377.23375
RT: 6.5618
ExactMass: 378.24062418
Spectrum_type: 2
charge: -1
Formula: C22H34O5
SMILES: CC1CCC2(C(C1(C)CCC(C)CC(=O)O)CC(=O)C=C2COC(=O)C)C
Method: HCD
Collision_energy: [28.333334]
Isolation_window: 4.0
Ion_mode: N
Num Peaks: 25
59.0130	8.9
167.1073	4.8
245.2275	8.6
289.2181	6.7
291.2332	10.0
315.2338	7.1
317.2130	4.6
317.2496	4.6
332.2295	4.5
333.2076	6.7
333.2436	66.3
334.2467	13.5
335.2237	10.4
335.2601	14.3
359.2235	8.7
361.2391	10.0
375.2151	5.0
376.2193	14.7
377.1975	10.7
377.2346	100.0
377.2722	10.8
378.1983	4.5
378.2378	25.2
379.2114	18.3
379.2505	56.7

Name: 5-(5-Hydroxy-3-(hydroxymethyl)pentyl)-8a-(hydroxymethyl)-5,6-dimethyl-3,4,4a,6,7,8-hexahydronaphthalene-1-carboxylic acid
PrecursorMZ: 353.23348
RT: 6.2575
ExactMass: 354.24062418
Spectrum_type: 2
charge: -1
Formula: C20H34O5
SMILES: CC1CCC2(C(C1(C)CCC(CCO)CO)CCC=C2C(=O)O)CO
Method: HCD
Collision_energy: [28.333334]
Isolation_window: 4.0
Ion_mode: N
Num Peaks: 23
169.1227	14.0
171.1020	4.4
183.1021	7.8
211.1332	4.5
229.1446	2.4
285.2065	2.7
291.1967	2.8
291.2328	4.0
307.2278	3.0
309.2071	5.2
317.2112	3.8
327.2176	20.7
333.2063	3.8
335.2228	17.7
336.2253	3.3
351.1799	2.4
351.2178	15.7
352.2210	6.8
353.1046	8.1
353.1988	5.1
353.2335	100.0
354.2368	23.1
355.2112	11.3

Name: 5-(6-(3-Hydroxy-4-methoxyphenyl)-1,3,3a,4,6,6a-hexahydrofuro(3,4-c)furan-3-yl)-2-methoxyphenol
PrecursorMZ: 357.13452
RT: 6.1859
ExactMass: 358.14163842
Spectrum_type: 2
charge: -1
Formula: C20H22O6
SMILES: COC1=C(C=C(C=C1)C2C3COC(C3CO2)C4=CC(=C(C=C4)OC)O)O
Method: HCD
Collision_energy: [28.333334]
Isolation_window: 4.0
Ion_mode: N
Num Peaks: 10
253.1232	41.4
254.1273	7.0
271.1338	9.9
283.1339	28.6
301.1444	100.0
302.1480	17.7
329.1393	30.3
330.1421	8.2
357.1346	57.6
358.1374	12.0

Name: 5-Acetylamino-6-amino-3-methyluracil
PrecursorMZ: 197.06752
RT: 0.9378
ExactMass: 198.07529019
Spectrum_type: 2
charge: -1
Formula: C7H10N4O3
SMILES: CC(=O)NC1=C(NC(=O)N(C1=O)C)N
Method: HCD
Collision_energy: [28.333334]
Isolation_window: 4.0
Ion_mode: N
Num Peaks: 22
72.0445	16.3
80.9642	6.2
85.0397	3.9
87.0078	23.5
97.0397	2.9
98.0350	10.1
108.0446	4.7
109.0394	2.9
112.0507	5.6
127.0504	100.0
128.0541	5.0
136.0394	4.3
138.0552	11.3
140.0457	44.5
150.0557	3.2
154.0613	43.9
180.0781	2.8
195.0325	6.0
195.0513	4.1
196.0603	2.9
197.0675	46.9
198.0758	10.7

Name: 5-Allyloxypsoralen
PrecursorMZ: 241.05061
RT: 5.674
ExactMass: 242.0579088
Spectrum_type: 2
charge: -1
Formula: C14H10O4
SMILES: C=CCOC1=CC(=O)OC2=C1C=C3C=COC3=C2
Method: HCD
Collision_energy: [28.333334]
Isolation_window: 4.0
Ion_mode: N
Num Peaks: 3
197.1543	17.5
241.0507	100.0
242.0536	12.3

Name: 5-Aminolevulinic Acid
PrecursorMZ: 130.05024
RT: 2.4652
ExactMass: 131.058243149
Spectrum_type: 2
charge: -1
Formula: C5H9NO3
SMILES: C(CC(=O)O)C(=O)CN
Method: HCD
Collision_energy: [28.333334]
Isolation_window: 4.0
Ion_mode: N
Num Peaks: 5
86.0602	5.4
87.0442	100.0
112.0395	7.1
113.0235	7.5
131.0342	27.1

Name: 5-Chlorodivaricatic acid
PrecursorMZ: 421.10556
RT: 10.2463
ExactMass: 422.1132308
Spectrum_type: 2
charge: -1
Formula: C21H23ClO7
SMILES: CCCC1=C(C(=CC(=C1)OC(=O)C2=C(C(=C(C=C2O)OC)Cl)CCC)O)C(=O)O
Method: HCD
Collision_energy: [28.333334]
Isolation_window: 4.0
Ion_mode: N
Num Peaks: 6
87.0442	97.4
102.9559	23.0
419.1741	70.1
420.1773	33.0
421.1713	100.0
422.1750	16.4

Name: 5-Demethylnobiletin
PrecursorMZ: 387.10839
RT: 4.987
ExactMass: 388.11581759
Spectrum_type: 2
charge: -1
Formula: C20H20O8
SMILES: COC1=C(C=C(C=C1)C2=CC(=O)C3=C(C(=C(C(=C3O2)OC)OC)OC)O)OC
Method: HCD
Collision_energy: [28.333334]
Isolation_window: 4.0
Ion_mode: N
Num Peaks: 26
59.0129	11.2
115.0391	11.6
135.0443	4.7
136.0521	4.5
150.0312	6.3
163.0393	17.6
193.0501	5.3
195.0657	100.0
196.0690	10.9
271.1549	5.5
285.1133	12.0
286.1208	5.8
311.0925	4.5
329.1030	24.7
343.1188	11.7
369.1907	8.7
385.1818	12.9
385.1864	13.6
385.2244	9.1
385.2323	4.7
386.1867	4.5
387.1096	6.9
387.1134	5.3
387.2005	36.2
388.2054	7.9
389.1246	77.9

Name: 5-Hydroxy-1-(4-hydroxyphenyl)-7-(4-hydroxy-3-methoxylphenyl)-3-heptanone
PrecursorMZ: 343.15525
RT: 5.7851
ExactMass: 344.16237386
Spectrum_type: 2
charge: -1
Formula: C20H24O5
SMILES: COC1=C(C=CC(=C1)CCC(CC(=O)CCC2=CC=C(C=C2)O)O)O
Method: HCD
Collision_energy: [28.333334]
Isolation_window: 4.0
Ion_mode: N
Num Peaks: 15
147.0809	10.2
149.0601	26.8
187.0757	10.4
201.1127	6.8
205.0500	7.3
206.0534	7.7
213.0917	11.0
257.0818	26.9
315.1601	100.0
316.1626	20.5
341.2001	10.3
343.1550	36.0
343.2120	13.8
344.1554	14.9
345.1710	14.6

Name: 5-Hydroxy-1-tetralone
PrecursorMZ: 161.06013
RT: 4.2443
ExactMass: 162.068079557
Spectrum_type: 2
charge: -1
Formula: C10H10O2
SMILES: C1CC2=C(C=CC=C2O)C(=O)C1
Method: HCD
Collision_energy: [28.333334]
Isolation_window: 4.0
Ion_mode: N
Num Peaks: 12
119.0494	8.1
120.0525	0.6
121.0509	0.8
134.0358	0.6
145.0292	0.6
146.0367	0.7
160.0397	0.5
161.0322	0.6
161.0601	100.0
161.0883	0.6
162.0635	10.3
163.0650	0.6

Name: 5-Hydroxy-2-(4-Hydroxyphenyl)-7-Methoxy-6-(3,4,5-Trihydroxy-6-(Hydroxymethyl)Oxan-2-Yl)Chromen-4-One
PrecursorMZ: 445.11468
RT: 4.041
ExactMass: 446.12129689
Spectrum_type: 2
charge: -1
Formula: C22H22O10
SMILES: COC1=C(C(=C2C(=C1)OC(=CC2=O)C3=CC=C(C=C3)O)O)C4C(C(C(C(O4)CO)O)O)O
Method: HCD
Collision_energy: [28.333334]
Isolation_window: 4.0
Ion_mode: N
Num Peaks: 8
231.0300	3.7
282.0535	8.1
297.0411	19.5
298.0445	3.9
325.0718	11.1
445.1147	100.0
446.1174	22.1
447.1323	8.3

Name: 5-Hydroxy-2-(4-hydroxyphenyl)-7-(((2S,3S,4R,5S)-3,4,5-trihydroxy-6-(((2S,3R,4R,5R,6S)-3,4,5-trihydroxy-6-methyltetrahydro-2H-pyran-2-yl)oxy)tetrahydro-2H-pyran-2-yl)methoxy)-4H-chromen-4-one
PrecursorMZ: 577.15523
RT: 4.0115
ExactMass: 578.16355563
Spectrum_type: 2
charge: -1
Formula: C27H30O14
SMILES: C[C@H]1[C@@H]([C@H]([C@H]([C@@H](O1)OC2[C@H]([C@@H]([C@@H]([C@@H](O2)COC3=CC(=C4C(=C3)OC(=CC4=O)C5=CC=C(C=C5)O)O)O)O)O)O)O)O
Method: HCD
Collision_energy: [28.333334]
Isolation_window: 4.0
Ion_mode: N
Num Peaks: 10
64.1303	0.8
268.9848	0.8
269.0449	100.0
269.1049	0.8
270.0482	13.8
271.0507	1.1
577.1549	18.5
578.1578	4.7
579.1647	1.2
579.3016	3.6

Name: 5-Hydroxy-3,7,4'-trimethoxyflavone
PrecursorMZ: 327.08619
RT: 7.6347
ExactMass: 328.09468823
Spectrum_type: 2
charge: -1
Formula: C18H16O6
SMILES: COC1=CC=C(C=C1)C2=C(C(=O)C3=C(C=C(C=C3O2)OC)O)OC
Method: HCD
Collision_energy: [28.333334]
Isolation_window: 4.0
Ion_mode: N
Num Peaks: 8
175.0386	8.6
220.0366	64.5
221.0400	7.5
312.0630	8.0
325.1839	22.9
326.1871	6.1
327.0863	100.0
328.0898	19.6

Name: 5-Hydroxy-6,8,11,14,17-eicosapentaenoic acid
PrecursorMZ: 317.21239
RT: 6.8882
ExactMass: 318.21949481
Spectrum_type: 2
charge: -1
Formula: C20H30O3
SMILES: CC/C=C\C/C=C\C/C=C\C/C=C\C=C\C(CCCC(=O)O)O
Method: HCD
Collision_energy: [28.333334]
Isolation_window: 4.0
Ion_mode: N
Num Peaks: 5
317.1361	0.7
317.2123	100.0
317.2890	0.7
318.2156	21.8
319.2235	2.8

Name: 5-Hydroxy-7-(hydroxymethyl)-2-methyl-2-(5-oxooxolan-2-yl)-3H-chromen-4-one
PrecursorMZ: 291.08767
RT: 2.0671
ExactMass: 292.09468823
Spectrum_type: 2
charge: -1
Formula: C15H16O6
SMILES: CC1(CC(=O)C2=C(C=C(C=C2O1)CO)O)C3CCC(=O)O3
Method: HCD
Collision_energy: [28.333334]
Isolation_window: 4.0
Ion_mode: N
Num Peaks: 25
87.0078	6.1
96.9591	4.6
101.0235	6.4
109.0285	4.0
124.0159	4.1
125.0236	6.7
135.0444	5.2
165.0663	9.4
177.0549	9.5
191.0707	13.0
217.0505	5.3
229.0863	10.6
231.0659	8.7
248.0924	8.6
249.0758	6.8
289.0693	9.6
289.1643	4.0
290.0725	5.6
290.1029	12.2
291.0548	4.2
291.0870	100.0
292.0874	21.6
292.1198	10.7
293.0661	14.9
293.1024	10.3

Name: 5-Hydroxydecanoic acid
PrecursorMZ: 187.13323
RT: 6.42765
ExactMass: 188.1412445
Spectrum_type: 2
charge: -1
Formula: C10H20O3
SMILES: CCCCCC(CCCC(=O)O)O
Method: HCD
Collision_energy: [28.333334]
Isolation_window: 4.0
Ion_mode: N
Num Peaks: 3
141.1276	80.6
187.1332	100.0
188.1370	9.9

Name: 5-Hydroxyeicosatetraenoic Acid
PrecursorMZ: 301.21731
RT: 9.1283
ExactMass: 320.23514488
Spectrum_type: 2
charge: -1
Formula: C20H32O3
SMILES: CCCCC/C=C\C/C=C\C/C=C\C=C\[C@H](CCCC(=O)O)O
Method: HCD
Collision_energy: [28.333334]
Isolation_window: 4.0
Ion_mode: N
Num Peaks: 7
59.0130	12.4
203.1803	5.9
257.2276	23.7
258.2316	4.1
299.2583	3.4
301.2174	100.0
302.2207	21.3

Name: 5-Hydroxyindoleacetic Acid
PrecursorMZ: 190.05038
RT: 3.3467
ExactMass: 191.058243149
Spectrum_type: 2
charge: -1
Formula: C10H9NO3
SMILES: C1=CC2=C(C=C1O)C(=CN2)CC(=O)O
Method: HCD
Collision_energy: [28.333334]
Isolation_window: 4.0
Ion_mode: N
Num Peaks: 20
102.9478	1.6
116.0496	3.2
117.0531	0.5
118.0653	0.7
128.0497	3.6
131.0368	2.7
132.0454	0.9
144.0447	23.0
145.0482	2.5
146.0361	0.7
146.0603	100.0
146.0847	0.6
146.9378	0.6
147.0638	9.6
160.0395	0.7
162.0553	1.7
172.0396	5.2
173.0440	0.6
190.0503	25.5
191.0541	3.4

Name: 5-Methoxysalicylic Acid
PrecursorMZ: 167.03431
RT: 3.5288500000000003
ExactMass: 168.04225873
Spectrum_type: 2
charge: -1
Formula: C8H8O4
SMILES: COC1=CC(=C(C=C1)O)C(=O)O
Method: HCD
Collision_energy: [28.333334]
Isolation_window: 4.0
Ion_mode: N
Num Peaks: 11
81.0449	6.1
82.0402	10.6
97.0399	12.5
109.0397	6.6
122.0605	10.5
124.0508	11.8
125.0347	7.7
135.0443	49.3
152.0109	19.4
167.0343	100.0
168.0394	7.4

Name: 5-Methyluridine
PrecursorMZ: 257.07707
RT: 1.2453
ExactMass: 258.08518617
Spectrum_type: 2
charge: -1
Formula: C10H14N2O6
SMILES: CC1=CN(C(=O)NC1=O)[C@H]2[C@@H]([C@@H]([C@H](O2)CO)O)O
Method: HCD
Collision_energy: [28.333334]
Isolation_window: 4.0
Ion_mode: N
Num Peaks: 20
82.0288	9.9
84.0445	7.5
88.9870	9.9
115.0027	7.0
124.0394	6.1
127.0502	15.3
128.0343	100.0
152.0708	19.7
166.0865	7.2
169.0971	12.7
195.0772	8.5
196.0607	6.3
196.0968	10.1
213.0875	22.4
239.0669	53.0
256.0815	8.9
257.0777	61.4
257.1141	37.3
258.0586	10.5
258.1191	6.0

Name: 5-Nitrosalicylic acid
PrecursorMZ: 182.00886
RT: 3.9642
ExactMass: 183.01677226
Spectrum_type: 2
charge: -1
Formula: C7H5NO5
SMILES: C1=CC(=C(C=C1[N+](=O)[O-])C(=O)O)O
Method: HCD
Collision_energy: [28.333334]
Isolation_window: 4.0
Ion_mode: N
Num Peaks: 10
68.9948	36.3
108.0206	9.2
109.0395	4.5
112.9846	100.0
136.9825	10.4
138.0188	98.4
139.0225	5.7
157.0510	5.0
181.0517	6.9
182.0088	35.8

Name: 5-O-Methylsulochrin
PrecursorMZ: 345.09835
RT: 5.512
ExactMass: 346.10525291
Spectrum_type: 2
charge: -1
Formula: C18H18O7
SMILES: CC1=CC(=C(C(=C1)O)C(=O)C2=C(C=C(C=C2OC)OC)C(=O)OC)O
Method: HCD
Collision_energy: [28.333334]
Isolation_window: 4.0
Ion_mode: N
Num Peaks: 14
119.0495	15.1
147.0446	12.2
177.0191	9.6
181.0501	9.9
190.0268	8.8
191.0346	61.5
222.0171	9.2
223.0610	33.2
313.0722	100.0
314.0760	18.0
343.2127	23.1
344.2169	8.4
345.0987	43.9
346.1036	13.9

Name: 5-O-Methylvisammioside
PrecursorMZ: 497.16617
RT: 6.0854
ExactMass: 452.16824709
Spectrum_type: 2
charge: -1
Formula: C22H28O10
SMILES: CC1=CC(=O)C2=C(C3=C(C=C2O1)OC(C3)C(C)(C)O[C@H]4[C@@H]([C@H]([C@@H]([C@H](O4)CO)O)O)O)OC
Method: HCD
Collision_energy: [28.333334]
Isolation_window: 4.0
Ion_mode: N
Num Peaks: 17
59.0129	16.4
61.0285	10.4
81.0336	17.4
83.0492	100.0
105.0547	90.7
109.0284	34.5
121.0285	98.3
127.0391	13.5
149.0236	29.0
215.0918	52.2
233.1024	21.6
253.0713	38.2
281.0663	57.7
451.3394	18.8
469.1715	20.9
497.1665	67.2
498.1704	14.8

Name: 5-Oxoprolylhistidylprolinamide
PrecursorMZ: 361.1634
RT: 6.624781818181818
ExactMass: 362.1702532
Spectrum_type: 2
charge: -1
Formula: C16H22N6O4
SMILES: C1CC(N(C1)C(=O)C(CC2=CN=CN2)NC(=O)C3CCC(=O)N3)C(=O)N
Method: HCD
Collision_energy: [28.333334]
Isolation_window: 4.0
Ion_mode: N
Num Peaks: 10
71.0130	9.7
220.1464	16.8
221.1542	67.3
222.1574	9.8
236.1052	100.0
237.1087	16.0
293.1760	39.1
294.1796	7.7
361.1633	47.3
362.1665	10.6

Name: 5-Propylbenzene-1,3-diol
PrecursorMZ: 151.07526
RT: 5.551375
ExactMass: 152.083729621
Spectrum_type: 2
charge: -1
Formula: C9H12O2
SMILES: CCCC1=CC(=CC(=C1)O)O
Method: HCD
Collision_energy: [28.333334]
Isolation_window: 4.0
Ion_mode: N
Num Peaks: 6
106.9919	8.5
108.9877	4.7
122.0361	10.6
151.0754	100.0
152.0342	5.1
152.0789	9.5

Name: 5-fluoro-N-(2-(4-(2-oxo-3H-benzimidazol-1-yl)piperidin-1-yl)ethyl)-1H-indole-2-carboxamide
PrecursorMZ: 420.18371
RT: 5.4204
ExactMass: 421.19140319
Spectrum_type: 2
charge: -1
Formula: C23H24FN5O2
SMILES: C1CN(CCC1N2C3=CC=CC=C3NC2=O)CCNC(=O)C4=CC5=C(N4)C=CC(=C5)F
Method: HCD
Collision_energy: [28.333334]
Isolation_window: 4.0
Ion_mode: N
Num Peaks: 5
342.2060	28.6
376.1934	100.0
377.1977	26.5
420.1832	83.3
421.1866	21.1

Name: 5-hydroxy-2-methyl-1H-indole-3-carboxylic acid
PrecursorMZ: 190.05041
RT: 3.2626999999999997
ExactMass: 191.058243149
Spectrum_type: 2
charge: -1
Formula: C10H9NO3
SMILES: CC1=C(C2=C(N1)C=CC(=C2)O)C(=O)O
Method: HCD
Collision_energy: [28.333334]
Isolation_window: 4.0
Ion_mode: N
Num Peaks: 21
87.0078	1.2
102.9478	4.2
107.0494	2.8
108.0525	1.5
111.0078	3.3
116.0496	4.3
118.0653	0.9
128.0496	3.5
131.0368	3.7
132.0451	1.1
144.0447	22.9
145.0483	2.5
146.0603	100.0
146.9377	1.3
147.0638	10.5
162.0552	1.4
172.0396	5.4
188.0097	1.9
189.0006	2.3
190.0503	23.5
191.0543	3.6

Name: 5-hydroxy-3-((2S,3R,4S,5S)-4-hydroxy-5-(hydroxymethyl)-3-((2S,3R,4R,5R,6S)-3,4,5-trihydroxy-6-methyloxan-2-yl)oxyoxolan-2-yl)oxy-2-(4-hydroxyphenyl)-7-methoxychromen-4-one
PrecursorMZ: 577.15675
RT: 5.4484
ExactMass: 578.16355563
Spectrum_type: 2
charge: -1
Formula: C27H30O14
SMILES: C[C@H]1[C@@H]([C@H]([C@H]([C@@H](O1)O[C@@H]2[C@H]([C@@H](O[C@H]2OC3=C(OC4=CC(=CC(=C4C3=O)O)OC)C5=CC=C(C=C5)O)CO)O)O)O)O
Method: HCD
Collision_energy: [28.333334]
Isolation_window: 4.0
Ion_mode: N
Num Peaks: 4
61.9874	41.3
369.0980	100.0
370.1011	18.1
577.1575	14.7

Name: 5-oxopentadecanoic Acid
PrecursorMZ: 255.1967
RT: 8.4007
ExactMass: 256.20384475
Spectrum_type: 2
charge: -1
Formula: C15H28O3
SMILES: CCCCCCCCCCC(=O)CCCC(=O)O
Method: HCD
Collision_energy: [28.333334]
Isolation_window: 4.0
Ion_mode: N
Num Peaks: 11
57.0338	1.5
59.0130	42.0
69.1972	1.5
71.0130	7.1
183.1750	20.2
184.1784	3.0
195.1750	2.2
211.2068	2.8
237.1859	2.3
255.1969	100.0
256.2003	16.9

Name: 5alpha-Tetrahydrocortisol
PrecursorMZ: 411.23893
RT: 4.5003
ExactMass: 366.24062418
Spectrum_type: 2
charge: -1
Formula: C21H34O5
SMILES: C[C@]12CC[C@H](C[C@@H]1CC[C@@H]3[C@@H]2[C@H](C[C@]4([C@H]3CC[C@@]4(C(=O)CO)O)C)O)O
Method: HCD
Collision_energy: [28.333334]
Isolation_window: 4.0
Ion_mode: N
Num Peaks: 8
61.9874	52.2
335.2225	52.9
365.1962	85.2
365.2348	85.6
366.2393	21.4
411.2400	100.0
412.2410	25.7
413.1624	26.3

Name: 6''-O-Acetylglycitin
PrecursorMZ: 533.1305
RT: 2.5476
ExactMass: 488.13186158
Spectrum_type: 2
charge: -1
Formula: C24H24O11
SMILES: CC(=O)OC[C@@H]1[C@H]([C@@H]([C@H]([C@@H](O1)OC2=C(C=C3C(=C2)OC=C(C3=O)C4=CC=C(C=C4)O)OC)O)O)O
Method: HCD
Collision_energy: [28.333334]
Isolation_window: 4.0
Ion_mode: N
Num Peaks: 20
88.9870	4.5
109.0286	7.3
135.0443	14.7
149.0600	6.4
161.0600	20.3
173.0449	27.2
179.0342	7.5
191.0555	100.0
192.0590	6.5
205.0505	5.5
255.0661	29.7
269.0820	4.2
271.0976	10.1
315.0879	11.4
341.0668	9.6
359.0776	38.6
360.0805	6.2
533.1297	68.4
534.1305	16.4
535.1401	8.0

Name: 6,10a-Dihydroxy-4-(hydroxymethyl)-4,7,11b-trimethyl-1,2,3,4a,5,6,6a,7,11,11a-decahydronaphtho(2,1-f)(1)benzofuran-9-one
PrecursorMZ: 349.20223
RT: 3.6864
ExactMass: 350.20932405
Spectrum_type: 2
charge: -1
Formula: C20H30O5
SMILES: CC1C2C(CC3C(CCCC3(C2CC4(C1=CC(=O)O4)O)C)(C)CO)O
Method: HCD
Collision_energy: [28.333334]
Isolation_window: 4.0
Ion_mode: N
Num Peaks: 15
249.0767	2.9
287.2017	2.0
319.1913	38.7
320.1946	7.4
347.1500	2.6
348.1511	3.3
349.0906	1.5
349.1297	5.3
349.1659	10.1
349.2021	100.0
350.1304	1.7
350.1690	2.0
350.2051	23.0
351.1443	6.1
351.2156	4.4

Name: 6,11-dioxododecanoic Acid
PrecursorMZ: 227.12875
RT: 3.4534
ExactMass: 228.13615911
Spectrum_type: 2
charge: -1
Formula: C12H20O4
SMILES: CC(=O)CCCCC(=O)CCCCC(=O)O
Method: HCD
Collision_energy: [28.333334]
Isolation_window: 4.0
Ion_mode: N
Num Peaks: 37
57.0338	2.7
59.0130	39.8
60.0164	1.5
97.0650	2.2
109.0652	1.8
111.0807	2.0
121.0652	1.6
125.0602	1.7
125.0961	1.9
137.0964	1.8
139.0760	4.0
139.1122	6.2
147.1175	1.5
153.0916	2.5
153.1279	2.8
163.1123	4.8
165.0552	3.6
165.0916	4.4
165.1280	11.3
166.1313	1.2
167.1438	1.5
169.0866	2.1
181.1233	2.5
183.0667	1.6
183.1024	7.8
183.1386	3.5
191.1074	2.3
197.1181	1.9
207.1021	1.7
209.1181	9.2
225.1132	13.8
226.1169	5.0
227.0924	3.6
227.1288	100.0
228.1323	12.7
229.1080	4.2
229.1447	57.2

Name: 6,18,19-Trihydroxytrachyloban-2-one
PrecursorMZ: 333.20744
RT: 6.5683
ExactMass: 334.21440943
Spectrum_type: 2
charge: -1
Formula: C20H30O4
SMILES: CC12CC(=O)CC(C1C(CC34C2CC5C(C3)C5(C4)C)O)(CO)CO
Method: HCD
Collision_energy: [28.333334]
Isolation_window: 4.0
Ion_mode: N
Num Peaks: 6
157.0864	4.5
162.0682	4.2
177.0916	7.2
315.1964	3.3
333.2075	100.0
334.2110	23.8

Name: 6,7-Bis(hydroxymethyl)-1-methoxy-8-(3,4,5-trimethoxyphenyl)-5,6,7,8-tetrahydronaphthalene-2,3-diol
PrecursorMZ: 465.1767
RT: 3.8503
ExactMass: 420.17841785
Spectrum_type: 2
charge: -1
Formula: C22H28O8
SMILES: COC1=CC(=CC(=C1OC)OC)C2C(C(CC3=CC(=C(C(=C23)OC)O)O)CO)CO
Method: HCD
Collision_energy: [28.333334]
Isolation_window: 4.0
Ion_mode: N
Num Peaks: 8
61.9874	21.6
88.9870	40.3
359.1131	23.1
373.1290	36.1
389.1252	15.0
404.1476	35.5
419.1715	100.0
420.1753	20.7

Name: 6,8-Diprenylnaringenin
PrecursorMZ: 407.18668
RT: 8.6609
Spectrum_type: 2
charge: -1
SMILES: O=C1C=2C(O[C@]([H])(C=3C(=C(C(O[H])=C(C3[H])[H])[H])[H])C1([H])[H])=C(C(O[H])=C(C2O[H])C(C(=C(C([H])([H])[H])C([H])([H])[H])[H])([H])[H])C(C(=C(C([H])([H])[H])C([H])([H])[H])[H])([H])[H]
Method: HCD
Collision_energy: [28.333334]
Isolation_window: 4.0
Ion_mode: N
Num Peaks: 8
61.9875	12.2
119.0493	32.8
243.1396	4.3
287.1289	44.6
288.1324	7.9
407.1866	100.0
408.1897	29.8
409.1939	4.1

Name: 6-((2-(1H-Imidazol-5-yl)ethyl)amino)-N-(4-(trifluoromethyl)phenyl)heptanamide
PrecursorMZ: 381.19055
RT: 5.7786
ExactMass: 382.19804592
Spectrum_type: 2
charge: -1
Formula: C19H25F3N4O
SMILES: CC(CCCCC(=O)NC1=CC=C(C=C1)C(F)(F)F)NCCC2=CN=CN2
Method: HCD
Collision_energy: [28.333334]
Isolation_window: 4.0
Ion_mode: N
Num Peaks: 18
111.0438	3.8
219.1377	23.2
220.1413	3.1
235.1327	3.8
249.1487	2.7
257.1898	8.8
275.2008	10.4
291.1952	5.5
293.2109	5.2
319.1902	5.5
337.2008	18.2
338.2008	2.7
338.2043	3.8
379.2116	15.8
380.2156	12.2
381.1903	100.0
382.1937	21.8
383.1962	2.7

Name: 6-(3-Oxo-2-(pent-2-enyl)cyclopentyl)hexanoic acid
PrecursorMZ: 265.18082
RT: 7.005
ExactMass: 266.18819469
Spectrum_type: 2
charge: -1
Formula: C16H26O3
SMILES: CCC=CCC1C(CCC1=O)CCCCCC(=O)O
Method: HCD
Collision_energy: [28.333334]
Isolation_window: 4.0
Ion_mode: N
Num Peaks: 10
96.9591	34.4
121.1014	10.0
143.0705	12.5
223.1701	4.7
247.1702	12.7
265.1480	100.0
265.1806	36.3
266.1513	12.7
266.1837	6.4
267.1964	28.8

Name: 6-(4-(2-methyl-6-(oxan-4-yl)pyrimidin-4-yl)piperazin-1-yl)-9H-purine
PrecursorMZ: 415.17692
RT: 4.8874
ExactMass: 380.20730742
Spectrum_type: 2
charge: -1
Formula: C19H24N8O
SMILES: CC1=NC(=CC(=N1)N2CCN(CC2)C3=NC=NC4=C3NC=N4)C5CCOCC5
Method: HCD
Collision_energy: [28.333334]
Isolation_window: 4.0
Ion_mode: N
Num Peaks: 9
74.0237	12.7
116.0494	9.6
156.0809	15.3
157.0607	9.6
203.0817	26.9
242.1296	12.2
286.1189	30.1
415.1770	100.0
416.1799	25.0

Name: 6-Amino-5-formamido-1,3-dimethyluracil
PrecursorMZ: 197.06751
RT: 1.403
ExactMass: 198.07529019
Spectrum_type: 2
charge: -1
Formula: C7H10N4O3
SMILES: CN1C(=C(C(=O)N(C1=O)C)NC=O)N
Method: HCD
Collision_energy: [28.333334]
Isolation_window: 4.0
Ion_mode: N
Num Peaks: 7
85.0398	8.9
142.9457	7.9
154.0490	31.5
169.0723	13.9
197.0466	7.4
197.0674	100.0
198.0717	8.8

Name: 6-Benzyl-3-butan-2-yl-9-(7-hydroxy-6-oxooctyl)-1,4,7,10-tetrazabicyclo(10.4.0)hexadecane-2,5,8,11-tetrone
PrecursorMZ: 615.34026
RT: 3.9722
ExactMass: 570.3417352
Spectrum_type: 2
charge: -1
Formula: C31H46N4O6
SMILES: CCC(C)C1C(=O)N2CCCCC2C(=O)NC(C(=O)NC(C(=O)N1)CC3=CC=CC=C3)CCCCCC(=O)C(C)O
Method: HCD
Collision_energy: [28.333334]
Isolation_window: 4.0
Ion_mode: N
Num Peaks: 19
59.0129	4.4
71.0130	1.2
110.0603	1.2
122.0604	6.7
138.0918	17.4
139.0954	1.2
164.0712	1.7
182.0818	46.4
183.0853	3.7
190.1234	2.2
235.1451	1.3
245.1661	1.4
246.1499	4.1
247.1477	1.0
263.1768	19.9
264.1805	2.6
307.1666	100.0
308.1699	14.3
309.1728	1.2

Name: 6-Ethoxy-3(4'-hydroxyphenyl)-4-methylcoumarin
PrecursorMZ: 295.09773
RT: 5.5827
ExactMass: 296.10485899
Spectrum_type: 2
charge: -1
Formula: C18H16O4
SMILES: CCOC1=CC2=C(C=C1)OC(=O)C(=C2C)C3=CC=C(C=C3)O
Method: HCD
Collision_energy: [28.333334]
Isolation_window: 4.0
Ion_mode: N
Num Peaks: 12
93.0338	1.7
107.0495	2.9
143.0496	4.0
209.0606	3.0
222.0681	3.5
235.0768	2.1
249.0923	10.6
250.0969	2.1
251.1079	65.6
252.1114	11.7
295.0978	100.0
296.1011	19.4

Name: 6-Hydroxy-2,5,7,8-tetramethyl-chroman-2-carboxylic acid, (+)-
PrecursorMZ: 249.11317
RT: 4.9615
ExactMass: 250.12050905
Spectrum_type: 2
charge: -1
Formula: C14H18O4
SMILES: CC1=C(C2=C(CC[C@](O2)(C)C(=O)O)C(=C1O)C)C
Method: HCD
Collision_energy: [28.333334]
Isolation_window: 4.0
Ion_mode: N
Num Peaks: 6
137.0600	34.5
205.1229	100.0
206.1264	15.8
249.0258	10.7
249.0665	63.2
249.1126	51.0

Name: 6-Methylmercaptopurine
PrecursorMZ: 165.0217
RT: 1.2218
ExactMass: 166.03131738
Spectrum_type: 2
charge: -1
Formula: C6H6N4S
SMILES: CSC1=NC=NC2=C1NC=N2
Method: HCD
Collision_energy: [28.333334]
Isolation_window: 4.0
Ion_mode: N
Num Peaks: 32
57.0336	3.6
59.0129	3.6
63.9615	15.3
71.0129	4.4
72.0081	5.3
72.9921	58.3
73.0284	4.4
75.0077	12.3
76.9692	13.0
79.9563	19.8
80.9642	5.7
87.0077	19.0
94.0289	4.4
100.0394	4.2
101.0234	100.0
102.0267	4.9
103.0390	5.3
119.0493	5.2
120.0449	4.0
121.0285	32.6
121.0394	3.7
122.0237	9.0
122.0601	7.0
136.0394	9.0
147.0442	11.3
149.9983	48.1
163.0240	3.6
163.0604	8.9
164.0707	11.6
165.0217	74.3
165.0398	15.4
166.0501	4.8

Name: 6-O-Caffeoylarbutin
PrecursorMZ: 433.11333
RT: 4.3097
ExactMass: 434.12129689
Spectrum_type: 2
charge: -1
Formula: C21H22O10
SMILES: C1=CC(=CC=C1O)O[C@H]2[C@@H]([C@H]([C@@H]([C@H](O2)COC(=O)/C=C/C3=CC(=C(C=C3)O)O)O)O)O
Method: HCD
Collision_energy: [28.333334]
Isolation_window: 4.0
Ion_mode: N
Num Peaks: 5
302.0790	9.2
317.1027	69.6
318.1061	14.5
387.1084	100.0
388.1110	19.2

Name: 6-O-Methylarthothelin
PrecursorMZ: 372.94449
RT: 8.9587
ExactMass: 373.951556
Spectrum_type: 2
charge: -1
Formula: C15H9Cl3O5
SMILES: CC1=CC(=C(C2=C1C(=O)C3=C(C(=C(C(=C3O2)Cl)O)Cl)O)Cl)OC
Method: HCD
Collision_energy: [28.333334]
Isolation_window: 4.0
Ion_mode: N
Num Peaks: 6
357.9209	100.0
358.9249	12.4
359.9179	60.2
372.9443	95.1
373.9476	13.3
374.9413	59.6

Name: 6-Oxocativic acid
PrecursorMZ: 319.22803
RT: 9.9881
ExactMass: 320.23514488
Spectrum_type: 2
charge: -1
Formula: C20H32O3
SMILES: CC1=CC(=O)C2[C@@]([C@H]1CC[C@H](C)CC(=O)O)(CCCC2(C)C)C
Method: HCD
Collision_energy: [28.333334]
Isolation_window: 4.0
Ion_mode: N
Num Peaks: 4
275.2379	95.5
276.2414	19.2
319.2278	100.0
320.2314	25.3

Name: 6-Prenylnaringenin
PrecursorMZ: 339.12378
RT: 6.88605
ExactMass: 340.13107373
Spectrum_type: 2
charge: -1
Formula: C20H20O5
SMILES: CC(=CCC1=C(C2=C(C=C1O)O[C@@H](CC2=O)C3=CC=C(C=C3)O)O)C
Method: HCD
Collision_energy: [28.333334]
Isolation_window: 4.0
Ion_mode: N
Num Peaks: 20
93.0336	5.1
119.0494	31.9
120.0527	2.1
133.0649	6.2
151.0758	4.1
175.0759	5.9
176.0108	3.1
219.0659	58.6
220.0691	7.7
233.0814	3.5
245.0817	4.3
337.2025	3.2
337.2387	2.3
339.0928	2.1
339.1238	100.0
339.2134	4.5
339.2557	1.7
340.1271	21.9
341.0498	1.8
341.1312	1.6

Name: 6-formyl-10-(hydroxymethyl)-5-methoxy-3-methylidene-2-oxo-2H,3H,3aH,4H,5H,8H,9H,11aH-cyclodeca(b)furan-4-yl 2-methylbutanoate
PrecursorMZ: 391.17644
RT: 3.96694
ExactMass: 392.18350323
Spectrum_type: 2
charge: -1
Formula: C21H28O7
SMILES: CCC(C)C(=O)OC1C2C(C=C(CC/C=C(\C1OC)/C=O)CO)OC(=O)C2=C
Method: HCD
Collision_energy: [28.333334]
Isolation_window: 4.0
Ion_mode: N
Num Peaks: 3
391.1791	100.0
392.1805	32.1
393.1938	31.9

Name: 6-hydroxy-9,12,13-trimethyl-14-(2-methylpropyl)-2H,5H,6H,7H,8H,13H,13aH,14H,15H,16H,16bH-oxacyclododeca(3,2-e)isoindole-2,16-dione
PrecursorMZ: 400.24967
RT: 8.7842
ExactMass: 401.2566086
Spectrum_type: 2
charge: -1
Formula: C24H35NO4
SMILES: CC1C2C(NC(=O)C23C(/C=C(\CCC(C/C=C\C(=O)O3)O)/C)C=C1C)CC(C)C
Method: HCD
Collision_energy: [28.333334]
Isolation_window: 4.0
Ion_mode: N
Num Peaks: 14
73.0285	12.5
80.0496	7.6
108.0446	100.0
131.0161	20.0
136.0396	13.4
147.0684	7.2
327.2727	7.7
329.2524	8.3
338.2491	23.6
356.2596	38.4
357.2628	9.3
400.2491	58.9
401.2526	21.2
401.3085	11.3

Name: 6-oxoheptadecanedioic Acid
PrecursorMZ: 313.20242
RT: 6.9037
ExactMass: 314.20932405
Spectrum_type: 2
charge: -1
Formula: C17H30O5
SMILES: C(CCCCCC(=O)O)CCCCC(=O)CCCCC(=O)O
Method: HCD
Collision_energy: [28.333334]
Isolation_window: 4.0
Ion_mode: N
Num Peaks: 10
187.0976	10.8
251.2021	15.8
269.2129	17.6
277.1815	20.7
295.1920	39.5
312.1720	15.7
313.2024	100.0
313.2387	42.7
314.2060	18.9
315.2541	10.6

Name: 6:2 FTSA
PrecursorMZ: 426.96692
RT: 5.85535
ExactMass: 427.9751813
Spectrum_type: 2
charge: -1
Formula: C8H5F13O3S
SMILES: C(CS(=O)(=O)O)C(C(C(C(C(C(F)(F)F)(F)F)(F)F)(F)F)(F)F)(F)F
Method: HCD
Collision_energy: [28.333334]
Isolation_window: 4.0
Ion_mode: N
Num Peaks: 5
79.9562	18.2
80.9641	56.6
406.9610	42.3
426.9672	100.0
427.9711	7.6

Name: 6a,7,8,12a-Tetrahydroxy-3-methyl-2,3,4,5,6,7-hexahydrobenzo(a)anthracene-1,12-dione
PrecursorMZ: 343.11875
RT: 4.8848
ExactMass: 344.12598835
Spectrum_type: 2
charge: -1
Formula: C19H20O6
SMILES: CC1CC2=C(C(=O)C1)C3(C(=O)C4=C(C(C3(CC2)O)O)C(=CC=C4)O)O
Method: HCD
Collision_energy: [28.333334]
Isolation_window: 4.0
Ion_mode: N
Num Peaks: 29
59.0129	14.2
91.0390	8.2
121.0286	8.7
171.1019	5.7
201.1129	9.5
226.1231	13.3
241.0980	100.0
254.1057	5.5
256.1212	14.6
267.0662	6.1
269.0823	24.2
269.1290	25.2
273.1244	44.7
283.0973	28.6
284.1023	8.3
311.0919	16.4
325.2017	7.2
328.0957	7.6
341.1040	10.0
341.1967	24.5
342.1041	7.0
342.1997	5.4
343.1189	86.5
343.1694	5.4
343.2120	85.0
344.1207	18.7
344.2147	18.6
345.1443	88.0
345.2278	25.9

Name: 7
PrecursorMZ: 331.19156
RT: 7.0525
ExactMass: 332.19875937
Spectrum_type: 2
charge: -1
Formula: C20H28O4
SMILES: CC12CCCC(C1CC(C3=C2C=CC(=C3)C(C)(C)O)O)(C)C(=O)O
Method: HCD
Collision_energy: [28.333334]
Isolation_window: 4.0
Ion_mode: N
Num Peaks: 22
122.0361	1.1
135.0441	1.2
171.1019	12.0
172.1053	1.9
245.1907	3.4
247.1337	7.4
287.2016	100.0
288.2049	19.7
289.2089	1.8
301.2371	1.2
311.2233	1.4
313.1809	3.3
313.2373	1.6
329.1753	2.5
329.2332	7.9
330.1762	1.2
330.2376	3.1
331.1913	49.8
331.2482	1.6
332.1941	9.6
332.2245	5.6
333.2014	3.2

Name: 7,2',3'-Trimethoxyflavone
PrecursorMZ: 311.09118
RT: 7.65275
ExactMass: 312.09977361
Spectrum_type: 2
charge: -1
Formula: C18H16O5
SMILES: COC1=CC2=C(C=C1)C(=O)C=C(O2)C3=C(C(=CC=C3)OC)OC
Method: HCD
Collision_energy: [28.333334]
Isolation_window: 4.0
Ion_mode: N
Num Peaks: 11
96.9587	3.2
183.0104	4.0
296.0677	34.0
297.0711	6.4
309.1730	13.8
310.1763	4.0
311.0916	39.6
311.1673	100.0
312.0948	7.5
312.1707	19.5
313.1657	2.8

Name: 7,8,2'-Trihydroxyflavone
PrecursorMZ: 269.04551
RT: 4.2356
ExactMass: 270.05282342
Spectrum_type: 2
charge: -1
Formula: C15H10O5
SMILES: C1=CC=C(C(=C1)C2=CC(=O)C3=C(O2)C(=C(C=C3)O)O)O
Method: HCD
Collision_energy: [28.333334]
Isolation_window: 4.0
Ion_mode: N
Num Peaks: 5
149.0237	3.3
151.0028	3.2
269.0453	100.0
270.0489	14.1
271.0612	23.5

Name: 7,8,4'-Trihydroxyflavone
PrecursorMZ: 269.04578
RT: 4.2257
ExactMass: 270.05282342
Spectrum_type: 2
charge: -1
Formula: C15H10O5
SMILES: C1=CC(=CC=C1C2=CC(=O)C3=C(O2)C(=C(C=C3)O)O)O
Method: HCD
Collision_energy: [28.333334]
Isolation_window: 4.0
Ion_mode: N
Num Peaks: 19
115.0027	0.8
137.0237	2.2
149.0238	2.2
151.0029	3.2
154.0866	3.8
165.0186	0.9
197.0601	0.7
213.0553	0.9
224.1290	0.7
225.0556	1.0
225.1493	2.7
240.0416	0.9
241.0496	0.8
267.1247	0.7
269.0456	100.0
269.1397	1.7
270.0490	14.9
271.0613	18.1
271.1551	1.9

Name: 7,9,11,13-Tetrahydroxy-5-methyl-19-oxapentacyclo(8.8.1.01,10.02,7.012,17)nonadeca-12(17),13,15-triene-3,18-dione
PrecursorMZ: 359.11361
RT: 4.4223
ExactMass: 360.12090297
Spectrum_type: 2
charge: -1
Formula: C19H20O7
SMILES: CC1CC(=O)C2C(C1)(CC(C34C2(O3)C(=O)C5=C(C4O)C(=CC=C5)O)O)O
Method: HCD
Collision_energy: [28.333334]
Isolation_window: 4.0
Ion_mode: N
Num Peaks: 23
59.0130	4.0
83.0492	13.3
115.0392	20.5
134.0364	11.4
149.0599	15.7
178.0264	20.4
181.1226	8.2
193.0500	94.5
194.0537	9.0
195.0659	8.1
199.1331	12.3
243.1234	18.3
341.1603	24.7
342.1642	4.6
357.1928	11.3
358.1335	9.9
358.1950	6.5
359.1149	33.7
359.1710	100.0
359.2083	11.4
360.1160	6.9
360.1744	18.0
361.1508	8.3

Name: 7-((6-hydroxy-5,5,8a-trimethyl-2-methylidene-decahydronaphthalen-1-yl)methoxy)-2H-chromen-2-one
PrecursorMZ: 381.20735
RT: 8.5846
ExactMass: 382.21440943
Spectrum_type: 2
charge: -1
Formula: C24H30O4
SMILES: CC1(C2CCC(=C)C(C2(CCC1O)C)COC3=CC4=C(C=C3)C=CC(=O)O4)C
Method: HCD
Collision_energy: [28.333334]
Isolation_window: 4.0
Ion_mode: N
Num Peaks: 5
69.0337	76.9
73.0286	34.6
95.0496	30.6
381.2479	100.0
382.2519	28.2

Name: 7-(11-Hydroxy-3,7,11-trimethyl-10-oxododeca-2,6-dienoxy)chromen-2-one
PrecursorMZ: 443.20792
RT: 8.0183
ExactMass: 398.20932405
Spectrum_type: 2
charge: -1
Formula: C24H30O5
SMILES: CC(=CCCC(=CCOC1=CC2=C(C=C1)C=CC(=O)O2)C)CCC(=O)C(C)(C)O
Method: HCD
Collision_energy: [28.333334]
Isolation_window: 4.0
Ion_mode: N
Num Peaks: 13
59.0130	8.1
61.9875	9.9
161.0237	100.0
162.0272	9.6
375.2901	3.8
397.2022	58.8
398.2055	16.1
399.2098	2.2
403.2485	4.9
441.2513	3.2
443.2780	6.9
444.2825	2.9
445.2513	4.6

Name: 7-(2-(furan-3-yl)ethyl)-5-hydroxy-7,8-dimethyl-5,6,6a,8,9,10-hexahydro-1H-benzo(d)(2)benzofuran-3-one
PrecursorMZ: 329.17597
RT: 7.7846
ExactMass: 330.18310931
Spectrum_type: 2
charge: -1
Formula: C20H26O4
SMILES: CC1CCC23COC(=O)C2=CC(CC3C1(C)CCC4=COC=C4)O
Method: HCD
Collision_energy: [28.333334]
Isolation_window: 4.0
Ion_mode: N
Num Peaks: 7
79.9386	4.9
285.1859	100.0
286.1892	19.4
299.1656	1.8
327.1896	3.9
329.1758	17.4
330.1796	3.6

Name: 7-(3,4-Dihydroxyphenyl)-5-hydroxy-1-(4-hydroxyphenyl)heptan-3-one
PrecursorMZ: 329.13956
RT: 6.7234
ExactMass: 330.1467238
Spectrum_type: 2
charge: -1
Formula: C19H22O5
SMILES: C1=CC(=CC=C1CCC(=O)CC(CCC2=CC(=C(C=C2)O)O)O)O
Method: HCD
Collision_energy: [28.333334]
Isolation_window: 4.0
Ion_mode: N
Num Peaks: 15
149.0600	18.9
150.0632	2.3
164.0472	46.3
165.0504	4.5
179.0707	100.0
180.0741	10.5
185.1177	3.3
311.2228	4.3
327.1582	2.7
327.1849	2.4
327.2181	5.7
328.2209	2.1
329.1764	1.9
329.2321	4.5
331.1916	2.4

Name: 7-(3,5-Dihydroxy-4-(4-hydroxyphenyl)-2-methoxyphenyl)-3-methoxy-3,4-dihydrooxepine-2,5-dione
PrecursorMZ: 385.09341
RT: 4.9894
ExactMass: 386.10016753
Spectrum_type: 2
charge: -1
Formula: C20H18O8
SMILES: COC1CC(=O)C=C(OC1=O)C2=CC(=C(C(=C2OC)O)C3=CC=C(C=C3)O)O
Method: HCD
Collision_energy: [28.333334]
Isolation_window: 4.0
Ion_mode: N
Num Peaks: 41
59.0130	12.3
74.0238	6.8
115.0392	15.4
120.0116	19.7
130.0866	9.0
131.0342	6.2
133.0863	7.3
143.0708	6.0
193.0501	17.9
195.0658	24.3
201.1121	6.3
205.1588	6.9
267.0663	55.7
268.0695	9.9
269.1392	8.8
282.0896	34.9
283.0946	7.1
297.1133	18.0
311.0566	11.5
312.1619	6.4
326.0797	38.1
327.0832	7.9
339.2168	7.8
339.2543	9.5
341.1032	100.0
341.2333	9.2
342.1066	22.8
343.1177	9.5
367.1715	7.0
367.2143	9.8
383.2071	50.4
383.2459	20.4
384.2098	23.8
384.2481	6.5
385.0882	7.8
385.1855	60.8
385.2243	75.0
386.1613	8.7
386.2329	10.4
387.2010	10.2
387.2393	28.9

Name: 7-Ethenyl-1,4a,7-trimethyl-6-oxo-2,3,4,8,8a,9,10,10a-octahydrophenanthrene-1-carboxylic acid
PrecursorMZ: 315.19656
RT: 8.0948
ExactMass: 316.20384475
Spectrum_type: 2
charge: -1
Formula: C20H28O3
SMILES: CC12CCCC(C1CCC3C2=CC(=O)C(C3)(C)C=C)(C)C(=O)O
Method: HCD
Collision_energy: [28.333334]
Isolation_window: 4.0
Ion_mode: N
Num Peaks: 12
79.9563	4.7
96.9591	3.7
271.2067	6.1
314.1192	7.5
314.6212	1.9
315.1270	38.8
315.1964	95.5
315.6280	14.4
316.1344	100.0
316.1952	18.8
316.6361	31.7
317.1361	12.9

Name: 7-Hydroxy-1,4a-dimethyl-9-oxo-7-propan-2-yl-2,3,4,4b,5,6,10,10a-octahydrophenanthrene-1-carboxylic acid
PrecursorMZ: 333.20709
RT: 7.1482
ExactMass: 334.21440943
Spectrum_type: 2
charge: -1
Formula: C20H30O4
SMILES: CC(C)C1(CCC2C(=C1)C(=O)CC3C2(CCCC3(C)C(=O)O)C)O
Method: HCD
Collision_energy: [28.333334]
Isolation_window: 4.0
Ion_mode: N
Num Peaks: 5
245.1548	5.5
315.1968	4.3
332.1743	5.1
333.2074	100.0
334.2107	21.7

Name: 7-Hydroxy-3-(2-methoxyphenyl)-8-((4-methyl-1-piperidinyl)methyl)-1-benzopyran-4-one
PrecursorMZ: 378.17128
RT: 7.266566666666667
ExactMass: 379.17835828
Spectrum_type: 2
charge: -1
Formula: C23H25NO4
SMILES: CC1CCN(CC1)CC2=C(C=CC3=C2OC=C(C3=O)C4=CC=CC=C4OC)O
Method: HCD
Collision_energy: [28.333334]
Isolation_window: 4.0
Ion_mode: N
Num Peaks: 28
61.9874	2.0
174.0315	2.3
206.0220	2.5
211.0635	3.2
212.0711	2.8
224.0713	23.5
225.0788	23.8
226.0861	12.1
237.0791	5.2
238.0868	4.2
257.0691	10.3
262.0877	1.7
265.1105	2.0
288.2048	2.4
332.1651	2.7
333.1697	2.2
333.2423	2.5
334.1813	100.0
335.1847	24.7
336.1880	1.7
348.2258	2.5
376.2201	2.0
377.2342	9.4
378.1710	82.7
378.2288	1.6
379.1721	18.4
379.2493	5.5
380.1749	2.0

Name: 7-Hydroxy-4-((3Z)-5-hydroxy-3-methyl-3-penten-1-yl)-4a,8,8-trimethyl-3-methylenedecahydro-2-naphthalenyl beta-D-mannopyranoside
PrecursorMZ: 529.30163
RT: 8.11224
ExactMass: 484.30361836
Spectrum_type: 2
charge: -1
Formula: C26H44O8
SMILES: C/C(=C/CO)/CCC1C(=C)C(CC2C1(CCC(C2(C)C)O)C)O[C@H]3[C@H]([C@H]([C@@H]([C@H](O3)CO)O)O)O
Method: HCD
Collision_energy: [28.333334]
Isolation_window: 4.0
Ion_mode: N
Num Peaks: 4
113.0234	27.0
279.2331	59.6
529.3016	100.0
530.3060	33.2

Name: 7-Hydroxy-6-(3,4,5-Trihydroxy-6-(Hydroxymethyl)Oxan-2-Yl)Oxychromen-2-One
PrecursorMZ: 339.07131
RT: 2.3875
ExactMass: 340.07943208
Spectrum_type: 2
charge: -1
Formula: C15H16O9
SMILES: C1=CC(=O)OC2=CC(=C(C=C21)OC3C(C(C(C(O3)CO)O)O)O)O
Method: HCD
Collision_energy: [28.333334]
Isolation_window: 4.0
Ion_mode: N
Num Peaks: 11
191.0338	23.2
208.0606	5.6
219.0290	100.0
220.0325	11.2
249.0397	6.4
337.0943	3.9
339.0715	90.0
339.1098	10.8
340.0750	12.1
340.1079	4.6
341.0837	4.6

Name: 7-Hydroxy-6-methoxy-4-methyl-3-(2-morpholino-2-oxoethyl)-2-oxo-2H-chromene-8-carbaldehyde
PrecursorMZ: 360.10934
RT: 4.4084
ExactMass: 361.11615195
Spectrum_type: 2
charge: -1
Formula: C18H19NO7
SMILES: CC1=C(C(=O)OC2=C(C(=C(C=C12)OC)O)C=O)CC(=O)N3CCOCC3
Method: HCD
Collision_energy: [28.333334]
Isolation_window: 4.0
Ion_mode: N
Num Peaks: 27
59.0130	5.2
124.0397	13.3
135.0446	5.3
171.1024	3.9
191.0714	3.0
192.0662	9.7
193.0696	2.9
195.0661	38.4
196.0692	2.9
197.1180	5.3
201.1130	3.8
208.0978	60.4
209.1007	5.6
209.1190	6.2
314.1040	7.8
315.1072	4.0
316.1194	100.0
317.1229	16.7
342.0991	7.6
358.0945	5.1
359.1032	2.9
359.2078	31.3
360.1096	29.9
360.2101	5.7
361.1313	20.5
361.2225	15.6
362.1334	2.8

Name: 7-Ketolithocholic acid
PrecursorMZ: 435.27523
RT: 6.7705
ExactMass: 390.27700969
Spectrum_type: 2
charge: -1
Formula: C24H38O4
SMILES: C[C@H](CCC(=O)O)[C@H]1CC[C@@H]2[C@@]1(CC[C@H]3[C@H]2C(=O)C[C@H]4[C@@]3(CC[C@H](C4)O)C)C
Method: HCD
Collision_energy: [28.333334]
Isolation_window: 4.0
Ion_mode: N
Num Peaks: 5
389.2698	100.0
390.2730	25.9
391.2849	30.2
407.2795	2.7
435.2775	3.2

Name: 7-Methoxyrosmanol
PrecursorMZ: 359.18659
RT: 7.531549999999999
ExactMass: 360.19367399
Spectrum_type: 2
charge: -1
Formula: C21H28O5
SMILES: CC(C)C1=C(C(=C2C(=C1)[C@@H]([C@@H]3[C@@H]4[C@@]2(CCCC4(C)C)C(=O)O3)OC)O)O
Method: HCD
Collision_energy: [28.333334]
Isolation_window: 4.0
Ion_mode: N
Num Peaks: 16
99.9248	1.1
115.9198	1.1
227.1075	2.4
268.1477	1.3
283.1704	68.1
284.1739	14.7
285.1829	1.6
297.2444	1.0
314.0828	1.9
315.1968	1.1
329.1760	4.1
330.1793	1.2
358.9309	1.0
359.1868	100.0
360.1907	22.4
361.2006	3.6

Name: 7-Methyluric acid
PrecursorMZ: 181.03608
RT: 1.30355
ExactMass: 182.04399007
Spectrum_type: 2
charge: -1
Formula: C6H6N4O3
SMILES: CN1C2=C(NC(=O)NC2=O)NC1=O
Method: HCD
Collision_energy: [28.333334]
Isolation_window: 4.0
Ion_mode: N
Num Peaks: 17
90.9972	6.2
94.0290	4.1
108.0445	7.5
110.0350	9.1
110.0714	4.5
134.9870	17.6
135.0301	8.5
138.0300	6.0
138.0552	41.0
156.0406	8.0
163.0252	4.5
163.0393	4.5
166.0126	10.2
180.0519	18.3
180.0663	7.1
181.0360	100.0
182.0453	15.1

Name: 7-Sulfocholic acid
PrecursorMZ: 487.23722
RT: 4.837
ExactMass: 488.2443894
Spectrum_type: 2
charge: -1
Formula: C24H40O8S
SMILES: C[C@H](CCC(=O)O)[C@H]1CC[C@@H]2[C@@]1([C@H](C[C@H]3[C@H]2[C@@H](C[C@H]4[C@@]3(CC[C@H](C4)O)C)OS(=O)(=O)O)O)C
Method: HCD
Collision_energy: [28.333334]
Isolation_window: 4.0
Ion_mode: N
Num Peaks: 14
54.1359	2.0
54.1389	4.3
54.2504	1.1
96.9591	25.5
173.0452	1.5
315.1264	1.2
316.1337	1.4
327.2183	1.7
485.2206	4.1
486.2236	5.6
487.1219	1.1
487.2369	100.0
488.2401	25.5
489.2354	6.1

Name: 7-ethenyl-1,4a,7-trimethyl-3,4,6,8,8a,9,10,10a-octahydro-2H-phenanthrene-1-carboxylic acid
PrecursorMZ: 301.2174
RT: 9.1344
ExactMass: 302.224580195
Spectrum_type: 2
charge: -1
Formula: C20H30O2
SMILES: CC12CCCC(C1CCC3C2=CCC(C3)(C)C=C)(C)C(=O)O
Method: HCD
Collision_energy: [28.333334]
Isolation_window: 4.0
Ion_mode: N
Num Peaks: 9
59.0129	10.4
203.1797	4.4
257.2274	21.8
258.2309	4.4
299.2589	4.9
301.1893	2.1
301.2172	100.0
302.2205	23.1
303.2301	2.5

Name: 7-ethenyl-4b-hydroxy-1,1,7-trimethyl-9-oxo-3,4,5,6,10,10a-hexahydro-2H-phenanthrene-4a-carboxylic acid
PrecursorMZ: 331.1918
RT: 6.29155
ExactMass: 332.19875937
Spectrum_type: 2
charge: -1
Formula: C20H28O4
SMILES: CC1(CCCC2(C1CC(=O)C3=CC(CCC32O)(C)C=C)C(=O)O)C
Method: HCD
Collision_energy: [28.333334]
Isolation_window: 4.0
Ion_mode: N
Num Peaks: 10
163.0757	6.2
164.0792	7.1
269.1912	34.6
270.1945	7.8
329.1721	15.8
329.2334	71.3
330.2368	26.6
331.1919	100.0
331.2491	8.2
332.1962	22.6

Name: 7-hydroxy-3,4-dihydro-2H-1-benzopyran-4-one
PrecursorMZ: 163.03875
RT: 3.1035
ExactMass: 164.047344113
Spectrum_type: 2
charge: -1
Formula: C9H8O3
SMILES: C1COC2=C(C1=O)C=CC(=C2)O
Method: HCD
Collision_energy: [28.333334]
Isolation_window: 4.0
Ion_mode: N
Num Peaks: 7
120.0554	5.8
121.0283	7.9
121.0507	8.3
136.0501	4.7
162.8380	9.1
163.0388	100.0
164.0427	11.3

Name: 7beta,18-Dihydroxykaurenolide
PrecursorMZ: 377.19722
RT: 4.6431
ExactMass: 332.19875937
Spectrum_type: 2
charge: -1
Formula: C20H28O4
SMILES: C[C@@]12CCC[C@@]3([C@H]1[C@H]([C@@H]([C@]45[C@H]2CC[C@H](C4)C(=C)C5)O)OC3=O)CO
Method: HCD
Collision_energy: [28.333334]
Isolation_window: 4.0
Ion_mode: N
Num Peaks: 6
125.0599	2.6
319.1905	1.4
377.1974	100.0
378.2008	22.8
379.1747	1.7
379.2093	2.2

Name: 8-((2,6-dimethylpiperidin-1-yl)methyl)-7-hydroxy-4-phenyl-2H-chromen-2-one
PrecursorMZ: 362.17671
RT: 7.3201
ExactMass: 363.18344366
Spectrum_type: 2
charge: -1
Formula: C23H25NO3
SMILES: CC1CCCC(N1CC2=C(C=CC3=C2OC(=O)C=C3C4=CC=CC=C4)O)C
Method: HCD
Collision_energy: [28.333334]
Isolation_window: 4.0
Ion_mode: N
Num Peaks: 22
83.0494	4.2
212.0714	9.9
224.0715	22.4
225.0777	5.8
226.0869	9.3
237.0795	11.8
238.0870	8.2
262.0876	35.5
263.0915	7.6
266.1190	4.5
277.1107	8.9
278.1187	30.8
279.1221	6.3
292.1347	23.4
295.0851	7.4
332.1660	5.8
344.1658	45.0
345.1699	11.0
361.2014	4.8
361.2391	12.0
362.1764	100.0
363.1800	29.4

Name: 8-(2-(3,4-dihydroxy-2,5-dimethoxyoxolan-3-yl)ethyl)-4a,7,8-trimethylspiro(2,3,5,6,7,8a-hexahydro-1H-naphthalene-4,2'-oxirane)-2,3-diol
PrecursorMZ: 429.24937
RT: 7.16655
ExactMass: 430.25666817
Spectrum_type: 2
charge: -1
Formula: C22H38O8
SMILES: CC1CCC2(C(C1(C)CCC3(C(C(OC3OC)OC)O)O)CC(C(C24CO4)O)O)C
Method: HCD
Collision_energy: [28.333334]
Isolation_window: 4.0
Ion_mode: N
Num Peaks: 10
139.1121	67.5
140.1155	7.1
183.1021	47.9
184.1054	5.4
201.1128	71.5
202.1161	9.0
245.1393	41.3
246.1427	6.5
429.2496	100.0
430.2529	24.6

Name: 8-(3-oxo-2-((E)-pent-2-enyl)cyclopenten-1-yl)octanoic acid
PrecursorMZ: 291.19695
RT: 7.9311
ExactMass: 292.20384475
Spectrum_type: 2
charge: -1
Formula: C18H28O3
SMILES: CC/C=C/CC1=C(CCC1=O)CCCCCCCC(=O)O
Method: HCD
Collision_energy: [28.333334]
Isolation_window: 4.0
Ion_mode: N
Num Peaks: 15
83.0493	5.5
96.9593	12.0
113.0963	2.2
195.1388	2.6
207.1389	1.9
223.1701	3.3
247.2070	15.4
248.2098	2.8
273.1864	45.9
274.1899	8.6
275.2020	5.4
291.1970	100.0
292.2002	20.2
293.1793	39.6
293.2124	36.2

Name: 8-(4,5-Dihydroxy-6-(hydroxymethyl)-3-(3,4,5-trihydroxy-6-methyloxan-2-yl)oxyoxan-2-yl)-7-hydroxy-2-(4-hydroxyphenyl)-5-(3,4,5-trihydroxy-6-(hydroxymethyl)oxan-2-yl)oxychromen-4-one
PrecursorMZ: 739.20809
RT: 4.775
ExactMass: 740.21637904
Spectrum_type: 2
charge: -1
Formula: C33H40O19
SMILES: CC1C(C(C(C(O1)OC2C(C(C(OC2C3=C4C(=C(C=C3O)OC5C(C(C(C(O5)CO)O)O)O)C(=O)C=C(O4)C6=CC=C(C=C6)O)CO)O)O)O)O)O
Method: HCD
Collision_energy: [28.333334]
Isolation_window: 4.0
Ion_mode: N
Num Peaks: 17
59.0127	5.9
71.0127	5.8
89.0232	12.8
101.0231	6.7
113.0230	4.2
119.0337	6.6
125.0233	4.2
161.0443	3.0
179.0550	6.5
219.0651	8.1
221.0656	4.3
323.0973	35.8
324.1003	3.8
339.0865	2.9
369.0969	100.0
370.1004	18.5
693.2014	4.1

Name: 8-(4-Hydroxyphenyl)-3-methoxy-6,7-dimethyl-5,6,7,8-tetrahydronaphthalen-2-ol
PrecursorMZ: 297.15012
RT: 6.6606
ExactMass: 298.15689456
Spectrum_type: 2
charge: -1
Formula: C19H22O3
SMILES: CC1CC2=CC(=C(C=C2C(C1C)C3=CC=C(C=C3)O)O)OC
Method: HCD
Collision_energy: [28.333334]
Isolation_window: 4.0
Ion_mode: N
Num Peaks: 35
93.0334	11.3
94.0367	0.8
106.0411	1.0
123.0439	0.8
131.0492	2.6
132.0522	0.8
145.0647	2.1
146.0681	0.9
149.0598	1.0
163.0753	5.4
164.0787	2.7
191.0706	0.8
191.1067	100.0
192.1100	13.0
203.1067	4.5
210.0676	2.5
253.1225	1.7
253.1589	1.9
255.1018	1.2
255.1388	1.8
295.1346	3.3
295.2264	1.0
296.1376	3.7
297.0773	0.8
297.1128	6.6
297.1159	1.1
297.1192	1.3
297.1489	69.1
297.2412	4.6
298.1161	1.4
298.1522	13.6
298.2450	0.8
299.0914	1.6
299.1544	1.1
299.2579	1.8

Name: 8-(5-((3E)-2-(acetyloxy)pent-3-en-1-yl)-1-hydroxy-4-oxocyclopent-2-en-1-yl)octanoic acid
PrecursorMZ: 365.19725
RT: 6.7269
Spectrum_type: 2
charge: -1
SMILES: C/C=C/C(CC(C(CCCCCCCC(O)=O)(C=C1)O)C1=O)OC(C)=O
Method: HCD
Collision_energy: [28.333334]
Isolation_window: 4.0
Ion_mode: N
Num Peaks: 3
109.0287	100.0
315.1604	12.2
347.1862	14.8

Name: 8-Daucene-2,4,6-triol, O-(4-Hydroxybenzoyl), 2-Ac
PrecursorMZ: 415.2129
RT: 6.07455
ExactMass: 416.21988874
Spectrum_type: 2
charge: -1
Formula: C24H32O6
SMILES: CC1=CC[C@]2([C@H](C[C@]([C@@H]2[C@H](C1)OC(=O)C3=CC=C(C=C3)O)(C(C)C)O)OC(=O)C)C
Method: HCD
Collision_energy: [28.333334]
Isolation_window: 4.0
Ion_mode: N
Num Peaks: 7
61.9875	8.4
137.0600	59.2
163.0395	14.8
371.2246	6.5
415.2133	100.0
416.2161	24.9
417.2221	5.3

Name: 8-Demethylsideroxylin
PrecursorMZ: 297.07706
RT: 4.5231
ExactMass: 298.08412354
Spectrum_type: 2
charge: -1
Formula: C17H14O5
SMILES: CC1=C(C=C2C(=C1O)C(=O)C=C(O2)C3=CC=C(C=C3)O)OC
Method: HCD
Collision_energy: [28.333334]
Isolation_window: 4.0
Ion_mode: N
Num Peaks: 20
93.0337	9.2
109.0287	12.0
119.0494	7.9
133.0287	8.1
143.0706	3.7
147.0445	4.5
148.0158	3.0
159.0444	5.0
191.0346	4.8
209.0977	3.5
211.0763	3.6
238.0636	2.9
251.0718	2.9
253.0871	100.0
254.0904	16.5
297.0769	38.2
298.0801	6.6
298.1660	6.5
299.0923	3.0
299.1867	14.3

Name: 8-Hete
PrecursorMZ: 319.22792
RT: 8.8933
ExactMass: 320.23514488
Spectrum_type: 2
charge: -1
Formula: C20H32O3
SMILES: CCCCC/C=C\C/C=C\C=C\C(C/C=C\CCCC(=O)O)O
Method: HCD
Collision_energy: [28.333334]
Isolation_window: 4.0
Ion_mode: N
Num Peaks: 9
59.0130	3.7
109.0652	3.4
111.0444	3.6
113.0964	3.6
207.1752	3.6
275.2378	9.5
319.2281	70.6
320.2312	13.6
321.2437	100.0

Name: 8-Hydroxy-11-(hydroxymethyl)-1,5,11-trimethyltricyclo(6.2.1.02,6)undec-2-en-9-one
PrecursorMZ: 249.14875
RT: 7.5283
ExactMass: 250.15689456
Spectrum_type: 2
charge: -1
Formula: C15H22O3
SMILES: CC1CC=C2C1CC3(C(=O)CC2(C3(C)CO)C)O
Method: HCD
Collision_energy: [28.333334]
Isolation_window: 4.0
Ion_mode: N
Num Peaks: 14
176.9927	1.2
184.0007	22.0
184.5026	4.6
184.9989	1.8
200.4995	2.1
219.1381	4.7
231.1384	3.4
248.0794	44.4
248.5810	13.0
249.0794	5.8
249.1488	100.0
249.5798	1.5
250.1522	15.9
251.1549	1.1

Name: 8-Hydroxy-2,7,7,11,15-pentamethyl-5,12,16-trioxapentacyclo(9.8.0.0(2),.0,.0(1)(3),(1))nonadec-13(18)-ene-3,17-dione
PrecursorMZ: 375.18196
RT: 6.3998
ExactMass: 376.18858861
Spectrum_type: 2
charge: -1
Formula: C21H28O6
SMILES: CC1CC2=C(CC3C(O2)(CCC4(C3(C(=O)C5C(C4(C)C)O5)C)O)C)C(=O)O1
Method: HCD
Collision_energy: [28.333334]
Isolation_window: 4.0
Ion_mode: N
Num Peaks: 28
93.0337	2.5
107.0495	6.0
112.0396	4.3
130.0866	2.3
164.0713	10.0
205.1232	35.6
206.1267	5.3
219.1386	4.0
253.1608	2.1
267.1758	6.2
269.1914	43.6
270.1950	8.9
287.2024	3.5
295.1705	3.6
313.1819	2.6
331.1922	9.4
339.1604	3.5
357.1715	19.8
358.1741	4.7
373.1786	3.3
373.2755	59.5
374.1817	4.6
374.2790	27.9
375.1822	100.0
375.2819	4.5
376.1811	20.9
376.2238	2.2
377.1927	3.6

Name: 8-Hydroxy-5,8a-dimethyl-3-methylidene-3a,4,4a,8,9,9a-hexahydrobenzo(f)(1)benzofuran-2,7-dione
PrecursorMZ: 261.11339
RT: 5.8106
ExactMass: 262.12050905
Spectrum_type: 2
charge: -1
Formula: C15H18O4
SMILES: CC1=CC(=O)C(C2(C1CC3C(C2)OC(=O)C3=C)C)O
Method: HCD
Collision_energy: [28.333334]
Isolation_window: 4.0
Ion_mode: N
Num Peaks: 4
215.1075	27.9
217.1232	18.4
261.1133	100.0
262.1174	18.8

Name: 8-Hydroxyquinoline
PrecursorMZ: 144.04475
RT: 4.382
ExactMass: 145.052763847
Spectrum_type: 2
charge: -1
Formula: C9H7NO
SMILES: C1=CC2=C(C(=C1)O)N=CC=C2
Method: HCD
Collision_energy: [28.333334]
Isolation_window: 4.0
Ion_mode: N
Num Peaks: 7
99.0807	4.3
118.0403	7.5
144.0208	1.2
144.0448	100.0
144.0536	3.0
145.0487	12.2
145.0861	2.4

Name: 8-beta-D-Glucopyranosyl-5,7-dihydroxy-2-(2-methylpropyl)-4H-1-benzopyran-4-one
PrecursorMZ: 395.13427
RT: 3.2397
ExactMass: 396.14203234
Spectrum_type: 2
charge: -1
Formula: C19H24O9
SMILES: CC(C)CC1=CC(=O)C2=C(O1)C(=C(C=C2O)O)[C@H]3[C@@H]([C@H]([C@@H]([C@H](O3)CO)O)O)O
Method: HCD
Collision_energy: [28.333334]
Isolation_window: 4.0
Ion_mode: N
Num Peaks: 10
72.9921	71.9
73.0285	9.8
203.1068	8.8
233.1542	10.4
247.0969	6.8
259.1339	6.8
321.1339	100.0
322.1372	16.0
395.1347	62.2
396.1362	13.5

Name: 9(S)-HpOTrE
PrecursorMZ: 309.20702
RT: 8.3997
ExactMass: 310.21440943
Spectrum_type: 2
charge: -1
Formula: C18H30O4
SMILES: CCC=CCC=CC=CC(CCCCCCCC(=O)O)OO
Method: HCD
Collision_energy: [28.333334]
Isolation_window: 4.0
Ion_mode: N
Num Peaks: 13
96.9591	11.0
247.2063	6.7
265.2170	2.6
291.1964	6.4
307.6313	5.0
308.1375	100.0
308.6391	33.8
309.1429	21.1
309.2065	33.0
309.6442	5.6
310.1460	2.6
310.2102	6.1
311.1687	11.4

Name: 9,12,13-Trihydroxy-10,15-octadecadienoic acid
PrecursorMZ: 655.44217
RT: 9.3239
ExactMass: 328.22497412
Spectrum_type: 2
charge: -1
Formula: C18H32O5
SMILES: CC/C=C/CC(C(/C=C/C(CCCCCCCC(=O)O)O)O)O
Method: HCD
Collision_energy: [28.333334]
Isolation_window: 4.0
Ion_mode: N
Num Peaks: 7
125.0961	58.1
141.0910	64.6
171.1019	59.5
207.1019	80.4
209.1177	48.8
277.2171	100.0
295.2273	43.2

Name: 9,12,13-Trihydroxyoctadeca-10,15-dienoic acid
PrecursorMZ: 327.218
RT: 6.0498
ExactMass: 328.22497412
Spectrum_type: 2
charge: -1
Formula: C18H32O5
SMILES: CCC=CCC(C(C=CC(CCCCCCCC(=O)O)O)O)O
Method: HCD
Collision_energy: [28.333334]
Isolation_window: 4.0
Ion_mode: N
Num Peaks: 41
59.0129	0.9
83.0493	5.5
84.0207	1.1
93.0336	2.0
99.0807	1.0
125.0963	1.0
127.1120	1.8
129.0914	3.0
137.0236	0.9
137.0965	3.1
139.1122	1.5
149.0601	0.9
151.0394	0.8
155.1071	7.4
169.1229	2.2
171.1020	21.8
172.1057	1.3
181.1231	1.4
185.1178	2.5
189.0916	2.4
193.1228	0.9
197.1179	2.2
199.1335	7.8
201.1128	10.9
209.1180	3.5
211.1336	6.2
213.1130	1.2
221.1182	1.5
227.1284	1.5
239.1651	0.9
275.2016	1.5
291.1968	1.6
293.2126	2.6
309.2069	1.9
311.2229	2.9
327.1605	4.1
327.2178	13.8
328.2209	2.7
329.1400	5.6
329.1700	0.9
329.2334	100.0

Name: 9,12,15-Octadecatrienoic acid, 3-(hexopyranosyloxy)-2-hydroxypropyl ester, (9Z,12Z,15Z)-
PrecursorMZ: 559.3127
RT: 7.744566666666667
ExactMass: 514.31418304
Spectrum_type: 2
charge: -1
Formula: C27H46O9
SMILES: CC/C=C\C/C=C\C/C=C\CCCCCCCC(=O)OCC(COC1C(C(C(C(O1)CO)O)O)O)O
Method: HCD
Collision_energy: [28.333334]
Isolation_window: 4.0
Ion_mode: N
Num Peaks: 11
61.9874	6.2
96.9591	4.5
134.0465	12.5
253.0933	16.7
277.2174	100.0
278.2209	17.9
513.3071	7.3
557.3210	4.5
558.3401	7.7
559.3041	4.7
560.3287	8.7

Name: 9,16-Dioxo-10,12,14-octadecatrienoic acid
PrecursorMZ: 305.17467
RT: 8.2998
ExactMass: 306.18310931
Spectrum_type: 2
charge: -1
Formula: C18H26O4
SMILES: CCC(=O)/C=C/C=C/C=C/C(=O)CCCCCCCC(=O)O
Method: HCD
Collision_energy: [28.333334]
Isolation_window: 4.0
Ion_mode: N
Num Peaks: 15
93.0696	4.7
125.0958	5.4
135.0802	18.6
207.1377	6.1
249.1484	6.0
261.2212	6.2
263.1643	16.7
264.1676	2.7
287.2005	56.4
288.2039	9.8
305.1749	42.8
305.2110	100.0
306.1782	7.7
306.2144	21.6
307.2217	2.2

Name: 9-((8Z,11Z,14Z,17Z)-icosa-8,11,14,17-tetraenoyl)oxyoctadecanoic acid
PrecursorMZ: 585.48893
RT: 11.673475
ExactMass: 586.49611058
Spectrum_type: 2
charge: -1
Formula: C38H66O4
SMILES: CCCCCCCCCC(CCCCCCCC(=O)O)OC(=O)CCCCCC/C=C\C/C=C\C/C=C\C/C=C\CC
Method: HCD
Collision_energy: [28.333334]
Isolation_window: 4.0
Ion_mode: N
Num Peaks: 14
259.2430	8.5
279.2324	6.8
281.2485	35.9
282.2525	6.6
299.2589	45.3
300.2618	8.3
303.2328	88.9
304.2360	16.4
305.2480	13.4
539.4475	8.5
585.4891	100.0
586.4929	39.8
587.4091	8.7
587.4987	6.5

Name: 9-(2,3-Dihydroxypropoxy)-9-oxononanoic acid
PrecursorMZ: 261.13431
RT: 3.8920333333333335
ExactMass: 262.14163842
Spectrum_type: 2
charge: -1
Formula: C12H22O6
SMILES: C(CCCC(=O)O)CCCC(=O)OCC(CO)O
Method: HCD
Collision_energy: [28.333334]
Isolation_window: 4.0
Ion_mode: N
Num Peaks: 10
125.0963	68.8
126.0997	5.6
164.0707	6.7
169.0864	5.0
187.0969	100.0
188.1007	9.8
215.1284	4.2
259.1546	3.4
261.1343	42.5
262.1378	5.5

Name: 9-(2-Chlorophenyl)-6-(3-hydroxy-4-methoxyphenyl)-5,6,8,9,10,11-hexahydrobenzo(b)(1,4)benzodiazepin-7-one
PrecursorMZ: 445.13208
RT: 8.7489
ExactMass: 446.1397203
Spectrum_type: 2
charge: -1
Formula: C26H23ClN2O3
SMILES: COC1=C(C=C(C=C1)C2C3=C(CC(CC3=O)C4=CC=CC=C4Cl)NC5=CC=CC=C5N2)O
Method: HCD
Collision_energy: [28.333334]
Isolation_window: 4.0
Ion_mode: N
Num Peaks: 14
80.9642	74.0
90.9327	12.1
299.2014	95.4
300.2051	19.9
357.1521	100.0
358.1555	25.5
387.1267	23.3
401.1422	70.6
402.1467	16.7
402.2681	52.1
445.1321	87.7
445.2953	12.1
446.1352	21.1
446.2562	64.1

Name: 9-(Decanoyloxy)octadecanoic acid
PrecursorMZ: 453.39517
RT: 11.0877
ExactMass: 454.4022102
Spectrum_type: 2
charge: -1
Formula: C28H54O4
SMILES: CCCCCCCCCC(CCCCCCCC(=O)O)OC(=O)CCCCCCCCC
Method: HCD
Collision_energy: [28.333334]
Isolation_window: 4.0
Ion_mode: N
Num Peaks: 22
50.3721	2.2
50.3785	2.7
59.0130	2.9
61.9875	2.4
87.0441	2.2
133.0651	12.0
171.1383	100.0
172.1417	9.6
199.1694	4.5
227.2012	2.1
255.2330	1.9
281.2485	24.2
282.2521	4.9
299.2592	16.8
300.2624	3.4
451.4205	8.9
452.4282	4.6
453.3372	42.8
453.3964	56.1
454.3402	15.6
454.3997	15.2
455.3526	15.6

Name: 9-(Dodecanoyloxy)octadecanoic acid
PrecursorMZ: 481.42647
RT: 11.381975
ExactMass: 482.43351033
Spectrum_type: 2
charge: -1
Formula: C30H58O4
SMILES: CCCCCCCCCCCC(=O)OC(CCCCCCCCC)CCCCCCCC(=O)O
Method: HCD
Collision_energy: [28.333334]
Isolation_window: 4.0
Ion_mode: N
Num Peaks: 17
53.4904	0.7
53.4933	1.5
53.7039	0.6
53.7068	1.1
199.1312	0.6
199.1699	100.0
199.2086	0.7
200.1733	11.8
281.2487	24.4
282.2522	4.3
299.2592	15.2
300.2626	2.9
481.3368	1.5
481.4265	35.3
482.4300	10.5
483.3486	26.4
483.4279	1.7

Name: 9-(Methoxycarbonyl)-9-decenoic acid
PrecursorMZ: 227.12867
RT: 2.5371
ExactMass: 228.13615911
Spectrum_type: 2
charge: -1
Formula: C12H20O4
SMILES: COC(=O)C(=C)CCCCCCCC(=O)O
Method: HCD
Collision_energy: [28.333334]
Isolation_window: 4.0
Ion_mode: N
Num Peaks: 20
57.0336	4.7
58.0289	3.7
59.0129	63.6
69.0338	2.3
97.0650	3.3
109.0646	2.3
111.0808	2.4
123.0806	2.3
151.0757	2.5
165.1275	2.4
167.1069	3.8
181.1227	2.6
183.1145	7.6
183.1381	6.5
209.1179	2.4
225.1125	7.8
226.1172	2.4
227.1285	100.0
228.1319	12.5
229.1442	47.9

Name: 9-(Octanoyloxy)octadecanoic acid
PrecursorMZ: 425.36371
RT: 11.3568
ExactMass: 426.37091007
Spectrum_type: 2
charge: -1
Formula: C26H50O4
SMILES: CCCCCCCCCC(CCCCCCCC(=O)O)OC(=O)CCCCCCC
Method: HCD
Collision_energy: [28.333334]
Isolation_window: 4.0
Ion_mode: N
Num Peaks: 11
59.0129	26.5
337.3474	17.8
338.3517	3.7
365.3423	34.0
366.3460	9.0
369.3374	2.1
383.3531	100.0
384.3566	26.0
385.3596	2.8
425.3636	26.5
426.3666	7.3

Name: 9-HOTrE
PrecursorMZ: 293.21232
RT: 8.0968
ExactMass: 294.21949481
Spectrum_type: 2
charge: -1
Formula: C18H30O3
SMILES: CC/C=C\C/C=C\C=C\C(CCCCCCCC(=O)O)O
Method: HCD
Collision_energy: [28.333334]
Isolation_window: 4.0
Ion_mode: N
Num Peaks: 11
59.0129	8.9
96.9592	1.7
165.1276	3.5
171.1019	6.0
277.2172	10.9
291.1965	3.3
292.1993	3.0
293.1835	3.5
293.2120	100.0
294.2151	18.5
295.2275	22.8

Name: 9-Hydroperoxyoctadeca-10,12-dienoic acid
PrecursorMZ: 311.22273
RT: 6.6283
ExactMass: 312.2300595
Spectrum_type: 2
charge: -1
Formula: C18H32O4
SMILES: CCCCCC=CC=CC(CCCCCCCC(=O)O)OO
Method: HCD
Collision_energy: [28.333334]
Isolation_window: 4.0
Ion_mode: N
Num Peaks: 23
59.0129	15.9
171.1019	10.2
185.1175	6.7
195.1380	4.2
201.1125	12.8
211.1332	6.1
221.1540	3.8
223.1700	5.3
239.1649	8.0
267.1963	3.8
275.2021	4.4
291.1964	2.7
293.2115	11.0
309.2068	10.9
309.2430	3.0
310.2103	6.6
311.1289	3.5
311.1679	22.0
311.2224	100.0
312.1693	3.2
312.2261	18.5
313.2022	5.6
313.2376	54.8

Name: 9-Hydroxy-10,12-Octadecadienoic Acid
PrecursorMZ: 295.22792
RT: 8.514
ExactMass: 296.23514488
Spectrum_type: 2
charge: -1
Formula: C18H32O3
SMILES: CCCCCC=CC=CC(CCCCCCCC(=O)O)O
Method: HCD
Collision_energy: [28.333334]
Isolation_window: 4.0
Ion_mode: N
Num Peaks: 4
293.2120	7.2
295.2277	100.0
296.2310	15.8
297.2432	15.4

Name: 9-Hydroxy-5b,8,11a-trimethyl-1-prop-1-en-2-yl-1,2,3,4,5,6,7,7a,9,10,11,11b,12,13,13a,13b-hexadecahydrocyclopenta(a)chrysene-3a,5a,8-tricarboxylic acid
PrecursorMZ: 515.29947
RT: 7.1116
ExactMass: 516.30870374
Spectrum_type: 2
charge: -1
Formula: C30H44O7
SMILES: CC(=C)C1CCC2(C1C3CCC4C5(CCC(C(C5CCC4(C3(CC2)C(=O)O)C)(C)C(=O)O)O)C)C(=O)O
Method: HCD
Collision_energy: [28.333334]
Isolation_window: 4.0
Ion_mode: N
Num Peaks: 8
61.9872	14.3
137.0955	7.4
165.0908	26.9
289.2162	10.4
471.3109	13.7
515.3007	100.0
516.3051	30.2
517.3197	26.3

Name: 9-Octadec-9-enoyloxyoctadecanoic acid
PrecursorMZ: 563.50507
RT: 11.4539
ExactMass: 564.51176065
Spectrum_type: 2
charge: -1
Formula: C36H68O4
SMILES: CCCCCCCCCC(CCCCCCCC(=O)O)OC(=O)CCCCCCCC=CCCCCCCCC
Method: HCD
Collision_energy: [28.333334]
Isolation_window: 4.0
Ion_mode: N
Num Peaks: 13
62.6135	4.0
499.4887	3.4
500.4932	7.8
501.5041	29.1
502.5080	9.0
544.4819	7.1
545.4937	20.9
546.4968	5.9
561.4887	9.6
562.4924	32.9
563.5043	100.0
564.5080	37.0
565.5167	4.0

Name: 9-Octadecynoic Acid
PrecursorMZ: 279.23304
RT: 8.5096
ExactMass: 280.240230259
Spectrum_type: 2
charge: -1
Formula: C18H32O2
SMILES: CCCCCCCCC#CCCCCCCCC(=O)O
Method: HCD
Collision_energy: [28.333334]
Isolation_window: 4.0
Ion_mode: N
Num Peaks: 3
279.2329	100.0
280.2363	17.7
281.2399	1.3

Name: 9-Oxo-11-(3-pentyloxiran-2-YL)undec-10-enoic acid
PrecursorMZ: 309.20697
RT: 7.9119
ExactMass: 310.21440943
Spectrum_type: 2
charge: -1
Formula: C18H30O4
SMILES: CCCCCC1C(O1)C=CC(=O)CCCCCCCC(=O)O
Method: HCD
Collision_energy: [28.333334]
Isolation_window: 4.0
Ion_mode: N
Num Peaks: 11
137.0965	40.0
155.1069	46.0
171.1018	50.4
185.1180	31.6
291.1964	100.0
293.2126	29.8
308.0147	34.0
309.0080	25.7
309.2070	97.4
311.1686	66.5
311.2221	43.2

Name: 9-Oxononanoic acid
PrecursorMZ: 171.10204
RT: 4.8943
ExactMass: 172.109944368
Spectrum_type: 2
charge: -1
Formula: C9H16O3
SMILES: C(CCCC=O)CCCC(=O)O
Method: HCD
Collision_energy: [28.333334]
Isolation_window: 4.0
Ion_mode: N
Num Peaks: 10
59.0130	17.8
71.0493	30.1
99.0806	68.7
125.0962	36.8
127.1119	100.0
153.0912	20.1
171.0191	38.3
171.0669	24.5
171.1019	85.3
173.0237	25.3

Name: 9-Pahsa
PrecursorMZ: 537.48928
RT: 11.87844
ExactMass: 538.49611058
Spectrum_type: 2
charge: -1
Formula: C34H66O4
SMILES: CCCCCCCCCCCCCCCC(=O)OC(CCCCCCCCC)CCCCCCCC(=O)O
Method: HCD
Collision_energy: [28.333334]
Isolation_window: 4.0
Ion_mode: N
Num Peaks: 17
59.7192	0.8
59.7227	1.9
59.8342	0.7
61.9875	2.0
255.1768	0.7
255.2328	100.0
255.2882	0.8
256.2363	16.0
257.2387	0.9
281.2485	25.1
282.2520	4.7
299.2590	17.6
300.2626	3.1
536.4799	0.9
537.4894	41.9
538.4926	14.6
539.5019	1.6

Name: 9-epi-9-F1t-PhytoP
PrecursorMZ: 327.21799
RT: 4.4884
ExactMass: 328.22497412
Spectrum_type: 2
charge: -1
Formula: C18H32O5
SMILES: CC[C@H]1[C@@H](C[C@@H]([C@H]1/C=C/[C@@H](CCCCCCCC(=O)O)O)O)O
Method: HCD
Collision_energy: [28.333334]
Isolation_window: 4.0
Ion_mode: N
Num Peaks: 19
96.9591	3.3
171.1020	7.7
211.1333	3.0
225.1497	2.7
237.1857	2.2
265.1810	8.3
273.1862	5.8
283.1916	15.0
284.1950	1.8
291.1966	4.8
309.2074	8.8
325.2023	2.1
325.6362	6.9
326.1345	3.5
327.0901	2.4
327.2178	100.0
328.2210	17.9
329.1043	7.1
329.2309	3.3

Name: 9-hydroxy-1,4a-dimethyl-7-propan-2-yl-2,3,4,9,10,10a-hexahydrophenanthrene-1-carboxylic Acid
PrecursorMZ: 315.19683
RT: 7.5687
ExactMass: 316.20384475
Spectrum_type: 2
charge: -1
Formula: C20H28O3
SMILES: CC(C)C1=CC2=C(C=C1)C3(CCCC(C3CC2O)(C)C(=O)O)C
Method: HCD
Collision_energy: [28.333334]
Isolation_window: 4.0
Ion_mode: N
Num Peaks: 7
313.1671	15.8
313.2369	7.4
314.1706	5.7
315.1969	100.0
315.2502	8.9
316.2000	20.8
317.2111	4.5

Name: 9-hydroxy-10E,12Z-octadecadienoic acid
PrecursorMZ: 295.22789
RT: 8.8203
ExactMass: 296.23514488
Spectrum_type: 2
charge: -1
Formula: C18H32O3
SMILES: CCCCC/C=C\C=C\C(CCCCCCCC(=O)O)O
Method: HCD
Collision_energy: [28.333334]
Isolation_window: 4.0
Ion_mode: N
Num Peaks: 5
59.0129	86.2
249.2218	18.2
295.2276	93.4
296.2301	21.8
297.2435	100.0

Name: 9S,11,15S-trihydroxy-thrombox-13E-enoic acid
PrecursorMZ: 371.24425
RT: 6.2928
ExactMass: 372.25118886
Spectrum_type: 2
charge: -1
Formula: C20H36O6
SMILES: CCCCC[C@@H](/C=C/C1[C@H]([C@H](CC(O1)O)O)CCCCCCC(=O)O)O
Method: HCD
Collision_energy: [28.333334]
Isolation_window: 4.0
Ion_mode: N
Num Peaks: 13
59.0130	47.4
87.0443	17.9
139.1122	18.5
171.1019	27.5
211.1341	16.8
283.1336	16.8
293.2123	35.4
311.2229	91.3
312.2265	16.4
329.2341	25.4
371.1888	24.7
371.2445	100.0
372.2477	22.2

Name: 9s,13r-12-Oxophytodienoic Acid
PrecursorMZ: 291.19684
RT: 7.7662
ExactMass: 292.20384475
Spectrum_type: 2
charge: -1
Formula: C18H28O3
SMILES: CC/C=C\C[C@@H]1[C@H](C=CC1=O)CCCCCCCC(=O)O
Method: HCD
Collision_energy: [28.333334]
Isolation_window: 4.0
Ion_mode: N
Num Peaks: 12
57.0337	1.9
71.0494	6.8
96.9592	3.5
111.0807	4.5
185.1179	2.2
195.1385	3.3
247.2064	2.9
273.1859	2.4
291.1967	100.0
292.2001	18.8
293.1792	13.0
293.2121	41.3

Name: AC1LA18U
PrecursorMZ: 239.04525
RT: 2.6986
ExactMass: 240.05349212
Spectrum_type: 2
charge: -1
Formula: C13H8N2O3
SMILES: C1=CC2=C(C3=C(C=C2)C(=O)C(=CN3)C(=O)O)N=C1
Method: HCD
Collision_energy: [28.333334]
Isolation_window: 4.0
Ion_mode: N
Num Peaks: 4
195.0554	100.0
195.1131	4.0
196.0589	12.9
239.1035	8.9

Name: ALPHA-ARBUTIN
PrecursorMZ: 271.08244
RT: 1.8555
Spectrum_type: 2
charge: -1
SMILES: C1=CC(=CC=C1O)O[C@@H]2[C@@H]([C@H]([C@@H]([C@H](O2)CO)O)O)O
Method: HCD
Collision_energy: [28.333334]
Isolation_window: 4.0
Ion_mode: N
Num Peaks: 31
59.0129	12.3
71.0129	6.5
72.9921	2.9
73.0285	3.0
83.0129	9.9
85.0286	6.3
87.0078	3.9
88.9871	4.6
97.0285	3.7
101.0234	8.8
111.0442	4.2
113.0236	3.0
123.0444	7.6
125.0236	4.7
125.0600	2.9
127.0392	5.7
137.0600	3.8
139.0392	7.1
151.0393	4.8
153.0550	5.4
157.0498	7.6
165.0549	5.6
169.0498	5.8
181.0500	5.2
193.0501	16.8
211.0608	35.4
212.0643	3.7
270.0735	5.9
271.0822	100.0
272.0858	13.3
273.0965	3.9

Name: Abietic Acid
PrecursorMZ: 301.21683
RT: 9.3068
ExactMass: 302.224580195
Spectrum_type: 2
charge: -1
Formula: C20H30O2
SMILES: CC(C)C1=CC2=CC[C@@H]3[C@@]([C@H]2CC1)(CCC[C@@]3(C)C(=O)O)C
Method: HCD
Collision_energy: [28.333334]
Isolation_window: 4.0
Ion_mode: N
Num Peaks: 5
257.2272	2.8
299.2588	100.0
300.2622	47.8
301.2171	9.1
301.2650	5.3

Name: Acamprosate
PrecursorMZ: 180.03306
RT: 11.7774
ExactMass: 181.04087901
Spectrum_type: 2
charge: -1
Formula: C5H11NO4S
SMILES: CC(=O)NCCCS(=O)(=O)O
Method: HCD
Collision_energy: [28.333334]
Isolation_window: 4.0
Ion_mode: N
Num Peaks: 5
79.9564	77.2
97.3405	8.9
116.0708	62.9
178.8433	7.7
180.0329	100.0

Name: Accurate mass (&lt;7ppm) MS/MS spectrum of unknown detected in human plasma (m-H)
PrecursorMZ: 507.22393
RT: 6.7231749999999995
Spectrum_type: 2
charge: -1
Method: HCD
Collision_energy: [28.333334]
Isolation_window: 4.0
Ion_mode: N
Num Peaks: 31
56.3597	4.8
59.0130	5.3
71.0130	6.3
72.9921	3.5
74.0238	2.5
75.0079	12.0
78.9581	2.5
85.0286	6.5
87.0078	4.1
95.0130	2.0
97.0285	4.5
99.0079	3.0
103.0029	2.7
113.0235	15.9
115.0028	2.3
152.9952	2.5
175.0243	4.0
193.0350	3.1
285.1857	3.0
287.2018	84.2
288.2052	16.0
331.1916	20.6
332.1950	3.9
463.2344	9.2
506.3492	29.1
507.2235	100.0
507.3510	8.4
508.2274	26.1
508.3031	6.7
509.2292	2.9
509.2974	3.0

Name: Acetaminophen
PrecursorMZ: 150.0554
RT: 2.8281
ExactMass: 151.06332853
Spectrum_type: 2
charge: -1
Formula: C8H9NO2
SMILES: CC(=O)NC1=CC=C(C=C1)O
Method: HCD
Collision_energy: [28.333334]
Isolation_window: 4.0
Ion_mode: N
Num Peaks: 4
106.9921	4.1
108.0446	100.0
109.0477	7.3
150.0553	5.8

Name: Aconitic Acid
PrecursorMZ: 173.0085
RT: 1.6452
ExactMass: 174.01643791
Spectrum_type: 2
charge: -1
Formula: C6H6O6
SMILES: C(C(=CC(=O)O)C(=O)O)C(=O)O
Method: HCD
Collision_energy: [28.333334]
Isolation_window: 4.0
Ion_mode: N
Num Peaks: 15
69.0336	15.2
71.0129	2.2
85.0285	87.8
86.0319	3.7
87.0442	18.5
111.0078	10.5
112.0393	1.6
113.0235	13.8
129.0185	20.8
129.0547	1.6
131.0341	7.1
157.0135	100.0
173.0083	1.8
173.0237	4.1
175.0241	14.5

Name: Actinonin
PrecursorMZ: 384.2495
RT: 3.1161
ExactMass: 385.25767123
Spectrum_type: 2
charge: -1
Formula: C19H35N3O5
SMILES: CCCCC[C@H](CC(=O)NO)C(=O)N[C@@H](C(C)C)C(=O)N1CCC[C@H]1CO
Method: HCD
Collision_energy: [28.333334]
Isolation_window: 4.0
Ion_mode: N
Num Peaks: 3
338.2442	100.0
339.2469	19.5
384.2500	42.4

Name: Adlupulone
PrecursorMZ: 413.27067
RT: 7.3956
ExactMass: 414.27700969
Spectrum_type: 2
charge: -1
Formula: C26H38O4
SMILES: CCC(C)C(=O)C1=C(C(=C(C(C1=O)(CC=C(C)C)CC=C(C)C)O)CC=C(C)C)O
Method: HCD
Collision_energy: [28.333334]
Isolation_window: 4.0
Ion_mode: N
Num Peaks: 5
59.0131	11.5
341.2504	4.9
413.2709	100.0
414.2750	33.3
415.2843	9.6

Name: Adonivernith
PrecursorMZ: 579.13573
RT: 4.3488
ExactMass: 580.14282018
Spectrum_type: 2
charge: -1
Formula: C26H28O15
SMILES: C1[C@H]([C@@H]([C@H]([C@@H](O1)O[C@@H]2[C@H]([C@@H]([C@H](O[C@H]2C3=C(C=C(C4=C3OC(=CC4=O)C5=CC(=C(C=C5)O)O)O)O)CO)O)O)O)O)O
Method: HCD
Collision_energy: [28.333334]
Isolation_window: 4.0
Ion_mode: N
Num Peaks: 20
59.0129	7.1
81.0336	6.3
83.0129	8.8
85.0285	100.0
99.0442	16.7
111.0078	47.3
123.0441	14.5
127.0392	51.8
129.0185	41.1
167.0342	74.2
171.0292	19.8
195.0655	80.2
196.0692	6.6
207.0655	8.2
215.0192	9.5
235.0608	29.0
263.0922	11.4
279.0508	9.8
339.0715	5.6
383.0625	7.0

Name: Adrenosterone
PrecursorMZ: 299.16523
RT: 7.7038
ExactMass: 300.17254462
Spectrum_type: 2
charge: -1
Formula: C19H24O3
SMILES: C[C@]12CCC(=O)C=C1CC[C@@H]3[C@@H]2C(=O)C[C@]4([C@H]3CCC4=O)C
Method: HCD
Collision_energy: [28.333334]
Isolation_window: 4.0
Ion_mode: N
Num Peaks: 11
96.9591	12.9
297.1527	2.7
298.1551	1.7
299.1330	5.5
299.1648	64.1
299.2217	2.5
299.6334	2.1
300.1404	100.0
300.1691	10.0
300.6419	37.5
301.1451	14.6

Name: Afzelechin
PrecursorMZ: 273.07694
RT: 4.4397
ExactMass: 274.08412354
Spectrum_type: 2
charge: -1
Formula: C15H14O5
SMILES: C1[C@@H]([C@H](OC2=CC(=CC(=C21)O)O)C3=CC=C(C=C3)O)O
Method: HCD
Collision_energy: [28.333334]
Isolation_window: 4.0
Ion_mode: N
Num Peaks: 18
109.0286	11.2
121.0287	3.3
122.0369	1.5
123.0443	5.5
137.0235	3.5
148.0159	6.1
149.0237	11.2
163.0393	3.5
165.0187	5.4
167.0342	100.0
168.0377	8.1
227.0712	3.3
241.0503	3.3
255.0661	8.1
271.0975	5.7
272.0997	2.4
273.0768	39.9
274.0802	5.5

Name: Agaric Acid
PrecursorMZ: 415.27058
RT: 7.4332
ExactMass: 416.27740361
Spectrum_type: 2
charge: -1
Formula: C22H40O7
SMILES: CCCCCCCCCCCCCCCCC(C(=O)O)C(CC(=O)O)(C(=O)O)O
Method: HCD
Collision_energy: [28.333334]
Isolation_window: 4.0
Ion_mode: N
Num Peaks: 12
73.0285	37.9
131.0162	54.0
247.2068	34.7
305.2485	30.6
349.2746	49.1
350.2764	26.0
397.2784	34.3
413.3046	46.7
414.3218	28.0
415.2859	65.2
416.2896	28.0
417.3140	100.0

Name: Ala-Val
PrecursorMZ: 187.10783
RT: 1.1698
ExactMass: 188.11609238
Spectrum_type: 2
charge: -1
Formula: C8H16N2O3
SMILES: C[C@@H](C(=O)N[C@@H](C(C)C)C(=O)O)N
Method: HCD
Collision_energy: [28.333334]
Isolation_window: 4.0
Ion_mode: N
Num Peaks: 5
98.0237	13.4
116.0706	18.8
143.1179	51.3
144.9220	14.6
187.1079	100.0

Name: Alanine + CDCA
PrecursorMZ: 462.32281
RT: 6.507
ExactMass: 463.32977354
Spectrum_type: 2
charge: -1
Formula: C27H45NO5
SMILES: C[C@H](CCC(=O)N[C@@H](C)C(=O)O)[C@H]1CC[C@@H]2[C@@]1(CC[C@H]3[C@H]2[C@@H](C[C@H]4[C@@]3(CC[C@H](C4)O)C)O)C
Method: HCD
Collision_energy: [28.333334]
Isolation_window: 4.0
Ion_mode: N
Num Peaks: 12
51.3678	2.1
51.3705	4.5
71.0129	11.0
88.0394	13.5
372.2907	1.9
390.3015	7.3
391.3046	1.6
461.1649	5.6
462.1795	1.6
462.3227	100.0
463.3245	35.2
464.3220	4.4

Name: Alanine + DCA
PrecursorMZ: 462.32248
RT: 10.0332
ExactMass: 463.32977354
Spectrum_type: 2
charge: -1
Formula: C27H45NO5
SMILES: C[C@H](CCC(=O)N[C@@H](C)C(=O)O)[C@H]1CC[C@@H]2[C@@]1([C@H](C[C@H]3[C@H]2CC[C@H]4[C@@]3(CC[C@H](C4)O)C)O)C
Method: HCD
Collision_energy: [28.333334]
Isolation_window: 4.0
Ion_mode: N
Num Peaks: 12
51.3705	4.4
151.0393	3.5
162.0678	4.8
177.0915	5.8
180.0295	71.1
181.0332	5.8
432.3244	6.8
461.3163	4.3
461.3634	5.3
462.3220	100.0
463.3261	34.7
464.3298	5.0

Name: Alanine + HDCA
PrecursorMZ: 462.32308
RT: 6.8392
ExactMass: 463.32977354
Spectrum_type: 2
charge: -1
Formula: C27H45NO5
SMILES: C[C@H](CCC(=O)N[C@@H](C)C(=O)O)[C@H]1CC[C@@H]2[C@@]1(CC[C@H]3[C@H]2C[C@@H]([C@H]4[C@@]3(CC[C@H](C4)O)C)O)C
Method: HCD
Collision_energy: [28.333334]
Isolation_window: 4.0
Ion_mode: N
Num Peaks: 13
51.3679	2.0
51.3707	4.5
88.0396	51.4
89.0428	1.8
342.2112	3.3
343.2149	6.9
344.2116	1.9
391.2868	3.3
461.2772	2.8
462.3237	100.0
463.2715	2.2
463.3273	31.4
464.3326	3.4

Name: Alanine + UDCA
PrecursorMZ: 462.32288
RT: 6.7289
ExactMass: 463.32977354
Spectrum_type: 2
charge: -1
Formula: C27H45NO5
SMILES: C[C@H](CCC(=O)N[C@@H](C)C(=O)O)[C@H]1CC[C@@H]2[C@@]1(CC[C@H]3[C@H]2[C@H](C[C@H]4[C@@]3(CC[C@H](C4)O)C)O)C
Method: HCD
Collision_energy: [28.333334]
Isolation_window: 4.0
Ion_mode: N
Num Peaks: 6
51.3705	4.4
88.0394	39.8
401.3086	5.7
462.3232	100.0
463.3196	40.1
464.3149	6.9

Name: Aldosterone
PrecursorMZ: 359.18658
RT: 7.7669
ExactMass: 360.19367399
Spectrum_type: 2
charge: -1
Formula: C21H28O5
SMILES: C[C@]12CCC(=O)C=C1CC[C@@H]3[C@@H]2[C@H](C[C@]4([C@H]3CC[C@@H]4C(=O)CO)C=O)O
Method: HCD
Collision_energy: [28.333334]
Isolation_window: 4.0
Ion_mode: N
Num Peaks: 30
59.0138	4.9
109.0286	6.9
121.0285	3.4
179.0704	3.5
247.1335	5.2
269.1901	3.1
271.2068	100.0
272.2103	19.6
275.1652	5.2
297.1866	7.3
313.2162	10.2
314.2203	4.3
315.1959	6.4
315.2316	11.6
339.2323	4.0
341.1758	24.4
341.2119	3.3
342.1781	4.8
357.1684	6.4
357.2062	10.5
357.2524	3.1
358.1724	9.4
358.2098	6.7
359.1846	94.7
359.2235	19.4
360.1878	21.1
360.2240	3.9
360.2573	3.3
361.1958	4.9
361.2371	10.7

Name: Alectinib
PrecursorMZ: 481.26111
RT: 6.6053
ExactMass: 482.26817634
Spectrum_type: 2
charge: -1
Formula: C30H34N4O2
SMILES: CCC1=CC2=C(C=C1N3CCC(CC3)N4CCOCC4)C(C5=C(C2=O)C6=C(N5)C=C(C=C6)C#N)(C)C
Method: HCD
Collision_energy: [28.333334]
Isolation_window: 4.0
Ion_mode: N
Num Peaks: 9
53.4748	4.3
96.9587	5.6
121.0281	5.6
253.0705	3.3
479.2456	16.0
480.2484	15.2
481.2611	100.0
482.2643	25.4
483.2626	5.2

Name: Alisol B 23-Acetate
PrecursorMZ: 559.36356
RT: 8.5029
ExactMass: 514.36582469
Spectrum_type: 2
charge: -1
Formula: C32H50O5
SMILES: C[C@H](C[C@@H]([C@@H]1C(O1)(C)C)OC(=O)C)C2=C3C[C@@H]([C@H]4[C@]5(CCC(=O)C([C@@H]5CC[C@@]4([C@]3(CC2)C)C)(C)C)C)O
Method: HCD
Collision_energy: [28.333334]
Isolation_window: 4.0
Ion_mode: N
Num Peaks: 6
125.0962	77.4
187.0969	36.4
389.2698	20.5
559.3638	100.0
560.3667	27.2
561.3771	14.1

Name: Aloesaponarin I
PrecursorMZ: 311.05523
RT: 5.3291
ExactMass: 312.0633881
Spectrum_type: 2
charge: -1
Formula: C17H12O6
SMILES: CC1=C2C(=CC(=C1C(=O)OC)O)C(=O)C3=C(C2=O)C(=CC=C3)O
Method: HCD
Collision_energy: [28.333334]
Isolation_window: 4.0
Ion_mode: N
Num Peaks: 3
283.0605	6.6
311.0552	100.0
312.0585	17.6

Name: Alpha-Alectoronic Acid
PrecursorMZ: 511.19747
RT: 4.4096
ExactMass: 512.20463259
Spectrum_type: 2
charge: -1
Formula: C28H32O9
SMILES: CCCCCC(=O)CC1=C2C(=CC(=C1)O)OC3=C(C=C(C(=C3CC(=O)CCCCC)C(=O)O)O)OC2=O
Method: HCD
Collision_energy: [28.333334]
Isolation_window: 4.0
Ion_mode: N
Num Peaks: 18
56.8011	2.9
61.9874	2.9
122.0368	3.2
150.0313	5.3
163.0395	4.7
165.0550	2.8
175.0756	5.3
178.0631	4.1
179.0706	2.5
285.1131	4.2
315.1237	100.0
316.1269	17.9
345.1343	10.8
481.1871	25.9
482.1905	8.7
511.1975	56.2
512.2022	15.3
513.2101	2.7

Name: Alpha-Chaconine
PrecursorMZ: 896.4991
RT: 4.8374
ExactMass: 851.503106
Spectrum_type: 2
charge: -1
Formula: C45H73NO14
SMILES: C[C@H]1CC[C@@H]2[C@H]([C@H]3[C@@H](N2C1)C[C@@H]4[C@@]3(CC[C@H]5[C@H]4CC=C6[C@@]5(CC[C@@H](C6)O[C@H]7[C@@H]([C@H]([C@@H]([C@H](O7)CO)O[C@H]8[C@@H]([C@@H]([C@H]([C@@H](O8)C)O)O)O)O)O[C@H]9[C@@H]([C@@H]([C@H]([C@@H](O9)C)O)O)O)C)C)C
Method: HCD
Collision_energy: [28.333334]
Isolation_window: 4.0
Ion_mode: N
Num Peaks: 15
71.0127	16.0
85.0283	6.2
89.0232	30.8
101.0231	26.9
103.0388	6.6
113.0230	10.4
119.0337	17.8
143.0337	8.8
163.0602	6.1
205.0702	6.3
704.4363	15.8
705.4414	6.2
850.4937	100.0
851.4975	46.9
852.4995	7.5

Name: Alpha-Cyano-4-Hydroxycinnamic Acid
PrecursorMZ: 188.03469
RT: 3.7584
ExactMass: 189.042593085
Spectrum_type: 2
charge: -1
Formula: C10H7NO3
SMILES: C1=CC(=CC=C1C=C(C#N)C(=O)O)O
Method: HCD
Collision_energy: [28.333334]
Isolation_window: 4.0
Ion_mode: N
Num Peaks: 10
50.0027	9.1
93.0336	100.0
94.0369	5.3
130.0865	5.1
143.9383	4.4
144.0447	29.2
144.9223	7.6
160.0507	8.5
162.0666	4.4
188.0343	22.6

Name: Alpinetin
PrecursorMZ: 269.0821
RT: 6.826
ExactMass: 270.08920892
Spectrum_type: 2
charge: -1
Formula: C16H14O4
SMILES: COC1=CC(=CC2=C1C(=O)CC(O2)C3=CC=CC=C3)O
Method: HCD
Collision_energy: [28.333334]
Isolation_window: 4.0
Ion_mode: N
Num Peaks: 22
132.0208	3.1
210.0681	5.0
211.0396	3.1
212.0471	1.4
223.0399	2.1
224.0473	3.2
226.0273	1.9
226.0624	1.2
238.0507	9.2
239.0345	8.4
240.0417	5.2
254.0584	18.0
255.0617	3.3
256.0375	1.3
267.0299	12.8
268.0377	100.0
269.0410	16.8
269.0820	84.8
270.0463	2.1
270.0851	13.9
271.0609	2.5
271.0886	1.0

Name: Alprostadil
PrecursorMZ: 353.2338
RT: 5.1731
ExactMass: 354.24062418
Spectrum_type: 2
charge: -1
Formula: C20H34O5
SMILES: CCCCC[C@@H](/C=C/[C@H]1[C@@H](CC(=O)[C@@H]1CCCCCCC(=O)O)O)O
Method: HCD
Collision_energy: [28.333334]
Isolation_window: 4.0
Ion_mode: N
Num Peaks: 13
69.0337	2.0
71.0492	2.2
81.0700	3.2
87.0441	2.0
115.0392	17.2
247.1703	4.6
335.2229	8.7
351.2180	8.3
352.2185	3.3
353.2011	3.4
353.2337	100.0
354.2366	21.6
355.2485	10.6

Name: Altamisic acid
PrecursorMZ: 279.12366
RT: 6.1317
ExactMass: 280.13107373
Spectrum_type: 2
charge: -1
Formula: C15H20O5
SMILES: CC1=C([C@@]([C@H]2[C@@H](CC1)C(=C)C(=O)O2)(C)O)CCC(=O)O
Method: HCD
Collision_energy: [28.333334]
Isolation_window: 4.0
Ion_mode: N
Num Peaks: 7
191.1437	3.1
217.1228	6.1
235.1334	81.9
236.1368	11.5
279.1234	100.0
280.1269	16.8
280.6225	2.9

Name: Alternariol
PrecursorMZ: 257.04563
RT: 3.7726
ExactMass: 258.05282342
Spectrum_type: 2
charge: -1
Formula: C14H10O5
SMILES: CC1=CC(=CC2=C1C3=C(C(=CC(=C3)O)O)C(=O)O2)O
Method: HCD
Collision_energy: [28.333334]
Isolation_window: 4.0
Ion_mode: N
Num Peaks: 10
108.0209	3.2
114.0551	10.8
210.9496	4.4
211.0396	100.0
212.0441	16.5
213.0554	22.5
228.9599	6.0
256.1551	5.6
257.0456	13.1
257.1498	3.6

Name: Alternariol monomethyl ether
PrecursorMZ: 271.0615
RT: 4.5092
ExactMass: 272.06847348
Spectrum_type: 2
charge: -1
Formula: C15H12O5
SMILES: CC1=CC(=CC2=C1C3=C(C(=CC(=C3)OC)O)C(=O)O2)O
Method: HCD
Collision_energy: [28.333334]
Isolation_window: 4.0
Ion_mode: N
Num Peaks: 5
149.0239	9.7
161.0242	10.9
256.0379	13.9
271.0613	100.0
272.0652	13.5

Name: Altersetin
PrecursorMZ: 398.2339
RT: 10.145299999999999
ExactMass: 399.24095853
Spectrum_type: 2
charge: -1
Formula: C24H33NO4
SMILES: C/C=C/C=C/C1C=CC2CC(CCC2C1(C)/C(=C/3\C(=O)C(NC3=O)C(C)O)/O)C
Method: HCD
Collision_energy: [28.333334]
Isolation_window: 4.0
Ion_mode: N
Num Peaks: 4
396.2182	17.2
397.2223	12.6
398.2335	100.0
399.2369	25.9

Name: Amcinonide
PrecursorMZ: 547.23512
RT: 6.766
ExactMass: 502.23668161
Spectrum_type: 2
charge: -1
Formula: C28H35FO7
SMILES: CC(=O)OCC(=O)[C@@]12[C@@H](C[C@@H]3[C@@]1(C[C@@H]([C@]4([C@H]3CCC5=CC(=O)C=C[C@@]54C)F)O)C)OC6(O2)CCCC6
Method: HCD
Collision_energy: [28.333334]
Isolation_window: 4.0
Ion_mode: N
Num Peaks: 7
60.8057	4.7
78.9579	5.2
96.9590	4.7
546.2822	6.1
547.2304	100.0
548.2315	26.1
549.2948	39.1

Name: Aminoisobutyric acid
PrecursorMZ: 102.05494
RT: 1.7101
ExactMass: 103.06332853
Spectrum_type: 2
charge: -1
Formula: C4H9NO2
SMILES: CC(C)(C(=O)O)N
Method: HCD
Collision_energy: [28.333334]
Isolation_window: 4.0
Ion_mode: N
Num Peaks: 6
57.0336	17.2
59.0129	42.7
72.9921	73.0
102.0549	100.0
103.0025	10.0
103.0389	18.7

Name: Amlexanox
PrecursorMZ: 297.08819
RT: 4.8924
ExactMass: 298.09535693
Spectrum_type: 2
charge: -1
Formula: C16H14N2O4
SMILES: CC(C)C1=CC2=C(C=C1)OC3=NC(=C(C=C3C2=O)C(=O)O)N
Method: HCD
Collision_energy: [28.333334]
Isolation_window: 4.0
Ion_mode: N
Num Peaks: 3
253.0981	100.0
254.1011	16.8
297.0871	7.3

Name: Andrastin A
PrecursorMZ: 485.25504
RT: 8.0689
ExactMass: 486.26175355
Spectrum_type: 2
charge: -1
Formula: C28H38O7
SMILES: CC1C(=O)[C@@]2(C(=C[C@@H]3[C@@]([C@@]2(C1=O)C(=O)OC)(CC[C@H]4[C@]3(CC[C@@H](C4(C)C)OC(=O)C)C=O)C)C)C
Method: HCD
Collision_energy: [28.333334]
Isolation_window: 4.0
Ion_mode: N
Num Peaks: 8
134.0368	8.2
160.0160	13.4
175.0396	100.0
176.0428	8.7
193.0505	12.7
309.2078	15.3
485.2541	72.3
486.2558	20.1

Name: Andrastin D
PrecursorMZ: 427.24967
RT: 7.8077
ExactMass: 428.25627424
Spectrum_type: 2
charge: -1
Formula: C26H36O5
SMILES: CC1=C[C@H]2[C@@]3(CCC(=O)C([C@H]3CC[C@@]2([C@]4([C@@]1(C(=C(C4=O)C)O)C)C(=O)OC)C)(C)C)C
Method: HCD
Collision_energy: [28.333334]
Isolation_window: 4.0
Ion_mode: N
Num Peaks: 5
191.1074	100.0
383.2609	23.8
427.2502	88.8
428.2546	23.2
429.2643	24.5

Name: Androstane-3,17-diol
PrecursorMZ: 291.23289
RT: 7.5424
ExactMass: 292.240230259
Spectrum_type: 2
charge: -1
Formula: C19H32O2
SMILES: C[C@]12CCC(CC1CC[C@@H]3[C@@H]2CC[C@]4([C@H]3CCC4O)C)O
Method: HCD
Collision_energy: [28.333334]
Isolation_window: 4.0
Ion_mode: N
Num Peaks: 12
57.0337	9.1
113.0961	20.2
193.1589	11.0
221.1539	11.7
236.1053	12.3
249.1856	24.6
275.1647	16.7
291.1973	11.6
291.2322	76.4
292.2359	14.3
293.1764	100.0
293.2108	17.0

Name: Androsterone Sulfate
PrecursorMZ: 369.17406
RT: 4.6906625
ExactMass: 370.18139523
Spectrum_type: 2
charge: -1
Formula: C19H30O5S
SMILES: C[C@]12CC[C@H](C[C@@H]1CC[C@@H]3[C@@H]2CC[C@]4([C@H]3CCC4=O)C)OS(=O)(=O)O
Method: HCD
Collision_energy: [28.333334]
Isolation_window: 4.0
Ion_mode: N
Num Peaks: 10
96.9591	46.9
96.9637	1.1
98.9550	1.3
325.2385	1.2
367.2128	1.3
369.1740	100.0
369.2230	3.2
370.1773	22.2
370.2286	1.0
371.1703	4.2

Name: Anisocoumarin H
PrecursorMZ: 313.14493
RT: 6.2751
ExactMass: 314.15180918
Spectrum_type: 2
charge: -1
Formula: C19H22O4
SMILES: CC(=CC(C/C(=C/COC1=CC2=C(C=C1)C=CC(=O)O2)/C)O)C
Method: HCD
Collision_energy: [28.333334]
Isolation_window: 4.0
Ion_mode: N
Num Peaks: 12
269.1549	39.9
283.0248	16.4
297.0404	12.4
298.0475	19.8
311.1692	92.4
311.2211	11.4
312.1721	38.2
313.0721	48.1
313.1436	100.0
313.2368	9.7
314.0745	9.7
314.1470	19.0

Name: Antiangiogenic agent 3
PrecursorMZ: 359.11382
RT: 4.2167
ExactMass: 360.12090297
Spectrum_type: 2
charge: -1
Formula: C19H20O7
SMILES: CC1=C(C(=C2C(OC(=O)C2=C1OC)OCCC3=CC=C(C=C3)O)CO)O
Method: HCD
Collision_energy: [28.333334]
Isolation_window: 4.0
Ion_mode: N
Num Peaks: 24
72.9922	4.8
110.0238	7.1
123.0555	3.7
134.0365	7.7
135.0447	4.0
149.0600	12.1
161.0237	36.1
162.0272	3.2
178.0264	16.9
179.0342	7.0
193.0500	100.0
194.0534	9.9
195.0668	3.0
197.0448	10.4
297.0877	4.3
329.1035	4.1
358.1024	3.9
359.0767	7.1
359.1164	12.8
359.2079	11.9
360.1163	3.1
360.2105	3.1
361.1328	3.0
361.2217	2.9

Name: Aphidicolin
PrecursorMZ: 337.23753
RT: 8.3138
ExactMass: 338.24570956
Spectrum_type: 2
charge: -1
Formula: C20H34O4
SMILES: C[C@]12CC[C@H]([C@@]([C@@H]1CC[C@@H]3[C@@]24CC[C@@]([C@H](C3)C4)(CO)O)(C)CO)O
Method: HCD
Collision_energy: [28.333334]
Isolation_window: 4.0
Ion_mode: N
Num Peaks: 22
69.2015	1.1
71.0492	1.8
73.0285	1.5
96.9590	1.3
102.9476	1.7
146.9375	3.0
183.0108	2.9
190.9278	1.9
237.1491	1.7
261.1855	2.5
303.2324	6.7
304.2358	1.6
305.2116	18.4
306.2150	3.9
319.2271	14.4
320.2306	3.1
337.1845	2.2
337.2046	7.6
337.2380	24.9
338.2076	1.4
338.2411	4.8
339.1992	100.0

Name: Apy0201
PrecursorMZ: 412.18849
RT: 6.9664
ExactMass: 413.19640838
Spectrum_type: 2
charge: -1
Formula: C23H23N7O
SMILES: CC1=CC(=CC=C1)/C=N/NC2=NC3=CC(=NN3C(=C2)N4CCOCC4)C5=CC=NC=C5
Method: HCD
Collision_energy: [28.333334]
Isolation_window: 4.0
Ion_mode: N
Num Peaks: 7
75.0079	7.6
178.1234	12.7
193.0979	100.0
194.1014	10.7
411.1840	7.6
412.1881	57.9
413.1921	13.4

Name: Arginine + Cholic Acid
PrecursorMZ: 563.38123
RT: 5.075633333333333
ExactMass: 564.38868539
Spectrum_type: 2
charge: -1
Formula: C30H52N4O6
SMILES: C[C@H](CCC(=O)N[C@@H](CCCN=C(N)N)C(=O)O)[C@H]1CC[C@@H]2[C@@]1([C@H](C[C@H]3[C@H]2[C@@H](C[C@H]4[C@@]3(CC[C@H](C4)O)C)O)O)C
Method: HCD
Collision_energy: [28.333334]
Isolation_window: 4.0
Ion_mode: N
Num Peaks: 11
62.5998	4.4
131.0818	21.9
156.0770	3.0
173.1037	29.1
521.3599	15.4
522.3652	3.9
562.2660	2.8
563.3816	100.0
564.3848	31.9
565.2847	34.9
565.3866	3.3

Name: Arginine + betaMCA
PrecursorMZ: 563.38117
RT: 4.797000000000001
ExactMass: 564.38868539
Spectrum_type: 2
charge: -1
Formula: C30H52N4O6
SMILES: C[C@H](CCC(=O)N[C@@H](CCCN=C(N)N)C(=O)O)[C@H]1CC[C@@H]2[C@@]1(CC[C@H]3[C@H]2[C@H]([C@H]([C@H]4[C@@]3(CC[C@H](C4)O)C)O)O)C
Method: HCD
Collision_energy: [28.333334]
Isolation_window: 4.0
Ion_mode: N
Num Peaks: 5
131.0817	23.5
173.1037	32.1
521.3593	18.4
563.3814	100.0
564.3839	30.7

Name: Artocarpin
PrecursorMZ: 435.18153
RT: 9.642
ExactMass: 436.18858861
Spectrum_type: 2
charge: -1
Formula: C26H28O6
SMILES: CC(C)/C=C/C1=C(C=C2C(=C1O)C(=O)C(=C(O2)C3=C(C=C(C=C3)O)O)CC=C(C)C)OC
Method: HCD
Collision_energy: [28.333334]
Isolation_window: 4.0
Ion_mode: N
Num Peaks: 5
321.0766	9.6
350.1162	13.9
365.1395	24.3
435.1820	100.0
436.1859	28.8

Name: Asparagine + CDCA
PrecursorMZ: 505.32874
RT: 5.9867333333333335
ExactMass: 506.33558719
Spectrum_type: 2
charge: -1
Formula: C28H46N2O6
SMILES: C[C@H](CCC(=O)N[C@@H](CC(=O)N)C(=O)O)[C@H]1CC[C@@H]2[C@@]1(CC[C@H]3[C@H]2[C@@H](C[C@H]4[C@@]3(CC[C@H](C4)O)C)O)C
Method: HCD
Collision_energy: [28.333334]
Isolation_window: 4.0
Ion_mode: N
Num Peaks: 10
56.1492	3.9
70.0289	3.5
96.0081	35.1
114.0186	12.3
131.0452	14.7
390.3009	11.5
487.3188	5.2
505.3290	100.0
506.3274	37.9
507.3248	7.0

Name: Asparagine + Cholic Acid
PrecursorMZ: 521.32324
RT: 5.32225
ExactMass: 522.33050181
Spectrum_type: 2
charge: -1
Formula: C28H46N2O7
SMILES: C[C@H](CCC(=O)N[C@@H](CC(=O)N)C(=O)O)[C@H]1CC[C@@H]2[C@@]1([C@H](C[C@H]3[C@H]2[C@@H](C[C@H]4[C@@]3(CC[C@H](C4)O)C)O)O)C
Method: HCD
Collision_energy: [28.333334]
Isolation_window: 4.0
Ion_mode: N
Num Peaks: 10
146.0239	11.6
148.0396	6.8
162.0317	6.1
192.0297	12.5
430.3312	6.2
474.3229	67.5
475.3267	19.2
519.4036	6.7
521.3228	100.0
522.3262	26.4

Name: Asparagine + DCA
PrecursorMZ: 505.32909
RT: 6.1094333333333335
ExactMass: 506.33558719
Spectrum_type: 2
charge: -1
Formula: C28H46N2O6
SMILES: C[C@H](CCC(=O)N[C@@H](CC(=O)N)C(=O)O)[C@H]1CC[C@@H]2[C@@]1([C@H](C[C@H]3[C@H]2CC[C@H]4[C@@]3(CC[C@H](C4)O)C)O)C
Method: HCD
Collision_energy: [28.333334]
Isolation_window: 4.0
Ion_mode: N
Num Peaks: 12
56.1492	4.3
70.0290	2.5
96.0082	36.2
114.0188	11.6
131.0454	16.1
372.2902	2.4
390.3019	10.5
391.3065	2.6
487.3192	5.5
505.3298	100.0
506.3329	31.0
507.2879	6.9

Name: Asparagine + UDCA
PrecursorMZ: 505.32893
RT: 6.0429
ExactMass: 506.33558719
Spectrum_type: 2
charge: -1
Formula: C28H46N2O6
SMILES: C[C@H](CCC(=O)N[C@@H](CC(=O)N)C(=O)O)[C@H]1CC[C@@H]2[C@@]1(CC[C@H]3[C@H]2[C@H](C[C@H]4[C@@]3(CC[C@H](C4)O)C)O)C
Method: HCD
Collision_energy: [28.333334]
Isolation_window: 4.0
Ion_mode: N
Num Peaks: 7
96.0082	32.1
97.3374	7.2
114.0188	10.7
131.0453	13.5
390.3014	8.9
505.3293	100.0
506.3330	29.1

Name: Asparagine + betaMCA
PrecursorMZ: 521.32375
RT: 5.4546
ExactMass: 522.33050181
Spectrum_type: 2
charge: -1
Formula: C28H46N2O7
SMILES: C[C@H](CCC(=O)N[C@@H](CC(=O)N)C(=O)O)[C@H]1CC[C@@H]2[C@@]1(CC[C@H]3[C@H]2[C@H]([C@H]([C@H]4[C@@]3(CC[C@H](C4)O)C)O)O)C
Method: HCD
Collision_energy: [28.333334]
Isolation_window: 4.0
Ion_mode: N
Num Peaks: 16
57.9232	2.1
57.9265	4.6
74.0239	11.4
85.0286	1.8
87.0555	5.2
96.0081	2.3
99.0442	3.5
131.0455	3.1
167.0345	4.6
167.0705	3.2
446.2914	2.4
477.3349	3.8
519.3386	2.3
521.3241	100.0
522.3272	29.7
523.3253	3.6

Name: Aspartic Acid + CDCA
PrecursorMZ: 506.31169
RT: 5.8028
ExactMass: 507.31960277
Spectrum_type: 2
charge: -1
Formula: C28H45NO7
SMILES: C[C@H](CCC(=O)N[C@@H](CC(=O)O)C(=O)O)[C@H]1CC[C@@H]2[C@@]1(CC[C@H]3[C@H]2[C@@H](C[C@H]4[C@@]3(CC[C@H](C4)O)C)O)C
Method: HCD
Collision_energy: [28.333334]
Isolation_window: 4.0
Ion_mode: N
Num Peaks: 8
71.0128	7.1
88.0393	13.7
115.0026	9.1
390.3015	12.0
391.2840	16.1
462.3226	7.9
506.3119	100.0
507.3135	33.5

Name: Aspartic Acid + Cholic Acid
PrecursorMZ: 522.30703
RT: 5.551083333333334
ExactMass: 523.31451739
Spectrum_type: 2
charge: -1
Formula: C28H45NO8
SMILES: C[C@H](CCC(=O)N[C@@H](CC(=O)O)C(=O)O)[C@H]1CC[C@@H]2[C@@]1([C@H](C[C@H]3[C@H]2[C@@H](C[C@H]4[C@@]3(CC[C@H](C4)O)C)O)O)C
Method: HCD
Collision_energy: [28.333334]
Isolation_window: 4.0
Ion_mode: N
Num Peaks: 25
58.0325	2.2
58.0358	4.2
71.0129	8.0
85.0286	3.6
88.0394	18.1
96.0081	5.0
99.0442	5.6
111.0078	4.2
115.0028	10.6
131.0456	2.0
132.0293	5.2
167.0341	5.3
167.0708	4.1
388.2865	3.7
406.2964	10.5
407.2799	16.9
408.2839	4.3
478.3178	9.3
479.3203	2.8
521.2974	2.3
521.3242	11.1
521.3343	4.1
522.3074	100.0
523.3107	30.1
524.3151	3.9

Name: Aspartic Acid + DCA
PrecursorMZ: 506.31216
RT: 6.346177777777778
ExactMass: 507.31960277
Spectrum_type: 2
charge: -1
Formula: C28H45NO7
SMILES: C[C@H](CCC(=O)N[C@@H](CC(=O)O)C(=O)O)[C@H]1CC[C@@H]2[C@@]1([C@H](C[C@H]3[C@H]2CC[C@H]4[C@@]3(CC[C@H](C4)O)C)O)C
Method: HCD
Collision_energy: [28.333334]
Isolation_window: 4.0
Ion_mode: N
Num Peaks: 13
61.9874	7.3
88.0394	16.5
109.0647	4.9
115.0027	9.1
391.2857	12.3
461.3343	7.1
462.3254	13.4
463.3162	5.4
505.2791	13.0
505.3173	11.8
506.3139	100.0
507.3049	53.5
508.3069	11.6

Name: Aspartic Acid + UDCA
PrecursorMZ: 506.31242
RT: 5.2608
ExactMass: 507.31960277
Spectrum_type: 2
charge: -1
Formula: C28H45NO7
SMILES: C[C@H](CCC(=O)N[C@@H](CC(=O)O)C(=O)O)[C@H]1CC[C@@H]2[C@@]1(CC[C@H]3[C@H]2[C@H](C[C@H]4[C@@]3(CC[C@H](C4)O)C)O)C
Method: HCD
Collision_energy: [28.333334]
Isolation_window: 4.0
Ion_mode: N
Num Peaks: 20
51.3665	3.0
56.2586	4.4
74.0238	42.4
87.0079	5.1
89.0235	3.0
96.9592	9.6
118.0503	3.9
124.0066	2.4
418.2972	3.6
444.2672	2.4
462.2865	68.6
463.2905	18.8
464.2947	2.6
505.2474	3.1
505.3265	5.0
506.3140	100.0
507.2396	11.3
507.3134	31.9
508.2484	6.6
508.3211	3.5

Name: Aspartic Acid + betaMCA
PrecursorMZ: 522.30708
RT: 4.9612
ExactMass: 523.31451739
Spectrum_type: 2
charge: -1
Formula: C28H45NO8
SMILES: C[C@H](CCC(=O)N[C@@H](CC(=O)O)C(=O)O)[C@H]1CC[C@@H]2[C@@]1(CC[C@H]3[C@H]2[C@H]([C@H]([C@H]4[C@@]3(CC[C@H](C4)O)C)O)O)C
Method: HCD
Collision_energy: [28.333334]
Isolation_window: 4.0
Ion_mode: N
Num Peaks: 7
71.0131	9.0
88.0394	19.3
115.0029	10.7
407.2796	16.5
478.3186	9.1
522.3078	100.0
523.3129	29.8

Name: Astemizole
PrecursorMZ: 503.24573
RT: 7.6978
ExactMass: 458.24818979
Spectrum_type: 2
charge: -1
Formula: C28H31FN4O
SMILES: COC1=CC=C(C=C1)CCN2CCC(CC2)NC3=NC4=CC=CC=C4N3CC5=CC=C(C=C5)F
Method: HCD
Collision_energy: [28.333334]
Isolation_window: 4.0
Ion_mode: N
Num Peaks: 7
132.0445	9.8
247.1238	12.5
378.1610	32.7
379.1686	79.8
380.1729	23.6
503.2448	100.0
504.2471	34.3

Name: Atractylenolide Iii
PrecursorMZ: 247.13372
RT: 6.2744
ExactMass: 248.1412445
Spectrum_type: 2
charge: -1
Formula: C15H20O3
SMILES: CC1=C2C[C@H]3C(=C)CCC[C@@]3(C[C@@]2(OC1=O)O)C
Method: HCD
Collision_energy: [28.333334]
Isolation_window: 4.0
Ion_mode: N
Num Peaks: 7
161.0968	5.8
203.1437	100.0
204.1470	16.2
247.1338	58.5
248.0800	21.5
248.1372	10.2
248.5824	7.2

Name: Atranorin
PrecursorMZ: 373.09332
RT: 4.2628
ExactMass: 374.10016753
Spectrum_type: 2
charge: -1
Formula: C19H18O8
SMILES: CC1=CC(=C(C(=C1C(=O)OC2=C(C(=C(C(=C2)C)C(=O)OC)O)C)O)C=O)O
Method: HCD
Collision_energy: [28.333334]
Isolation_window: 4.0
Ion_mode: N
Num Peaks: 41
59.0129	2.8
96.0081	5.7
109.0287	2.2
112.0397	3.1
113.0348	3.4
121.0286	2.5
130.0865	2.8
133.0287	5.9
135.0446	2.7
139.0394	12.7
149.0237	100.0
149.0588	1.9
150.0317	24.3
151.0366	2.1
165.0552	2.4
177.0187	6.2
179.0342	2.1
193.0500	2.7
195.0660	10.2
249.0398	2.4
311.0923	10.3
312.0956	1.9
327.0872	3.4
329.1035	12.6
330.1047	2.8
337.1748	2.2
354.2036	4.0
355.2121	1.9
371.0768	2.4
371.1650	2.0
371.2073	2.5
372.1520	3.0
372.2118	3.1
373.0932	39.3
373.1342	2.0
373.1865	9.1
373.2242	4.9
374.0958	6.7
374.1326	2.6
375.1065	3.0
375.2004	4.7

Name: Aurantioobtusin
PrecursorMZ: 329.06604
RT: 6.2861
ExactMass: 330.07395278
Spectrum_type: 2
charge: -1
Formula: C17H14O7
SMILES: CC1=CC2=C(C(=C1O)OC)C(=O)C3=C(C(=C(C=C3C2=O)O)OC)O
Method: HCD
Collision_energy: [28.333334]
Isolation_window: 4.0
Ion_mode: N
Num Peaks: 7
271.0241	69.2
299.0191	51.2
314.0429	69.9
327.1824	41.6
329.0661	100.0
329.2323	32.0
330.0690	15.5

Name: Avocadene 4-acetate
PrecursorMZ: 327.25388
RT: 7.3204
ExactMass: 328.26135963
Spectrum_type: 2
charge: -1
Formula: C19H36O4
SMILES: CC(=O)OC(CCCCCCCCCCCC=C)CC(CO)O
Method: HCD
Collision_energy: [28.333334]
Isolation_window: 4.0
Ion_mode: N
Num Peaks: 12
183.0111	3.3
197.0269	2.5
241.1439	2.5
291.1963	2.6
295.2275	5.5
325.1841	65.8
326.0596	2.9
326.1874	100.0
327.1842	27.0
327.2534	49.6
328.1856	4.2
328.2569	9.4

Name: Axitinib
PrecursorMZ: 385.11317
RT: 3.7278
ExactMass: 386.12013238
Spectrum_type: 2
charge: -1
Formula: C22H18N4OS
SMILES: CNC(=O)C1=CC=CC=C1SC2=CC3=C(C=C2)C(=NN3)/C=C/C4=CC=CC=N4
Method: HCD
Collision_energy: [28.333334]
Isolation_window: 4.0
Ion_mode: N
Num Peaks: 14
59.0129	2.7
71.0127	4.5
85.0283	5.4
89.0233	2.7
91.0389	2.3
113.0232	6.2
121.0283	100.0
122.0316	7.8
173.0443	3.3
263.0766	24.9
264.0803	2.5
384.1786	2.6
385.1130	44.6
386.1169	9.4

Name: Azd-6482
PrecursorMZ: 407.17188
RT: 4.2074
ExactMass: 408.17975526
Spectrum_type: 2
charge: -1
Formula: C22H24N4O4
SMILES: CC1=CN2C(=O)C=C(N=C2C(=C1)[C@@H](C)NC3=CC=CC=C3C(=O)O)N4CCOCC4
Method: HCD
Collision_energy: [28.333334]
Isolation_window: 4.0
Ion_mode: N
Num Peaks: 13
97.3374	10.8
99.0441	16.7
114.0552	48.5
195.0654	40.9
202.0481	14.8
233.1177	19.4
295.1191	11.4
327.1329	13.4
363.1817	10.5
406.1544	13.4
407.1718	92.2
408.1693	18.2
409.1870	100.0

Name: Azuleno(5,6-c)furan-1(3H)-one, 4,4a,5,6,7,7a,8,9-octahydro-3,4,8-trihydroxy-6,6,8-trimethyl-
PrecursorMZ: 281.13951
RT: 3.0233
ExactMass: 282.1467238
Spectrum_type: 2
charge: -1
Formula: C15H22O5
SMILES: CC1(CC2C(C1)C(CC3=C(C2O)C(OC3=O)O)(C)O)C
Method: HCD
Collision_energy: [28.333334]
Isolation_window: 4.0
Ion_mode: N
Num Peaks: 11
57.0336	6.2
87.0078	7.2
123.0807	20.6
171.1173	24.9
189.1278	10.7
201.1279	12.1
207.1383	8.2
237.1494	46.9
238.1529	6.0
281.1395	100.0
282.1428	16.6

Name: BI-3406
PrecursorMZ: 461.18011
RT: 4.8762
ExactMass: 462.18787516
Spectrum_type: 2
charge: -1
Formula: C23H25F3N4O3
SMILES: CC1=NC2=CC(=C(C=C2C(=N1)N[C@H](C)C3=CC(=CC(=C3)N)C(F)(F)F)O[C@H]4CCOC4)OC
Method: HCD
Collision_energy: [28.333334]
Isolation_window: 4.0
Ion_mode: N
Num Peaks: 10
51.2435	4.4
85.0282	2.9
87.0439	9.0
101.0231	27.1
253.1224	5.9
301.1433	36.9
302.1474	6.3
461.1805	100.0
462.1831	26.7
463.1814	3.3

Name: BI-6C9
PrecursorMZ: 470.12148
RT: 10.556000000000001
ExactMass: 471.12864863
Spectrum_type: 2
charge: -1
Formula: C23H25N3O4S2
SMILES: COC1=CC=C(C=C1)S(=O)(=O)NCCCC(=O)NC2=CC=C(C=C2)SC3=CC=C(C=C3)N
Method: HCD
Collision_energy: [28.333334]
Isolation_window: 4.0
Ion_mode: N
Num Peaks: 5
160.8414	100.0
162.8385	54.3
470.1218	72.5
471.1252	17.5
472.1193	49.0

Name: Bacosine
PrecursorMZ: 455.35321
RT: 9.9838
ExactMass: 456.36034539
Spectrum_type: 2
charge: -1
Formula: C30H48O3
SMILES: CC(=C)[C@@H]1CC[C@]2([C@H]1[C@H]3CC[C@@H]4[C@]5(CC[C@H](C([C@@H]5CC[C@]4([C@@]3(CC2)C(=O)O)C)(C)C)O)C)C
Method: HCD
Collision_energy: [28.333334]
Isolation_window: 4.0
Ion_mode: N
Num Peaks: 7
50.5960	4.5
99.0078	9.4
453.3407	4.5
454.3421	4.0
455.3532	100.0
456.3567	31.9
457.3691	25.6

Name: Balicatib
PrecursorMZ: 410.25641
RT: 6.268
ExactMass: 411.26342531
Spectrum_type: 2
charge: -1
Formula: C23H33N5O2
SMILES: CCCN1CCN(CC1)C2=CC=C(C=C2)C(=O)NC3(CCCCC3)C(=O)NCC#N
Method: HCD
Collision_energy: [28.333334]
Isolation_window: 4.0
Ion_mode: N
Num Peaks: 4
392.2454	22.0
393.2485	6.4
410.2562	100.0
411.2598	24.7

Name: Barbatic acid
PrecursorMZ: 359.11271
RT: 3.8817666666666666
ExactMass: 360.12090297
Spectrum_type: 2
charge: -1
Formula: C19H20O7
SMILES: CC1=CC(=C(C(=C1C(=O)OC2=C(C(=C(C(=C2)C)C(=O)O)O)C)O)C)OC
Method: HCD
Collision_energy: [28.333334]
Isolation_window: 4.0
Ion_mode: N
Num Peaks: 37
81.0334	4.1
109.0284	5.1
119.0491	16.5
123.0440	100.0
124.0473	7.8
130.0865	8.4
134.0361	5.5
135.0440	21.5
136.0154	11.9
145.0648	59.5
146.0684	6.4
149.0597	5.4
151.0390	48.8
165.0548	8.9
177.0544	6.5
193.0496	17.0
235.0780	5.1
243.0656	17.6
249.0400	7.3
265.0867	4.3
270.0894	7.1
285.1123	18.0
297.1122	20.6
298.1159	4.7
302.1151	21.7
311.0917	9.0
315.1231	92.0
316.1263	18.9
317.1367	6.2
331.0815	5.6
343.0826	7.0
358.1412	4.6
359.1132	80.9
359.2062	5.6
360.1145	19.7
361.0917	5.8
361.1297	38.7

Name: Beijinchrome D
PrecursorMZ: 257.08179
RT: 5.229
ExactMass: 258.08920892
Spectrum_type: 2
charge: -1
Formula: C15H14O4
SMILES: CC(=O)C1=C(C=C2C=CC=C3C2=C1CC(O3)(C)O)O
Method: HCD
Collision_energy: [28.333334]
Isolation_window: 4.0
Ion_mode: N
Num Peaks: 14
59.0128	1.0
93.0336	26.4
94.0370	1.4
107.0493	9.1
195.0809	1.0
197.0600	2.7
211.0757	1.9
213.0915	100.0
214.0949	14.5
255.1596	0.9
257.0817	17.0
257.1304	1.8
257.1748	2.2
258.0856	2.4

Name: Bellericagenin B
PrecursorMZ: 565.33881
RT: 6.5761
ExactMass: 520.34000387
Spectrum_type: 2
charge: -1
Formula: C30H48O7
SMILES: C[C@@]12CCC3[C@@](C1CC=C4[C@]2(CC[C@@]5(C4[C@@H](C(CC5)(C)C)O)C(=O)O)C)(C[C@H]([C@@H](C3(CO)CO)O)O)C
Method: HCD
Collision_energy: [28.333334]
Isolation_window: 4.0
Ion_mode: N
Num Peaks: 6
61.9875	100.0
519.3342	46.3
520.3377	14.8
521.3494	22.4
565.3399	14.1
566.3148	14.6

Name: Bensulfuron-methyl
PrecursorMZ: 409.08169
RT: 0.8971
ExactMass: 410.0896201
Spectrum_type: 2
charge: -1
Formula: C16H18N4O7S
SMILES: COC1=CC(=NC(=N1)NC(=O)NS(=O)(=O)CC2=CC=CC=C2C(=O)OC)OC
Method: HCD
Collision_energy: [28.333334]
Isolation_window: 4.0
Ion_mode: N
Num Peaks: 9
79.9565	5.5
96.9593	65.1
241.0031	6.0
331.1193	5.9
394.0577	10.0
409.0815	100.0
410.0855	19.3
411.0771	23.4
411.2055	18.7

Name: Benzenesulfonic Acid
PrecursorMZ: 156.99597
RT: 0.8853
ExactMass: 158.00376522
Spectrum_type: 2
charge: -1
Formula: C6H6O3S
SMILES: C1=CC=C(C=C1)S(=O)(=O)O
Method: HCD
Collision_energy: [28.333334]
Isolation_window: 4.0
Ion_mode: N
Num Peaks: 8
79.9564	3.7
89.0236	5.3
93.0338	5.6
114.0553	4.2
130.9830	5.8
156.9960	100.0
157.9996	6.8
158.9915	2.4

Name: Benzoate
PrecursorMZ: 121.02851
RT: 1.5961
ExactMass: 121.028954398
Spectrum_type: 2
charge: -1
Formula: C7H5O2-
SMILES: C1=CC=C(C=C1)C(=O)[O-]
Method: HCD
Collision_energy: [28.333334]
Isolation_window: 4.0
Ion_mode: N
Num Peaks: 3
93.0335	44.3
121.0282	100.0
122.0349	65.6

Name: Benzylsuccinic acid
PrecursorMZ: 207.06583
RT: 3.3444
ExactMass: 208.07355886
Spectrum_type: 2
charge: -1
Formula: C11H12O4
SMILES: C1=CC=C(C=C1)CC(CC(=O)O)C(=O)O
Method: HCD
Collision_energy: [28.333334]
Isolation_window: 4.0
Ion_mode: N
Num Peaks: 14
99.0078	12.9
107.0493	12.7
118.9922	8.9
137.0604	3.2
147.0808	3.9
162.0678	3.6
162.9822	21.4
163.0757	100.0
164.0792	10.1
189.0550	10.7
206.9724	6.7
207.0131	3.9
207.0659	73.2
208.0695	8.3

Name: Beta-Cortol
PrecursorMZ: 413.25476
RT: 4.8206
ExactMass: 368.25627424
Spectrum_type: 2
charge: -1
Formula: C21H36O5
SMILES: C[C@]12CC[C@H](C[C@H]1CC[C@@H]3[C@@H]2[C@H](C[C@]4([C@H]3CC[C@@]4([C@@H](CO)O)O)C)O)O
Method: HCD
Collision_energy: [28.333334]
Isolation_window: 4.0
Ion_mode: N
Num Peaks: 3
367.2483	11.8
413.2546	100.0
414.2575	25.7

Name: Betamethasone Dipropionate
PrecursorMZ: 549.25073
RT: 5.9528
ExactMass: 504.25233168
Spectrum_type: 2
charge: -1
Formula: C28H37FO7
SMILES: CCC(=O)OCC(=O)[C@]1([C@H](C[C@@H]2[C@@]1(C[C@@H]([C@]3([C@H]2CCC4=CC(=O)C=C[C@@]43C)F)O)C)C)OC(=O)CC
Method: HCD
Collision_energy: [28.333334]
Isolation_window: 4.0
Ion_mode: N
Num Peaks: 5
61.0295	5.2
96.9587	3.0
549.2489	100.0
550.2523	28.2
551.2958	41.6

Name: Betamethasone Valerate
PrecursorMZ: 521.25551
RT: 8.56
ExactMass: 476.25741706
Spectrum_type: 2
charge: -1
Formula: C27H37FO6
SMILES: CCCCC(=O)O[C@@]1([C@H](C[C@@H]2[C@@]1(C[C@@H]([C@]3([C@H]2CCC4=CC(=O)C=C[C@@]43C)F)O)C)C)C(=O)CO
Method: HCD
Collision_energy: [28.333334]
Isolation_window: 4.0
Ion_mode: N
Num Peaks: 20
57.9190	4.2
61.9872	12.6
79.9560	64.8
80.9638	14.1
165.0542	16.5
245.0106	4.8
431.2239	34.0
432.2271	7.6
441.2993	8.8
449.2332	3.2
475.2129	4.9
475.3823	3.7
477.2274	8.9
493.2232	5.5
519.3091	3.6
521.2550	100.0
521.3256	7.2
522.2582	27.5
523.2501	3.3
523.2616	8.4

Name: Biliverdine Ix Alpha
PrecursorMZ: 581.24069
RT: 6.55735
ExactMass: 582.24783482
Spectrum_type: 2
charge: -1
Formula: C33H34N4O6
SMILES: CC\1=C(/C(=C/C2=C(C(=C(N2)/C=C\3/C(=C(C(=O)N3)C)C=C)C)CCC(=O)O)/N/C1=C\C4=NC(=O)C(=C4C)C=C)CCC(=O)O
Method: HCD
Collision_energy: [28.333334]
Isolation_window: 4.0
Ion_mode: N
Num Peaks: 11
122.0602	6.4
213.1028	13.7
239.1187	55.4
240.1222	7.4
241.1344	22.9
285.1244	100.0
286.1276	16.2
537.2507	39.2
538.2551	15.3
581.2383	13.3
582.2434	6.6

Name: Bis(2-ethylhexyl) phosphate
PrecursorMZ: 321.22006
RT: 7.9087
ExactMass: 322.22729659
Spectrum_type: 2
charge: -1
Formula: C16H35O4P
SMILES: CCCCC(CC)COP(=O)(O)OCC(CC)CCCC
Method: HCD
Collision_energy: [28.333334]
Isolation_window: 4.0
Ion_mode: N
Num Peaks: 5
78.9581	48.2
80.9642	3.4
209.0943	13.3
321.2199	100.0
322.2232	16.4

Name: Bis(2-methylpropyl)phosphinodithioic acid
PrecursorMZ: 209.05938
RT: 6.102
ExactMass: 210.06657995
Spectrum_type: 2
charge: -1
Formula: C8H19PS2
SMILES: CC(C)CP(=S)(CC(C)C)S
Method: HCD
Collision_energy: [28.333334]
Isolation_window: 4.0
Ion_mode: N
Num Peaks: 6
61.9872	11.9
103.9188	8.2
163.9275	3.4
208.0671	3.9
209.0594	100.0
210.0626	15.6

Name: Bis(4-methoxybenzylidene)acetone
PrecursorMZ: 293.11848
RT: 6.2342625
ExactMass: 294.125594432
Spectrum_type: 2
charge: -1
Formula: C19H18O3
SMILES: COC1=CC=C(C=C1)/C=C/C(=O)/C=C/C2=CC=C(C=C2)OC
Method: HCD
Collision_energy: [28.333334]
Isolation_window: 4.0
Ion_mode: N
Num Peaks: 12
71.0130	7.4
83.0493	17.4
220.1465	24.3
221.1542	72.5
222.1578	9.7
236.1052	81.4
237.1087	11.4
277.1084	4.2
293.1185	100.0
293.1729	22.9
294.1217	18.8
294.1753	4.1

Name: Blennin B
PrecursorMZ: 309.13439
RT: 4.966966666666666
ExactMass: 264.13615911
Spectrum_type: 2
charge: -1
Formula: C15H20O4
SMILES: CC1=C2CC(CC2C(C3=C(C1)C(=O)OC3O)O)(C)C
Method: HCD
Collision_energy: [28.333334]
Isolation_window: 4.0
Ion_mode: N
Num Peaks: 8
59.0129	100.0
161.1327	12.4
205.1228	41.8
206.1262	7.0
249.1486	5.3
267.1599	6.4
309.1357	7.8
311.1489	17.4

Name: Blumeatin
PrecursorMZ: 301.07206
RT: 6.25385
ExactMass: 302.07903816
Spectrum_type: 2
charge: -1
Formula: C16H14O6
SMILES: COC1=CC(=C2C(=O)C[C@H](OC2=C1)C3=CC(=CC(=C3)O)O)O
Method: HCD
Collision_energy: [28.333334]
Isolation_window: 4.0
Ion_mode: N
Num Peaks: 22
108.0208	1.4
109.0286	3.1
122.0365	4.5
123.0450	1.2
135.0444	33.8
136.0477	2.5
137.0237	1.4
154.0262	1.6
161.0240	1.1
165.0187	21.5
166.0219	1.5
299.1662	4.8
299.2586	1.3
300.1685	1.8
301.0727	16.6
301.1143	1.5
301.1447	100.0
301.1750	4.7
302.0761	2.8
302.1481	19.1
302.1791	1.0
303.1505	1.3

Name: Bonactin
PrecursorMZ: 399.23872
RT: 6.0771
ExactMass: 400.24610348
Spectrum_type: 2
charge: -1
Formula: C21H36O7
SMILES: CCC(CC1CCC(O1)C(C)C(=O)OC(C)CC2CCC(O2)C(C)C(=O)O)O
Method: HCD
Collision_energy: [28.333334]
Isolation_window: 4.0
Ion_mode: N
Num Peaks: 3
381.2275	28.6
399.2391	100.0
400.2425	26.5

Name: Bonannione A
PrecursorMZ: 407.18825
RT: 4.0083
ExactMass: 408.19367399
Spectrum_type: 2
charge: -1
Formula: C25H28O5
SMILES: CC(=CCC/C(=C/CC1=C(C2=C(C=C1O)O[C@@H](CC2=O)C3=CC=C(C=C3)O)O)/C)C
Method: HCD
Collision_energy: [28.333334]
Isolation_window: 4.0
Ion_mode: N
Num Peaks: 3
406.1917	22.4
407.1884	100.0
408.1911	20.9

Name: Bonanzin
PrecursorMZ: 373.0921
RT: 4.4014
ExactMass: 374.10016753
Spectrum_type: 2
charge: -1
Formula: C19H18O8
SMILES: COC1=C(C=C(C=C1)C2=C(C(=O)C3=C(O2)C=C(C(=C3O)OC)O)OC)OC
Method: HCD
Collision_energy: [28.333334]
Isolation_window: 4.0
Ion_mode: N
Num Peaks: 8
139.0389	13.7
149.0232	100.0
150.0313	26.3
195.0655	9.7
311.0924	10.5
329.1028	13.2
373.0923	41.8
374.0964	9.5

Name: Bornyl ferulate
PrecursorMZ: 329.17572
RT: 8.4122
ExactMass: 330.18310931
Spectrum_type: 2
charge: -1
Formula: C20H26O4
SMILES: CC1(C2CCC1(C(C2)OC(=O)/C=C/C3=CC(=C(C=C3)O)OC)C)C
Method: HCD
Collision_energy: [28.333334]
Isolation_window: 4.0
Ion_mode: N
Num Peaks: 4
314.1523	50.1
315.1558	10.3
329.1756	100.0
330.1785	22.8

Name: Bourgeanic acid
PrecursorMZ: 421.27135
RT: 5.8097
ExactMass: 386.30322444
Spectrum_type: 2
charge: -1
Formula: C22H42O5
SMILES: CC[C@@H](C)C[C@@H](C)[C@@H]([C@H](C)C(=O)O[C@@H]([C@H](C)C[C@H](C)CC)[C@H](C)C(=O)O)O
Method: HCD
Collision_energy: [28.333334]
Isolation_window: 4.0
Ion_mode: N
Num Peaks: 5
157.0973	23.0
209.1291	46.3
245.1906	14.9
359.2702	100.0
375.2653	41.4

Name: Brassinolide
PrecursorMZ: 525.34382
RT: 5.0412
ExactMass: 480.34508925
Spectrum_type: 2
charge: -1
Formula: C28H48O6
SMILES: C[C@@H]([C@H]1CC[C@@H]2[C@@]1(CC[C@H]3[C@H]2COC(=O)[C@@H]4[C@@]3(C[C@H]([C@H](C4)O)O)C)C)[C@H]([C@@H]([C@@H](C)C(C)C)O)O
Method: HCD
Collision_energy: [28.333334]
Isolation_window: 4.0
Ion_mode: N
Num Peaks: 8
113.0347	66.5
127.0503	56.1
479.3348	68.0
481.3499	62.6
524.2653	60.2
525.3545	100.0
526.1956	55.4
527.3591	95.0

Name: Breynioside A
PrecursorMZ: 391.10367
RT: 4.4137
ExactMass: 392.11073221
Spectrum_type: 2
charge: -1
Formula: C19H20O9
SMILES: C1=CC(=CC=C1C(=O)OC[C@@H]2[C@H]([C@@H]([C@H]([C@@H](O2)OC3=CC=C(C=C3)O)O)O)O)O
Method: HCD
Collision_energy: [28.333334]
Isolation_window: 4.0
Ion_mode: N
Num Peaks: 16
97.0285	100.0
101.0234	20.1
111.0441	23.0
119.0492	35.1
147.0443	27.3
179.0704	35.3
197.0811	36.0
257.0820	38.3
285.0763	46.4
315.0877	64.0
345.1709	20.2
347.1135	70.8
391.1026	97.0
391.1849	25.3
391.2712	28.7
392.1048	21.6

Name: Buchanaxanthone
PrecursorMZ: 257.04555
RT: 5.5253
ExactMass: 258.05282342
Spectrum_type: 2
charge: -1
Formula: C14H10O5
SMILES: COC1=C(C=CC2=C1OC3=CC=CC(=C3C2=O)O)O
Method: HCD
Collision_energy: [28.333334]
Isolation_window: 4.0
Ion_mode: N
Num Peaks: 7
210.9490	6.2
213.0554	3.3
228.9598	6.1
255.1046	4.7
257.0454	100.0
257.1275	3.0
258.0489	14.7

Name: Budesonide
PrecursorMZ: 475.23335
RT: 5.421166666666666
ExactMass: 430.2355388
Spectrum_type: 2
charge: -1
Formula: C25H34O6
SMILES: CCCC1O[C@@H]2C[C@H]3[C@@H]4CCC5=CC(=O)C=C[C@@]5([C@H]4[C@H](C[C@@]3([C@@]2(O1)C(=O)CO)C)O)C
Method: HCD
Collision_energy: [28.333334]
Isolation_window: 4.0
Ion_mode: N
Num Peaks: 7
59.0129	76.0
95.0492	15.8
113.0599	37.0
243.1024	14.5
457.2217	12.9
475.2334	100.0
476.2363	22.1

Name: Butanoic acid, 2-methyl-, (3aS,6R,7S,8S,8aR)-octahydro-7-hydroxy-6-methyl-3-methylene-2,5-dioxo-7-((2E)-1-oxo-2-buten-1-yl)-2H-cyclohepta(b)furan-8-yl ester
PrecursorMZ: 377.16117
RT: 3.715
ExactMass: 378.16785316
Spectrum_type: 2
charge: -1
Formula: C20H26O7
SMILES: CCC(C)C(=O)O[C@H]1[C@H]2[C@@H](CC(=O)[C@@H]([C@]1(C(=O)/C=C/C)O)C)C(=C)C(=O)O2
Method: HCD
Collision_energy: [28.333334]
Isolation_window: 4.0
Ion_mode: N
Num Peaks: 18
99.0443	4.8
114.0551	5.0
125.0599	3.3
179.0706	8.2
195.0656	10.2
197.0815	14.3
233.1178	4.8
237.1127	4.4
277.1085	2.6
277.1420	2.9
295.1186	2.9
359.1496	2.9
361.2021	15.6
377.1605	26.7
377.1991	24.0
378.1637	5.7
378.2028	6.4
379.2134	100.0

Name: Butyl 4-((3,4-dimethoxybenzoyl)amino)benzoate
PrecursorMZ: 356.15052
RT: 6.327
ExactMass: 357.15762283
Spectrum_type: 2
charge: -1
Formula: C20H23NO5
SMILES: CCCCOC(=O)C1=CC=C(C=C1)NC(=O)C2=CC(=C(C=C2)OC)OC
Method: HCD
Collision_energy: [28.333334]
Isolation_window: 4.0
Ion_mode: N
Num Peaks: 8
254.0461	16.9
269.0689	44.1
284.0928	54.1
326.1038	18.0
341.1270	34.2
355.1964	16.6
356.1508	100.0
357.1529	20.5

Name: Butylparaben
PrecursorMZ: 193.08649
RT: 6.20006
ExactMass: 194.094294304
Spectrum_type: 2
charge: -1
Formula: C11H14O3
SMILES: CCCCOC(=O)C1=CC=C(C=C1)O
Method: HCD
Collision_energy: [28.333334]
Isolation_window: 4.0
Ion_mode: N
Num Peaks: 4
90.9326	6.2
102.9480	5.0
193.0865	100.0
194.0898	11.1

Name: Butyrolactone Ii
PrecursorMZ: 355.08248
RT: 6.8473
ExactMass: 356.08960285
Spectrum_type: 2
charge: -1
Formula: C19H16O7
SMILES: COC(=O)[C@]1(C(=C(C(=O)O1)O)C2=CC=C(C=C2)O)CC3=CC=C(C=C3)O
Method: HCD
Collision_energy: [28.333334]
Isolation_window: 4.0
Ion_mode: N
Num Peaks: 15
109.0287	2.6
121.0285	2.7
133.0287	4.7
133.0654	2.3
137.0236	2.8
149.0237	4.4
159.0443	2.7
177.0188	15.0
177.0547	4.3
202.0267	2.3
205.0499	4.3
327.0875	7.5
355.0826	100.0
356.0864	24.1
357.0940	4.1

PrecursorMZ: 361.15014
RT: 4.3179
ExactMass: 362.1576824
Spectrum_type: 2
charge: -1
Formula: C16H26O9
SMILES: CC1=C(C(CC1)C(CO)C(=O)O)COC2C(C(C(C(O2)CO)O)O)O
Method: HCD
Collision_energy: [28.333334]
Isolation_window: 4.0
Ion_mode: N
Num Peaks: 5
83.0493	100.0
127.0392	13.6
145.0499	26.5
233.1025	29.6
361.1505	68.3

PrecursorMZ: 361.16465
RT: 5.9392
ExactMass: 362.17293854
Spectrum_type: 2
charge: -1
Formula: C20H26O6
SMILES: CC1CCC23COC(=O)C2=CC(CC3C1(C)CCC4=CC(=O)OC4O)O
Method: HCD
Collision_energy: [28.333334]
Isolation_window: 4.0
Ion_mode: N
Num Peaks: 34
69.0083	1.8
74.0057	4.1
79.9560	19.1
81.9519	1.4
83.0490	1.6
95.0489	11.8
133.0646	1.4
136.0059	3.3
209.1282	35.5
210.1315	5.8
215.1277	2.6
221.1283	10.1
222.1315	1.9
243.1741	1.5
245.1898	7.5
246.1939	2.2
255.1742	28.0
256.1773	4.4
273.1845	1.5
283.1440	1.9
297.2058	2.9
299.1641	7.1
300.1671	1.4
317.1752	1.5
343.1537	100.0
344.1571	20.0
345.1600	1.7
359.1921	6.3
359.2691	29.6
360.1918	2.6
360.2732	12.3
361.1642	31.3
361.2743	1.7
362.1669	7.3

PrecursorMZ: 394.33292
RT: 9.8447
Spectrum_type: 2
charge: -1
SMILES: CCCCCCCC/C=C\CCCCCCCC(=O)N[C@@H]([C@@H](C)CC)C(=O)O
Method: HCD
Collision_energy: [28.333334]
Isolation_window: 4.0
Ion_mode: N
Num Peaks: 11
61.9874	4.9
125.0236	8.0
130.0865	100.0
131.0900	6.1
350.3431	7.3
351.3476	1.7
392.3196	4.3
393.3282	2.7
394.3329	81.6
395.3369	19.8
396.3412	2.0

Name: CDDO-dhTFEA
PrecursorMZ: 573.33142
RT: 8.0595
ExactMass: 574.33822779
Spectrum_type: 2
charge: -1
Formula: C33H45F3N2O3
SMILES: C[C@@]12CC[C@@H]3[C@@]([C@H]1CC(=O)[C@H]4[C@]2(CC[C@@]5([C@H]4CC(CC5)(C)C)C(=O)NCC(F)(F)F)C)(C=C(C(=O)C3(C)C)C#N)C
Method: HCD
Collision_energy: [28.333334]
Isolation_window: 4.0
Ion_mode: N
Num Peaks: 5
63.7055	4.3
96.9593	15.9
573.3320	100.0
574.3353	24.9
575.3335	6.2

Name: CU-Cpt22
PrecursorMZ: 361.12943
RT: 3.9256
ExactMass: 362.13655304
Spectrum_type: 2
charge: -1
Formula: C19H22O7
SMILES: CCCCCCOC(=O)C1=CC(=O)C(=C2C(=C1)C=C(C(=C2O)O)OC)O
Method: HCD
Collision_energy: [28.333334]
Isolation_window: 4.0
Ion_mode: N
Num Peaks: 42
59.0129	3.0
121.0285	4.1
122.0368	2.0
123.0442	2.9
135.0442	2.4
148.0522	1.2
161.0599	1.5
162.0678	1.2
164.0471	2.6
165.0549	4.9
171.1019	1.3
175.0761	1.1
177.0915	1.3
179.0707	5.8
201.1123	1.8
221.0812	1.2
239.0916	1.2
259.0974	3.0
268.0736	2.3
271.0973	26.2
272.1009	4.2
283.0971	9.4
284.1016	2.3
285.1124	1.7
289.1076	3.1
301.1079	15.5
302.1115	2.6
313.1081	2.8
315.1235	6.0
316.1266	3.0
325.1078	2.4
331.1185	5.0
332.1223	1.2
343.1185	9.8
344.1218	2.0
359.2073	4.9
360.2103	1.3
361.1291	100.0
361.2222	11.5
362.1323	18.4
362.2259	1.9
363.1382	1.8

Name: Caesalpin J
PrecursorMZ: 315.08639
RT: 4.1983
ExactMass: 316.09468823
Spectrum_type: 2
charge: -1
Formula: C17H16O6
SMILES: COC1C2(CC3=CC(=C(C=C3C14C=CC(=O)C=C4OC2)O)O)O
Method: HCD
Collision_energy: [28.333334]
Isolation_window: 4.0
Ion_mode: N
Num Peaks: 25
88.0392	3.1
109.0283	35.9
135.0440	11.0
142.0861	5.5
146.0361	6.4
151.0390	3.5
161.0239	2.9
161.0597	100.0
162.0631	9.7
163.0391	2.4
171.0765	2.4
179.0338	10.7
186.0762	3.9
205.0496	13.3
253.0861	2.9
255.1132	2.2
269.1499	2.8
271.0962	4.8
273.1257	2.3
313.1753	4.3
315.0866	29.9
315.1833	4.7
316.0879	5.3
316.1271	5.9
317.1079	2.8

Name: Canellin E
PrecursorMZ: 401.16111
RT: 8.0389
ExactMass: 402.16785316
Spectrum_type: 2
charge: -1
Formula: C22H26O7
SMILES: C[C@H]1[C@@H](OC2=C(C(=O)[C@@H](C[C@]12CC=C)OC)OC)C3=CC4=C(C(=C3)OC)OCO4
Method: HCD
Collision_energy: [28.333334]
Isolation_window: 4.0
Ion_mode: N
Num Peaks: 19
109.0287	28.6
198.1854	3.9
247.1341	20.6
247.1703	3.4
248.1381	3.6
277.1814	5.6
293.2233	5.9
339.1606	17.9
357.1712	37.9
358.1740	9.3
365.1391	4.5
383.1507	20.6
384.1553	4.4
401.1610	100.0
401.2332	7.9
402.1647	24.7
402.2248	3.4
402.2708	5.3
403.2508	35.3

Name: Caprine
PrecursorMZ: 130.0864
RT: 2.7343
ExactMass: 131.094628657
Spectrum_type: 2
charge: -1
Formula: C6H13NO2
SMILES: CCCC[C@@H](C(=O)O)N
Method: HCD
Collision_energy: [28.333334]
Isolation_window: 4.0
Ion_mode: N
Num Peaks: 9
65.0135	7.0
69.0336	6.7
85.0285	5.2
85.0650	9.3
87.0442	100.0
113.0234	8.7
130.0404	17.9
130.0865	33.0
131.0348	35.9

Name: Card-20(22)-enolide, 1,3-bis(acetyloxy)-14,15-epoxy-7,21-dihydroxy-4,4,8-trimethyl-, (1alpha,3alpha,7alpha,9xi,13alpha,15beta,17alpha)-
PrecursorMZ: 545.27594
RT: 9.0019
ExactMass: 546.28288291
Spectrum_type: 2
charge: -1
Formula: C30H42O9
SMILES: CC(=O)O[C@H]1C[C@H](C(C2[C@]1(C3CC[C@]4([C@@H](C[C@@H]5[C@@]4([C@@]3([C@@H](C2)O)C)O5)C6=CC(=O)OC6O)C)C)(C)C)OC(=O)C
Method: HCD
Collision_energy: [28.333334]
Isolation_window: 4.0
Ion_mode: N
Num Peaks: 5
69.2279	18.4
69.2750	17.4
69.2964	17.8
111.0079	85.8
163.0758	100.0

Name: Card-20(22)-enolide, 3-(beta-D-glucopyranosyloxy)-5,14-dihydroxy-, (3alpha,5beta,8xi,9xi)-
PrecursorMZ: 551.28615
RT: 5.4052
ExactMass: 552.2934476
Spectrum_type: 2
charge: -1
Formula: C29H44O10
SMILES: C[C@]12CCC3C([C@]1(CC[C@@H]2C4=CC(=O)OC4)O)CC[C@]5([C@@]3(CC[C@H](C5)O[C@H]6[C@@H]([C@H]([C@@H]([C@H](O6)CO)O)O)O)C)O
Method: HCD
Collision_energy: [28.333334]
Isolation_window: 4.0
Ion_mode: N
Num Peaks: 5
61.9875	55.2
73.0285	74.1
143.0704	74.1
505.2795	100.0
551.2843	66.5

Name: Carviolin
PrecursorMZ: 299.05601
RT: 6.0882
ExactMass: 300.0633881
Spectrum_type: 2
charge: -1
Formula: C16H12O6
SMILES: COC1=CC(=CC2=C1C(=O)C3=C(C2=O)C=C(C=C3O)O)CO
Method: HCD
Collision_energy: [28.333334]
Isolation_window: 4.0
Ion_mode: N
Num Peaks: 7
253.1805	4.3
284.0324	39.3
285.0360	6.2
297.1503	6.1
298.1453	6.7
299.0557	100.0
300.0591	17.1

Name: Catechol
PrecursorMZ: 109.02863
RT: 2.6393
ExactMass: 110.03677943
Spectrum_type: 2
charge: -1
Formula: C6H6O2
SMILES: C1=CC=C(C(=C1)O)O
Method: HCD
Collision_energy: [28.333334]
Isolation_window: 4.0
Ion_mode: N
Num Peaks: 15
58.0289	2.0
65.0136	11.9
65.9976	5.2
67.0292	20.9
68.0132	3.2
79.0291	1.9
81.0337	1.9
82.0289	6.0
91.0179	1.5
107.0245	1.4
107.0355	3.8
108.0206	12.7
109.0286	100.0
109.0393	9.2
110.0315	6.4

Name: Ccpa
PrecursorMZ: 368.11269
RT: 8.7354
ExactMass: 369.1203818
Spectrum_type: 2
charge: -1
Formula: C15H20ClN5O4
SMILES: C1CCC(C1)NC2=C3C(=NC(=N2)Cl)N(C=N3)[C@H]4[C@@H]([C@@H]([C@H](O4)CO)O)O
Method: HCD
Collision_energy: [28.333334]
Isolation_window: 4.0
Ion_mode: N
Num Peaks: 5
334.1078	17.9
351.1113	13.5
367.2302	13.8
368.1129	100.0
369.1167	19.0

Name: Cellobiose
PrecursorMZ: 341.10719
RT: 0.8675
ExactMass: 342.11621151
Spectrum_type: 2
charge: -1
Formula: C12H22O11
SMILES: C([C@@H]1[C@H]([C@@H]([C@H]([C@@H](O1)O[C@@H]2[C@H](OC([C@@H]([C@H]2O)O)O)CO)O)O)O)O
Method: HCD
Collision_energy: [28.333334]
Isolation_window: 4.0
Ion_mode: N
Num Peaks: 10
59.0127	32.0
71.0126	64.3
73.0282	37.6
89.0230	62.2
97.0281	41.8
101.0230	100.0
113.0230	21.4
143.0337	25.0
161.0442	83.3
179.0547	35.1

Name: Centaureidin
PrecursorMZ: 359.07749
RT: 4.1359
ExactMass: 360.08451746
Spectrum_type: 2
charge: -1
Formula: C18H16O8
SMILES: COC1=C(C=C(C=C1)C2=C(C(=O)C3=C(O2)C=C(C(=C3O)OC)O)OC)O
Method: HCD
Collision_energy: [28.333334]
Isolation_window: 4.0
Ion_mode: N
Num Peaks: 42
59.0129	7.3
134.0605	4.9
135.0443	8.6
146.0603	14.2
148.0760	4.6
150.0915	6.7
197.1173	4.1
215.1183	6.4
227.0823	20.2
228.0426	5.5
241.0509	6.2
241.0985	5.6
242.0580	5.2
243.1134	21.8
243.1486	6.5
253.0865	4.2
269.0815	5.0
271.0977	10.9
271.1445	11.7
283.1089	4.5
286.0480	8.0
287.1404	8.6
300.0638	21.3
300.1112	8.9
314.1053	4.7
315.0878	47.8
315.1348	100.0
316.0902	8.3
316.1380	21.5
329.1028	21.0
330.1068	4.7
341.1029	7.8
357.1961	6.6
358.0982	5.2
359.0772	21.7
359.1234	60.3
359.1698	6.5
359.2080	20.7
360.0805	4.0
360.1268	11.4
361.1313	4.5
361.2234	10.6

Name: Centrolobol
PrecursorMZ: 299.16531
RT: 5.9409
ExactMass: 300.17254462
Spectrum_type: 2
charge: -1
Formula: C19H24O3
SMILES: C1=CC(=CC=C1CCCC[C@H](CCC2=CC=C(C=C2)O)O)O
Method: HCD
Collision_energy: [28.333334]
Isolation_window: 4.0
Ion_mode: N
Num Peaks: 27
93.0335	1.1
106.0415	0.9
107.0493	1.6
109.0286	1.2
119.0490	1.0
121.0649	3.1
147.0808	5.5
148.0843	1.1
149.0600	6.5
150.0633	1.0
177.0915	4.5
189.0553	0.7
191.1072	1.9
253.1235	1.3
254.1266	1.3
269.1761	1.4
297.1137	4.1
297.1502	15.3
298.1165	5.0
298.1527	8.1
299.0561	3.0
299.1289	35.9
299.1650	100.0
299.2582	1.4
300.1320	7.0
300.1684	20.1
301.1710	1.7

Name: Cer(d18:1/17:0)
PrecursorMZ: 596.52628
RT: 11.5488
ExactMass: 551.52774506
Spectrum_type: 2
charge: -1
Formula: C35H69NO3
SMILES: CCCCCCCCCCCCCCCCC(=O)N[C@@H](CO)[C@@H](/C=C/CCCCCCCCCCCCC)O
Method: HCD
Collision_energy: [28.333334]
Isolation_window: 4.0
Ion_mode: N
Num Peaks: 4
294.2800	17.6
550.5204	100.0
551.5237	36.3
552.5358	37.2

Name: Ceramide (Brain, Porcine)
PrecursorMZ: 624.55455
RT: 11.8854
ExactMass: 565.54339513
Spectrum_type: 2
charge: -1
Formula: C36H71NO3
SMILES: CCCCCCCCCCCCCCCCCC(=O)NC(CO)C(/C=C/CCCCCCCCCCCCC)O
Method: HCD
Collision_energy: [28.333334]
Isolation_window: 4.0
Ion_mode: N
Num Peaks: 4
69.0114	19.5
306.2788	22.4
578.5497	100.0
579.5543	35.7

Name: Cerulenin
PrecursorMZ: 222.11325
RT: 5.512
ExactMass: 223.1208434
Spectrum_type: 2
charge: -1
Formula: C12H17NO3
SMILES: C/C=C/C/C=C/CCC(=O)[C@@H]1[C@@H](O1)C(=O)N
Method: HCD
Collision_energy: [28.333334]
Isolation_window: 4.0
Ion_mode: N
Num Peaks: 5
179.1073	8.7
195.1021	13.0
222.1132	100.0
223.0966	10.6
223.1168	11.9

Name: Cetirizine
PrecursorMZ: 387.14793
RT: 9.282050000000002
ExactMass: 388.1553704
Spectrum_type: 2
charge: -1
Formula: C21H25ClN2O3
SMILES: C1CN(CCN1CCOCC(=O)O)C(C2=CC=CC=C2)C3=CC=C(C=C3)Cl
Method: HCD
Collision_energy: [28.333334]
Isolation_window: 4.0
Ion_mode: N
Num Peaks: 6
241.2170	85.7
299.1678	100.0
300.1721	18.1
343.1584	70.7
345.1282	29.6
387.1491	50.9

Name: Cgp-60474
PrecursorMZ: 400.11796
RT: 8.8955
ExactMass: 355.1199879
Spectrum_type: 2
charge: -1
Formula: C18H18ClN5O
SMILES: C1=CC(=CC(=C1)Cl)NC2=NC=CC(=N2)C3=CC(=NC=C3)NCCCO
Method: HCD
Collision_energy: [28.333334]
Isolation_window: 4.0
Ion_mode: N
Num Peaks: 3
115.9193	64.2
356.1284	100.0
400.1187	96.0

Name: Chaetoglobosin A
PrecursorMZ: 573.26088
RT: 5.9643
ExactMass: 528.26242225
Spectrum_type: 2
charge: -1
Formula: C32H36N2O5
SMILES: C[C@H]\1C/C=C/[C@H]2[C@H]3[C@](O3)([C@H]([C@@H]4[C@@]2(C(=O)/C=C/C(=O)[C@@H](/C(=C1)/C)O)C(=O)N[C@H]4CC5=CNC6=CC=CC=C65)C)C
Method: HCD
Collision_energy: [28.333334]
Isolation_window: 4.0
Ion_mode: N
Num Peaks: 17
61.9874	6.2
63.6975	1.5
146.0364	1.8
159.0444	2.2
187.0394	2.3
272.1292	3.0
288.1240	100.0
289.1274	15.3
290.1296	1.2
307.0974	7.8
308.1007	1.4
525.3812	3.0
526.3887	1.3
571.3320	1.2
573.2606	32.0
574.2641	10.3
575.2577	1.7

Name: Chaulmoogric Acid
PrecursorMZ: 279.23304
RT: 9.4546
ExactMass: 280.240230259
Spectrum_type: 2
charge: -1
Formula: C18H32O2
SMILES: C1C[C@@H](C=C1)CCCCCCCCCCCCC(=O)O
Method: HCD
Collision_energy: [28.333334]
Isolation_window: 4.0
Ion_mode: N
Num Peaks: 3
279.2328	100.0
280.2361	17.8
281.2504	2.9

Name: Chenodeoxycholic Acid
PrecursorMZ: 437.29131
RT: 7.093
ExactMass: 392.29265975
Spectrum_type: 2
charge: -1
Formula: C24H40O4
SMILES: C[C@H](CCC(=O)O)[C@H]1CC[C@@H]2[C@@]1(CC[C@H]3[C@H]2[C@@H](C[C@H]4[C@@]3(CC[C@H](C4)O)C)O)C
Method: HCD
Collision_energy: [28.333334]
Isolation_window: 4.0
Ion_mode: N
Num Peaks: 11
101.0598	2.8
317.2482	11.6
318.2513	3.7
391.2853	100.0
392.2888	27.2
393.2911	3.1
409.2962	7.2
435.3479	32.1
436.3514	16.4
437.2997	2.2
437.3500	2.8

Name: Chlorhexidine
PrecursorMZ: 549.20122
RT: 5.03415
ExactMass: 504.2031964
Spectrum_type: 2
charge: -1
Formula: C22H30Cl2N10
SMILES: C1=CC(=CC=C1N/C(=N/C(=NCCCCCCN=C(/N=C(/NC2=CC=C(C=C2)Cl)\N)N)N)/N)Cl
Method: HCD
Collision_energy: [28.333334]
Isolation_window: 4.0
Ion_mode: N
Num Peaks: 8
151.0060	100.0
153.0031	15.1
165.1137	61.7
182.1405	12.2
207.1356	11.8
334.1552	30.5
503.1962	31.4
505.1931	14.1

Name: Chlorophene
PrecursorMZ: 217.04212
RT: 7.7493
ExactMass: 218.0498427
Spectrum_type: 2
charge: -1
Formula: C13H11ClO
SMILES: C1=CC=C(C=C1)CC2=C(C=CC(=C2)Cl)O
Method: HCD
Collision_energy: [28.333334]
Isolation_window: 4.0
Ion_mode: N
Num Peaks: 5
215.0093	11.0
216.0128	5.0
217.0422	100.0
218.0456	12.9
219.0390	22.8

Name: Chol-11-enic acid
PrecursorMZ: 371.2592
RT: 7.9495
ExactMass: 372.26644501
Spectrum_type: 2
charge: -1
Formula: C24H36O3
SMILES: CC(CCC(=O)O)[C@H]1CCC2[C@@]1(C=CC3C2CC[C@H]4[C@@]3(CCC(=O)C4)C)C
Method: HCD
Collision_energy: [28.333334]
Isolation_window: 4.0
Ion_mode: N
Num Peaks: 7
273.1858	2.0
299.1650	8.7
369.2433	3.5
370.2452	2.9
371.2593	100.0
372.2614	30.7
373.2750	27.6

Name: Cholan-24-oic acid, 3,12-dihydroxy-, (3alpha,5beta,12alpha)-
PrecursorMZ: 391.28454
RT: 10.0319
ExactMass: 392.29265975
Spectrum_type: 2
charge: -1
Formula: C24H40O4
SMILES: CC(CCC(=O)O)C1CCC2C1(C(CC3C2CCC4C3(CCC(C4)O)C)O)C
Method: HCD
Collision_energy: [28.333334]
Isolation_window: 4.0
Ion_mode: N
Num Peaks: 14
125.0233	5.6
141.0910	2.7
153.1272	0.4
223.2059	2.6
224.2091	0.5
277.2172	1.1
347.2951	1.2
391.1793	0.7
391.1999	0.5
391.2847	100.0
391.3915	0.6
392.2880	25.7
393.2918	2.9
393.3383	0.6

Name: Chrysin-7-O-glucuronide
PrecursorMZ: 429.08331
RT: 6.7594
ExactMass: 430.08999677
Spectrum_type: 2
charge: -1
Formula: C21H18O10
SMILES: C1=CC=C(C=C1)C2=CC(=O)C3=C(C=C(C=C3O2)O[C@H]4[C@@H]([C@H]([C@@H]([C@H](O4)C(=O)O)O)O)O)O
Method: HCD
Collision_energy: [28.333334]
Isolation_window: 4.0
Ion_mode: N
Num Peaks: 4
121.0288	100.0
313.0725	38.9
401.0885	34.0
429.0839	33.7

Name: Chrysosplenetin
PrecursorMZ: 373.09294
RT: 4.4782
ExactMass: 374.10016753
Spectrum_type: 2
charge: -1
Formula: C19H18O8
SMILES: COC1=C(C=CC(=C1)C2=C(C(=O)C3=C(C(=C(C=C3O2)OC)OC)O)OC)O
Method: HCD
Collision_energy: [28.333334]
Isolation_window: 4.0
Ion_mode: N
Num Peaks: 24
193.0498	5.0
227.0349	4.4
227.0703	4.3
241.0504	11.6
242.0579	22.4
243.0651	13.9
253.0868	6.6
255.0659	20.5
256.0698	3.8
269.0820	4.3
279.0662	4.5
286.0477	3.9
297.0768	12.1
300.0637	15.9
301.0691	3.8
311.0920	8.3
329.1029	100.0
330.1065	20.9
373.0919	59.1
373.1313	5.2
373.1878	5.0
374.0929	11.7
375.1051	4.6
375.1501	4.1

Name: Cilastatin
PrecursorMZ: 357.14421
RT: 5.9758
ExactMass: 358.15624311
Spectrum_type: 2
charge: -1
Formula: C16H26N2O5S
SMILES: CC1(C[C@@H]1C(=O)N/C(=C\CCCCSC[C@@H](C(=O)O)N)/C(=O)O)C
Method: HCD
Collision_energy: [28.333334]
Isolation_window: 4.0
Ion_mode: N
Num Peaks: 5
120.0804	54.0
122.0598	100.0
269.1648	94.8
313.1551	31.1
357.1440	55.0

Name: Cilazapril
PrecursorMZ: 416.21961
RT: 3.8913
ExactMass: 417.2263711
Spectrum_type: 2
charge: -1
Formula: C22H31N3O5
SMILES: CCOC(=O)[C@H](CCC1=CC=CC=C1)N[C@H]2CCCN3CCC[C@H](N3C2=O)C(=O)O
Method: HCD
Collision_energy: [28.333334]
Isolation_window: 4.0
Ion_mode: N
Num Peaks: 9
114.0551	14.7
116.0708	16.6
124.0760	15.8
134.0968	6.1
255.1503	20.0
257.1658	22.4
398.2086	6.2
416.2196	100.0
417.2226	21.5

Name: Cinnamic Acid
PrecursorMZ: 147.04445
RT: 4.0491
ExactMass: 148.052429494
Spectrum_type: 2
charge: -1
Formula: C9H8O2
SMILES: C1=CC=C(C=C1)/C=C/C(=O)O
Method: HCD
Collision_energy: [28.333334]
Isolation_window: 4.0
Ion_mode: N
Num Peaks: 5
61.9875	12.3
102.9479	7.5
106.0403	4.7
147.0444	100.0
148.0483	14.7

Name: Citramalic acid, (+)-
PrecursorMZ: 147.02921
RT: 0.995
ExactMass: 148.03717335
Spectrum_type: 2
charge: -1
Formula: C5H8O5
SMILES: C[C@](CC(=O)O)(C(=O)O)O
Method: HCD
Collision_energy: [28.333334]
Isolation_window: 4.0
Ion_mode: N
Num Peaks: 7
85.0285	21.3
87.0079	19.3
102.0551	100.0
128.0345	53.2
129.0184	23.4
146.0452	33.2
147.0291	16.1

Name: Citramalic acid, (-)-
PrecursorMZ: 147.02915
RT: 1.1524
ExactMass: 148.03717335
Spectrum_type: 2
charge: -1
Formula: C5H8O5
SMILES: C[C@@](CC(=O)O)(C(=O)O)O
Method: HCD
Collision_energy: [28.333334]
Isolation_window: 4.0
Ion_mode: N
Num Peaks: 6
57.0337	14.7
85.0285	68.5
87.0078	100.0
103.0391	9.7
129.0185	19.9
147.0291	58.7

Name: Citrate
PrecursorMZ: 191.01915
RT: 1.1307
ExactMass: 189.00352749
Spectrum_type: 2
charge: -1
Formula: C6H5O7-3
SMILES: C(C(=O)[O-])C(CC(=O)[O-])(C(=O)[O-])O
Method: HCD
Collision_energy: [28.333334]
Isolation_window: 4.0
Ion_mode: N
Num Peaks: 11
57.0337	3.3
85.0286	24.4
87.0078	35.5
102.9479	2.6
111.0079	100.0
112.0112	5.3
129.0184	7.2
130.9977	1.8
173.0084	2.7
191.0193	17.3
191.0551	2.6

Name: Citric Acid
PrecursorMZ: 191.01924
RT: 1.6315
ExactMass: 192.02700259
Spectrum_type: 2
charge: -1
Formula: C6H8O7
SMILES: C(C(=O)O)C(CC(=O)O)(C(=O)O)O
Method: HCD
Collision_energy: [28.333334]
Isolation_window: 4.0
Ion_mode: N
Num Peaks: 8
80.9643	12.9
85.0286	33.8
87.0079	39.5
102.9479	13.4
111.0079	100.0
129.0187	13.1
147.0293	5.5
191.0193	15.8

Name: Citrinin
PrecursorMZ: 249.07674
RT: 5.1813
ExactMass: 250.08412354
Spectrum_type: 2
charge: -1
Formula: C13H14O5
SMILES: C[C@@H]1[C@H](OC=C2C1=C(C(=C(C2=O)C(=O)O)O)C)C
Method: HCD
Collision_energy: [28.333334]
Isolation_window: 4.0
Ion_mode: N
Num Peaks: 4
205.0500	35.2
249.0243	11.0
249.0771	100.0
250.0811	14.6

Name: Citrinin hydrate
PrecursorMZ: 267.08738
RT: 6.7707
ExactMass: 268.09468823
Spectrum_type: 2
charge: -1
Formula: C13H16O6
SMILES: C[C@@H]1[C@H](O[C@@H](C2=C(C(=C(C(=C12)C)O)C(=O)O)O)O)C
Method: HCD
Collision_energy: [28.333334]
Isolation_window: 4.0
Ion_mode: N
Num Peaks: 4
249.0765	100.0
250.0801	12.4
265.1478	15.3
267.0874	61.3

Name: Citrulline + DCA
PrecursorMZ: 548.36839
RT: 6.12565
ExactMass: 549.37778636
Spectrum_type: 2
charge: -1
Formula: C30H51N3O6
SMILES: C[C@H](CCC(=O)N[C@@H](CCCNC(=O)N)C(=O)O)[C@H]1CC[C@@H]2[C@@]1([C@H](C[C@H]3[C@H]2CC[C@H]4[C@@]3(CC[C@H](C4)O)C)O)C
Method: HCD
Collision_energy: [28.333334]
Isolation_window: 4.0
Ion_mode: N
Num Peaks: 18
56.1499	1.8
56.1530	3.9
60.9281	2.2
60.9317	4.3
128.0340	22.8
131.0813	45.7
132.0850	2.1
174.0873	5.5
461.3729	3.1
505.3633	89.5
506.3662	25.6
507.3691	3.5
518.3088	3.2
531.3431	3.8
547.3752	2.9
548.3693	100.0
549.3740	31.5
550.3303	12.2

Name: Clavulanic Acid
PrecursorMZ: 198.03982
RT: 2.052
ExactMass: 199.04807239
Spectrum_type: 2
charge: -1
Formula: C8H9NO5
SMILES: C1[C@@H]2N(C1=O)[C@H](/C(=C/CO)/O2)C(=O)O
Method: HCD
Collision_energy: [28.333334]
Isolation_window: 4.0
Ion_mode: N
Num Peaks: 33
72.9920	9.0
80.0494	4.3
82.0287	37.7
84.0443	7.4
87.0077	15.4
92.0494	5.5
110.0601	5.6
111.0439	2.6
123.0553	15.0
124.0393	81.7
125.0425	5.8
126.0551	2.4
135.0447	4.2
135.0552	100.0
136.0392	4.3
136.0589	7.7
137.0597	12.6
153.0549	2.4
153.0659	26.8
153.0907	3.2
154.0499	71.3
154.0861	26.1
155.0537	5.2
168.0291	4.8
170.0441	2.5
180.0658	2.4
181.0497	14.8
197.0568	17.5
198.0400	15.4
198.0761	28.8
199.0602	15.0
199.0789	2.6
199.0968	5.7

Name: Clothianidin
PrecursorMZ: 248.00115
RT: 4.7658
ExactMass: 249.0087234
Spectrum_type: 2
charge: -1
Formula: C6H8ClN5O2S
SMILES: CN/C(=N\[N+](=O)[O-])/NCC1=CN=C(S1)Cl
Method: HCD
Collision_energy: [28.333334]
Isolation_window: 4.0
Ion_mode: N
Num Peaks: 4
57.9746	100.0
204.0112	32.6
205.0146	3.6
248.0012	8.9

Name: Clusiacyclol A
PrecursorMZ: 363.16003
RT: 2.98
ExactMass: 364.16745924
Spectrum_type: 2
charge: -1
Formula: C23H24O4
SMILES: CC1(C2CCC3(C2C1C4=C(O3)C=C(C(=C4O)C(=O)C5=CC=CC=C5)O)C)C
Method: HCD
Collision_energy: [28.333334]
Isolation_window: 4.0
Ion_mode: N
Num Peaks: 26
58.0052	8.2
59.0130	30.1
93.0337	10.0
103.0393	100.0
119.0860	10.1
123.0444	7.3
128.0711	8.7
130.0325	12.3
146.0817	28.6
150.0555	31.7
181.0501	9.6
216.0666	12.6
217.1190	13.4
227.1279	8.9
257.1544	20.4
259.1123	7.1
260.0929	36.4
275.1659	44.1
276.1693	7.2
277.1231	69.8
278.1256	8.5
319.1621	7.5
361.2225	11.4
362.1312	8.3
363.1464	72.3
364.1456	31.9

Name: Coatlin A
PrecursorMZ: 435.1287
RT: 3.0483
ExactMass: 436.13694696
Spectrum_type: 2
charge: -1
Formula: C21H24O10
SMILES: C1=CC(=CC=C1CC(C(=O)C2=C(C(=C(C=C2)O)[C@H]3[C@@H]([C@H]([C@@H]([C@H](O3)CO)O)O)O)O)O)O
Method: HCD
Collision_energy: [28.333334]
Isolation_window: 4.0
Ion_mode: N
Num Peaks: 22
88.9869	9.6
123.0440	17.9
135.0440	9.8
173.0445	36.6
191.0550	8.9
217.0861	100.0
218.0899	12.5
229.0859	8.9
243.1018	54.1
244.1060	8.6
255.1020	6.3
261.0762	18.0
271.0968	51.7
272.1006	9.0
283.0971	19.6
301.1075	14.1
315.0868	55.6
316.0896	8.2
345.0976	10.7
435.1289	99.1
436.1300	24.9
437.1511	7.3

Name: Cohumulone
PrecursorMZ: 347.18657
RT: 4.687
ExactMass: 348.19367399
Spectrum_type: 2
charge: -1
Formula: C20H28O5
SMILES: CC(C)C(=O)C1=C(C(=C(C(C1=O)(CC=C(C)C)O)O)CC=C(C)C)O
Method: HCD
Collision_energy: [28.333334]
Isolation_window: 4.0
Ion_mode: N
Num Peaks: 17
181.0498	12.0
194.0581	7.0
219.0660	10.5
245.1657	6.5
249.1132	7.2
250.1211	13.7
261.1133	9.8
263.0927	27.4
267.1244	6.5
273.1612	14.4
278.1158	38.8
345.2288	26.1
346.2326	9.7
347.1514	7.3
347.1867	100.0
348.1897	22.2
349.1724	66.1

Name: Colensoic acid
PrecursorMZ: 441.18676
RT: 4.803
ExactMass: 442.19915329
Spectrum_type: 2
charge: -1
Formula: C25H30O7
SMILES: CCCCCC1=C2C(=CC(=C1)OC)OC3=C(C=C(C(=C3CCCCC)C(=O)O)O)OC2=O
Method: HCD
Collision_energy: [28.333334]
Isolation_window: 4.0
Ion_mode: N
Num Peaks: 19
61.9874	7.5
69.1299	8.1
111.0078	7.5
162.0550	18.0
170.0449	11.1
196.0603	10.5
243.1495	14.8
277.1549	52.9
278.1600	8.9
287.1395	18.8
319.1653	34.6
331.1295	8.3
363.1554	100.0
364.1587	18.7
395.1790	7.7
439.1861	10.6
440.1827	7.3
441.1556	9.1
442.2936	9.3

Name: Colupone
PrecursorMZ: 467.31668
RT: 10.1155
ExactMass: 468.32395988
Spectrum_type: 2
charge: -1
Formula: C30H44O4
SMILES: CC(C)C(=O)C1=C(C(C(=O)C(C1=O)(CC=C(C)C)CC=C(C)C)(CC=C(C)C)CC=C(C)C)O
Method: HCD
Collision_energy: [28.333334]
Isolation_window: 4.0
Ion_mode: N
Num Peaks: 5
51.9254	4.6
221.1542	26.9
233.1544	21.3
467.3164	100.0
468.3196	34.4

Name: Combreglucoside
PrecursorMZ: 727.39164
RT: 9.4535
ExactMass: 682.39282728
Spectrum_type: 2
charge: -1
Formula: C36H58O12
SMILES: C[C@@]12CC[C@]3(CCC([C@H](C3C1=CCC4[C@]2(C[C@H](C5[C@@]4(C[C@H]([C@@H]([C@@]5(C)CO)O)O)C)O)C)O)(C)C)C(=O)O[C@H]6[C@@H]([C@H]([C@@H]([C@H](O6)CO)O)O)O
Method: HCD
Collision_energy: [28.333334]
Isolation_window: 4.0
Ion_mode: N
Num Peaks: 15
61.9875	3.6
80.8243	1.2
101.0235	1.3
113.0235	1.2
113.0346	2.6
163.0395	2.7
164.0472	2.8
165.0550	100.0
166.0584	8.2
255.2329	3.8
269.2487	3.0
471.1514	1.5
727.3918	27.4
728.3952	10.5
729.3931	2.1

Name: Communesin-B
PrecursorMZ: 507.27616
RT: 6.4671
ExactMass: 508.2838264
Spectrum_type: 2
charge: -1
Formula: C32H36N4O2
SMILES: C/C=C/C=C/C(=O)N1CC[C@@]23[C@@H]1N4CC[C@@]25[C@@H](NC6=CC=CC=C36)N(C7=CC=CC(=C57)[C@@H]4C8C(O8)(C)C)C
Method: HCD
Collision_energy: [28.333334]
Isolation_window: 4.0
Ion_mode: N
Num Peaks: 11
56.3625	2.3
56.3656	4.5
61.9872	3.3
96.9587	11.1
161.0957	4.1
506.2143	2.6
506.2691	1.8
507.2765	100.0
508.2799	28.5
509.2642	16.7
509.2914	7.4

Name: Corchorifatty acid F
PrecursorMZ: 327.21802
RT: 5.7392
ExactMass: 328.22497412
Spectrum_type: 2
charge: -1
Formula: C18H32O5
SMILES: CC/C=C\CC(C(/C=C/C(CCCCCCCC(=O)O)O)O)O
Method: HCD
Collision_energy: [28.333334]
Isolation_window: 4.0
Ion_mode: N
Num Peaks: 10
185.1178	13.6
197.1180	7.8
209.1178	7.8
221.1180	7.7
239.1290	8.7
291.1966	7.5
309.2073	6.6
327.2179	100.0
328.2212	20.5
329.2333	7.7

Name: Corticosterone
PrecursorMZ: 345.20668
RT: 8.4875
ExactMass: 346.21440943
Spectrum_type: 2
charge: -1
Formula: C21H30O4
SMILES: C[C@]12CCC(=O)C=C1CC[C@@H]3[C@@H]2[C@H](C[C@]4([C@H]3CC[C@@H]4C(=O)CO)C)O
Method: HCD
Collision_energy: [28.333334]
Isolation_window: 4.0
Ion_mode: N
Num Peaks: 7
299.2013	7.2
300.2041	8.9
301.2163	5.6
327.1966	13.3
344.1948	10.2
345.2069	100.0
346.2104	20.9

Name: Cortisone
PrecursorMZ: 359.18531
RT: 7.7818
ExactMass: 360.19367399
Spectrum_type: 2
charge: -1
Formula: C21H28O5
SMILES: C[C@]12CCC(=O)C=C1CC[C@@H]3[C@@H]2C(=O)C[C@]4([C@H]3CC[C@@]4(C(=O)CO)O)C
Method: HCD
Collision_energy: [28.333334]
Isolation_window: 4.0
Ion_mode: N
Num Peaks: 13
97.4660	8.7
109.0281	33.7
247.1332	22.9
248.1363	10.5
273.1488	28.5
283.1693	99.0
284.1726	17.8
329.1750	9.8
357.1695	44.6
358.1731	38.1
358.2371	9.4
359.1850	100.0
360.1885	23.4

Name: Cortisone Acetate
PrecursorMZ: 447.20241
RT: 5.81365
ExactMass: 402.20423867
Spectrum_type: 2
charge: -1
Formula: C23H30O6
SMILES: CC(=O)OCC(=O)[C@]1(CC[C@@H]2[C@@]1(CC(=O)[C@H]3[C@H]2CCC4=CC(=O)CC[C@]34C)C)O
Method: HCD
Collision_energy: [28.333334]
Isolation_window: 4.0
Ion_mode: N
Num Peaks: 20
74.0238	8.4
96.9590	4.2
136.0520	4.3
137.0599	63.6
138.0632	5.3
163.0393	52.1
164.0427	4.1
181.0497	6.5
341.2120	6.3
359.2224	21.2
360.2272	5.1
385.2017	25.3
386.2047	7.5
403.2118	21.8
404.2166	6.3
447.2017	100.0
447.2711	5.2
448.2035	23.1
448.3055	17.1
449.2017	6.0

Name: Corylifol A
PrecursorMZ: 389.1758
RT: 7.9611
ExactMass: 390.18310931
Spectrum_type: 2
charge: -1
Formula: C25H26O4
SMILES: CC(=CCC/C(=C/CC1=C(C=CC(=C1)C2=COC3=C(C2=O)C=CC(=C3)O)O)/C)C
Method: HCD
Collision_energy: [28.333334]
Isolation_window: 4.0
Ion_mode: N
Num Peaks: 5
145.0077	51.7
188.9977	72.6
389.1761	100.0
390.1800	19.5
391.2841	11.6

Name: Coumestrin
PrecursorMZ: 429.08221
RT: 6.7726
ExactMass: 430.08999677
Spectrum_type: 2
charge: -1
Formula: C21H18O10
SMILES: C1=CC2=C(C=C1O)OC3=C2C(=O)OC4=C3C=CC(=C4)OC5C(C(C(C(O5)CO)O)O)O
Method: HCD
Collision_energy: [28.333334]
Isolation_window: 4.0
Ion_mode: N
Num Peaks: 5
121.0285	100.0
225.0552	13.1
313.0714	39.7
401.0876	35.6
429.0826	28.8

Name: Cphpc
PrecursorMZ: 339.15622
RT: 2.7083
ExactMass: 340.16343649
Spectrum_type: 2
charge: -1
Formula: C16H24N2O6
SMILES: C1C[C@@H](N(C1)C(=O)CCCCC(=O)N2CCC[C@@H]2C(=O)O)C(=O)O
Method: HCD
Collision_energy: [28.333334]
Isolation_window: 4.0
Ion_mode: N
Num Peaks: 7
136.0761	43.8
137.0599	38.9
148.0759	33.4
190.0868	48.4
277.1558	100.0
295.1660	32.2
339.1591	37.4

Name: Cryptotanshinone
PrecursorMZ: 295.13392
RT: 6.5585
ExactMass: 296.1412445
Spectrum_type: 2
charge: -1
Formula: C19H20O3
SMILES: C[C@H]1COC2=C1C(=O)C(=O)C3=C2C=CC4=C3CCCC4(C)C
Method: HCD
Collision_energy: [28.333334]
Isolation_window: 4.0
Ion_mode: N
Num Peaks: 13
131.0494	27.9
145.0651	22.4
163.0757	62.4
191.1071	23.5
220.1464	31.0
221.1542	100.0
222.1578	27.2
236.1052	94.0
237.1088	25.4
293.1756	19.4
295.1337	72.6
296.1375	16.7
297.1502	96.1

Name: Cucurbitacin D
PrecursorMZ: 561.30638
RT: 6.0276
ExactMass: 516.30870374
Spectrum_type: 2
charge: -1
Formula: C30H44O7
SMILES: C[C@@]12C[C@H]([C@@H]([C@]1(CC(=O)[C@@]3([C@H]2CC=C4[C@H]3C[C@@H](C(=O)C4(C)C)O)C)C)[C@](C)(C(=O)/C=C/C(C)(C)O)O)O
Method: HCD
Collision_energy: [28.333334]
Isolation_window: 4.0
Ion_mode: N
Num Peaks: 8
124.0755	17.5
148.0754	18.2
180.0654	8.8
247.1805	10.1
273.1598	24.2
291.1704	30.1
561.3070	100.0
562.3096	31.4

Name: Cucurbitacin I
PrecursorMZ: 513.30409
RT: 11.4388
ExactMass: 514.29305367
Spectrum_type: 2
charge: -1
Formula: C30H42O7
SMILES: C[C@@]12C[C@H]([C@@H]([C@]1(CC(=O)[C@@]3([C@H]2CC=C4[C@H]3C=C(C(=O)C4(C)C)O)C)C)[C@](C)(C(=O)/C=C/C(C)(C)O)O)O
Method: HCD
Collision_energy: [28.333334]
Isolation_window: 4.0
Ion_mode: N
Num Peaks: 16
57.0354	1.6
61.9874	1.8
99.9248	14.9
113.9254	1.8
114.9332	2.3
115.9198	100.0
116.9201	8.9
116.9275	94.1
117.9276	9.0
117.9355	3.0
367.3579	3.9
425.3092	2.8
512.3057	1.7
513.3036	42.2
514.3078	23.7
515.3097	4.9

Name: Curcumenol
PrecursorMZ: 233.15463
RT: 8.2711
ExactMass: 234.16197994
Spectrum_type: 2
charge: -1
Formula: C15H22O2
SMILES: C[C@H]1CC[C@@H]2[C@]13CC(=C(C)C)[C@](O3)(C=C2C)O
Method: HCD
Collision_energy: [28.333334]
Isolation_window: 4.0
Ion_mode: N
Num Peaks: 5
99.9250	6.9
121.0287	6.2
191.0711	7.4
233.1548	100.0
234.1581	16.3

Name: Cyanidin-3-O-arabinose chloride
PrecursorMZ: 417.08302
RT: 6.2736
ExactMass: 419.0978218
Spectrum_type: 2
charge: -1
Formula: C20H19O10+
SMILES: C1C(C(C(C(O1)OC2=CC3=C(C=C(C=C3[O+]=C2C4=CC(=C(C=C4)O)O)O)O)O)O)O
Method: HCD
Collision_energy: [28.333334]
Isolation_window: 4.0
Ion_mode: N
Num Peaks: 11
121.0288	14.3
121.0650	20.0
165.0185	13.8
175.0392	18.8
203.0345	49.6
221.0452	18.3
327.0876	77.6
343.0828	78.3
344.0847	14.4
371.0773	100.0
372.0814	25.6

Name: Cyclo(his-pro)
PrecursorMZ: 233.10422
RT: 7.9295
ExactMass: 234.1116757
Spectrum_type: 2
charge: -1
Formula: C11H14N4O2
SMILES: C1C[C@H]2C(=O)N[C@H](C(=O)N2C1)CC3=CN=CN3
Method: HCD
Collision_energy: [28.333334]
Isolation_window: 4.0
Ion_mode: N
Num Peaks: 13
67.0293	23.3
69.1588	5.2
99.9249	5.9
115.9198	5.5
125.0349	5.2
151.0507	7.3
153.0663	80.1
165.0663	15.2
167.0455	9.7
190.0980	10.2
233.1043	100.0
233.1533	8.2
234.1075	12.4

Name: Cyclopentaneacetic acid, 3-oxo-2-pentyl-
PrecursorMZ: 211.13357
RT: 5.6159
ExactMass: 212.1412445
Spectrum_type: 2
charge: -1
Formula: C12H20O3
SMILES: CCCCCC1C(CCC1=O)CC(=O)O
Method: HCD
Collision_energy: [28.333334]
Isolation_window: 4.0
Ion_mode: N
Num Peaks: 6
57.0337	1.7
167.1436	1.7
197.9913	39.1
211.1335	100.0
212.1369	12.5
213.0148	25.6

Name: Cylindrol B
PrecursorMZ: 369.20712
RT: 8.194
ExactMass: 370.21440943
Spectrum_type: 2
charge: -1
Formula: C23H30O4
SMILES: C[C@@H]1CCC(=O)[C@@H]([C@@]1(C)/C=C/C(=C/CC2=C(C=C(C(=C2O)C=O)C)O)/C)C
Method: HCD
Collision_energy: [28.333334]
Isolation_window: 4.0
Ion_mode: N
Num Peaks: 9
163.1121	14.7
177.0915	8.1
179.1073	4.9
193.0864	27.0
205.0866	19.4
367.2311	64.3
368.2350	33.9
369.2058	100.0
370.2098	26.4

Name: D-Allose
PrecursorMZ: 161.04457
RT: 1.301
ExactMass: 180.0633881
Spectrum_type: 2
charge: -1
Formula: C6H12O6
SMILES: C([C@@H]1[C@H]([C@H]([C@H](C(O1)O)O)O)O)O
Method: HCD
Collision_energy: [28.333334]
Isolation_window: 4.0
Ion_mode: N
Num Peaks: 34
57.0337	30.3
59.0129	19.5
71.0129	25.4
71.0493	18.2
73.0285	54.0
83.0128	5.5
85.0285	13.4
87.0078	8.0
87.0554	8.4
88.0394	64.0
98.0601	5.5
99.0078	5.9
99.0441	87.8
101.0234	30.2
113.0235	21.8
113.0598	16.1
115.0390	20.5
115.0867	38.5
117.0547	28.7
128.0344	10.4
131.0342	6.7
143.0341	68.4
157.0497	8.7
159.0654	100.0
159.0770	76.2
160.0605	11.7
160.0702	10.8
160.0806	8.3
161.0447	86.2
161.0811	6.9
162.0558	8.0
162.0759	8.1
163.0240	8.1
163.0602	15.2

Name: D-Fructose
PrecursorMZ: 215.0325
RT: 0.85335
ExactMass: 180.0633881
Spectrum_type: 2
charge: -1
Formula: C6H12O6
SMILES: C1[C@H]([C@H]([C@@H](C(O1)(CO)O)O)O)O
Method: HCD
Collision_energy: [28.333334]
Isolation_window: 4.0
Ion_mode: N
Num Peaks: 4
89.0235	34.2
120.9540	39.5
148.9490	100.0
215.0327	32.9

Name: D-Glucose
PrecursorMZ: 179.055
RT: 0.8783
ExactMass: 180.0633881
Spectrum_type: 2
charge: -1
Formula: C6H12O6
SMILES: C([C@@H]1[C@H]([C@@H]([C@H](C(O1)O)O)O)O)O
Method: HCD
Collision_energy: [28.333334]
Isolation_window: 4.0
Ion_mode: N
Num Peaks: 31
58.0049	4.1
59.0128	88.3
71.0127	89.8
72.9919	9.9
73.0282	3.1
80.9640	3.6
85.0282	11.0
87.0076	5.8
89.0232	100.0
90.0263	3.2
90.9971	3.4
92.9190	3.2
95.0125	3.2
101.0232	30.2
110.0709	3.2
112.9845	21.5
113.0232	16.9
119.0337	12.7
122.0234	9.0
122.9061	4.1
133.0491	4.8
134.9869	17.4
135.0438	7.3
137.0594	10.0
163.0386	6.8
177.0764	3.4
178.9771	4.0
180.0317	5.8
181.0162	8.6
181.0489	9.2
181.0702	11.6

Name: D-Lyxose
PrecursorMZ: 149.04435
RT: 0.9138
ExactMass: 150.05282342
Spectrum_type: 2
charge: -1
Formula: C5H10O5
SMILES: C1[C@H]([C@@H]([C@@H](C(O1)O)O)O)O
Method: HCD
Collision_energy: [28.333334]
Isolation_window: 4.0
Ion_mode: N
Num Peaks: 25
59.0128	65.0
69.0335	4.3
71.0127	24.6
72.9920	18.8
73.0284	19.0
75.0076	78.2
83.0126	5.9
85.0283	14.6
86.0236	5.7
87.0076	13.2
89.0232	32.8
98.0235	40.3
100.0390	4.1
101.0233	16.5
102.0545	3.9
103.0388	7.1
103.0580	5.7
118.0497	90.8
119.0531	4.7
129.0375	4.3
131.0338	32.7
148.0603	41.4
149.0084	8.2
149.0444	100.0
150.0473	6.3

Name: D-Malic acid
PrecursorMZ: 133.01345
RT: 0.9366
ExactMass: 134.02152329
Spectrum_type: 2
charge: -1
Formula: C4H6O5
SMILES: C([C@H](C(=O)O)O)C(=O)O
Method: HCD
Collision_energy: [28.333334]
Isolation_window: 4.0
Ion_mode: N
Num Peaks: 9
71.0129	57.5
72.9922	13.8
75.0078	21.8
88.0395	12.6
89.0234	12.6
115.0027	100.0
133.0133	31.3
134.0462	10.5
135.0294	12.3

Name: D-Tagatose
PrecursorMZ: 161.04433
RT: 0.8833
ExactMass: 180.0633881
Spectrum_type: 2
charge: -1
Formula: C6H12O6
SMILES: C1[C@H]([C@@H]([C@@H](C(O1)(CO)O)O)O)O
Method: HCD
Collision_energy: [28.333334]
Isolation_window: 4.0
Ion_mode: N
Num Peaks: 36
59.0129	30.5
71.0129	38.9
72.9922	3.7
73.0286	100.0
74.0320	3.1
81.0337	4.4
83.0129	6.2
85.0285	29.1
87.0079	4.2
88.0394	26.7
89.0235	10.2
95.0128	5.4
97.0286	2.9
99.0077	2.1
99.0443	1.8
100.0392	1.6
101.0235	8.0
102.0188	3.2
102.9878	7.3
103.9885	2.6
104.9854	3.1
113.0234	15.0
115.0868	2.6
116.0707	3.9
117.0662	3.1
130.9828	18.1
131.0342	15.9
131.9837	8.2
132.9802	10.1
133.0498	2.4
142.0501	2.5
159.0769	4.5
160.0608	9.8
161.0448	12.7
162.0764	3.1
163.0243	2.2

Name: D-Xylose
PrecursorMZ: 149.04408
RT: 1.1096
ExactMass: 150.05282342
Spectrum_type: 2
charge: -1
Formula: C5H10O5
SMILES: C1[C@H]([C@@H]([C@H](C(O1)O)O)O)O
Method: HCD
Collision_energy: [28.333334]
Isolation_window: 4.0
Ion_mode: N
Num Peaks: 7
59.0127	12.1
72.9918	53.4
75.0075	83.8
87.0074	100.0
103.0022	19.0
149.0077	60.1
149.0441	51.7

Name: DL-Malate
PrecursorMZ: 133.01341
RT: 0.6878
ExactMass: 132.00587322
Spectrum_type: 2
charge: -1
Formula: C4H4O5-2
SMILES: C(C(C(=O)[O-])O)C(=O)[O-]
Method: HCD
Collision_energy: [28.333334]
Isolation_window: 4.0
Ion_mode: N
Num Peaks: 13
59.0131	20.6
65.0137	51.9
65.9977	28.7
71.0131	39.1
72.9922	22.4
75.0079	66.6
86.0239	30.8
87.0080	33.7
106.0403	19.2
107.0244	26.2
131.0357	37.7
134.0355	100.0
135.0291	59.5

Name: DL-alpha-Tocopherol
PrecursorMZ: 429.37384
RT: 11.568
ExactMass: 430.381080833
Spectrum_type: 2
charge: -1
Formula: C29H50O2
SMILES: CC1=C(C2=C(CCC(O2)(C)CCCC(C)CCCC(C)CCCC(C)C)C(=C1O)C)C
Method: HCD
Collision_energy: [28.333334]
Isolation_window: 4.0
Ion_mode: N
Num Peaks: 12
135.0808	0.7
163.0471	0.6
163.0757	100.0
163.1040	0.7
164.0790	10.5
165.0811	0.5
414.3502	1.7
415.3546	0.6
429.2789	0.6
429.3741	37.2
430.3775	11.6
431.3916	2.9

Name: Damgo
PrecursorMZ: 512.25198
RT: 4.7653
ExactMass: 513.25873385
Spectrum_type: 2
charge: -1
Formula: C26H35N5O6
SMILES: C[C@H](C(=O)NCC(=O)N(C)[C@@H](CC1=CC=CC=C1)C(=O)NCCO)NC(=O)[C@H](CC2=CC=C(C=C2)O)N
Method: HCD
Collision_energy: [28.333334]
Isolation_window: 4.0
Ion_mode: N
Num Peaks: 38
56.9152	2.1
56.9184	4.2
61.9874	2.5
73.0285	2.0
96.0081	10.9
98.0238	15.2
113.0599	3.6
115.0867	12.6
126.0551	2.2
141.0660	4.7
146.0602	10.6
163.0872	2.0
181.0849	2.1
200.0710	6.8
227.1185	18.9
228.1215	3.3
244.1452	4.4
262.1562	7.4
266.1143	2.4
288.1361	2.6
305.1617	1.9
323.1722	3.9
347.1727	4.1
365.1831	3.5
392.1983	2.1
452.2312	3.4
465.3252	5.8
467.3408	5.6
469.2450	1.9
470.2420	6.9
471.2412	1.9
494.2424	5.7
511.3344	5.6
512.2513	100.0
512.3139	2.7
513.2544	27.7
513.3406	5.8
514.2568	4.0

Name: Damnacanthal
PrecursorMZ: 281.04572
RT: 5.9215
ExactMass: 282.05282342
Spectrum_type: 2
charge: -1
Formula: C16H10O5
SMILES: COC1=C2C(=CC(=C1C=O)O)C(=O)C3=CC=CC=C3C2=O
Method: HCD
Collision_energy: [28.333334]
Isolation_window: 4.0
Ion_mode: N
Num Peaks: 6
253.0505	29.1
254.0540	4.3
281.0456	100.0
282.0487	16.5
283.1014	3.7
283.1368	3.1

Name: Daridorexant
PrecursorMZ: 449.15031
RT: 5.7953
ExactMass: 450.1571017
Spectrum_type: 2
charge: -1
Formula: C23H23ClN6O2
SMILES: CC1=C(C=CC2=C1N=C(N2)[C@@]3(CCCN3C(=O)C4=C(C=CC(=C4)OC)N5N=CC=N5)C)Cl
Method: HCD
Collision_energy: [28.333334]
Isolation_window: 4.0
Ion_mode: N
Num Peaks: 16
50.0183	0.9
62.9632	9.4
74.0238	1.1
78.9581	18.7
80.9737	17.6
242.9826	5.7
285.1262	2.8
355.1680	6.5
356.1707	1.2
385.1787	21.4
386.1819	4.4
448.3105	2.1
449.1501	100.0
449.3201	1.3
450.1537	20.9
451.1551	2.4

Name: Decahydrogambogic acid
PrecursorMZ: 637.37333
RT: 8.9276
ExactMass: 638.38186868
Spectrum_type: 2
charge: -1
Formula: C38H54O8
SMILES: CC(C)CCCC1(C=CC2=C(C3=C(C(=C2O1)CCC(C)C)OC45C(C3=O)CC6CC4C(OC5(C6O)CCC(C)C(=O)O)(C)C)O)C
Method: HCD
Collision_energy: [28.333334]
Isolation_window: 4.0
Ion_mode: N
Num Peaks: 6
152.9952	14.4
171.1022	100.0
255.2331	75.3
256.2374	11.2
637.3736	70.8
638.3765	20.2

Name: Decarboxylated 8,5'-diferulic acid
PrecursorMZ: 341.10327
RT: 3.9382
ExactMass: 342.11033829
Spectrum_type: 2
charge: -1
Formula: C19H18O6
SMILES: COC1=CC(=CC(=C1O)/C=C/C2=CC(=C(C=C2)O)OC)/C=C/C(=O)O
Method: HCD
Collision_energy: [28.333334]
Isolation_window: 4.0
Ion_mode: N
Num Peaks: 22
91.0177	1.7
123.0443	7.0
158.0366	4.9
173.0602	10.3
202.0266	2.5
203.0346	3.9
217.0503	5.3
267.0663	28.4
268.0699	5.2
281.0817	2.7
282.0897	36.7
283.0926	5.7
284.0682	2.6
296.0689	4.7
297.1133	4.9
311.0576	1.9
325.0708	1.8
326.0796	35.4
327.0836	8.3
341.1029	100.0
342.1063	19.8
343.1121	1.6

Name: Decylbenzenesulfonic acid
PrecursorMZ: 297.15156
RT: 6.9438
ExactMass: 298.16026586
Spectrum_type: 2
charge: -1
Formula: C16H26O3S
SMILES: CCCCCCCCCCC1=CC=CC=C1S(=O)(=O)O
Method: HCD
Collision_energy: [28.333334]
Isolation_window: 4.0
Ion_mode: N
Num Peaks: 7
183.0105	2.8
197.0264	2.1
295.1362	0.9
297.1517	100.0
297.2425	1.4
298.1549	16.4
299.1490	3.1

Name: Dehydrocholic Acid
PrecursorMZ: 401.23207
RT: 9.0308
ExactMass: 402.24062418
Spectrum_type: 2
charge: -1
Formula: C24H34O5
SMILES: C[C@H](CCC(=O)O)[C@H]1CC[C@@H]2[C@@]1(C(=O)C[C@H]3[C@H]2C(=O)C[C@H]4[C@@]3(CCC(=O)C4)C)C
Method: HCD
Collision_energy: [28.333334]
Isolation_window: 4.0
Ion_mode: N
Num Peaks: 11
282.1614	11.6
283.1689	8.5
284.1770	28.7
285.1846	78.0
286.1883	15.0
316.1664	7.6
357.2423	31.3
358.2454	7.5
401.2316	100.0
402.2349	28.5
403.1867	12.6

Name: Dehydroeburicoic Acid
PrecursorMZ: 467.35306
RT: 10.8431
ExactMass: 468.36034539
Spectrum_type: 2
charge: -1
Formula: C31H48O3
SMILES: CC(C)C(=C)CC[C@H]([C@H]1CC[C@@]2([C@@]1(CC=C3C2=CC[C@@H]4[C@@]3(CC[C@@H](C4(C)C)O)C)C)C)C(=O)O
Method: HCD
Collision_energy: [28.333334]
Isolation_window: 4.0
Ion_mode: N
Num Peaks: 8
51.9294	4.6
61.9874	6.2
163.1121	43.7
164.1155	4.5
291.2328	31.9
292.2364	6.1
467.3532	100.0
468.3566	33.2

Name: Dehydrolithocholic Acid
PrecursorMZ: 419.28067
RT: 8.5121
ExactMass: 374.28209507
Spectrum_type: 2
charge: -1
Formula: C24H38O3
SMILES: C[C@H](CCC(=O)O)[C@H]1CC[C@@H]2[C@@]1(CC[C@H]3[C@H]2CC[C@H]4[C@@]3(CCC(=O)C4)C)C
Method: HCD
Collision_energy: [28.333334]
Isolation_window: 4.0
Ion_mode: N
Num Peaks: 3
373.2748	100.0
374.2782	27.4
375.2824	3.3

Name: Dehydroxynocardamine
PrecursorMZ: 583.34648
RT: 5.3808
ExactMass: 584.35336251
Spectrum_type: 2
charge: -1
Formula: C27H48N6O8
SMILES: C1CCNC(=O)CCC(=O)NCCCCCN(C(=O)CCC(=O)NCCCCCN(C(=O)CCC(=O)NCC1)O)O
Method: HCD
Collision_energy: [28.333334]
Isolation_window: 4.0
Ion_mode: N
Num Peaks: 30
61.9872	100.0
73.0282	8.4
83.0489	12.4
87.0438	10.0
99.0438	9.9
101.0593	9.7
113.0594	11.7
124.0752	8.0
149.0956	8.2
153.0906	7.8
165.0906	8.8
203.1268	8.5
257.1643	23.7
258.1680	10.3
261.1596	8.1
275.1752	24.9
276.1787	9.4
519.3326	15.5
521.3507	9.2
536.3303	11.9
537.3419	90.8
538.3455	29.7
539.3572	70.2
582.3389	9.8
583.3462	10.7
583.3544	21.8
583.3622	11.1
585.2967	11.6
585.3595	9.3
585.3700	15.6

Name: Delta(4)-dafachronic acid
PrecursorMZ: 413.30624
RT: 10.0157
ExactMass: 414.3133952
Spectrum_type: 2
charge: -1
Formula: C27H42O3
SMILES: C[C@H](CCCC(C)C(=O)O)[C@H]1CC[C@@H]2[C@@]1(CC[C@H]3[C@H]2CCC4=CC(=O)CC[C@]34C)C
Method: HCD
Collision_energy: [28.333334]
Isolation_window: 4.0
Ion_mode: N
Num Peaks: 6
151.0755	7.1
395.2941	5.9
397.3116	12.7
413.3019	100.0
414.3050	29.7
415.3194	14.0

Name: Demethylvestitol
PrecursorMZ: 257.08154
RT: 5.0159
ExactMass: 258.08920892
Spectrum_type: 2
charge: -1
Formula: C15H14O4
SMILES: C1C(COC2=C1C=CC(=C2)O)C3=C(C=C(C=C3)O)O
Method: HCD
Collision_energy: [28.333334]
Isolation_window: 4.0
Ion_mode: N
Num Peaks: 12
109.0285	16.0
121.0285	32.1
135.0442	100.0
136.0476	7.6
138.9641	3.8
147.0443	4.9
166.9591	6.9
182.9538	10.7
210.9489	22.8
228.9596	22.3
257.0816	99.9
258.0850	15.9

Name: Deoxyribose
PrecursorMZ: 133.04978
RT: 0.964
ExactMass: 134.0579088
Spectrum_type: 2
charge: -1
Formula: C5H10O4
SMILES: C1[C@@H]([C@H](OC1O)CO)O
Method: HCD
Collision_energy: [28.333334]
Isolation_window: 4.0
Ion_mode: N
Num Peaks: 17
57.0337	3.6
59.0130	5.1
71.0129	73.8
72.0163	3.7
72.9921	4.1
75.0078	14.5
87.0078	57.1
87.0442	14.0
88.0109	2.1
89.0234	12.0
92.0244	14.3
115.0027	14.3
133.0136	4.6
133.0498	100.0
134.0460	5.1
134.0534	5.0
135.0300	29.3

Name: Deoxyuridine
PrecursorMZ: 273.07282
RT: 1.1764333333333332
ExactMass: 228.07462149
Spectrum_type: 2
charge: -1
Formula: C9H12N2O5
SMILES: C1[C@@H]([C@H](O[C@H]1N2C=CC(=O)NC2=O)CO)O
Method: HCD
Collision_energy: [28.333334]
Isolation_window: 4.0
Ion_mode: N
Num Peaks: 9
88.9870	8.1
128.0344	14.2
184.0609	27.5
227.0669	100.0
228.0708	11.1
271.0825	6.9
272.0781	11.4
273.0638	5.4
275.0730	4.8

Name: Desferrioxamine E
PrecursorMZ: 599.34154
RT: 5.0045
ExactMass: 600.34827713
Spectrum_type: 2
charge: -1
Formula: C27H48N6O9
SMILES: C1CCNC(=O)CCC(=O)N(CCCCCNC(=O)CCC(=O)N(CCCCCNC(=O)CCC(=O)N(CC1)O)O)O
Method: HCD
Collision_energy: [28.333334]
Isolation_window: 4.0
Ion_mode: N
Num Peaks: 12
61.9872	100.0
69.0127	6.2
87.0438	6.1
101.0593	5.7
113.0593	7.5
165.0906	6.2
535.3265	7.7
552.3263	6.1
553.3358	42.4
554.3401	11.9
555.3516	26.2
599.3465	10.3

Name: Dibutyl phosphate
PrecursorMZ: 209.0944
RT: 3.7527
ExactMass: 210.10209608
Spectrum_type: 2
charge: -1
Formula: C8H19O4P
SMILES: CCCCOP(=O)(O)OCCCC
Method: HCD
Collision_energy: [28.333334]
Isolation_window: 4.0
Ion_mode: N
Num Peaks: 4
78.9581	100.0
103.9192	15.0
153.0314	95.3
209.0958	73.5

Name: Diethyl Phthalate
PrecursorMZ: 221.08159
RT: 6.1309
ExactMass: 222.08920892
Spectrum_type: 2
charge: -1
Formula: C12H14O4
SMILES: CCOC(=O)C1=CC=CC=C1C(=O)OCC
Method: HCD
Collision_energy: [28.333334]
Isolation_window: 4.0
Ion_mode: N
Num Peaks: 4
69.0337	48.6
71.0493	100.0
121.0287	75.9
220.0476	63.4

Name: Diffractaic Acid
PrecursorMZ: 373.13055
RT: 9.2351
ExactMass: 374.13655304
Spectrum_type: 2
charge: -1
Formula: C20H22O7
SMILES: CC1=CC(=C(C(=C1C(=O)O)O)C)OC(=O)C2=C(C(=C(C=C2C)OC)C)OC
Method: HCD
Collision_energy: [28.333334]
Isolation_window: 4.0
Ion_mode: N
Num Peaks: 5
227.2002	85.2
285.1509	100.0
317.1252	28.2
329.1415	76.2
373.1308	39.2

Name: Digoxigenin
PrecursorMZ: 389.23363
RT: 9.1465
ExactMass: 390.24062418
Spectrum_type: 2
charge: -1
Formula: C23H34O5
SMILES: C[C@]12CC[C@@H](C[C@H]1CC[C@@H]3[C@@H]2C[C@H]([C@]4([C@@]3(CC[C@@H]4C5=CC(=O)OC5)O)C)O)O
Method: HCD
Collision_energy: [28.333334]
Isolation_window: 4.0
Ion_mode: N
Num Peaks: 26
173.1182	0.3
174.1208	0.3
230.1836	0.2
231.1867	0.3
313.2170	4.3
314.2208	0.9
327.2691	0.6
329.2843	0.3
343.2641	0.4
345.2431	0.3
345.2797	2.5
347.2956	0.7
355.2646	0.5
365.3060	0.9
373.2754	0.3
389.2316	3.3
389.2705	5.1
390.2346	0.8
390.2741	1.4
391.1798	0.7
391.2013	0.5
391.2852	100.0
391.3693	0.6
391.3912	0.7
391.4215	0.3
409.2960	0.6

Name: Dihomo-Gamma-Linolenic Acid
PrecursorMZ: 305.24843
RT: 9.6848
ExactMass: 306.255880323
Spectrum_type: 2
charge: -1
Formula: C20H34O2
SMILES: CCCCC/C=C\C/C=C\C/C=C\CCCCCCC(=O)O
Method: HCD
Collision_energy: [28.333334]
Isolation_window: 4.0
Ion_mode: N
Num Peaks: 9
59.0129	1.7
263.2377	1.1
287.2376	0.8
303.2329	1.6
304.2362	0.8
305.2482	100.0
306.2516	20.3
307.2264	1.1
307.2556	1.3

Name: Dihydroagathic acid
PrecursorMZ: 335.22299
RT: 8.3735
ExactMass: 336.2300595
Spectrum_type: 2
charge: -1
Formula: C20H32O4
SMILES: CC(CC[C@H]1C(=C)CC[C@@H]2[C@@]1(CCC[C@@]2(C)C(=O)O)C)CC(=O)O
Method: HCD
Collision_energy: [28.333334]
Isolation_window: 4.0
Ion_mode: N
Num Peaks: 8
96.9593	15.4
125.0965	8.0
151.1120	4.3
207.1388	3.4
317.2123	7.2
319.2281	13.6
335.2240	4.3
337.2058	100.0

Name: Dihydrocitrinone
PrecursorMZ: 265.07155
RT: 3.2019
ExactMass: 266.07903816
Spectrum_type: 2
charge: -1
Formula: C13H14O6
SMILES: C[C@@H]1[C@H](OC(=O)C2=C(C(=C(C(=C12)C)O)C(=O)O)O)C
Method: HCD
Collision_energy: [28.333334]
Isolation_window: 4.0
Ion_mode: N
Num Peaks: 8
72.9921	8.5
96.9592	10.4
136.0516	8.9
177.0913	38.1
221.0815	62.9
265.0720	100.0
265.1278	8.8
266.0759	12.1

Name: Dihydrocoumaroyl Hexoside
PrecursorMZ: 327.10693
RT: 4.185
ExactMass: 328.11581759
Spectrum_type: 2
charge: -1
Formula: C15H20O8
SMILES: C1=CC=C(C(=C1)CCC(=O)O)OC2C(C(C(C(O2)CO)O)O)O
Method: HCD
Collision_energy: [28.333334]
Isolation_window: 4.0
Ion_mode: N
Num Peaks: 6
164.0464	17.3
165.0543	100.0
166.0577	8.9
327.1079	50.6
328.1128	9.9
329.1045	7.2

Name: Dihydrocurcumin
PrecursorMZ: 369.13446
RT: 7.0129
ExactMass: 370.14163842
Spectrum_type: 2
charge: -1
Formula: C21H22O6
SMILES: COC1=C(C=CC(=C1)CCC(=O)CC(=O)/C=C/C2=CC(=C(C=C2)O)OC)O
Method: HCD
Collision_energy: [28.333334]
Isolation_window: 4.0
Ion_mode: N
Num Peaks: 9
134.0365	39.6
149.0600	100.0
150.0633	9.5
175.0397	4.9
204.0424	5.5
219.0659	32.6
220.0689	4.4
369.1345	16.2
370.1387	3.9

Name: Dihydrofluorescein diacetate
PrecursorMZ: 417.0976
RT: 8.1557
ExactMass: 418.10525291
Spectrum_type: 2
charge: -1
Formula: C24H18O7
SMILES: CC(=O)OC1=CC2=C(C=C1)C(C3=C(O2)C=C(C=C3)OC(=O)C)C4=CC=CC=C4C(=O)O
Method: HCD
Collision_energy: [28.333334]
Isolation_window: 4.0
Ion_mode: N
Num Peaks: 5
119.0492	32.7
176.9822	38.4
297.0402	79.6
417.0980	100.0
418.1015	28.5

Name: Dihydromuronic acid
PrecursorMZ: 367.24627
RT: 8.5486
ExactMass: 368.25627424
Spectrum_type: 2
charge: -1
Formula: C21H36O5
SMILES: CC1C([C@H](OC1=O)CCCCCCCCCCCCCC(=O)C)C(=O)O
Method: HCD
Collision_energy: [28.333334]
Isolation_window: 4.0
Ion_mode: N
Num Peaks: 4
299.2590	100.0
300.2626	19.7
367.2467	48.2
368.2500	8.2

Name: Dihydroorotate
PrecursorMZ: 157.02444
RT: 1.2191
ExactMass: 157.02493165
Spectrum_type: 2
charge: -1
Formula: C5H5N2O4-
SMILES: C1C(NC(=O)NC1=O)C(=O)[O-]
Method: HCD
Collision_energy: [28.333334]
Isolation_window: 4.0
Ion_mode: N
Num Peaks: 31
58.0289	11.5
59.0130	8.4
65.9976	24.7
68.0132	24.2
70.0289	11.7
71.0129	47.3
72.0081	18.0
72.9921	22.2
73.0285	45.5
74.0237	11.7
82.0288	25.3
84.0080	15.1
84.0445	11.2
86.0237	47.4
87.0077	52.2
94.0288	14.4
95.0240	10.9
96.0081	19.8
96.0445	16.4
98.0237	18.6
100.0029	12.1
111.0191	11.1
113.0346	15.2
114.0187	14.5
114.9505	17.7
117.0183	11.5
130.9828	7.9
131.0342	17.9
155.0351	8.8
157.0506	12.2
158.0452	100.0

Name: Dihydropertusaric
PrecursorMZ: 367.24761
RT: 6.9745
ExactMass: 368.25627424
Spectrum_type: 2
charge: -1
Formula: C21H36O5
SMILES: CC1[C@@H]([C@@H](OC1=O)CCCCCCCCCCCCCC(=O)C)C(=O)O
Method: HCD
Collision_energy: [28.333334]
Isolation_window: 4.0
Ion_mode: N
Num Peaks: 13
178.0983	4.2
247.1688	3.7
263.1642	11.7
265.1798	100.0
266.1833	16.5
281.1751	11.5
331.2263	4.2
349.2371	85.9
350.2407	19.0
367.0628	5.3
367.2489	12.9
368.2525	2.8
369.2270	3.2

Name: Diisopropyl phthalate
PrecursorMZ: 249.11317
RT: 6.3895
ExactMass: 250.12050905
Spectrum_type: 2
charge: -1
Formula: C14H18O4
SMILES: CC(C)OC(=O)C1=CC=CC=C1C(=O)OC(C)C
Method: HCD
Collision_energy: [28.333334]
Isolation_window: 4.0
Ion_mode: N
Num Peaks: 14
59.0129	25.6
149.0965	9.1
177.1279	7.9
184.0012	2.9
205.1231	3.5
221.1180	100.0
222.1214	12.4
248.0797	7.8
248.5822	2.6
249.0642	3.0
249.1132	23.3
249.1503	5.3
250.1169	3.7
251.1654	2.9

Name: Dimethachlor CGA369873
PrecursorMZ: 242.04917
RT: 2.5778
ExactMass: 243.05652907
Spectrum_type: 2
charge: -1
Formula: C10H13NO4S
SMILES: CC1=C(C(=CC=C1)C)NC(=O)CS(=O)(=O)O
Method: HCD
Collision_energy: [28.333334]
Isolation_window: 4.0
Ion_mode: N
Num Peaks: 5
79.9564	7.7
88.9872	5.5
124.0067	84.1
242.0494	100.0
243.0525	10.6

Name: Dimethylmalonic acid
PrecursorMZ: 131.03456
RT: 1.1638
ExactMass: 132.04225873
Spectrum_type: 2
charge: -1
Formula: C5H8O4
SMILES: CC(C)(C(=O)O)C(=O)O
Method: HCD
Collision_energy: [28.333334]
Isolation_window: 4.0
Ion_mode: N
Num Peaks: 6
57.0336	100.0
59.0129	37.4
87.0440	54.1
103.0026	97.7
130.0401	40.4
131.0349	50.3

Name: Dinoprost
PrecursorMZ: 707.47407
RT: 10.402
ExactMass: 354.24062418
Spectrum_type: 2
charge: -1
Formula: C20H34O5
SMILES: CCCCC[C@@H](/C=C/[C@H]1[C@@H](C[C@@H]([C@@H]1C/C=C\CCCC(=O)O)O)O)O
Method: HCD
Collision_energy: [28.333334]
Isolation_window: 4.0
Ion_mode: N
Num Peaks: 4
291.1960	25.1
293.2122	67.0
295.2274	100.0
309.2066	55.6

Name: Dinoseb
PrecursorMZ: 239.06709
RT: 8.599450000000001
ExactMass: 240.07462149
Spectrum_type: 2
charge: -1
Formula: C10H12N2O5
SMILES: CCC(C)C1=C(C(=CC(=C1)[N+](=O)[O-])[N+](=O)[O-])O
Method: HCD
Collision_energy: [28.333334]
Isolation_window: 4.0
Ion_mode: N
Num Peaks: 6
184.0014	2.2
223.0281	6.6
223.0719	2.5
239.0670	100.0
240.0707	11.9
241.0717	8.5

Name: Dinoterb
PrecursorMZ: 239.06703
RT: 8.3607
ExactMass: 240.07462149
Spectrum_type: 2
charge: -1
Formula: C10H12N2O5
SMILES: CC(C)(C)C1=C(C(=CC(=C1)[N+](=O)[O-])[N+](=O)[O-])O
Method: HCD
Collision_energy: [28.333334]
Isolation_window: 4.0
Ion_mode: N
Num Peaks: 7
207.0403	2.0
209.0686	1.1
223.0281	1.8
223.0721	1.7
239.0670	100.0
240.0703	11.2
241.0721	1.2

Name: Dioleoyl phosphatidylglycerol
PrecursorMZ: 773.53643
RT: 11.458
ExactMass: 774.54108571
Spectrum_type: 2
charge: -1
Formula: C42H79O10P
SMILES: CCCCCCCC/C=C\CCCCCCCC(=O)OCC(COP(=O)(O)OCC(CO)O)OC(=O)CCCCCCC/C=C\CCCCCCCC
Method: HCD
Collision_energy: [28.333334]
Isolation_window: 4.0
Ion_mode: N
Num Peaks: 13
78.9581	3.1
85.9513	1.3
152.9951	8.3
171.0057	2.9
255.2328	1.3
279.2332	2.2
281.2487	100.0
282.2522	18.1
283.2601	2.3
772.5370	1.4
773.5353	30.9
774.5386	14.0
775.5433	3.3

Name: Diosmin
PrecursorMZ: 607.16565
RT: 4.1315
ExactMass: 608.17412031
Spectrum_type: 2
charge: -1
Formula: C28H32O15
SMILES: C[C@H]1[C@@H]([C@H]([C@H]([C@@H](O1)OC[C@@H]2[C@H]([C@@H]([C@H]([C@@H](O2)OC3=CC(=C4C(=C3)OC(=CC4=O)C5=CC(=C(C=C5)OC)O)O)O)O)O)O)O)O
Method: HCD
Collision_energy: [28.333334]
Isolation_window: 4.0
Ion_mode: N
Num Peaks: 11
67.4648	1.1
284.0317	29.7
285.0351	3.5
299.0550	100.0
300.0584	13.5
301.0663	1.3
301.0696	3.2
607.1651	23.9
608.1677	6.0
609.1627	1.0
609.1747	2.2

Name: Dipalmitoylphosphatidylglycerol
PrecursorMZ: 721.50324
RT: 10.9784
ExactMass: 722.50978558
Spectrum_type: 2
charge: -1
Formula: C38H75O10P
SMILES: CCCCCCCCCCCCCCCC(=O)OCC(COP(=O)(O)OCC(CO)O)OC(=O)CCCCCCCCCCCCCCC
Method: HCD
Collision_energy: [28.333334]
Isolation_window: 4.0
Ion_mode: N
Num Peaks: 24
74.0239	1.9
78.9581	3.7
80.1697	1.1
152.9952	10.8
153.9988	1.2
154.9997	1.5
227.2014	12.9
228.2049	4.1
241.2168	1.5
253.2174	2.9
254.2213	1.2
255.2330	100.0
256.2364	26.4
257.2394	7.0
258.2418	2.3
271.2279	1.8
281.2487	7.5
282.2524	3.7
283.2552	1.4
719.5342	13.3
720.4937	9.7
721.5030	27.0
722.5076	11.8
723.5126	1.9

Name: Dipteryxin
PrecursorMZ: 313.07221
RT: 5.1055
ExactMass: 314.07903816
Spectrum_type: 2
charge: -1
Formula: C17H14O6
SMILES: COC1=CC=C(C=C1)C2=COC3=C(C(=C(C=C3C2=O)OC)O)O
Method: HCD
Collision_energy: [28.333334]
Isolation_window: 4.0
Ion_mode: N
Num Peaks: 5
191.0347	18.4
298.0490	18.9
313.0729	100.0
313.1085	14.1
314.0761	20.1

Name: Discontinued See A191400
PrecursorMZ: 568.26776
RT: 6.0561
ExactMass: 523.26957332
Spectrum_type: 2
charge: -1
Formula: C30H33N7O2
SMILES: CC1=C(C=CC(=C1)NC(=O)C2=CC=CC(=C2)C3=NN(C4=NC=NC(=C34)N)[C@@H]5CCCN(C5)C(=O)C=C)C(C)C
Method: HCD
Collision_energy: [28.333334]
Isolation_window: 4.0
Ion_mode: N
Num Peaks: 3
522.2617	100.0
523.2645	40.3
568.2644	35.7

Name: Diterpene deriv 329
PrecursorMZ: 319.22795
RT: 10.0022
ExactMass: 320.23514488
Spectrum_type: 2
charge: -1
Formula: C20H32O3
SMILES: CC1CCC2(C(C1(C)CCC(C)CC(=O)O)CC(=O)C=C2C)C
Method: HCD
Collision_energy: [28.333334]
Isolation_window: 4.0
Ion_mode: N
Num Peaks: 13
80.9642	1.5
275.1761	0.7
275.2380	100.0
275.3010	0.6
276.2414	20.2
277.2533	5.0
317.2484	2.7
318.2523	1.0
319.1517	0.6
319.2278	90.0
320.2311	20.1
321.1794	0.7
321.2359	1.5

Name: Dl-Phenylalanine
PrecursorMZ: 164.07044
RT: 1.74
ExactMass: 165.078978594
Spectrum_type: 2
charge: -1
Formula: C9H11NO2
SMILES: C1=CC=C(C=C1)CC(C(=O)O)N
Method: HCD
Collision_energy: [28.333334]
Isolation_window: 4.0
Ion_mode: N
Num Peaks: 61
59.0128	4.2
63.9613	9.4
66.0338	4.5
71.0126	3.8
71.0491	2.9
72.0080	32.3
72.0524	3.3
72.9920	3.3
73.0283	3.3
75.0076	14.9
76.9691	8.5
78.9579	5.8
79.9562	11.8
85.0282	2.7
87.0075	7.0
88.0108	2.6
89.0236	1.5
92.0494	1.6
94.0286	4.6
95.0601	11.2
96.9684	5.4
99.0439	4.0
100.0392	13.0
100.0474	7.6
101.0232	11.8
102.0265	10.6
103.0271	3.3
108.0191	6.2
108.0442	2.7
118.9912	3.2
119.0490	11.5
120.0443	5.5
121.0283	44.0
121.0392	13.1
122.0232	5.3
122.0599	10.4
126.0296	3.7
129.0178	2.4
136.0501	9.3
137.0237	1.6
144.0371	2.3
147.0343	1.8
147.0439	100.0
148.0474	9.7
160.0390	3.5
162.0463	9.0
162.0554	6.7
162.0851	2.6
163.0237	2.8
163.0379	2.8
163.0489	4.8
163.0602	6.8
164.0367	12.4
164.0586	2.2
164.0704	74.9
164.0818	15.0
165.0183	10.6
165.0403	93.9
165.0533	2.9
165.0748	6.7
166.0502	6.3

Name: Docosyl acetate
PrecursorMZ: 367.35656
RT: 11.7774
ExactMass: 368.36543077
Spectrum_type: 2
charge: -1
Formula: C24H48O2
SMILES: CCCCCCCCCCCCCCCCCCCCCCOC(=O)C
Method: HCD
Collision_energy: [28.333334]
Isolation_window: 4.0
Ion_mode: N
Num Peaks: 5
365.3408	2.2
366.3448	2.3
367.3567	100.0
368.3602	25.7
369.3638	2.3

Name: Docusate
PrecursorMZ: 421.22675
RT: 7.7955625
ExactMass: 422.23382472
Spectrum_type: 2
charge: -1
Formula: C20H38O7S
SMILES: CCCCC(CC)COC(=O)CC(C(=O)OCC(CC)CCCC)S(=O)(=O)O
Method: HCD
Collision_energy: [28.333334]
Isolation_window: 4.0
Ion_mode: N
Num Peaks: 10
61.9875	1.9
80.9542	0.8
80.9642	100.0
80.9720	0.7
81.9635	0.8
82.9600	2.1
96.9591	0.8
421.2265	39.1
422.2295	9.5
423.2274	2.4

Name: Dodecylbenzenesulphonic acid
PrecursorMZ: 325.1844
RT: 7.6103
ExactMass: 326.19156599
Spectrum_type: 2
charge: -1
Formula: C18H30O3S
SMILES: CCCCCCCCCCCCC1=CC=CC=C1S(=O)(=O)O
Method: HCD
Collision_energy: [28.333334]
Isolation_window: 4.0
Ion_mode: N
Num Peaks: 4
183.0110	4.0
325.1841	100.0
326.1874	20.7
327.1827	3.1

Name: Dopac
PrecursorMZ: 167.03443
RT: 3.43365
ExactMass: 168.04225873
Spectrum_type: 2
charge: -1
Formula: C8H8O4
SMILES: C1=CC(=C(C=C1CC(=O)O)O)O
Method: HCD
Collision_energy: [28.333334]
Isolation_window: 4.0
Ion_mode: N
Num Peaks: 26
66.0340	1.2
72.9922	3.0
82.0401	0.9
95.0130	0.8
111.0079	2.2
119.0494	4.0
121.0652	1.4
122.0606	0.8
123.0080	1.4
123.0445	0.9
124.0160	1.9
124.0508	0.9
135.0232	0.8
135.0444	100.0
136.0478	8.4
137.0601	0.9
147.0445	14.1
148.0479	2.7
151.0031	1.2
152.0109	14.6
153.0143	1.0
165.0550	7.3
166.0608	1.4
167.0344	74.6
167.0708	6.2
168.0381	6.1

Name: Dopamine
PrecursorMZ: 152.07102
RT: 1.9556
ExactMass: 153.078978594
Spectrum_type: 2
charge: -1
Formula: C8H11NO2
SMILES: C1=CC(=C(C=C1CCN)O)O
Method: HCD
Collision_energy: [28.333334]
Isolation_window: 4.0
Ion_mode: N
Num Peaks: 24
65.9976	5.6
66.0339	8.4
67.0292	5.9
68.0132	6.1
72.9921	6.7
81.0447	6.3
82.0289	7.7
84.0082	7.1
91.0291	7.1
106.9921	9.3
109.0287	10.1
109.0397	6.8
110.0239	18.6
122.0364	8.4
123.0444	26.1
124.0760	15.5
125.0236	5.4
125.0349	7.2
151.0255	6.0
151.0392	26.4
152.0709	100.0
153.0190	8.8
153.0551	13.1
153.0754	7.5

Name: Eburicoic Acid
PrecursorMZ: 469.36946
RT: 10.3954
ExactMass: 470.37599545
Spectrum_type: 2
charge: -1
Formula: C31H50O3
SMILES: CC(C)C(=C)CC[C@H]([C@H]1CC[C@@]2([C@@]1(CCC3=C2CC[C@@H]4[C@@]3(CC[C@@H](C4(C)C)O)C)C)C)C(=O)O
Method: HCD
Collision_energy: [28.333334]
Isolation_window: 4.0
Ion_mode: N
Num Peaks: 4
52.1535	4.7
469.3699	100.0
470.3734	30.7
471.3830	5.9

Name: Ecdysone
PrecursorMZ: 509.31195
RT: 6.86
ExactMass: 464.31378912
Spectrum_type: 2
charge: -1
Formula: C27H44O6
SMILES: C[C@@H]([C@H]1CC[C@@]2([C@@]1(CC[C@H]3C2=CC(=O)[C@H]4[C@@]3(C[C@@H]([C@@H](C4)O)O)C)C)O)[C@@H](CCC(C)(C)O)O
Method: HCD
Collision_energy: [28.333334]
Isolation_window: 4.0
Ion_mode: N
Num Peaks: 23
56.5918	4.2
59.0129	6.6
71.0129	3.9
74.0238	8.6
83.0493	3.5
96.9590	4.2
115.0391	6.1
129.0914	3.1
145.0497	5.5
155.0708	3.7
209.1542	3.3
253.1441	3.3
271.1558	3.2
465.3212	6.7
467.3388	3.1
475.3054	3.9
491.2997	9.8
493.3168	11.2
507.2981	4.6
508.3247	12.2
509.3123	100.0
510.3143	26.4
511.3298	68.4

Name: Ecgonine
PrecursorMZ: 184.09662
RT: 3.5793999999999997
ExactMass: 185.10519334
Spectrum_type: 2
charge: -1
Formula: C9H15NO3
SMILES: CN1[C@H]2CC[C@@H]1[C@H]([C@H](C2)O)C(=O)O
Method: HCD
Collision_energy: [28.333334]
Isolation_window: 4.0
Ion_mode: N
Num Peaks: 4
140.1068	8.3
157.0505	8.7
184.0967	100.0
185.1000	10.2

Name: Ecliptasaponin A
PrecursorMZ: 633.40153
RT: 6.6479
ExactMass: 634.40808342
Spectrum_type: 2
charge: -1
Formula: C36H58O9
SMILES: C[C@]12CC[C@@H](C([C@@H]1CC[C@@]3([C@@H]2CC=C4[C@]3(C[C@H]([C@@]5([C@H]4CC(CC5)(C)C)C(=O)O)O)C)C)(C)C)O[C@H]6[C@@H]([C@H]([C@@H]([C@H](O6)CO)O)O)O
Method: HCD
Collision_energy: [28.333334]
Isolation_window: 4.0
Ion_mode: N
Num Peaks: 17
57.0337	1.4
70.3759	2.2
70.3802	4.2
70.4917	1.7
71.0130	2.4
75.0079	15.5
85.0286	15.0
95.0130	1.3
99.0078	1.4
113.0235	16.7
116.0106	2.5
157.0134	2.5
175.0240	1.7
632.3841	4.0
633.4016	100.0
634.4052	39.0
635.4094	5.9

Name: Edicotinib
PrecursorMZ: 460.27225
RT: 6.5686
ExactMass: 461.27907538
Spectrum_type: 2
charge: -1
Formula: C27H35N5O2
SMILES: CC1(CCC(=CC1)C2=C(C=CC(=N2)C3CC(OC(C3)(C)C)(C)C)NC(=O)C4=NC=C(N4)C#N)C
Method: HCD
Collision_energy: [28.333334]
Isolation_window: 4.0
Ion_mode: N
Num Peaks: 18
51.1427	2.8
69.0560	2.7
79.9560	6.8
80.9639	13.5
124.0061	26.6
135.0299	15.3
136.0063	6.5
137.9849	2.5
166.0166	100.0
167.0203	3.7
342.2096	16.7
343.2129	3.7
442.2614	9.2
443.2640	2.4
459.2966	4.7
460.2724	61.5
461.2763	15.5
462.2698	3.4

Name: Efatutazone
PrecursorMZ: 501.16034
RT: 3.0616
ExactMass: 502.1674765
Spectrum_type: 2
charge: -1
Formula: C27H26N4O4S
SMILES: CC1=CC(=CC(=C1N)C)OC2=CC3=C(C=C2)N=C(N3C)COC4=CC=C(C=C4)CC5C(=O)NC(=O)S5
Method: HCD
Collision_energy: [28.333334]
Isolation_window: 4.0
Ion_mode: N
Num Peaks: 24
55.6829	2.0
55.6860	4.4
59.0128	8.9
69.1260	2.0
71.0128	7.8
89.0233	18.9
93.0334	6.3
101.0232	1.8
111.0440	4.4
135.0436	1.7
137.0233	31.7
138.0268	2.3
155.0339	39.7
156.0373	3.2
173.0445	45.6
174.0477	3.2
195.0652	23.7
196.0691	2.2
305.0870	79.8
306.0905	9.4
327.0863	2.4
501.1605	100.0
502.1642	20.7
503.1705	4.8

Name: Eleutherazine B
PrecursorMZ: 451.25563
RT: 2.7215
ExactMass: 452.26348488
Spectrum_type: 2
charge: -1
Formula: C22H36N4O6
SMILES: C/C(=C\C(=O)NCCCC1NC(=O)C(NC1=O)CCCNC(=O)/C=C(/CCO)\C)/CCO
Method: HCD
Collision_energy: [28.333334]
Isolation_window: 4.0
Ion_mode: N
Num Peaks: 19
98.0601	7.4
155.1178	5.5
167.1179	6.1
227.1507	19.4
237.1600	13.8
249.1601	15.9
266.1864	5.7
271.0835	6.3
309.1926	45.2
310.1956	7.3
321.1925	11.4
339.2033	15.4
348.2296	7.8
391.2344	16.3
403.2341	7.0
421.2452	20.4
422.2478	5.5
451.2559	100.0
452.2589	23.7

Name: Elmycin A
PrecursorMZ: 389.1243
RT: 4.5986
ExactMass: 344.12598835
Spectrum_type: 2
charge: -1
Formula: C19H20O6
SMILES: C[C@H]1CC2=C(C3C(=O)C4=C([C@@H]([C@]3([C@@H](C2)O)O)O)C(=CC=C4)O)C(=O)C1
Method: HCD
Collision_energy: [28.333334]
Isolation_window: 4.0
Ion_mode: N
Num Peaks: 14
79.9564	20.1
80.9643	16.4
208.0374	13.8
223.0608	42.3
225.0765	19.8
241.0713	22.5
285.1117	14.9
329.1030	31.9
389.1237	100.0
389.1676	15.9
389.2565	11.8
390.1248	24.1
391.1385	26.4
391.1799	51.2

Name: Ent-kauran-17,19-dioic acid
PrecursorMZ: 333.20727
RT: 5.2585
ExactMass: 334.21440943
Spectrum_type: 2
charge: -1
Formula: C20H30O4
SMILES: CC12CCCC(C1CCC34C2CCC(C3)C(C4)C(=O)O)(C)C(=O)O
Method: HCD
Collision_energy: [28.333334]
Isolation_window: 4.0
Ion_mode: N
Num Peaks: 3
333.2072	100.0
334.2105	21.3
335.2135	2.1

Name: Enterodiol
PrecursorMZ: 301.14447
RT: 4.78791
ExactMass: 302.15180918
Spectrum_type: 2
charge: -1
Formula: C18H22O4
SMILES: C1=CC(=CC(=C1)O)C[C@@H](CO)[C@@H](CC2=CC(=CC=C2)O)CO
Method: HCD
Collision_energy: [28.333334]
Isolation_window: 4.0
Ion_mode: N
Num Peaks: 22
93.0336	0.9
121.0285	1.3
136.0758	0.8
157.0651	0.8
216.1383	0.6
241.1229	3.6
243.1136	1.0
251.1074	4.4
252.1109	1.2
253.1231	6.2
254.1267	0.9
257.1298	1.2
259.1449	2.7
269.1178	1.4
271.1338	100.0
272.1372	17.2
273.1396	1.3
299.1286	5.3
300.1327	3.6
301.1443	40.2
302.1478	7.8
303.1359	1.3

Name: Enterolactone
PrecursorMZ: 297.11321
RT: 5.818962222222222
ExactMass: 298.12050905
Spectrum_type: 2
charge: -1
Formula: C18H18O4
SMILES: C1[C@H]([C@@H](C(=O)O1)CC2=CC(=CC=C2)O)CC3=CC(=CC=C3)O
Method: HCD
Collision_energy: [28.333334]
Isolation_window: 4.0
Ion_mode: N
Num Peaks: 22
107.0493	16.2
108.0527	1.3
119.0494	6.7
121.0650	6.4
131.0494	1.8
133.0650	1.3
145.0651	2.7
147.0444	1.5
165.0550	7.0
183.1387	1.5
189.0551	9.8
251.1072	1.8
253.1233	27.1
254.1264	4.9
297.1135	100.0
297.1519	12.7
297.2434	41.1
298.1168	19.9
298.1552	2.3
298.2470	7.4
299.1194	1.6
299.2376	1.5

Name: Epicatechin
PrecursorMZ: 289.07184
RT: 3.8936
ExactMass: 290.07903816
Spectrum_type: 2
charge: -1
Formula: C15H14O6
SMILES: C1[C@H]([C@H](OC2=CC(=CC(=C21)O)O)C3=CC(=C(C=C3)O)O)O
Method: HCD
Collision_energy: [28.333334]
Isolation_window: 4.0
Ion_mode: N
Num Peaks: 9
109.0286	7.7
123.0440	4.5
137.0237	4.7
161.0236	6.0
165.0185	5.7
167.0342	100.0
168.0377	8.5
271.0611	5.9
289.0718	19.2

Name: Eriocitrin (M+H)+
PrecursorMZ: 595.16786
RT: 3.745
ExactMass: 596.17412031
Spectrum_type: 2
charge: -1
Formula: C27H32O15
SMILES: CC1C(C(C(C(O1)OCC2C(C(C(C(O2)OC3=CC(=C4C(=O)CC(OC4=C3)C5=CC(=C(C=C5)O)O)O)O)O)O)O)O)O
Method: HCD
Collision_energy: [28.333334]
Isolation_window: 4.0
Ion_mode: N
Num Peaks: 16
107.0131	3.7
125.0236	4.1
135.0445	24.1
151.0031	100.0
152.0065	7.2
175.0031	5.3
285.0410	5.6
286.0443	3.1
287.0564	89.2
288.0598	11.7
357.0989	4.0
387.1088	3.5
594.1537	4.5
595.1675	34.3
596.1704	7.8
597.1792	4.5

Name: Erionic acid E
PrecursorMZ: 373.2019
RT: 8.2159
ExactMass: 374.20932405
Spectrum_type: 2
charge: -1
Formula: C22H30O5
SMILES: CC(CCC1=C(C(=CC(=C1)C(=O)O)CC=C(C)C)O)C(=O)/C=C/C(C)(C)O
Method: HCD
Collision_energy: [28.333334]
Isolation_window: 4.0
Ion_mode: N
Num Peaks: 11
257.1904	4.5
269.1909	4.5
285.2223	47.6
286.2258	8.7
311.2017	18.7
312.2049	4.9
329.2119	21.9
330.2143	4.6
373.2021	100.0
374.2052	22.7
375.2140	5.5

Name: Erythrono-1,4-lactone
PrecursorMZ: 117.01838
RT: 1.2169
ExactMass: 118.02660867
Spectrum_type: 2
charge: -1
Formula: C4H6O4
SMILES: C1[C@H]([C@H](C(=O)O1)O)O
Method: HCD
Collision_energy: [28.333334]
Isolation_window: 4.0
Ion_mode: N
Num Peaks: 8
72.9923	4.7
73.0286	100.0
74.0318	4.0
99.0078	9.5
99.9248	2.8
116.0246	3.3
116.9276	18.7
117.0185	21.3

Name: Estriol
PrecursorMZ: 287.16555
RT: 5.5508
ExactMass: 288.17254462
Spectrum_type: 2
charge: -1
Formula: C18H24O3
SMILES: C[C@]12CC[C@H]3[C@H]([C@@H]1C[C@H]([C@@H]2O)O)CCC4=C3C=CC(=C4)O
Method: HCD
Collision_energy: [28.333334]
Isolation_window: 4.0
Ion_mode: N
Num Peaks: 3
287.1655	100.0
288.1689	20.0
289.1714	1.8

Name: Ethyl 3-alpha,7-alpha,12-alpha-trihydroxy-5-beta-cholan-24-oate
PrecursorMZ: 481.31768
RT: 5.265
ExactMass: 436.3188745
Spectrum_type: 2
charge: -1
Formula: C26H44O5
SMILES: CCOC(=O)CCC(C)C1CCC2C1(C(CC3C2C(CC4C3(CCC(C4)O)C)O)O)C
Method: HCD
Collision_energy: [28.333334]
Isolation_window: 4.0
Ion_mode: N
Num Peaks: 6
61.9875	100.0
79.9565	64.0
481.3191	56.6
482.3245	20.1
483.1298	38.9
483.3354	30.7

Name: Ethyl 4-((3-methoxyphenyl)carbamoyl)-3-methyl-2-oxo-1-oxa-8-azaspiro(4.5)dec-3-ene-8-carboxylate
PrecursorMZ: 387.15658
RT: 9.57
ExactMass: 388.16343649
Spectrum_type: 2
charge: -1
Formula: C20H24N2O6
SMILES: CCOC(=O)N1CCC2(CC1)C(=C(C(=O)O2)C)C(=O)NC3=CC(=CC=C3)OC
Method: HCD
Collision_energy: [28.333334]
Isolation_window: 4.0
Ion_mode: N
Num Peaks: 4
341.1636	9.4
387.1565	100.0
388.1600	22.1
389.1627	2.9

Name: Ethyl Hematommate
PrecursorMZ: 223.0603
RT: 2.455
ExactMass: 224.06847348
Spectrum_type: 2
charge: -1
Formula: C11H12O5
SMILES: CCOC(=O)C1=C(C(=C(C=C1C)O)C=O)O
Method: HCD
Collision_energy: [28.333334]
Isolation_window: 4.0
Ion_mode: N
Num Peaks: 12
59.0129	13.4
109.0285	9.1
123.0441	20.1
150.0312	15.4
151.0394	13.9
161.0599	100.0
162.0633	11.9
163.0391	78.8
179.0707	18.8
195.0655	34.5
223.0606	68.4
224.0634	9.0

Name: Ethyl Myristate
PrecursorMZ: 255.23188
RT: 10.0654
ExactMass: 256.240230259
Spectrum_type: 2
charge: -1
Formula: C16H32O2
SMILES: CCCCCCCCCCCCCC(=O)OCC
Method: HCD
Collision_energy: [28.333334]
Isolation_window: 4.0
Ion_mode: N
Num Peaks: 3
255.0881	2.8
255.2319	100.0
256.2352	15.5

Name: Eurycomanone
PrecursorMZ: 407.13527
RT: 3.2289
ExactMass: 408.14203234
Spectrum_type: 2
charge: -1
Formula: C20H24O9
SMILES: CC1=CC(=O)[C@H]([C@]2([C@H]1C[C@@H]3[C@]45[C@@H]2[C@]([C@@H](C(=C)[C@@]4([C@H](C(=O)O3)O)O)O)(OC5)O)C)O
Method: HCD
Collision_energy: [28.333334]
Isolation_window: 4.0
Ion_mode: N
Num Peaks: 5
61.9875	91.8
151.0394	71.0
179.0709	54.2
181.0503	72.1
361.1299	100.0

Name: Euscaphic Acid
PrecursorMZ: 487.34306
RT: 10.2836
ExactMass: 488.35017463
Spectrum_type: 2
charge: -1
Formula: C30H48O5
SMILES: C[C@@H]1CC[C@@]2(CC[C@@]3(C(=CC[C@H]4[C@]3(CC[C@@H]5[C@@]4(C[C@H]([C@H](C5(C)C)O)O)C)C)[C@@H]2[C@]1(C)O)C)C(=O)O
Method: HCD
Collision_energy: [28.333334]
Isolation_window: 4.0
Ion_mode: N
Num Peaks: 5
411.3271	100.0
412.3305	30.4
487.3427	59.3
488.3461	18.9
489.3583	9.3

Name: F01-1358A
PrecursorMZ: 361.16464
RT: 4.7668
ExactMass: 362.17293854
Spectrum_type: 2
charge: -1
Formula: C20H26O6
SMILES: CC1=C2COC(=O)C2=C(C(=C1OC)C/C=C(\C)/CCCC(C)C(=O)O)O
Method: HCD
Collision_energy: [28.333334]
Isolation_window: 4.0
Ion_mode: N
Num Peaks: 19
94.0286	1.5
114.0547	3.1
171.1013	0.9
181.0491	0.9
203.1426	1.5
229.1220	1.0
255.1744	0.9
273.1850	5.9
274.1883	0.9
299.1632	1.2
317.1747	7.5
318.1788	1.7
343.1532	1.6
359.2055	1.5
361.1648	100.0
361.2156	2.1
361.2551	3.4
362.1684	22.6
363.1748	3.1

Name: FA 18:0+2O+SO4
PrecursorMZ: 395.20951
RT: 6.5179
ExactMass: 396.21817466
Spectrum_type: 2
charge: -1
Formula: C18H36O7S
SMILES: CCCCCCCCC(C(CCCCCCCC(=O)OS(=O)(=O)O)O)O
Method: HCD
Collision_energy: [28.333334]
Isolation_window: 4.0
Ion_mode: N
Num Peaks: 6
96.9588	100.0
315.2527	9.0
393.2914	35.6
394.2923	6.5
395.2079	82.9
396.2116	17.8

Name: Fallacinol
PrecursorMZ: 299.05586
RT: 6.905
ExactMass: 300.0633881
Spectrum_type: 2
charge: -1
Formula: C16H12O6
SMILES: COC1=CC2=C(C(=C1)O)C(=O)C3=C(C2=O)C=C(C=C3O)CO
Method: HCD
Collision_energy: [28.333334]
Isolation_window: 4.0
Ion_mode: N
Num Peaks: 13
93.0337	3.6
165.0186	16.2
240.0420	3.9
243.0655	3.2
256.0379	2.8
271.0611	22.0
272.0640	3.8
284.0321	8.4
297.1527	100.0
298.1560	28.9
299.0558	40.6
299.1514	8.7
300.0591	6.7

Name: Fexofenadine
PrecursorMZ: 500.28016
RT: 6.0304
ExactMass: 501.28790873
Spectrum_type: 2
charge: -1
Formula: C32H39NO4
SMILES: CC(C)(C1=CC=C(C=C1)C(CCCN2CCC(CC2)C(C3=CC=CC=C3)(C4=CC=CC=C4)O)O)C(=O)O
Method: HCD
Collision_energy: [28.333334]
Isolation_window: 4.0
Ion_mode: N
Num Peaks: 11
188.1074	12.7
230.1551	5.3
249.0924	6.1
258.1496	91.6
259.1530	12.7
378.2437	85.4
379.2468	19.7
456.2907	100.0
457.2941	30.8
500.2795	21.6
501.2848	6.7

Name: Flavanone base + 4O, 1Prenyl
PrecursorMZ: 355.11735
RT: 6.8544
ExactMass: 356.12598835
Spectrum_type: 2
charge: -1
Formula: C20H20O6
SMILES: CC(=CCC1=C(C(=CC(=C1)C2CC(=O)C3=C(C=C(C=C3O2)O)O)O)O)C
Method: HCD
Collision_energy: [28.333334]
Isolation_window: 4.0
Ion_mode: N
Num Peaks: 10
124.0152	5.8
125.0959	4.6
149.0958	7.5
151.0752	4.3
161.0230	62.7
162.0264	5.7
193.0856	100.0
194.0891	11.9
355.1175	68.6
356.1208	13.3

Name: Flavone base + 3O, C-Hex-FeruloylHex
PrecursorMZ: 769.19792
RT: 3.8733
Spectrum_type: 2
charge: -1
SMILES: O=C(OCC5OC(OC1C(OC(CO)C(O)C1(O))C=2C(O)=CC=3OC(=CC(=O)C=3(C=2(O)))C4=CC=C(O)C=C4)C(O)C(O)C5(O))C=CC=6C=CC(O)=C(OC)C=6
Method: HCD
Collision_energy: [28.333334]
Isolation_window: 4.0
Ion_mode: N
Num Peaks: 10
60.5715	3.0
335.0560	9.5
365.0666	4.9
425.0876	100.0
426.0912	20.9
427.0916	3.0
545.1295	65.3
546.1329	16.1
769.1996	10.5
770.2035	4.1

Name: Flopropione
PrecursorMZ: 181.05011
RT: 2.5912
ExactMass: 182.0579088
Spectrum_type: 2
charge: -1
Formula: C9H10O4
SMILES: CCC(=O)C1=C(C=C(C=C1O)O)O
Method: HCD
Collision_energy: [28.333334]
Isolation_window: 4.0
Ion_mode: N
Num Peaks: 32
57.0338	1.2
59.0130	10.1
72.9922	0.7
93.0337	0.7
95.0494	19.7
96.0527	1.3
109.0287	3.4
109.0399	0.8
109.0650	2.1
119.0495	2.4
121.0288	3.8
122.0368	1.0
123.0319	0.8
124.0160	2.2
135.0446	3.9
136.0398	0.8
137.0241	1.4
137.0359	0.9
137.0602	100.0
138.0551	4.5
138.0636	8.5
139.0395	1.6
151.0395	4.0
152.0456	0.7
163.0395	1.2
168.0059	5.1
179.0345	2.4
179.0573	0.7
180.0655	0.7
181.0503	14.4
182.0539	1.6
183.0293	3.0

Name: Flurenol
PrecursorMZ: 225.0554
RT: 5.7487
ExactMass: 226.062994177
Spectrum_type: 2
charge: -1
Formula: C14H10O3
SMILES: C1=CC=C2C(=C1)C3=CC=CC=C3C2(C(=O)O)O
Method: HCD
Collision_energy: [28.333334]
Isolation_window: 4.0
Ion_mode: N
Num Peaks: 5
180.0573	39.1
181.0651	100.0
182.0685	12.4
197.0603	3.1
225.0553	9.4

Name: Forskolin
PrecursorMZ: 409.22368
RT: 5.5579375
ExactMass: 410.23045342
Spectrum_type: 2
charge: -1
Formula: C22H34O7
SMILES: CC(=O)O[C@H]1[C@H]([C@@H]2[C@]([C@H](CCC2(C)C)O)([C@@]3([C@@]1(O[C@@](CC3=O)(C)C=C)C)O)C)O
Method: HCD
Collision_energy: [28.333334]
Isolation_window: 4.0
Ion_mode: N
Num Peaks: 18
219.1390	13.5
220.1429	1.9
247.1343	2.4
249.1498	22.7
250.1533	3.3
269.1917	3.3
345.2794	2.8
367.2494	6.0
407.2141	1.9
407.2761	100.0
407.2811	55.8
408.2117	2.0
408.2829	32.3
409.2239	78.8
409.2799	4.2
409.2877	4.7
410.2271	18.6
411.2369	15.7

Name: GW791343
PrecursorMZ: 373.18441
RT: 10.4242
ExactMass: 374.19181773
Spectrum_type: 2
charge: -1
Formula: C20H24F2N4O
SMILES: CC1=C(C=C(C=C1)CN2CCNCC2)NC(=O)CNC3=CC(=C(C=C3)F)F
Method: HCD
Collision_energy: [28.333334]
Isolation_window: 4.0
Ion_mode: N
Num Peaks: 8
108.0446	7.7
317.1945	69.5
318.1981	13.9
329.1942	12.6
345.1895	27.9
346.1922	6.1
373.1846	100.0
374.1880	22.9

Name: Galdosol
PrecursorMZ: 343.15544
RT: 7.0015
ExactMass: 344.16237386
Spectrum_type: 2
charge: -1
Formula: C20H24O5
SMILES: CC(C)C1=C(C(=C2C(=C1)C(=O)[C@@H]3[C@@H]4[C@@]2(CCCC4(C)C)C(=O)O3)O)O
Method: HCD
Collision_energy: [28.333334]
Isolation_window: 4.0
Ion_mode: N
Num Peaks: 4
299.1657	19.5
343.1554	100.0
344.1596	22.5
345.1702	16.0

Name: Gamma-Linolenic acid
PrecursorMZ: 337.23872
RT: 9.7648
ExactMass: 278.224580195
Spectrum_type: 2
charge: -1
Formula: C18H30O2
SMILES: CCCCC/C=C\C/C=C\C/C=C\CCCCC(=O)O
Method: HCD
Collision_energy: [28.333334]
Isolation_window: 4.0
Ion_mode: N
Num Peaks: 10
57.9748	2.3
75.0079	100.0
76.0113	2.3
279.2332	27.4
280.2367	5.3
294.1900	14.6
337.2387	14.9
338.1794	2.1
338.2413	3.4
339.2004	3.5

Name: Gamma-mangostin
PrecursorMZ: 395.15135
RT: 8.058
ExactMass: 396.15728848
Spectrum_type: 2
charge: -1
Formula: C23H24O6
SMILES: CC(=CCC1=C(C2=C(C=C1O)OC3=C(C2=O)C(=C(C(=C3)O)O)CC=C(C)C)O)C
Method: HCD
Collision_energy: [28.333334]
Isolation_window: 4.0
Ion_mode: N
Num Peaks: 8
277.2168	26.5
325.1833	100.0
326.1870	47.5
351.1620	94.9
352.1653	20.2
365.1412	28.1
395.1520	93.3
396.1538	22.1

Name: Ganoderic Acid A
PrecursorMZ: 515.30137
RT: 6.2002
ExactMass: 516.30870374
Spectrum_type: 2
charge: -1
Formula: C30H44O7
SMILES: C[C@H](CC(=O)C[C@@H](C)C(=O)O)[C@H]1C[C@@H]([C@@]2([C@@]1(CC(=O)C3=C2[C@H](C[C@@H]4[C@@]3(CCC(=O)C4(C)C)C)O)C)C)O
Method: HCD
Collision_energy: [28.333334]
Isolation_window: 4.0
Ion_mode: N
Num Peaks: 7
57.2575	4.0
96.9588	12.2
513.2796	13.8
514.2861	26.3
515.3030	100.0
516.3065	27.0
517.3062	6.5

Name: Garcinoic acid
PrecursorMZ: 425.27043
RT: 7.9806
ExactMass: 426.27700969
Spectrum_type: 2
charge: -1
Formula: C27H38O4
SMILES: CC1=CC(=CC2=C1O[C@](CC2)(C)CC/C=C(\C)/CC/C=C(\C)/CC/C=C(\C)/C(=O)O)O
Method: HCD
Collision_energy: [28.333334]
Isolation_window: 4.0
Ion_mode: N
Num Peaks: 4
381.2811	100.0
382.2838	24.5
425.2710	91.7
426.2744	24.0

Name: Gedunin
PrecursorMZ: 481.22352
RT: 7.8896
ExactMass: 482.23045342
Spectrum_type: 2
charge: -1
Formula: C28H34O7
SMILES: CC(=O)O[C@@H]1C[C@@H]2[C@](C=CC(=O)C2(C)C)([C@@H]3[C@@]1([C@]45[C@H](O4)C(=O)O[C@H]([C@@]5(CC3)C)C6=COC=C6)C)C
Method: HCD
Collision_energy: [28.333334]
Isolation_window: 4.0
Ion_mode: N
Num Peaks: 26
53.7002	2.2
53.7031	4.4
61.9875	2.3
96.9592	3.0
108.0445	2.3
125.0235	4.1
203.0707	1.9
211.0758	2.1
221.1180	2.1
227.1069	2.8
263.1286	9.9
271.0978	3.8
329.1760	4.6
353.2125	2.5
379.1916	4.7
397.2028	4.0
437.2328	5.2
463.2114	1.7
479.2855	1.8
480.3099	2.1
481.2246	38.6
481.2994	7.2
481.3569	2.0
482.2282	11.3
482.3036	2.3
483.3149	100.0

Name: Gemcabene
PrecursorMZ: 301.20209
RT: 5.1379
ExactMass: 302.20932405
Spectrum_type: 2
charge: -1
Formula: C16H30O5
SMILES: CC(C)(CCCCOCCCCC(C)(C)C(=O)O)C(=O)O
Method: HCD
Collision_energy: [28.333334]
Isolation_window: 4.0
Ion_mode: N
Num Peaks: 13
129.0914	6.9
141.0914	7.2
153.0913	6.6
159.0443	13.1
171.1017	8.9
183.1023	16.4
183.1384	28.6
255.1967	8.5
299.1866	13.3
300.1901	7.4
301.2020	100.0
302.1032	7.0
302.2054	16.5

Name: Gibbane-1,10-dicarboxylic acid, 2,4a-dihydroxy-1-methyl-8-methylene-, 1,4a-lactone, (1alpha,2beta,4aalpha,4bbeta,10beta)-
PrecursorMZ: 331.15393
RT: 5.1959
ExactMass: 332.16237386
Spectrum_type: 2
charge: -1
Formula: C19H24O5
SMILES: CC12C(CCC3(C1C(C45C3CCC(C4)C(=C)C5)C(=O)O)OC2=O)O
Method: HCD
Collision_energy: [28.333334]
Isolation_window: 4.0
Ion_mode: N
Num Peaks: 11
164.0705	5.1
231.0521	8.4
243.1743	4.6
245.0679	10.8
287.0550	6.3
287.1642	9.5
288.1231	6.0
329.2323	4.4
331.1541	100.0
332.1131	18.0
332.1573	21.3

Name: Gibberellin A1
PrecursorMZ: 347.14997
RT: 4.69805
ExactMass: 348.15728848
Spectrum_type: 2
charge: -1
Formula: C19H24O6
SMILES: C[C@@]12[C@H](CC[C@@]3([C@@H]1[C@@H]([C@]45[C@H]3CC[C@](C4)(C(=C)C5)O)C(=O)O)OC2=O)O
Method: HCD
Collision_energy: [28.333334]
Isolation_window: 4.0
Ion_mode: N
Num Peaks: 10
271.1446	7.7
287.1401	24.4
301.1447	90.0
302.1480	18.1
315.1351	100.0
316.1382	19.6
345.2280	37.4
346.2310	11.4
347.1610	43.1
348.1635	7.4

Name: Gibberellin A12
PrecursorMZ: 331.19147
RT: 7.3759
ExactMass: 332.19875937
Spectrum_type: 2
charge: -1
Formula: C20H28O4
SMILES: C[C@@]12CCC[C@@]([C@H]1[C@@H]([C@]34[C@H]2CC[C@H](C3)C(=C)C4)C(=O)O)(C)C(=O)O
Method: HCD
Collision_energy: [28.333334]
Isolation_window: 4.0
Ion_mode: N
Num Peaks: 17
121.0287	2.9
241.1597	5.8
243.1747	2.6
257.1912	9.4
259.1705	2.5
269.1555	2.9
269.1912	5.3
287.1652	4.2
287.2018	3.2
314.1526	7.0
315.1558	3.0
329.1759	22.5
330.1797	12.3
331.1549	28.8
331.1917	100.0
332.1607	4.8
332.1948	17.7

Name: Gibberellin A30
PrecursorMZ: 391.14005
RT: 3.9017
ExactMass: 346.14163842
Spectrum_type: 2
charge: -1
Formula: C19H22O6
SMILES: C[C@@]12[C@H](C=C[C@@]3([C@@H]1[C@@H]([C@]45[C@H]3C[C@@H]([C@H](C4)C(=C)C5)O)C(=O)O)OC2=O)O
Method: HCD
Collision_energy: [28.333334]
Isolation_window: 4.0
Ion_mode: N
Num Peaks: 12
59.0129	17.9
61.9874	53.2
165.0551	32.3
195.0656	100.0
315.1235	34.1
343.1186	22.8
345.1339	52.9
346.1359	17.6
389.2560	25.0
390.1193	41.3
391.1415	45.0
391.2719	35.8

Name: Gibberellin A4
PrecursorMZ: 331.15537
RT: 6.9103
ExactMass: 332.16237386
Spectrum_type: 2
charge: -1
Formula: C19H24O5
SMILES: C[C@@]12[C@H](CC[C@@]3([C@@H]1[C@@H]([C@]45[C@H]3CC[C@H](C4)C(=C)C5)C(=O)O)OC2=O)O
Method: HCD
Collision_energy: [28.333334]
Isolation_window: 4.0
Ion_mode: N
Num Peaks: 4
243.1756	36.3
287.1656	100.0
288.1693	20.0
331.1558	23.2

Name: Gibberellin A4&A7
PrecursorMZ: 329.13951
RT: 5.7674
ExactMass: 330.1467238
Spectrum_type: 2
charge: -1
Formula: C19H22O5
SMILES: C[C@]12[C@H](C=C[C@@]3([C@@H]1[C@@H]([C@]45[C@H]3CC[C@H](C4)C(=C)C5)C(=O)O)OC2=O)O
Method: HCD
Collision_energy: [28.333334]
Isolation_window: 4.0
Ion_mode: N
Num Peaks: 11
241.1597	100.0
242.1631	18.2
285.1497	45.2
286.1529	10.5
327.1633	33.4
327.2176	8.2
328.1664	15.3
329.1387	57.5
329.2332	37.5
330.1426	9.9
330.2370	7.7

Name: Gibberellin A7
PrecursorMZ: 659.28661
RT: 5.3616
ExactMass: 330.1467238
Spectrum_type: 2
charge: -1
Formula: C19H22O5
SMILES: C[C@@]12[C@H](C=C[C@@]3([C@@H]1[C@@H]([C@]45[C@H]3CC[C@H](C4)C(=C)C5)C(=O)O)OC2=O)O
Method: HCD
Collision_energy: [28.333334]
Isolation_window: 4.0
Ion_mode: N
Num Peaks: 15
241.1233	1.4
253.1233	14.7
254.1264	2.3
271.1337	3.6
283.1339	16.2
284.1369	3.2
301.1445	94.8
302.1478	17.0
328.1185	1.3
329.1396	100.0
330.1428	18.8
331.1464	1.4
602.2841	1.5
657.2720	1.2
658.2739	2.9

Name: Gibberellin A79
PrecursorMZ: 363.14546
RT: 4.893083333333333
ExactMass: 364.1522031
Spectrum_type: 2
charge: -1
Formula: C19H24O7
SMILES: CC12C3C(C45CC(CCC4C3(C(C(C1O)O)O)OC2=O)C(=C)C5)C(=O)O
Method: HCD
Collision_energy: [28.333334]
Isolation_window: 4.0
Ion_mode: N
Num Peaks: 21
58.0051	6.4
111.0441	4.3
181.0499	10.2
195.0656	23.0
221.1335	9.1
227.1438	6.7
239.1439	19.1
245.1546	12.0
257.1545	31.8
258.1579	5.8
275.1651	12.6
301.1448	14.3
319.1550	4.2
345.1343	15.6
361.1661	8.5
362.1690	4.7
363.1442	100.0
363.1825	91.9
364.1474	20.3
364.1855	18.1
365.1969	21.5

Name: Gibberellin A8
PrecursorMZ: 363.14426
RT: 2.9562
ExactMass: 364.1522031
Spectrum_type: 2
charge: -1
Formula: C19H24O7
SMILES: C[C@]12[C@H]3[C@@H]([C@@]45CC(=C)[C@@](C4)(CC[C@H]5[C@@]3(C[C@@H]([C@@H]1O)O)OC2=O)O)C(=O)O
Method: HCD
Collision_energy: [28.333334]
Isolation_window: 4.0
Ion_mode: N
Num Peaks: 26
58.0050	9.1
59.0128	3.3
88.9868	5.1
119.0855	11.4
151.0390	2.7
156.1017	2.6
159.0806	4.0
180.0653	2.9
190.0501	2.8
193.0492	3.4
211.0598	2.9
239.1434	4.7
245.1539	5.7
257.1540	20.1
258.1569	2.6
275.1646	48.0
276.1683	8.3
301.1436	3.8
319.1546	21.9
320.1576	4.7
362.1278	3.9
363.1092	7.6
363.1450	100.0
364.1063	3.8
364.1479	22.6
365.0843	2.7

Name: Ginkgolide B
PrecursorMZ: 423.13017
RT: 2.9904
ExactMass: 424.13694696
Spectrum_type: 2
charge: -1
Formula: C20H24O10
SMILES: C[C@@H]1C(=O)O[C@@H]2[C@]1([C@@]34C(=O)O[C@H]5[C@]3([C@@H]2O)[C@@]6([C@@H](C5)C(C)(C)C)[C@H](C(=O)O[C@H]6O4)O)O
Method: HCD
Collision_energy: [28.333334]
Isolation_window: 4.0
Ion_mode: N
Num Peaks: 5
60.9923	6.0
61.9875	2.3
88.9871	100.0
89.9906	2.3
333.1352	3.8

Name: Ginsenoside F1
PrecursorMZ: 637.43241
RT: 9.4414
ExactMass: 638.43938355
Spectrum_type: 2
charge: -1
Formula: C36H62O9
SMILES: CC(=CCC[C@@](C)([C@H]1CC[C@@]2([C@@H]1[C@@H](C[C@H]3[C@]2(C[C@@H]([C@@H]4[C@@]3(CC[C@@H](C4(C)C)O)C)O)C)O)C)O[C@H]5[C@@H]([C@H]([C@@H]([C@H](O5)CO)O)O)O)C
Method: HCD
Collision_energy: [28.333334]
Isolation_window: 4.0
Ion_mode: N
Num Peaks: 4
61.9874	100.0
636.5192	15.9
637.4314	33.3
638.4415	11.9

Name: Ginsenoside Rg5
PrecursorMZ: 765.4805
RT: 9.3044
ExactMass: 766.48672766
Spectrum_type: 2
charge: -1
Formula: C42H70O12
SMILES: CC(=CC/C=C(\C)/[C@H]1CC[C@@]2([C@@H]1[C@@H](C[C@H]3[C@]2(CC[C@@H]4[C@@]3(CC[C@@H](C4(C)C)O[C@H]5[C@@H]([C@H]([C@@H]([C@H](O5)CO)O)O)O[C@H]6[C@@H]([C@H]([C@@H]([C@H](O6)CO)O)O)O)C)C)O)C)C
Method: HCD
Collision_energy: [28.333334]
Isolation_window: 4.0
Ion_mode: N
Num Peaks: 11
59.0129	30.4
61.9874	11.4
71.0129	24.4
85.0286	7.9
89.0234	34.7
101.0234	29.5
113.0234	13.6
119.0340	17.3
719.4742	100.0
720.4775	39.8
721.4794	9.1

Name: Ginsenoside Rk3
PrecursorMZ: 665.42721
RT: 6.17975
ExactMass: 620.42881887
Spectrum_type: 2
charge: -1
Formula: C36H60O8
SMILES: CC(=CCCC(=C)[C@H]1CC[C@@]2([C@@H]1[C@@H](C[C@H]3[C@]2(C[C@@H]([C@@H]4[C@@]3(CC[C@@H](C4(C)C)O)C)O[C@H]5[C@@H]([C@H]([C@@H]([C@H](O5)CO)O)O)O)C)O)C)C
Method: HCD
Collision_energy: [28.333334]
Isolation_window: 4.0
Ion_mode: N
Num Peaks: 9
471.3478	21.3
472.3507	7.2
473.3642	14.6
474.3662	5.6
619.4219	50.6
620.4247	20.6
665.4278	100.0
666.4314	43.1
667.4241	6.9

Name: Gliocladic Acid
PrecursorMZ: 253.14455
RT: 5.333
ExactMass: 254.15180918
Spectrum_type: 2
charge: -1
Formula: C14H22O4
SMILES: CC(C)[C@H]1CCC(=C[C@@H]1/C=C(\CO)/C(=O)O)CO
Method: HCD
Collision_energy: [28.333334]
Isolation_window: 4.0
Ion_mode: N
Num Peaks: 3
57.0337	24.2
191.1435	25.5
253.1447	100.0

Name: Gluconapin
PrecursorMZ: 372.04289
RT: 1.3625
ExactMass: 373.05012353
Spectrum_type: 2
charge: -1
Formula: C11H19NO9S2
SMILES: C=CCC/C(=N\OS(=O)(=O)O)/S[C@H]1[C@@H]([C@H]([C@@H]([C@H](O1)CO)O)O)O
Method: HCD
Collision_energy: [28.333334]
Isolation_window: 4.0
Ion_mode: N
Num Peaks: 19
71.0130	1.7
74.9900	53.7
79.9564	12.3
85.0286	2.9
88.9871	4.3
95.9513	41.1
96.9591	100.0
98.9549	2.0
101.0235	1.9
119.0341	2.1
130.0323	3.3
134.0462	4.1
195.0326	3.5
259.0129	2.6
274.9902	1.7
372.0429	90.0
372.1888	2.6
373.0457	12.5
374.0396	5.9

Name: Glutamic Acid + CDCA
PrecursorMZ: 520.32769
RT: 6.232916666666666
ExactMass: 521.33525284
Spectrum_type: 2
charge: -1
Formula: C29H47NO7
SMILES: C[C@H](CCC(=O)N[C@@H](CCC(=O)O)C(=O)O)[C@H]1CC[C@@H]2[C@@]1(CC[C@H]3[C@H]2[C@@H](C[C@H]4[C@@]3(CC[C@H](C4)O)C)O)C
Method: HCD
Collision_energy: [28.333334]
Isolation_window: 4.0
Ion_mode: N
Num Peaks: 13
57.8159	4.1
102.0551	15.7
114.0551	3.0
128.0344	50.4
146.0451	8.1
391.2856	27.5
392.2890	5.9
476.3386	7.7
502.3188	5.1
519.3259	3.0
520.3284	100.0
521.3331	32.6
522.3373	4.9

Name: Glutamic Acid + Cholic Acid
PrecursorMZ: 536.32342
RT: 5.571342857142857
ExactMass: 537.33016746
Spectrum_type: 2
charge: -1
Formula: C29H47NO8
SMILES: C[C@H](CCC(=O)N[C@@H](CCC(=O)O)C(=O)O)[C@H]1CC[C@@H]2[C@@]1([C@H](C[C@H]3[C@H]2[C@@H](C[C@H]4[C@@]3(CC[C@H](C4)O)C)O)O)C
Method: HCD
Collision_energy: [28.333334]
Isolation_window: 4.0
Ion_mode: N
Num Peaks: 23
59.5898	2.3
59.5933	4.3
59.7013	0.7
59.7047	1.2
102.0551	9.3
128.0345	46.3
129.0380	2.1
146.0452	8.4
407.2807	32.6
408.2844	8.2
409.2894	0.8
430.3326	0.7
492.3336	7.5
493.3375	2.2
518.3127	3.4
519.3146	0.8
535.3197	0.8
536.1535	0.8
536.3236	100.0
536.4591	0.6
536.4920	0.7
537.3268	30.2
538.3287	5.0

Name: Glutamic Acid + DCA
PrecursorMZ: 520.32808
RT: 6.36895
ExactMass: 521.33525284
Spectrum_type: 2
charge: -1
Formula: C29H47NO7
SMILES: C[C@H](CCC(=O)N[C@@H](CCC(=O)O)C(=O)O)[C@H]1CC[C@@H]2[C@@]1([C@H](C[C@H]3[C@H]2CC[C@H]4[C@@]3(CC[C@H](C4)O)C)O)C
Method: HCD
Collision_energy: [28.333334]
Isolation_window: 4.0
Ion_mode: N
Num Peaks: 22
52.9239	3.1
57.8159	4.3
74.0238	62.5
79.9565	2.4
85.0285	3.3
113.0236	6.4
118.0500	5.0
193.0349	2.6
286.1940	7.0
301.2172	11.0
345.2074	4.5
404.3170	5.4
448.3046	3.3
476.3021	71.2
477.3052	19.0
478.3088	2.5
519.3354	2.5
520.3289	100.0
521.2408	13.6
521.3318	37.2
522.2210	2.9
522.3381	3.0

Name: Glutamic Acid + HDCA
PrecursorMZ: 520.32842
RT: 6.3909666666666665
ExactMass: 521.33525284
Spectrum_type: 2
charge: -1
Formula: C29H47NO7
SMILES: C[C@H](CCC(=O)N[C@@H](CCC(=O)O)C(=O)O)[C@H]1CC[C@@H]2[C@@]1(CC[C@H]3[C@H]2C[C@@H]([C@H]4[C@@]3(CC[C@H](C4)O)C)O)C
Method: HCD
Collision_energy: [28.333334]
Isolation_window: 4.0
Ion_mode: N
Num Peaks: 16
57.8159	4.8
102.0551	9.9
128.0345	41.5
145.0975	3.8
146.0452	7.7
293.1759	4.7
325.2021	3.0
391.2857	28.2
392.2895	6.4
476.3391	7.6
502.3183	3.1
519.3814	54.7
520.3256	100.0
521.3310	30.8
522.2469	5.2
522.3207	7.1

Name: Glutamic Acid + alphaMCA
PrecursorMZ: 536.32248
RT: 5.677
ExactMass: 537.33016746
Spectrum_type: 2
charge: -1
Formula: C29H47NO8
SMILES: C[C@H](CCC(=O)N[C@@H](CCC(=O)O)C(=O)O)[C@H]1CC[C@@H]2[C@@]1(CC[C@H]3[C@H]2[C@@H]([C@H]([C@H]4[C@@]3(CC[C@H](C4)O)C)O)O)C
Method: HCD
Collision_energy: [28.333334]
Isolation_window: 4.0
Ion_mode: N
Num Peaks: 4
128.0344	38.7
407.2797	32.3
536.3228	100.0
537.3301	42.5

Name: Glutamic Acid + betaMCA
PrecursorMZ: 536.32352
RT: 5.59628
ExactMass: 537.33016746
Spectrum_type: 2
charge: -1
Formula: C29H47NO8
SMILES: C[C@H](CCC(=O)N[C@@H](CCC(=O)O)C(=O)O)[C@H]1CC[C@@H]2[C@@]1(CC[C@H]3[C@H]2[C@H]([C@H]([C@H]4[C@@]3(CC[C@H](C4)O)C)O)O)C
Method: HCD
Collision_energy: [28.333334]
Isolation_window: 4.0
Ion_mode: N
Num Peaks: 15
59.5898	2.3
59.5932	4.2
102.0551	9.0
112.9869	1.9
128.0345	40.3
129.0378	1.9
146.0452	7.1
407.2806	26.4
408.2844	7.0
492.3331	6.7
493.3381	1.8
518.3129	3.6
536.3234	100.0
537.3274	30.8
538.3331	4.2

Name: Glutamine + CDCA
PrecursorMZ: 519.34436
RT: 8.9679
ExactMass: 520.35123726
Spectrum_type: 2
charge: -1
Formula: C29H48N2O6
SMILES: C[C@H](CCC(=O)N[C@@H](CCC(=O)N)C(=O)O)[C@H]1CC[C@@H]2[C@@]1(CC[C@H]3[C@H]2[C@@H](C[C@H]4[C@@]3(CC[C@H](C4)O)C)O)C
Method: HCD
Collision_energy: [28.333334]
Isolation_window: 4.0
Ion_mode: N
Num Peaks: 7
119.0495	14.8
129.0660	47.8
218.0817	19.1
367.2967	49.0
473.3383	100.0
474.3416	33.9
517.3911	11.4

Name: Glutamine + Cholic Acid
PrecursorMZ: 535.33878
RT: 5.352575
ExactMass: 536.34615187
Spectrum_type: 2
charge: -1
Formula: C29H48N2O7
SMILES: C[C@H](CCC(=O)N[C@@H](CCC(=O)N)C(=O)O)[C@H]1CC[C@@H]2[C@@]1([C@H](C[C@H]3[C@H]2[C@@H](C[C@H]4[C@@]3(CC[C@H](C4)O)C)O)O)C
Method: HCD
Collision_energy: [28.333334]
Isolation_window: 4.0
Ion_mode: N
Num Peaks: 18
59.4804	2.1
59.4838	4.2
59.5953	1.3
96.9589	1.3
109.0397	1.3
127.0504	30.8
128.0344	4.1
128.0540	1.6
145.0610	32.7
146.0651	1.1
455.3297	1.3
473.3382	7.7
474.3412	2.0
517.3287	2.6
534.3164	2.3
535.3388	100.0
536.3425	30.3
537.3471	5.1

Name: Glutamine + DCA
PrecursorMZ: 519.34455
RT: 6.101477777777778
ExactMass: 520.35123726
Spectrum_type: 2
charge: -1
Formula: C29H48N2O6
SMILES: C[C@H](CCC(=O)N[C@@H](CCC(=O)N)C(=O)O)[C@H]1CC[C@@H]2[C@@]1([C@H](C[C@H]3[C@H]2CC[C@H]4[C@@]3(CC[C@H](C4)O)C)O)C
Method: HCD
Collision_energy: [28.333334]
Isolation_window: 4.0
Ion_mode: N
Num Peaks: 12
57.7033	1.8
57.7065	4.3
127.0504	25.1
128.0344	2.9
145.0611	28.1
457.3433	8.4
458.3495	1.8
501.3324	2.6
518.3194	2.1
519.3440	100.0
520.3475	28.7
521.3514	7.9

Name: Glutamine + HDCA
PrecursorMZ: 519.3444
RT: 5.919433333333333
ExactMass: 520.35123726
Spectrum_type: 2
charge: -1
Formula: C29H48N2O6
SMILES: C[C@H](CCC(=O)N[C@@H](CCC(=O)N)C(=O)O)[C@H]1CC[C@@H]2[C@@]1(CC[C@H]3[C@H]2C[C@@H]([C@H]4[C@@]3(CC[C@H](C4)O)C)O)C
Method: HCD
Collision_energy: [28.333334]
Isolation_window: 4.0
Ion_mode: N
Num Peaks: 14
57.7034	2.0
57.7066	4.3
127.0505	19.8
128.0345	6.1
145.0612	29.0
389.2698	1.4
457.3442	9.4
458.3475	2.6
501.3331	3.0
502.3375	1.5
518.3165	5.6
519.3441	100.0
520.3469	32.1
521.3511	6.7

Name: GlyTouCan:G06186NU
PrecursorMZ: 225.06131
RT: 0.9198
ExactMass: 180.0633881
Spectrum_type: 2
charge: -1
Formula: C6H12O6
SMILES: C([C@@H]([C@@H]([C@H]([C@@H](C=O)O)O)O)O)O
Method: HCD
Collision_energy: [28.333334]
Isolation_window: 4.0
Ion_mode: N
Num Peaks: 16
59.0129	8.9
71.0129	10.7
72.9921	5.2
80.9642	30.6
88.9870	4.0
89.0234	22.7
92.9271	100.0
96.9212	4.9
101.0234	8.2
103.0027	10.9
113.0234	5.1
115.0392	6.1
119.0340	7.8
133.0133	5.1
223.0454	3.8
227.0227	42.2

Name: GlyTouCan:G20889RB
PrecursorMZ: 571.28877
RT: 7.361571428571429
ExactMass: 572.29616399
Spectrum_type: 2
charge: -1
Formula: C25H49O12P
SMILES: CCCCCCCCCCCCCCCC(=O)OC[C@H](COP(=O)(O)OC1[C@@H]([C@H](C([C@H]([C@H]1O)O)O)O)O)O
Method: HCD
Collision_energy: [28.333334]
Isolation_window: 4.0
Ion_mode: N
Num Peaks: 13
63.4785	4.1
78.9580	11.7
96.9688	3.3
152.9950	55.5
241.0115	39.4
255.2327	83.9
256.2363	12.3
315.0484	17.0
391.2256	4.6
570.3461	3.1
571.2884	100.0
572.2914	27.0
573.2911	3.4

Name: GlyTouCan:G44663SE
PrecursorMZ: 857.51821
RT: 10.5832
ExactMass: 858.52582957
Spectrum_type: 2
charge: -1
Formula: C45H79O13P
SMILES: CCCCCCCCCCCCCCCC(=O)OC[C@H](COP(=O)(O)OC1[C@@H]([C@H](C([C@H]([C@H]1O)O)O)O)O)OC(=O)CCC/C=C\C/C=C\C/C=C\C/C=C\CCCCC
Method: HCD
Collision_energy: [28.333334]
Isolation_window: 4.0
Ion_mode: N
Num Peaks: 21
75.0079	38.9
78.9582	52.7
85.0287	30.8
96.9688	15.4
97.4639	9.9
113.0237	21.8
152.9954	97.4
223.0012	28.5
227.2018	15.5
241.0121	44.2
277.2177	42.5
278.2209	18.1
279.2334	100.0
280.2365	29.2
281.2490	11.9
855.5023	15.7
855.5975	45.3
856.5062	40.3
856.6190	30.5
857.5064	71.6
858.5151	33.7

Name: GlyTouCan:G63802QG
PrecursorMZ: 833.51737
RT: 8.7668
ExactMass: 834.52582957
Spectrum_type: 2
charge: -1
Formula: C43H79O13P
SMILES: CCCCCCCCCCCCCCCC(=O)OC[C@H](COP(=O)(O)OC1[C@@H]([C@H](C([C@H]([C@H]1O)O)O)O)O)OC(=O)CCCCCCC/C=C\C/C=C\CCCCC
Method: HCD
Collision_energy: [28.333334]
Isolation_window: 4.0
Ion_mode: N
Num Peaks: 23
78.9579	31.7
92.6165	3.4
92.8404	3.8
96.9684	9.4
97.4650	3.8
152.9947	31.7
223.0005	17.2
241.0111	69.0
253.2160	3.8
255.2322	100.0
256.2356	9.4
259.0216	6.4
279.2322	56.0
280.2356	10.5
281.2478	49.3
297.0374	8.7
315.0480	3.9
391.2250	15.0
553.2775	10.5
571.2867	2.9
833.5178	77.6
834.5211	33.8
835.5326	90.9

Name: GlyTouCan:G68643SZ
PrecursorMZ: 859.53497
RT: 10.8038
ExactMass: 860.54147963
Spectrum_type: 2
charge: -1
Formula: C45H81O13P
SMILES: CCCCCCCCCCCCCCCC(=O)OC[C@H](COP(=O)(O)OC1C([C@@H](C(C(C1O)O)O)O)O)OC(=O)CCCCCC/C=C\C/C=C\C/C=C\CCCCC
Method: HCD
Collision_energy: [28.333334]
Isolation_window: 4.0
Ion_mode: N
Num Peaks: 10
83.0128	14.4
205.1589	26.1
221.1175	53.9
277.1803	67.2
278.1843	10.3
333.1701	24.7
389.2328	16.0
551.3370	17.7
859.5361	100.0
860.5395	54.6

Name: Glycerol
PrecursorMZ: 91.02112
RT: 9.9551
ExactMass: 92.047344113
Spectrum_type: 2
charge: -1
Formula: C3H8O3
SMILES: C(C(CO)O)O
Method: HCD
Collision_energy: [28.333334]
Isolation_window: 4.0
Ion_mode: N
Num Peaks: 3
74.9899	49.7
91.0213	17.2
93.0005	100.0

Name: Glycochenodeoxycholic Acid
PrecursorMZ: 448.30653
RT: 6.4467
ExactMass: 449.31412347
Spectrum_type: 2
charge: -1
Formula: C26H43NO5
SMILES: C[C@H](CCC(=O)NCC(=O)O)[C@H]1CC[C@@H]2[C@@]1(CC[C@H]3[C@H]2[C@@H](C[C@H]4[C@@]3(CC[C@H](C4)O)C)O)C
Method: HCD
Collision_energy: [28.333334]
Isolation_window: 4.0
Ion_mode: N
Num Peaks: 5
73.0285	11.7
74.0238	36.2
447.3134	22.8
448.3075	100.0
449.3239	50.1

Name: Glycohyocholic acid
PrecursorMZ: 464.30107
RT: 8.8814
ExactMass: 465.30903809
Spectrum_type: 2
charge: -1
Formula: C26H43NO6
SMILES: C[C@H](CCC(=O)NCC(=O)O)[C@H]1CC[C@@H]2[C@@]1(CC[C@H]3[C@H]2[C@@H]([C@@H]([C@H]4[C@@]3(CC[C@H](C4)O)C)O)O)C
Method: HCD
Collision_energy: [28.333334]
Isolation_window: 4.0
Ion_mode: N
Num Peaks: 22
78.9580	25.9
102.0550	37.9
128.0343	80.2
129.0378	5.2
140.0108	10.8
145.0974	5.8
146.0449	20.6
152.9949	13.4
196.0373	20.5
267.2692	6.7
317.2455	3.9
333.2421	4.8
335.2587	26.4
336.2638	4.7
403.3208	6.0
420.3125	5.8
446.2907	4.4
463.2952	6.3
463.3337	6.8
464.3065	100.0
465.3124	36.5
466.3224	9.6

Name: Glycolithocholic Acid
PrecursorMZ: 432.31016
RT: 7.0428
ExactMass: 433.31920885
Spectrum_type: 2
charge: -1
Formula: C26H43NO4
SMILES: C[C@H](CCC(=O)NCC(=O)O)[C@H]1CC[C@@H]2[C@@]1(CC[C@H]3[C@H]2CC[C@H]4[C@@]3(CC[C@H](C4)O)C)C
Method: HCD
Collision_energy: [28.333334]
Isolation_window: 4.0
Ion_mode: N
Num Peaks: 4
74.0235	52.9
432.3105	100.0
433.3140	27.6
434.3151	3.7

Name: Glycoursodeoxycholic acid
PrecursorMZ: 448.30687
RT: 5.6834
ExactMass: 449.31412347
Spectrum_type: 2
charge: -1
Formula: C26H43NO5
SMILES: C[C@H](CCC(=O)NCC(=O)O)[C@H]1CC[C@@H]2[C@@]1(CC[C@H]3[C@H]2[C@H](C[C@H]4[C@@]3(CC[C@H](C4)O)C)O)C
Method: HCD
Collision_energy: [28.333334]
Isolation_window: 4.0
Ion_mode: N
Num Peaks: 16
74.0238	52.7
75.0272	0.8
79.9565	0.7
96.9591	2.5
135.0302	1.3
386.3067	2.0
404.3187	0.8
446.2922	1.0
447.2931	1.2
448.3069	100.0
448.4367	0.7
449.0606	0.8
449.2186	1.0
449.2584	1.1
449.3101	30.5
450.3164	3.0

Name: Glycyl-glycyl-proline
PrecursorMZ: 228.09826
RT: 1.1885
ExactMass: 229.10625597
Spectrum_type: 2
charge: -1
Formula: C9H15N3O4
SMILES: C1C[C@H](N(C1)C(=O)CNC(=O)CN)C(=O)O
Method: HCD
Collision_energy: [28.333334]
Isolation_window: 4.0
Ion_mode: N
Num Peaks: 9
88.9869	1.1
98.0237	1.6
113.0346	100.0
114.0381	3.9
114.0549	4.3
145.0973	2.1
228.0985	19.0
229.1004	1.5
229.1193	2.4

Name: Gracillin
PrecursorMZ: 929.47613
RT: 7.098
ExactMass: 884.47695082
Spectrum_type: 2
charge: -1
Formula: C45H72O17
SMILES: C[C@@H]1CC[C@@]2([C@H]([C@H]3[C@@H](O2)C[C@@H]4[C@@]3(CC[C@H]5[C@H]4CC=C6[C@@]5(CC[C@@H](C6)O[C@H]7[C@@H]([C@H]([C@@H]([C@H](O7)CO)O)O[C@H]8[C@@H]([C@H]([C@@H]([C@H](O8)CO)O)O)O)O[C@H]9[C@@H]([C@@H]([C@H]([C@@H](O9)C)O)O)O)C)C)C)OC1
Method: HCD
Collision_energy: [28.333334]
Isolation_window: 4.0
Ion_mode: N
Num Peaks: 26
71.0129	15.9
73.0285	2.3
83.0129	1.6
85.0286	4.5
87.0078	1.9
89.0234	31.7
97.0287	1.7
98.1601	2.5
98.1674	4.1
98.2788	1.9
101.0234	24.1
103.0390	3.2
113.0235	13.4
119.0341	16.2
125.0236	2.4
131.0341	3.4
143.0342	7.6
161.0449	5.5
163.0603	4.3
179.0553	5.2
205.0714	4.3
721.4171	17.8
722.4217	7.0
883.4705	100.0
884.4736	43.2
885.4761	7.6

Name: Grayanotoxin I
PrecursorMZ: 411.23944
RT: 5.8647
ExactMass: 412.24610348
Spectrum_type: 2
charge: -1
Formula: C22H36O7
SMILES: CC(=O)O[C@@H]1[C@H]2CC[C@@H]3[C@]1(C[C@H]([C@]4([C@H]([C@]3(C)O)C[C@@H](C4(C)C)O)O)O)C[C@@]2(C)O
Method: HCD
Collision_energy: [28.333334]
Isolation_window: 4.0
Ion_mode: N
Num Peaks: 27
71.0494	1.4
79.9564	1.3
96.9592	2.4
101.0600	1.6
111.0806	2.3
115.0759	1.6
219.1388	9.9
220.1417	1.3
231.1750	2.0
247.1702	3.3
249.1496	11.7
250.1531	2.4
259.1706	3.4
263.1652	5.0
265.1809	3.0
277.1806	2.4
349.2382	1.3
367.2495	4.3
409.2248	1.8
409.2875	13.4
410.2261	2.9
410.2898	2.9
411.1476	1.3
411.2391	100.0
412.2425	24.0
413.2009	7.6
413.2471	3.1

Name: Gypsogenic acid
PrecursorMZ: 485.32368
RT: 6.4987
ExactMass: 486.33452456
Spectrum_type: 2
charge: -1
Formula: C30H46O5
SMILES: C[C@]12CC[C@@H]([C@@]([C@@H]1CC[C@@]3([C@@H]2CC=C4[C@]3(CC[C@@]5([C@H]4CC(CC5)(C)C)C(=O)O)C)C)(C)C(=O)O)O
Method: HCD
Collision_energy: [28.333334]
Isolation_window: 4.0
Ion_mode: N
Num Peaks: 6
58.0289	14.5
145.0975	40.6
301.1772	43.8
421.3078	36.7
439.3177	100.0
440.3221	30.0

Name: Haematommic Acid
PrecursorMZ: 195.02947
RT: 2.3475
ExactMass: 196.03717335
Spectrum_type: 2
charge: -1
Formula: C9H8O5
SMILES: CC1=CC(=C(C(=C1C(=O)O)O)C=O)O
Method: HCD
Collision_energy: [28.333334]
Isolation_window: 4.0
Ion_mode: N
Num Peaks: 6
123.0444	25.9
123.0555	9.6
151.0396	100.0
152.0433	9.6
195.0296	49.4
195.0688	14.3

Name: Heminordihydroguaiaretic acid
PrecursorMZ: 315.16052
RT: 6.8932
ExactMass: 316.16745924
Spectrum_type: 2
charge: -1
Formula: C19H24O4
SMILES: C[C@H](CC1=CC(=C(C=C1)O)O)[C@@H](C)CC2=CC(=C(C=C2)O)OC
Method: HCD
Collision_energy: [28.333334]
Isolation_window: 4.0
Ion_mode: N
Num Peaks: 21
99.0806	2.4
122.0364	6.0
129.0913	2.7
135.0445	15.7
149.0602	11.7
154.0270	2.1
183.1387	5.5
199.1334	2.7
258.1624	4.2
273.1861	2.6
295.2252	4.7
300.1365	7.0
313.1683	5.2
313.2387	100.0
314.1721	3.1
314.2423	32.3
315.1604	68.8
315.1913	2.6
315.2476	5.2
316.1639	14.7
317.1760	14.1

Name: Hemiphloin
PrecursorMZ: 433.11469
RT: 2.6829
ExactMass: 434.12129689
Spectrum_type: 2
charge: -1
Formula: C21H22O10
SMILES: C1[C@H](OC2=C(C1=O)C(=C(C(=C2)O)[C@H]3[C@@H]([C@H]([C@@H]([C@H](O3)CO)O)O)O)O)C4=CC=C(C=C4)O
Method: HCD
Collision_energy: [28.333334]
Isolation_window: 4.0
Ion_mode: N
Num Peaks: 7
285.0774	59.5
313.0722	100.0
314.0756	19.8
315.0876	23.7
343.0832	44.4
433.1150	75.4
434.1161	18.4

Name: Heneicosanoic Acid
PrecursorMZ: 325.3113
RT: 10.8974
ExactMass: 326.318480578
Spectrum_type: 2
charge: -1
Formula: C21H42O2
SMILES: CCCCCCCCCCCCCCCCCCCCC(=O)O
Method: HCD
Collision_energy: [28.333334]
Isolation_window: 4.0
Ion_mode: N
Num Peaks: 8
183.0114	1.4
197.0269	1.5
325.1842	100.0
325.2670	0.8
325.3109	23.5
326.1874	18.9
326.3146	4.7
327.1846	3.5

Name: Hesperetin 3'-methyl ether
PrecursorMZ: 315.08759
RT: 4.055
ExactMass: 316.09468823
Spectrum_type: 2
charge: -1
Formula: C17H16O6
SMILES: COC1=C(C=C(C=C1)[C@@H]2CC(=O)C3=C(C=C(C=C3O2)O)O)OC
Method: HCD
Collision_energy: [28.333334]
Isolation_window: 4.0
Ion_mode: N
Num Peaks: 17
109.0286	19.2
135.0443	92.8
136.0762	7.5
161.0238	9.5
161.0600	28.2
179.0343	100.0
180.0374	8.9
255.0667	17.9
255.1131	24.7
271.0971	15.3
273.1243	10.3
313.1655	14.1
315.0874	74.5
315.1809	37.3
316.0883	13.1
316.1841	8.7
317.1124	11.2

Name: Hexacosanoic Acid
PrecursorMZ: 395.38846
RT: 11.85405
ExactMass: 396.396730897
Spectrum_type: 2
charge: -1
Formula: C26H52O2
SMILES: CCCCCCCCCCCCCCCCCCCCCCCCCC(=O)O
Method: HCD
Collision_energy: [28.333334]
Isolation_window: 4.0
Ion_mode: N
Num Peaks: 4
395.3888	100.0
396.3923	29.3
397.2269	1.5
397.3976	3.1

Name: Hexacyclinic acid
PrecursorMZ: 489.21267
RT: 4.8093
ExactMass: 490.22028266
Spectrum_type: 2
charge: -1
Formula: C26H34O9
SMILES: C[C@@H]1[C@H]([C@H]2[C@@H]([C@H]1OC(=O)C)C=C([C@@H]3[C@@H]2[C@H]4[C@@H](C3)[C@]5(CC[C@@H]6[C@H]([C@]([C@@H]4C(=O)O6)(O5)O)C)C)C(=O)O)O
Method: HCD
Collision_energy: [28.333334]
Isolation_window: 4.0
Ion_mode: N
Num Peaks: 9
59.0129	38.1
68.9972	100.0
113.0599	15.5
386.2106	18.3
401.2337	39.5
402.2370	11.7
445.2230	84.5
446.2267	25.2
489.2136	24.5

Name: Hexosyl LPE 16:0
PrecursorMZ: 614.32874
RT: 7.61992
ExactMass: 615.33836316
Spectrum_type: 2
charge: -1
Formula: C27H54NO12P
SMILES: CCCCCCCCCCCCCCCC(=O)OC[C@H](COP(=O)(O)OCCNC1C(C(C(C(O1)CO)O)O)O)O
Method: HCD
Collision_energy: [28.333334]
Isolation_window: 4.0
Ion_mode: N
Num Peaks: 14
78.9577	10.3
121.9999	3.3
140.0104	11.1
152.9943	18.1
196.0367	8.8
214.0471	3.4
255.2318	100.0
256.2354	12.5
268.0581	6.4
452.2767	15.1
613.4365	10.8
614.3292	54.5
614.4269	4.0
615.3281	12.7

Name: Hippuric Acid
PrecursorMZ: 178.05033
RT: 2.1861
ExactMass: 179.058243149
Spectrum_type: 2
charge: -1
Formula: C9H9NO3
SMILES: C1=CC=C(C=C1)C(=O)NCC(=O)O
Method: HCD
Collision_energy: [28.333334]
Isolation_window: 4.0
Ion_mode: N
Num Peaks: 16
90.9972	5.8
109.0398	1.9
132.0449	2.3
132.9714	2.8
134.0604	2.5
134.9871	22.8
135.0445	8.9
136.0395	17.1
136.0757	2.4
164.0471	2.8
176.0346	40.4
177.0398	10.7
178.0503	100.0
178.9769	4.9
179.0344	3.8
179.0542	12.2

Name: Hirsutenone
PrecursorMZ: 327.12387
RT: 6.2
ExactMass: 328.13107373
Spectrum_type: 2
charge: -1
Formula: C19H20O5
SMILES: C1=CC(=C(C=C1CC/C=C/C(=O)CCC2=CC(=C(C=C2)O)O)O)O
Method: HCD
Collision_energy: [28.333334]
Isolation_window: 4.0
Ion_mode: N
Num Peaks: 26
121.0284	1.9
147.0443	1.9
149.0600	100.0
150.0634	9.5
163.0392	5.5
163.0757	3.8
164.0473	5.7
171.1017	1.6
177.0549	2.4
178.0629	4.6
179.0707	20.6
180.0751	2.0
193.0860	1.6
198.1493	1.7
205.0865	3.7
253.1230	3.0
283.1334	2.2
301.1445	8.5
325.1822	5.1
326.1880	1.8
327.1229	7.9
327.1626	1.4
327.2167	2.8
328.1232	2.3
329.1402	11.1
329.2331	28.1

Name: Hispidulin
PrecursorMZ: 299.05646
RT: 6.8805
ExactMass: 300.0633881
Spectrum_type: 2
charge: -1
Formula: C16H12O6
SMILES: COC1=C(C2=C(C=C1O)OC(=CC2=O)C3=CC=C(C=C3)O)O
Method: HCD
Collision_energy: [28.333334]
Isolation_window: 4.0
Ion_mode: N
Num Peaks: 13
93.0338	9.4
165.0189	33.0
253.1245	7.4
271.0617	43.6
284.0329	14.1
297.1136	34.1
297.1531	100.0
297.2429	20.0
298.1168	14.4
298.1560	28.2
299.0563	83.2
300.0600	16.0
300.2551	8.3

Name: Histamine
PrecursorMZ: 110.0715
RT: 7.9395
ExactMass: 111.0796473
Spectrum_type: 2
charge: -1
Formula: C5H9N3
SMILES: C1=C(NC=N1)CCN
Method: HCD
Collision_energy: [28.333334]
Isolation_window: 4.0
Ion_mode: N
Num Peaks: 11
58.0290	9.6
65.0137	9.0
66.0339	5.5
67.0293	100.0
68.0134	13.5
80.0371	26.4
81.0449	26.1
82.0289	21.3
97.4675	7.2
109.0399	33.5
110.0715	89.1

Name: Histidine + CDCA
PrecursorMZ: 528.34414
RT: 5.61495
ExactMass: 529.35157161
Spectrum_type: 2
charge: -1
Formula: C30H47N3O5
SMILES: C[C@H](CCC(=O)N[C@@H](CC1=CN=CN1)C(=O)O)[C@H]2CC[C@@H]3[C@@]2(CC[C@H]4[C@H]3[C@@H](C[C@H]5[C@@]4(CC[C@H](C5)O)C)O)C
Method: HCD
Collision_energy: [28.333334]
Isolation_window: 4.0
Ion_mode: N
Num Peaks: 7
58.7065	4.4
110.0713	11.4
154.0613	34.6
466.3468	4.1
528.3443	100.0
529.3483	30.7
530.3509	4.4

Name: Histidine + alphaMCA
PrecursorMZ: 544.33914
RT: 4.9857499999999995
ExactMass: 545.34648623
Spectrum_type: 2
charge: -1
Formula: C30H47N3O6
SMILES: C[C@H](CCC(=O)N[C@@H](CC1=CN=CN1)C(=O)O)[C@H]2CC[C@@H]3[C@@]2(CC[C@H]4[C@H]3[C@@H]([C@H]([C@H]5[C@@]4(CC[C@H](C5)O)C)O)O)C
Method: HCD
Collision_energy: [28.333334]
Isolation_window: 4.0
Ion_mode: N
Num Peaks: 7
60.4838	4.4
110.0714	12.6
154.0613	38.1
482.3388	3.7
544.3391	100.0
545.3418	29.7
546.3461	3.8

Name: Hmr-1556
PrecursorMZ: 446.10272
RT: 10.4262
ExactMass: 411.13272853
Spectrum_type: 2
charge: -1
Formula: C17H24F3NO5S
SMILES: CC1([C@@H]([C@H](C2=C(O1)C=CC(=C2)OCCCC(F)(F)F)N(C)S(=O)(=O)C)O)C
Method: HCD
Collision_energy: [28.333334]
Isolation_window: 4.0
Ion_mode: N
Num Peaks: 7
160.8413	39.2
162.8385	100.0
164.8354	22.3
445.1102	15.9
446.1033	79.6
447.1055	17.9
448.0991	16.0

Name: Homoeriodictyol
PrecursorMZ: 301.0717
RT: 3.8775
ExactMass: 302.07903816
Spectrum_type: 2
charge: -1
Formula: C16H14O6
SMILES: COC1=C(C=CC(=C1)[C@@H]2CC(=O)C3=C(C=C(C=C3O2)O)O)O
Method: HCD
Collision_energy: [28.333334]
Isolation_window: 4.0
Ion_mode: N
Num Peaks: 17
93.0336	14.0
107.0493	14.7
123.0443	5.5
179.0344	5.1
195.0810	9.1
212.0837	8.1
213.0917	100.0
214.0952	13.9
215.0709	9.2
215.0732	3.3
244.0739	29.7
245.0784	4.5
257.0819	69.6
258.0854	10.5
259.0621	5.6
301.0718	62.7
302.0744	11.0

Name: Honokiol
PrecursorMZ: 265.12205
RT: 8.1412
ExactMass: 266.130679813
Spectrum_type: 2
charge: -1
Formula: C18H18O2
SMILES: C=CCC1=CC(=C(C=C1)O)C2=CC(=C(C=C2)O)CC=C
Method: HCD
Collision_energy: [28.333334]
Isolation_window: 4.0
Ion_mode: N
Num Peaks: 5
96.9587	3.4
247.1116	8.1
265.1222	100.0
265.1464	8.1
266.1256	18.6

Name: Humulone
PrecursorMZ: 361.20001
RT: 7.7199
ExactMass: 362.20932405
Spectrum_type: 2
charge: -1
Formula: C21H30O5
SMILES: CC(C)CC(=O)C1=C(C(=C([C@@](C1=O)(CC=C(C)C)O)O)CC=C(C)C)O
Method: HCD
Collision_energy: [28.333334]
Isolation_window: 4.0
Ion_mode: N
Num Peaks: 9
183.1385	16.5
235.1702	38.0
275.2020	57.4
293.2126	100.0
294.2166	17.8
315.1948	49.4
361.2006	93.4
361.2408	26.6
362.2016	16.0

Name: Hydrocortisone Hemisuccinate
PrecursorMZ: 461.21836
RT: 6.5526
ExactMass: 480.23593272
Spectrum_type: 2
charge: -1
Formula: C25H36O9
SMILES: C[C@]12CCC(=O)C=C1CC[C@@H]3[C@@H]2[C@H](C[C@]4([C@H]3CC[C@@]4(C(=O)COC(=O)CCC(=O)O)O)C)O.O
Method: HCD
Collision_energy: [28.333334]
Isolation_window: 4.0
Ion_mode: N
Num Peaks: 35
51.2451	2.1
51.2478	4.4
51.3593	1.2
59.0129	1.6
61.9875	3.7
71.0129	3.2
121.0285	2.3
136.0522	4.4
137.0600	56.4
138.0632	4.4
149.0599	3.2
163.0393	36.9
164.0427	3.4
181.0500	2.3
189.1641	2.3
233.1542	3.7
299.2016	2.5
327.2329	3.8
353.2123	2.6
371.2229	18.2
372.2257	4.6
389.2334	14.3
390.2371	3.4
397.2019	8.3
398.2054	2.5
407.2800	1.4
415.2128	55.6
416.2159	13.6
417.2187	1.4
433.2232	50.3
434.2266	13.2
435.2764	10.0
461.2181	100.0
462.2213	27.9
463.2216	3.4

Name: Hydrocortisone Valerate
PrecursorMZ: 491.26537
RT: 8.1555
ExactMass: 446.26683893
Spectrum_type: 2
charge: -1
Formula: C26H38O6
SMILES: CCCCC(=O)O[C@@]1(CC[C@@H]2[C@@]1(C[C@@H]([C@H]3[C@H]2CCC4=CC(=O)CC[C@]34C)O)C)C(=O)CO
Method: HCD
Collision_energy: [28.333334]
Isolation_window: 4.0
Ion_mode: N
Num Peaks: 8
98.0000	45.2
99.0079	48.8
299.2015	34.8
355.2280	12.2
399.2178	76.3
400.2213	29.7
445.2598	100.0
446.2629	25.1

Name: Hydroflumethiazide; reserpine
PrecursorMZ: 653.2719
RT: 6.4396
ExactMass: 608.27338086
Spectrum_type: 2
charge: -1
Formula: C33H40N2O9
SMILES: COC1C(CC2CN3CCC4=C(C3CC2C1C(=O)OC)NC5=C4C=CC(=C5)OC)OC(=O)C6=CC(=C(C(=C6)OC)OC)OC
Method: HCD
Collision_energy: [28.333334]
Isolation_window: 4.0
Ion_mode: N
Num Peaks: 7
181.0137	23.1
211.0608	18.3
577.2181	11.5
592.2432	32.2
593.2466	9.8
607.2667	100.0
608.2701	32.3

Name: Hydroquinone
PrecursorMZ: 109.02863
RT: 2.6516
ExactMass: 110.03677943
Spectrum_type: 2
charge: -1
Formula: C6H6O2
SMILES: C1=CC(=CC=C1O)O
Method: HCD
Collision_energy: [28.333334]
Isolation_window: 4.0
Ion_mode: N
Num Peaks: 15
58.0289	2.2
65.0136	19.5
65.9976	7.9
67.0292	32.7
68.0133	4.6
79.0292	3.4
81.0337	2.3
82.0289	9.7
107.0245	2.2
107.0355	6.5
107.0435	2.2
108.0206	12.5
109.0286	100.0
109.0395	14.7
110.0322	6.1

Name: Hyodeoxycholic Acid
PrecursorMZ: 437.29105
RT: 7.0788
ExactMass: 392.29265975
Spectrum_type: 2
charge: -1
Formula: C24H40O4
SMILES: C[C@H](CCC(=O)O)[C@H]1CC[C@@H]2[C@@]1(CC[C@H]3[C@H]2C[C@@H]([C@H]4[C@@]3(CC[C@H](C4)O)C)O)C
Method: HCD
Collision_energy: [28.333334]
Isolation_window: 4.0
Ion_mode: N
Num Peaks: 12
78.9580	3.8
196.0374	6.9
214.0487	2.7
239.2013	100.0
240.2048	16.6
391.2854	62.9
392.2890	17.9
409.2959	5.3
435.2754	3.0
436.2455	36.0
437.2456	7.1
438.2533	2.7

Name: Hypoprotocetraric acid
PrecursorMZ: 343.08241
RT: 3.2795
ExactMass: 344.08960285
Spectrum_type: 2
charge: -1
Formula: C18H16O7
SMILES: CC1=CC(=C(C2=C1C(=O)OC3=C(O2)C(=C(C(=C3C)O)C(=O)O)C)C)O
Method: HCD
Collision_energy: [28.333334]
Isolation_window: 4.0
Ion_mode: N
Num Peaks: 23
59.0130	6.9
114.0551	6.9
116.0708	13.2
130.0866	9.3
161.0600	10.6
221.0601	7.2
239.0711	61.0
240.0753	11.9
253.0872	6.5
255.1026	43.2
256.1058	8.9
281.0827	8.8
299.0920	18.4
300.0962	4.0
300.1924	5.2
325.0717	6.4
341.1683	3.7
342.2392	13.0
343.0823	100.0
343.2093	4.5
344.0837	19.8
344.2163	5.9
345.0942	4.9

Name: Hypoxanthine
PrecursorMZ: 135.03054
RT: 0.967332
ExactMass: 136.03851076
Spectrum_type: 2
charge: -1
Formula: C5H4N4O
SMILES: C1=NC2=C(N1)C(=O)NC=N2
Method: HCD
Collision_energy: [28.333334]
Isolation_window: 4.0
Ion_mode: N
Num Peaks: 5
92.0246	81.0
93.0280	4.4
93.0337	6.5
135.0306	100.0
136.0346	5.5

Name: Icaritin
PrecursorMZ: 367.11806
RT: 2.1992
ExactMass: 368.12598835
Spectrum_type: 2
charge: -1
Formula: C21H20O6
SMILES: CC(=CCC1=C2C(=C(C=C1O)O)C(=O)C(=C(O2)C3=CC=C(C=C3)OC)O)C
Method: HCD
Collision_energy: [28.333334]
Isolation_window: 4.0
Ion_mode: N
Num Peaks: 14
88.9871	3.4
124.0065	12.5
143.0271	2.5
195.0437	3.0
223.0390	5.4
251.0342	27.2
277.0850	2.7
307.0969	42.6
308.0999	5.0
366.1676	2.1
367.1180	100.0
367.1528	2.8
368.1203	13.8
369.1176	6.0

Name: Ilepatril
PrecursorMZ: 431.16395
RT: 4.5141
ExactMass: 432.17189317
Spectrum_type: 2
charge: -1
Formula: C22H28N2O5S
SMILES: CC(C)[C@@H](C(=O)N[C@H]1CC2=CC=CC=C2[C@H]3CCC[C@H](N3C1=O)C(=O)O)SC(=O)C
Method: HCD
Collision_energy: [28.333334]
Isolation_window: 4.0
Ion_mode: N
Num Peaks: 4
97.4655	4.3
252.9923	7.7
431.1642	100.0
432.1677	24.9

Name: Ilexhainanoside D
PrecursorMZ: 663.37591
RT: 9.6304
ExactMass: 664.3822626
Spectrum_type: 2
charge: -1
Formula: C36H56O11
SMILES: C[C@]12CC[C@@H]([C@]([C@@H]1CC[C@@]3([C@@H]2CC=C4[C@]3(CC[C@@]5([C@H]4[C@@H](C(CC5)(C)C)O)C(=O)O[C@H]6[C@@H]([C@H]([C@@H]([C@H](O6)CO)O)O)O)C)C)(C)C(=O)O)O
Method: HCD
Collision_energy: [28.333334]
Isolation_window: 4.0
Ion_mode: N
Num Peaks: 3
61.9875	100.0
663.3743	58.2
665.3544	56.8

Name: Ilicicolin B
PrecursorMZ: 355.22787
RT: 11.455
ExactMass: 356.23514488
Spectrum_type: 2
charge: -1
Formula: C23H32O3
SMILES: CC1=CC(=C(C(=C1C=O)O)C/C=C(\C)/CC/C=C(\C)/CCC=C(C)C)O
Method: HCD
Collision_energy: [28.333334]
Isolation_window: 4.0
Ion_mode: N
Num Peaks: 8
163.1120	16.9
178.0988	7.1
179.1070	49.0
191.1071	7.2
353.2146	9.5
354.2176	12.1
355.2277	100.0
356.2312	24.8

Name: Iloprost
PrecursorMZ: 359.22291
RT: 7.6765
ExactMass: 360.2300595
Spectrum_type: 2
charge: -1
Formula: C22H32O4
SMILES: CC#CCC(C)[C@@H](/C=C/[C@H]1[C@@H](C[C@H]2[C@@H]1C/C(=C/CCCC(=O)O)/C2)O)O
Method: HCD
Collision_energy: [28.333334]
Isolation_window: 4.0
Ion_mode: N
Num Peaks: 21
122.0359	13.3
123.0441	4.9
135.0437	3.7
185.1169	4.2
245.1532	3.2
271.1329	9.0
272.1363	2.1
283.1692	34.7
284.1725	7.9
315.2322	3.1
329.1746	2.3
341.2108	10.4
342.2146	2.5
358.2379	10.8
359.1844	46.0
359.2228	100.0
360.1875	10.2
360.2261	21.0
361.1970	2.6
361.2300	2.0
361.2364	2.3

Name: Indole-2-carboxylic acid
PrecursorMZ: 160.03934
RT: 2.1513
ExactMass: 161.047678466
Spectrum_type: 2
charge: -1
Formula: C9H7NO2
SMILES: C1=CC=C2C(=C1)C=C(N2)C(=O)O
Method: HCD
Collision_energy: [28.333334]
Isolation_window: 4.0
Ion_mode: N
Num Peaks: 33
59.0128	2.3
71.0126	3.9
71.0490	5.7
85.0282	1.8
86.0600	26.0
87.0438	5.7
87.0632	1.8
88.0392	11.7
92.0494	2.5
99.0438	24.9
101.0233	1.4
102.0547	1.6
113.0597	2.2
114.0913	1.9
115.0387	20.2
115.0751	2.6
116.0494	1.8
116.0704	4.4
117.0335	4.1
117.0543	13.4
120.0443	12.4
131.0364	1.1
132.0444	7.1
144.0444	14.8
157.0498	2.3
158.0812	6.4
159.0314	8.6
159.0653	13.1
160.0393	100.0
161.0430	7.8
161.0805	50.5
162.0549	20.8
162.0839	1.3

Name: Indole-3-Butyric Acid
PrecursorMZ: 427.16333
RT: 9.6575
ExactMass: 203.094628657
Spectrum_type: 2
charge: -1
Formula: C12H13NO2
SMILES: C1=CC=C2C(=C1)C(=CN2)CCCC(=O)O
Method: HCD
Collision_energy: [28.333334]
Isolation_window: 4.0
Ion_mode: N
Num Peaks: 9
89.9247	25.0
90.9326	47.0
279.2332	21.6
323.1536	18.4
369.1584	100.0
370.1598	22.8
371.1528	29.5
384.1716	53.2
428.1611	23.4

Name: Indole-3-acetyl-tryptophan
PrecursorMZ: 360.13614
RT: 5.8002
ExactMass: 360.13481644
Spectrum_type: 2
charge: -1
Formula: C21H18N3O3-
SMILES: C1=CC=C2C(=C1)C(=CN2)CC(C(=O)[O-])NC(=O)CC3=CNC4=CC=CC=C43
Method: HCD
Collision_energy: [28.333334]
Isolation_window: 4.0
Ion_mode: N
Num Peaks: 12
69.0792	1.8
72.0083	3.2
74.0239	18.5
116.0499	10.3
142.0656	2.2
156.0451	5.4
159.0924	6.5
203.0824	100.0
204.0859	10.6
231.0783	3.1
360.1361	38.7
361.1387	10.4

Name: Isobutyl 4-(3,4,5-trimethoxybenzamido)benzoate
PrecursorMZ: 386.16055
RT: 4.6272
ExactMass: 387.16818752
Spectrum_type: 2
charge: -1
Formula: C21H25NO6
SMILES: CC(C)COC(=O)C1=CC=C(C=C1)NC(=O)C2=CC(=C(C(=C2)OC)OC)OC
Method: HCD
Collision_energy: [28.333334]
Isolation_window: 4.0
Ion_mode: N
Num Peaks: 5
191.0708	7.0
217.0501	7.7
385.1697	11.2
386.1610	100.0
387.1623	19.9

Name: Isocholic acid
PrecursorMZ: 407.28054
RT: 5.965
ExactMass: 408.28757437
Spectrum_type: 2
charge: -1
Formula: C24H40O5
SMILES: C[C@H](CCC(=O)O)[C@H]1CC[C@@H]2[C@@]1([C@H](C[C@H]3[C@H]2[C@@H](C[C@H]4[C@@]3(CC[C@@H](C4)O)C)O)O)C
Method: HCD
Collision_energy: [28.333334]
Isolation_window: 4.0
Ion_mode: N
Num Peaks: 15
96.9591	1.6
181.0976	1.7
287.1403	2.5
333.2804	1.7
360.2625	1.6
363.2918	2.0
389.2721	2.2
405.2655	11.5
406.2690	14.7
407.1718	2.0
407.2803	100.0
408.2853	25.3
409.2916	2.5
425.2911	7.1
426.2941	2.3

Name: Isodeoxycholic acid
PrecursorMZ: 783.57637
RT: 7.3606
ExactMass: 392.29265975
Spectrum_type: 2
charge: -1
Formula: C24H40O4
SMILES: C[C@H](CCC(=O)O)[C@H]1CC[C@@H]2[C@@]1([C@H](C[C@H]3[C@H]2[C@@H](C[C@H]4[C@@]3(CCCC4)C)O)O)C
Method: HCD
Collision_energy: [28.333334]
Isolation_window: 4.0
Ion_mode: N
Num Peaks: 3
391.2846	100.0
392.2878	24.0
393.2906	2.4

Name: Isodityrosine (Not validated)
PrecursorMZ: 359.12525
RT: 4.1414
ExactMass: 360.13213636
Spectrum_type: 2
charge: -1
Formula: C18H20N2O6
SMILES: C1=CC(=CC=C1CC(C(=O)O)N)OC2=C(C=CC(=C2)CC(C(=O)O)N)O
Method: HCD
Collision_energy: [28.333334]
Isolation_window: 4.0
Ion_mode: N
Num Peaks: 32
59.0129	8.9
120.0118	7.5
120.0811	7.6
122.0602	2.6
124.0760	5.0
146.0605	20.6
148.0761	7.6
150.0918	10.7
164.0715	2.8
215.1186	10.1
243.1143	34.2
243.1507	6.3
244.1156	3.6
257.1294	3.5
271.1454	22.0
272.1484	4.0
273.1533	6.0
287.1404	14.1
288.1444	2.9
289.1559	3.1
297.1248	3.4
315.1353	100.0
316.1386	19.3
357.1926	3.0
357.2398	4.1
359.0811	3.9
359.1252	81.0
359.1662	3.5
359.2085	14.1
360.1279	14.8
361.1326	8.2
361.2233	3.4

Name: Isoleucine/Leucine + HDCA
PrecursorMZ: 504.36951
RT: 7.369766666666667
ExactMass: 505.37672373
Spectrum_type: 2
charge: -1
Formula: C30H51NO5
SMILES: CCC(C)[C@@H](C(=O)O)NC(=O)CC[C@@H](C)[C@H]1CC[C@@H]2[C@@]1(CC[C@H]3[C@H]2C[C@@H]([C@H]4[C@@]3(CC[C@H](C4)O)C)O)C
Method: HCD
Collision_energy: [28.333334]
Isolation_window: 4.0
Ion_mode: N
Num Peaks: 12
56.0394	2.7
56.0426	4.6
130.0865	49.1
459.3524	4.7
460.3825	3.8
461.3653	8.1
485.3271	4.8
487.3443	4.6
503.3392	44.8
504.3709	100.0
505.3637	55.1
506.3647	10.4

Name: Isoleucine/Leucine + UDCA
PrecursorMZ: 504.36922
RT: 7.4468
ExactMass: 505.37672373
Spectrum_type: 2
charge: -1
Formula: C30H51NO5
SMILES: CCC(C)[C@@H](C(=O)O)NC(=O)CC[C@@H](C)[C@H]1CC[C@@H]2[C@@]1(CC[C@H]3[C@H]2[C@H](C[C@H]4[C@@]3(CC[C@H](C4)O)C)O)C
Method: HCD
Collision_energy: [28.333334]
Isolation_window: 4.0
Ion_mode: N
Num Peaks: 15
56.0394	2.3
56.0426	4.4
56.1540	1.4
96.9590	1.4
130.0864	57.9
131.0899	3.3
459.3506	1.4
460.3804	3.7
461.3699	2.7
503.3448	4.4
504.3695	100.0
505.2979	7.8
505.3707	31.3
506.3013	2.0
506.3735	3.8

Name: Isoleucylisoleucine
PrecursorMZ: 243.17116
RT: 2.5315
ExactMass: 244.17869263
Spectrum_type: 2
charge: -1
Formula: C12H24N2O3
SMILES: CCC(C)C(C(=O)NC(C(C)CC)C(=O)O)N
Method: HCD
Collision_energy: [28.333334]
Isolation_window: 4.0
Ion_mode: N
Num Peaks: 15
59.0129	11.2
88.9871	4.1
100.0031	1.9
119.0495	2.4
129.1025	1.8
130.0865	23.7
165.0551	3.5
199.1810	29.4
200.1847	3.3
241.1064	4.8
242.1089	3.1
243.1242	10.1
243.1711	100.0
244.1745	11.9
245.0123	4.2

Name: Isomuronic acid
PrecursorMZ: 365.23178
RT: 6.7716
ExactMass: 366.24062418
Spectrum_type: 2
charge: -1
Formula: C21H34O5
SMILES: CC1=C([C@H](OC1=O)CCCCCCCCCCCCCC(=O)C)C(=O)O
Method: HCD
Collision_energy: [28.333334]
Isolation_window: 4.0
Ion_mode: N
Num Peaks: 11
155.1065	55.0
171.1015	20.9
231.1745	21.3
275.1642	56.4
321.2420	100.0
322.2451	22.2
363.2074	88.6
364.2107	88.7
365.2330	81.7
366.2337	23.4
367.2496	34.8

Name: Isopeonol
PrecursorMZ: 165.05505
RT: 4.3852
ExactMass: 166.062994177
Spectrum_type: 2
charge: -1
Formula: C9H10O3
SMILES: CC(=O)C1=C(C=C(C=C1)O)OC
Method: HCD
Collision_energy: [28.333334]
Isolation_window: 4.0
Ion_mode: N
Num Peaks: 11
82.0401	12.3
97.0400	4.1
120.0559	6.7
121.0510	18.2
123.0443	25.5
124.0508	5.1
136.0510	5.8
149.0237	18.3
165.0550	100.0
166.0591	10.0
167.0348	6.3

Name: Isoprunetin
PrecursorMZ: 283.06126
RT: 4.6371
ExactMass: 284.06847348
Spectrum_type: 2
charge: -1
Formula: C16H12O5
SMILES: COC1=CC(=CC2=C1C(=O)C(=CO2)C3=CC=C(C=C3)O)O
Method: HCD
Collision_energy: [28.333334]
Isolation_window: 4.0
Ion_mode: N
Num Peaks: 8
177.1276	2.5
195.1384	2.4
268.0376	12.8
269.0439	4.4
283.0610	100.0
283.1139	2.1
284.0661	26.7
285.0734	4.4

Name: Isosakuranetin
PrecursorMZ: 285.07691
RT: 6.89928
ExactMass: 286.08412354
Spectrum_type: 2
charge: -1
Formula: C16H14O5
SMILES: COC1=CC=C(C=C1)[C@@H]2CC(=O)C3=C(C=C(C=C3O2)O)O
Method: HCD
Collision_energy: [28.333334]
Isolation_window: 4.0
Ion_mode: N
Num Peaks: 16
65.9976	1.3
141.9961	7.0
151.0029	7.4
169.0131	1.4
255.0296	1.2
268.0381	2.1
270.0534	19.4
271.0570	3.1
283.0612	3.7
283.1376	7.2
284.0634	1.4
284.1413	1.4
285.0383	2.2
285.0769	100.0
286.0803	17.3
287.0827	1.7

Name: Isosulochrin
PrecursorMZ: 331.08284
RT: 5.8976
ExactMass: 332.08960285
Spectrum_type: 2
charge: -1
Formula: C17H16O7
SMILES: CC1=CC(=C(C(=C1)O)C(=O)C2=C(C=C(C=C2O)OC)C(=O)OC)O
Method: HCD
Collision_energy: [28.333334]
Isolation_window: 4.0
Ion_mode: N
Num Peaks: 5
123.0446	4.7
149.0239	100.0
150.0272	6.9
167.0345	86.3
168.0379	7.0

Name: Isotaxiresinol
PrecursorMZ: 345.1343
RT: 4.0139
ExactMass: 346.14163842
Spectrum_type: 2
charge: -1
Formula: C19H22O6
SMILES: COC1=C(C=C2[C@@H]([C@H]([C@@H](CC2=C1)CO)CO)C3=CC(=C(C=C3)O)O)O
Method: HCD
Collision_energy: [28.333334]
Isolation_window: 4.0
Ion_mode: N
Num Peaks: 29
123.0439	3.4
125.0236	2.7
135.0442	19.9
137.0235	3.4
157.0650	5.3
165.0548	8.6
171.1017	11.4
181.0498	7.1
209.0816	5.0
229.1438	2.9
251.1073	5.2
281.1181	2.8
283.0971	6.3
299.1004	2.8
299.1284	100.0
300.0995	4.4
300.1320	18.0
314.1506	4.6
315.1236	20.8
316.1262	3.0
343.2119	10.6
344.1220	4.6
344.2147	4.2
345.0968	9.6
345.1340	68.2
345.2273	33.9
346.1372	15.1
346.2297	5.8
347.1491	8.1

Name: Isovitexin 2''-O-arabinoside
PrecursorMZ: 563.13968
RT: 3.5605
ExactMass: 564.14790556
Spectrum_type: 2
charge: -1
Formula: C26H28O14
SMILES: C1[C@@H]([C@@H]([C@H]([C@@H](O1)O[C@@H]2[C@H]([C@@H]([C@H](O[C@H]2C3=C(C4=C(C=C3O)OC(=CC4=O)C5=CC=C(C=C5)O)O)CO)O)O)O)O)O
Method: HCD
Collision_energy: [28.333334]
Isolation_window: 4.0
Ion_mode: N
Num Peaks: 21
59.0128	7.7
62.5729	4.3
71.0127	6.2
89.0233	11.9
124.0393	4.2
293.0449	87.4
294.0483	13.5
311.0553	20.1
312.0606	4.3
341.0671	4.3
353.0660	23.3
354.0703	3.4
383.0767	16.1
413.0872	29.6
414.0901	6.6
443.0977	11.7
473.1063	4.8
562.1827	3.3
563.1390	100.0
564.1416	27.0
565.1471	8.9

Name: JPM-OEt
PrecursorMZ: 391.1868
RT: 3.7934
ExactMass: 392.19473662
Spectrum_type: 2
charge: -1
Formula: C20H28N2O6
SMILES: CCOC(=O)[C@@H]1[C@H](O1)C(=O)N[C@@H](CC(C)C)C(=O)NCCC2=CC=C(C=C2)O
Method: HCD
Collision_energy: [28.333334]
Isolation_window: 4.0
Ion_mode: N
Num Peaks: 37
72.9920	2.0
82.0287	2.1
109.0283	2.7
113.0344	2.2
125.0596	4.0
125.0708	2.5
127.0501	11.5
128.0343	2.2
130.0861	3.0
135.0439	3.4
135.9821	2.1
145.0616	15.5
146.0683	6.3
152.0833	2.0
165.0542	2.0
166.0261	2.3
167.0333	2.6
173.0446	4.3
181.0493	4.9
201.1276	11.4
203.1066	4.0
204.1144	3.7
210.0771	2.0
217.0496	3.9
219.1381	17.3
220.1414	2.6
245.1174	11.6
264.1603	2.2
332.1735	4.5
347.1970	9.4
373.1770	6.0
390.1263	8.2
390.1677	5.4
391.1035	5.5
391.1870	100.0
392.1891	23.5
393.1909	2.1

Name: Jaceidin
PrecursorMZ: 359.07762
RT: 6.2736
ExactMass: 360.08451746
Spectrum_type: 2
charge: -1
Formula: C18H16O8
SMILES: COC1=C(C=CC(=C1)C2=C(C(=O)C3=C(O2)C=C(C(=C3O)OC)O)OC)O
Method: HCD
Collision_energy: [28.333334]
Isolation_window: 4.0
Ion_mode: N
Num Peaks: 20
67.0180	5.6
83.0129	4.5
83.0493	3.9
93.0337	5.0
97.0286	4.2
109.0286	3.7
119.0495	5.6
121.0288	2.7
121.0650	15.6
123.0079	3.4
137.0239	2.7
145.0288	4.0
147.0444	4.4
175.0395	4.0
275.0925	3.7
357.0908	17.3
358.0972	4.7
359.0775	100.0
360.0811	21.1
361.0922	7.6

Name: Kaempferol 3-(2''-rhamnosylgalactoside) 7-rhamnoside
PrecursorMZ: 739.20849
RT: 4.0179
ExactMass: 740.21637904
Spectrum_type: 2
charge: -1
Formula: C33H40O19
SMILES: CC1C(C(C(C(O1)OC2C(C(C(OC2OC3=C(OC4=CC(=CC(=C4C3=O)O)OC5C(C(C(C(O5)C)O)O)O)C6=CC=C(C=C6)O)CO)O)O)O)O)O
Method: HCD
Collision_energy: [28.333334]
Isolation_window: 4.0
Ion_mode: N
Num Peaks: 23
71.0127	4.1
101.0232	4.0
113.0232	5.5
131.0339	2.5
143.0334	2.1
161.0446	3.0
167.0343	2.0
203.0555	3.4
241.0495	2.9
256.0734	19.3
257.0762	2.8
271.0969	100.0
272.1002	15.6
310.0833	2.2
323.0983	4.6
325.1074	5.5
369.0978	6.5
387.1092	2.0
421.0978	3.3
425.0887	2.2
693.2024	32.4
694.2060	9.0
739.2016	3.1

Name: Kuwanon C
PrecursorMZ: 421.16653
RT: 7.6276
ExactMass: 422.17293854
Spectrum_type: 2
charge: -1
Formula: C25H26O6
SMILES: CC(=CCC1=C2C(=C(C=C1O)O)C(=O)C(=C(O2)C3=C(C=C(C=C3)O)O)CC=C(C)C)C
Method: HCD
Collision_energy: [28.333334]
Isolation_window: 4.0
Ion_mode: N
Num Peaks: 4
301.1089	19.0
421.1668	100.0
422.1706	26.9
423.1812	30.3

Name: L-Aspartic Acid
PrecursorMZ: 132.02937
RT: 0.8496
ExactMass: 133.0375077
Spectrum_type: 2
charge: -1
Formula: C4H7NO4
SMILES: C([C@@H](C(=O)O)N)C(=O)O
Method: HCD
Collision_energy: [28.333334]
Isolation_window: 4.0
Ion_mode: N
Num Peaks: 15
59.0129	3.2
65.0137	3.3
71.0130	17.0
85.0286	4.0
86.0238	3.7
88.0395	100.0
89.0427	3.6
96.9688	6.3
103.0028	3.2
114.0188	6.9
115.0028	27.0
131.0356	7.2
131.0818	7.6
132.0294	36.9
134.0351	3.8

Name: L-Aspartyl-L-phenylalanine
PrecursorMZ: 279.09874
RT: 2.4138
ExactMass: 280.10592162
Spectrum_type: 2
charge: -1
Formula: C13H16N2O5
SMILES: C1=CC=C(C=C1)C[C@@H](C(=O)O)NC(=O)[C@H](CC(=O)O)N
Method: HCD
Collision_energy: [28.333334]
Isolation_window: 4.0
Ion_mode: N
Num Peaks: 6
113.0346	19.0
126.0427	33.5
164.0710	100.0
217.0983	26.5
261.0881	65.6
279.0887	31.5

Name: L-Glutamic Acid
PrecursorMZ: 146.04515
RT: 0.9386
ExactMass: 147.05315777
Spectrum_type: 2
charge: -1
Formula: C5H9NO4
SMILES: C(CC(=O)O)[C@@H](C(=O)O)N
Method: HCD
Collision_energy: [28.333334]
Isolation_window: 4.0
Ion_mode: N
Num Peaks: 6
85.0286	3.2
102.0551	100.0
103.0584	6.0
128.0345	49.8
129.0379	3.6
146.0451	29.0

Name: L-Glutamine
PrecursorMZ: 145.06069
RT: 0.8523
ExactMass: 146.06914219
Spectrum_type: 2
charge: -1
Formula: C5H10N2O3
SMILES: C(CC(=O)N)[C@@H](C(=O)O)N
Method: HCD
Collision_energy: [28.333334]
Isolation_window: 4.0
Ion_mode: N
Num Peaks: 13
74.0237	13.4
84.0444	13.4
85.0284	5.0
100.0757	11.4
101.0710	9.1
102.0550	100.0
109.0396	13.2
125.0345	6.4
127.0503	35.5
128.0343	68.5
144.0656	9.4
145.0608	41.1
146.0449	35.9

Name: L-Gulonic acid
PrecursorMZ: 177.03927
RT: 1.1087333333333333
ExactMass: 196.05830272
Spectrum_type: 2
charge: -1
Formula: C6H12O7
SMILES: C([C@@H]([C@H]([C@@H]([C@@H](C(=O)O)O)O)O)O)O
Method: HCD
Collision_energy: [28.333334]
Isolation_window: 4.0
Ion_mode: N
Num Peaks: 44
59.0128	13.6
69.0335	25.1
70.0368	3.6
71.0127	7.4
71.0491	7.0
72.9919	2.4
73.0284	5.9
75.0076	60.1
83.0127	6.4
85.0283	10.3
87.0076	37.1
87.0440	27.2
88.0392	3.3
88.0473	3.6
89.0232	33.3
89.0425	2.4
97.0284	3.1
99.0076	2.1
101.0232	29.5
102.0264	1.6
105.0181	4.0
113.0232	20.3
114.0265	2.5
115.0025	1.3
115.0389	27.3
117.0181	2.4
119.0338	4.9
129.0186	1.8
131.0338	16.9
132.0374	2.1
133.0495	3.4
141.0183	2.4
157.0131	100.0
158.0165	26.4
159.0173	4.0
159.0289	20.4
160.0317	1.4
161.0444	5.2
175.0238	13.6
175.0421	1.3
176.0273	3.7
177.0394	65.7
178.0421	3.7
179.0551	12.7

Name: L-Gulonic acid, gamma-lactone
PrecursorMZ: 177.0398
RT: 1.13386
ExactMass: 178.04773803
Spectrum_type: 2
charge: -1
Formula: C6H10O6
SMILES: C([C@@H]([C@@H]1[C@@H]([C@@H](C(=O)O1)O)O)O)O
Method: HCD
Collision_energy: [28.333334]
Isolation_window: 4.0
Ion_mode: N
Num Peaks: 30
59.0129	16.7
69.0336	3.5
71.0129	10.3
71.0493	13.0
72.9922	6.3
75.0078	73.5
83.0129	3.8
85.0286	20.1
87.0078	64.1
87.0442	7.0
88.0394	8.0
89.0234	13.3
89.0427	5.7
97.0286	4.3
101.0235	13.8
113.0236	5.6
115.0392	38.7
119.0340	3.9
131.0342	15.2
132.0656	7.8
141.0185	4.0
157.0136	13.4
159.0291	27.7
175.0253	3.9
175.0436	3.3
175.0605	10.2
176.0331	3.2
177.0398	100.0
177.0742	3.3
178.0428	4.6

Name: L-Histidine
PrecursorMZ: 154.06148
RT: 7.1738
ExactMass: 155.069476538
Spectrum_type: 2
charge: -1
Formula: C6H9N3O2
SMILES: C1=C(NC=N1)C[C@@H](C(=O)O)N
Method: HCD
Collision_energy: [28.333334]
Isolation_window: 4.0
Ion_mode: N
Num Peaks: 5
93.0449	29.8
108.9876	9.1
110.0714	11.6
137.0349	32.7
154.0615	100.0

Name: L-Hydroxyproline
PrecursorMZ: 130.04963
RT: 1.1914
ExactMass: 131.058243149
Spectrum_type: 2
charge: -1
Formula: C5H9NO3
SMILES: C1[C@H](CN[C@@H]1C(=O)O)O
Method: HCD
Collision_energy: [28.333334]
Isolation_window: 4.0
Ion_mode: N
Num Peaks: 25
57.0334	6.2
58.0288	26.7
59.0128	7.0
69.0335	4.8
71.0127	10.1
73.0284	11.2
84.0443	9.1
85.0284	67.9
86.0318	3.6
86.0599	18.0
87.0440	100.0
88.0392	29.7
101.0232	9.6
103.0028	3.8
112.0392	8.8
113.0232	9.7
114.0547	4.9
128.0341	32.4
128.0705	6.0
129.0182	11.5
130.0497	56.9
130.0861	79.9
131.0340	28.3
131.0893	6.1
132.0652	11.6

Name: L-Isoleucine
PrecursorMZ: 130.08651
RT: 7.845
ExactMass: 131.094628657
Spectrum_type: 2
charge: -1
Formula: C6H13NO2
SMILES: CC[C@H](C)[C@@H](C(=O)O)N
Method: HCD
Collision_energy: [28.333334]
Isolation_window: 4.0
Ion_mode: N
Num Peaks: 3
61.9875	9.7
130.0866	100.0
131.0902	7.8

Name: L-Leucine
PrecursorMZ: 130.08653
RT: 0.9768
ExactMass: 131.094628657
Spectrum_type: 2
charge: -1
Formula: C6H13NO2
SMILES: CC(C)C[C@@H](C(=O)O)N
Method: HCD
Collision_energy: [28.333334]
Isolation_window: 4.0
Ion_mode: N
Num Peaks: 4
88.0394	14.2
128.0344	15.9
130.0402	28.0
130.0865	100.0

Name: L-Norvaline
PrecursorMZ: 116.07084
RT: 0.9206
ExactMass: 117.078978594
Spectrum_type: 2
charge: -1
Formula: C5H11NO2
SMILES: CCC[C@@H](C(=O)O)N
Method: HCD
Collision_energy: [28.333334]
Isolation_window: 4.0
Ion_mode: N
Num Peaks: 11
70.0289	3.1
71.0129	3.9
72.0446	7.0
74.0238	8.6
98.0238	6.3
114.9354	8.7
116.0245	6.1
116.0708	100.0
116.9344	4.1
117.0743	6.2
118.0402	6.9

Name: L-Phenylalanine
PrecursorMZ: 164.07106
RT: 1.6178
ExactMass: 165.078978594
Spectrum_type: 2
charge: -1
Formula: C9H11NO2
SMILES: C1=CC=C(C=C1)C[C@@H](C(=O)O)N
Method: HCD
Collision_energy: [28.333334]
Isolation_window: 4.0
Ion_mode: N
Num Peaks: 5
72.0082	28.4
147.0444	100.0
148.0478	9.0
164.0710	68.8
165.0745	6.6

Name: L-Prolinamide,5-oxo-L-prolyl-3-methyl-L-histidyl-
PrecursorMZ: 375.17922
RT: 7.7115
ExactMass: 376.18590327
Spectrum_type: 2
charge: -1
Formula: C17H24N6O4
SMILES: CN1C=NC=C1C[C@@H](C(=O)N2CCC[C@H]2C(=O)N)NC(=O)[C@@H]3CCC(=O)N3
Method: HCD
Collision_energy: [28.333334]
Isolation_window: 4.0
Ion_mode: N
Num Peaks: 5
245.1914	62.1
289.1816	99.5
290.1854	18.3
307.1920	100.0
375.1791	22.6

Name: L-Proline
PrecursorMZ: 114.05481
RT: 0.923184
ExactMass: 115.06332853
Spectrum_type: 2
charge: -1
Formula: C5H9NO2
SMILES: C1C[C@H](NC1)C(=O)O
Method: HCD
Collision_energy: [28.333334]
Isolation_window: 4.0
Ion_mode: N
Num Peaks: 15
59.0127	14.2
66.0337	2.4
68.9945	37.2
69.0334	4.0
71.0126	23.6
71.0489	2.9
85.0282	4.9
96.0076	3.3
113.0231	3.0
114.0546	100.0
114.9348	5.0
115.0023	3.3
115.0385	3.5
115.0580	5.7
116.0702	13.1

Name: L-Serine
PrecursorMZ: 104.03442
RT: 0.855075
ExactMass: 105.042593085
Spectrum_type: 2
charge: -1
Formula: C3H7NO3
SMILES: C([C@@H](C(=O)O)N)O
Method: HCD
Collision_energy: [28.333334]
Isolation_window: 4.0
Ion_mode: N
Num Peaks: 5
59.0130	100.0
72.0082	47.0
74.0238	54.5
104.0345	29.1
106.0402	11.3

Name: L-Threonic Acid
PrecursorMZ: 135.02962
RT: 1.1139
ExactMass: 136.03717335
Spectrum_type: 2
charge: -1
Formula: C4H8O5
SMILES: C([C@@H]([C@H](C(=O)O)O)O)O
Method: HCD
Collision_energy: [28.333334]
Isolation_window: 4.0
Ion_mode: N
Num Peaks: 4
72.9922	18.0
75.0078	100.0
87.0077	53.3
135.0289	80.8

Name: L-Tryptophan
PrecursorMZ: 203.08209
RT: 8.6058
ExactMass: 204.08987763
Spectrum_type: 2
charge: -1
Formula: C11H12N2O2
SMILES: C1=CC=C2C(=C1)C(=CN2)C[C@@H](C(=O)O)N
Method: HCD
Collision_energy: [28.333334]
Isolation_window: 4.0
Ion_mode: N
Num Peaks: 7
72.0082	26.3
74.0238	24.0
116.0496	75.7
142.0655	20.3
159.0921	24.8
203.0821	100.0
204.0855	12.7

Name: L-Tyrosine
PrecursorMZ: 361.14091
RT: 5.9214
ExactMass: 181.07389321
Spectrum_type: 2
charge: -1
Formula: C9H11NO3
SMILES: C1=CC(=CC=C1C[C@@H](C(=O)O)N)O
Method: HCD
Collision_energy: [28.333334]
Isolation_window: 4.0
Ion_mode: N
Num Peaks: 3
61.9875	100.0
171.1021	15.1
361.2025	9.4

Name: L-Tyrosyl-L-tyrosine
PrecursorMZ: 343.12991
RT: 5.5067
ExactMass: 344.13722174
Spectrum_type: 2
charge: -1
Formula: C18H20N2O5
SMILES: C1=CC(=CC=C1C[C@@H](C(=O)N[C@@H](CC2=CC=C(C=C2)O)C(=O)O)N)O
Method: HCD
Collision_energy: [28.333334]
Isolation_window: 4.0
Ion_mode: N
Num Peaks: 12
69.2210	3.8
136.0760	23.8
152.0708	6.8
162.0554	26.2
180.0660	48.8
181.0698	5.5
206.0459	8.2
281.1294	5.2
343.0715	4.6
343.1297	100.0
343.2116	6.1
344.1327	19.8

Name: L-Valine
PrecursorMZ: 116.07079
RT: 7.5055
ExactMass: 117.078978594
Spectrum_type: 2
charge: -1
Formula: C5H11NO2
SMILES: CC(C)[C@@H](C(=O)O)N
Method: HCD
Collision_energy: [28.333334]
Isolation_window: 4.0
Ion_mode: N
Num Peaks: 4
73.0286	12.2
99.9250	8.5
116.0708	100.0
116.9276	50.7

Name: L-alanyl-L-phenylalanine
PrecursorMZ: 235.10879
RT: 2.4171714285714283
ExactMass: 236.11609238
Spectrum_type: 2
charge: -1
Formula: C12H16N2O3
SMILES: C[C@@H](C(=O)N[C@@H](CC1=CC=CC=C1)C(=O)O)N
Method: HCD
Collision_energy: [28.333334]
Isolation_window: 4.0
Ion_mode: N
Num Peaks: 16
87.0554	97.1
107.0607	4.0
120.0117	3.5
143.0707	6.1
147.0444	26.3
149.0603	3.6
153.0916	5.2
164.0711	11.0
169.0865	4.2
191.1185	5.9
215.0922	26.4
216.0954	5.9
233.1031	39.9
234.1070	9.3
235.1086	100.0
236.1124	12.0

Name: LPE 16:0
PrecursorMZ: 452.27683
RT: 7.864599999999999
Spectrum_type: 2
charge: -1
SMILES: O=C(OCC(O)COP(=O)(O)OCCN)CCCCCCCCCCCCCCC
Method: HCD
Collision_energy: [28.333334]
Isolation_window: 4.0
Ion_mode: N
Num Peaks: 16
50.2542	2.3
78.9578	3.9
132.0290	4.2
140.0105	3.3
152.9943	1.5
196.0367	10.7
214.0472	2.2
255.2319	100.0
256.2352	15.9
289.2520	1.9
333.2424	12.9
334.2460	4.8
450.3211	1.7
452.2768	48.1
453.2801	10.5
454.2805	1.4

Name: LY-341495
PrecursorMZ: 352.11909
RT: 5.812
ExactMass: 353.12632271
Spectrum_type: 2
charge: -1
Formula: C20H19NO5
SMILES: C1[C@@H]([C@H]1[C@@](CC2C3=CC=CC=C3OC4=CC=CC=C24)(C(=O)O)N)C(=O)O
Method: HCD
Collision_energy: [28.333334]
Isolation_window: 4.0
Ion_mode: N
Num Peaks: 4
114.0552	100.0
140.0345	20.0
195.0447	51.4
213.0554	62.9

Name: Lactarorufin B
PrecursorMZ: 281.1397
RT: 3.0437
ExactMass: 282.1467238
Spectrum_type: 2
charge: -1
Formula: C15H22O5
SMILES: CC1(CC2C(C1)C(CC3=C(C2O)COC3=O)(C)O)CO
Method: HCD
Collision_energy: [28.333334]
Isolation_window: 4.0
Ion_mode: N
Num Peaks: 44
57.0337	3.1
59.0130	3.5
65.0388	2.0
72.9923	1.6
83.0493	6.9
87.0079	9.0
88.9872	2.4
95.0493	2.5
96.9592	1.8
100.0031	1.6
111.0443	4.8
111.0808	2.7
113.0601	1.6
121.0652	3.3
123.0808	22.6
124.0843	1.7
137.0603	1.7
137.0966	3.1
138.0679	3.4
139.0759	4.6
145.1015	3.7
151.0757	4.1
153.0915	4.6
169.0864	3.9
169.1017	3.5
171.1174	29.1
172.1209	3.7
189.1281	11.5
190.1316	1.6
201.1281	13.0
202.1317	1.6
207.1387	8.2
219.1389	6.4
237.1496	47.3
238.1528	6.6
253.1446	19.0
279.0881	1.8
280.0867	1.6
281.0714	1.8
281.1084	3.6
281.1396	100.0
282.1428	15.6
283.0849	1.5
283.1552	24.5

Name: Lamiidoside
PrecursorMZ: 567.17099
RT: 4.00924
ExactMass: 568.17920569
Spectrum_type: 2
charge: -1
Formula: C26H32O14
SMILES: C[C@@]1([C@H](C[C@]2([C@@H]1[C@@H](OC=C2C(=O)OC)O[C@H]3[C@@H]([C@H]([C@@H]([C@H](O3)CO)O)O)O)O)OC(=O)/C=C/C4=CC=C(C=C4)O)O
Method: HCD
Collision_energy: [28.333334]
Isolation_window: 4.0
Ion_mode: N
Num Peaks: 59
59.0128	2.4
63.0209	2.6
99.0442	2.2
113.0231	2.7
123.0441	3.6
125.0234	4.3
137.0598	3.3
165.0544	5.8
167.0339	15.1
179.0344	2.5
181.0497	8.3
189.0548	2.5
197.0446	6.4
209.0446	22.3
210.0475	2.5
221.0446	3.1
239.0553	15.7
251.0554	5.1
263.0548	3.0
269.0657	4.9
273.0768	5.4
281.0658	3.0
315.0867	25.6
316.0897	4.4
327.0863	9.3
341.1022	3.8
345.0973	13.2
346.1013	2.6
357.0972	98.8
358.1008	17.4
369.0973	5.7
371.1139	3.8
387.1080	100.0
388.1115	17.7
389.1144	2.3
399.1078	6.7
411.1086	2.7
417.1187	34.8
418.1221	6.6
429.1181	10.4
430.1191	2.6
447.1287	21.4
448.1305	4.0
459.1289	8.4
477.1394	24.0
478.1429	5.8
479.1548	16.5
489.1400	3.6
507.1495	2.3
509.1654	9.1
549.1610	5.0
565.3023	3.7
566.3143	5.5
567.1708	63.1
567.3115	19.3
568.1735	16.1
568.3157	5.5
569.1884	15.0
569.3327	16.7

Name: Lanosterol
PrecursorMZ: 471.34891
RT: 8.9863
ExactMass: 426.386166214
Spectrum_type: 2
charge: -1
Formula: C30H50O
SMILES: C[C@H](CCC=C(C)C)[C@H]1CC[C@@]2([C@@]1(CCC3=C2CC[C@@H]4[C@@]3(CC[C@@H](C4(C)C)O)C)C)C
Method: HCD
Collision_energy: [28.333334]
Isolation_window: 4.0
Ion_mode: N
Num Peaks: 17
52.3735	4.8
149.0604	34.2
150.0684	33.4
162.0683	8.3
163.0758	9.0
177.0918	9.4
319.2291	7.3
425.2683	38.0
426.2703	8.1
453.2968	17.7
454.3013	6.7
469.3365	11.3
470.3461	14.3
471.3559	100.0
472.3615	30.4
473.2906	6.3
473.3627	28.2

Name: Lauroyl Lysine
PrecursorMZ: 327.26556
RT: 6.163333333333334
ExactMass: 328.27259301
Spectrum_type: 2
charge: -1
Formula: C18H36N2O3
SMILES: CCCCCCCCCCCC(=O)NCCCC[C@@H](C(=O)O)N
Method: HCD
Collision_energy: [28.333334]
Isolation_window: 4.0
Ion_mode: N
Num Peaks: 13
145.0976	100.0
146.1015	5.1
201.1127	15.4
213.1124	7.9
283.2754	12.1
325.1836	5.4
326.1874	9.2
327.1578	7.6
327.2191	25.2
327.2658	74.3
328.2223	5.5
328.2690	14.4
329.2335	16.3

Name: Lauroylsarcosine
PrecursorMZ: 270.20771
RT: 7.9264833333333335
ExactMass: 271.21474379
Spectrum_type: 2
charge: -1
Formula: C15H29NO3
SMILES: CCCCCCCCCCCC(=O)N(C)CC(=O)O
Method: HCD
Collision_energy: [28.333334]
Isolation_window: 4.0
Ion_mode: N
Num Peaks: 5
88.0396	100.0
226.2176	8.3
269.2126	16.3
270.2079	28.0
271.2297	24.2

Name: Lauryl Phosphate
PrecursorMZ: 265.15747
RT: 6.3492
ExactMass: 266.16469634
Spectrum_type: 2
charge: -1
Formula: C12H27O4P
SMILES: CCCCCCCCCCCCOP(=O)(O)O
Method: HCD
Collision_energy: [28.333334]
Isolation_window: 4.0
Ion_mode: N
Num Peaks: 5
78.9581	84.1
96.9592	10.3
181.0628	53.5
265.1576	100.0
266.1615	11.8

Name: Lauryl sulfate
PrecursorMZ: 265.14794
RT: 6.9918
ExactMass: 266.15518048
Spectrum_type: 2
charge: -1
Formula: C12H26O4S
SMILES: CCCCCCCCCCCCOS(=O)(=O)O
Method: HCD
Collision_energy: [28.333334]
Isolation_window: 4.0
Ion_mode: N
Num Peaks: 4
96.9591	31.8
265.1479	100.0
266.1511	13.1
267.1437	2.7

Name: Lecanoric Acid
PrecursorMZ: 317.06668
RT: 5.914
ExactMass: 318.07395278
Spectrum_type: 2
charge: -1
Formula: C16H14O7
SMILES: CC1=CC(=CC(=C1C(=O)OC2=CC(=C(C(=C2)C)C(=O)O)O)O)O
Method: HCD
Collision_energy: [28.333334]
Isolation_window: 4.0
Ion_mode: N
Num Peaks: 10
123.0443	9.3
149.0238	8.8
165.0550	43.0
166.0584	6.2
167.0342	100.0
168.0374	7.7
195.0296	8.2
283.1334	6.8
315.1605	9.4
317.0677	7.2

Name: Leu-phe
PrecursorMZ: 277.15568
RT: 3.4788
ExactMass: 278.16304257
Spectrum_type: 2
charge: -1
Formula: C15H22N2O3
SMILES: CC(C)C[C@@H](C(=O)N[C@@H](CC1=CC=CC=C1)C(=O)O)N
Method: HCD
Collision_energy: [28.333334]
Isolation_window: 4.0
Ion_mode: N
Num Peaks: 18
122.0602	1.9
123.0681	1.1
124.0764	1.1
129.1024	11.2
134.0604	2.6
136.0759	100.0
137.0794	7.9
138.0552	9.4
138.0915	11.3
139.0949	1.0
147.0443	3.1
150.0552	1.2
164.0709	3.3
233.1660	1.3
259.1450	10.9
260.1486	1.9
277.1554	20.7
278.1589	3.8

Name: Levodopa
PrecursorMZ: 196.06111
RT: 1.7352
ExactMass: 197.06880783
Spectrum_type: 2
charge: -1
Formula: C9H11NO4
SMILES: C1=CC(=C(C=C1C[C@@H](C(=O)O)N)O)O
Method: HCD
Collision_energy: [28.333334]
Isolation_window: 4.0
Ion_mode: N
Num Peaks: 19
72.9923	2.5
107.0494	5.5
109.0286	18.9
110.0239	100.0
111.0080	2.0
111.0271	5.7
123.0443	2.3
124.0761	4.0
135.0444	4.6
136.0760	4.2
151.0395	6.9
152.0709	4.3
153.0186	35.9
167.0344	11.1
179.0342	2.3
180.0660	4.4
196.0609	7.9
197.0087	14.6
197.0450	4.7

Name: Licochalcone B
PrecursorMZ: 285.07686
RT: 6.89335
ExactMass: 286.08412354
Spectrum_type: 2
charge: -1
Formula: C16H14O5
SMILES: COC1=C(C=CC(=C1O)O)/C=C/C(=O)C2=CC=C(C=C2)O
Method: HCD
Collision_energy: [28.333334]
Isolation_window: 4.0
Ion_mode: N
Num Peaks: 5
151.0029	6.8
270.0534	15.2
283.1375	17.5
285.0769	100.0
286.0805	16.8

Name: Licodione base + 3O, 2Prenyl
PrecursorMZ: 339.12231
RT: 6.5769
ExactMass: 340.13107373
Spectrum_type: 2
charge: -1
Formula: C20H20O5
SMILES: CC(=CCC1=CC(=C(C=C1O)O)C(=O)/C=C(/C2=CC=C(C=C2)O)\O)C
Method: HCD
Collision_energy: [28.333334]
Isolation_window: 4.0
Ion_mode: N
Num Peaks: 12
102.9474	14.8
146.9373	24.8
161.0230	100.0
177.0907	95.6
178.0939	10.3
190.9271	13.1
337.1076	15.0
339.1223	64.2
339.1619	12.0
339.1990	31.4
340.1258	15.7
341.1770	17.0

Name: Limaprost
PrecursorMZ: 379.24916
RT: 9.0043
ExactMass: 380.25627424
Spectrum_type: 2
charge: -1
Formula: C22H36O5
SMILES: CCCC[C@H](C)C[C@@H](/C=C/[C@H]1[C@@H](CC(=O)[C@@H]1CCCC/C=C/C(=O)O)O)O
Method: HCD
Collision_energy: [28.333334]
Isolation_window: 4.0
Ion_mode: N
Num Peaks: 21
68.9972	8.8
85.0284	6.8
87.0078	22.5
116.0707	13.0
259.2065	13.7
275.2374	5.8
285.2221	7.7
303.2327	76.5
304.2364	16.6
317.2848	5.3
335.2944	6.7
347.2226	100.0
348.2263	24.0
377.3077	13.8
378.3056	21.9
379.2476	29.5
379.2873	24.2
380.2424	5.2
380.2925	8.4
381.2442	22.6
381.3000	10.7

Name: Linarin
PrecursorMZ: 637.17862
RT: 4.8556
ExactMass: 592.17920569
Spectrum_type: 2
charge: -1
Formula: C28H32O14
SMILES: C[C@H]1[C@@H]([C@H]([C@H]([C@@H](O1)OC[C@@H]2[C@H]([C@@H]([C@H]([C@@H](O2)OC3=CC(=C4C(=C3)OC(=CC4=O)C5=CC=C(C=C5)OC)O)O)O)O)O)O)O
Method: HCD
Collision_energy: [28.333334]
Isolation_window: 4.0
Ion_mode: N
Num Peaks: 12
222.1238	0.7
240.1351	1.1
268.0381	7.2
269.0409	1.0
282.9978	0.8
283.0616	100.0
283.1135	0.6
283.1270	0.7
284.0650	14.3
285.0672	1.2
591.1732	1.7
593.3313	1.6

Name: Lincomycin
PrecursorMZ: 405.20676
RT: 9.4972
ExactMass: 406.21375798
Spectrum_type: 2
charge: -1
Formula: C18H34N2O6S
SMILES: CCC[C@@H]1C[C@H](N(C1)C)C(=O)N[C@@H]([C@@H]2[C@@H]([C@@H]([C@H]([C@H](O2)SC)O)O)O)[C@@H](C)O
Method: HCD
Collision_energy: [28.333334]
Isolation_window: 4.0
Ion_mode: N
Num Peaks: 5
80.9642	15.4
165.0186	12.6
166.0263	65.5
405.2076	100.0
406.2108	30.6

Name: Linolelaidic Acid
PrecursorMZ: 279.23169
RT: 9.8143
ExactMass: 280.240230259
Spectrum_type: 2
charge: -1
Formula: C18H32O2
SMILES: CCCCC/C=C/C/C=C/CCCCCCCC(=O)O
Method: HCD
Collision_energy: [28.333334]
Isolation_window: 4.0
Ion_mode: N
Num Peaks: 3
121.0281	11.2
279.2317	100.0
280.2347	16.8

Name: Lith-O-Asp
PrecursorMZ: 490.31726
RT: 7.1839
ExactMass: 491.32468816
Spectrum_type: 2
charge: -1
Formula: C28H45NO6
SMILES: C[C@H](CCC(=O)O)[C@H]1CC[C@@H]2[C@@]1(CC[C@H]3[C@H]2CC[C@H]4[C@@]3(CC[C@H](C4)OC(=O)[C@H](CC(=O)O)N)C)C
Method: HCD
Collision_energy: [28.333334]
Isolation_window: 4.0
Ion_mode: N
Num Peaks: 8
88.0394	29.4
115.0027	14.4
375.2898	16.1
446.3286	15.8
489.2863	13.7
490.3187	100.0
491.3084	37.8
491.3149	39.1

Name: Lithocholenic acid
PrecursorMZ: 373.27504
RT: 8.5121
ExactMass: 374.28209507
Spectrum_type: 2
charge: -1
Formula: C24H38O3
SMILES: C[C@H](CCC(=O)O)[C@H]1CC[C@@H]2[C@@]1(C=C[C@H]3[C@H]2CC[C@H]4[C@@]3(CC[C@H](C4)O)C)C
Method: HCD
Collision_energy: [28.333334]
Isolation_window: 4.0
Ion_mode: N
Num Peaks: 4
373.2749	100.0
373.3740	0.8
374.2781	24.8
375.2812	2.3

Name: Lithocholic Acid
PrecursorMZ: 375.29
RT: 8.3924
ExactMass: 376.29774513
Spectrum_type: 2
charge: -1
Formula: C24H40O3
SMILES: C[C@H](CCC(=O)O)[C@H]1CC[C@@H]2[C@@]1(CC[C@H]3[C@H]2CC[C@H]4[C@@]3(CC[C@H](C4)O)C)C
Method: HCD
Collision_energy: [28.333334]
Isolation_window: 4.0
Ion_mode: N
Num Peaks: 6
375.2131	1.0
375.2903	100.0
375.3894	0.7
376.2936	26.0
377.2969	2.3
393.3010	1.8

Name: Lithospermic acid (M+H)+
PrecursorMZ: 537.10446
RT: 4.4114
ExactMass: 538.11112613
Spectrum_type: 2
charge: -1
Formula: C27H22O12
SMILES: C1=CC(=C(C=C1CC(C(=O)O)OC(=O)/C=C/C2=C3C(C(OC3=C(C=C2)O)C4=CC(=C(C=C4)O)O)C(=O)O)O)O
Method: HCD
Collision_energy: [28.333334]
Isolation_window: 4.0
Ion_mode: N
Num Peaks: 34
72.9922	7.9
85.0285	3.2
96.9593	3.3
109.0285	5.0
114.0552	3.3
133.0287	8.9
135.0444	100.0
136.0477	7.1
151.0397	4.8
159.0448	3.5
160.0159	18.9
161.0238	75.1
162.0272	6.9
177.0190	6.5
178.0263	3.4
179.0344	28.4
180.0382	2.9
197.0450	25.3
221.0454	4.6
251.0712	4.0
295.0612	32.1
296.0647	5.2
313.0716	7.9
357.0616	6.1
357.1000	3.8
359.0775	46.6
360.0812	9.0
387.1084	5.2
493.1146	34.3
494.1183	9.4
535.3774	9.8
536.3889	4.2
537.1510	3.5
537.2653	3.1

Name: Lobaric Acid
PrecursorMZ: 487.19682
RT: 4.3492
ExactMass: 456.17841785
Spectrum_type: 2
charge: -1
Formula: C25H28O8
SMILES: CCCCCC1=C(C(=CC2=C1OC3=CC(=CC(=C3C(=O)O2)C(=O)CCCC)OC)O)C(=O)O
Method: HCD
Collision_energy: [28.333334]
Isolation_window: 4.0
Ion_mode: N
Num Peaks: 8
68.9972	69.1
109.0648	28.5
211.0970	35.8
373.2016	25.4
399.2191	27.8
443.2072	59.4
487.1963	100.0
488.2021	26.6

Name: Lodenafil
PrecursorMZ: 503.20866
RT: 6.468
ExactMass: 504.21548932
Spectrum_type: 2
charge: -1
Formula: C23H32N6O5S
SMILES: CCCC1=NN(C2=C1N=C(NC2=O)C3=C(C=CC(=C3)S(=O)(=O)N4CCN(CC4)CCO)OCC)C
Method: HCD
Collision_energy: [28.333334]
Isolation_window: 4.0
Ion_mode: N
Num Peaks: 12
55.9106	2.3
55.9136	4.5
56.0251	1.1
61.9872	9.2
69.1506	1.5
96.9587	57.2
501.3105	2.7
503.2085	100.0
503.3297	1.3
504.2113	28.3
505.2011	5.7
505.2699	1.7

Name: Longilactone, delta-4(18)-Isomer, 2alpha-alcoho
PrecursorMZ: 413.18227
RT: 2.2015
ExactMass: 368.18350323
Spectrum_type: 2
charge: -1
Formula: C19H28O7
SMILES: C[C@H]1[C@H]([C@@H](C2[C@]3([C@@H]([C@H](CC(=C)C3[C@H]([C@@H]4[C@]2(C1C(=O)O4)C)O)O)O)C)O)O
Method: HCD
Collision_energy: [28.333334]
Isolation_window: 4.0
Ion_mode: N
Num Peaks: 8
88.9871	9.9
349.1657	8.6
367.1764	32.1
368.1804	6.1
385.1873	24.7
386.1925	4.5
413.1824	100.0
414.1863	20.4

Name: Luminespib
PrecursorMZ: 464.21872
RT: 5.4841
ExactMass: 465.2263711
Spectrum_type: 2
charge: -1
Formula: C26H31N3O5
SMILES: CCNC(=O)C1=NOC(=C1C2=CC=C(C=C2)CN3CCOCC3)C4=CC(=C(C=C4O)O)C(C)C
Method: HCD
Collision_energy: [28.333334]
Isolation_window: 4.0
Ion_mode: N
Num Peaks: 6
116.0496	22.7
245.1657	100.0
246.1686	16.6
388.2020	19.2
464.2193	72.1
465.2221	20.5

Name: Lup-20(29)-en-28-oic acid, 6-hydroxy-3-oxo-, (5xi,9xi,18xi)-
PrecursorMZ: 515.33763
RT: 9.7284
ExactMass: 470.33960994
Spectrum_type: 2
charge: -1
Formula: C30H46O4
SMILES: CC(=C)[C@@H]1CC[C@]2(C1[C@H]3CCC4[C@]5(CCC(=O)C(C5C(C[C@]4([C@@]3(CC2)C)C)O)(C)C)C)C(=O)O
Method: HCD
Collision_energy: [28.333334]
Isolation_window: 4.0
Ion_mode: N
Num Peaks: 3
69.1396	44.9
149.0599	83.2
469.3325	100.0

Name: Ly-3009120
PrecursorMZ: 469.2369
RT: 8.9336
ExactMass: 424.23868773
Spectrum_type: 2
charge: -1
Formula: C23H29FN6O
SMILES: CC1=CC(=C(C=C1C2=C(N=C3C(=C2)C=NC(=N3)NC)C)NC(=O)NCCC(C)(C)C)F
Method: HCD
Collision_energy: [28.333334]
Isolation_window: 4.0
Ion_mode: N
Num Peaks: 3
281.1533	19.1
469.2364	100.0
470.2405	37.2

Name: Ly-3200882
PrecursorMZ: 470.19618
RT: 10.431000000000001
ExactMass: 435.2270398
Spectrum_type: 2
charge: -1
Formula: C24H29N5O3
SMILES: CC(C)(C1=NC=CC(=C1)NC2=NC=CC(=C2)OC3=CN(N=C3C4CCOCC4)C5CC5)O
Method: HCD
Collision_energy: [28.333334]
Isolation_window: 4.0
Ion_mode: N
Num Peaks: 5
99.9245	39.6
115.9195	35.8
426.2071	74.5
470.1962	100.0
471.1977	29.6

Name: Lysine + CDCA
PrecursorMZ: 519.38037
RT: 5.5356
ExactMass: 520.38762276
Spectrum_type: 2
charge: -1
Formula: C30H52N2O5
SMILES: C[C@H](CCC(=O)N[C@@H](CCCCN)C(=O)O)[C@H]1CC[C@@H]2[C@@]1(CC[C@H]3[C@H]2[C@@H](C[C@H]4[C@@]3(CC[C@H](C4)O)C)O)C
Method: HCD
Collision_energy: [28.333334]
Isolation_window: 4.0
Ion_mode: N
Num Peaks: 3
145.0974	64.0
519.3804	100.0
520.3846	28.7

Name: Lysine + Cholic Acid
PrecursorMZ: 535.37508
RT: 5.0807
ExactMass: 536.38253738
Spectrum_type: 2
charge: -1
Formula: C30H52N2O6
SMILES: C[C@H](CCC(=O)N[C@@H](CCCCN)C(=O)O)[C@H]1CC[C@@H]2[C@@]1([C@H](C[C@H]3[C@H]2[C@@H](C[C@H]4[C@@]3(CC[C@H](C4)O)C)O)O)C
Method: HCD
Collision_energy: [28.333334]
Isolation_window: 4.0
Ion_mode: N
Num Peaks: 24
59.0129	3.8
59.4844	2.1
59.4878	4.5
102.0550	2.6
112.9869	3.2
114.0550	1.8
128.0344	11.5
145.0974	23.1
146.0448	2.0
197.0448	1.3
223.1333	2.0
405.2653	2.1
407.2802	4.9
473.3737	1.3
534.2329	1.4
534.3099	8.2
535.2575	4.7
535.3134	3.4
535.3752	100.0
536.3196	13.1
536.3799	23.3
537.3171	4.0
537.3835	2.4
537.3931	1.5

Name: Lysine + DCA
PrecursorMZ: 519.37895
RT: 5.6569
ExactMass: 520.38762276
Spectrum_type: 2
charge: -1
Formula: C30H52N2O5
SMILES: C[C@H](CCC(=O)N[C@@H](CCCCN)C(=O)O)[C@H]1CC[C@@H]2[C@@]1([C@H](C[C@H]3[C@H]2CC[C@H]4[C@@]3(CC[C@H](C4)O)C)O)C
Method: HCD
Collision_energy: [28.333334]
Isolation_window: 4.0
Ion_mode: N
Num Peaks: 3
145.0970	53.7
519.3791	100.0
520.3832	32.3

Name: Lysine + HDCA
PrecursorMZ: 519.38073
RT: 5.5057
ExactMass: 520.38762276
Spectrum_type: 2
charge: -1
Formula: C30H52N2O5
SMILES: C[C@H](CCC(=O)N[C@@H](CCCCN)C(=O)O)[C@H]1CC[C@@H]2[C@@]1(CC[C@H]3[C@H]2C[C@@H]([C@H]4[C@@]3(CC[C@H](C4)O)C)O)C
Method: HCD
Collision_energy: [28.333334]
Isolation_window: 4.0
Ion_mode: N
Num Peaks: 10
57.7073	2.1
57.7106	4.3
145.0975	55.0
146.1013	3.1
223.0875	2.9
457.3801	2.9
519.3805	100.0
520.2977	2.4
520.3836	30.2
521.3896	3.9

Name: Lysine + UDCA
PrecursorMZ: 519.38075
RT: 5.6897
ExactMass: 520.38762276
Spectrum_type: 2
charge: -1
Formula: C30H52N2O5
SMILES: C[C@H](CCC(=O)N[C@@H](CCCCN)C(=O)O)[C@H]1CC[C@@H]2[C@@]1(CC[C@H]3[C@H]2[C@H](C[C@H]4[C@@]3(CC[C@H](C4)O)C)O)C
Method: HCD
Collision_energy: [28.333334]
Isolation_window: 4.0
Ion_mode: N
Num Peaks: 12
57.7074	2.4
57.7106	4.1
102.0551	4.1
128.0345	21.2
145.0976	6.6
146.0451	3.5
391.2855	14.0
476.3422	3.2
519.3812	100.0
520.3279	46.6
520.3875	23.3
521.3292	10.1

Name: Lysine + alphaMCA
PrecursorMZ: 535.37507
RT: 5.0893
ExactMass: 536.38253738
Spectrum_type: 2
charge: -1
Formula: C30H52N2O6
SMILES: C[C@H](CCC(=O)N[C@@H](CCCCN)C(=O)O)[C@H]1CC[C@@H]2[C@@]1(CC[C@H]3[C@H]2[C@@H]([C@H]([C@H]4[C@@]3(CC[C@H](C4)O)C)O)O)C
Method: HCD
Collision_energy: [28.333334]
Isolation_window: 4.0
Ion_mode: N
Num Peaks: 9
59.0130	2.1
59.4845	2.4
59.4879	4.3
128.0346	1.9
145.0973	5.9
535.2464	2.8
535.3754	100.0
536.3803	29.2
537.3862	3.7

Name: Lysophosphatidylserine
PrecursorMZ: 524.29842
RT: 8.27918
ExactMass: 525.30666911
Spectrum_type: 2
charge: -1
Formula: C24H48NO9P
SMILES: CCCCCCCCCCCCCCCCCC(=O)OC[C@H](COP(=O)(O)OC[C@@H](C(=O)O)N)O
Method: HCD
Collision_energy: [28.333334]
Isolation_window: 4.0
Ion_mode: N
Num Peaks: 14
78.9580	23.7
96.9591	5.6
152.9950	100.0
295.2627	4.7
437.2672	21.1
463.2524	12.1
523.3038	7.9
523.3643	14.5
524.2985	22.3
524.3632	4.8
525.3061	9.4
525.3105	7.9
525.3809	5.0
525.3886	7.6

Name: MEK inhibitor
PrecursorMZ: 425.19914
RT: 5.7357
Spectrum_type: 2
charge: -1
SMILES: CNC(=O)c1cc2c(cc1)c(C(=Nc1cccc(CN(C)C)c1)c1ccccc1)c(O)[nH]2
Method: HCD
Collision_energy: [28.333334]
Isolation_window: 4.0
Ion_mode: N
Num Peaks: 4
96.9588	8.3
425.1991	100.0
426.2025	24.6
427.2076	6.3

Name: Machilin D
PrecursorMZ: 343.15522
RT: 5.1993
ExactMass: 344.16237386
Spectrum_type: 2
charge: -1
Formula: C20H24O5
SMILES: C/C=C/C1=CC(=C(C=C1)O[C@@H](C)[C@H](C2=CC(=C(C=C2)O)OC)O)OC
Method: HCD
Collision_energy: [28.333334]
Isolation_window: 4.0
Ion_mode: N
Num Peaks: 3
149.0601	100.0
179.0707	39.5
343.1555	32.1

Name: Maesopsin
PrecursorMZ: 287.05616
RT: 4.7455
ExactMass: 288.0633881
Spectrum_type: 2
charge: -1
Formula: C15H12O6
SMILES: C1=CC(=CC=C1CC2(C(=O)C3=C(C=C(C=C3O2)O)O)O)O
Method: HCD
Collision_energy: [28.333334]
Isolation_window: 4.0
Ion_mode: N
Num Peaks: 8
151.0028	3.1
165.0186	100.0
166.0222	8.3
243.0679	4.7
287.0564	41.7
287.1285	52.5
288.0597	6.3
288.1314	10.3

Name: Malabaricano
PrecursorMZ: 343.15508
RT: 7.0425
ExactMass: 344.16237386
Spectrum_type: 2
charge: -1
Formula: C20H24O5
SMILES: CC1C(C(OC1C2=CC(=C(C=C2)O)OC)C3=CC(=C(C=C3)O)OC)C
Method: HCD
Collision_energy: [28.333334]
Isolation_window: 4.0
Ion_mode: N
Num Peaks: 14
123.0443	6.3
148.0523	4.4
163.0757	100.0
164.0791	9.7
299.1289	32.0
299.1624	1.4
300.1323	6.9
301.1808	1.4
310.1212	2.3
325.1443	11.2
326.1466	2.4
343.1551	38.4
344.1588	9.7
345.1697	3.1

Name: Malic acid
PrecursorMZ: 133.01349
RT: 0.9271
Spectrum_type: 2
charge: -1
SMILES: C(C(C(=O)O)O)C(=O)O
Method: HCD
Collision_energy: [28.333334]
Isolation_window: 4.0
Ion_mode: N
Num Peaks: 7
71.0129	48.8
72.9922	11.7
88.0394	3.0
89.0235	7.7
115.0028	100.0
116.0064	5.2
133.0134	30.4

Name: Malonic Acid
PrecursorMZ: 103.00228
RT: 0.915
ExactMass: 104.0109586
Spectrum_type: 2
charge: -1
Formula: C3H4O4
SMILES: C(C(=O)O)C(=O)O
Method: HCD
Collision_energy: [28.333334]
Isolation_window: 4.0
Ion_mode: N
Num Peaks: 3
59.0128	100.0
74.0236	23.0
103.0023	24.6

Name: Maltitol
PrecursorMZ: 343.12508
RT: 6.1945
ExactMass: 344.13186158
Spectrum_type: 2
charge: -1
Formula: C12H24O11
SMILES: C([C@@H]1[C@H]([C@@H]([C@H]([C@H](O1)O[C@H]([C@@H](CO)O)[C@@H]([C@H](CO)O)O)O)O)O)O
Method: HCD
Collision_energy: [28.333334]
Isolation_window: 4.0
Ion_mode: N
Num Peaks: 6
279.1090	88.3
280.1107	19.0
297.1194	100.0
298.1212	18.9
341.1771	12.6
343.2126	10.0

Name: Mannuronic Acid
PrecursorMZ: 193.03492
RT: 1.0816
ExactMass: 194.04265265
Spectrum_type: 2
charge: -1
Formula: C6H10O7
SMILES: C(=O)[C@H]([C@H]([C@@H]([C@@H](C(=O)O)O)O)O)O
Method: HCD
Collision_energy: [28.333334]
Isolation_window: 4.0
Ion_mode: N
Num Peaks: 3
72.9923	99.3
101.0235	47.2
103.0028	100.0

Name: Marein
PrecursorMZ: 449.10948
RT: 3.8228
ExactMass: 450.11621151
Spectrum_type: 2
charge: -1
Formula: C21H22O11
SMILES: C1=CC(=C(C=C1/C=C/C(=O)C2=C(C(=C(C=C2)O[C@H]3[C@@H]([C@H]([C@@H]([C@H](O3)CO)O)O)O)O)O)O)O
Method: HCD
Collision_energy: [28.333334]
Isolation_window: 4.0
Ion_mode: N
Num Peaks: 4
60.9923	6.8
88.9871	100.0
359.1139	7.2
447.0874	6.8

Name: Maresin 1
PrecursorMZ: 359.22307
RT: 8.3026
ExactMass: 360.2300595
Spectrum_type: 2
charge: -1
Formula: C22H32O4
SMILES: CC/C=C\C/C=C\C[C@@H](/C=C\C=C\C=C\[C@@H](C/C=C\CCC(=O)O)O)O
Method: HCD
Collision_energy: [28.333334]
Isolation_window: 4.0
Ion_mode: N
Num Peaks: 7
205.1230	11.7
297.2220	36.9
357.2067	22.0
358.2089	17.2
359.1546	18.0
359.2227	100.0
360.2244	29.9

Name: Medroxyprogesterone
PrecursorMZ: 343.22808
RT: 8.464
ExactMass: 344.23514488
Spectrum_type: 2
charge: -1
Formula: C22H32O3
SMILES: C[C@H]1C[C@@H]2[C@H](CC[C@]3([C@H]2CC[C@@]3(C(=O)C)O)C)[C@@]4(C1=CC(=O)CC4)C
Method: HCD
Collision_energy: [28.333334]
Isolation_window: 4.0
Ion_mode: N
Num Peaks: 6
286.1940	100.0
301.2175	75.9
342.2093	13.6
343.2286	60.4
344.2319	14.9
345.2073	85.1

Name: Melilotigenin
PrecursorMZ: 485.327
RT: 7.2484
ExactMass: 486.33452456
Spectrum_type: 2
charge: -1
Formula: C30H46O5
SMILES: CC12CCC(C(C1CCC3(C2CC=C4C3(CCC5(C4CC(CC5=O)(C)C(=O)O)C)C)C)(C)CO)O
Method: HCD
Collision_energy: [28.333334]
Isolation_window: 4.0
Ion_mode: N
Num Peaks: 6
255.2328	11.2
256.2365	10.8
437.3063	12.3
441.3373	7.6
485.3276	100.0
486.3317	28.5

Name: Melilotoside
PrecursorMZ: 325.09199
RT: 3.5314
ExactMass: 326.10016753
Spectrum_type: 2
charge: -1
Formula: C15H18O8
SMILES: C1=CC=C(C(=C1)/C=C/C(=O)O)O[C@H]2[C@@H]([C@H]([C@@H]([C@H](O2)CO)O)O)O
Method: HCD
Collision_energy: [28.333334]
Isolation_window: 4.0
Ion_mode: N
Num Peaks: 35
71.0128	4.2
85.0283	1.6
101.0233	2.9
109.0159	2.0
109.0393	1.7
113.0232	2.3
115.0865	1.9
116.0705	3.5
119.0491	100.0
120.0524	8.5
128.0340	1.2
129.1023	1.7
130.0861	4.2
136.0757	1.1
151.0390	1.4
153.0660	1.9
161.0445	3.5
163.0390	7.1
166.0866	1.1
179.0818	3.5
193.0974	2.8
196.0603	3.1
210.0766	3.5
211.1079	1.0
264.1714	1.2
267.0989	1.1
280.1305	1.5
282.1814	1.1
324.1558	4.8
325.0936	16.5
325.1380	2.0
326.1006	2.5
326.1359	1.1
326.1713	15.2
327.1804	1.1

Name: Menbutone
PrecursorMZ: 257.0819
RT: 5.18145
ExactMass: 258.08920892
Spectrum_type: 2
charge: -1
Formula: C15H14O4
SMILES: COC1=CC=C(C2=CC=CC=C21)C(=O)CCC(=O)O
Method: HCD
Collision_energy: [28.333334]
Isolation_window: 4.0
Ion_mode: N
Num Peaks: 14
93.0336	27.0
94.0369	1.7
107.0493	9.2
195.0809	0.8
197.0605	2.7
210.9493	1.6
211.0762	2.1
213.0916	100.0
214.0950	14.8
228.9601	1.5
229.1446	1.2
257.0819	15.7
258.0851	2.5
258.1134	0.8

Name: Mer NF5003B
PrecursorMZ: 403.21284
RT: 5.5921
ExactMass: 404.21988874
Spectrum_type: 2
charge: -1
Formula: C23H32O6
SMILES: CC1CCC2C(C(C(CC2(C13CC4=C(C=C(C(=C4O3)C=O)CO)O)C)O)O)(C)C
Method: HCD
Collision_energy: [28.333334]
Isolation_window: 4.0
Ion_mode: N
Num Peaks: 18
122.0364	20.2
123.0445	13.2
124.0475	2.1
357.2097	1.5
357.2638	3.0
359.2228	100.0
360.2262	24.2
361.2301	2.6
375.2756	16.1
376.2786	3.5
401.1974	3.1
402.2012	2.5
403.2124	65.6
403.2656	9.5
404.2159	16.9
404.2701	2.3
405.2217	2.5
405.2654	4.1

Name: Mestranol
PrecursorMZ: 309.1742
RT: 5.7299
ExactMass: 310.193280068
Spectrum_type: 2
charge: -1
Formula: C21H26O2
SMILES: C[C@]12CC[C@H]3[C@H]([C@@H]1CC[C@]2(C#C)O)CCC4=C3C=CC(=C4)OC
Method: HCD
Collision_energy: [28.333334]
Isolation_window: 4.0
Ion_mode: N
Num Peaks: 4
96.9592	25.2
309.1744	100.0
310.1775	16.4
311.1688	26.3

Name: Methionine + CDCA
PrecursorMZ: 522.32573
RT: 7.5758
ExactMass: 523.33314484
Spectrum_type: 2
charge: -1
Formula: C29H49NO5S
SMILES: C[C@H](CCC(=O)N[C@@H](CCSC)C(=O)O)[C@H]1CC[C@@H]2[C@@]1(CC[C@H]3[C@H]2[C@@H](C[C@H]4[C@@]3(CC[C@H](C4)O)C)O)C
Method: HCD
Collision_energy: [28.333334]
Isolation_window: 4.0
Ion_mode: N
Num Peaks: 19
58.0346	2.3
58.0379	4.0
79.9564	30.8
96.9592	6.4
124.0063	2.5
149.9860	2.4
165.0093	5.0
196.9989	6.1
233.0725	12.0
265.0627	3.2
492.3155	10.1
493.3181	3.5
505.3541	2.1
520.2789	4.2
521.2793	10.7
521.3400	21.7
522.3276	100.0
523.3306	28.7
524.3050	7.0

Name: Methionine + Cholic Acid
PrecursorMZ: 538.32054
RT: 6.1941
ExactMass: 539.32805946
Spectrum_type: 2
charge: -1
Formula: C29H49NO6S
SMILES: C[C@H](CCC(=O)N[C@@H](CCSC)C(=O)O)[C@H]1CC[C@@H]2[C@@]1([C@H](C[C@H]3[C@H]2[C@@H](C[C@H]4[C@@]3(CC[C@H](C4)O)C)O)O)C
Method: HCD
Collision_energy: [28.333334]
Isolation_window: 4.0
Ion_mode: N
Num Peaks: 21
59.8117	1.9
59.8151	4.5
59.9265	1.3
74.0238	1.4
78.9581	1.4
79.9565	1.3
96.9591	1.3
100.0394	2.3
128.0343	1.7
152.9950	1.6
164.0378	17.7
355.2656	1.5
430.3327	21.2
431.3364	5.5
474.3222	4.0
523.2966	3.1
537.3329	11.7
537.3430	1.3
538.3207	100.0
539.3232	29.5
540.3229	6.0

Name: Methyl (1R,2R,3S,3aR,8bS)-2,3,3a,8b-tetrahydro-1,6,8b-trihydroxy-8-methoxy-3a-(4-methoxyphenyl)-3-phenyl-1H-cyclopenta(b)benzofuran-2-carboxylate
PrecursorMZ: 477.15517
RT: 4.4336
ExactMass: 478.16276778
Spectrum_type: 2
charge: -1
Formula: C27H26O8
SMILES: COC1=CC=C(C=C1)[C@]23[C@@H]([C@H]([C@H]([C@]2(C4=C(O3)C=C(C=C4OC)O)O)O)C(=O)OC)C5=CC=CC=C5
Method: HCD
Collision_energy: [28.333334]
Isolation_window: 4.0
Ion_mode: N
Num Peaks: 7
242.0572	11.1
272.0679	100.0
273.0717	15.7
429.1327	8.1
447.1430	14.0
477.1536	52.7
478.1568	14.0

Name: Methyl 2-(4,5-dihydroxy-6-methoxy-3,6-dimethyl-2-oxocyclohex-3-en-1-yl)oxy-4-hydroxy-3,6-dimethylbenzoate
PrecursorMZ: 379.14104
RT: 3.2196
ExactMass: 380.14711772
Spectrum_type: 2
charge: -1
Formula: C19H24O8
SMILES: CC1=CC(=C(C(=C1C(=O)OC)OC2C(=O)C(=C(C(C2(C)OC)O)O)C)C)O
Method: HCD
Collision_energy: [28.333334]
Isolation_window: 4.0
Ion_mode: N
Num Peaks: 31
59.0130	1.5
73.0285	2.3
87.0442	1.7
113.0600	1.8
217.1226	1.3
229.1234	1.7
231.1028	1.4
233.1547	1.6
242.0790	1.5
243.1389	2.7
245.1554	2.2
255.1136	1.5
255.1397	3.3
273.1496	5.5
287.1297	1.3
302.2128	3.0
305.1401	2.5
317.1395	4.6
335.1508	4.1
346.2028	2.2
363.1826	2.2
377.1498	2.2
377.2183	7.9
378.1214	1.2
378.1570	2.3
378.2284	15.1
379.1402	100.0
379.2351	4.4
380.1429	20.1
381.1469	2.7
381.1931	5.4

Name: Methyl 2-methyl-5-oxo-4-(3,4,5-trimethoxyphenyl)-1,4,5,6,7,8-hexahydro-3-quinolinecarboxylate
PrecursorMZ: 386.16145
RT: 4.9744
ExactMass: 387.16818752
Spectrum_type: 2
charge: -1
Formula: C21H25NO6
SMILES: CC1=C(C(C2=C(N1)CCCC2=O)C3=CC(=C(C(=C3)OC)OC)OC)C(=O)OC
Method: HCD
Collision_energy: [28.333334]
Isolation_window: 4.0
Ion_mode: N
Num Peaks: 7
156.0662	32.0
199.0756	24.4
229.0869	29.2
268.1710	39.3
312.1610	68.4
386.1618	100.0
387.1631	26.7

Name: Methyl 3,4-Dihydroxybenzoate
PrecursorMZ: 167.03438
RT: 3.5725599999999997
ExactMass: 168.04225873
Spectrum_type: 2
charge: -1
Formula: C8H8O4
SMILES: COC(=O)C1=CC(=C(C=C1)O)O
Method: HCD
Collision_energy: [28.333334]
Isolation_window: 4.0
Ion_mode: N
Num Peaks: 9
111.0078	1.9
123.0081	1.2
124.0156	1.9
135.0443	100.0
136.0477	8.2
152.0107	12.5
167.0342	67.0
167.0705	6.6
168.0379	5.7

Name: Methyl 4-((3,4,5-trimethoxybenzoyl)amino)benzoate
PrecursorMZ: 344.11402
RT: 4.60835
ExactMass: 345.12123733
Spectrum_type: 2
charge: -1
Formula: C18H19NO6
SMILES: COC1=CC(=CC(=C1OC)OC)C(=O)NC2=CC=C(C=C2)C(=O)OC
Method: HCD
Collision_energy: [28.333334]
Isolation_window: 4.0
Ion_mode: N
Num Peaks: 18
59.0129	1.7
107.0367	1.5
108.0208	3.0
108.0446	8.2
134.0240	2.2
135.0443	18.4
136.0478	1.6
152.0345	15.5
191.0708	17.4
192.0743	2.0
300.1241	88.6
301.1276	16.3
343.2127	13.2
344.1139	100.0
344.2156	1.9
345.1147	19.1
345.2281	10.9
346.1185	1.6

Name: Methyl 4-(1,3-dihydroxy-1-(4-hydroxy-3-methoxyphenyl)propan-2-yl)oxy-3-methoxybenzoate
PrecursorMZ: 377.12437
RT: 3.4679
ExactMass: 378.13146766
Spectrum_type: 2
charge: -1
Formula: C19H22O8
SMILES: COC1=C(C=CC(=C1)C(C(CO)OC2=C(C=C(C=C2)C(=O)OC)OC)O)O
Method: HCD
Collision_energy: [28.333334]
Isolation_window: 4.0
Ion_mode: N
Num Peaks: 22
123.0443	9.0
137.0234	4.9
150.0314	23.1
151.0393	100.0
152.0428	8.0
164.0711	4.7
181.0500	25.7
195.0657	9.9
242.1058	4.8
257.1294	46.5
258.1325	8.2
287.1656	8.1
311.0918	8.0
329.1029	88.2
330.1063	16.6
331.1546	4.2
345.1075	10.4
375.1452	7.9
376.1479	7.6
377.1243	83.4
377.2166	9.6
378.1253	19.8

Name: Methyl 6-(acetyloxy)-1,7,11-trihydroxyabieta-8(14),9(11),12-trien-18-oate
PrecursorMZ: 419.2078
RT: 7.2353
ExactMass: 420.21480336
Spectrum_type: 2
charge: -1
Formula: C23H32O7
SMILES: CC(C)C1=CC2=C(C(=C1)O)C3(C(CCC(C3C(C2O)OC(=O)C)(C)C(=O)OC)O)C
Method: HCD
Collision_energy: [28.333334]
Isolation_window: 4.0
Ion_mode: N
Num Peaks: 14
235.1338	19.6
265.1444	36.5
293.1757	14.8
311.2020	11.4
329.2124	19.2
373.2021	46.8
374.2050	12.0
391.2129	12.3
418.2633	21.0
419.2073	100.0
419.2498	40.2
420.2033	27.8
420.2538	8.2
421.2075	9.6

Name: Methyl Haematommate
PrecursorMZ: 209.04527
RT: 4.0616
ExactMass: 210.05282342
Spectrum_type: 2
charge: -1
Formula: C10H10O5
SMILES: CC1=CC(=C(C(=C1C(=O)OC)O)C=O)O
Method: HCD
Collision_energy: [28.333334]
Isolation_window: 4.0
Ion_mode: N
Num Peaks: 15
105.0338	64.4
106.0372	4.4
109.0288	19.6
121.0288	2.6
133.0289	43.6
134.0322	3.8
137.0238	34.6
137.0603	2.7
148.0160	8.5
149.0239	31.1
150.0273	2.5
177.0189	100.0
178.0225	9.6
209.0455	30.8
210.0506	5.0

Name: Methyl Salicylate
PrecursorMZ: 151.03935
RT: 9.262
ExactMass: 152.047344113
Spectrum_type: 2
charge: -1
Formula: C8H8O3
SMILES: COC(=O)C1=CC=CC=C1O
Method: HCD
Collision_energy: [28.333334]
Isolation_window: 4.0
Ion_mode: N
Num Peaks: 3
123.0443	100.0
151.0393	91.8
152.0435	11.7

Name: Methyl deoxycholate
PrecursorMZ: 465.3216
RT: 5.6598
ExactMass: 406.30830982
Spectrum_type: 2
charge: -1
Formula: C25H42O4
SMILES: C[C@H](CCC(=O)OC)[C@H]1CC[C@@H]2[C@@]1([C@H](C[C@H]3[C@H]2CC[C@H]4[C@@]3(CC[C@H](C4)O)C)O)C
Method: HCD
Collision_energy: [28.333334]
Isolation_window: 4.0
Ion_mode: N
Num Peaks: 25
51.7037	4.6
59.0129	2.3
71.0129	21.1
73.0285	22.8
85.0648	9.1
115.0755	12.4
305.2115	2.6
311.2018	3.4
313.2170	2.4
315.1967	3.8
327.1965	6.4
329.2114	4.5
331.2274	25.0
332.2311	5.3
343.2273	13.1
344.2302	3.0
345.2065	9.3
346.2109	2.2
347.2224	3.5
361.2381	2.2
375.2172	3.5
447.3111	6.2
465.3219	100.0
466.3254	27.8
467.3288	3.6

Name: Methylprednisolone
PrecursorMZ: 419.20779
RT: 4.8666
ExactMass: 374.20932405
Spectrum_type: 2
charge: -1
Formula: C22H30O5
SMILES: C[C@H]1C[C@H]2[C@@H]3CC[C@@]([C@]3(C[C@@H]([C@@H]2[C@@]4(C1=CC(=O)C=C4)C)O)C)(C(=O)CO)O
Method: HCD
Collision_energy: [28.333334]
Isolation_window: 4.0
Ion_mode: N
Num Peaks: 6
123.0443	100.0
124.0478	6.9
375.2179	35.5
376.2213	7.5
419.2078	59.9
420.2100	14.0

Name: Metoprolol Acid
PrecursorMZ: 266.13977
RT: 6.0726
ExactMass: 267.14705815
Spectrum_type: 2
charge: -1
Formula: C14H21NO4
SMILES: CC(C)NCC(COC1=CC=C(C=C1)CC(=O)O)O
Method: HCD
Collision_energy: [28.333334]
Isolation_window: 4.0
Ion_mode: N
Num Peaks: 3
199.1338	15.7
222.1497	100.0
223.1532	14.1

Name: Mk-3207
PrecursorMZ: 556.21675
RT: 4.9249
ExactMass: 557.22384613
Spectrum_type: 2
charge: -1
Formula: C31H29F2N5O3
SMILES: C1CCC2(C1)C(=O)N([C@@H](CN2)C3=CC(=CC(=C3)F)F)CC(=O)NC4=CC5=C(C[C@@]6(C5)C7=C(NC6=O)N=CC=C7)C=C4
Method: HCD
Collision_energy: [28.333334]
Isolation_window: 4.0
Ion_mode: N
Num Peaks: 37
59.0128	2.3
61.8000	1.9
61.8036	4.8
71.0127	8.1
72.9919	3.3
75.0075	12.9
85.0282	11.0
87.0075	3.9
89.0231	3.9
95.0125	1.7
99.0075	2.0
113.0231	8.6
115.0023	3.2
133.0129	3.9
157.0129	3.7
173.0444	3.0
175.0237	2.6
211.0625	2.1
212.0706	3.9
224.0707	8.7
262.0862	4.1
292.1333	50.7
293.1365	10.0
304.1332	2.0
316.1327	1.9
334.1439	4.1
362.1742	1.7
380.1856	18.7
381.1879	4.0
387.0940	2.0
404.1869	1.8
422.1949	4.0
538.2029	1.7
555.3474	1.9
556.2173	100.0
557.2214	28.9
558.2211	4.2

Name: Mono(2-ethylhexyl) adipate
PrecursorMZ: 257.17581
RT: 7.5567
ExactMass: 258.18310931
Spectrum_type: 2
charge: -1
Formula: C14H26O4
SMILES: CCCCC(CC)COC(=O)CCCCC(=O)O
Method: HCD
Collision_energy: [28.333334]
Isolation_window: 4.0
Ion_mode: N
Num Peaks: 9
81.0336	8.7
83.0493	100.0
84.0526	5.3
127.0392	7.3
127.1119	1.3
145.0498	5.3
255.1962	1.9
257.1756	7.6
258.1789	1.2

Name: Mono(2-ethylhexyl) terephthalate
PrecursorMZ: 277.14352
RT: 8.3783
ExactMass: 278.15180918
Spectrum_type: 2
charge: -1
Formula: C16H22O4
SMILES: CCCCC(CC)COC(=O)C1=CC=C(C=C1)C(=O)O
Method: HCD
Collision_energy: [28.333334]
Isolation_window: 4.0
Ion_mode: N
Num Peaks: 5
69.0215	3.1
121.0282	100.0
122.0315	8.1
277.1435	35.4
278.1472	7.1

Name: Mono-5-carboxy-2-ethylpentyl Adipate
PrecursorMZ: 287.15025
RT: 5.4323
ExactMass: 288.15728848
Spectrum_type: 2
charge: -1
Formula: C14H24O6
SMILES: CCC(CCCC(=O)O)COC(=O)CCCCC(=O)O
Method: HCD
Collision_energy: [28.333334]
Isolation_window: 4.0
Ion_mode: N
Num Peaks: 5
83.0494	81.2
145.0501	30.8
159.1021	47.7
287.1504	100.0
288.1526	14.7

Name: Monobutyl phthalate
PrecursorMZ: 221.08124
RT: 6.11955
ExactMass: 222.08920892
Spectrum_type: 2
charge: -1
Formula: C12H14O4
SMILES: CCCCOC(=O)C1=CC=CC=C1C(=O)O
Method: HCD
Collision_energy: [28.333334]
Isolation_window: 4.0
Ion_mode: N
Num Peaks: 4
69.0336	39.4
71.0492	100.0
121.0284	46.9
221.0814	47.2

Name: Monoisobutyl phthalate
PrecursorMZ: 221.08157
RT: 5.9069
ExactMass: 222.08920892
Spectrum_type: 2
charge: -1
Formula: C12H14O4
SMILES: CC(C)COC(=O)C1=CC=CC=C1C(=O)O
Method: HCD
Collision_energy: [28.333334]
Isolation_window: 4.0
Ion_mode: N
Num Peaks: 6
69.0336	48.9
71.0492	100.0
121.0286	62.6
134.0364	67.9
135.9701	79.8
221.0812	76.0

Name: Mops
PrecursorMZ: 208.06465
RT: 1.6596
ExactMass: 209.07217913
Spectrum_type: 2
charge: -1
Formula: C7H15NO4S
SMILES: C1COCCN1CCCS(=O)(=O)O
Method: HCD
Collision_energy: [28.333334]
Isolation_window: 4.0
Ion_mode: N
Num Peaks: 11
79.9562	6.4
80.9642	3.0
106.9800	4.3
135.0447	2.6
150.0554	3.4
166.0498	5.7
167.0821	4.3
207.0669	3.4
208.0644	100.0
209.0454	9.5
209.0673	8.2

Name: Moracin M
PrecursorMZ: 241.04993
RT: 5.2239
ExactMass: 242.0579088
Spectrum_type: 2
charge: -1
Formula: C14H10O4
SMILES: C1=CC2=C(C=C1O)OC(=C2)C3=CC(=CC(=C3)O)O
Method: HCD
Collision_energy: [28.333334]
Isolation_window: 4.0
Ion_mode: N
Num Peaks: 3
197.0599	100.0
241.0501	37.9
242.1759	15.4

Name: Mycophenolic Acid
PrecursorMZ: 319.1184
RT: 5.423
ExactMass: 320.12598835
Spectrum_type: 2
charge: -1
Formula: C17H20O6
SMILES: CC1=C2COC(=O)C2=C(C(=C1OC)C/C=C(\C)/CCC(=O)O)O
Method: HCD
Collision_energy: [28.333334]
Isolation_window: 4.0
Ion_mode: N
Num Peaks: 4
231.1385	28.1
275.1286	22.2
319.1184	100.0
320.1215	22.0

Name: Mycosporine
PrecursorMZ: 260.11303
RT: 1.8489
ExactMass: 261.12123733
Spectrum_type: 2
charge: -1
Formula: C11H19NO6
SMILES: COC1=C(C[C@](CC1=O)(CO)O)NC(CO)CO
Method: HCD
Collision_energy: [28.333334]
Isolation_window: 4.0
Ion_mode: N
Num Peaks: 91
59.0128	11.8
71.0128	42.8
72.9920	8.2
73.0283	3.9
74.0235	6.7
75.0076	5.0
83.0491	4.2
84.0441	3.4
85.0282	4.9
87.0076	15.7
88.0392	7.9
88.9868	3.9
89.0232	16.7
97.0280	2.6
98.0233	3.3
98.0599	13.3
99.0074	3.7
99.0440	9.3
100.0392	6.9
101.0230	5.3
109.0644	4.3
110.0233	5.3
111.0437	4.8
112.0393	4.6
113.0230	5.5
114.0548	11.2
115.0021	4.3
116.0338	4.5
116.0704	17.2
124.0390	4.2
125.0232	14.2
126.0548	5.3
127.0388	5.9
127.0751	4.4
128.0342	14.4
128.0704	5.3
129.0183	4.3
130.0862	49.2
131.0892	2.5
132.0442	3.4
135.0436	2.7
139.0392	5.4
140.0698	4.6
142.0495	6.1
142.0862	7.2
143.0812	5.3
144.0651	4.5
145.0129	6.7
153.0547	6.5
156.0652	5.1
158.0813	5.9
162.0547	100.0
163.0580	8.3
169.0133	8.8
170.0812	53.1
171.1491	5.3
172.0968	8.9
180.1019	3.0
181.0489	4.2
182.0812	4.8
184.0599	3.5
186.0762	4.1
187.1078	3.9
188.0917	24.3
197.1287	11.2
198.1121	7.4
200.0916	18.8
206.0814	7.0
215.0011	6.2
215.0545	4.0
217.9649	3.6
224.0916	5.7
235.9751	3.5
241.0341	4.2
241.1186	22.0
243.0494	2.5
258.0966	4.3
258.9898	6.9
259.0450	20.5
259.0823	15.9
259.1290	21.8
260.0910	62.9
260.1135	41.7
261.0065	38.2
261.0611	12.1
261.0893	7.4
261.0934	14.5
261.1151	4.0
261.1189	4.4
261.9553	7.0
262.0920	9.9

Name: Myriocin-12-en
PrecursorMZ: 398.2546
RT: 8.0135
ExactMass: 399.2620879
Spectrum_type: 2
charge: -1
Formula: C21H37NO6
SMILES: CCCCCCC(=O)/C=C/CCCC/C=C/C[C@H]([C@@H]([C@@](CO)(C(=O)O)N)O)O
Method: HCD
Collision_energy: [28.333334]
Isolation_window: 4.0
Ion_mode: N
Num Peaks: 7
71.0129	6.4
96.9591	17.0
116.0343	5.8
352.2487	6.4
397.2264	100.0
398.2299	20.5
399.2269	6.8

Name: Myristoylcarnitine
PrecursorMZ: 370.29632
RT: 9.3681
ExactMass: 371.30355879
Spectrum_type: 2
charge: -1
Formula: C21H41NO4
SMILES: CCCCCCCCCCCCCC(=O)OC(CC(=O)[O-])C[N+](C)(C)C
Method: HCD
Collision_energy: [28.333334]
Isolation_window: 4.0
Ion_mode: N
Num Peaks: 16
60.9922	2.6
69.0784	2.7
74.0238	54.4
104.0345	16.7
265.2536	9.5
294.2804	5.9
296.2960	3.9
308.2958	23.1
309.2992	4.7
322.2751	20.2
323.2923	7.4
340.2859	33.3
341.2889	7.6
369.3014	37.5
370.2970	100.0
371.3008	24.7

Name: Myristyl sulfate
PrecursorMZ: 293.17939
RT: 7.7182
ExactMass: 294.18648061
Spectrum_type: 2
charge: -1
Formula: C14H30O4S
SMILES: CCCCCCCCCCCCCCOS(=O)(=O)O
Method: HCD
Collision_energy: [28.333334]
Isolation_window: 4.0
Ion_mode: N
Num Peaks: 4
96.9591	31.6
293.1791	100.0
294.1824	15.5
295.1760	2.7

Name: N'-(1-(4-hexylphenyl)ethylidene)-1,4,5,6-tetrahydrocyclopenta(c)pyrazole-3-carbohydrazide
PrecursorMZ: 351.21952
RT: 8.7648
ExactMass: 352.22631153
Spectrum_type: 2
charge: -1
Formula: C21H28N4O
SMILES: CCCCCCC1=CC=C(C=C1)/C(=N/NC(=O)C2=NNC3=C2CCC3)/C
Method: HCD
Collision_energy: [28.333334]
Isolation_window: 4.0
Ion_mode: N
Num Peaks: 4
96.9587	15.5
351.2197	100.0
352.2227	19.7
353.2149	42.8

Name: N,N'-1,2,5-oxadiazole-3,4-diylbis(2-(3,5-dimethylphenoxy)acetamide)
PrecursorMZ: 423.16754
RT: 8.6306
ExactMass: 424.17466988
Spectrum_type: 2
charge: -1
Formula: C22H24N4O5
SMILES: CC1=CC(=CC(=C1)OCC(=O)NC2=NON=C2NC(=O)COC3=CC(=CC(=C3)C)C)C
Method: HCD
Collision_energy: [28.333334]
Isolation_window: 4.0
Ion_mode: N
Num Peaks: 17
58.9953	10.1
64.9517	21.3
68.9982	3.7
85.0109	6.4
152.9951	4.8
257.1912	4.7
285.1874	3.1
289.1634	6.8
295.2070	4.7
327.1788	4.9
371.1694	3.6
421.2606	3.9
422.2365	3.0
423.1680	100.0
424.1707	25.7
425.1667	9.2
425.3760	3.8

Name: N,N'-bis(4-hydroxy-3-methoxycinnamoyl)-1,4-butanediamine
PrecursorMZ: 439.18761
RT: 4.8409125
ExactMass: 440.19473662
Spectrum_type: 2
charge: -1
Formula: C24H28N2O6
SMILES: COC1=C(C=CC(=C1)C=CC(=O)NCCCCNC(=O)C=CC2=CC(=C(C=C2)O)OC)O
Method: HCD
Collision_energy: [28.333334]
Isolation_window: 4.0
Ion_mode: N
Num Peaks: 8
134.0365	55.8
135.0447	24.4
149.0600	100.0
274.0959	31.6
289.1191	64.8
290.1223	9.6
439.1877	81.4
440.1908	22.8

Name: N-((1-(2-hydroxyethoxy)cyclopentyl)methyl)-6-methoxy-1H-indole-2-carboxamide
PrecursorMZ: 377.1718
RT: 4.82512
ExactMass: 332.17360725
Spectrum_type: 2
charge: -1
Formula: C18H24N2O4
SMILES: COC1=CC2=C(C=C1)C=C(N2)C(=O)NCC3(CCCC3)OCCO
Method: HCD
Collision_energy: [28.333334]
Isolation_window: 4.0
Ion_mode: N
Num Peaks: 12
59.0129	5.2
269.1292	93.2
270.1327	17.9
301.1551	6.0
313.1191	12.1
345.1453	51.7
346.1492	9.4
375.2382	3.5
375.2754	100.0
376.2789	32.4
377.1661	13.1
377.2808	6.0

Name: N-((2S)-1-((2-(1H-indol-3-yl)ethyl)amino)-1-oxopropan-2-yl)-4,7-dimethoxy-1-methyl-1H-indole-2-carboxamide
PrecursorMZ: 447.20413
RT: 3.7595
ExactMass: 448.21105539
Spectrum_type: 2
charge: -1
Formula: C25H28N4O4
SMILES: C[C@@H](C(=O)NCCC1=CNC2=CC=CC=C21)NC(=O)C3=CC4=C(C=CC(=C4N3C)OC)OC
Method: HCD
Collision_energy: [28.333334]
Isolation_window: 4.0
Ion_mode: N
Num Peaks: 4
96.9588	26.7
447.2050	100.0
448.2079	24.0
449.2054	6.2

Name: N-((2S)-3-cyclohexyl-1-(((2S,3S)-3-methyl-1-oxo-1-spiro(indene-1,4'-piperidine)-1'-ylpentan-2-yl)amino)-1-oxopropan-2-yl)-1,2-oxazole-5-carboxamide
PrecursorMZ: 591.31915
RT: 6.1854
ExactMass: 546.32060583
Spectrum_type: 2
charge: -1
Formula: C32H42N4O4
SMILES: CC[C@H](C)[C@@H](C(=O)N1CCC2(CC1)C=CC3=CC=CC=C23)NC(=O)[C@H](CC4CCCCC4)NC(=O)C5=CC=NO5
Method: HCD
Collision_energy: [28.333334]
Isolation_window: 4.0
Ion_mode: N
Num Peaks: 16
61.9874	48.5
94.0653	9.8
120.0810	6.7
243.1501	44.6
244.1535	6.7
245.1659	37.3
271.1452	68.2
272.1485	10.0
289.1558	50.7
290.1586	8.4
315.1350	5.6
559.2929	32.9
560.2953	12.4
591.3196	100.0
592.3228	33.5
593.3234	5.0

Name: N-((4-(3-(1H-indol-3-yl)propanoyl)piperazin-1-yl)carbonyl)-beta-alanine
PrecursorMZ: 371.17268
RT: 3.874
ExactMass: 372.17975526
Spectrum_type: 2
charge: -1
Formula: C19H24N4O4
SMILES: C1CN(CCN1C(=O)CCC2=CNC3=CC=CC=C32)C(=O)NCCC(=O)O
Method: HCD
Collision_energy: [28.333334]
Isolation_window: 4.0
Ion_mode: N
Num Peaks: 6
61.9874	3.3
127.0504	100.0
128.0541	4.8
371.1725	39.2
372.1796	7.6
373.1896	2.3

Name: N-((4-methoxyphenoxy)acetyl)tryptophan
PrecursorMZ: 367.1303
RT: 4.68204
ExactMass: 368.13722174
Spectrum_type: 2
charge: -1
Formula: C20H20N2O5
SMILES: COC1=CC=C(C=C1)OCC(=O)NC(CC2=CNC3=CC=CC=C32)C(=O)O
Method: HCD
Collision_energy: [28.333334]
Isolation_window: 4.0
Ion_mode: N
Num Peaks: 33
58.0290	1.9
69.3920	1.8
73.0287	2.3
74.0239	18.3
87.0442	1.7
109.0288	2.0
116.0346	10.0
116.0498	6.8
121.0288	8.6
130.0866	2.5
159.0924	2.2
163.0396	40.3
164.0432	3.2
176.0713	6.6
194.0815	2.5
201.1030	3.3
203.0824	38.8
204.0855	4.8
220.0616	5.2
238.0721	23.4
239.0753	2.7
245.0932	4.2
322.1068	3.9
323.1404	5.7
365.1982	11.0
366.0949	5.4
366.1975	5.4
366.2026	3.5
367.1307	100.0
367.2071	12.6
368.1342	22.4
368.2143	3.5
369.2297	13.7

Name: N-((6,7-dimethoxy-3,4-dihydroisoquinolin-2(1H)-yl)carbonyl)-L-leucine
PrecursorMZ: 349.17706
RT: 5.0624
ExactMass: 350.18417193
Spectrum_type: 2
charge: -1
Formula: C18H26N2O5
SMILES: CC(C)C[C@@H](C(=O)O)NC(=O)N1CCC2=CC(=C(C=C2C1)OC)OC
Method: HCD
Collision_energy: [28.333334]
Isolation_window: 4.0
Ion_mode: N
Num Peaks: 23
74.0238	32.7
116.0496	8.2
134.0602	11.2
148.0760	75.5
149.0795	6.1
162.0553	10.5
180.0659	44.0
192.0661	7.8
203.0822	49.4
222.0765	15.7
273.1609	100.0
274.1644	17.2
315.1356	9.1
316.1384	8.3
317.1501	32.2
318.1543	6.1
331.1552	7.1
347.1908	14.9
348.1934	6.9
349.1732	84.6
350.1770	18.9
351.1338	68.3
351.1798	26.2

Name: N-((7-hydroxy-4-methyl-2-oxo-2H-chromen-3-yl)acetyl)-D-tryptophan
PrecursorMZ: 419.12553
RT: 4.9665
ExactMass: 420.13213636
Spectrum_type: 2
charge: -1
Formula: C23H20N2O6
SMILES: CC1=C(C(=O)OC2=C1C=CC(=C2)O)CC(=O)N[C@H](CC3=CNC4=CC=CC=C43)C(=O)O
Method: HCD
Collision_energy: [28.333334]
Isolation_window: 4.0
Ion_mode: N
Num Peaks: 10
98.0238	39.9
109.0286	14.8
123.0444	9.1
210.0554	13.8
278.0822	29.7
320.0930	51.9
321.0963	12.6
377.1138	22.5
419.1246	100.0
420.1276	27.3

Name: N-((E)-1,3-dihydroxyoctadec-4-en-2-yl)dodecanamide
PrecursorMZ: 540.46134
RT: 11.0766
ExactMass: 481.44949474
Spectrum_type: 2
charge: -1
Formula: C30H59NO3
SMILES: CCCCCCCCCCCCC/C=C/C(C(CO)NC(=O)CCCCCCCCCCC)O
Method: HCD
Collision_energy: [28.333334]
Isolation_window: 4.0
Ion_mode: N
Num Peaks: 27
98.0361	8.5
209.1900	9.0
223.2060	7.9
240.2323	18.9
241.2156	34.1
242.2189	12.2
265.2163	24.4
266.2198	10.6
266.2479	27.7
282.2430	29.5
283.2466	10.7
284.2583	50.4
285.2618	19.5
296.2584	34.2
297.2613	17.4
494.4561	100.0
495.4563	70.7
496.4587	21.3
497.4703	11.9
538.4847	80.7
539.4393	84.2
539.4462	55.7
539.4890	59.2
540.4468	37.7
540.4534	31.9
541.4584	31.9
542.4629	10.0

Name: N-(1,3,4-trihydroxyoctadecan-2-yl)hexadecanamide
PrecursorMZ: 614.5342
RT: 11.403166666666666
ExactMass: 555.52265968
Spectrum_type: 2
charge: -1
Formula: C34H69NO4
SMILES: CCCCCCCCCCCCCCCC(=O)NC(CO)C(C(CCCCCCCCCCCCCC)O)O
Method: HCD
Collision_energy: [28.333334]
Isolation_window: 4.0
Ion_mode: N
Num Peaks: 17
59.0127	15.8
69.0085	7.9
84.0442	49.6
98.0598	57.3
100.0390	16.4
239.2367	12.5
280.2633	26.9
294.2790	33.5
296.2577	13.8
300.2895	6.5
310.2740	15.3
342.2999	100.0
343.3032	16.7
356.3158	63.1
357.3190	11.3
568.5295	97.9
569.5323	29.3

Name: N-(1,3-Dihydroxyoctadec-4-en-2-yl)hexadecanamide
PrecursorMZ: 582.51029
RT: 11.4155
ExactMass: 537.512095
Spectrum_type: 2
charge: -1
Formula: C34H67NO3
SMILES: CCCCCCCCCCCCCCCC(=O)NC(CO)C(C=CCCCCCCCCCCCCC)O
Method: HCD
Collision_energy: [28.333334]
Isolation_window: 4.0
Ion_mode: N
Num Peaks: 8
61.9874	12.2
99.9249	12.9
116.9275	17.9
237.2224	17.5
280.2643	39.1
536.5046	100.0
537.5081	31.8
581.3508	24.7

Name: N-(2,4-difluorobenzyl)-2-(6-(4-methylbenzyl)-4-oxo-5,6,7,8-tetrahydropyrido(4,3-d)pyrimidin-3(4H)-yl)acetamide
PrecursorMZ: 437.17997
RT: 6.565066666666667
ExactMass: 438.18673235
Spectrum_type: 2
charge: -1
Formula: C24H24F2N4O2
SMILES: CC1=CC=C(C=C1)CN2CCC3=C(C2)C(=O)N(C=N3)CC(=O)NCC4=C(C=C(C=C4)F)F
Method: HCD
Collision_energy: [28.333334]
Isolation_window: 4.0
Ion_mode: N
Num Peaks: 3
121.0282	100.0
209.0443	78.1
437.1805	30.5

Name: N-(2,5-dimethylphenyl)-2-(4a-hydroxy-1-(3,4,5-trimethoxyphenyl)octahydroisoquinolin-2(1H)-yl)acetamide
PrecursorMZ: 527.2767
RT: 6.5377
ExactMass: 482.27807232
Spectrum_type: 2
charge: -1
Formula: C28H38N2O5
SMILES: CC1=CC(=C(C=C1)C)NC(=O)CN2CCC3(CCCCC3C2C4=CC(=C(C(=C4)OC)OC)OC)O
Method: HCD
Collision_energy: [28.333334]
Isolation_window: 4.0
Ion_mode: N
Num Peaks: 17
138.0914	8.5
182.0818	21.9
225.1130	36.0
233.1044	14.0
245.1657	8.6
251.1288	100.0
252.1324	12.7
263.1771	9.5
297.2440	6.0
307.1664	43.4
358.2027	17.0
402.1923	46.5
403.1961	11.3
483.2864	6.8
527.2763	69.9
528.2802	20.3
529.3417	35.6

Name: N-(2-((4-ethyl-8-methyl-2-oxo-2H-chromen-7-yl)oxy)propanoyl)-L-leucine
PrecursorMZ: 388.17662
RT: 9.378
ExactMass: 389.18383758
Spectrum_type: 2
charge: -1
Formula: C21H27NO6
SMILES: CCC1=CC(=O)OC2=C1C=CC(=C2C)OC(C)C(=O)N[C@@H](CC(C)C)C(=O)O
Method: HCD
Collision_energy: [28.333334]
Isolation_window: 4.0
Ion_mode: N
Num Peaks: 13
61.9874	100.0
108.0444	2.8
126.9039	4.1
164.0710	5.1
314.2487	5.2
325.1811	2.5
343.2633	3.0
345.2804	2.4
386.2717	2.8
387.2493	7.8
387.2933	2.7
388.2890	8.7
389.2651	9.3

Name: N-(2-((6-(1H-pyrrol-1-yl)pyridazin-3-yl)amino)ethyl)-2,5-dimethylbenzenesulfonamide
PrecursorMZ: 370.13497
RT: 9.4627
ExactMass: 371.1415961
Spectrum_type: 2
charge: -1
Formula: C18H21N5O2S
SMILES: CC1=CC(=C(C=C1)C)S(=O)(=O)NCCNC2=NN=C(C=C2)N3C=CC=C3
Method: HCD
Collision_energy: [28.333334]
Isolation_window: 4.0
Ion_mode: N
Num Peaks: 17
254.0846	1.1
303.2330	0.8
337.1813	2.7
338.1837	0.7
351.2906	6.0
352.2944	1.5
368.2339	0.7
369.1285	0.8
369.2000	0.8
369.3011	1.2
370.0373	0.7
370.1351	100.0
370.2109	0.8
370.2324	0.7
371.1384	27.6
371.2180	0.8
372.1419	2.3

Name: N-(2-(1H-indol-3-yl)ethyl)-2-(4-(2-methylpropyl)phenyl)propanamide
PrecursorMZ: 347.21323
RT: 8.5321
ExactMass: 348.220163521
Spectrum_type: 2
charge: -1
Formula: C23H28N2O
SMILES: CC(C)CC1=CC=C(C=C1)C(C)C(=O)NCCC2=CNC3=CC=CC=C32
Method: HCD
Collision_energy: [28.333334]
Isolation_window: 4.0
Ion_mode: N
Num Peaks: 9
286.1940	100.0
287.1974	34.4
288.2006	3.9
301.2174	61.4
302.2207	26.3
303.2238	3.3
345.2073	48.7
346.2107	24.0
347.2135	3.3

Name: N-(2-(1H-indol-3-yl)ethyl)-4-methyl-1-phenyl-1H-pyrazole-5-carboxamide
PrecursorMZ: 343.15584
RT: 7.0009
ExactMass: 344.16371127
Spectrum_type: 2
charge: -1
Formula: C21H20N4O
SMILES: CC1=C(N(N=C1)C2=CC=CC=C2)C(=O)NCCC3=CNC4=CC=CC=C43
Method: HCD
Collision_energy: [28.333334]
Isolation_window: 4.0
Ion_mode: N
Num Peaks: 5
299.1659	16.6
300.1694	3.5
343.1559	100.0
344.1592	21.3
345.1700	7.7

Name: N-(2-(3-cyclohexylureido)ethyl)-4-pivalamidobenzamide
PrecursorMZ: 387.23946
RT: 3.7805
ExactMass: 388.2474409
Spectrum_type: 2
charge: -1
Formula: C21H32N4O3
SMILES: CC(C)(C)C(=O)NC1=CC=C(C=C1)C(=O)NCCNC(=O)NC2CCCCC2
Method: HCD
Collision_energy: [28.333334]
Isolation_window: 4.0
Ion_mode: N
Num Peaks: 22
73.0286	4.7
87.0442	4.2
96.9592	11.4
99.0443	8.6
115.0392	9.0
127.0757	4.2
139.0757	2.2
141.0913	2.2
157.0864	2.2
181.1230	4.1
195.1388	3.8
199.1336	3.0
201.1644	2.6
251.1651	4.8
369.2286	13.7
370.2326	2.4
385.1704	3.5
386.1730	20.5
387.1664	4.9
387.2392	100.0
388.2411	20.7
389.2523	6.1

Name: N-(2-(4-fluorophenyl)-2-(1H-indol-3-yl)ethyl)-3-(2-pyrimidinylamino)propanamide
PrecursorMZ: 402.17312
RT: 5.756
ExactMass: 403.1808385
Spectrum_type: 2
charge: -1
Formula: C23H22FN5O
SMILES: C1=CC=C2C(=C1)C(=CN2)C(CNC(=O)CCNC3=NC=CC=N3)C4=CC=C(C=C4)F
Method: HCD
Collision_energy: [28.333334]
Isolation_window: 4.0
Ion_mode: N
Num Peaks: 8
120.0112	15.5
227.1063	14.7
283.1692	100.0
284.1725	17.6
315.1412	23.8
316.1445	5.8
402.1731	13.4
403.1739	3.0

Name: N-(2-Methyl-1-(2-(2-methyl-1H-indol-3-yl)-ethylcarbamoyl)propenyl)benzamide
PrecursorMZ: 420.19339
RT: 5.1242
ExactMass: 375.19467705
Spectrum_type: 2
charge: -1
Formula: C23H25N3O2
SMILES: CC1=C(C2=CC=CC=C2N1)CCNC(=O)C(=C(C)C)NC(=O)C3=CC=CC=C3
Method: HCD
Collision_energy: [28.333334]
Isolation_window: 4.0
Ion_mode: N
Num Peaks: 7
251.1187	100.0
252.1231	20.4
376.2028	36.2
377.2097	17.3
420.1942	17.6
421.1998	24.7
422.2076	11.7

Name: N-(3-(1H-benzimidazol-2-yl)propyl)-4-methyl-2-(1-oxo-1,3-dihydro-2H-isoindol-2-yl)pentanamide
PrecursorMZ: 403.21349
RT: 5.9407
ExactMass: 404.22122615
Spectrum_type: 2
charge: -1
Formula: C24H28N4O2
SMILES: CC(C)CC(C(=O)NCCCC1=NC2=CC=CC=C2N1)N3CC4=CC=CC=C4C3=O
Method: HCD
Collision_energy: [28.333334]
Isolation_window: 4.0
Ion_mode: N
Num Peaks: 9
122.0366	3.8
123.0444	100.0
124.0477	7.5
341.2125	16.3
359.2236	12.8
403.2138	68.9
403.2676	9.5
404.2175	17.3
405.2669	4.0

Name: N-(3-(7-hydroxy-4,8-dimethyl-2-oxo-2H-chromen-3-yl)propanoyl)glycyl-D-leucine
PrecursorMZ: 431.18219
RT: 7.1457
ExactMass: 432.18965124
Spectrum_type: 2
charge: -1
Formula: C22H28N2O7
SMILES: CC1=C(C(=O)OC2=C1C=CC(=C2C)O)CCC(=O)NCC(=O)N[C@H](CC(C)C)C(=O)O
Method: HCD
Collision_energy: [28.333334]
Isolation_window: 4.0
Ion_mode: N
Num Peaks: 3
355.1673	33.7
385.1775	24.5
431.1819	100.0

Name: N-(3-(methylsulfanyl)-1-((1,2,4)triazolo(4,3-a)pyridin-3-yl)propyl)-1H-indole-3-carboxamide
PrecursorMZ: 364.12429
RT: 1.3046
ExactMass: 365.13103142
Spectrum_type: 2
charge: -1
Formula: C19H19N5OS
SMILES: CSCCC(C1=NN=C2N1C=CC=C2)NC(=O)C3=CNC4=CC=CC=C43
Method: HCD
Collision_energy: [28.333334]
Isolation_window: 4.0
Ion_mode: N
Num Peaks: 8
59.0129	23.7
87.0076	42.6
100.0394	13.7
101.0233	21.8
272.0770	11.2
304.1035	18.6
364.1245	100.0
365.1277	14.8

Name: N-(3-Hydroxybutanoyl)homoserine lactone
PrecursorMZ: 186.07662
RT: 1.3133
ExactMass: 187.0844579
Spectrum_type: 2
charge: -1
Formula: C8H13NO4
SMILES: CC(CC(=O)NC1CCOC1=O)O
Method: HCD
Collision_energy: [28.333334]
Isolation_window: 4.0
Ion_mode: N
Num Peaks: 39
59.0129	11.7
69.0337	6.9
71.0130	10.6
72.9922	17.2
73.0285	9.1
74.0238	9.8
84.0445	22.9
85.0286	10.4
87.0078	16.6
88.0395	7.6
96.0445	12.3
97.0285	16.5
98.0239	9.6
98.0603	8.6
99.0442	7.9
100.0394	7.2
110.9841	10.7
112.0396	11.7
114.0553	9.6
117.0183	16.8
123.0443	21.4
124.0396	14.4
125.0235	16.8
125.0600	7.1
140.0709	42.8
141.0186	7.4
142.0499	9.2
142.0613	15.5
142.0865	9.9
143.1181	12.6
144.0656	7.5
167.0343	14.0
184.0608	31.7
185.0444	18.5
186.0410	10.1
186.0766	100.0
187.0605	20.9
187.1087	20.6
188.0015	10.7

Name: N-(3-Indolylacetyl)-L-isoleucine
PrecursorMZ: 287.14025
RT: 5.7054
ExactMass: 288.1473925
Spectrum_type: 2
charge: -1
Formula: C16H20N2O3
SMILES: CC[C@H](C)[C@@H](C(=O)O)NC(=O)CC1=CNC2=CC=CC=C21
Method: HCD
Collision_energy: [28.333334]
Isolation_window: 4.0
Ion_mode: N
Num Peaks: 3
243.1501	100.0
244.1531	15.0
287.1402	32.6

Name: N-(3-Oxobutanoyl)-DL-homoserine lactone
PrecursorMZ: 184.06087
RT: 1.2054
ExactMass: 185.06880783
Spectrum_type: 2
charge: -1
Formula: C8H11NO4
SMILES: CC(=O)CC(=O)NC1CCOC1=O
Method: HCD
Collision_energy: [28.333334]
Isolation_window: 4.0
Ion_mode: N
Num Peaks: 8
59.0129	39.6
72.9921	12.3
94.0288	40.3
111.0189	10.1
112.0395	25.0
117.0182	12.3
142.0502	100.0
184.0605	11.6

Name: N-(4-((2-methoxy-5-(3-oxo-3-phenylprop-1-enyl)phenyl)methoxy)phenyl)acetamide
PrecursorMZ: 446.16046
RT: 9.8994
ExactMass: 401.16270821
Spectrum_type: 2
charge: -1
Formula: C25H23NO4
SMILES: CC(=O)NC1=CC=C(C=C1)OCC2=C(C=CC(=C2)C=CC(=O)C3=CC=CC=C3)OC
Method: HCD
Collision_energy: [28.333334]
Isolation_window: 4.0
Ion_mode: N
Num Peaks: 12
103.9193	14.4
149.0597	20.5
163.1120	10.8
313.1834	21.4
357.1728	14.4
401.1637	7.7
429.3758	8.0
445.3321	56.2
446.1610	39.5
446.3348	15.9
447.1647	8.8
447.3854	100.0

Name: N-(4-(2,6-dimethyl-4-piperidin-1-ylphenyl)-1,3-thiazol-2-yl)pyridine-4-carboxamide
PrecursorMZ: 391.15933
RT: 7.7284
ExactMass: 392.16708258
Spectrum_type: 2
charge: -1
Formula: C22H24N4OS
SMILES: CC1=CC(=CC(=C1C2=CSC(=N2)NC(=O)C3=CC=NC=C3)C)N4CCCCC4
Method: HCD
Collision_energy: [28.333334]
Isolation_window: 4.0
Ion_mode: N
Num Peaks: 9
69.1655	7.7
299.1654	12.3
325.1849	13.5
376.1359	90.8
377.1393	21.4
391.1596	100.0
392.1628	26.5
392.3303	8.3
393.1592	7.7

Name: N-(4-(acetylamino)phenyl)-2-(2-oxo-4-(piperidin-1-ylcarbonyl)quinolin-1(2H)-yl)acetamide
PrecursorMZ: 445.18828
RT: 4.1879
ExactMass: 446.19540532
Spectrum_type: 2
charge: -1
Formula: C25H26N4O4
SMILES: CC(=O)NC1=CC=C(C=C1)NC(=O)CN2C3=CC=CC=C3C(=CC2=O)C(=O)N4CCCCC4
Method: HCD
Collision_energy: [28.333334]
Isolation_window: 4.0
Ion_mode: N
Num Peaks: 5
96.9588	57.4
445.1888	100.0
446.1917	23.7
447.1894	5.4
447.1936	4.3

Name: N-(4-(acetylamino)phenyl)-3-(3,4-dimethoxyphenyl)acrylamide
PrecursorMZ: 385.14089
RT: 4.8849
ExactMass: 340.14230712
Spectrum_type: 2
charge: -1
Formula: C19H20N2O4
SMILES: CC(=O)NC1=CC=C(C=C1)NC(=O)C=CC2=CC(=C(C=C2)OC)OC
Method: HCD
Collision_energy: [28.333334]
Isolation_window: 4.0
Ion_mode: N
Num Peaks: 4
271.1455	31.7
323.1396	39.5
341.1505	100.0
342.1538	22.9

Name: N-(4-acetamidophenyl)-2-(3-cyclohexyl-2,4-dioxo-2,3,4,5,6,7-hexahydro-1H-cyclopenta(d)pyrimidin-1-yl)acetamide
PrecursorMZ: 423.20327
RT: 5.7247
ExactMass: 424.21105539
Spectrum_type: 2
charge: -1
Formula: C23H28N4O4
SMILES: CC(=O)NC1=CC=C(C=C1)NC(=O)CN2C3=C(CCC3)C(=O)N(C2=O)C4CCCCC4
Method: HCD
Collision_energy: [28.333334]
Isolation_window: 4.0
Ion_mode: N
Num Peaks: 17
72.9923	10.0
83.0494	4.2
111.0444	19.2
129.0551	8.9
219.1390	12.1
235.1339	4.3
249.1499	14.3
299.2021	7.6
361.2025	4.3
379.2130	42.7
380.2165	9.5
421.2661	5.8
423.2044	84.3
423.2769	100.0
424.2071	20.5
424.2804	27.4
425.2128	11.8

Name: N-(4-bromophenyl)-2-(2-oxo-4-(piperidin-1-ylcarbonyl)quinolin-1(2H)-yl)acetamide
PrecursorMZ: 466.07742
RT: 9.7339
ExactMass: 467.08445
Spectrum_type: 2
charge: -1
Formula: C23H22BrN3O3
SMILES: C1CCN(CC1)C(=O)C2=CC(=O)N(C3=CC=CC=C32)CC(=O)NC4=CC=C(C=C4)Br
Method: HCD
Collision_energy: [28.333334]
Isolation_window: 4.0
Ion_mode: N
Num Peaks: 8
231.9149	18.9
252.9363	69.6
263.9046	18.9
308.9986	19.9
465.2538	25.4
466.0781	100.0
467.0805	30.9
468.0752	41.0

Name: N-(5-Tert-butyl-2-hydroxyphenyl)-1-(4-(diethylsulfamoyl)phenyl)-1H-imidazole-4-carboxamide
PrecursorMZ: 469.19087
RT: 3.7284
ExactMass: 470.19877662
Spectrum_type: 2
charge: -1
Formula: C24H30N4O4S
SMILES: CCN(CC)S(=O)(=O)C1=CC=C(C=C1)N2C=C(N=C2)C(=O)NC3=C(C=CC(=C3)C(C)(C)C)O
Method: HCD
Collision_energy: [28.333334]
Isolation_window: 4.0
Ion_mode: N
Num Peaks: 3
96.0084	42.9
469.1917	53.4
470.2469	100.0

Name: N-(Phenylmethyl)aspartic acid
PrecursorMZ: 222.07684
RT: 3.2886
ExactMass: 223.0844579
Spectrum_type: 2
charge: -1
Formula: C11H13NO4
SMILES: C1=CC=C(C=C1)CNC(CC(=O)O)C(=O)O
Method: HCD
Collision_energy: [28.333334]
Isolation_window: 4.0
Ion_mode: N
Num Peaks: 24
59.0129	29.4
71.0129	6.5
114.9480	2.6
119.0495	5.8
120.0446	9.3
133.0653	4.3
135.0448	3.4
136.0759	6.3
137.0603	10.0
148.9543	6.2
149.0600	13.2
150.0551	38.6
151.0597	3.2
151.0757	4.9
162.0550	2.9
178.0864	5.7
180.0659	100.0
181.0695	9.8
195.0663	4.4
204.0658	3.3
220.0612	4.1
222.0768	54.6
223.0801	6.5
224.0557	3.1

Name: N-(hexadecanoyl)-sphinganine
PrecursorMZ: 584.52595
RT: 11.4883
ExactMass: 539.52774506
Spectrum_type: 2
charge: -1
Formula: C34H69NO3
SMILES: CCCCCCCCCCCCCCC[C@H]([C@H](CO)NC(=O)CCCCCCCCCCCCCCC)O
Method: HCD
Collision_energy: [28.333334]
Isolation_window: 4.0
Ion_mode: N
Num Peaks: 7
237.2231	6.9
239.2384	6.4
280.2645	34.2
506.4948	7.6
538.5203	100.0
539.5239	35.2
584.5245	11.2

Name: N-(oleoyl)-ceramide
PrecursorMZ: 608.52639
RT: 11.3843
ExactMass: 563.52774506
Spectrum_type: 2
charge: -1
Formula: C36H69NO3
SMILES: CCCCCCCCCCCCC/C=C/[C@H]([C@H](CO)NC(=O)CCCCCCC/C=C\CCCCCCCC)O
Method: HCD
Collision_energy: [28.333334]
Isolation_window: 4.0
Ion_mode: N
Num Peaks: 13
263.2386	5.8
281.2469	5.8
306.2801	36.6
307.2833	6.9
322.2754	5.6
514.4990	7.7
530.4948	6.1
535.4722	7.2
561.5075	9.6
562.5203	100.0
563.5239	36.1
608.5269	8.5
609.5148	10.5

Name: N-Acetyl-L-alanine
PrecursorMZ: 130.04994
RT: 1.1963666666666666
ExactMass: 131.058243149
Spectrum_type: 2
charge: -1
Formula: C5H9NO3
SMILES: C[C@@H](C(=O)O)NC(=O)C
Method: HCD
Collision_energy: [28.333334]
Isolation_window: 4.0
Ion_mode: N
Num Peaks: 8
59.0130	4.3
69.1077	3.2
85.0286	7.9
88.0394	100.0
89.0427	3.8
103.0027	10.5
130.0400	2.9
130.0501	9.6

Name: N-Acetyl-L-proline
PrecursorMZ: 156.06538
RT: 1.9319
ExactMass: 157.07389321
Spectrum_type: 2
charge: -1
Formula: C7H11NO3
SMILES: CC(=O)N1CCC[C@H]1C(=O)O
Method: HCD
Collision_energy: [28.333334]
Isolation_window: 4.0
Ion_mode: N
Num Peaks: 5
65.9976	8.6
84.0445	19.1
86.0237	15.0
114.0550	100.0
156.0658	25.8

Name: N-Acetyl-Muramic Acid
PrecursorMZ: 292.10378
RT: 1.1457
ExactMass: 293.11106656
Spectrum_type: 2
charge: -1
Formula: C11H19NO8
SMILES: C[C@H](C(=O)O)O[C@H]1[C@@H]([C@H](OC([C@@H]1NC(=O)C)O)CO)O
Method: HCD
Collision_energy: [28.333334]
Isolation_window: 4.0
Ion_mode: N
Num Peaks: 19
58.0289	2.4
59.0129	3.1
71.0128	3.4
80.9642	4.3
83.0128	6.8
85.0285	3.2
87.0078	6.5
88.9871	4.2
89.0234	100.0
90.0267	3.4
101.0235	3.0
128.0344	12.3
140.0343	4.0
142.0501	12.0
200.0558	4.4
290.0888	7.6
291.0680	5.2
292.1030	3.1
293.0921	6.3

Name: N-Formyl-DL-methionine
PrecursorMZ: 176.03757
RT: 2.4372
ExactMass: 177.04596439
Spectrum_type: 2
charge: -1
Formula: C6H11NO3S
SMILES: CSCCC(C(=O)O)NC=O
Method: HCD
Collision_energy: [28.333334]
Isolation_window: 4.0
Ion_mode: N
Num Peaks: 20
71.0492	5.8
73.0285	3.6
84.0444	35.4
98.0236	100.0
99.0268	4.0
99.0441	5.8
101.0233	10.6
115.0387	4.5
128.0342	96.8
129.0377	4.2
130.0321	74.4
131.0359	10.2
132.0279	9.3
132.0478	5.8
143.0340	14.7
174.0220	9.5
175.0262	8.7
175.0965	6.0
176.0365	91.9
177.0400	7.7

Name: N-Fructosyl pyroglutamate
PrecursorMZ: 290.08811
RT: 0.916
ExactMass: 291.0954165
Spectrum_type: 2
charge: -1
Formula: C11H17NO8
SMILES: C1CC(=O)N(C1C(=O)O)CC2(C(C(C(O2)CO)O)O)O
Method: HCD
Collision_energy: [28.333334]
Isolation_window: 4.0
Ion_mode: N
Num Peaks: 25
59.0129	4.6
71.0129	4.3
87.0077	3.8
89.0234	6.9
101.0234	8.0
126.0553	2.5
128.0344	100.0
129.0379	4.7
130.0866	3.2
133.0497	5.6
139.0394	2.1
145.0974	3.8
164.0820	2.7
170.0451	18.1
200.0558	46.3
201.0593	3.8
212.0556	3.0
230.0666	4.7
272.0771	6.1
289.0939	8.5
289.1405	5.2
290.0880	44.2
291.0682	2.0
291.0968	3.2
292.1036	6.6

Name: N-Methyl-L-threonine
PrecursorMZ: 132.06567
RT: 0.8822
ExactMass: 133.07389321
Spectrum_type: 2
charge: -1
Formula: C5H11NO3
SMILES: C[C@H]([C@@H](C(=O)O)NC)O
Method: HCD
Collision_energy: [28.333334]
Isolation_window: 4.0
Ion_mode: N
Num Peaks: 8
68.0496	15.5
71.0129	20.8
84.0445	47.2
85.0285	18.9
86.0602	23.5
88.0394	36.8
115.0028	36.1
132.0658	100.0

Name: N-Trans-Feruloyloctopamine
PrecursorMZ: 328.11943
RT: 4.7448
ExactMass: 329.12632271
Spectrum_type: 2
charge: -1
Formula: C18H19NO5
SMILES: COC1=C(C=CC(=C1)/C=C/C(=O)NCC(C2=CC=C(C=C2)O)O)O
Method: HCD
Collision_energy: [28.333334]
Isolation_window: 4.0
Ion_mode: N
Num Peaks: 11
93.0338	29.1
131.0368	96.6
135.0446	26.4
160.0399	42.9
173.0477	36.3
242.0823	29.6
254.0822	100.0
310.1085	45.0
327.1251	22.8
328.1201	97.3
330.1372	23.9

Name: N-acetyl-N-(2-(2-isopropyl-5-methylphenoxy)ethyl)tryptophanamide
PrecursorMZ: 466.23514
RT: 4.7509
ExactMass: 421.23654186
Spectrum_type: 2
charge: -1
Formula: C25H31N3O3
SMILES: CC1=CC(=C(C=C1)C(C)C)OCCNC(=O)C(CC2=CNC3=CC=CC=C32)NC(=O)C
Method: HCD
Collision_energy: [28.333334]
Isolation_window: 4.0
Ion_mode: N
Num Peaks: 12
124.0761	4.5
134.0967	45.8
135.1003	4.4
154.0615	84.7
155.0650	5.4
257.1659	6.2
259.1815	100.0
260.1848	17.4
291.1715	7.7
422.2456	5.9
466.2933	21.7
467.2971	6.7

Name: N-acetylmuramic acid
PrecursorMZ: 292.10369
RT: 1.1762
ExactMass: 293.11106656
Spectrum_type: 2
charge: -1
Formula: C11H19NO8
SMILES: C[C@H](C(=O)O)O[C@H]([C@H](C=O)NC(=O)C)[C@@H]([C@@H](CO)O)O
Method: HCD
Collision_energy: [28.333334]
Isolation_window: 4.0
Ion_mode: N
Num Peaks: 6
83.0129	6.2
88.9871	3.5
89.0235	100.0
140.0345	4.9
142.0503	10.4
293.0880	5.1

Name: N-methyl-L-glutamic acid
PrecursorMZ: 160.06035
RT: 0.8971
ExactMass: 161.06880783
Spectrum_type: 2
charge: -1
Formula: C6H11NO4
SMILES: CN[C@@H](CCC(=O)O)C(=O)O
Method: HCD
Collision_energy: [28.333334]
Isolation_window: 4.0
Ion_mode: N
Num Peaks: 37
59.0129	5.9
70.0288	1.5
71.0129	16.3
72.9922	1.8
73.0285	8.1
74.0238	2.3
85.0285	7.8
87.0077	1.9
87.0553	1.7
88.0393	100.0
89.0233	1.4
89.0426	3.2
95.0128	2.8
96.0445	2.2
98.0237	1.6
98.0601	1.7
99.0076	2.0
100.0393	2.5
101.0233	4.2
104.0343	4.2
111.0190	1.4
112.0394	1.8
113.0233	7.8
114.0551	2.7
115.0867	6.1
116.0706	7.9
117.0660	6.3
131.0451	4.7
142.0500	2.2
144.0292	2.6
158.0454	1.5
158.0650	1.4
159.0651	1.5
159.0767	13.8
160.0606	37.9
161.0644	1.5
162.0765	3.2

Name: N-oleoyl leucine
PrecursorMZ: 394.3326
RT: 9.937305
ExactMass: 395.3399443
Spectrum_type: 2
charge: -1
Formula: C24H45NO3
SMILES: CCCCCCCC/C=C\CCCCCCCC(=O)N[C@@H](CC(C)C)C(=O)O
Method: HCD
Collision_energy: [28.333334]
Isolation_window: 4.0
Ion_mode: N
Num Peaks: 9
125.0235	7.9
130.0864	100.0
131.0899	5.5
350.3424	5.1
351.3492	1.1
393.3412	1.9
394.3326	70.0
395.3361	19.5
396.3387	1.6

Name: N-oleoyl phenylalanine
PrecursorMZ: 428.31741
RT: 10.2261
ExactMass: 429.32429423
Spectrum_type: 2
charge: -1
Formula: C27H43NO3
SMILES: CCCCCCCC/C=C\CCCCCCCC(=O)N[C@@H](CC1=CC=CC=C1)C(=O)O
Method: HCD
Collision_energy: [28.333334]
Isolation_window: 4.0
Ion_mode: N
Num Peaks: 10
147.0444	23.0
164.0710	98.5
165.0745	8.7
280.2645	7.3
367.3401	6.6
428.3175	100.0
429.2159	18.1
429.3216	30.7
430.2194	7.4
430.3328	18.0

Name: N-stearoyl 4-hydroxysphinganine (Saccharomyces Cerevisiae)
PrecursorMZ: 642.56684
RT: 11.6282
ExactMass: 583.55395981
Spectrum_type: 2
charge: -1
Formula: C36H73NO4
SMILES: CCCCCCCCCCCCCCCCCC(=O)NC(CO)C(C(CCCCCCCCCCCCCC)O)O
Method: HCD
Collision_energy: [28.333334]
Isolation_window: 4.0
Ion_mode: N
Num Peaks: 11
59.0130	5.4
61.9874	42.2
84.0444	60.0
100.0394	14.0
253.2533	16.7
308.2957	21.5
324.2907	24.0
356.3166	100.0
357.3198	16.5
596.5621	74.9
597.5646	22.7

Name: N2-(4-(1H-benzo(d)imidazol-2-yl)phenyl)-N4-(4-fluorophenyl)-6-morpholino-1,3,5-triazine-2,4-diamine
PrecursorMZ: 481.19086
RT: 5.8706
ExactMass: 482.19788555
Spectrum_type: 2
charge: -1
Formula: C26H23FN8O
SMILES: C1COCCN1C2=NC(=NC(=N2)NC3=CC=C(C=C3)F)NC4=CC=C(C=C4)C5=NC6=CC=CC=C6N5
Method: HCD
Collision_energy: [28.333334]
Isolation_window: 4.0
Ion_mode: N
Num Peaks: 25
53.4646	3.8
53.4676	2.4
73.0288	2.5
75.0080	3.1
79.9566	2.3
89.0237	5.4
96.9593	17.6
137.0603	7.8
219.0695	2.0
299.1328	8.0
357.2442	7.0
383.2237	3.9
401.2342	45.0
402.2375	11.1
435.3146	1.9
479.3043	5.3
479.3415	2.6
480.2896	2.2
480.3386	1.7
481.1902	100.0
481.3164	22.6
482.1927	27.0
482.3199	6.2
483.1842	7.3
483.3400	7.0

Name: N3-Cyclooctyl-N4-(1-(cyclooctylcarbamoyl)-2-methylpropyl)pyridine-3,4-dicarboxamide
PrecursorMZ: 483.33354
RT: 5.2817
ExactMass: 484.34134128
Spectrum_type: 2
charge: -1
Formula: C28H44N4O3
SMILES: CC(C)[C@@H](C(=O)NC1CCCCCCC1)NC(=O)C2=C(C=NC=C2)C(=O)NC3CCCCCCC3
Method: HCD
Collision_energy: [28.333334]
Isolation_window: 4.0
Ion_mode: N
Num Peaks: 14
59.0130	9.0
73.0287	6.8
87.0443	7.9
96.9594	17.5
130.0868	7.6
301.0357	7.7
313.0360	6.5
481.3210	11.3
482.3267	26.5
483.2048	12.3
483.3391	100.0
484.3437	27.8
485.2150	13.2
485.3127	14.4

Name: Naphthalene-1-sulfonate
PrecursorMZ: 207.01109
RT: 3.6242
ExactMass: 207.01159025
Spectrum_type: 2
charge: -1
Formula: C10H7O3S-
SMILES: C1=CC=C2C(=C1)C=CC=C2S(=O)(=O)[O-]
Method: HCD
Collision_energy: [28.333334]
Isolation_window: 4.0
Ion_mode: N
Num Peaks: 8
80.9640	18.1
143.0491	5.9
162.9818	4.2
180.0670	3.3
207.0111	100.0
208.0145	12.8
209.1075	2.3
212.0580	3.1

Name: Neodihydroprotolichesterinic acid
PrecursorMZ: 357.26342
RT: 5.9169
ExactMass: 326.24570956
Spectrum_type: 2
charge: -1
Formula: C19H34O4
SMILES: CC1C(C(OC1=O)CCCCCCCCCC(C)(C)C)C(=O)O
Method: HCD
Collision_energy: [28.333334]
Isolation_window: 4.0
Ion_mode: N
Num Peaks: 8
57.0335	7.1
99.0804	6.9
213.1847	10.0
279.2324	9.3
313.2736	17.6
357.1898	7.3
357.2635	100.0
358.2670	22.5

Name: Neohesperidin
PrecursorMZ: 655.1888
RT: 4.2689
ExactMass: 610.18977037
Spectrum_type: 2
charge: -1
Formula: C28H34O15
SMILES: C[C@H]1[C@@H]([C@H]([C@H]([C@@H](O1)O[C@@H]2[C@H]([C@@H]([C@H](O[C@H]2OC3=CC(=C4C(=O)C[C@H](OC4=C3)C5=CC(=C(C=C5)OC)O)O)CO)O)O)O)O)O
Method: HCD
Collision_energy: [28.333334]
Isolation_window: 4.0
Ion_mode: N
Num Peaks: 4
97.4656	34.2
301.0721	100.0
608.3661	44.1
609.1840	31.3

Name: Neoolivil
PrecursorMZ: 375.14354
RT: 3.8981
Spectrum_type: 2
charge: -1
SMILES: COC1=C(C=CC(=C1)[C@H]2[C@@H]([C@H]([C@@H](O2)C3=CC(=C(C=C3)O)OC)CO)CO)O
Method: HCD
Collision_energy: [28.333334]
Isolation_window: 4.0
Ion_mode: N
Num Peaks: 8
149.0230	29.4
150.0312	21.7
164.0466	20.1
165.0545	68.0
195.0652	36.1
312.0997	40.6
327.1230	100.0
328.1260	18.1

Name: Nepetin
PrecursorMZ: 315.05142
RT: 5.5458
ExactMass: 316.05830272
Spectrum_type: 2
charge: -1
Formula: C16H12O7
SMILES: COC1=C(C2=C(C=C1O)OC(=CC2=O)C3=CC(=C(C=C3)O)O)O
Method: HCD
Collision_energy: [28.333334]
Isolation_window: 4.0
Ion_mode: N
Num Peaks: 9
149.0602	18.1
163.0758	7.4
165.0550	17.3
281.0459	6.6
300.0277	66.9
301.0309	11.5
315.0517	100.0
315.0876	10.4
316.0553	17.0

Name: Nephromopsic acid
PrecursorMZ: 325.23843
RT: 9.3433
ExactMass: 326.24570956
Spectrum_type: 2
charge: -1
Formula: C19H34O4
SMILES: CCCCCCCCCCCCC[C@H]1[C@H]([C@H](C(=O)O1)C)C(=O)O
Method: HCD
Collision_energy: [28.333334]
Isolation_window: 4.0
Ion_mode: N
Num Peaks: 11
69.0336	1.3
72.0208	2.5
146.9378	1.7
197.0260	2.0
263.2385	1.7
281.2486	7.0
282.2520	1.3
325.1844	100.0
325.2377	1.9
326.1876	21.3
327.1842	4.1

Name: Nephromopsinic acid (-)
PrecursorMZ: 325.23783
RT: 9.1121
ExactMass: 326.24570956
Spectrum_type: 2
charge: -1
Formula: C19H34O4
SMILES: CCCCCCCCCCCCC[C@@H]1[C@H]([C@@H](C(=O)O1)C)C(=O)O
Method: HCD
Collision_energy: [28.333334]
Isolation_window: 4.0
Ion_mode: N
Num Peaks: 11
183.0109	1.6
197.0267	1.6
230.0241	0.7
281.2483	2.9
323.2589	7.7
324.2625	3.6
325.1842	100.0
325.2667	1.1
325.6671	1.2
326.1874	18.8
327.1826	3.6

Name: Nephrosteranic acid
PrecursorMZ: 297.20722
RT: 7.7114
ExactMass: 298.21440943
Spectrum_type: 2
charge: -1
Formula: C17H30O4
SMILES: CCCCCCCCCCCC1[C@@H](C(C(=O)O1)C)C(=O)O
Method: HCD
Collision_energy: [28.333334]
Isolation_window: 4.0
Ion_mode: N
Num Peaks: 11
235.2069	27.0
236.2103	4.3
253.2177	17.9
279.1967	19.1
280.2002	4.0
295.2247	19.9
296.2301	9.5
297.1583	7.5
297.2075	100.0
298.2106	19.1
299.2235	9.8

Name: Neriifolin
PrecursorMZ: 579.31698
RT: 6.5486
ExactMass: 534.31926842
Spectrum_type: 2
charge: -1
Formula: C30H46O8
SMILES: C[C@H]1[C@@H]([C@H]([C@@H]([C@@H](O1)O[C@H]2CC[C@]3([C@@H](C2)CC[C@@H]4[C@@H]3CC[C@]5([C@@]4(CC[C@@H]5C6=CC(=O)OC6)O)C)C)O)OC)O
Method: HCD
Collision_energy: [28.333334]
Isolation_window: 4.0
Ion_mode: N
Num Peaks: 17
69.0363	13.5
122.0597	15.3
124.0755	16.4
136.0390	13.5
138.0913	27.0
182.0810	60.6
245.1648	22.1
263.1751	27.8
271.1434	13.8
289.1546	98.3
290.1603	12.9
307.1652	53.6
507.2951	16.0
535.3285	14.2
579.3164	100.0
580.3195	30.2
581.3279	13.7

Name: Nifedipine
PrecursorMZ: 345.10933
RT: 2.6904
ExactMass: 346.1164863
Spectrum_type: 2
charge: -1
Formula: C17H18N2O6
SMILES: CC1=C(C(C(=C(N1)C)C(=O)OC)C2=CC=CC=C2[N+](=O)[O-])C(=O)OC
Method: HCD
Collision_energy: [28.333334]
Isolation_window: 4.0
Ion_mode: N
Num Peaks: 15
109.0286	5.4
116.0707	5.2
135.0443	8.6
179.0338	5.0
181.0495	4.8
256.0978	45.7
257.1012	7.2
258.1135	100.0
259.1179	16.6
301.1195	13.7
343.1990	6.2
345.1089	72.5
346.1113	11.6
347.0781	8.3
347.1215	9.9

Name: Nitrendipine
PrecursorMZ: 359.1249
RT: 4.1102
ExactMass: 360.13213636
Spectrum_type: 2
charge: -1
Formula: C18H20N2O6
SMILES: CCOC(=O)C1=C(NC(=C(C1C2=CC(=CC=C2)[N+](=O)[O-])C(=O)OC)C)C
Method: HCD
Collision_energy: [28.333334]
Isolation_window: 4.0
Ion_mode: N
Num Peaks: 18
124.0759	5.2
146.0603	23.3
148.0760	6.6
150.0916	11.4
201.1127	4.7
209.1175	4.0
215.1175	9.4
243.1135	37.2
243.1495	6.6
244.1159	4.7
271.1452	21.5
287.1397	13.8
315.1349	100.0
316.1381	20.1
359.1247	72.0
359.2061	22.0
360.1270	14.2
361.2227	23.9

Name: Noreugenin
PrecursorMZ: 191.03454
RT: 4.574
ExactMass: 192.04225873
Spectrum_type: 2
charge: -1
Formula: C10H8O4
SMILES: CC1=CC(=O)C2=C(C=C(C=C2O1)O)O
Method: HCD
Collision_energy: [28.333334]
Isolation_window: 4.0
Ion_mode: N
Num Peaks: 17
61.9874	2.4
87.9243	3.4
101.9512	1.4
102.9479	49.3
103.9194	4.9
111.0080	2.2
143.8644	10.1
145.8613	1.6
146.9378	18.5
147.0445	1.9
149.0236	1.5
161.8751	5.7
171.1019	3.6
189.8574	1.8
191.0344	100.0
192.0379	10.8
193.0894	1.5

Name: Norlichexanthone
PrecursorMZ: 257.04577
RT: 5.5244
ExactMass: 258.05282342
Spectrum_type: 2
charge: -1
Formula: C14H10O5
SMILES: CC1=CC(=CC2=C1C(=O)C3=C(C=C(C=C3O2)O)O)O
Method: HCD
Collision_energy: [28.333334]
Isolation_window: 4.0
Ion_mode: N
Num Peaks: 11
146.9378	3.8
166.9593	5.6
182.9544	10.3
210.9494	22.2
213.0553	3.9
219.8452	21.0
221.8421	9.3
228.9601	18.4
255.1060	6.9
257.0457	100.0
258.0491	14.6

Name: Nornotatic acid
PrecursorMZ: 361.092
RT: 6.3182
ExactMass: 330.07395278
Spectrum_type: 2
charge: -1
Formula: C17H14O7
SMILES: CC1=CC(=C(C2=C1C(=O)OC3=C(O2)C(=C(C(=C3)O)C(=O)O)C)C)O
Method: HCD
Collision_energy: [28.333334]
Isolation_window: 4.0
Ion_mode: N
Num Peaks: 6
329.0646	10.6
345.0602	19.7
346.0683	52.5
347.0726	8.5
361.0922	100.0
362.0956	17.2

Name: Norrangiformic acid
PrecursorMZ: 353.2339
RT: 7.62585
ExactMass: 372.25118886
Spectrum_type: 2
charge: -1
Formula: C20H36O6
SMILES: CCCCCCCCCCCCCC[C@@H]([C@@H](CC(=O)O)C(=O)O)C(=O)O
Method: HCD
Collision_energy: [28.333334]
Isolation_window: 4.0
Ion_mode: N
Num Peaks: 8
113.0964	17.4
237.1497	13.6
293.2135	11.9
309.2437	30.3
351.2186	11.4
352.2231	13.5
353.2345	100.0
354.2380	21.9

Name: Nortrachelogenin
PrecursorMZ: 373.12948
RT: 4.9355
ExactMass: 374.13655304
Spectrum_type: 2
charge: -1
Formula: C20H22O7
SMILES: COC1=C(C=CC(=C1)C[C@H]2COC(=O)[C@@]2(CC3=CC(=C(C=C3)O)OC)O)O
Method: HCD
Collision_energy: [28.333334]
Isolation_window: 4.0
Ion_mode: N
Num Peaks: 17
134.0365	21.2
149.0600	27.6
171.1019	8.5
178.0265	28.5
192.0423	12.3
193.0500	100.0
194.0535	11.9
207.0658	47.1
208.0691	5.3
343.2126	15.6
344.2152	4.8
358.1071	5.6
371.1143	4.5
371.2076	7.4
373.1296	49.4
374.1317	10.6
375.1415	6.5

Name: Notatic acid
PrecursorMZ: 343.08244
RT: 3.4567
ExactMass: 344.08960285
Spectrum_type: 2
charge: -1
Formula: C18H16O7
SMILES: CC1=CC(=C(C2=C1C(=O)OC3=C(O2)C(=C(C(=C3)O)C(=O)O)C)C)OC
Method: HCD
Collision_energy: [28.333334]
Isolation_window: 4.0
Ion_mode: N
Num Peaks: 17
109.0286	41.7
130.0865	13.3
145.0652	13.5
237.0921	3.4
239.0712	26.1
240.0753	5.4
253.0866	11.6
255.1025	59.3
256.1062	10.3
281.0818	10.3
299.0921	19.1
301.1082	4.3
325.0718	8.2
342.2392	12.9
343.0822	100.0
344.0851	19.4
345.0950	3.8

Name: Npc122363
PrecursorMZ: 417.15589
RT: 6.1297
ExactMass: 418.16276778
Spectrum_type: 2
charge: -1
Formula: C22H26O8
SMILES: CCCC(=O)C1=C(C(=C(C(=C1O)CC2=C(C(C(=O)C(=C2O)C(=O)C)(C)C)O)O)C)O
Method: HCD
Collision_energy: [28.333334]
Isolation_window: 4.0
Ion_mode: N
Num Peaks: 5
61.9874	18.0
371.1492	17.5
389.1621	19.6
417.1557	100.0
418.1587	21.1

Name: Npc219357
PrecursorMZ: 333.17073
RT: 7.3651
ExactMass: 334.17802393
Spectrum_type: 2
charge: -1
Formula: C19H26O5
SMILES: C[C@@H]1C[C@@H]2[C@@H]([C@@H](C(=O)O2)C)[C@@H]([C@]3([C@H]1C=CC3=O)C)OC(=O)C(C)C
Method: HCD
Collision_energy: [28.333334]
Isolation_window: 4.0
Ion_mode: N
Num Peaks: 28
97.3405	1.6
127.1120	4.3
185.1177	9.5
219.1385	4.0
229.1596	2.0
243.1753	9.9
244.1787	1.9
245.1908	43.6
246.1940	7.8
249.1496	6.4
250.1535	1.6
253.1592	1.8
271.1703	20.0
272.1744	4.5
287.2019	2.3
289.1813	26.5
289.2162	3.2
290.1847	5.2
295.2337	2.5
331.1912	3.3
331.2285	3.0
332.1646	2.2
333.1709	100.0
333.2056	7.2
334.1741	21.2
334.2091	1.8
335.1788	2.2
335.2228	5.1

Name: O-geranylconiferyl alcohol
PrecursorMZ: 315.19673
RT: 7.5141
ExactMass: 316.20384475
Spectrum_type: 2
charge: -1
Formula: C20H28O3
SMILES: CC(=CCC/C(=C/COC1=C(C=C(C=C1)/C=C/CO)OC)/C)C
Method: HCD
Collision_energy: [28.333334]
Isolation_window: 4.0
Ion_mode: N
Num Peaks: 14
209.0455	5.0
227.1078	18.7
271.1704	4.6
283.1705	100.0
284.1738	20.3
313.1735	38.7
313.2388	25.6
314.1737	13.3
314.2412	7.6
315.1614	8.3
315.1969	61.4
315.2530	25.7
316.2000	14.0
316.2560	5.3

Name: Obacunone
PrecursorMZ: 453.19223
RT: 7.1513
ExactMass: 454.19915329
Spectrum_type: 2
charge: -1
Formula: C26H30O7
SMILES: C[C@@]12CC[C@@H]3[C@]4(C=CC(=O)OC([C@@H]4CC(=O)[C@]3([C@@]15[C@H](O5)C(=O)O[C@H]2C6=COC=C6)C)(C)C)C
Method: HCD
Collision_energy: [28.333334]
Isolation_window: 4.0
Ion_mode: N
Num Peaks: 12
125.0236	12.7
227.1072	7.4
235.0975	28.6
271.0982	9.9
301.1442	15.9
351.1597	12.8
369.1710	10.6
409.2028	12.5
451.2538	18.3
453.1917	100.0
453.2641	15.9
454.1945	28.5

Name: Olean-12-en-28-oic acid, 3-(beta-D-glucopyranuronosyloxy)-23-hydroxy-, (3beta,5xi,9xi,18xi)-
PrecursorMZ: 647.38054
RT: 10.1094
ExactMass: 648.38734798
Spectrum_type: 2
charge: -1
Formula: C36H56O10
SMILES: C[C@]12CC[C@@H](C(C1CC[C@@]3(C2CC=C4[C@]3(CC[C@@]5(C4CC(CC5)(C)C)C(=O)O)C)C)(C)CO)O[C@H]6[C@@H]([C@H]([C@@H]([C@H](O6)C(=O)O)O)O)O
Method: HCD
Collision_energy: [28.333334]
Isolation_window: 4.0
Ion_mode: N
Num Peaks: 12
61.9875	1.7
72.9922	4.4
149.0600	3.5
207.0658	100.0
208.0691	11.1
283.2641	18.0
284.2676	3.2
319.1910	4.3
439.3062	4.3
647.3756	11.7
647.4691	1.9
648.3795	3.6

Name: Oleanolic acid acetate
PrecursorMZ: 497.36241
RT: 10.1946
ExactMass: 498.37091007
Spectrum_type: 2
charge: -1
Formula: C32H50O4
SMILES: CC(=O)O[C@@H]1CC[C@]2(C(C1(C)C)CC[C@@]3(C2CC=C4[C@]3(CC[C@@]5(C4CC(CC5)(C)C)C(=O)O)C)C)C
Method: HCD
Collision_energy: [28.333334]
Isolation_window: 4.0
Ion_mode: N
Num Peaks: 19
55.2610	2.0
55.2640	4.6
55.3724	0.7
55.3755	1.5
59.0128	0.7
61.9874	0.5
69.1518	0.4
125.0959	0.7
127.0391	0.4
197.1173	1.0
255.2320	0.6
437.3415	1.0
453.3371	1.1
497.2110	0.7
497.3629	100.0
497.4836	0.7
497.5136	0.7
498.3662	32.3
499.3690	4.4

Name: Oleoyl Sarcosine
PrecursorMZ: 352.28587
RT: 9.2678
ExactMass: 353.29299411
Spectrum_type: 2
charge: -1
Formula: C21H39NO3
SMILES: CCCCCCCC/C=C\CCCCCCCC(=O)N(C)CC(=O)O
Method: HCD
Collision_energy: [28.333334]
Isolation_window: 4.0
Ion_mode: N
Num Peaks: 5
88.0394	100.0
130.0863	3.7
352.2858	71.3
353.2964	15.7
354.3026	7.1

Name: Olivetolic Acid
PrecursorMZ: 223.09742
RT: 4.2815
ExactMass: 224.10485899
Spectrum_type: 2
charge: -1
Formula: C12H16O4
SMILES: CCCCCC1=C(C(=CC(=C1)O)O)C(=O)O
Method: HCD
Collision_energy: [28.333334]
Isolation_window: 4.0
Ion_mode: N
Num Peaks: 7
161.0965	13.8
179.1072	37.0
205.0869	19.2
223.0281	61.0
223.0976	100.0
224.0286	10.5
224.1007	12.4

Name: Olivetonide
PrecursorMZ: 247.09672
RT: 5.8152
ExactMass: 248.10485899
Spectrum_type: 2
charge: -1
Formula: C14H16O4
SMILES: CCCCCC1=CC2=CC(=CC(=C2C(=O)O1)O)O
Method: HCD
Collision_energy: [28.333334]
Isolation_window: 4.0
Ion_mode: N
Num Peaks: 8
141.1273	25.2
203.1067	15.4
246.9803	9.8
247.0967	100.0
248.0785	18.3
248.1007	14.5
249.0654	12.0
249.1117	10.0

Name: Ononetin
PrecursorMZ: 257.08192
RT: 5.7656
ExactMass: 258.08920892
Spectrum_type: 2
charge: -1
Formula: C15H14O4
SMILES: COC1=CC=C(C=C1)CC(=O)C2=C(C=C(C=C2)O)O
Method: HCD
Collision_energy: [28.333334]
Isolation_window: 4.0
Ion_mode: N
Num Peaks: 16
93.0336	5.5
106.0415	11.9
107.0494	31.9
108.0207	5.8
108.0527	2.6
121.0285	4.0
123.0318	5.4
138.0314	3.1
151.0393	33.3
152.0426	2.7
213.0916	75.1
214.0951	10.3
255.1052	6.6
255.1602	3.6
257.0818	100.0
258.0850	13.9

Name: Onopordopicrin
PrecursorMZ: 347.1501
RT: 3.8565
ExactMass: 348.15728848
Spectrum_type: 2
charge: -1
Formula: C19H24O6
SMILES: C/C/1=C/CC/C(=C\[C@@H]2[C@@H]([C@H](C1)OC(=O)C(=C)CO)C(=C)C(=O)O2)/CO
Method: HCD
Collision_energy: [28.333334]
Isolation_window: 4.0
Ion_mode: N
Num Peaks: 14
61.9873	7.7
121.0286	9.9
123.0442	11.1
135.0441	7.8
137.0599	6.3
146.0815	9.9
165.0549	27.0
180.0786	8.6
181.0498	22.8
277.1228	18.1
317.1395	23.5
329.1392	14.0
347.1502	100.0
348.1524	23.4

Name: Onx-0914
PrecursorMZ: 579.2825
RT: 6.9605
ExactMass: 580.28969963
Spectrum_type: 2
charge: -1
Formula: C31H40N4O7
SMILES: C[C@@H](C(=O)N[C@@H](CC1=CC=C(C=C1)OC)C(=O)N[C@@H](CC2=CC=CC=C2)C(=O)[C@@]3(CO3)C)NC(=O)CN4CCOCC4
Method: HCD
Collision_energy: [28.333334]
Isolation_window: 4.0
Ion_mode: N
Num Peaks: 13
74.0239	5.3
99.0192	6.9
156.1388	8.0
180.0659	14.9
219.0779	6.8
237.0884	10.4
240.0776	18.6
254.0938	6.1
350.1515	11.6
365.1146	5.4
561.2703	6.7
579.2828	100.0
580.2850	26.4

Name: Oocyan
PrecursorMZ: 581.24045
RT: 5.8992
ExactMass: 582.24783482
Spectrum_type: 2
charge: -1
Formula: C33H34N4O6
SMILES: CC\1=C(/C(=C/C2=C(C(=C(N2)/C=C\3/C(=C(C(=O)N3)C)C=C)C)CCC(=O)O)/N/C1=C/C4=NC(=O)C(=C4C)C=C)CCC(=O)O
Method: HCD
Collision_energy: [28.333334]
Isolation_window: 4.0
Ion_mode: N
Num Peaks: 7
61.9872	37.9
141.0543	39.0
193.0494	14.4
535.2349	62.6
536.2390	16.5
581.2436	100.0
582.2487	28.7

Name: Ornithine + Cholic Acid
PrecursorMZ: 521.36012
RT: 8.7428
ExactMass: 522.36688732
Spectrum_type: 2
charge: -1
Formula: C29H50N2O6
SMILES: C[C@H](CCC(=O)N[C@@H](CCCN)C(=O)O)[C@H]1CC[C@@H]2[C@@]1([C@H](C[C@H]3[C@H]2[C@@H](C[C@H]4[C@@]3(CC[C@H](C4)O)C)O)O)C
Method: HCD
Collision_energy: [28.333334]
Isolation_window: 4.0
Ion_mode: N
Num Peaks: 11
101.0235	11.7
131.0817	40.9
161.0447	8.8
220.0976	34.8
294.2425	8.1
369.3124	48.6
370.3154	11.3
474.3409	7.2
475.3555	100.0
476.3592	27.0
520.3892	10.4

Name: Ornithine + UDCA
PrecursorMZ: 505.36547
RT: 9.3524
ExactMass: 506.3719727
Spectrum_type: 2
charge: -1
Formula: C29H50N2O5
SMILES: C[C@H](CCC(=O)N[C@@H](CCCN)C(=O)O)[C@H]1CC[C@@H]2[C@@]1(CC[C@H]3[C@H]2[C@H](C[C@H]4[C@@]3(CC[C@H](C4)O)C)O)C
Method: HCD
Collision_energy: [28.333334]
Isolation_window: 4.0
Ion_mode: N
Num Peaks: 46
56.1533	2.2
56.3628	1.7
56.3660	3.6
59.0130	5.5
69.1064	1.3
74.0239	4.7
78.9581	1.7
79.9565	5.7
84.0083	4.7
88.0396	3.3
96.9592	100.0
97.4639	1.0
98.0239	2.0
100.0395	7.2
112.0397	1.6
116.0710	1.6
127.0505	2.7
130.0866	28.1
131.0902	2.1
143.1183	30.7
144.0295	1.7
144.1220	2.6
169.0979	1.5
185.0927	6.9
187.1085	10.0
199.1450	2.1
225.1240	2.1
277.2546	1.3
316.2646	1.3
317.2478	3.6
330.2809	2.2
461.3757	4.7
462.3768	1.8
473.2735	1.4
475.2899	7.2
475.3217	3.3
503.3503	2.3
504.3563	8.4
504.3679	3.8
505.2981	2.4
505.3658	51.1
506.3693	16.5
507.2795	81.1
507.2857	3.4
507.3729	1.9
507.3800	2.0

Name: Ornithine + alphaMCA
PrecursorMZ: 521.36026
RT: 8.413
ExactMass: 522.36688732
Spectrum_type: 2
charge: -1
Formula: C29H50N2O6
SMILES: C[C@H](CCC(=O)N[C@@H](CCCN)C(=O)O)[C@H]1CC[C@@H]2[C@@]1(CC[C@H]3[C@H]2[C@@H]([C@H]([C@H]4[C@@]3(CC[C@H](C4)O)C)O)O)C
Method: HCD
Collision_energy: [28.333334]
Isolation_window: 4.0
Ion_mode: N
Num Peaks: 14
88.0395	22.3
115.0869	4.9
130.0866	1.3
157.1340	5.9
159.0769	100.0
160.0806	5.9
201.1241	91.4
202.1275	7.5
229.1554	1.3
431.2257	2.9
521.2295	1.9
521.3795	4.8
522.4105	1.1
523.3052	1.7

Name: Oxindole-3-acetic acid
PrecursorMZ: 190.05039
RT: 3.428733333333333
ExactMass: 191.058243149
Spectrum_type: 2
charge: -1
Formula: C10H9NO3
SMILES: C1=CC=C2C(=C1)C(C(=O)N2)CC(=O)O
Method: HCD
Collision_energy: [28.333334]
Isolation_window: 4.0
Ion_mode: N
Num Peaks: 18
102.9479	6.2
103.9193	0.7
111.0079	1.7
128.0497	3.4
131.0368	3.4
132.0454	0.9
144.0447	23.4
144.9221	0.8
145.0482	2.2
146.0358	0.8
146.0603	100.0
146.9377	2.1
147.0639	9.5
160.0399	0.7
162.0551	1.1
172.0397	5.5
190.0503	23.7
191.0537	2.9

Name: Oxypurinol
PrecursorMZ: 151.02555
RT: 7.5296
ExactMass: 152.03342538
Spectrum_type: 2
charge: -1
Formula: C5H4N4O2
SMILES: C1=NNC2=C1C(=O)NC(=O)N2
Method: HCD
Collision_energy: [28.333334]
Isolation_window: 4.0
Ion_mode: N
Num Peaks: 3
108.0196	27.0
151.0256	100.0
152.0295	4.6

Name: P-Cresol sulfate
PrecursorMZ: 187.00649
RT: 3.2622714285714287
ExactMass: 188.01432991
Spectrum_type: 2
charge: -1
Formula: C7H8O4S
SMILES: CC1=CC=C(C=C1)OS(=O)(=O)O
Method: HCD
Collision_energy: [28.333334]
Isolation_window: 4.0
Ion_mode: N
Num Peaks: 17
79.9564	26.7
80.9642	7.6
99.0806	4.4
107.0493	74.7
108.0526	5.2
125.0964	5.4
127.0757	4.0
129.0549	13.2
142.0865	16.5
144.9224	2.1
160.0506	3.5
185.0826	2.0
186.1128	6.7
187.0064	100.0
188.0097	7.7
189.0011	2.8
189.0763	11.4

Name: PA(14:0/0:0)
PrecursorMZ: 381.20496
RT: 7.343
ExactMass: 382.21204045
Spectrum_type: 2
charge: -1
Formula: C17H35O7P
SMILES: CCCCCCCCCCCCCC(=O)OC[C@H](COP(=O)(O)O)O
Method: HCD
Collision_energy: [28.333334]
Isolation_window: 4.0
Ion_mode: N
Num Peaks: 5
78.9581	16.5
88.0393	9.7
152.9951	100.0
381.2037	24.4
382.2950	7.0

Name: PA(18:0/18:0)
PrecursorMZ: 703.52737
RT: 11.7572
ExactMass: 704.53560641
Spectrum_type: 2
charge: -1
Formula: C39H77O8P
SMILES: CCCCCCCCCCCCCCCCCC(=O)OC[C@H](COP(=O)(O)O)OC(=O)CCCCCCCCCCCCCCCCC
Method: HCD
Collision_energy: [28.333334]
Isolation_window: 4.0
Ion_mode: N
Num Peaks: 5
149.0593	13.3
603.4388	15.1
703.5279	100.0
704.5309	47.5
705.5409	19.0

Name: PA(18:0/18:1(9Z))
PrecursorMZ: 701.5122
RT: 11.3709
ExactMass: 702.51995634
Spectrum_type: 2
charge: -1
Formula: C39H75O8P
SMILES: CCCCCCCCCCCCCCCCCC(=O)OC[C@H](COP(=O)(O)O)OC(=O)CCCCCCC/C=C\CCCCCCCC
Method: HCD
Collision_energy: [28.333334]
Isolation_window: 4.0
Ion_mode: N
Num Peaks: 6
69.0889	5.9
373.2736	14.9
391.2845	9.4
701.5130	100.0
702.5164	44.5
703.5216	14.9

Name: PC(18:3(9Z,12Z,15Z)/0:0)
PrecursorMZ: 721.50365
RT: 9.5676
ExactMass: 517.31683987
Spectrum_type: 2
charge: -1
Formula: C26H48NO7P
SMILES: CC/C=C\C/C=C\C/C=C\CCCCCCCC(=O)OC[C@H](COP(=O)([O-])OCC[N+](C)(C)C)O
Method: HCD
Collision_energy: [28.333334]
Isolation_window: 4.0
Ion_mode: N
Num Peaks: 25
78.9582	3.1
80.1700	1.6
97.4645	1.0
152.9953	8.1
171.0060	2.8
227.0321	1.2
227.2015	3.2
241.2172	2.3
255.2331	100.0
256.2366	16.8
257.2395	1.8
269.2490	1.2
283.2646	1.6
391.2259	1.2
465.2616	1.0
483.2734	1.2
719.4959	1.7
719.5209	1.5
719.5312	3.1
720.4953	2.8
720.5184	1.1
720.5297	1.5
721.5042	39.4
722.5071	15.9
723.5112	2.8

Name: PE(14:0/0:0)
PrecursorMZ: 424.24568
RT: 7.12696
ExactMass: 425.25423961
Spectrum_type: 2
charge: -1
Formula: C19H40NO7P
SMILES: CCCCCCCCCCCCCC(=O)OC[C@H](COP(=O)(O)OCCN)O
Method: HCD
Collision_energy: [28.333334]
Isolation_window: 4.0
Ion_mode: N
Num Peaks: 4
227.2005	100.0
228.2039	14.9
424.2457	25.8
425.2494	5.8

Name: PE(15:0/0:0)
PrecursorMZ: 438.26246
RT: 7.332895
ExactMass: 439.26988968
Spectrum_type: 2
charge: -1
Formula: C20H42NO7P
SMILES: CCCCCCCCCCCCCCC(=O)OC[C@H](COP(=O)(O)OCCN)O
Method: HCD
Collision_energy: [28.333334]
Isolation_window: 4.0
Ion_mode: N
Num Peaks: 13
78.9581	4.9
140.0109	3.6
146.0450	4.1
196.0374	10.2
241.2169	100.0
242.2204	15.5
391.2851	14.9
392.2883	4.5
437.2952	10.4
438.2615	38.4
439.2602	13.9
439.3138	2.7
440.2495	3.4

Name: PE(15:0/15:0)
PrecursorMZ: 662.47685
RT: 10.8157
ExactMass: 663.48390519
Spectrum_type: 2
charge: -1
Formula: C35H70NO8P
SMILES: CCCCCCCCCCCCCCC(=O)OC[C@H](COP(=O)(O)OCCN)OC(=O)CCCCCCCCCCCCCC
Method: HCD
Collision_energy: [28.333334]
Isolation_window: 4.0
Ion_mode: N
Num Peaks: 4
241.2168	100.0
242.2203	13.1
662.4762	25.8
663.4791	10.4

Name: PE(15:0/18:0)
PrecursorMZ: 704.52373
RT: 10.7988
ExactMass: 705.53085538
Spectrum_type: 2
charge: -1
Formula: C38H76NO8P
SMILES: CCCCCCCCCCCCCCCCCC(=O)O[C@H](COC(=O)CCCCCCCCCCCCCC)COP(=O)(O)OCCN
Method: HCD
Collision_energy: [28.333334]
Isolation_window: 4.0
Ion_mode: N
Num Peaks: 12
78.2781	2.3
78.2832	4.3
78.9581	69.1
96.9592	2.0
96.9686	5.1
152.9951	50.6
171.0057	87.4
172.0090	1.9
703.4658	3.3
704.5247	100.0
705.5281	42.1
706.5389	45.1

Name: PE(15:0/18:1); (M-H)- C38H73N1O8P1
PrecursorMZ: 702.51025
RT: 11.1695
Spectrum_type: 2
charge: -1
Method: HCD
Collision_energy: [28.333334]
Isolation_window: 4.0
Ion_mode: N
Num Peaks: 24
61.9874	3.6
78.9581	11.6
140.0111	6.5
152.9952	3.1
196.0372	3.0
227.2014	6.5
239.2379	4.4
241.2171	65.3
242.2207	10.7
253.2172	3.3
255.2330	3.4
267.2340	3.5
279.2326	4.0
281.2486	100.0
282.2522	17.9
367.2599	4.0
375.2316	6.8
617.4588	3.2
639.4959	9.6
640.5019	3.2
701.4849	5.6
702.5072	45.4
703.5057	19.5
704.4932	9.7

Name: PE(16:0/0:0); (M-H)- C21H43N1O7P1
PrecursorMZ: 452.27865
RT: 7.805418181818181
Spectrum_type: 2
charge: -1
Method: HCD
Collision_energy: [28.333334]
Isolation_window: 4.0
Ion_mode: N
Num Peaks: 15
50.2518	0.7
50.2544	1.5
78.9581	3.9
140.0111	3.1
152.9948	1.1
196.0375	10.3
214.0483	1.7
255.1770	0.7
255.2328	100.0
255.2885	0.8
256.2362	16.6
257.2389	1.1
452.2784	35.1
453.2816	8.6
454.2853	1.0

Name: PE(16:0/16:0); (M-H)- C37H73N1O8P1
PrecursorMZ: 690.50879
RT: 9.0354
Spectrum_type: 2
charge: -1
Method: HCD
Collision_energy: [28.333334]
Isolation_window: 4.0
Ion_mode: N
Num Peaks: 14
76.7259	1.8
78.9582	5.7
97.4642	1.4
152.9952	14.0
227.2015	1.1
241.2173	8.3
242.2208	1.1
255.2331	100.0
256.2365	16.5
434.2682	1.9
452.2805	1.1
690.5096	39.9
691.5082	20.2
692.5094	3.9

Name: PE(16:0/18:1); (M-H)- C39H75N1O8P1
PrecursorMZ: 716.52357
RT: 11.3243
Spectrum_type: 2
charge: -1
Method: HCD
Collision_energy: [28.333334]
Isolation_window: 4.0
Ion_mode: N
Num Peaks: 16
61.9875	2.5
78.9582	8.2
140.0111	5.8
152.9951	7.0
196.0376	2.9
241.2175	7.0
255.2329	100.0
256.2363	15.5
267.2332	5.0
269.2485	3.6
281.2487	83.4
282.2523	15.7
715.4945	3.3
716.5247	52.5
717.5284	21.6
718.5239	4.8

Name: PE(16:0/18:2); (M-H)- C39H73N1O8P1
PrecursorMZ: 714.50854
RT: 11.0424
Spectrum_type: 2
charge: -1
Method: HCD
Collision_energy: [28.333334]
Isolation_window: 4.0
Ion_mode: N
Num Peaks: 12
61.9874	21.2
78.9580	7.1
152.9951	18.6
253.2174	6.5
255.2328	100.0
256.2360	13.3
279.2326	36.6
280.2357	6.0
281.2474	7.2
714.5078	57.6
715.5134	27.8
716.5230	9.8

Name: PE(17:0/0:0)
PrecursorMZ: 466.29228
RT: 7.8235
ExactMass: 467.3011898
Spectrum_type: 2
charge: -1
Formula: C22H46NO7P
SMILES: CCCCCCCCCCCCCCCCC(=O)OC[C@H](COP(=O)(O)OCCN)O
Method: HCD
Collision_energy: [28.333334]
Isolation_window: 4.0
Ion_mode: N
Num Peaks: 12
78.9580	9.8
140.0109	7.8
196.0379	5.9
255.2329	7.5
267.2329	16.3
268.2369	7.7
269.2485	100.0
270.2517	16.0
464.2794	5.4
466.2950	38.1
467.2984	7.3
468.3095	22.0

Name: PE(18:0/0:0); (M-H)- C23H47N1O7P1
PrecursorMZ: 480.30699
RT: 8.2794
Spectrum_type: 2
charge: -1
Method: HCD
Collision_energy: [28.333334]
Isolation_window: 4.0
Ion_mode: N
Num Peaks: 19
53.3695	0.9
78.9581	2.5
97.3374	0.9
140.0111	1.4
152.9953	1.4
195.0060	0.8
196.0378	1.7
214.0481	2.6
281.2486	3.4
282.2526	2.9
283.2643	100.0
284.2677	17.2
285.2707	1.3
461.2684	1.6
478.2910	0.9
479.2832	1.4
479.3477	2.9
480.3090	27.7
481.3067	6.1

Name: PE(18:0/18:1); (M-H)- C41H79N1O8P1
PrecursorMZ: 744.55638
RT: 11.515
Spectrum_type: 2
charge: -1
Method: HCD
Collision_energy: [28.333334]
Isolation_window: 4.0
Ion_mode: N
Num Peaks: 15
78.9581	9.3
152.9951	36.6
255.2329	50.6
256.2364	7.4
279.2331	7.0
281.2486	50.3
282.2522	10.1
283.2643	100.0
284.2676	18.3
309.2799	8.5
742.5348	3.1
743.5343	21.0
744.5541	59.4
745.5629	25.1
746.5515	3.6

Name: PE(18:0/18:2(9Z,12Z))
PrecursorMZ: 742.54179
RT: 11.4754
ExactMass: 743.54650544
Spectrum_type: 2
charge: -1
Formula: C41H78NO8P
SMILES: CCCCCCCCCCCCCCCCCC(=O)OC[C@H](COP(=O)(O)OCCN)OC(=O)CCCCCCC/C=C\C/C=C\CCCCC
Method: HCD
Collision_energy: [28.333334]
Isolation_window: 4.0
Ion_mode: N
Num Peaks: 16
61.9874	4.5
74.0239	7.6
78.9581	9.5
152.9951	29.9
255.2328	40.6
279.2327	11.7
280.2367	4.8
281.2485	100.0
282.2520	18.9
283.2642	22.4
284.2660	4.2
349.2873	5.1
741.5286	12.6
742.5367	55.1
743.5379	40.1
744.5276	21.7

Name: PE(18:0/9-Hode)
PrecursorMZ: 758.53475
RT: 9.3226
ExactMass: 759.54142006
Spectrum_type: 2
charge: -1
Formula: C41H78NO9P
SMILES: CCCCCCCCCCCCCCCCCC(=O)OCC(COP(=O)(O)OCCN)OC(=O)CCCCCCCC(/C=C/C=C\CCCCC)O
Method: HCD
Collision_energy: [28.333334]
Isolation_window: 4.0
Ion_mode: N
Num Peaks: 5
61.9876	100.0
281.2490	15.3
282.2523	3.3
757.5393	7.0
758.5421	4.0

Name: PE(18:1(9Z)/0:0)
PrecursorMZ: 478.2941
RT: 8.034142857142857
ExactMass: 479.3011898
Spectrum_type: 2
charge: -1
Formula: C23H46NO7P
SMILES: CCCCCCCC/C=C\CCCCCCCC(=O)OC[C@H](COP(=O)(O)OCCN)O
Method: HCD
Collision_energy: [28.333334]
Isolation_window: 4.0
Ion_mode: N
Num Peaks: 8
78.9581	4.4
140.0110	3.7
196.0374	12.6
214.0479	2.3
281.2485	100.0
282.2518	17.3
478.2940	37.9
479.2972	9.5

Name: PE(18:1(9Z)/18:4(6Z,9Z,12Z,15Z))
PrecursorMZ: 736.49265
RT: 10.3208
ExactMass: 737.49955525
Spectrum_type: 2
charge: -1
Formula: C41H72NO8P
SMILES: CCCCCCCC/C=C\CCCCCCCC(=O)OC[C@H](COP(=O)(O)OCCN)OC(=O)CCCC/C=C\C/C=C\C/C=C\C/C=C\CC
Method: HCD
Collision_energy: [28.333334]
Isolation_window: 4.0
Ion_mode: N
Num Peaks: 17
78.9581	16.3
81.8353	3.6
96.9591	4.0
152.9951	39.8
171.0055	4.6
277.2172	80.6
278.2207	15.5
279.2328	100.0
280.2361	19.2
281.2482	4.6
480.2801	4.3
689.5364	6.7
734.5132	6.5
735.5026	19.0
736.4938	89.8
737.4964	42.6
738.4977	7.9

Name: PE(18:1/18:1); (M-H)- C41H77N1O8P1
PrecursorMZ: 742.54047
RT: 11.533
Spectrum_type: 2
charge: -1
Method: HCD
Collision_energy: [28.333334]
Isolation_window: 4.0
Ion_mode: N
Num Peaks: 13
61.9874	2.2
78.9581	4.7
140.0110	4.2
152.9951	3.5
196.0373	2.4
255.2330	5.1
279.2336	2.5
281.2486	100.0
282.2521	17.5
283.2641	5.3
742.5400	28.8
743.5421	16.5
744.5416	3.1

Name: PE(18:1/18:2); (M-H)- C41H75N1O8P1
PrecursorMZ: 740.52458
RT: 10.9124
Spectrum_type: 2
charge: -1
Method: HCD
Collision_energy: [28.333334]
Isolation_window: 4.0
Ion_mode: N
Num Peaks: 14
78.9581	9.9
82.2833	2.9
152.9952	33.8
279.2331	100.0
280.2364	21.5
281.2487	77.3
282.2520	12.9
458.2682	1.9
460.2831	3.1
738.5082	2.7
739.5112	7.0
740.5245	64.3
741.5283	31.5
742.5348	7.0

Name: PE(18:2/0:0); (M-H)- C23H43N1O7P1
PrecursorMZ: 476.27869
RT: 7.65998
Spectrum_type: 2
charge: -1
Method: HCD
Collision_energy: [28.333334]
Isolation_window: 4.0
Ion_mode: N
Num Peaks: 18
52.9184	0.5
52.9213	1.3
78.9581	2.0
140.0111	1.7
152.9952	0.7
196.0377	1.5
214.0483	3.2
279.1696	0.7
279.1823	0.5
279.2331	100.0
279.2839	0.6
279.2969	0.7
280.2364	18.9
281.2398	1.5
475.3100	0.7
476.2787	28.7
477.2791	7.3
478.2819	1.2

Name: PE(P-16:0/18:1); (M-H)- C39H75N1O7P1
PrecursorMZ: 700.52551
RT: 11.5638
Spectrum_type: 2
charge: -1
Method: HCD
Collision_energy: [28.333334]
Isolation_window: 4.0
Ion_mode: N
Num Peaks: 17
77.8392	1.8
78.9581	4.7
140.0111	4.1
196.0376	3.5
241.2171	9.3
255.2329	100.0
256.2363	14.5
267.2331	6.3
269.2484	1.9
281.2487	25.3
282.2524	3.6
444.2889	2.6
462.2990	5.1
653.5147	2.7
700.5295	41.8
701.5347	17.6
702.5390	3.1

Name: PG 38:6
PrecursorMZ: 793.504
RT: 10.6644
Spectrum_type: 2
charge: -1
SMILES: CCCCC\C=C/C\C=C/CCCCCCCC(=O)OCC(COP(O)(=O)OCC(O)CO)OC(=O)CCCCCC\C=C/C\C=C/C\C=C/C\C=C/CC
Method: HCD
Collision_energy: [28.333334]
Isolation_window: 4.0
Ion_mode: N
Num Peaks: 13
99.0075	54.4
125.0961	21.6
179.1068	25.7
185.1169	36.8
197.1172	25.0
207.1018	22.2
225.1124	63.8
281.2473	62.3
749.5150	20.7
775.5003	26.9
793.5085	100.0
794.5119	51.0
795.5082	25.8

Name: PG(14:0/14:0)
PrecursorMZ: 665.43967
RT: 11.5926
ExactMass: 666.44718533
Spectrum_type: 2
charge: -1
Formula: C34H67O10P
SMILES: CCCCCCCCCCCCCC(=O)OC[C@H](COP(=O)(O)OC[C@H](CO)O)OC(=O)CCCCCCCCCCCCC
Method: HCD
Collision_energy: [28.333334]
Isolation_window: 4.0
Ion_mode: N
Num Peaks: 12
69.0230	2.3
73.9358	2.0
73.9405	3.8
96.9587	14.0
115.9192	2.2
381.2096	3.5
382.2127	1.9
663.4633	16.0
664.4674	21.8
665.4438	100.0
666.4487	33.6
667.4543	13.6

Name: PG(14:0/16:0)
PrecursorMZ: 693.47033
RT: 10.1139
ExactMass: 694.47848546
Spectrum_type: 2
charge: -1
Formula: C36H71O10P
SMILES: CCCCCCCCCCCCCCCC(=O)O[C@H](COC(=O)CCCCCCCCCCCCC)COP(=O)(O)OC[C@H](CO)O
Method: HCD
Collision_energy: [28.333334]
Isolation_window: 4.0
Ion_mode: N
Num Peaks: 27
61.9872	4.9
69.1271	2.7
69.2566	1.9
77.0500	2.0
77.0550	4.2
77.1664	1.7
152.9943	4.7
241.2160	34.4
242.2194	7.1
255.2318	11.6
256.2351	3.3
257.1903	1.8
275.2005	11.0
276.2038	1.6
301.1797	2.8
319.1901	46.3
320.1933	7.4
373.2734	9.5
374.2768	2.7
391.2851	2.5
691.4479	3.7
691.4885	11.0
692.4565	5.1
692.4887	11.7
693.4712	100.0
694.4747	41.5
695.4790	10.6

Name: PG(16:0/16:0)
PrecursorMZ: 721.50231
RT: 11.2371
ExactMass: 722.50978558
Spectrum_type: 2
charge: -1
Formula: C38H75O10P
SMILES: CCCCCCCCCCCCCCCC(=O)OC[C@H](COP(=O)(O)OC[C@H](CO)O)OC(=O)CCCCCCCCCCCCCCC
Method: HCD
Collision_energy: [28.333334]
Isolation_window: 4.0
Ion_mode: N
Num Peaks: 9
78.9581	1.2
80.1697	1.4
152.9951	6.0
255.2328	100.0
256.2363	15.6
257.2386	1.3
721.5032	30.6
722.5065	13.0
723.5113	2.1

Name: PG(16:0/17:0)
PrecursorMZ: 735.51796
RT: 10.2616
ExactMass: 736.52543565
Spectrum_type: 2
charge: -1
Formula: C39H77O10P
SMILES: CCCCCCCCCCCCCCCCC(=O)O[C@H](COC(=O)CCCCCCCCCCCCCCC)COP(=O)(O)OC[C@H](CO)O
Method: HCD
Collision_energy: [28.333334]
Isolation_window: 4.0
Ion_mode: N
Num Peaks: 12
61.9872	5.7
87.0438	11.0
361.2369	8.8
373.2735	16.9
391.2844	9.9
647.4653	6.5
648.4737	4.2
733.5400	5.0
734.5318	5.2
735.5181	100.0
736.5225	47.2
737.5312	17.0

Name: PG(16:0/18:0)
PrecursorMZ: 749.53214
RT: 10.2991
ExactMass: 750.54108571
Spectrum_type: 2
charge: -1
Formula: C40H79O10P
SMILES: CCCCCCCCCCCCCCCCCC(=O)O[C@H](COC(=O)CCCCCCCCCCCCCCC)COP(=O)(O)OC[C@H](CO)O
Method: HCD
Collision_energy: [28.333334]
Isolation_window: 4.0
Ion_mode: N
Num Peaks: 19
74.0239	4.0
78.9581	5.2
83.2847	2.4
152.9952	16.6
255.2331	100.0
256.2365	19.9
257.2400	1.6
281.2486	3.7
282.2529	1.8
283.2646	69.3
284.2678	12.7
747.5129	3.0
747.5276	2.3
748.5196	7.8
749.5349	55.0
750.5246	17.1
750.5316	29.5
751.5187	4.7
751.5281	6.5

Name: PG(16:0/18:1(9Z))
PrecursorMZ: 747.51561
RT: 9.8207
ExactMass: 748.52543565
Spectrum_type: 2
charge: -1
Formula: C40H77O10P
SMILES: CCCCCCCCCCCCCCCC(=O)OC[C@H](COP(=O)(O)OC[C@H](CO)O)OC(=O)CCCCCCC/C=C\CCCCCCCC
Method: HCD
Collision_energy: [28.333334]
Isolation_window: 4.0
Ion_mode: N
Num Peaks: 26
61.9872	6.6
69.3627	1.7
73.0283	3.2
78.9578	3.6
82.9510	2.2
83.1753	4.3
87.0439	5.2
97.4657	2.1
152.9946	10.5
171.0053	3.3
241.2163	6.9
255.2320	82.5
256.2353	13.5
271.2273	1.9
279.2327	2.3
281.2476	41.7
282.2511	7.9
283.2630	2.9
464.2825	53.6
465.2861	10.7
745.5049	1.9
746.5374	41.6
747.5196	49.6
747.5312	36.2
748.5508	100.0
749.5549	29.6

Name: PG(16:1(9Z)/16:1(9Z))
PrecursorMZ: 717.47133
RT: 9.6871
ExactMass: 718.47848546
Spectrum_type: 2
charge: -1
Formula: C38H71O10P
SMILES: CCCCCC/C=C\CCCCCCCC(=O)OC[C@H](COP(=O)(O)OC[C@H](CO)O)OC(=O)CCCCCCC/C=C\CCCCCC
Method: HCD
Collision_energy: [28.333334]
Isolation_window: 4.0
Ion_mode: N
Num Peaks: 11
59.0130	16.8
69.0102	16.9
71.0130	16.6
89.0236	19.9
101.0235	19.9
119.0344	25.9
239.2017	15.1
267.2335	36.9
491.4034	16.0
717.4741	100.0
718.4777	39.7

Name: PG(18:1(9Z)/18:1(9Z))
PrecursorMZ: 773.5329
RT: 10.995
ExactMass: 774.54108571
Spectrum_type: 2
charge: -1
Formula: C42H79O10P
SMILES: CCCCCCCC/C=C\CCCCCCCC(=O)OC[C@H](COP(=O)(O)OC[C@H](CO)O)OC(=O)CCCCCCC/C=C\CCCCCCCC
Method: HCD
Collision_energy: [28.333334]
Isolation_window: 4.0
Ion_mode: N
Num Peaks: 11
61.9875	100.0
74.0238	2.9
255.2332	2.3
277.2170	2.5
278.2203	1.3
279.2322	1.2
710.5367	7.7
711.5409	3.1
771.4936	1.3
772.4968	2.7
775.5198	2.3

Name: PG(18:1/18:2); (M-H)- C42H76O10P1
PrecursorMZ: 771.51835
RT: 11.124933333333333
Spectrum_type: 2
charge: -1
Method: HCD
Collision_energy: [28.333334]
Isolation_window: 4.0
Ion_mode: N
Num Peaks: 14
61.9875	4.9
78.9581	2.7
85.7275	2.5
152.9951	16.7
255.2331	8.5
279.2331	97.6
280.2365	17.1
281.2488	100.0
282.2522	16.1
283.2633	2.0
770.5345	6.0
771.5201	59.3
772.5259	30.1
773.5281	6.2

Name: PG(18:2(9Z,12Z)/18:1(9Z))
PrecursorMZ: 771.51839
RT: 10.5153
ExactMass: 772.52543565
Spectrum_type: 2
charge: -1
Formula: C42H77O10P
SMILES: CCCCCCCC/C=C\CCCCCCCC(=O)O[C@H](COC(=O)CCCCCCC/C=C\C/C=C\CCCCC)COP(=O)(O)OC[C@H](CO)O
Method: HCD
Collision_energy: [28.333334]
Isolation_window: 4.0
Ion_mode: N
Num Peaks: 4
448.2602	100.0
449.2641	31.9
771.5180	60.7
772.5217	31.7

Name: PKC-iota inhibitor 1
PrecursorMZ: 373.17863
RT: 5.6461
ExactMass: 374.18550935
Spectrum_type: 2
charge: -1
Formula: C21H22N6O
SMILES: C1CN(CCN1)C2=CC=CC(=C2)C3=CC(=C(N=C3)N)C(=O)NC4=CC=NC=C4
Method: HCD
Collision_energy: [28.333334]
Isolation_window: 4.0
Ion_mode: N
Num Peaks: 10
78.9581	100.0
79.9563	3.4
96.9686	23.4
130.0866	3.8
155.0817	2.4
372.1973	4.1
373.1783	73.4
373.2702	5.2
374.1777	15.3
375.1851	7.3

Name: PMID26882240-Compound-6
PrecursorMZ: 434.19689
RT: 6.1764
ExactMass: 435.20457303
Spectrum_type: 2
charge: -1
Formula: C26H29NO5
SMILES: COC(=O)C1=CC(=C(C=C1)O)NC(=O)COC2=CC=C(C=C2)C34CC5CC(C3)CC(C5)C4
Method: HCD
Collision_energy: [28.333334]
Isolation_window: 4.0
Ion_mode: N
Num Peaks: 3
434.1973	100.0
435.2005	27.7
436.2034	3.8

Name: PS(18:1(9Z)/0:0)
PrecursorMZ: 522.28416
RT: 7.8811333333333335
ExactMass: 523.29101904
Spectrum_type: 2
charge: -1
Formula: C24H46NO9P
SMILES: CCCCCCCC/C=C\CCCCCCCC(=O)OC[C@H](COP(=O)(O)OC[C@@H](C(=O)O)N)O
Method: HCD
Collision_energy: [28.333334]
Isolation_window: 4.0
Ion_mode: N
Num Peaks: 14
78.9581	21.9
96.9686	1.8
152.9951	100.0
153.9985	2.8
171.0058	3.0
255.2329	1.5
281.2486	2.4
435.2519	23.9
436.2553	4.7
521.3578	1.8
522.2837	30.7
523.2866	7.1
523.3637	2.0
524.2929	1.5

Name: PS(18:1/9-Hode)
PrecursorMZ: 800.50918
RT: 9.2754
ExactMass: 801.51559924
Spectrum_type: 2
charge: -1
Formula: C42H76NO11P
SMILES: CCCCCCCC/C=C\CCCCCCCC(=O)OCC(COP(=O)(O)OCC(C(=O)O)N)OC(=O)CCCCCCCC(/C=C/C=C\CCCCC)O
Method: HCD
Collision_energy: [28.333334]
Isolation_window: 4.0
Ion_mode: N
Num Peaks: 15
78.9581	20.2
88.9485	4.0
152.9950	53.7
183.1382	5.7
201.1128	11.3
277.2172	4.7
279.2328	100.0
280.2363	16.3
295.2278	12.2
313.2383	37.6
314.2418	6.3
799.4759	6.4
800.5095	86.5
801.5109	38.0
802.5174	7.0

Name: Palmitelaidic acid
PrecursorMZ: 253.21708
RT: 9.2505
ExactMass: 254.224580195
Spectrum_type: 2
charge: -1
Formula: C16H30O2
SMILES: CCCCCC/C=C/CCCCCCCC(=O)O
Method: HCD
Collision_energy: [28.333334]
Isolation_window: 4.0
Ion_mode: N
Num Peaks: 3
253.2170	100.0
254.2204	17.2
255.2274	1.3

Name: Paraxanthine
PrecursorMZ: 179.05688
RT: 3.686
ExactMass: 180.06472551
Spectrum_type: 2
charge: -1
Formula: C7H8N4O2
SMILES: CN1C=NC2=C1C(=O)N(C(=O)N2)C
Method: HCD
Collision_energy: [28.333334]
Isolation_window: 4.0
Ion_mode: N
Num Peaks: 71
58.0290	9.2
65.0136	26.9
65.9977	44.3
66.0340	23.3
67.0293	27.8
68.0133	38.3
77.0136	10.5
81.0449	27.0
82.0290	19.4
82.0401	41.8
83.0242	31.6
90.9972	13.9
91.0293	28.5
92.0246	13.2
93.0449	11.8
94.0289	14.7
95.0242	54.8
96.0082	32.5
97.0399	26.3
98.0239	22.5
98.0348	10.3
105.0450	11.7
106.0402	28.8
107.0243	31.8
107.0605	11.8
108.0198	9.2
108.0447	13.9
108.0558	16.8
109.0399	100.0
110.0239	38.9
110.0352	24.0
111.0193	16.2
118.0402	28.1
119.0243	26.5
120.0198	11.8
120.0561	10.1
121.0289	12.6
121.0400	25.6
121.0507	8.7
122.0352	22.7
123.0192	17.1
123.0556	19.1
124.0400	10.7
124.0508	17.6
125.0348	18.6
133.0400	15.1
134.0352	35.0
134.9872	43.4
135.0192	17.8
135.0557	17.9
136.0507	47.4
137.0350	59.1
137.0463	14.7
138.0302	13.6
138.0662	15.5
148.0509	12.6
150.0300	14.3
150.0666	22.0
151.0507	38.0
151.0616	10.3
152.0455	32.6
153.0299	30.4
153.0662	11.3
160.0509	14.0
161.0465	10.5
177.0777	9.3
178.0613	36.9
179.0575	18.7
180.0414	22.1
180.0768	12.7
181.0496	9.1

Name: Parcetasal
PrecursorMZ: 358.09317
RT: 7.4573
ExactMass: 313.09502258
Spectrum_type: 2
charge: -1
Formula: C17H15NO5
SMILES: CC(=O)NC1=CC=C(C=C1)OC2(OC3=CC=CC=C3C(=O)O2)C
Method: HCD
Collision_energy: [28.333334]
Isolation_window: 4.0
Ion_mode: N
Num Peaks: 5
297.0768	32.9
309.0640	24.3
312.1000	53.5
358.0933	100.0
359.0958	22.4

Name: Pentalenolactone D
PrecursorMZ: 263.12875
RT: 6.0379
ExactMass: 264.13615911
Spectrum_type: 2
charge: -1
Formula: C15H20O4
SMILES: C[C@@H]1C(=O)OC[C@@H]2[C@]13CC(C[C@H]3C=C2C(=O)O)(C)C
Method: HCD
Collision_energy: [28.333334]
Isolation_window: 4.0
Ion_mode: N
Num Peaks: 9
73.0285	23.9
164.0706	11.6
189.0915	22.5
219.1386	45.4
221.1539	14.3
262.1446	9.8
263.1285	100.0
264.1315	16.7
265.1508	15.0

Name: Pentoxazone
PrecursorMZ: 352.07576
RT: 6.0676
ExactMass: 353.0830139
Spectrum_type: 2
charge: -1
Formula: C17H17ClFNO4
SMILES: CC(=C1C(=O)N(C(=O)O1)C2=CC(=C(C=C2F)Cl)OC3CCCC3)C
Method: HCD
Collision_energy: [28.333334]
Isolation_window: 4.0
Ion_mode: N
Num Peaks: 7
63.9615	6.8
79.9563	20.2
171.9828	4.1
352.0758	100.0
353.0788	20.2
354.0731	3.0
354.0760	3.0

Name: Peonidin-3-O-beta-galactoside
PrecursorMZ: 461.10907
RT: 4.7764
ExactMass: 462.11621151
Spectrum_type: 2
charge: -1
Formula: C22H22O11
SMILES: COC1=C(C=CC(=C1)C2=C(C=C3C(=CC(=O)C=C3O2)O)OC4C(C(C(C(O4)CO)O)O)O)O
Method: HCD
Collision_energy: [28.333334]
Isolation_window: 4.0
Ion_mode: N
Num Peaks: 4
89.0234	13.1
91.0391	100.0
221.0450	44.1
239.0558	82.2

Name: Perfluoroheptanoic acid
PrecursorMZ: 362.96995
RT: 5.47281
ExactMass: 363.9768954
Spectrum_type: 2
charge: -1
Formula: C7HF13O2
SMILES: C(=O)(C(C(C(C(C(C(F)(F)F)(F)F)(F)F)(F)F)(F)F)(F)F)O
Method: HCD
Collision_energy: [28.333334]
Isolation_window: 4.0
Ion_mode: N
Num Peaks: 15
118.9917	26.3
153.0736	9.1
168.9887	63.2
171.0839	21.3
171.1014	60.0
172.1048	5.9
187.0794	7.8
197.1179	11.8
217.0900	10.2
318.9797	100.0
319.9827	6.3
343.1954	4.4
361.2058	85.9
362.2089	22.6
363.2083	7.2

Name: Perfluorohexanoic Acid
PrecursorMZ: 312.973
RT: 4.825324999999999
ExactMass: 313.98008905
Spectrum_type: 2
charge: -1
Formula: C6HF11O2
SMILES: C(=O)(C(C(C(C(C(F)(F)F)(F)F)(F)F)(F)F)(F)F)O
Method: HCD
Collision_energy: [28.333334]
Isolation_window: 4.0
Ion_mode: N
Num Peaks: 8
118.9916	21.4
268.9830	100.0
269.9861	5.2
311.1614	6.0
314.1184	10.1
314.1435	7.0
314.6207	5.0
315.1271	65.6

Name: Perfluorooctanoic acid
PrecursorMZ: 412.96722
RT: 5.9497875
ExactMass: 413.9737017
Spectrum_type: 2
charge: -1
Formula: C8HF15O2
SMILES: C(=O)(C(C(C(C(C(C(C(F)(F)F)(F)F)(F)F)(F)F)(F)F)(F)F)(F)F)O
Method: HCD
Collision_energy: [28.333334]
Isolation_window: 4.0
Ion_mode: N
Num Peaks: 12
78.9582	2.5
118.9920	1.5
152.9953	21.9
168.9889	9.1
185.1543	100.0
186.1577	11.0
218.9862	1.9
227.0324	5.5
368.9773	8.6
411.2383	1.5
413.1956	61.9
414.1979	10.6

Name: Petroselinic Acid
PrecursorMZ: 281.24821
RT: 10.3896
ExactMass: 282.255880323
Spectrum_type: 2
charge: -1
Formula: C18H34O2
SMILES: CCCCCCCCCCC/C=C\CCCCC(=O)O
Method: HCD
Collision_energy: [28.333334]
Isolation_window: 4.0
Ion_mode: N
Num Peaks: 3
281.2483	10.7
282.2519	2.3
283.2638	100.0

Name: Pga1
PrecursorMZ: 335.22328
RT: 7.5323
ExactMass: 336.2300595
Spectrum_type: 2
charge: -1
Formula: C20H32O4
SMILES: CCCCC[C@@H](/C=C/[C@H]1C=CC(=O)[C@@H]1CCCCCCC(=O)O)O
Method: HCD
Collision_energy: [28.333334]
Isolation_window: 4.0
Ion_mode: N
Num Peaks: 11
109.0651	5.3
113.0965	8.8
127.1123	4.2
163.1123	6.5
191.1438	7.9
209.1183	14.7
209.1535	4.4
221.1183	10.4
333.2072	6.2
335.2233	100.0
336.2270	21.3

Name: Pha-793887
PrecursorMZ: 396.21747
RT: 10.3244
ExactMass: 361.24777525
Spectrum_type: 2
charge: -1
Formula: C19H31N5O2
SMILES: CC(C)CC(=O)NC1=NNC2=C1CN(C2(C)C)C(=O)C3CCN(CC3)C
Method: HCD
Collision_energy: [28.333334]
Isolation_window: 4.0
Ion_mode: N
Num Peaks: 8
311.1683	1.5
366.2194	2.3
395.2626	1.4
396.2177	100.0
397.2214	26.2
397.3090	2.0
397.3684	5.6
398.2246	2.9

Name: Phenol sulfate
PrecursorMZ: 172.99081
RT: 2.354433333333333
ExactMass: 173.99867984
Spectrum_type: 2
charge: -1
Formula: C6H6O4S
SMILES: C1=CC=C(C=C1)OS(=O)(=O)O
Method: HCD
Collision_energy: [28.333334]
Isolation_window: 4.0
Ion_mode: N
Num Peaks: 7
79.9564	11.5
93.0336	79.5
116.0707	9.8
130.0323	19.8
146.9606	16.9
172.9907	100.0
173.0231	25.6

Name: Phenylacetic Acid
PrecursorMZ: 135.04431
RT: 3.607
ExactMass: 136.052429494
Spectrum_type: 2
charge: -1
Formula: C8H8O2
SMILES: C1=CC=C(C=C1)CC(=O)O
Method: HCD
Collision_energy: [28.333334]
Isolation_window: 4.0
Ion_mode: N
Num Peaks: 7
91.0544	5.7
93.0336	7.4
107.0493	22.6
134.0364	15.6
135.0443	100.0
135.9700	10.2
136.0476	11.9

Name: Phenylalanine + CDCA
PrecursorMZ: 538.35417
RT: 7.1719
ExactMass: 539.36107366
Spectrum_type: 2
charge: -1
Formula: C33H49NO5
SMILES: C[C@H](CCC(=O)N[C@@H](CC1=CC=CC=C1)C(=O)O)[C@H]2CC[C@@H]3[C@@]2(CC[C@H]4[C@H]3[C@@H](C[C@H]5[C@@]4(CC[C@H](C5)O)C)O)C
Method: HCD
Collision_energy: [28.333334]
Isolation_window: 4.0
Ion_mode: N
Num Peaks: 14
59.8188	4.3
61.9874	3.3
96.9591	3.7
147.0442	8.2
164.0709	54.7
165.0745	4.9
372.2903	3.6
390.3014	5.1
536.3383	3.6
537.3414	9.7
538.3539	100.0
539.3577	34.2
540.2858	21.8
540.3603	2.9

Name: Phenylalanine + HDCA
PrecursorMZ: 538.3536
RT: 7.7748
ExactMass: 539.36107366
Spectrum_type: 2
charge: -1
Formula: C33H49NO5
SMILES: C[C@H](CCC(=O)N[C@@H](CC1=CC=CC=C1)C(=O)O)[C@H]2CC[C@@H]3[C@@]2(CC[C@H]4[C@H]3C[C@@H]([C@H]5[C@@]4(CC[C@H](C5)O)C)O)C
Method: HCD
Collision_energy: [28.333334]
Isolation_window: 4.0
Ion_mode: N
Num Peaks: 13
59.8154	2.1
59.8188	4.5
59.9303	1.5
147.0444	5.4
164.0710	40.6
165.0743	3.3
180.0659	8.9
372.2912	1.7
390.3016	5.2
537.3264	6.8
538.3540	100.0
539.3572	35.4
540.3646	5.1

Name: Phenylalanine + UDCA
PrecursorMZ: 538.35386
RT: 7.497625
ExactMass: 539.36107366
Spectrum_type: 2
charge: -1
Formula: C33H49NO5
SMILES: C[C@H](CCC(=O)N[C@@H](CC1=CC=CC=C1)C(=O)O)[C@H]2CC[C@@H]3[C@@]2(CC[C@H]4[C@H]3[C@H](C[C@H]5[C@@]4(CC[C@H](C5)O)C)O)C
Method: HCD
Collision_energy: [28.333334]
Isolation_window: 4.0
Ion_mode: N
Num Peaks: 13
59.8153	2.0
59.8188	4.3
59.9304	1.7
147.0445	4.6
164.0709	39.8
165.0746	2.7
180.0659	4.9
372.2901	2.2
390.3019	5.0
537.3356	4.7
538.3537	100.0
539.3572	43.9
540.3608	7.3

Name: Phenylalanine + alphaMCA
PrecursorMZ: 554.34922
RT: 6.0816
ExactMass: 555.35598828
Spectrum_type: 2
charge: -1
Formula: C33H49NO6
SMILES: C[C@H](CCC(=O)N[C@@H](CC1=CC=CC=C1)C(=O)O)[C@H]2CC[C@@H]3[C@@]2(CC[C@H]4[C@H]3[C@@H]([C@H]([C@H]5[C@@]4(CC[C@H](C5)O)C)O)O)C
Method: HCD
Collision_energy: [28.333334]
Isolation_window: 4.0
Ion_mode: N
Num Peaks: 11
61.5963	3.9
96.9591	14.1
147.0443	6.1
164.0711	45.6
165.0745	4.0
316.1356	2.8
406.2963	5.6
553.3258	32.0
554.3505	100.0
555.3558	35.7
556.3331	54.4

Name: Phenylalanine deoxycholic acid
PrecursorMZ: 538.35429
RT: 7.6351
ExactMass: 539.36107366
Spectrum_type: 2
charge: -1
Formula: C33H49NO5
SMILES: C[C@H](CCC(=O)N[C@@H](CC1=CC=CC=C1)C(=O)O)[C@H]2CC[C@@H]3[C@@]2([C@H](C[C@H]4[C@H]3CC[C@H]5[C@@]4(CC[C@H](C5)O)C)O)C
Method: HCD
Collision_energy: [28.333334]
Isolation_window: 4.0
Ion_mode: N
Num Peaks: 11
59.8155	2.2
59.8189	4.3
147.0445	7.7
164.0710	59.5
165.0745	4.5
372.2910	3.4
390.3019	7.2
391.3063	2.1
538.3541	100.0
539.3575	35.5
540.3599	4.6

Name: Phenylglyoxylic Acid
PrecursorMZ: 149.0238
RT: 2.7921
ExactMass: 150.031694049
Spectrum_type: 2
charge: -1
Formula: C8H6O3
SMILES: C1=CC=C(C=C1)C(=O)C(=O)O
Method: HCD
Collision_energy: [28.333334]
Isolation_window: 4.0
Ion_mode: N
Num Peaks: 7
95.0494	24.8
105.0338	53.5
120.0660	6.0
121.0289	15.9
148.0508	5.4
149.0239	100.0
150.0283	11.9

Name: Phenylparaben
PrecursorMZ: 213.05474
RT: 6.3286
ExactMass: 214.062994177
Spectrum_type: 2
charge: -1
Formula: C13H10O3
SMILES: C1=CC=C(C=C1)OC(=O)C2=CC=C(C=C2)O
Method: HCD
Collision_energy: [28.333334]
Isolation_window: 4.0
Ion_mode: N
Num Peaks: 10
93.0334	100.0
94.0368	6.2
122.8931	8.4
169.0648	9.8
186.8968	12.7
211.1331	7.1
213.0550	39.7
214.0583	6.5
215.0089	4.1
215.0503	4.9

Name: Phosphatidylcholine lyso 16:1
PrecursorMZ: 552.33058
RT: 8.9206
ExactMass: 493.31683987
Spectrum_type: 2
charge: -1
Formula: C24H48NO7P
SMILES: CCCCCCCCCCC/C=C\CCC(=O)OC(CO)COP(=O)([O-])OCC[N+](C)(C)C
Method: HCD
Collision_energy: [28.333334]
Isolation_window: 4.0
Ion_mode: N
Num Peaks: 9
78.9581	23.1
96.9686	1.9
152.9950	100.0
153.9984	2.4
171.0057	3.6
465.2987	24.7
466.3021	5.2
552.3290	28.2
553.3311	8.4

Name: Phosphoric Acid
PrecursorMZ: 390.90034
RT: 0.87
ExactMass: 97.97689557
Spectrum_type: 2
charge: -1
Formula: H3O4P
SMILES: OP(=O)(O)O
Method: HCD
Collision_energy: [28.333334]
Isolation_window: 4.0
Ion_mode: N
Num Peaks: 5
78.9579	4.4
96.9686	61.6
176.9352	39.6
194.9459	100.0
292.9237	9.3

Name: Phytolaccagenic acid
PrecursorMZ: 515.3372
RT: 7.0435
ExactMass: 516.34508925
Spectrum_type: 2
charge: -1
Formula: C31H48O6
SMILES: C[C@@]1(CC[C@@]2(CC[C@@]3(C(=CC[C@H]4[C@]3(CC[C@@H]5[C@@]4(CC[C@@H]([C@@]5(C)CO)O)C)C)[C@@H]2C1)C)C(=O)O)C(=O)OC
Method: HCD
Collision_energy: [28.333334]
Isolation_window: 4.0
Ion_mode: N
Num Peaks: 4
57.2613	4.3
515.3379	100.0
516.3417	31.0
517.3462	4.3

Name: Phytosphingosine acetamide
PrecursorMZ: 404.30191
RT: 7.954
ExactMass: 359.30355879
Spectrum_type: 2
charge: -1
Formula: C20H41NO4
SMILES: CCCCCCCCCCCCCC[C@H]([C@H]([C@H](CO)NC(=O)C)O)O
Method: HCD
Collision_energy: [28.333334]
Isolation_window: 4.0
Ion_mode: N
Num Peaks: 18
59.0130	9.1
100.0393	7.7
102.0551	25.3
114.0551	27.4
151.0254	6.7
255.2328	5.6
267.2327	16.4
271.2072	8.3
299.2378	10.1
322.2747	5.4
358.2964	100.0
359.2995	22.2
403.2064	19.9
403.2501	20.5
404.2083	5.6
404.2492	4.8
405.2645	44.3
406.2659	7.9

Name: Picras-4-en-16-one, 1,2,11,12,14,15-hexahydroxy-, (1beta,2alpha,9xi,11beta,12alpha,15beta)-
PrecursorMZ: 397.18698
RT: 5.0258
ExactMass: 398.19406791
Spectrum_type: 2
charge: -1
Formula: C20H30O8
SMILES: C[C@H]1[C@H]([C@@H](C2[C@@]3([C@]1([C@H](C(=O)O[C@@H]3CC4=C(C[C@@H]([C@H]([C@]24C)O)O)C)O)O)C)O)O
Method: HCD
Collision_energy: [28.333334]
Isolation_window: 4.0
Ion_mode: N
Num Peaks: 9
99.0442	52.6
187.1122	15.2
217.1230	100.0
218.1263	14.6
235.1338	12.3
279.1235	9.0
297.1345	5.3
397.1844	33.0
398.1881	6.2

Name: Pinastric acid
PrecursorMZ: 351.08595
RT: 7.528
ExactMass: 352.09468823
Spectrum_type: 2
charge: -1
Formula: C20H16O6
SMILES: COC1=CC=C(C=C1)C2=C(/C(=C(/C3=CC=CC=C3)\C(=O)OC)/OC2=O)O
Method: HCD
Collision_energy: [28.333334]
Isolation_window: 4.0
Ion_mode: N
Num Peaks: 6
241.0861	6.5
295.0243	4.4
295.0959	6.3
323.0909	11.5
351.0861	100.0
352.0897	19.7

Name: Pinolenic acid
PrecursorMZ: 277.2174
RT: 9.0988
ExactMass: 278.224580195
Spectrum_type: 2
charge: -1
Formula: C18H30O2
SMILES: CCCCC/C=C\C/C=C\CC/C=C\CCCC(=O)O
Method: HCD
Collision_energy: [28.333334]
Isolation_window: 4.0
Ion_mode: N
Num Peaks: 3
277.2170	100.0
278.1758	10.6
278.2201	16.3

Name: Piperolactam A
PrecursorMZ: 264.06674
RT: 5.8718
ExactMass: 265.07389321
Spectrum_type: 2
charge: -1
Formula: C16H11NO3
SMILES: COC1=C(C2=C3C(=C1)C(=O)NC3=CC4=CC=CC=C42)O
Method: HCD
Collision_energy: [28.333334]
Isolation_window: 4.0
Ion_mode: N
Num Peaks: 5
249.0429	100.0
250.0462	14.4
264.0666	54.0
265.0697	8.4
265.1483	8.8

Name: Pkc-IN-1
PrecursorMZ: 535.27168
RT: 5.6182
ExactMass: 500.30235061
Spectrum_type: 2
charge: -1
Formula: C25H37FN8O2
SMILES: C[C@H]1CN([C@@H](CN1C(=O)N2CC3=C(C2(C)C)NN=C3NC4=NC(=NC=C4F)C)C)CC5CCOCC5
Method: HCD
Collision_energy: [28.333334]
Isolation_window: 4.0
Ion_mode: N
Num Peaks: 6
59.4764	4.2
505.2617	37.8
506.2647	9.5
535.2720	100.0
536.2757	28.3
537.2864	76.2

Name: Platyphyllenone
PrecursorMZ: 295.13401
RT: 6.2769
ExactMass: 296.1412445
Spectrum_type: 2
charge: -1
Formula: C19H20O3
SMILES: C1=CC(=CC=C1CC/C=C/C(=O)CCC2=CC=C(C=C2)O)O
Method: HCD
Collision_energy: [28.333334]
Isolation_window: 4.0
Ion_mode: N
Num Peaks: 16
83.0493	100.0
84.0526	5.4
93.0337	3.2
119.0493	4.8
131.0494	3.6
163.0759	4.8
187.0759	4.2
188.0789	2.0
189.0915	97.7
190.0948	11.7
293.1181	6.0
294.1216	5.5
295.0630	4.0
295.1336	29.9
296.1372	6.4
297.1528	19.6

Name: Plumbagin
PrecursorMZ: 187.03957
RT: 5.2011
ExactMass: 188.047344113
Spectrum_type: 2
charge: -1
Formula: C11H8O3
SMILES: CC1=CC(=O)C2=C(C1=O)C=CC=C2O
Method: HCD
Collision_energy: [28.333334]
Isolation_window: 4.0
Ion_mode: N
Num Peaks: 22
61.9875	8.1
99.9249	6.8
99.9483	6.4
100.9526	11.1
119.0494	100.0
120.0524	4.6
125.0960	4.3
131.0495	9.1
141.8675	10.8
143.9380	6.2
144.9424	4.3
158.0366	9.0
159.0445	90.3
159.8780	6.6
160.0485	11.3
160.0761	79.2
161.0795	4.9
185.1177	5.8
187.0395	85.7
187.1336	4.9
188.0439	9.4
188.1111	4.2

Name: Polyporenic acid C (M+H)+
PrecursorMZ: 481.33242
RT: 10.289
ExactMass: 482.33960994
Spectrum_type: 2
charge: -1
Formula: C31H46O4
SMILES: CC(C)C(=C)CCC(C1C(CC2(C1(CC=C3C2=CCC4C3(CCC(=O)C4(C)C)C)C)C)O)C(=O)O
Method: HCD
Collision_energy: [28.333334]
Isolation_window: 4.0
Ion_mode: N
Num Peaks: 6
53.4828	4.6
233.1543	17.9
235.1700	15.9
481.3328	100.0
482.3361	34.7
483.3419	5.1

Name: Pomiferin
PrecursorMZ: 419.1508
RT: 7.0649
ExactMass: 420.15728848
Spectrum_type: 2
charge: -1
Formula: C25H24O6
SMILES: CC(=CCC1=C2C(=C3C(=C1O)C(=O)C(=CO3)C4=CC(=C(C=C4)O)O)C=CC(O2)(C)C)C
Method: HCD
Collision_energy: [28.333334]
Isolation_window: 4.0
Ion_mode: N
Num Peaks: 9
177.0190	11.6
191.0347	17.0
269.0823	71.8
270.0859	12.7
283.0980	16.5
311.0930	20.3
401.1398	13.3
419.1515	100.0
420.1561	29.3

Name: Pomolic Acid
PrecursorMZ: 471.34878
RT: 9.9509
ExactMass: 472.35526001
Spectrum_type: 2
charge: -1
Formula: C30H48O4
SMILES: C[C@@H]1CC[C@@]2(CC[C@@]3(C(=CC[C@H]4[C@]3(CC[C@@H]5[C@@]4(CC[C@@H](C5(C)C)O)C)C)[C@@H]2[C@]1(C)O)C)C(=O)O
Method: HCD
Collision_energy: [28.333334]
Isolation_window: 4.0
Ion_mode: N
Num Peaks: 33
50.5960	0.8
52.3707	0.4
52.3735	1.0
52.5945	1.5
52.5973	5.4
69.0534	0.4
71.0494	0.7
85.0287	0.4
85.0650	0.6
97.0653	0.4
133.0653	0.7
168.1151	1.7
200.1053	0.6
305.2492	0.4
315.2700	1.9
359.2600	6.1
409.3486	1.8
410.3525	0.6
411.3649	1.4
427.3590	1.9
428.3631	0.5
429.3752	1.1
453.3390	3.9
454.3419	1.2
455.3543	15.9
469.3343	0.4
470.3293	0.6
471.2790	0.4
471.3489	22.2
472.3525	7.2
473.3584	0.5
473.3646	100.0
473.5063	0.6

Name: Poricoic Acid A
PrecursorMZ: 497.32696
RT: 9.2385
ExactMass: 498.33452456
Spectrum_type: 2
charge: -1
Formula: C31H46O5
SMILES: CC(C)C(=C)CC[C@H]([C@H]1[C@@H](C[C@@]2([C@@]1(CC=C3C2=CC[C@H]([C@]3(C)CCC(=O)O)C(=C)C)C)C)O)C(=O)O
Method: HCD
Collision_energy: [28.333334]
Isolation_window: 4.0
Ion_mode: N
Num Peaks: 16
55.2602	4.4
172.0527	24.4
184.0528	28.4
185.0603	12.7
198.0681	3.6
199.0763	42.0
200.0797	4.8
297.2441	10.6
429.3382	5.8
461.3081	7.1
464.2944	5.9
479.3178	22.0
480.3214	6.1
497.3283	100.0
498.3316	31.6
499.3349	5.2

Name: Poricoic Acid B
PrecursorMZ: 483.3112
RT: 8.2491
ExactMass: 484.3188745
Spectrum_type: 2
charge: -1
Formula: C30H44O5
SMILES: CC(=CCC[C@H]([C@H]1[C@@H](C[C@@]2([C@@]1(CC=C3C2=CC[C@H]([C@]3(C)CCC(=O)O)C(=C)C)C)C)O)C(=O)O)C
Method: HCD
Collision_energy: [28.333334]
Isolation_window: 4.0
Ion_mode: N
Num Peaks: 5
108.0445	27.8
465.3014	17.9
482.3274	29.4
483.3121	100.0
484.3152	32.1

Name: Prednisolone
PrecursorMZ: 359.14891
RT: 8.4567
ExactMass: 360.19367399
Spectrum_type: 2
charge: -1
Formula: C21H28O5
SMILES: C[C@]12C[C@@H]([C@H]3[C@H]([C@@H]1CC[C@@]2(C(=O)CO)O)CCC4=CC(=O)C=C[C@]34C)O
Method: HCD
Collision_energy: [28.333334]
Isolation_window: 4.0
Ion_mode: N
Num Peaks: 13
231.1013	5.5
231.1741	2.3
232.0726	10.1
259.0967	1.8
297.1483	4.9
297.2205	3.2
315.1589	51.9
316.1621	10.8
359.1487	100.0
359.2155	12.3
360.1520	23.2
360.2165	2.6
361.1561	1.7

Name: Prednisolone Acetate
PrecursorMZ: 447.2024
RT: 5.884
ExactMass: 402.20423867
Spectrum_type: 2
charge: -1
Formula: C23H30O6
SMILES: CC(=O)OCC(=O)[C@]1(CC[C@@H]2[C@@]1(C[C@@H]([C@H]3[C@H]2CCC4=CC(=O)C=C[C@]34C)O)C)O
Method: HCD
Collision_energy: [28.333334]
Isolation_window: 4.0
Ion_mode: N
Num Peaks: 13
137.0599	71.6
138.0635	5.8
163.0393	47.0
181.0505	5.7
341.2113	7.3
359.2221	18.0
385.2022	21.3
386.2056	6.1
403.2130	20.5
446.2936	8.7
447.2015	100.0
448.2054	24.7
449.2644	6.1

Name: Prednisone
PrecursorMZ: 357.17083
RT: 7.6796
ExactMass: 358.17802393
Spectrum_type: 2
charge: -1
Formula: C21H26O5
SMILES: C[C@]12CC(=O)[C@H]3[C@H]([C@@H]1CC[C@@]2(C(=O)CO)O)CCC4=CC(=O)C=C[C@]34C
Method: HCD
Collision_energy: [28.333334]
Isolation_window: 4.0
Ion_mode: N
Num Peaks: 5
109.0285	43.6
247.1335	31.6
248.1368	4.1
357.1704	100.0
358.1737	25.0

Name: Prednisone acetate
PrecursorMZ: 445.18711
RT: 6.280049999999999
ExactMass: 400.18858861
Spectrum_type: 2
charge: -1
Formula: C23H28O6
SMILES: CC(=O)OCC(=O)[C@]1(CC[C@@H]2[C@@]1(CC(=O)[C@H]3[C@H]2CCC4=CC(=O)C=C[C@]34C)C)O
Method: HCD
Collision_energy: [28.333334]
Isolation_window: 4.0
Ion_mode: N
Num Peaks: 7
59.0129	54.4
61.9875	14.8
325.1441	31.3
343.1541	11.6
385.1664	14.5
445.1867	100.0
446.1911	24.6

Name: Pregn-4-en-18-al, 11,21-dihydroxy-3,20-dioxo-, (11beta)-
PrecursorMZ: 359.18641
RT: 7.9468
ExactMass: 360.19367399
Spectrum_type: 2
charge: -1
Formula: C21H28O5
SMILES: CC12CCC(=O)C=C1CCC3C2C(CC4(C3CCC4C(=O)CO)C=O)O
Method: HCD
Collision_energy: [28.333334]
Isolation_window: 4.0
Ion_mode: N
Num Peaks: 12
69.1741	5.7
79.9564	6.2
271.2068	100.0
272.2099	19.1
297.1865	10.5
315.1960	7.9
341.1759	27.2
342.1788	6.7
357.1980	7.9
357.6991	5.8
359.1862	96.1
360.1889	22.5

Name: Pregnanetriol
PrecursorMZ: 395.28002
RT: 10.1019
ExactMass: 336.26644501
Spectrum_type: 2
charge: -1
Formula: C21H36O3
SMILES: C[C@@H]([C@]1(CC[C@@H]2[C@@]1(CC[C@H]3[C@H]2CC[C@H]4[C@@]3(CC[C@H](C4)O)C)C)O)O
Method: HCD
Collision_energy: [28.333334]
Isolation_window: 4.0
Ion_mode: N
Num Peaks: 9
59.0129	100.0
83.0491	19.5
267.2690	43.5
311.1686	10.5
326.1871	12.7
351.3271	24.4
395.2630	11.9
395.3166	15.9
397.2257	11.8

Name: Pregnenolone sulfate
PrecursorMZ: 395.19016
RT: 6.8093
ExactMass: 396.19704529
Spectrum_type: 2
charge: -1
Formula: C21H32O5S
SMILES: CC(=O)[C@H]1CC[C@@H]2[C@@]1(CC[C@H]3[C@H]2CC=C4[C@@]3(CC[C@@H](C4)OS(=O)(=O)O)C)C
Method: HCD
Collision_energy: [28.333334]
Isolation_window: 4.0
Ion_mode: N
Num Peaks: 12
96.9592	29.8
347.2867	1.2
349.2392	1.4
393.2297	9.9
393.2922	40.8
394.2321	4.7
394.2944	6.2
395.1901	100.0
395.2357	3.9
396.1935	24.4
396.2699	1.0
397.1898	5.0

Name: Pristimerin
PrecursorMZ: 463.28577
RT: 7.4183
ExactMass: 464.29265975
Spectrum_type: 2
charge: -1
Formula: C30H40O4
SMILES: CC1=C(C(=O)C=C2C1=CC=C3[C@]2(CC[C@@]4([C@@]3(CC[C@@]5([C@H]4C[C@](CC5)(C)C(=O)OC)C)C)C)C)O
Method: HCD
Collision_energy: [28.333334]
Isolation_window: 4.0
Ion_mode: N
Num Peaks: 15
100.0397	9.5
121.0289	100.0
139.1123	10.6
143.0821	10.3
170.0687	4.4
183.1027	4.8
209.0456	52.4
237.0406	58.6
326.2594	4.5
353.2820	15.6
393.1562	8.4
417.2803	57.8
418.2835	14.1
437.1829	27.2
461.3071	4.2

Name: Prohexadione calcium
PrecursorMZ: 504.33304
RT: 7.1003
ExactMass: 250.0154143
Spectrum_type: 2
charge: -1
Formula: C10H10CaO5
SMILES: CCC(=C1C(=O)CC(CC1=O)C(=O)[O-])[O-].[Ca+2]
Method: HCD
Collision_energy: [28.333334]
Isolation_window: 4.0
Ion_mode: N
Num Peaks: 20
56.0386	4.3
61.9874	5.2
74.0238	4.1
102.0551	11.8
128.0344	37.3
130.0864	6.1
146.0447	5.1
375.2905	23.4
376.2932	5.1
435.2743	8.2
444.2596	4.2
460.3474	8.1
461.3557	3.5
486.3233	4.2
502.3553	5.6
503.2650	6.0
503.3431	6.9
504.3342	100.0
505.3375	40.4
506.3265	9.1

Name: Proline + CDCA
PrecursorMZ: 488.33809
RT: 10.8141
ExactMass: 489.3454236
Spectrum_type: 2
charge: -1
Formula: C29H47NO5
SMILES: C[C@H](CCC(=O)N1CCCC1C(=O)O)[C@H]2CC[C@@H]3[C@@]2(CC[C@H]4[C@H]3[C@@H](C[C@H]5[C@@]4(CC[C@H](C5)O)C)O)C
Method: HCD
Collision_energy: [28.333334]
Isolation_window: 4.0
Ion_mode: N
Num Peaks: 5
69.1035	15.9
397.3107	27.9
470.3275	34.0
488.3381	100.0
489.3402	29.5

Name: Proline + betaMCA
PrecursorMZ: 504.33298
RT: 7.2302
ExactMass: 505.34033822
Spectrum_type: 2
charge: -1
Formula: C29H47NO6
SMILES: C[C@H](CCC(=O)N1CCCC1C(=O)O)[C@H]2CC[C@@H]3[C@@]2(CC[C@H]4[C@H]3[C@H]([C@H]([C@H]5[C@@]4(CC[C@H](C5)O)C)O)O)C
Method: HCD
Collision_energy: [28.333334]
Isolation_window: 4.0
Ion_mode: N
Num Peaks: 13
56.0386	4.5
97.4394	2.5
102.0551	18.6
128.0344	58.7
146.0451	9.7
152.9956	4.2
375.2905	34.8
376.2946	7.8
460.3443	11.9
486.3231	6.5
504.3335	100.0
505.3377	34.1
506.3372	4.3

Name: Prolylhydroxyproline
PrecursorMZ: 227.10341
RT: 2.1298
ExactMass: 228.111007
Spectrum_type: 2
charge: -1
Formula: C10H16N2O4
SMILES: C1C[C@H](NC1)C(=O)N2C[C@@H](C[C@H]2C(=O)O)O
Method: HCD
Collision_energy: [28.333334]
Isolation_window: 4.0
Ion_mode: N
Num Peaks: 31
72.9921	2.1
82.0289	10.6
84.0445	7.9
88.9870	1.8
98.0237	2.3
100.0758	19.1
110.0238	3.1
112.0394	4.5
112.0758	3.0
114.0551	4.1
116.0708	6.3
127.0868	10.2
130.0864	7.2
155.0815	2.1
155.1182	2.1
161.0814	3.0
181.0977	2.2
183.1132	93.3
183.1476	4.9
184.1166	9.8
185.1652	9.6
187.1082	5.5
227.0561	1.9
227.1037	100.0
227.1385	34.7
228.0874	2.9
228.1069	10.1
228.1422	4.0
229.0719	2.4
229.1206	13.8
229.1553	31.4

Name: Propanoic acid, 2-methyl-2-(3-pentadecylphenoxy)-
PrecursorMZ: 389.30481
RT: 9.1983
ExactMass: 390.3133952
Spectrum_type: 2
charge: -1
Formula: C25H42O3
SMILES: CCCCCCCCCCCCCCCC1=CC(=CC=C1)OC(C)(C)C(=O)O
Method: HCD
Collision_energy: [28.333334]
Isolation_window: 4.0
Ion_mode: N
Num Peaks: 22
73.0282	1.3
97.4662	1.4
108.0442	8.4
160.8408	4.2
162.8378	3.7
181.1223	1.9
183.1374	3.7
211.1330	1.3
251.1641	1.2
277.2160	3.3
319.2265	1.7
359.2943	21.0
360.2977	5.8
371.2949	3.6
387.2884	2.0
388.0419	2.7
388.2929	5.0
389.3050	100.0
390.0399	2.7
390.3078	30.8
391.3117	2.3
391.3215	12.4

Name: Propylparaben
PrecursorMZ: 179.07087
RT: 3.4483
ExactMass: 180.078644241
Spectrum_type: 2
charge: -1
Formula: C10H12O3
SMILES: CCCOC(=O)C1=CC=C(C=C1)O
Method: HCD
Collision_energy: [28.333334]
Isolation_window: 4.0
Ion_mode: N
Num Peaks: 12
57.0337	11.8
90.9972	27.3
95.0242	2.4
109.0399	5.6
121.0288	12.5
134.9872	100.0
135.9906	2.4
136.9828	7.2
137.0349	3.3
178.9773	23.5
179.0707	13.6
181.0499	5.6

Name: Prostacyclin
PrecursorMZ: 351.21773
RT: 7.7576
ExactMass: 352.22497412
Spectrum_type: 2
charge: -1
Formula: C20H32O5
SMILES: CCCCC[C@@H](/C=C/[C@H]1[C@@H](C[C@H]2[C@@H]1C/C(=C/CCCC(=O)O)/O2)O)O
Method: HCD
Collision_energy: [28.333334]
Isolation_window: 4.0
Ion_mode: N
Num Peaks: 10
96.9591	100.0
261.2220	27.2
289.2169	22.4
307.2277	21.8
316.1345	16.1
351.1826	34.7
351.2177	70.0
352.1889	8.8
352.2236	13.8
353.2159	16.4

Name: Prostaglandin E2
PrecursorMZ: 703.44323
RT: 9.0032
ExactMass: 352.22497412
Spectrum_type: 2
charge: -1
Formula: C20H32O5
SMILES: CCCCC[C@@H](/C=C/[C@H]1[C@@H](CC(=O)[C@@H]1C/C=C\CCCC(=O)O)O)O
Method: HCD
Collision_energy: [28.333334]
Isolation_window: 4.0
Ion_mode: N
Num Peaks: 11
57.0337	50.7
59.0129	17.7
71.0129	19.5
81.0337	28.0
83.0493	100.0
85.0285	20.9
95.0494	20.4
97.0650	22.4
99.0442	21.3
121.0650	17.8
123.0808	27.3

Name: Protirelin
PrecursorMZ: 361.16328
RT: 6.54465
ExactMass: 362.1702532
Spectrum_type: 2
charge: -1
Formula: C16H22N6O4
SMILES: C1C[C@H](N(C1)C(=O)[C@H](CC2=CN=CN2)NC(=O)[C@@H]3CCC(=O)N3)C(=O)N
Method: HCD
Collision_energy: [28.333334]
Isolation_window: 4.0
Ion_mode: N
Num Peaks: 10
71.0129	9.4
220.1463	17.6
221.1541	71.7
222.1574	9.4
236.1050	100.0
237.1088	12.1
293.1759	37.2
294.1796	7.0
361.1634	45.2
362.1668	9.2

Name: Protodioscin
PrecursorMZ: 1093.54175
RT: 4.5481
ExactMass: 1048.5454243
Spectrum_type: 2
charge: -1
Formula: C51H84O22
SMILES: C[C@H]1[C@H]2[C@H](C[C@@H]3[C@@]2(CC[C@H]4[C@H]3CC=C5[C@@]4(CC[C@@H](C5)O[C@H]6[C@@H]([C@H]([C@@H]([C@H](O6)CO)O[C@H]7[C@@H]([C@@H]([C@H]([C@@H](O7)C)O)O)O)O)O[C@H]8[C@@H]([C@@H]([C@H]([C@@H](O8)C)O)O)O)C)C)O[C@@]1(CC[C@@H](C)CO[C@H]9[C@@H]([C@H]([C@@H]([C@H](O9)CO)O)O)O)O
Method: HCD
Collision_energy: [28.333334]
Isolation_window: 4.0
Ion_mode: N
Num Peaks: 19
85.0283	4.8
89.0232	13.0
101.0232	21.6
103.0389	3.4
113.0232	8.6
116.3981	4.1
119.0338	7.9
143.0336	7.1
163.0601	3.9
205.0703	5.1
755.4194	13.0
756.4233	7.9
883.4680	4.2
901.4800	22.4
902.4836	11.4
1046.5240	4.3
1047.5366	100.0
1048.5393	63.5
1049.5430	12.8

Name: Psoralidin
PrecursorMZ: 335.09243
RT: 7.2002
ExactMass: 336.09977361
Spectrum_type: 2
charge: -1
Formula: C20H16O5
SMILES: CC(=CCC1=CC2=C(C=C1O)OC(=O)C3=C2OC4=C3C=CC(=C4)O)C
Method: HCD
Collision_energy: [28.333334]
Isolation_window: 4.0
Ion_mode: N
Num Peaks: 3
279.0297	32.5
335.0922	100.0
336.0958	20.2

Name: Psoromic Acid
PrecursorMZ: 357.06179
RT: 6.7569
ExactMass: 358.0688674
Spectrum_type: 2
charge: -1
Formula: C18H14O8
SMILES: CC1=CC(=C(C2=C1C(=O)OC3=C(O2)C(=CC(=C3C)OC)C(=O)O)C=O)O
Method: HCD
Collision_energy: [28.333334]
Isolation_window: 4.0
Ion_mode: N
Num Peaks: 15
163.0757	6.2
171.1020	6.5
177.0549	5.9
271.0253	8.6
283.0252	3.7
299.0195	10.8
314.1769	4.4
327.0147	78.9
328.0178	14.2
342.0381	100.0
343.0417	19.7
357.0618	88.8
357.1347	3.8
358.0650	16.8
359.1525	5.5

Name: Puerol B
PrecursorMZ: 311.09266
RT: 5.6122
ExactMass: 312.09977361
Spectrum_type: 2
charge: -1
Formula: C18H16O5
SMILES: COC1=CC(=C(C=C1)C2=CC(=O)OC2CC3=CC=C(C=C3)O)O
Method: HCD
Collision_energy: [28.333334]
Isolation_window: 4.0
Ion_mode: N
Num Peaks: 7
161.0602	8.6
205.0502	100.0
206.0536	13.0
309.1715	6.1
311.0558	4.2
311.0922	11.9
311.1898	14.6

Name: Purpurein
PrecursorMZ: 423.1654
RT: 8.7229
ExactMass: 424.17333247
Spectrum_type: 2
charge: -1
Formula: C21H28O9
SMILES: C1CCC(C(C1)O)O[C@H]2[C@@H]([C@H]([C@@H]([C@H](O2)CO)O)O)OC(=O)/C=C/C3=CC=C(C=C3)O
Method: HCD
Collision_energy: [28.333334]
Isolation_window: 4.0
Ion_mode: N
Num Peaks: 12
58.9950	7.3
64.9513	18.8
85.0105	5.0
257.1903	4.4
285.1852	4.1
289.1620	5.4
295.2059	4.0
327.1766	5.5
423.1656	100.0
424.1687	25.1
425.1648	6.9
425.2545	3.6

Name: Pyrogallol
PrecursorMZ: 125.02362
RT: 9.674
ExactMass: 126.031694049
Spectrum_type: 2
charge: -1
Formula: C6H6O3
SMILES: C1=CC(=C(C(=C1)O)O)O
Method: HCD
Collision_energy: [28.333334]
Isolation_window: 4.0
Ion_mode: N
Num Peaks: 6
67.0180	15.8
81.0336	57.7
125.0236	100.0
126.0272	8.2
126.8799	9.3
126.9045	8.5

Name: Pyroglutamylisoleucine
PrecursorMZ: 241.11913
RT: 3.0103
ExactMass: 242.12665706
Spectrum_type: 2
charge: -1
Formula: C11H18N2O4
SMILES: CCC(C)C(C(=O)O)NC(=O)C1CCC(=O)N1
Method: HCD
Collision_energy: [28.333334]
Isolation_window: 4.0
Ion_mode: N
Num Peaks: 10
82.0288	10.4
112.0394	3.7
126.0915	2.1
127.0503	3.8
130.0865	7.0
141.1024	9.5
197.1291	84.2
198.1327	7.4
241.1191	100.0
242.1224	11.8

Name: Quinate
PrecursorMZ: 191.05554
RT: 0.9111363636363636
ExactMass: 192.0633881
Spectrum_type: 2
charge: -1
Formula: C7H12O6
SMILES: C1[C@H](C([C@@H](CC1(C(=O)O)O)O)O)O
Method: HCD
Collision_energy: [28.333334]
Isolation_window: 4.0
Ion_mode: N
Num Peaks: 17
59.0128	0.8
61.9875	0.7
71.0129	0.7
85.0285	7.0
87.0077	1.6
93.0335	1.8
109.0287	0.7
111.0441	1.0
127.0391	3.0
171.0291	1.0
173.0450	1.4
190.0716	1.2
191.0193	0.7
191.0554	100.0
191.0915	0.8
192.0588	8.0
193.0595	0.7

Name: Quinolinic Acid
PrecursorMZ: 166.01387
RT: 4.7212
ExactMass: 167.02185764
Spectrum_type: 2
charge: -1
Formula: C7H5NO4
SMILES: C1=CC(=C(N=C1)C(=O)O)C(=O)O
Method: HCD
Collision_energy: [28.333334]
Isolation_window: 4.0
Ion_mode: N
Num Peaks: 7
82.0401	12.1
97.0398	6.8
122.0239	100.0
123.0273	6.4
124.0509	7.2
140.0345	7.6
166.0138	39.2

Name: Quisinostat
PrecursorMZ: 393.20515
RT: 5.8254
ExactMass: 394.21172409
Spectrum_type: 2
charge: -1
Formula: C21H26N6O2
SMILES: CN1C=C(C2=CC=CC=C21)CNCC3CCN(CC3)C4=NC=C(C=N4)C(=O)NO
Method: HCD
Collision_energy: [28.333334]
Isolation_window: 4.0
Ion_mode: N
Num Peaks: 4
78.9581	100.0
96.9687	14.8
375.2654	12.9
393.2039	41.9

Name: RS-17053
PrecursorMZ: 411.18478
RT: 5.2819
ExactMass: 448.1684336
Spectrum_type: 2
charge: -1
Formula: C24H30Cl2N2O2
SMILES: CC(C)(CC1=CNC2=C1C=C(C=C2)Cl)NCCOC3=CC=CC=C3OCC4CC4.Cl
Method: HCD
Collision_energy: [28.333334]
Isolation_window: 4.0
Ion_mode: N
Num Peaks: 10
61.9874	1.5
96.9591	31.0
98.9548	0.8
411.1851	100.0
411.2324	3.5
411.2757	0.7
412.1883	24.5
412.2355	1.0
413.2029	21.6
413.2540	1.7

Name: Radiclonic acid
PrecursorMZ: 395.28053
RT: 9.9255
ExactMass: 396.28757437
Spectrum_type: 2
charge: -1
Formula: C23H40O5
SMILES: CCC(C)CC(C)CC(CC(C)/C=C(\C)/C=C(/CC(C)C(=O)O)\C(=O)O)CO
Method: HCD
Collision_energy: [28.333334]
Isolation_window: 4.0
Ion_mode: N
Num Peaks: 20
57.0336	4.0
59.0129	100.0
61.9874	12.5
78.9850	13.2
87.0442	19.0
113.0234	6.3
281.2485	81.0
282.2520	16.0
291.2697	7.1
335.2617	5.0
335.3318	27.9
351.2901	10.1
379.3214	11.6
393.2966	8.5
394.3030	8.9
395.2697	3.5
395.3542	18.6
396.3582	5.2
397.2316	3.6
397.3313	56.6

Name: Rel-(12R,13R,Z)-12,13-dihydroxyoctadec-9-enoic acid
PrecursorMZ: 313.23839
RT: 6.9653
ExactMass: 314.24570956
Spectrum_type: 2
charge: -1
Formula: C18H34O4
SMILES: CCCCC[C@H]([C@@H](C/C=C\CCCCCCCC(=O)O)O)O
Method: HCD
Collision_energy: [28.333334]
Isolation_window: 4.0
Ion_mode: N
Num Peaks: 17
99.0805	5.0
127.0756	1.5
129.0912	17.6
130.0943	1.6
183.1383	31.3
184.1415	3.6
195.1386	3.2
201.1127	2.9
277.2169	3.4
295.2275	10.2
296.2309	2.0
311.1690	2.4
311.2227	2.1
312.1701	1.6
313.2382	100.0
314.2417	20.0
315.2466	1.9

Name: Repaglinide
PrecursorMZ: 487.23714
RT: 3.9429833333333333
ExactMass: 452.26750763
Spectrum_type: 2
charge: -1
Formula: C27H36N2O4
SMILES: CCOC1=C(C=CC(=C1)CC(=O)N[C@@H](CC(C)C)C2=CC=CC=C2N3CCCCC3)C(=O)O
Method: HCD
Collision_energy: [28.333334]
Isolation_window: 4.0
Ion_mode: N
Num Peaks: 4
54.1389	4.4
487.2368	100.0
488.2398	26.6
489.2377	5.6

Name: Reposal
PrecursorMZ: 457.22492
RT: 5.8138
ExactMass: 262.13174244
Spectrum_type: 2
charge: -1
Formula: C14H18N2O3
SMILES: CCC1(C(=O)NC(=O)NC1=O)C2=CC3CCC(C3)C2
Method: HCD
Collision_energy: [28.333334]
Isolation_window: 4.0
Ion_mode: N
Num Peaks: 3
61.9871	52.1
457.2246	100.0
458.2279	29.8

Name: Resolvin D3
PrecursorMZ: 375.21726
RT: 8.6952
ExactMass: 376.22497412
Spectrum_type: 2
charge: -1
Formula: C22H32O5
SMILES: CC/C=C\C[C@@H](/C=C/C=C\C[C@H](/C=C/C=C/C=C\[C@H](CCC(=O)O)O)O)O
Method: HCD
Collision_energy: [28.333334]
Isolation_window: 4.0
Ion_mode: N
Num Peaks: 6
243.1750	88.1
313.2167	46.1
315.1599	100.0
316.1624	19.2
357.2068	66.2
375.2177	20.3

Name: Resolvin D5
PrecursorMZ: 359.22288
RT: 8.2698
ExactMass: 360.2300595
Spectrum_type: 2
charge: -1
Formula: C22H32O4
SMILES: CC/C=C\C[C@@H](/C=C/C=C\C/C=C\C=C\[C@H](C/C=C\CCC(=O)O)O)O
Method: HCD
Collision_energy: [28.333334]
Isolation_window: 4.0
Ion_mode: N
Num Peaks: 16
205.1227	5.2
219.1383	3.4
231.1751	11.4
232.1785	2.4
243.1752	1.8
245.1903	2.8
273.1859	7.2
285.2223	7.0
297.2222	22.7
298.2256	4.3
315.2328	5.5
357.2071	4.5
358.2097	2.1
359.2228	100.0
360.2262	24.9
361.2312	2.0

Name: Resveratrol
PrecursorMZ: 227.07121
RT: 5.6748
ExactMass: 228.078644241
Spectrum_type: 2
charge: -1
Formula: C14H12O3
SMILES: C1=CC(=CC=C1/C=C/C2=CC(=CC(=C2)O)O)O
Method: HCD
Collision_energy: [28.333334]
Isolation_window: 4.0
Ion_mode: N
Num Peaks: 6
182.9542	10.7
209.0603	10.5
227.0711	100.0
228.0743	16.0
229.0137	5.0
229.1445	5.7

Name: Reynoutrin
PrecursorMZ: 433.0781
RT: 4.6394
ExactMass: 434.08491139
Spectrum_type: 2
charge: -1
Formula: C20H18O11
SMILES: C1[C@H]([C@@H]([C@H]([C@@H](O1)OC2=C(OC3=CC(=CC(=C3C2=O)O)O)C4=CC(=C(C=C4)O)O)O)O)O
Method: HCD
Collision_energy: [28.333334]
Isolation_window: 4.0
Ion_mode: N
Num Peaks: 11
164.0472	15.8
175.0397	30.6
191.0348	36.2
192.0423	25.4
193.0503	20.1
236.0327	26.7
237.0405	27.9
403.0684	24.4
433.0784	100.0
434.0839	49.8
435.0937	64.1

Name: Rhodinyl acetate
PrecursorMZ: 197.15383
RT: 6.384
ExactMass: 198.16197994
Spectrum_type: 2
charge: -1
Formula: C12H22O2
SMILES: CC(CCCC(=C)C)CCOC(=O)C
Method: HCD
Collision_energy: [28.333334]
Isolation_window: 4.0
Ion_mode: N
Num Peaks: 18
61.9874	28.5
96.9603	4.7
97.9595	3.8
98.9556	29.7
110.9420	6.6
114.9506	19.6
126.9506	15.0
140.0833	100.0
140.9503	7.3
141.0867	9.1
141.9494	7.1
142.9456	45.1
153.8988	3.3
154.9455	16.0
169.9441	3.4
170.9406	24.8
197.1539	83.7
198.1573	11.8

Name: Rhoifolin
PrecursorMZ: 577.15547
RT: 3.5669
ExactMass: 578.16355563
Spectrum_type: 2
charge: -1
Formula: C27H30O14
SMILES: C[C@H]1[C@@H]([C@H]([C@H]([C@@H](O1)O[C@@H]2[C@H]([C@@H]([C@H](O[C@H]2OC3=CC(=C4C(=C3)OC(=CC4=O)C5=CC=C(C=C5)O)O)CO)O)O)O)O)O
Method: HCD
Collision_energy: [28.333334]
Isolation_window: 4.0
Ion_mode: N
Num Peaks: 13
59.0128	17.2
89.0232	11.9
101.0231	7.8
293.0448	41.7
311.0545	8.6
353.0652	15.0
383.0781	13.5
413.0869	14.7
457.1148	12.4
459.1295	12.3
577.1545	100.0
578.1567	25.6
579.1693	22.1

Name: Roccellic acid
PrecursorMZ: 299.22275
RT: 7.7021
ExactMass: 300.2300595
Spectrum_type: 2
charge: -1
Formula: C17H32O4
SMILES: CCCCCCCCCCCC[C@H]([C@H](C)C(=O)O)C(=O)O
Method: HCD
Collision_energy: [28.333334]
Isolation_window: 4.0
Ion_mode: N
Num Peaks: 6
237.2222	48.8
281.2122	32.4
297.1540	11.1
298.1563	25.9
299.2228	100.0
300.2265	17.2

Name: Rosmanol
PrecursorMZ: 345.17064
RT: 6.1924
ExactMass: 346.17802393
Spectrum_type: 2
charge: -1
Formula: C20H26O5
SMILES: CC(C)C1=C(C(=C2C(=C1)[C@@H]([C@@H]3[C@@H]4[C@@]2(CCCC4(C)C)C(=O)O3)O)O)O
Method: HCD
Collision_energy: [28.333334]
Isolation_window: 4.0
Ion_mode: N
Num Peaks: 7
171.1019	20.2
283.1700	28.2
301.1805	100.0
302.1839	23.1
343.2488	41.4
344.2522	15.1
345.1709	36.3

Name: Rosmarinic Acid
PrecursorMZ: 359.07696
RT: 4.25654
ExactMass: 360.08451746
Spectrum_type: 2
charge: -1
Formula: C18H16O8
SMILES: C1=CC(=C(C=C1C[C@H](C(=O)O)OC(=O)/C=C/C2=CC(=C(C=C2)O)O)O)O
Method: HCD
Collision_energy: [28.333334]
Isolation_window: 4.0
Ion_mode: N
Num Peaks: 13
72.9921	11.4
123.0443	3.1
133.0285	1.8
135.0443	7.3
161.0236	100.0
162.0269	9.4
179.0342	16.5
180.0374	1.5
197.0448	29.5
198.0482	3.1
359.0769	15.6
359.2055	1.7
360.0797	3.1

Name: Rubone
PrecursorMZ: 373.12953
RT: 4.4374
ExactMass: 374.13655304
Spectrum_type: 2
charge: -1
Formula: C20H22O7
SMILES: COC1=CC(=C(C(=C1)OC)C(=O)/C=C/C2=CC(=C(C=C2OC)OC)OC)O
Method: HCD
Collision_energy: [28.333334]
Isolation_window: 4.0
Ion_mode: N
Num Peaks: 11
108.0209	5.3
109.0289	4.4
136.0158	7.1
137.0237	8.4
138.0317	5.9
325.1076	3.9
344.1262	6.6
345.1338	3.9
355.1185	5.5
373.1297	100.0
374.1330	21.5

Name: Rutamarin
PrecursorMZ: 355.15519
RT: 8.3695
ExactMass: 356.16237386
Spectrum_type: 2
charge: -1
Formula: C21H24O5
SMILES: CC(=O)OC(C)(C)C1CC2=C(O1)C=C3C(=C2)C=C(C(=O)O3)C(C)(C)C=C
Method: HCD
Collision_energy: [28.333334]
Isolation_window: 4.0
Ion_mode: N
Num Peaks: 17
149.0602	6.9
227.0708	9.8
232.0372	6.0
241.0867	18.9
242.0940	13.3
268.1470	5.7
311.1653	26.9
312.1684	4.3
337.2761	6.0
353.2150	20.2
353.2697	10.9
354.2174	9.4
355.1555	100.0
355.1920	5.1
355.2286	5.2
355.2837	15.5
356.1580	21.6

Name: SB290157
PrecursorMZ: 411.20314
RT: 5.1565
ExactMass: 412.21105539
Spectrum_type: 2
charge: -1
Formula: C22H28N4O4
SMILES: C1=CC=C(C=C1)C(COCC(=O)N[C@@H](CCCN=C(N)N)C(=O)O)C2=CC=CC=C2
Method: HCD
Collision_energy: [28.333334]
Isolation_window: 4.0
Ion_mode: N
Num Peaks: 15
235.1337	35.7
251.1290	9.8
279.1238	42.9
349.2015	13.3
365.2340	11.1
393.1891	29.5
409.1866	27.5
409.2257	18.9
410.1812	18.7
410.2307	10.1
411.2018	100.0
411.2413	31.2
412.1995	23.1
413.2132	37.2
413.2574	11.6

Name: SHIN 1New
PrecursorMZ: 399.18256
RT: 8.578800000000001
ExactMass: 400.18992602
Spectrum_type: 2
charge: -1
Formula: C24H24N4O2
SMILES: CC1=C2C(=NN1)OC(=C(C2(C3=CC(=CC(=C3)C4=CC=CC=C4)CO)C(C)C)C#N)N
Method: HCD
Collision_energy: [28.333334]
Isolation_window: 4.0
Ion_mode: N
Num Peaks: 18
69.0821	2.5
69.1720	1.9
98.0235	3.1
248.0791	7.1
248.5804	2.1
297.2420	2.4
335.2697	2.2
351.1603	3.6
353.1762	19.1
353.2792	8.5
354.1775	3.9
354.2832	2.2
355.1931	100.0
356.1962	19.8
369.1725	8.3
399.1827	37.7
399.3546	2.1
400.1853	8.7

Name: SLCA-Sulfolithocholic acid
PrecursorMZ: 455.24717
RT: 6.291911111111111
ExactMass: 456.25456017
Spectrum_type: 2
charge: -1
Formula: C24H40O6S
SMILES: CC(CCC(=O)O)C1CCC2C1(CCC3C2CCC4C3(CCC(C4)OS(=O)(=O)O)C)C
Method: HCD
Collision_energy: [28.333334]
Isolation_window: 4.0
Ion_mode: N
Num Peaks: 11
50.5817	2.0
50.5843	4.5
96.9591	24.4
407.2800	15.9
408.2834	10.1
409.2866	1.5
453.2316	2.5
454.2350	4.4
455.2471	100.0
456.2503	25.7
457.2477	6.1

Name: STL218701
PrecursorMZ: 367.1665
RT: 6.2114
Spectrum_type: 2
charge: -1
SMILES: COC(=O)CCNC(=O)C(Cc1ccccc1)NC(=O)c1ccc(C)cc1
Method: HCD
Collision_energy: [28.333334]
Isolation_window: 4.0
Ion_mode: N
Num Peaks: 15
181.0765	8.8
249.1031	31.7
250.1067	5.0
267.1138	100.0
268.1172	17.5
323.2221	4.4
365.1940	4.8
365.2353	6.4
367.1662	60.9
367.2124	27.4
367.2493	4.6
368.1690	11.3
368.2153	6.4
369.0946	4.5
369.2283	13.3

Name: SUDCA-Sulfoursodeoxycholic acid
PrecursorMZ: 471.24227
RT: 5.8347
ExactMass: 472.24947478
Spectrum_type: 2
charge: -1
Formula: C24H40O7S
SMILES: CC(CCC(=O)O)C1CCC2C1(CCC3C2C(CC4C3(CCC(C4)OS(=O)(=O)O)C)O)C
Method: HCD
Collision_energy: [28.333334]
Isolation_window: 4.0
Ion_mode: N
Num Peaks: 9
52.3588	2.0
52.3616	4.4
96.9591	23.8
223.0872	9.2
469.2211	2.3
469.3202	2.9
471.2423	100.0
472.2454	26.7
473.2429	4.9

Name: Saccharin
PrecursorMZ: 181.9911
RT: 2.1657
ExactMass: 182.9990142
Spectrum_type: 2
charge: -1
Formula: C7H5NO3S
SMILES: C1=CC=C2C(=C1)C(=O)NS2(=O)=O
Method: HCD
Collision_energy: [28.333334]
Isolation_window: 4.0
Ion_mode: N
Num Peaks: 11
59.0129	6.3
65.9976	2.0
98.0239	3.1
105.9594	2.5
112.0395	4.1
124.0395	3.1
140.0708	2.0
181.9910	100.0
182.9938	8.1
183.9864	3.2
184.0608	10.2

Name: Salicyluric Acid
PrecursorMZ: 194.0455
RT: 2.6689
ExactMass: 195.05315777
Spectrum_type: 2
charge: -1
Formula: C9H9NO4
SMILES: C1=CC=C(C(=C1)C(=O)NCC(=O)O)O
Method: HCD
Collision_energy: [28.333334]
Isolation_window: 4.0
Ion_mode: N
Num Peaks: 6
96.9593	10.1
130.9919	47.5
150.0555	100.0
160.8416	18.5
194.0456	33.1
195.8105	12.7

Name: Salviaflaside
PrecursorMZ: 521.12958
RT: 3.8259499999999997
ExactMass: 522.13734088
Spectrum_type: 2
charge: -1
Formula: C24H26O13
SMILES: C1=CC(=C(C=C1C[C@H](C(=O)O)OC(=O)/C=C/C2=CC(=C(C=C2)O)O[C@H]3[C@@H]([C@H]([C@@H]([C@H](O3)CO)O)O)O)O)O
Method: HCD
Collision_energy: [28.333334]
Isolation_window: 4.0
Ion_mode: N
Num Peaks: 12
72.9921	7.8
135.0442	12.3
161.0236	100.0
162.0270	9.4
179.0343	27.5
197.0449	29.0
323.0771	35.0
324.0805	6.2
359.0761	46.3
360.0797	8.5
521.1293	20.7
522.1336	6.1

Name: Santin
PrecursorMZ: 343.08258
RT: 6.4826
ExactMass: 344.08960285
Spectrum_type: 2
charge: -1
Formula: C18H16O7
SMILES: COC1=CC=C(C=C1)C2=C(C(=O)C3=C(O2)C=C(C(=C3O)OC)O)OC
Method: HCD
Collision_energy: [28.333334]
Isolation_window: 4.0
Ion_mode: N
Num Peaks: 13
191.1076	4.7
283.1702	17.3
297.1509	5.2
298.0118	12.8
313.0356	100.0
314.0391	18.1
328.0591	49.0
329.0625	8.6
341.1795	8.4
343.0826	92.2
343.1546	5.1
344.0858	17.1
345.1710	41.9

Name: Schizopeltic acid
PrecursorMZ: 357.09702
RT: 4.3036
ExactMass: 358.10525291
Spectrum_type: 2
charge: -1
Formula: C19H18O7
SMILES: CC1=CC(=C2C3=C(C(=C(C=C3OC2=C1C(=O)O)OC)C(=O)OC)C)OC
Method: HCD
Collision_energy: [28.333334]
Isolation_window: 4.0
Ion_mode: N
Num Peaks: 48
69.1197	1.5
72.9919	1.5
109.9997	44.1
111.0084	4.8
137.0233	1.3
171.1014	2.5
201.1121	1.4
209.1170	2.4
223.1342	1.5
233.0438	1.8
234.0480	1.7
251.0693	1.3
257.0814	1.4
267.0656	2.4
268.0730	2.8
269.0800	1.5
271.1907	3.0
281.0802	1.2
281.1744	1.3
283.0962	2.3
284.0679	1.2
285.0750	1.3
294.0523	5.0
295.0588	2.7
297.0391	3.0
299.0913	1.4
299.1851	1.2
309.0759	5.0
311.0549	1.4
312.0630	5.8
313.0670	1.2
324.0622	1.2
327.0865	19.6
328.0897	3.8
329.1023	3.3
331.2115	2.6
339.0864	8.3
340.0899	1.7
341.1008	1.2
341.1962	1.4
342.0734	2.0
356.0843	1.5
357.0616	5.3
357.0973	100.0
357.1863	3.4
358.1007	20.9
359.1115	3.7
359.2064	34.5

Name: Schizotenuin A
PrecursorMZ: 715.13174
RT: 4.7716
ExactMass: 716.1377348
Spectrum_type: 2
charge: -1
Formula: C36H28O16
SMILES: C1=CC(=C(C=C1C[C@H](C(=O)O)OC(=O)/C=C/C2=CC3=C(C(=C2)O)OC(=C3C(=O)O[C@H](CC4=CC(=C(C=C4)O)O)C(=O)O)C5=CC(=C(C=C5)O)O)O)O
Method: HCD
Collision_energy: [28.333334]
Isolation_window: 4.0
Ion_mode: N
Num Peaks: 13
197.0452	7.2
265.0493	4.9
267.0670	6.5
293.0456	100.0
294.0495	15.5
311.0558	7.9
319.0248	12.6
337.0354	10.8
517.0765	6.3
535.0886	26.6
536.0936	6.3
715.1322	14.5
716.1332	6.3

Name: Scutellarein 4'-methyl ether
PrecursorMZ: 299.05631
RT: 6.0031
ExactMass: 300.0633881
Spectrum_type: 2
charge: -1
Formula: C16H12O6
SMILES: COC1=CC=C(C=C1)C2=CC(=O)C3=C(O2)C=C(C(=C3O)O)O
Method: HCD
Collision_energy: [28.333334]
Isolation_window: 4.0
Ion_mode: N
Num Peaks: 9
231.0661	16.2
235.1702	71.5
236.1733	13.2
240.1000	7.5
284.0326	23.4
297.1522	84.4
298.1555	22.5
299.0562	100.0
300.0588	12.2

Name: Sebacate dianion
PrecursorMZ: 201.112
RT: 4.7631
ExactMass: 200.10485899
Spectrum_type: 2
charge: -1
Formula: C10H16O4-2
SMILES: C(CCCCC(=O)[O-])CCCC(=O)[O-]
Method: HCD
Collision_energy: [28.333334]
Isolation_window: 4.0
Ion_mode: N
Num Peaks: 7
111.0803	2.1
139.1115	66.2
140.1148	5.7
183.1013	38.0
184.1044	3.4
201.1119	100.0
202.1154	10.7

Name: Secobarbital
PrecursorMZ: 237.12456
RT: 0.9905
ExactMass: 238.13174244
Spectrum_type: 2
charge: -1
Formula: C12H18N2O3
SMILES: CCCC(C)C1(C(=O)NC(=O)NC1=O)CC=C
Method: HCD
Collision_energy: [28.333334]
Isolation_window: 4.0
Ion_mode: N
Num Peaks: 15
86.0602	96.5
96.9592	71.3
122.0603	21.8
138.0552	24.2
150.0554	73.8
167.0820	54.9
168.0659	9.9
192.0661	7.7
236.0609	20.1
236.0831	7.1
237.1243	100.0
238.0659	7.6
238.1272	9.1
239.0588	7.7
239.0830	29.4

Name: Secoisolariciresinol Diglucoside
PrecursorMZ: 721.24854
RT: 4.0436
ExactMass: 686.27858538
Spectrum_type: 2
charge: -1
Formula: C32H46O16
SMILES: COC1=C(C=CC(=C1)C[C@@H](CO[C@H]2[C@@H]([C@H]([C@@H]([C@H](O2)CO)O)O)O)[C@@H](CC3=CC(=C(C=C3)O)OC)CO[C@H]4[C@@H]([C@H]([C@@H]([C@H](O4)CO)O)O)O)O
Method: HCD
Collision_energy: [28.333334]
Isolation_window: 4.0
Ion_mode: N
Num Peaks: 52
59.0130	0.4
109.0283	0.4
121.0281	1.3
122.0364	0.6
123.0440	1.3
135.0440	0.7
148.0518	0.5
160.0516	0.5
161.0587	0.6
162.0317	0.5
163.0388	1.6
164.0472	0.5
165.0546	1.7
175.0752	0.7
177.0909	0.4
179.0698	1.1
180.0415	0.4
193.0858	0.6
221.0797	0.4
239.0912	0.5
259.0960	0.8
268.0742	0.6
271.0966	8.9
272.1006	0.8
283.0966	3.7
284.1029	0.5
285.1123	3.9
286.1166	0.8
289.1078	1.1
297.1119	2.7
298.1154	0.6
301.1071	9.1
302.1107	1.0
313.1066	1.0
315.1229	16.5
316.1261	4.3
317.1302	0.6
325.1077	1.1
331.1177	3.1
343.0825	0.4
343.1177	6.3
344.1206	0.8
359.1129	2.9
360.0513	0.4
360.1179	0.8
361.0346	0.7
361.0537	0.6
361.1283	100.0
361.2027	0.4
361.2217	0.8
362.1316	11.6
363.1346	1.1

Name: Secosterigmatocystin
PrecursorMZ: 361.09331
RT: 3.1348
ExactMass: 362.10016753
Spectrum_type: 2
charge: -1
Formula: C18H18O8
SMILES: COC1=C2C(=C(C(=C1)O)C(CO)C(CO)O)OC3=CC=CC(=C3C2=O)O
Method: HCD
Collision_energy: [28.333334]
Isolation_window: 4.0
Ion_mode: N
Num Peaks: 20
72.9922	13.2
109.0286	14.2
114.0551	8.4
123.0444	6.5
135.0443	31.8
151.0756	18.1
181.0503	7.0
195.0654	8.6
239.0553	7.4
255.1028	9.5
257.1294	31.3
273.1130	11.9
317.1026	12.6
343.0828	7.7
360.1115	10.2
361.0927	100.0
361.1316	6.4
361.2209	8.9
362.0915	18.7
363.1098	15.1

Name: Selamectin
PrecursorMZ: 814.43866
RT: 7.5879
ExactMass: 769.44011183
Spectrum_type: 2
charge: -1
Formula: C43H63NO11
SMILES: C[C@H]1CC[C@]2(C[C@@H]3C[C@H](O2)C/C=C(/[C@H]([C@H](/C=C/C=C/4\CO[C@H]\5[C@@]4([C@@H](C=C(/C5=N/O)C)C(=O)O3)O)C)O[C@H]6C[C@@H]([C@H]([C@@H](O6)C)O)OC)\C)O[C@@H]1C7CCCCC7
Method: HCD
Collision_energy: [28.333334]
Isolation_window: 4.0
Ion_mode: N
Num Peaks: 7
59.0129	17.8
89.0235	21.2
131.0343	18.8
768.4343	100.0
769.4360	39.1
814.4405	93.9
815.4434	44.1

Name: Serine + UDCA
PrecursorMZ: 478.31759
RT: 10.6311
ExactMass: 479.32468816
Spectrum_type: 2
charge: -1
Formula: C27H45NO6
SMILES: C[C@H](CCC(=O)N[C@@H](CO)C(=O)O)[C@H]1CC[C@@H]2[C@@]1(CC[C@H]3[C@H]2[C@H](C[C@H]4[C@@]3(CC[C@H](C4)O)C)O)C
Method: HCD
Collision_energy: [28.333334]
Isolation_window: 4.0
Ion_mode: N
Num Peaks: 3
448.3191	47.9
478.3160	100.0
479.3160	34.8

Name: Serjanic acid
PrecursorMZ: 499.34315
RT: 10.6241
ExactMass: 500.35017463
Spectrum_type: 2
charge: -1
Formula: C31H48O5
SMILES: C[C@@]1(CC[C@@]2(CC[C@@]3(C(=CCC4[C@]3(CCC5[C@@]4(CC[C@@H](C5(C)C)O)C)C)C2C1)C)C(=O)O)C(=O)OC
Method: HCD
Collision_energy: [28.333334]
Isolation_window: 4.0
Ion_mode: N
Num Peaks: 4
121.0286	100.0
157.0652	32.0
267.2691	48.5
499.3418	45.1

Name: Sevedindione
PrecursorMZ: 472.30676
RT: 9.4711
ExactMass: 427.30864417
Spectrum_type: 2
charge: -1
Formula: C27H41NO3
SMILES: C[C@@H]1CC[C@H]2[C@@H]([C@H]3CC[C@@]4([C@H]([C@@H]3CN2C1)C[C@H]5[C@H]4CC(=O)[C@@H]6[C@@]5(CCC(=O)C6)C)O)C
Method: HCD
Collision_energy: [28.333334]
Isolation_window: 4.0
Ion_mode: N
Num Peaks: 7
394.2389	15.7
412.2495	92.2
413.2529	27.7
440.2805	13.2
471.2955	12.1
472.3065	100.0
473.3159	28.0

Name: Sideroxylin
PrecursorMZ: 311.09258
RT: 5.6225
ExactMass: 312.09977361
Spectrum_type: 2
charge: -1
Formula: C18H16O5
SMILES: CC1=C(C2=C(C(=C1OC)C)OC(=CC2=O)C3=CC=C(C=C3)O)O
Method: HCD
Collision_energy: [28.333334]
Isolation_window: 4.0
Ion_mode: N
Num Peaks: 8
117.0337	10.6
191.0707	23.5
235.0761	40.6
251.0712	22.4
279.0661	45.9
311.0926	100.0
311.1650	10.8
312.0965	22.4

Name: Sinensin
PrecursorMZ: 449.1096
RT: 3.5262
ExactMass: 450.11621151
Spectrum_type: 2
charge: -1
Formula: C21H22O11
SMILES: C1=CC(=CC=C1[C@@H]2[C@H](C(=O)C3=C(C=C(C=C3O2)O[C@H]4[C@@H]([C@H]([C@@H]([C@H](O4)CO)O)O)O)O)O)O
Method: HCD
Collision_energy: [28.333334]
Isolation_window: 4.0
Ion_mode: N
Num Peaks: 43
88.9871	4.7
96.9590	2.5
107.0129	3.3
109.0286	2.9
111.0077	2.4
125.0236	5.8
135.0442	2.7
137.0236	3.8
151.0030	8.7
153.0187	2.3
165.0188	6.3
167.0344	2.0
173.0452	3.2
175.0393	3.6
177.0549	6.0
179.0345	2.9
181.0138	2.4
189.0188	2.7
201.0553	2.5
203.0346	6.3
207.0295	5.7
219.0297	2.5
242.0578	2.8
243.0661	7.1
245.0456	5.8
255.0662	2.6
257.0823	3.9
267.0652	2.2
283.0614	4.0
285.0766	13.9
286.0809	2.2
287.0561	11.4
311.0563	5.3
329.0669	90.8
330.0703	14.9
341.0675	2.3
359.0776	13.7
360.0806	3.2
447.1657	2.0
448.2120	2.4
449.1088	100.0
450.1123	22.6
451.1128	3.6

Name: Skullcapflavone Ii
PrecursorMZ: 373.09316
RT: 5.8556
ExactMass: 374.10016753
Spectrum_type: 2
charge: -1
Formula: C19H18O8
SMILES: COC1=CC=CC(=C1C2=CC(=O)C3=C(C(=C(C(=C3O2)OC)OC)OC)O)O
Method: HCD
Collision_energy: [28.333334]
Isolation_window: 4.0
Ion_mode: N
Num Peaks: 11
112.0157	17.6
127.0027	7.8
147.0808	26.9
170.0215	6.0
171.0292	14.1
173.0602	7.2
175.0758	56.1
176.0794	6.2
289.1085	9.3
373.0931	100.0
374.0961	21.2

Name: Smiglaside C (Not validated)
PrecursorMZ: 819.2354
RT: 6.0125
ExactMass: 820.24259379
Spectrum_type: 2
charge: -1
Formula: C38H44O20
SMILES: CC(=O)OCC1C(C(C(C(O1)OC2(C(C(C(O2)COC(=O)/C=C/C3=CC(=C(C=C3)O)OC)O)OC(=O)/C=C/C4=CC(=C(C=C4)O)OC)CO)OC(=O)C)O)OC(=O)C
Method: HCD
Collision_energy: [28.333334]
Isolation_window: 4.0
Ion_mode: N
Num Peaks: 8
134.0365	4.3
160.0157	33.2
161.0231	4.2
175.0393	100.0
176.0426	8.9
193.0501	11.3
819.2354	31.0
820.2380	11.1

Name: Smiglaside C (Not validated) + 1Acetyl
PrecursorMZ: 861.24337
RT: 6.41995
ExactMass: 862.25315847
Spectrum_type: 2
charge: -1
Formula: C40H46O21
SMILES: CC(=O)OCC1C(C(C(C(O1)OC2(C(C(C(O2)COC(=O)/C=C/C3=CC(=C(C=C3)O)OC)O)OC(=O)/C=C/C4=CC(=C(C=C4)O)OC)COC(=O)C)OC(=O)C)O)OC(=O)C
Method: HCD
Collision_energy: [28.333334]
Isolation_window: 4.0
Ion_mode: N
Num Peaks: 16
95.6975	1.4
132.0204	1.9
134.0360	4.2
149.0594	1.8
160.0152	37.8
161.0222	4.7
175.0387	100.0
176.0421	9.4
193.0493	11.6
361.0915	1.3
389.2688	2.5
801.2172	1.2
819.2315	1.7
861.2436	33.2
862.2468	14.1
863.2501	2.7

Name: Smnd-309
PrecursorMZ: 357.06197
RT: 6.7556
ExactMass: 358.0688674
Spectrum_type: 2
charge: -1
Formula: C18H14O8
SMILES: C1=CC(=C(C=C1/C=C(\C2=C(C=CC(=C2O)O)/C=C/C(=O)O)/C(=O)O)O)O
Method: HCD
Collision_energy: [28.333334]
Isolation_window: 4.0
Ion_mode: N
Num Peaks: 10
61.9874	6.9
271.0246	7.3
299.0201	11.3
313.1444	6.3
327.0149	75.7
328.0181	14.2
342.0384	100.0
343.0419	18.0
357.0620	90.7
358.0653	17.5

Name: Sodium cholate hydrate
PrecursorMZ: 407.28041
RT: 5.6433
ExactMass: 448.28008331
Spectrum_type: 2
charge: -1
Formula: C24H41NaO6
SMILES: C[C@H](CCC(=O)[O-])[C@H]1CC[C@@H]2[C@@]1([C@H](C[C@H]3[C@H]2[C@@H](C[C@H]4[C@@]3(CC[C@H](C4)O)C)O)O)C.O.[Na+]
Method: HCD
Collision_energy: [28.333334]
Isolation_window: 4.0
Ion_mode: N
Num Peaks: 6
343.2642	1.9
405.2647	2.0
406.2688	2.8
407.2803	100.0
408.2837	26.2
409.2870	3.0

Name: Solabegron
PrecursorMZ: 409.13283
RT: 6.962
ExactMass: 410.1397203
Spectrum_type: 2
charge: -1
Formula: C23H23ClN2O3
SMILES: C1=CC(=CC(=C1)C(=O)O)C2=CC(=CC=C2)NCCNC[C@@H](C3=CC(=CC=C3)Cl)O
Method: HCD
Collision_energy: [28.333334]
Isolation_window: 4.0
Ion_mode: N
Num Peaks: 10
97.3382	2.9
285.1859	95.1
286.1894	19.5
325.1843	12.8
329.1760	7.7
365.1428	10.3
407.2803	3.1
409.1328	100.0
410.1335	22.4
411.1298	4.2

Name: Solidagenone
PrecursorMZ: 315.19666
RT: 7.6094
ExactMass: 316.20384475
Spectrum_type: 2
charge: -1
Formula: C20H28O3
SMILES: CC1=CC(=O)[C@@H]2[C@@]([C@]1(CCC3=COC=C3)O)(CCCC2(C)C)C
Method: HCD
Collision_energy: [28.333334]
Isolation_window: 4.0
Ion_mode: N
Num Peaks: 9
295.2279	6.8
313.1669	51.6
313.2374	19.0
314.1693	20.1
315.1967	100.0
315.2524	30.0
316.2002	23.0
316.2560	6.8
317.2116	17.1

Name: Soyasapogenol B base + O-HexA-Pen
PrecursorMZ: 765.44356
RT: 6.3742
ExactMass: 766.45034216
Spectrum_type: 2
charge: -1
Formula: C41H66O13
SMILES: CC1(CC2C3=CCC4C5(CCC(C(C5CCC4(C3(CCC2(C(C1)O)C)C)C)(C)CO)OC6C(C(C(C(O6)C(=O)O)O)O)OC7C(C(C(CO7)O)O)O)C)C
Method: HCD
Collision_energy: [28.333334]
Isolation_window: 4.0
Ion_mode: N
Num Peaks: 18
59.0130	7.4
71.0129	9.5
75.0078	9.4
85.0285	7.6
85.0466	2.6
85.0525	4.1
85.1638	2.1
87.0078	1.5
89.0234	13.9
99.0079	8.5
101.0234	2.6
113.0235	8.9
131.0340	2.4
157.0134	5.2
615.3946	2.0
765.4436	100.0
766.4470	45.7
767.4498	7.4

Name: Soyasaponin Ba
PrecursorMZ: 957.50709
RT: 6.03604
ExactMass: 958.51373025
Spectrum_type: 2
charge: -1
Formula: C48H78O19
SMILES: C[C@]12CC[C@@H]([C@]([C@@H]1CC[C@@]3([C@@H]2CC=C4[C@]3(CC[C@@]5([C@H]4CC(C[C@H]5O)(C)C)C)C)C)(C)CO)O[C@H]6[C@@H]([C@H]([C@@H]([C@H](O6)C(=O)O)O)O)O[C@H]7[C@@H]([C@H]([C@H]([C@H](O7)CO)O)O)O[C@H]8[C@@H]([C@H]([C@@H]([C@H](O8)CO)O)O)O
Method: HCD
Collision_energy: [28.333334]
Isolation_window: 4.0
Ion_mode: N
Num Peaks: 22
71.0129	12.2
75.0078	4.4
85.0285	24.5
87.0077	2.5
89.0235	13.3
95.0129	4.8
99.0078	6.4
101.0234	11.5
106.3861	2.8
106.3943	4.0
113.0235	12.3
119.0341	5.9
131.0342	5.8
139.0030	5.4
143.0344	2.2
161.0447	10.3
179.0555	7.2
221.0663	17.3
263.0773	2.6
957.5069	100.0
958.5106	48.0
959.5134	8.0

Name: Sparfloxacin
PrecursorMZ: 391.15127
RT: 3.56685
ExactMass: 392.1659969
Spectrum_type: 2
charge: -1
Formula: C19H22F2N4O3
SMILES: C[C@@H]1CN(C[C@@H](N1)C)C2=C(C(=C3C(=C2F)N(C=C(C3=O)C(=O)O)C4CC4)N)F
Method: HCD
Collision_energy: [28.333334]
Isolation_window: 4.0
Ion_mode: N
Num Peaks: 21
59.0129	8.5
84.0445	8.8
122.0602	6.2
136.0761	8.9
150.0915	4.7
179.0702	6.0
180.1022	21.3
228.1391	5.1
258.1372	100.0
259.1402	15.1
271.1446	5.7
275.1401	4.9
288.1471	4.7
301.1081	14.9
303.1713	68.9
304.1742	12.6
347.1613	25.9
390.1675	4.7
391.1040	5.5
391.1510	69.5
392.1517	16.0

Name: Spiro(furo(4,3,2-ij)pyrano(4',3':4,5)cyclohepta(1,2-f)(2)benzopyran-7(9H),2'-oxirane)-1,5,9,13(2H,3aH,11H)-tetrone, 5a,6,6a,13a,13b,13c-hexahydro-2,5a,11,11,13a-pentamethyl-
PrecursorMZ: 441.156
RT: 5.1883
ExactMass: 442.16276778
Spectrum_type: 2
charge: -1
Formula: C24H26O8
SMILES: CC1C(=O)C2C3C(O1)OC(=O)C3(CC4C2(C(=O)C=C5C(=CC(=O)OC5(C)C)C46CO6)C)C
Method: HCD
Collision_energy: [28.333334]
Isolation_window: 4.0
Ion_mode: N
Num Peaks: 4
61.9875	22.0
327.0869	3.9
441.1557	100.0
442.1589	24.3

Name: Stachybotrydial
PrecursorMZ: 385.20087
RT: 8.4659
ExactMass: 386.20932405
Spectrum_type: 2
charge: -1
Formula: C23H30O5
SMILES: C[C@@H]1CC[C@@H]2[C@@]([C@@]13CC4=C(C=C(C(=C4O3)C=O)C=O)O)(CC[C@H](C2(C)C)O)C
Method: HCD
Collision_energy: [28.333334]
Isolation_window: 4.0
Ion_mode: N
Num Peaks: 7
283.0967	46.6
326.1511	83.8
327.1572	39.0
385.2004	100.0
385.2399	24.1
386.2016	30.0
387.2553	17.2

Name: Sterebin A
PrecursorMZ: 309.20719
RT: 7.7657
ExactMass: 310.21440943
Spectrum_type: 2
charge: -1
Formula: C18H30O4
SMILES: CC(=O)/C=C/[C@@H]1[C@]2(CCCC(C2[C@H]([C@@H]([C@@]1(C)O)O)O)(C)C)C
Method: HCD
Collision_energy: [28.333334]
Isolation_window: 4.0
Ion_mode: N
Num Peaks: 12
83.0491	19.1
223.1692	11.0
247.2067	16.1
291.1963	77.0
292.1997	12.7
308.1374	66.6
308.6396	22.2
309.1381	13.8
309.1735	23.3
309.2069	39.2
311.1682	100.0
311.2207	15.8

Name: Sterebin B
PrecursorMZ: 351.2168
RT: 7.2106
ExactMass: 352.22497412
Spectrum_type: 2
charge: -1
Formula: C20H32O5
SMILES: CC(=O)/C=C/[C@@H]1[C@]2(CCCC(C2[C@H]([C@@H]([C@@]1(C)O)O)OC(=O)C)(C)C)C
Method: HCD
Collision_energy: [28.333334]
Isolation_window: 4.0
Ion_mode: N
Num Peaks: 25
69.0335	26.7
73.0284	62.6
83.0491	42.1
95.0490	36.2
97.0647	87.9
111.0804	46.9
137.0961	61.1
139.0755	21.5
157.0859	100.0
163.1119	22.1
169.0859	17.7
187.0971	17.2
191.1434	28.9
193.1224	56.9
195.1019	34.0
205.1589	22.3
223.1331	21.6
265.1472	61.1
271.2061	22.1
317.2113	24.4
333.2060	29.5
351.0714	17.6
351.2172	92.6
352.2201	19.7
353.1031	30.7

Name: Sternbin
PrecursorMZ: 301.07184
RT: 6.3493
ExactMass: 302.07903816
Spectrum_type: 2
charge: -1
Formula: C16H14O6
SMILES: COC1=CC(=C2C(=O)CC(OC2=C1)C3=CC(=C(C=C3)O)O)O
Method: HCD
Collision_energy: [28.333334]
Isolation_window: 4.0
Ion_mode: N
Num Peaks: 5
135.0445	100.0
136.0482	8.3
165.0188	62.9
301.0720	42.4
302.0749	8.1

Name: Stictic Acid
PrecursorMZ: 385.0554
RT: 2.9871
ExactMass: 386.06378202
Spectrum_type: 2
charge: -1
Formula: C19H14O9
SMILES: CC1=CC(=C(C2=C1C(=O)OC3=C(O2)C4=C(C(=C3C)O)C(=O)OC4O)C=O)OC
Method: HCD
Collision_energy: [28.333334]
Isolation_window: 4.0
Ion_mode: N
Num Peaks: 8
177.0180	21.9
189.0182	40.7
190.0259	14.8
217.0131	49.0
231.0287	18.5
341.0655	100.0
342.0692	18.7
385.0551	25.1

Name: Stigmast-7-ene-6,26-dione, 26,28-epoxy-2,3,14,20,22-pentahydroxy-, (2beta,3beta,5beta,9xi,22R,24S,25S,28R)-
PrecursorMZ: 519.29727
RT: 6.1427
ExactMass: 520.30361836
Spectrum_type: 2
charge: -1
Formula: C29H44O8
SMILES: C[C@H]1[C@@H]([C@H](OC1=O)C)C[C@H]([C@@](C)([C@H]2CC[C@@]3([C@@]2(CCC4C3=CC(=O)[C@H]5[C@@]4(C[C@@H]([C@@H](C5)O)O)C)C)O)O)O
Method: HCD
Collision_energy: [28.333334]
Isolation_window: 4.0
Ion_mode: N
Num Peaks: 36
59.0130	11.5
61.9875	19.3
71.0130	11.5
73.0286	15.4
83.0493	24.4
85.0285	13.0
87.0442	16.9
95.0494	17.9
99.0443	11.7
101.0599	22.6
109.0650	12.5
111.0443	16.4
113.0599	100.0
149.0600	17.7
149.0964	31.2
151.0757	11.2
153.0913	18.2
163.0754	12.7
165.0914	48.0
167.1073	15.7
175.0759	24.5
177.0917	11.5
191.0704	12.4
195.1027	11.7
205.1226	15.7
221.0277	22.5
279.1596	12.1
473.2852	18.9
475.3047	21.8
501.3284	15.5
517.3198	12.9
518.3251	25.0
519.3398	93.2
520.3286	23.0
521.3013	32.3
521.3487	28.5

Name: Strophanthidin
PrecursorMZ: 403.21279
RT: 7.9084
ExactMass: 404.21988874
Spectrum_type: 2
charge: -1
Formula: C23H32O6
SMILES: C[C@]12CC[C@H]3[C@H]([C@]1(CC[C@@H]2C4=CC(=O)OC4)O)CC[C@]5([C@@]3(CC[C@@H](C5)O)C=O)O
Method: HCD
Collision_energy: [28.333334]
Isolation_window: 4.0
Ion_mode: N
Num Peaks: 25
58.0052	3.7
127.0755	4.0
219.1385	11.8
231.1751	21.1
232.1782	3.8
233.1545	3.4
249.1493	16.9
250.1539	3.5
261.1857	12.0
271.2065	19.7
272.2098	4.5
285.2223	3.2
295.2064	17.3
296.2100	3.5
313.2174	4.4
357.2072	46.1
358.2108	10.6
375.2178	20.5
376.2206	5.6
403.2122	100.0
403.2514	61.6
404.2151	25.5
404.2552	16.0
405.2198	3.3
405.2639	9.2

Name: Strophanthidinic acid lactone acetate
PrecursorMZ: 443.20779
RT: 7.9593
ExactMass: 444.21480336
Spectrum_type: 2
charge: -1
Formula: C25H32O7
SMILES: CC(=O)OC1CCC23C4CCC5(C(CCC5(C4CCC2(C1)O)OC3=O)C6=CC(=O)OC6)C
Method: HCD
Collision_energy: [28.333334]
Isolation_window: 4.0
Ion_mode: N
Num Peaks: 10
61.9875	1.9
112.9846	2.5
161.0237	100.0
162.0271	9.2
359.2607	1.2
397.2022	59.0
398.2056	15.0
399.2086	2.0
403.2488	3.4
445.2563	2.8

Name: Suberate
PrecursorMZ: 173.08124
RT: 1.4692
ExactMass: 172.07355886
Spectrum_type: 2
charge: -1
Formula: C8H12O4-2
SMILES: C(CCCC(=O)[O-])CCC(=O)[O-]
Method: HCD
Collision_energy: [28.333334]
Isolation_window: 4.0
Ion_mode: N
Num Peaks: 43
57.0336	4.7
58.0289	9.5
59.0129	6.9
69.0336	2.1
71.0130	1.9
72.9921	2.4
73.0286	2.2
74.0238	4.4
83.0492	2.8
85.0285	2.8
85.0649	6.7
86.0238	2.1
87.0077	2.9
88.0395	4.5
97.0285	11.8
99.0441	3.3
100.0395	1.7
104.0343	2.5
111.0442	13.8
111.0806	3.4
112.0394	3.0
112.0760	2.0
113.0235	1.7
113.0598	5.3
115.0391	3.8
127.0392	2.0
127.0756	4.0
128.0708	4.7
129.0549	11.9
129.0912	4.0
129.1024	3.2
144.0657	2.4
155.0342	7.9
155.0703	3.6
171.0651	3.3
171.1132	2.0
172.0604	4.3
173.0236	4.0
173.0448	20.1
173.0811	100.0
174.0756	4.4
174.0855	4.3
175.0611	3.5

Name: Succinic Acid
PrecursorMZ: 117.01848
RT: 1.1944
ExactMass: 118.02660867
Spectrum_type: 2
charge: -1
Formula: C4H6O4
SMILES: C(CC(=O)O)C(=O)O
Method: HCD
Collision_energy: [28.333334]
Isolation_window: 4.0
Ion_mode: N
Num Peaks: 4
73.0286	100.0
74.0319	2.9
99.0078	10.3
117.0185	22.0

Name: Sucrose
PrecursorMZ: 387.11324
RT: 0.88184
ExactMass: 342.11621151
Spectrum_type: 2
charge: -1
Formula: C12H22O11
SMILES: C([C@@H]1[C@H]([C@@H]([C@H]([C@H](O1)O[C@]2([C@H]([C@@H]([C@H](O2)CO)O)O)CO)O)O)O)O
Method: HCD
Collision_energy: [28.333334]
Isolation_window: 4.0
Ion_mode: N
Num Peaks: 14
59.0127	14.2
71.0127	18.4
80.9642	14.8
89.0231	53.5
101.0231	15.3
113.0231	13.3
119.0336	19.4
143.0338	6.3
161.0441	13.7
179.0549	25.4
341.1077	100.0
342.1108	13.0
387.0602	41.0
388.0631	7.1

Name: Sulfo jasmonate
PrecursorMZ: 305.0687
RT: 1.0847
ExactMass: 306.07732408
Spectrum_type: 2
charge: -1
Formula: C12H18O7S
SMILES: C1CC(=O)C(C1CC(=O)O)C/C=C/CCOS(=O)(=O)O
Method: HCD
Collision_energy: [28.333334]
Isolation_window: 4.0
Ion_mode: N
Num Peaks: 11
59.0127	9.4
96.9588	99.5
98.9546	1.0
165.1275	1.4
225.1121	15.6
226.1156	1.9
227.1278	20.6
305.0691	49.7
306.0723	6.9
306.9440	2.0
307.0847	100.0

Name: Sulfobacin B
PrecursorMZ: 574.46435
RT: 10.5386
ExactMass: 575.45834535
Spectrum_type: 2
charge: -1
Formula: C32H65NO5S
SMILES: CC(C)CCCCCCCCCCC[C@H]([C@H](CS(=O)(=O)O)NC(=O)CCCCCCCCCCCC(C)C)O
Method: HCD
Collision_energy: [28.333334]
Isolation_window: 4.0
Ion_mode: N
Num Peaks: 16
60.9922	7.8
63.8311	3.2
458.3799	5.0
460.3957	9.6
461.3985	2.7
474.3746	4.0
492.3854	21.7
493.3884	6.4
504.3854	5.6
530.4728	9.5
531.4753	3.3
562.4633	4.4
573.4545	9.2
574.4602	100.0
575.4650	46.3
576.4668	6.5

Name: Sulfonolipid 5
PrecursorMZ: 602.44629
RT: 10.0853
Spectrum_type: 2
charge: -1
Method: HCD
Collision_energy: [28.333334]
Isolation_window: 4.0
Ion_mode: N
Num Peaks: 12
66.9403	2.9
80.9641	3.7
96.9593	3.6
336.2213	22.9
337.2252	3.9
350.2371	100.0
351.2401	16.6
364.2530	14.5
365.2559	2.6
602.4464	61.8
603.4497	22.4
604.4527	4.9

Name: Sulfosuccinic acid monosodium salt
PrecursorMZ: 196.97551
RT: 1.0064
ExactMass: 197.9834237
Spectrum_type: 2
charge: -1
Formula: C4H6O7S
SMILES: C(C(C(=O)O)S(=O)(=O)O)C(=O)O
Method: HCD
Collision_energy: [28.333334]
Isolation_window: 4.0
Ion_mode: N
Num Peaks: 16
71.0129	13.8
75.0078	3.7
78.9581	29.2
80.9642	72.6
96.9686	44.0
134.9750	3.5
148.9836	3.0
152.9041	8.6
152.9856	20.7
160.8413	100.0
162.8383	70.8
176.9352	3.1
195.8104	58.7
196.9432	3.3
196.9755	22.0
197.8074	79.5

Name: Sulfuric acid, monooctadecyl ester
PrecursorMZ: 349.24164
RT: 9.0537
ExactMass: 350.24908086
Spectrum_type: 2
charge: -1
Formula: C18H38O4S
SMILES: CCCCCCCCCCCCCCCCCCOS(=O)(=O)O
Method: HCD
Collision_energy: [28.333334]
Isolation_window: 4.0
Ion_mode: N
Num Peaks: 3
96.9591	23.5
349.2417	100.0
350.2453	20.3

Name: Sulfuric acid, monooctyl ester
PrecursorMZ: 209.08482
RT: 5.222799999999999
ExactMass: 210.09258022
Spectrum_type: 2
charge: -1
Formula: C8H18O4S
SMILES: CCCCCCCCOS(=O)(=O)O
Method: HCD
Collision_energy: [28.333334]
Isolation_window: 4.0
Ion_mode: N
Num Peaks: 7
79.9566	0.6
96.9591	56.9
98.9550	1.6
209.0439	0.7
209.0848	100.0
210.0881	9.4
211.0791	2.9

Name: Sydonic acid
PrecursorMZ: 265.14412
RT: 6.1568
ExactMass: 266.15180918
Spectrum_type: 2
charge: -1
Formula: C15H22O4
SMILES: CC(C)CCCC(C)(C1=C(C=C(C=C1)C(=O)O)O)O
Method: HCD
Collision_energy: [28.333334]
Isolation_window: 4.0
Ion_mode: N
Num Peaks: 6
210.9614	29.9
247.1335	99.4
248.1369	11.9
265.1446	100.0
266.1477	15.7
266.9517	19.8

Name: Syringaldehyde
PrecursorMZ: 181.05015
RT: 3.7758833333333333
ExactMass: 182.0579088
Spectrum_type: 2
charge: -1
Formula: C9H10O4
SMILES: COC1=CC(=CC(=C1O)OC)C=O
Method: HCD
Collision_energy: [28.333334]
Isolation_window: 4.0
Ion_mode: N
Num Peaks: 11
68.0133	11.1
90.9972	29.9
95.0240	10.2
109.0399	14.0
123.0443	37.3
133.0287	67.7
134.9872	94.9
136.9827	14.9
151.0394	100.0
178.9774	16.7
181.0499	26.7

Name: Tanshinone Iia
PrecursorMZ: 293.1188
RT: 6.4409
ExactMass: 294.125594432
Spectrum_type: 2
charge: -1
Formula: C19H18O3
SMILES: CC1=COC2=C1C(=O)C(=O)C3=C2C=CC4=C3CCCC4(C)C
Method: HCD
Collision_energy: [28.333334]
Isolation_window: 4.0
Ion_mode: N
Num Peaks: 23
71.0130	2.8
119.0492	3.5
130.0417	9.6
131.0495	23.4
143.0494	3.6
145.0652	62.2
146.0685	4.5
147.0444	8.4
161.0601	4.2
163.0759	93.5
164.0791	6.2
187.0761	6.1
189.0917	18.5
220.1466	10.0
221.1543	28.1
222.1583	3.4
236.1053	30.7
237.1094	5.4
275.1083	3.0
293.1185	100.0
293.1758	9.5
294.1217	19.0
295.1337	40.0

Name: Tartrate
PrecursorMZ: 149.00845
RT: 1.2458
ExactMass: 148.00078784
Spectrum_type: 2
charge: -1
Formula: C4H4O6-2
SMILES: [C@@H]([C@H](C(=O)[O-])O)(C(=O)[O-])O
Method: HCD
Collision_energy: [28.333334]
Isolation_window: 4.0
Ion_mode: N
Num Peaks: 10
65.9977	26.8
70.0290	26.1
72.9923	65.5
86.0239	53.5
87.0079	100.0
120.0658	40.4
123.0194	27.2
148.0510	37.5
149.0087	65.5
150.0302	39.8

Name: Taurochenodeoxycholic Acid
PrecursorMZ: 498.28968
RT: 5.5093
ExactMass: 499.29675933
Spectrum_type: 2
charge: -1
Formula: C26H45NO6S
SMILES: C[C@H](CCC(=O)NCCS(=O)(=O)O)[C@H]1CC[C@@H]2[C@@]1(CC[C@H]3[C@H]2[C@@H](C[C@H]4[C@@]3(CC[C@H](C4)O)C)O)C
Method: HCD
Collision_energy: [28.333334]
Isolation_window: 4.0
Ion_mode: N
Num Peaks: 25
55.2493	0.3
55.2523	0.6
55.2566	0.7
55.3640	2.2
55.3672	4.3
55.3695	0.2
55.4757	0.5
55.4787	1.1
79.9565	1.2
95.9515	0.4
96.9592	17.9
98.9550	0.8
124.0067	0.3
295.1128	0.2
469.1896	0.4
496.2773	1.4
497.2872	11.7
497.2911	5.8
498.1335	0.5
498.1387	0.4
498.2910	100.0
498.4440	0.3
498.4496	0.5
499.2943	28.0
500.2928	6.4

Name: Taurolithocholic Acid
PrecursorMZ: 482.29499
RT: 6.3433
ExactMass: 483.30184471
Spectrum_type: 2
charge: -1
Formula: C26H45NO5S
SMILES: C[C@H](CCC(=O)NCCS(=O)(=O)O)[C@H]1CC[C@@H]2[C@@]1(CC[C@H]3[C@H]2CC[C@H]4[C@@]3(CC[C@H](C4)O)C)C
Method: HCD
Collision_energy: [28.333334]
Isolation_window: 4.0
Ion_mode: N
Num Peaks: 15
53.4723	0.5
53.4752	1.1
53.5868	2.5
53.5899	5.0
53.6985	0.6
53.7013	1.3
79.9565	1.6
96.9593	9.5
480.2468	0.6
481.2651	26.0
482.1510	0.6
482.2964	100.0
482.4424	0.5
483.2999	31.6
484.2979	7.6

Name: Tefinostat
PrecursorMZ: 494.26653
RT: 5.9464
ExactMass: 495.27332129
Spectrum_type: 2
charge: -1
Formula: C28H37N3O5
SMILES: C1CCC(C1)OC(=O)[C@H](C2=CC=CC=C2)NCC3=CC=C(C=C3)NC(=O)CCCCCCC(=O)NO
Method: HCD
Collision_energy: [28.333334]
Isolation_window: 4.0
Ion_mode: N
Num Peaks: 16
61.9874	7.5
120.0810	8.0
136.0759	27.6
245.1658	62.5
246.1695	10.5
267.1503	27.4
283.1815	90.6
284.1850	17.7
392.2335	7.6
408.2657	95.9
409.2687	23.8
452.2555	41.5
453.2590	12.1
494.2664	100.0
495.2683	27.1
495.3349	23.6

Name: Temsavir
PrecursorMZ: 472.17457
RT: 10.0836
ExactMass: 473.18115224
Spectrum_type: 2
charge: -1
Formula: C24H23N7O4
SMILES: CC1=NN(C=N1)C2=NC=C(C3=C2NC=C3C(=O)C(=O)N4CCN(CC4)C(=O)C5=CC=CC=C5)OC
Method: HCD
Collision_energy: [28.333334]
Isolation_window: 4.0
Ion_mode: N
Num Peaks: 4
103.9189	20.7
383.1888	20.7
472.1749	100.0
473.1778	24.5

Name: Terpestacin
PrecursorMZ: 401.27061
RT: 9.1126
ExactMass: 402.27700969
Spectrum_type: 2
charge: -1
Formula: C25H38O4
SMILES: C/C/1=C/CC/C(=C\C[C@]2([C@H](C/C=C(\[C@H](CC1)O)/C)C(=C(C2=O)O)[C@H](C)CO)C)/C
Method: HCD
Collision_energy: [28.333334]
Isolation_window: 4.0
Ion_mode: N
Num Peaks: 19
136.0525	11.7
149.0603	100.0
150.0636	9.0
162.0684	1.9
342.2571	21.8
343.2605	5.7
357.2808	15.1
358.2843	4.1
359.2965	7.3
369.2439	5.1
383.2574	7.7
383.2968	5.1
384.2590	2.6
385.2749	2.7
399.2908	2.1
401.2678	85.2
401.3053	7.7
402.2709	22.3
403.2866	19.5

Name: Terphenolide
PrecursorMZ: 385.09302
RT: 4.5699
ExactMass: 386.10016753
Spectrum_type: 2
charge: -1
Formula: C20H18O8
SMILES: COC1=C(C(=C(C(=C1)C2=CC=C(C=C2)O)OC)O)C3=CC(=O)OC3CC(=O)O
Method: HCD
Collision_energy: [28.333334]
Isolation_window: 4.0
Ion_mode: N
Num Peaks: 21
253.0882	3.0
265.0861	3.9
267.0663	11.7
268.0705	3.7
281.0818	12.3
282.0894	27.2
283.0948	8.5
285.0768	5.2
317.1502	4.6
325.0712	8.2
326.0790	14.9
329.0664	3.4
339.1317	11.5
341.1032	18.6
342.1057	4.3
343.1191	8.3
370.0685	6.9
385.0931	100.0
385.2278	3.1
386.0953	19.8
387.1048	6.0

Name: Terrein
PrecursorMZ: 153.05508
RT: 2.9398
ExactMass: 154.062994177
Spectrum_type: 2
charge: -1
Formula: C8H10O3
SMILES: C/C=C/C1=CC(=O)[C@@H]([C@H]1O)O
Method: HCD
Collision_energy: [28.333334]
Isolation_window: 4.0
Ion_mode: N
Num Peaks: 36
66.0340	6.5
67.0292	2.5
81.0336	2.3
81.0450	2.8
82.0289	2.5
89.0235	2.8
93.0337	27.1
94.0369	1.8
95.0242	2.1
96.9592	1.7
107.0496	2.1
108.0208	3.3
108.0447	13.5
109.0287	95.6
109.0406	1.8
109.0483	1.8
109.0649	3.4
110.0240	8.1
110.0322	5.6
111.0442	2.1
121.0287	62.1
122.0316	3.6
123.0443	51.3
124.0476	3.8
125.0348	2.6
137.0238	3.1
139.0393	100.0
140.0427	7.0
151.0395	11.9
152.0448	3.3
153.0187	92.5
153.0549	33.8
153.0905	2.4
154.0230	6.4
154.0599	2.3
165.0188	3.3

Name: Tert-butyl 3-(2-(2-methylpropanamido)pyridine-3-amido)azetidine-1-carboxylate
PrecursorMZ: 361.18761
RT: 2.9271
ExactMass: 362.19540532
Spectrum_type: 2
charge: -1
Formula: C18H26N4O4
SMILES: CC(C)C(=O)NC1=C(C=CC=N1)C(=O)NC2CN(C2)C(=O)OC(C)(C)C
Method: HCD
Collision_energy: [28.333334]
Isolation_window: 4.0
Ion_mode: N
Num Peaks: 12
69.0454	6.9
112.0506	8.0
135.0441	10.3
183.1241	16.5
197.1402	8.0
239.1505	6.0
265.1560	12.6
291.1346	12.7
346.1638	6.6
361.1430	7.2
361.1874	100.0
362.1903	19.4

Name: Tetracosanoic Acid
PrecursorMZ: 367.35821
RT: 11.4298
ExactMass: 368.36543077
Spectrum_type: 2
charge: -1
Formula: C24H48O2
SMILES: CCCCCCCCCCCCCCCCCCCCCCCC(=O)O
Method: HCD
Collision_energy: [28.333334]
Isolation_window: 4.0
Ion_mode: N
Num Peaks: 7
365.3427	5.8
366.3461	6.9
367.2340	3.6
367.3583	100.0
368.2382	0.7
368.3618	26.1
369.3656	2.2

Name: Tetradecane-7-sulfonic acid
PrecursorMZ: 277.18412
RT: 6.828033333333333
ExactMass: 278.19156599
Spectrum_type: 2
charge: -1
Formula: C14H30O3S
SMILES: CCCCCCCC(CCCCCC)S(=O)(=O)O
Method: HCD
Collision_energy: [28.333334]
Isolation_window: 4.0
Ion_mode: N
Num Peaks: 3
79.9563	19.8
277.1839	100.0
278.1868	14.9

Name: Teucroxide
PrecursorMZ: 377.16069
RT: 5.9268
ExactMass: 378.16785316
Spectrum_type: 2
charge: -1
Formula: C20H26O7
SMILES: C[C@@H]1C[C@H]([C@@]23CO[C@@]2(C[C@H](CC3[C@@]14CC(OC4=O)C5=COC=C5)O)CO)O
Method: HCD
Collision_energy: [28.333334]
Isolation_window: 4.0
Ion_mode: N
Num Peaks: 28
63.9615	2.5
79.9564	8.6
80.9642	8.4
96.9592	4.2
189.0666	3.2
195.0656	3.0
207.1053	5.9
209.1293	3.2
233.1181	4.8
236.0319	5.5
249.0402	4.2
251.1289	4.8
295.2273	8.3
297.2440	3.9
308.0901	100.0
309.0934	16.3
333.2063	2.3
359.1869	2.9
359.2699	3.9
361.2028	2.9
375.1815	7.9
376.1294	3.8
376.1867	4.0
377.1592	8.5
377.1991	65.6
378.2024	13.2
379.1782	2.8
379.2138	32.2

Name: Theobromine
PrecursorMZ: 179.05688
RT: 3.7189
ExactMass: 180.06472551
Spectrum_type: 2
charge: -1
Formula: C7H8N4O2
SMILES: CN1C=NC2=C1C(=O)NC(=O)N2C
Method: HCD
Collision_energy: [28.333334]
Isolation_window: 4.0
Ion_mode: N
Num Peaks: 44
65.0137	14.9
65.9977	18.3
66.0341	10.9
67.0294	16.3
68.0134	16.5
81.0450	14.6
82.0292	11.0
82.0402	26.8
83.0242	16.3
90.9973	32.8
91.0294	16.6
95.0243	26.8
96.0083	15.1
97.0400	16.4
98.0240	9.5
106.0404	16.1
107.0243	15.4
108.0560	10.9
109.0400	50.5
110.0241	16.0
110.0353	14.3
118.0404	14.8
119.0245	12.8
121.0291	10.6
121.0401	14.6
122.0352	14.1
123.0559	12.8
124.0510	9.7
125.0350	10.2
134.0352	16.8
134.9874	100.0
135.0194	10.1
135.0558	11.3
136.0509	27.5
137.0350	30.1
138.0669	9.0
150.0667	15.0
151.0507	19.3
152.0456	19.0
153.0302	14.7
178.0616	20.0
178.9775	22.0
179.0575	13.1
180.0421	11.2

Name: Thr-CA
PrecursorMZ: 508.32776
RT: 5.609475
ExactMass: 509.33525284
Spectrum_type: 2
charge: -1
Formula: C28H47NO7
SMILES: C[C@H](CCC(=O)N[C@@H]([C@@H](C)O)C(=O)O)[C@H]1CC[C@@H]2[C@@]1([C@H](C[C@H]3[C@H]2[C@@H](C[C@H]4[C@@]3(CC[C@H](C4)O)C)O)O)C
Method: HCD
Collision_energy: [28.333334]
Isolation_window: 4.0
Ion_mode: N
Num Peaks: 11
51.5900	4.2
56.4820	5.8
74.0238	43.7
118.0499	4.1
402.3011	4.2
464.3015	74.0
465.3048	20.5
466.3060	2.4
508.3278	100.0
509.3311	30.8
510.3345	3.6

Name: Thr-DCA
PrecursorMZ: 492.33315
RT: 6.3902
ExactMass: 493.34033822
Spectrum_type: 2
charge: -1
Formula: C28H47NO6
SMILES: C[C@H](CCC(=O)N[C@@H]([C@@H](C)O)C(=O)O)[C@H]1CC[C@@H]2[C@@]1([C@H](C[C@H]3[C@H]2CC[C@H]4[C@@]3(CC[C@H](C4)O)C)O)C
Method: HCD
Collision_energy: [28.333334]
Isolation_window: 4.0
Ion_mode: N
Num Peaks: 14
54.7022	2.5
54.7052	4.5
74.0238	51.2
118.0500	4.9
402.3003	1.7
404.3173	4.0
430.3402	2.1
448.3068	78.2
449.3105	19.5
450.3136	1.8
464.3026	1.5
492.3366	100.0
493.3403	29.5
494.3432	3.4

Name: Thr-HDCA
PrecursorMZ: 492.33352
RT: 5.5755
ExactMass: 493.34033822
Spectrum_type: 2
charge: -1
Formula: C28H47NO6
SMILES: C[C@H](CCC(=O)N[C@@H]([C@@H](C)O)C(=O)O)[C@H]1CC[C@@H]2[C@@]1(CC[C@H]3[C@H]2C[C@@H]([C@H]4[C@@]3(CC[C@H](C4)O)C)O)C
Method: HCD
Collision_energy: [28.333334]
Isolation_window: 4.0
Ion_mode: N
Num Peaks: 11
54.7052	4.5
74.0238	40.8
89.0234	17.7
118.0501	4.3
430.2948	13.7
448.3070	61.8
449.3105	15.9
491.3023	27.7
492.3349	100.0
493.3373	32.0
494.3435	3.7

Name: Threonine + CDCA
PrecursorMZ: 492.33294
RT: 9.4497
ExactMass: 493.34033822
Spectrum_type: 2
charge: -1
Formula: C28H47NO6
SMILES: C[C@H](CCC(=O)N[C@@H](C(C)O)C(=O)O)[C@H]1CC[C@@H]2[C@@]1(CC[C@H]3[C@H]2[C@@H](C[C@H]4[C@@]3(CC[C@H](C4)O)C)O)C
Method: HCD
Collision_energy: [28.333334]
Isolation_window: 4.0
Ion_mode: N
Num Peaks: 6
137.0599	24.6
446.3278	31.4
449.3286	41.6
491.3377	43.1
492.3349	100.0
493.3390	28.9

Name: Threonine + alphaMCA
PrecursorMZ: 508.32735
RT: 8.5173
ExactMass: 509.33525284
Spectrum_type: 2
charge: -1
Formula: C28H47NO7
SMILES: C[C@H](CCC(=O)N[C@@H](C(C)O)C(=O)O)[C@H]1CC[C@@H]2[C@@]1(CC[C@H]3[C@H]2[C@@H]([C@H]([C@H]4[C@@]3(CC[C@H](C4)O)C)O)O)C
Method: HCD
Collision_energy: [28.333334]
Isolation_window: 4.0
Ion_mode: N
Num Peaks: 3
194.0451	57.8
508.3273	100.0
509.3302	27.7

Name: Thromboxane B3
PrecursorMZ: 367.21273
RT: 3.9501
ExactMass: 368.21988874
Spectrum_type: 2
charge: -1
Formula: C20H32O6
SMILES: CC/C=C\C[C@@H](/C=C/[C@@H]1[C@H]([C@H](CC(O1)O)O)C/C=C\CCCC(=O)O)O
Method: HCD
Collision_energy: [28.333334]
Isolation_window: 4.0
Ion_mode: N
Num Peaks: 5
331.1912	1.1
365.1973	1.2
367.2126	100.0
368.2160	22.0
369.2200	2.0

Name: Thymol beta-D-glucopyranoside
PrecursorMZ: 311.15022
RT: 6.619
ExactMass: 312.15728848
Spectrum_type: 2
charge: -1
Formula: C16H24O6
SMILES: CC1=CC(=C(C=C1)C(C)C)O[C@H]2[C@@H]([C@H]([C@@H]([C@H](O2)CO)O)O)O
Method: HCD
Collision_energy: [28.333334]
Isolation_window: 4.0
Ion_mode: N
Num Peaks: 11
69.0336	2.6
99.0078	7.2
113.0235	2.1
183.0109	3.9
209.1542	2.4
309.1741	2.1
310.1758	1.3
311.1687	100.0
312.1720	18.1
313.1672	3.3
313.2381	9.0

Name: Tolvaptan
PrecursorMZ: 447.14777
RT: 9.377
ExactMass: 448.1553704
Spectrum_type: 2
charge: -1
Formula: C26H25ClN2O3
SMILES: CC1=CC=CC=C1C(=O)NC2=CC(=C(C=C2)C(=O)N3CCCC(C4=C3C=CC(=C4)Cl)O)C
Method: HCD
Collision_energy: [28.333334]
Isolation_window: 4.0
Ion_mode: N
Num Peaks: 5
103.9194	33.4
403.1578	100.0
404.1630	25.6
447.1484	68.2
448.3070	31.7

Name: Tomatine (for Cholesterol assay)
PrecursorMZ: 1078.54242
RT: 4.5718
ExactMass: 1033.54575866
Spectrum_type: 2
charge: -1
Formula: C50H83NO21
SMILES: CC1CCC2(C(C3C(O2)CC4C3(CCC5C4CCC6C5(CCC(C6)OC7C(C(C(C(O7)CO)OC8C(C(C(C(O8)CO)O)OC9C(C(C(CO9)O)O)O)OC2C(C(C(C(O2)CO)O)O)O)O)O)C)C)C)NC1
Method: HCD
Collision_energy: [28.333334]
Isolation_window: 4.0
Ion_mode: N
Num Peaks: 39
83.0127	1.7
85.0284	5.9
87.0076	6.3
89.0232	11.8
95.0127	3.6
97.0284	4.1
99.0076	1.8
101.0232	16.1
113.0233	20.0
114.7214	1.7
114.7304	5.5
114.8419	3.1
115.0389	1.0
119.0338	2.4
125.0233	7.5
131.0337	2.4
143.0338	13.2
149.0444	2.1
161.0445	13.0
179.0548	1.5
221.0659	2.3
245.0655	1.1
275.0766	1.3
576.3895	58.6
577.3929	21.8
578.3956	2.2
672.4123	3.4
673.4114	1.7
684.4095	1.1
738.4429	15.8
739.4455	7.1
870.4846	14.6
871.4888	7.8
872.4900	1.3
900.4953	8.4
901.4990	4.6
1032.5371	100.0
1033.5402	59.0
1034.5424	10.0

Name: Tomato seeds TF1
PrecursorMZ: 1081.54019
RT: 4.4109
ExactMass: 1082.55090361
Spectrum_type: 2
charge: -1
Formula: C51H86O24
SMILES: CC1C2C(CC3C2(CCC4C3CCC5C4(CCC(C5)OC6C(C(C(C(O6)CO)OC7C(C(C(C(O7)CO)O)O)OC8C(C(C(C(O8)CO)O)O)O)O)O)C)C)OC1(CCC(C)COC9C(C(C(C(O9)CO)O)O)O)O
Method: HCD
Collision_energy: [28.333334]
Isolation_window: 4.0
Ion_mode: N
Num Peaks: 23
85.0283	5.9
89.0231	9.9
101.0232	19.9
113.0231	12.7
119.0337	4.1
120.1768	4.0
120.2883	2.8
131.0338	2.8
143.0336	3.8
161.0443	7.4
221.0656	4.1
595.3840	13.1
596.3869	4.9
757.4361	38.6
758.4396	17.9
759.4415	3.2
919.4889	27.9
920.4931	16.4
921.4964	2.7
1080.5271	2.7
1081.5410	100.0
1082.5442	66.1
1083.5468	13.4

Name: Trachelosperogenin A1
PrecursorMZ: 679.36949
RT: 5.5506
ExactMass: 680.37717722
Spectrum_type: 2
charge: -1
Formula: C36H56O12
SMILES: C[C@@H]1CC[C@@]2(CC[C@@]3(C(=CCC4[C@]3(CCC5[C@@]4(C[C@H]([C@@H]([C@]5(C)C(=O)O)O)O)C)C)[C@@H]2[C@]1(C)O)C)C(=O)O[C@H]6[C@@H]([C@H]([C@@H]([C@H](O6)CO)O)O)O
Method: HCD
Collision_energy: [28.333334]
Isolation_window: 4.0
Ion_mode: N
Num Peaks: 5
471.3112	34.1
472.3135	11.6
517.3171	15.1
679.3700	100.0
680.3741	36.7

Name: Triacetylresveratrol
PrecursorMZ: 353.10362
RT: 7.0016
ExactMass: 354.11033829
Spectrum_type: 2
charge: -1
Formula: C20H18O6
SMILES: CC(=O)OC1=CC=C(C=C1)/C=C/C2=CC(=CC(=C2)OC(=O)C)OC(=O)C
Method: HCD
Collision_energy: [28.333334]
Isolation_window: 4.0
Ion_mode: N
Num Peaks: 3
219.0663	7.5
353.1035	100.0
354.1064	21.8

Name: Tricin
PrecursorMZ: 329.06679
RT: 6.3577
ExactMass: 330.07395278
Spectrum_type: 2
charge: -1
Formula: C17H14O7
SMILES: COC1=CC(=CC(=C1O)OC)C2=CC(=O)C3=C(C=C(C=C3O2)O)O
Method: HCD
Collision_energy: [28.333334]
Isolation_window: 4.0
Ion_mode: N
Num Peaks: 19
123.0442	34.4
149.0600	22.3
150.0634	3.5
165.0553	4.8
179.0709	4.5
271.0247	6.2
299.0197	52.3
300.0229	8.6
311.2237	2.5
314.0432	100.0
315.0465	15.9
327.2178	3.8
329.0668	67.2
329.1385	15.8
329.2328	14.6
330.0703	13.1
330.1415	3.4
330.2361	3.4
331.1917	5.4

Name: Tricosanoic Acid
PrecursorMZ: 353.34101
RT: 11.482
ExactMass: 354.349780706
Spectrum_type: 2
charge: -1
Formula: C23H46O2
SMILES: CCCCCCCCCCCCCCCCCCCCCCC(=O)O
Method: HCD
Collision_energy: [28.333334]
Isolation_window: 4.0
Ion_mode: N
Num Peaks: 5
69.2679	2.4
353.2018	10.6
353.3413	100.0
354.3445	24.0
355.1566	4.4

Name: Trimellitic acid
PrecursorMZ: 209.00882
RT: 1.9953
ExactMass: 210.01643791
Spectrum_type: 2
charge: -1
Formula: C9H6O6
SMILES: C1=CC(=C(C=C1C(=O)O)C(=O)O)C(=O)O
Method: HCD
Collision_energy: [28.333334]
Isolation_window: 4.0
Ion_mode: N
Num Peaks: 4
121.0286	18.4
162.9829	6.1
165.0187	100.0
166.0225	9.7

Name: Trinexapac
PrecursorMZ: 223.06048
RT: 3.005
ExactMass: 224.06847348
Spectrum_type: 2
charge: -1
Formula: C11H12O5
SMILES: C1CC1C(=C2C(=O)CC(CC2=O)C(=O)O)O
Method: HCD
Collision_energy: [28.333334]
Isolation_window: 4.0
Ion_mode: N
Num Peaks: 11
66.0340	19.7
94.0288	19.2
99.0077	3.9
109.0285	5.4
115.0390	5.7
123.0441	100.0
124.0472	5.5
161.0600	8.0
179.0703	20.8
223.0605	44.6
224.0642	5.5

Name: Tryptophan + CDCA
PrecursorMZ: 577.36398
RT: 7.4254
ExactMass: 578.3719727
Spectrum_type: 2
charge: -1
Formula: C35H50N2O5
SMILES: C[C@H](CCC(=O)N[C@@H](CC1=CNC2=CC=CC=C21)C(=O)O)[C@H]3CC[C@@H]4[C@@]3(CC[C@H]5[C@H]4[C@@H](C[C@H]6[C@@]5(CC[C@H](C6)O)C)O)C
Method: HCD
Collision_energy: [28.333334]
Isolation_window: 4.0
Ion_mode: N
Num Peaks: 10
61.9875	5.9
64.1537	3.9
74.0238	13.6
203.0820	37.6
204.0851	4.6
448.3071	11.4
533.3753	5.2
577.3649	100.0
578.3678	39.3
579.3711	7.3

Name: Tryptophan + DCA
PrecursorMZ: 577.36515
RT: 7.5809
ExactMass: 578.3719727
Spectrum_type: 2
charge: -1
Formula: C35H50N2O5
SMILES: C[C@H](CCC(=O)N[C@@H](CC1=CNC2=CC=CC=C21)C(=O)O)[C@H]3CC[C@@H]4[C@@]3([C@H](C[C@H]5[C@H]4CC[C@H]6[C@@]5(CC[C@H](C6)O)C)O)C
Method: HCD
Collision_energy: [28.333334]
Isolation_window: 4.0
Ion_mode: N
Num Peaks: 17
64.1498	2.2
64.1536	4.2
71.0130	1.8
74.0238	14.1
116.0498	3.1
124.0066	7.6
203.0822	38.9
204.0856	3.8
256.0496	4.4
448.3073	10.7
449.3114	2.6
533.3763	4.2
576.3182	2.6
577.3654	100.0
578.3690	35.4
579.2847	9.2
579.3737	4.6

Name: Tryptophan-cholic acid
PrecursorMZ: 593.36053
RT: 6.746771428571428
ExactMass: 594.36688732
Spectrum_type: 2
charge: -1
Formula: C35H50N2O6
SMILES: C[C@H](CCC(=O)N[C@@H](CC1=CNC2=CC=CC=C21)C(=O)O)[C@H]3CC[C@@H]4[C@@]3([C@H](C[C@H]5[C@H]4[C@@H](C[C@H]6[C@@]5(CC[C@H](C6)O)C)O)O)C
Method: HCD
Collision_energy: [28.333334]
Isolation_window: 4.0
Ion_mode: N
Num Peaks: 31
65.9270	2.2
65.9311	4.6
66.0426	1.5
74.0239	16.4
75.0079	1.4
85.0286	1.5
87.0079	0.9
97.4625	0.8
112.0158	0.8
113.0237	1.8
116.0108	0.9
116.0498	3.6
124.0068	1.0
142.0657	1.2
159.0923	1.8
180.0660	1.0
203.0823	48.7
204.0857	4.4
316.1331	1.0
402.3020	1.8
464.3023	13.0
465.3060	2.5
549.3710	4.9
550.3745	1.6
591.3928	1.2
592.3952	0.8
593.3610	100.0
593.5595	0.8
594.3641	34.8
595.3702	6.0
595.3739	3.0

Name: Tyrosine + Cholic Acid
PrecursorMZ: 570.34419
RT: 6.036675
ExactMass: 571.3509029
Spectrum_type: 2
charge: -1
Formula: C33H49NO7
SMILES: C[C@H](CCC(=O)N[C@@H](CC1=CC=C(C=C1)O)C(=O)O)[C@H]2CC[C@@H]3[C@@]2([C@H](C[C@H]4[C@H]3[C@@H](C[C@H]5[C@@]4(CC[C@H](C5)O)C)O)O)C
Method: HCD
Collision_energy: [28.333334]
Isolation_window: 4.0
Ion_mode: N
Num Peaks: 27
63.3697	2.2
63.3734	4.7
63.4812	0.6
63.4849	1.5
74.0238	4.0
79.9565	1.0
93.0338	0.6
96.9592	2.4
119.0494	4.5
124.0066	0.5
163.0394	3.1
180.0660	53.0
181.0695	4.4
370.2744	0.5
388.2855	1.0
402.3012	0.7
464.3017	3.1
465.3056	0.7
526.3544	7.4
527.3578	2.4
568.3264	1.0
569.3137	3.9
570.1572	0.7
570.3445	100.0
570.5316	0.6
571.3485	34.6
572.3522	5.0

Name: Tyrosine + DCA
PrecursorMZ: 554.34885
RT: 6.80654
ExactMass: 555.35598828
Spectrum_type: 2
charge: -1
Formula: C33H49NO6
SMILES: C[C@H](CCC(=O)N[C@@H](CC1=CC=C(C=C1)O)C(=O)O)[C@H]2CC[C@@H]3[C@@]2([C@H](C[C@H]4[C@H]3CC[C@H]5[C@@]4(CC[C@H](C5)O)C)O)C
Method: HCD
Collision_energy: [28.333334]
Isolation_window: 4.0
Ion_mode: N
Num Peaks: 13
61.5925	2.2
61.5961	4.4
74.0238	2.4
119.0493	4.4
163.0391	2.4
180.0659	43.9
181.0693	3.9
448.3065	2.4
510.3591	6.5
511.3611	2.0
554.3487	100.0
555.3520	33.4
556.3548	5.0

Name: Uracil
PrecursorMZ: 111.01911
RT: 0.8829
ExactMass: 112.027277375
Spectrum_type: 2
charge: -1
Formula: C4H4N2O2
SMILES: C1=CNC(=O)NC1=O
Method: HCD
Collision_energy: [28.333334]
Isolation_window: 4.0
Ion_mode: N
Num Peaks: 3
68.9948	10.4
110.9748	17.6
111.0191	100.0

Name: Ursocholic acid
PrecursorMZ: 453.28606
RT: 6.0358
ExactMass: 408.28757437
Spectrum_type: 2
charge: -1
Formula: C24H40O5
SMILES: C[C@H](CCC(=O)O)[C@H]1CC[C@@H]2[C@@]1([C@H](C[C@H]3[C@H]2[C@H](C[C@H]4[C@@]3(CC[C@H](C4)O)C)O)O)C
Method: HCD
Collision_energy: [28.333334]
Isolation_window: 4.0
Ion_mode: N
Num Peaks: 15
50.3577	2.2
50.3604	4.5
50.4719	1.2
96.9591	58.9
98.9550	1.9
405.2655	1.7
406.2684	2.1
407.2802	11.2
408.2844	2.8
425.2919	2.5
451.2165	1.3
452.2197	4.7
453.2318	100.0
454.2350	26.5
455.2309	5.9

Name: VX 765
PrecursorMZ: 507.20196
RT: 4.8969
ExactMass: 508.2088625
Spectrum_type: 2
charge: -1
Formula: C24H33ClN4O6
SMILES: CCO[C@H]1[C@H](CC(=O)O1)NC(=O)[C@@H]2CCCN2C(=O)[C@H](C(C)(C)C)NC(=O)C3=CC(=C(C=C3)N)Cl
Method: HCD
Collision_energy: [28.333334]
Isolation_window: 4.0
Ion_mode: N
Num Peaks: 49
52.3597	4.4
59.0129	3.4
61.9875	4.1
73.0286	3.4
83.0492	2.3
85.0285	3.2
87.0442	3.0
96.0081	2.9
98.0237	9.2
99.0442	3.2
111.0439	2.2
113.0600	3.2
115.0866	5.8
123.0442	3.1
125.0598	3.0
137.0599	3.7
139.0754	2.7
141.0661	5.0
146.0602	4.8
151.0761	2.5
162.0677	2.7
163.0756	5.8
177.0911	5.3
179.0705	6.3
181.0857	2.9
200.0707	2.9
227.1185	7.2
262.1555	3.6
306.1469	3.2
324.1564	3.8
361.2018	2.5
428.2174	2.3
453.2139	8.2
461.2976	2.2
463.3121	3.1
471.2249	100.0
472.2279	21.8
489.2817	2.6
491.3038	2.2
505.2785	3.7
505.3173	4.4
506.1858	2.3
506.3173	3.0
507.2009	31.7
507.2967	11.2
508.2030	9.5
508.3002	3.4
509.2045	8.0
509.3086	5.2

Name: Val-Tyr
PrecursorMZ: 279.13447
RT: 1.9159
ExactMass: 280.14230712
Spectrum_type: 2
charge: -1
Formula: C14H20N2O4
SMILES: CC(C)[C@@H](C(=O)N[C@@H](CC1=CC=C(C=C1)O)C(=O)O)N
Method: HCD
Collision_energy: [28.333334]
Isolation_window: 4.0
Ion_mode: N
Num Peaks: 14
88.9870	2.9
107.0492	13.0
115.0866	14.4
116.0706	21.5
119.0491	4.1
121.0285	6.3
127.0867	12.0
173.0922	9.0
180.0653	2.5
218.1171	3.2
235.1448	5.3
277.1194	3.0
279.1346	100.0
280.1381	13.8

Name: Valine + CDCA
PrecursorMZ: 490.35422
RT: 6.9663
ExactMass: 491.36107366
Spectrum_type: 2
charge: -1
Formula: C29H49NO5
SMILES: C[C@H](CCC(=O)N[C@@H](C(C)C)C(=O)O)[C@H]1CC[C@@H]2[C@@]1(CC[C@H]3[C@H]2[C@@H](C[C@H]4[C@@]3(CC[C@H](C4)O)C)O)C
Method: HCD
Collision_energy: [28.333334]
Isolation_window: 4.0
Ion_mode: N
Num Peaks: 5
375.2905	52.6
376.2939	12.7
490.3541	100.0
491.3622	89.6
492.3662	15.5

Name: Valine + Cholic Acid
PrecursorMZ: 506.3487
RT: 6.2764
ExactMass: 507.35598828
Spectrum_type: 2
charge: -1
Formula: C29H49NO6
SMILES: C[C@H](CCC(=O)N[C@@H](C(C)C)C(=O)O)[C@H]1CC[C@@H]2[C@@]1([C@H](C[C@H]3[C@H]2[C@@H](C[C@H]4[C@@]3(CC[C@H](C4)O)C)O)O)C
Method: HCD
Collision_energy: [28.333334]
Isolation_window: 4.0
Ion_mode: N
Num Peaks: 12
56.2593	2.2
56.2625	4.7
116.0708	42.8
444.3476	2.9
461.1991	5.3
479.2098	4.4
505.3336	4.4
506.3507	100.0
507.2070	8.2
507.3544	31.5
508.2063	2.3
508.3566	4.0

Name: Valine + DCA
PrecursorMZ: 490.35397
RT: 7.0005
ExactMass: 491.36107366
Spectrum_type: 2
charge: -1
Formula: C29H49NO5
SMILES: C[C@H](CCC(=O)N[C@@H](C(C)C)C(=O)O)[C@H]1CC[C@@H]2[C@@]1([C@H](C[C@H]3[C@H]2CC[C@H]4[C@@]3(CC[C@H](C4)O)C)O)C
Method: HCD
Collision_energy: [28.333334]
Isolation_window: 4.0
Ion_mode: N
Num Peaks: 6
54.4851	5.4
375.2905	44.3
376.2938	12.2
490.3540	100.0
491.3576	30.9
492.3607	3.8

Name: Valine + HDCA
PrecursorMZ: 490.35443
RT: 6.9935
ExactMass: 491.36107366
Spectrum_type: 2
charge: -1
Formula: C29H49NO5
SMILES: C[C@H](CCC(=O)N[C@@H](C(C)C)C(=O)O)[C@H]1CC[C@@H]2[C@@]1(CC[C@H]3[C@H]2C[C@@H]([C@H]4[C@@]3(CC[C@H](C4)O)C)O)C
Method: HCD
Collision_energy: [28.333334]
Isolation_window: 4.0
Ion_mode: N
Num Peaks: 11
54.4823	2.3
54.4853	4.4
54.5968	1.3
116.0709	48.4
117.0743	2.9
428.3546	2.9
489.3259	4.4
490.3001	2.5
490.3544	100.0
491.3568	32.5
492.3584	4.1

Name: Valine + UDCA
PrecursorMZ: 490.35381
RT: 7.1638
ExactMass: 491.36107366
Spectrum_type: 2
charge: -1
Formula: C29H49NO5
SMILES: C[C@H](CCC(=O)N[C@@H](C(C)C)C(=O)O)[C@H]1CC[C@@H]2[C@@]1(CC[C@H]3[C@H]2[C@H](C[C@H]4[C@@]3(CC[C@H](C4)O)C)O)C
Method: HCD
Collision_energy: [28.333334]
Isolation_window: 4.0
Ion_mode: N
Num Peaks: 13
54.4823	2.1
54.4852	4.4
96.9591	4.1
116.0707	57.6
117.0741	2.6
446.3645	3.9
489.2776	3.5
490.3003	3.1
490.3539	100.0
491.2951	7.0
491.3586	30.5
492.3035	1.5
492.3668	3.0

Name: Vamorolone
PrecursorMZ: 401.19721
RT: 7.2818
ExactMass: 356.19875937
Spectrum_type: 2
charge: -1
Formula: C22H28O4
SMILES: C[C@@H]1C[C@H]2[C@@H]3CCC4=CC(=O)C=C[C@@]4(C3=CC[C@@]2([C@]1(C(=O)CO)O)C)C
Method: HCD
Collision_energy: [28.333334]
Isolation_window: 4.0
Ion_mode: N
Num Peaks: 15
203.0710	3.5
282.1627	3.6
299.1652	82.7
300.1698	21.3
301.1784	4.1
328.1683	4.6
331.1546	5.0
332.1624	7.5
341.2126	6.3
343.1551	100.0
344.1599	31.5
345.1659	4.0
401.1948	19.3
402.1967	5.1
403.2127	37.2

Name: Verbascoside
PrecursorMZ: 623.19714
RT: 3.7872
ExactMass: 624.20542044
Spectrum_type: 2
charge: -1
Formula: C29H36O15
SMILES: C[C@H]1[C@@H]([C@H]([C@H]([C@@H](O1)O[C@@H]2[C@H]([C@@H](O[C@@H]([C@H]2OC(=O)/C=C/C3=CC(=C(C=C3)O)O)CO)OCCC4=CC(=C(C=C4)O)O)O)O)O)O
Method: HCD
Collision_energy: [28.333334]
Isolation_window: 4.0
Ion_mode: N
Num Peaks: 17
69.0078	2.5
69.2463	2.7
71.0128	3.3
89.0233	2.5
113.0233	12.1
133.0285	3.4
135.0441	8.9
161.0234	100.0
162.0269	6.9
179.0339	3.8
181.0501	2.9
211.0606	2.2
461.1657	9.9
622.2118	1.8
623.1969	66.7
624.2009	17.3
625.1998	3.5

Name: Vicenin 2
PrecursorMZ: 593.15041
RT: 3.6899
ExactMass: 594.15847025
Spectrum_type: 2
charge: -1
Formula: C27H30O15
SMILES: C1=CC(=CC=C1C2=CC(=O)C3=C(C(=C(C(=C3O2)C4C(C(C(C(O4)CO)O)O)O)O)C5C(C(C(C(O5)CO)O)O)O)O)O
Method: HCD
Collision_energy: [28.333334]
Isolation_window: 4.0
Ion_mode: N
Num Peaks: 7
65.9075	2.8
284.0322	4.2
285.0400	100.0
286.0435	12.9
593.1509	58.5
594.1538	13.5
595.1578	2.4

Name: WS-5995 C
PrecursorMZ: 353.0668
RT: 4.6928
ExactMass: 354.07395278
Spectrum_type: 2
charge: -1
Formula: C19H14O7
SMILES: CC1=CC(=C(C(=C1)OC)C2=C(C3=C(C(=CC=C3)O)C(=O)C2=O)O)C(=O)O
Method: HCD
Collision_energy: [28.333334]
Isolation_window: 4.0
Ion_mode: N
Num Peaks: 9
279.0293	13.1
280.0377	100.0
281.0408	17.7
293.0457	80.6
294.0491	13.2
321.0409	68.3
322.0430	9.8
353.0670	83.1
354.0684	14.5

Name: Wedelolactone
PrecursorMZ: 313.03561
RT: 5.86
ExactMass: 314.04265265
Spectrum_type: 2
charge: -1
Formula: C16H10O7
SMILES: COC1=CC(=C2C(=C1)OC(=O)C3=C2OC4=CC(=C(C=C43)O)O)O
Method: HCD
Collision_energy: [28.333334]
Isolation_window: 4.0
Ion_mode: N
Num Peaks: 8
217.0505	6.0
245.0459	12.8
285.0398	8.2
311.1685	12.9
311.2222	13.4
313.0357	100.0
313.1455	7.9
314.0387	17.4

Name: Withaferin A
PrecursorMZ: 469.25956
RT: 7.8646
ExactMass: 470.26683893
Spectrum_type: 2
charge: -1
Formula: C28H38O6
SMILES: CC1=C(C(=O)O[C@H](C1)[C@@H](C)[C@H]2CC[C@@H]3[C@@]2(CC[C@H]4[C@H]3C[C@@H]5[C@]6([C@@]4(C(=O)C=C[C@@H]6O)C)O5)C)CO
Method: HCD
Collision_energy: [28.333334]
Isolation_window: 4.0
Ion_mode: N
Num Peaks: 5
79.9561	20.3
229.0166	24.4
241.2165	8.7
469.2614	100.0
470.2642	26.4

Name: Xanthurenic Acid
PrecursorMZ: 204.02964
RT: 1.4251
ExactMass: 205.0375077
Spectrum_type: 2
charge: -1
Formula: C10H7NO4
SMILES: C1=CC2=C(C(=C1)O)NC(=CC2=O)C(=O)O
Method: HCD
Collision_energy: [28.333334]
Isolation_window: 4.0
Ion_mode: N
Num Peaks: 5
104.9764	30.5
160.0395	66.0
161.0433	6.4
202.9407	100.0
203.9430	4.2

Name: Zenuzolac
PrecursorMZ: 204.06621
RT: 5.0584
ExactMass: 205.07389321
Spectrum_type: 2
charge: -1
Formula: C11H11NO3
SMILES: C1C(ON=C1C2=CC=CC=C2)CC(=O)O
Method: HCD
Collision_energy: [28.333334]
Isolation_window: 4.0
Ion_mode: N
Num Peaks: 9
59.0130	42.8
71.0129	29.3
132.0448	55.8
142.0653	19.7
144.0447	100.0
158.0603	15.9
160.0758	23.6
162.0915	18.6
204.0660	70.5

Name: Zuranolone
PrecursorMZ: 408.26575
RT: 10.5953
ExactMass: 409.27292737
Spectrum_type: 2
charge: -1
Formula: C25H35N3O2
SMILES: C[C@]1(CC[C@H]2[C@@H](C1)CC[C@@H]3[C@@H]2CC[C@]4([C@H]3CC[C@@H]4C(=O)CN5C=C(C=N5)C#N)C)O
Method: HCD
Collision_energy: [28.333334]
Isolation_window: 4.0
Ion_mode: N
Num Peaks: 6
99.9244	48.2
108.0440	75.4
116.9271	58.0
372.2893	75.8
409.2038	100.0
410.2072	26.6

Name: allo-Pertusaric acid
PrecursorMZ: 365.23318
RT: 8.3993
ExactMass: 366.24062418
Spectrum_type: 2
charge: -1
Formula: C21H34O5
SMILES: CC(=O)CCCCCCCCCCCCC[C@H]1[C@H](C(=C)C(=O)O1)C(=O)O
Method: HCD
Collision_energy: [28.333334]
Isolation_window: 4.0
Ion_mode: N
Num Peaks: 3
113.0964	21.4
303.2334	23.9
367.2315	100.0

Name: alpha-Hydroxydeoxycholic acid
PrecursorMZ: 391.2857
RT: 7.1255
ExactMass: 392.29265975
Spectrum_type: 2
charge: -1
Formula: C24H40O4
SMILES: CC(CCC(=O)O)[C@H]1CCC2[C@@]1(CCC3C2C[C@@H]([C@H]4[C@@]3(CC[C@H](C4)O)C)O)C
Method: HCD
Collision_energy: [28.333334]
Isolation_window: 4.0
Ion_mode: N
Num Peaks: 22
74.0247	1.2
265.1446	0.3
305.2481	0.4
347.2605	0.9
349.2390	0.8
349.2763	0.5
373.2365	0.4
373.2779	0.4
375.2557	0.4
389.2710	0.8
390.2324	0.4
390.2752	0.6
391.1779	0.5
391.2861	100.0
391.3704	0.4
391.3924	0.6
392.2895	26.7
393.2274	2.5
393.2724	1.1
393.2920	1.6
409.2964	7.4
410.3000	1.8

Name: alpha-Kainic acid
PrecursorMZ: 212.09255
RT: 4.3675
ExactMass: 213.10010796
Spectrum_type: 2
charge: -1
Formula: C10H15NO4
SMILES: CC(=C)[C@H]1CN[C@@H]([C@H]1CC(=O)O)C(=O)O
Method: HCD
Collision_energy: [28.333334]
Isolation_window: 4.0
Ion_mode: N
Num Peaks: 5
82.0289	20.2
98.0238	100.0
140.0709	57.8
168.1022	91.6
212.0922	58.7

Name: alpha-L-Rhamnose
PrecursorMZ: 209.06631
RT: 0.8865
ExactMass: 164.06847348
Spectrum_type: 2
charge: -1
Formula: C6H12O5
SMILES: C[C@H]1[C@@H]([C@H]([C@H]([C@@H](O1)O)O)O)O
Method: HCD
Collision_energy: [28.333334]
Isolation_window: 4.0
Ion_mode: N
Num Peaks: 23
59.0129	22.7
71.0129	19.7
72.9921	12.4
73.0285	9.7
75.0078	47.2
80.9641	11.6
83.0128	10.0
85.0285	35.5
87.0077	44.1
89.0234	32.7
99.0077	9.4
101.0234	40.8
118.0319	8.6
129.0184	42.4
131.0341	9.1
136.0428	8.9
138.9867	14.0
146.0267	7.6
182.0255	6.9
191.0554	29.4
207.0506	26.7
209.0662	100.0
210.0696	8.6

Name: beta-D-Glucopyranoside, 2-methoxy-4-(tetrahydro-3a,6a-dihydroxy-4-(4-hydroxy-3-methoxyphenyl)-1H,3H-furo(3,4-c)furan-1-yl)phenyl
PrecursorMZ: 597.18176
RT: 4.1086
ExactMass: 552.18429107
Spectrum_type: 2
charge: -1
Formula: C26H32O13
SMILES: COC1=C(C=CC(=C1)C2C3(COC(C3(CO2)O)C4=CC(=C(C=C4)O[C@H]5[C@@H]([C@H]([C@@H]([C@H](O5)CO)O)O)O)OC)O)O
Method: HCD
Collision_energy: [28.333334]
Isolation_window: 4.0
Ion_mode: N
Num Peaks: 14
167.0336	16.9
209.0444	23.2
239.0552	16.0
345.0967	22.9
375.1084	13.6
387.1079	100.0
388.1113	18.0
417.1185	96.1
418.1219	15.6
447.1296	30.9
477.1382	24.9
507.1502	21.6
597.1813	57.0
598.1838	13.6

Name: beta-D-Glucopyranoside, spirosol-5-en-3-yl O-6-deoxy-alpha-L-mannopyranosyl-(1->2)-O-(6-deoxy-alpha-L-mannopyranosyl-(1->4))-
PrecursorMZ: 912.4952
RT: 4.5155
ExactMass: 867.49802062
Spectrum_type: 2
charge: -1
Formula: C45H73NO15
SMILES: C[C@H]1[C@@H]([C@H]([C@H]([C@@H](O1)O[C@@H]2[C@H](O[C@H]([C@@H]([C@H]2O)O[C@H]3[C@@H]([C@@H]([C@H]([C@@H](O3)C)O)O)O)OC4CCC5(C6CCC7(C(C6CC=C5C4)CC8C7C(C9(O8)CCC(CN9)C)C)C)C)CO)O)O)O
Method: HCD
Collision_energy: [28.333334]
Isolation_window: 4.0
Ion_mode: N
Num Peaks: 15
71.0127	17.6
85.0284	6.0
89.0232	31.3
101.0232	28.4
103.0389	7.5
113.0232	11.1
119.0338	17.0
143.0339	9.8
163.0601	8.0
205.0708	6.3
720.4322	16.6
721.4360	6.7
866.4900	100.0
867.4936	46.2
868.4932	8.0

Name: beta-D-Xylopyranoside, 1,3,4,6,7,7a,7b,8,9,10,11,13,13a,15,15a-pentadecahydro-13-hydroxy-11-(1-hydroxy-1-methylethyl)-1,1,7a,8,13a-pentamethyl-10,12a-epoxy-2H,5H-cyclopropa(1',8'a)naphth(2',1':4,5)indeno(2,1-b)oxepin-2-yl
PrecursorMZ: 617.37017
RT: 8.1791
ExactMass: 618.3767833
Spectrum_type: 2
charge: -1
Formula: C35H54O9
SMILES: CC1CC2C(OC3(C1C4(CCC56CC57CCC(C(C7CC=C6C4(C3O)C)(C)C)O[C@H]8[C@@H]([C@H]([C@@H](CO8)O)O)O)C)O2)C(C)(C)O
Method: HCD
Collision_energy: [28.333334]
Isolation_window: 4.0
Ion_mode: N
Num Peaks: 11
57.0337	72.3
59.0130	28.3
69.0171	33.1
71.0130	28.9
83.0493	100.0
85.0287	33.4
97.0286	30.6
97.0650	47.4
99.0444	31.2
123.0808	69.1
617.3610	45.9

Name: beta-Peltatin
PrecursorMZ: 459.12897
RT: 3.6511
ExactMass: 414.13146766
Spectrum_type: 2
charge: -1
Formula: C22H22O8
SMILES: COC1=CC(=CC(=C1OC)OC)[C@H]2[C@@H]3[C@@H](CC4=C(C5=C(C=C24)OCO5)O)COC3=O
Method: HCD
Collision_energy: [28.333334]
Isolation_window: 4.0
Ion_mode: N
Num Peaks: 18
93.0334	9.2
119.0491	24.1
175.0391	15.3
189.0548	12.5
201.0544	7.2
253.0863	4.7
267.1019	17.5
295.0969	90.4
296.1005	14.1
307.0967	16.0
325.1073	31.2
326.1109	6.5
339.0867	100.0
340.0902	20.7
369.0971	32.1
370.0998	6.7
459.1277	24.4
460.1258	5.8

Name: beta1-Chaconine
PrecursorMZ: 750.44237
RT: 4.899850000000001
ExactMass: 705.44519721
Spectrum_type: 2
charge: -1
Formula: C39H63NO10
SMILES: CC1CCC2C(C3C(N2C1)CC4C3(CCC5C4CC=C6C5(CCC(C6)OC7C(C(C(C(O7)CO)O)O)OC8C(C(C(C(O8)C)O)O)O)C)C)C
Method: HCD
Collision_energy: [28.333334]
Isolation_window: 4.0
Ion_mode: N
Num Peaks: 18
59.0128	26.6
69.0456	5.0
71.0128	25.9
85.0285	6.3
89.0232	46.3
101.0232	35.8
103.0388	6.1
113.0233	14.7
119.0338	21.1
143.0341	5.2
161.0447	6.2
163.0604	4.5
179.0552	4.3
704.4370	100.0
705.4406	40.0
706.4463	5.7
750.4423	7.3
752.4555	4.5

Name: cis-10-Nonadecenoic acid
PrecursorMZ: 295.26435
RT: 10.1189
ExactMass: 296.271530387
Spectrum_type: 2
charge: -1
Formula: C19H36O2
SMILES: CCCCCCCC/C=C\CCCCCCCCC(=O)O
Method: HCD
Collision_energy: [28.333334]
Isolation_window: 4.0
Ion_mode: N
Num Peaks: 10
61.9874	1.3
222.1576	1.3
294.1816	1.8
295.2298	6.7
295.2640	100.0
296.2328	1.4
296.2674	20.0
297.1529	38.2
297.2430	4.7
297.2718	1.3

Name: dodecyl beta-D-maltoside
PrecursorMZ: 509.29622
RT: 7.6345
ExactMass: 510.30401228
Spectrum_type: 2
charge: -1
Formula: C24H46O11
SMILES: CCCCCCCCCCCCO[C@H]1[C@@H]([C@H]([C@@H]([C@H](O1)CO)O[C@@H]2[C@@H]([C@H]([C@@H]([C@H](O2)CO)O)O)O)O)O
Method: HCD
Collision_energy: [28.333334]
Isolation_window: 4.0
Ion_mode: N
Num Peaks: 17
61.9875	9.8
79.9564	8.6
96.9591	94.2
161.0448	9.9
227.2013	100.0
228.2051	13.8
235.0823	11.5
253.0926	8.4
463.2904	24.8
477.2680	42.2
478.2710	12.4
507.3254	21.1
508.2832	20.6
509.2952	55.3
510.2964	12.9
510.3414	12.3
511.3095	9.9

Name: gamma-Glutamylleucine
PrecursorMZ: 259.13008
RT: 2.1347
ExactMass: 260.13722174
Spectrum_type: 2
charge: -1
Formula: C11H20N2O5
SMILES: CC(C)C[C@@H](C(=O)O)NC(=O)CC[C@@H](C(=O)O)N
Method: HCD
Collision_energy: [28.333334]
Isolation_window: 4.0
Ion_mode: N
Num Peaks: 14
88.9870	18.0
116.0708	10.7
127.0505	12.0
128.0345	28.1
130.0865	100.0
158.0712	18.2
187.1082	12.8
197.1289	16.0
241.1194	35.6
257.0655	13.2
258.1459	37.7
259.0837	75.3
259.1285	28.8
260.0865	10.3

Name: gamma-L-Glutamyl-L-phenylalanine
PrecursorMZ: 293.11463
RT: 2.6976222222222224
ExactMass: 294.12157168
Spectrum_type: 2
charge: -1
Formula: C14H18N2O5
SMILES: C1=CC=C(C=C1)C[C@@H](C(=O)O)NC(=O)CC[C@@H](C(=O)O)N
Method: HCD
Collision_energy: [28.333334]
Isolation_window: 4.0
Ion_mode: N
Num Peaks: 11
72.9923	7.0
88.9871	6.7
100.0031	5.7
127.0505	26.8
128.0345	100.0
147.0443	9.8
164.0710	53.6
257.0929	8.9
275.1038	24.5
293.1140	18.1
293.1502	13.4

Name: ilexgeninA
PrecursorMZ: 501.32282
RT: 8.1461
ExactMass: 502.32943918
Spectrum_type: 2
charge: -1
Formula: C30H46O6
SMILES: CC1CCC2(CCC3(C(=CCC4C3(CCC5C4(CCC(C5(C)C(=O)O)O)C)C)C2C1(C)O)C)C(=O)O
Method: HCD
Collision_energy: [28.333334]
Isolation_window: 4.0
Ion_mode: N
Num Peaks: 6
139.1122	90.4
183.1021	60.7
201.1128	51.5
245.1398	63.7
473.2786	55.7
501.3329	100.0

Name: methyl (2E,8E)-9-(3a-hydroxy-6,7-dimethyl-1-(2-methylpropyl)-3-oxo-2,4,7,7a-tetrahydro-1H-isoindol-4-yl)-4,5-dihydroxy-8-methylnona-2,8-dienoate
PrecursorMZ: 448.27078
RT: 7.4742
ExactMass: 449.27773796
Spectrum_type: 2
charge: -1
Formula: C25H39NO6
SMILES: CC1C2C(NC(=O)C2(C(C=C1C)/C=C(\C)/CCC(C(/C=C/C(=O)OC)O)O)O)CC(C)C
Method: HCD
Collision_energy: [28.333334]
Isolation_window: 4.0
Ion_mode: N
Num Peaks: 4
108.0445	82.2
152.0345	67.6
448.2706	100.0
449.2745	30.0

Name: methyl (2S,3R,4S)-4-(((1R)-2-acetyl-6,7-dihydroxy-3,4-dihydro-1H-isoquinolin-1-yl)methyl)-3-ethenyl-2-((2S,3R,4S,5S,6R)-3,4,5-trihydroxy-6-(hydroxymethyl)oxan-2-yl)oxy-3,4-dihydro-2H-pyran-5-carboxylate
PrecursorMZ: 564.20879
RT: 2.5371
Spectrum_type: 2
charge: -1
SMILES: CC(=O)N1CCC2=CC(=C(C=C2[C@H]1C[C@H]3[C@H]([C@@H](OC=C3C(=O)OC)O[C@H]4[C@@H]([C@H]([C@@H]([C@H](O4)CO)O)O)O)C=C)O)O
Method: HCD
Collision_energy: [28.333334]
Isolation_window: 4.0
Ion_mode: N
Num Peaks: 21
62.6917	4.4
80.9642	11.4
125.0347	4.1
128.0342	3.4
130.0864	9.5
151.0141	6.7
156.0657	5.9
198.0990	4.9
213.0875	5.8
221.1042	3.5
256.1304	5.8
263.1256	4.8
282.1091	24.4
283.1144	5.0
307.1157	15.8
326.1359	5.2
438.2100	9.8
482.2365	7.5
564.2089	100.0
565.2129	22.1
566.2089	6.2

Name: methyl (4aS,5R,7S,7aS)-7-hydroxy-5-(3-(4-hydroxyphenyl)propanoyloxy)-7-methyl-1-((2S,3R,4S,5S,6R)-3,4,5-trihydroxy-6-(hydroxymethyl)oxan-2-yl)oxy-4a,5,6,7a-tetrahydro-1H-cyclopenta(c)pyran-4-carboxylate
PrecursorMZ: 553.19292
RT: 6.2152666666666665
ExactMass: 554.19994113
Spectrum_type: 2
charge: -1
Formula: C26H34O13
SMILES: C[C@@]1(C[C@H]([C@H]2[C@@H]1C(OC=C2C(=O)OC)O[C@H]3[C@@H]([C@H]([C@@H]([C@H](O3)CO)O)O)O)OC(=O)CCC4=CC=C(C=C4)O)O
Method: HCD
Collision_energy: [28.333334]
Isolation_window: 4.0
Ion_mode: N
Num Peaks: 7
83.0493	88.3
121.0286	64.3
145.0502	23.7
165.0186	36.1
209.0453	44.1
553.1935	100.0
554.1975	26.7

Name: methyl 2-amino-5-oxo-4-(3-(trifluoromethyl)phenyl)-4H-pyrano(3,2-c)chromene-3-carboxylate
PrecursorMZ: 416.07525
RT: 9.8638
ExactMass: 417.08240703
Spectrum_type: 2
charge: -1
Formula: C21H14F3NO5
SMILES: COC(=O)C1=C(OC2=C(C1C3=CC(=CC=C3)C(F)(F)F)C(=O)OC4=CC=CC=C42)N
Method: HCD
Collision_energy: [28.333334]
Isolation_window: 4.0
Ion_mode: N
Num Peaks: 5
160.8416	100.0
162.8386	55.5
416.0756	73.2
417.0800	14.0
418.0725	45.0

Name: methyl 3,17-dihydroxy-10-(hydroxymethyl)-4,4,8,12,13,16-hexamethyl-15-oxo-2,3,5,6,7,9-hexahydro-1H-cyclopenta(a)phenanthrene-14-carboxylate
PrecursorMZ: 445.25978
RT: 7.8206
ExactMass: 446.26683893
Spectrum_type: 2
charge: -1
Formula: C26H38O6
SMILES: CC1=CC2C(CCC3C2(CCC(C3(C)C)O)CO)(C4(C1(C(=C(C4=O)C)O)C)C(=O)OC)C
Method: HCD
Collision_energy: [28.333334]
Isolation_window: 4.0
Ion_mode: N
Num Peaks: 11
98.0000	35.7
99.0079	47.0
299.2016	27.8
300.2049	6.9
301.2168	7.6
327.2327	7.5
355.2278	14.5
399.2178	100.0
400.2209	23.2
445.2597	51.2
446.2624	13.1

Name: methyl 4-O-demethylbarbatate
PrecursorMZ: 359.11255
RT: 4.54
ExactMass: 360.12090297
Spectrum_type: 2
charge: -1
Formula: C19H20O7
SMILES: CC1=CC(=C(C(=C1C(=O)OC2=C(C(=C(C(=C2)C)C(=O)OC)O)C)O)C)O
Method: HCD
Collision_energy: [28.333334]
Isolation_window: 4.0
Ion_mode: N
Num Peaks: 23
134.0360	10.6
137.0231	1.5
149.0596	15.3
150.0629	1.4
161.0232	2.2
178.0259	21.8
179.0294	2.2
193.0495	100.0
194.0527	9.4
215.1277	2.1
241.0492	2.7
256.0733	4.2
271.0610	3.1
271.0965	18.8
272.0999	3.4
283.0964	10.7
284.0999	2.1
315.1227	15.0
316.1257	2.3
359.1128	29.6
359.2057	6.0
360.1158	6.0
361.2224	2.7

Name: methyl N-((3-methoxyphenyl)carbonyl)-beta-alanylmethioninate
PrecursorMZ: 413.13941
RT: 4.1286
ExactMass: 368.14059304
Spectrum_type: 2
charge: -1
Formula: C17H24N2O5S
SMILES: COC1=CC=CC(=C1)C(=O)NCCC(=O)NC(CCSC)C(=O)OC
Method: HCD
Collision_energy: [28.333334]
Isolation_window: 4.0
Ion_mode: N
Num Peaks: 4
367.1339	100.0
412.1892	22.4
413.2201	32.0
414.2094	31.3

Name: methyl N-((4-chlorophenyl)carbonyl)leucylphenylalaninate
PrecursorMZ: 429.15887
RT: 3.9866
ExactMass: 430.165935
Spectrum_type: 2
charge: -1
Formula: C23H27ClN2O4
SMILES: CC(C)CC(C(=O)NC(CC1=CC=CC=C1)C(=O)OC)NC(=O)C2=CC=C(C=C2)Cl
Method: HCD
Collision_energy: [28.333334]
Isolation_window: 4.0
Ion_mode: N
Num Peaks: 3
429.1589	100.0
430.1623	22.2
431.1612	5.7

Name: methyl N-((4-tert-butylphenyl)carbonyl)leucylleucinate
PrecursorMZ: 463.282
RT: 6.796
ExactMass: 418.2831577
Spectrum_type: 2
charge: -1
Formula: C24H38N2O4
SMILES: CC(C)CC(C(=O)NC(CC(C)C)C(=O)OC)NC(=O)C1=CC=C(C=C1)C(C)(C)C
Method: HCD
Collision_energy: [28.333334]
Isolation_window: 4.0
Ion_mode: N
Num Peaks: 4
61.9874	16.5
245.1905	17.5
417.2764	100.0
418.2794	28.9

Name: methyl N-((4-tert-butylphenyl)carbonyl)phenylalanylglycinate
PrecursorMZ: 441.20287
RT: 4.8427
ExactMass: 396.20490738
Spectrum_type: 2
charge: -1
Formula: C23H28N2O4
SMILES: CC(C)(C)C1=CC=C(C=C1)C(=O)NC(CC2=CC=CC=C2)C(=O)NCC(=O)OC
Method: HCD
Collision_energy: [28.333334]
Isolation_window: 4.0
Ion_mode: N
Num Peaks: 25
59.0129	6.9
61.9875	5.9
74.0238	4.8
124.0758	15.0
136.0759	100.0
137.0795	6.5
168.0659	20.5
180.0659	28.7
228.1026	56.5
229.1057	7.5
279.1608	3.8
287.1399	13.6
288.1433	5.8
305.1506	62.3
306.1538	11.6
407.1603	7.5
408.1641	4.2
409.1762	11.4
439.2212	3.7
439.2792	21.5
440.2209	7.1
440.2726	8.0
441.2487	19.8
442.2439	6.7
443.2743	6.6

Name: methyl N-((4-tert-butylphenyl)carbonyl)phenylalanylleucinate
PrecursorMZ: 497.26602
RT: 5.9522
ExactMass: 452.26750763
Spectrum_type: 2
charge: -1
Formula: C27H36N2O4
SMILES: CC(C)CC(C(=O)OC)NC(=O)C(CC1=CC=CC=C1)NC(=O)C2=CC=C(C=C2)C(C)(C)C
Method: HCD
Collision_energy: [28.333334]
Isolation_window: 4.0
Ion_mode: N
Num Peaks: 19
59.0129	5.2
61.9875	3.4
122.0603	7.9
136.0760	5.4
138.0916	16.9
147.0317	3.3
162.0553	3.9
182.0817	44.7
183.0850	3.4
246.1494	3.5
259.1448	3.0
261.1610	4.8
263.1765	17.8
307.1664	100.0
308.1698	13.7
333.1829	4.4
420.2332	3.1
497.1673	4.3
499.2816	4.1

Name: methyl beta-D-galactopyranoside
PrecursorMZ: 193.07029
RT: 1.2741
ExactMass: 194.07903816
Spectrum_type: 2
charge: -1
Formula: C7H14O6
SMILES: CO[C@H]1[C@@H]([C@H]([C@H]([C@H](O1)CO)O)O)O
Method: HCD
Collision_energy: [28.333334]
Isolation_window: 4.0
Ion_mode: N
Num Peaks: 29
59.0127	10.6
71.0126	13.1
72.9919	9.1
73.0283	31.7
74.0235	3.4
75.0075	55.0
85.0282	10.9
87.0075	30.8
87.0439	8.9
89.0231	14.5
101.0230	6.6
101.0595	5.3
103.0024	8.1
103.0387	4.8
105.0180	20.3
109.0394	6.0
111.0438	4.9
115.0387	9.9
127.0387	8.0
133.0490	5.6
145.0495	5.8
157.0493	5.9
175.0599	16.3
191.0915	21.2
191.1274	8.5
192.0850	6.9
193.0705	100.0
193.1076	10.1
194.0740	8.1

Name: myricetin-3-O-pentoside
PrecursorMZ: 449.07297
RT: 2.7777
ExactMass: 450.07982601
Spectrum_type: 2
charge: -1
Formula: C20H18O12
SMILES: C1C(C(C(C(O1)OC2=C(OC3=CC(=CC(=C3C2=O)O)O)C4=CC(=C(C(=C4)O)O)O)O)O)O
Method: HCD
Collision_energy: [28.333334]
Isolation_window: 4.0
Ion_mode: N
Num Peaks: 7
60.9922	6.7
88.9871	100.0
135.0444	3.6
161.0601	4.0
359.0773	8.6
448.1240	2.7
451.1207	4.3

Name: myrsinoic acid B
PrecursorMZ: 357.20753
RT: 8.667
ExactMass: 358.21440943
Spectrum_type: 2
charge: -1
Formula: C22H30O4
SMILES: CC(=CCCC(C)(C1CC2=C(O1)C(=CC(=C2)C(=O)O)CC=C(C)C)O)C
Method: HCD
Collision_energy: [28.333334]
Isolation_window: 4.0
Ion_mode: N
Num Peaks: 19
231.1751	17.3
232.1789	2.7
233.1546	9.7
243.1754	9.4
244.1783	1.8
245.1541	2.8
245.1911	3.8
257.1913	2.3
271.1699	1.8
285.2223	3.1
295.2064	5.0
313.2173	9.5
314.2211	2.2
315.2329	24.1
355.2849	2.6
357.2074	100.0
357.2983	3.6
358.2106	24.5
359.2225	31.2

Name: o-Methoxyphenyl sulfate
PrecursorMZ: 203.00149
RT: 2.9444
ExactMass: 204.00924453
Spectrum_type: 2
charge: -1
Formula: C7H8O5S
SMILES: COC1=CC=CC=C1OS(=O)(=O)O
Method: HCD
Collision_energy: [28.333334]
Isolation_window: 4.0
Ion_mode: N
Num Peaks: 13
79.9564	20.4
80.9641	5.9
104.9766	2.2
123.0442	100.0
124.0476	6.9
130.0865	2.5
201.1124	2.7
202.9409	6.5
203.0014	71.9
203.0920	2.2
203.1279	2.5
204.0049	5.6
204.9957	2.8

Name: p-Toluenesulfonic acid
PrecursorMZ: 171.01146
RT: 2.2806
ExactMass: 172.01941529
Spectrum_type: 2
charge: -1
Formula: C7H8O3S
SMILES: CC1=CC=C(C=C1)S(=O)(=O)O
Method: HCD
Collision_energy: [28.333334]
Isolation_window: 4.0
Ion_mode: N
Num Peaks: 5
79.9561	2.8
107.0493	4.4
171.0113	100.0
172.0146	7.5
173.0065	2.6

Name: proatranorin II
PrecursorMZ: 361.09184
RT: 4.1089
ExactMass: 361.0923425
Spectrum_type: 2
charge: -1
Formula: C18H17O8-
SMILES: CC1=CC(=C(C(=C1C(=O)OC2=C(C(=C(C(=C2)C)C(=O)O)[O-])C)O)CO)O
Method: HCD
Collision_energy: [28.333334]
Isolation_window: 4.0
Ion_mode: N
Num Peaks: 10
72.9920	2.5
135.0440	100.0
136.0474	6.9
179.0339	23.2
180.0369	1.8
181.0500	3.2
197.0444	6.6
361.0920	25.9
362.0953	4.6
363.0982	2.0

Name: proatranorin III
PrecursorMZ: 359.07631
RT: 4.9476
ExactMass: 359.07669243
Spectrum_type: 2
charge: -1
Formula: C18H15O8-
SMILES: CC1=CC(=C(C(=C1C(=O)OC2=C(C(=C(C(=C2)C)C(=O)O)[O-])C)O)C=O)O
Method: HCD
Collision_energy: [28.333334]
Isolation_window: 4.0
Ion_mode: N
Num Peaks: 13
105.0334	30.2
109.0283	10.5
133.0283	28.9
137.0595	12.5
149.0232	13.8
177.0181	100.0
178.0214	9.9
181.0494	34.0
268.0732	5.4
283.0967	7.3
313.1075	6.7
359.0761	95.2
360.0795	17.0

Name: rel-5-(1-((1aR,4R,4aR,7R,7aR,7bS)-Decahydro-4-hydroxy-1,1,4,7-tetramethyl-1H-cycloprop(e)azulen-7-yl)-3-methylbutyl)-2,4,6-trihydroxy-1,3-benzenedicarboxaldehyde
PrecursorMZ: 453.26492
RT: 10.744250000000001
ExactMass: 472.28248899
Spectrum_type: 2
charge: -1
Formula: C28H40O6
SMILES: CC(C)CC(C1=C(C(=C(C(=C1O)C=O)O)C=O)O)C2(CCC3C2C4C(C4(C)C)CCC3(C)O)C
Method: HCD
Collision_energy: [28.333334]
Isolation_window: 4.0
Ion_mode: N
Num Peaks: 9
50.3614	1.9
50.3640	4.7
207.0294	20.5
208.0324	1.8
282.0742	1.8
451.2485	2.7
453.2649	100.0
454.2683	28.7
455.2714	3.8

Name: threo-8-5'-Benzofuran tetraferulic acid
PrecursorMZ: 681.19897
RT: 6.3813
Spectrum_type: 2
charge: -1
SMILES: OC(/C=C/C1=CC(OC)=C(O[C@@](C2=CC(OC)=C(O)C=C2)([H])[C@@]3([H])[C@@]4([H])[C@@](C5=CC(OC)=C(O)C=C5)([H])OC6=C(OC)C=C(/C=C/C(O)=O)C=C64)C3=C1)=O
Method: HCD
Collision_energy: [28.333334]
Isolation_window: 4.0
Ion_mode: N
Num Peaks: 13
280.0744	60.3
281.0786	12.3
295.0976	82.4
296.1009	12.6
324.0643	85.6
325.0685	15.6
339.0878	100.0
340.0913	17.4
593.2212	12.1
637.2086	45.2
638.2107	17.1
681.1984	48.2
682.1994	16.9

Name: trans-10-cis-12-Octadecadienoic acid
PrecursorMZ: 279.23293
RT: 9.8447
ExactMass: 280.240230259
Spectrum_type: 2
charge: -1
Formula: C18H32O2
SMILES: CCCCC/C=C\C=C\CCCCCCCCC(=O)O
Method: HCD
Collision_energy: [28.333334]
Isolation_window: 4.0
Ion_mode: N
Num Peaks: 6
121.0287	23.9
122.0323	10.8
278.1483	12.4
279.2331	100.0
280.2367	19.7
281.2487	17.0

Name: ursolic acid acetate
PrecursorMZ: 543.36943
RT: 9.9337
Spectrum_type: 2
charge: -1
SMILES: C[C@@H]1CC[C@@]2(CC[C@@]3(C(=CC[C@H]4[C@]3(CCC5[C@@]4(CC[C@@H](C5(C)C)OC(=O)C)C)C)[C@@H]2[C@H]1C)C)C(=O)O
Method: HCD
Collision_energy: [28.333334]
Isolation_window: 4.0
Ion_mode: N
Num Peaks: 7
55.2642	4.4
59.0129	3.1
61.9874	4.8
497.3642	100.0
498.3676	29.7
499.3686	3.9
542.2961	3.2

Name: ((1'S,10S,13R,14R,15R,17S)-17-(2-hydroxy-2H-pyran-5-yl)-10,13,14,15-tetramethylspiro(2,4,5,6,7,8,9,11,12,15,16,17-dodecahydro-1H-cyclopenta(a)phenanthrene-3,2'-cyclopropane)-1'-yl) hydrogen sulfate
PrecursorMZ: 505.26353
RT: 7.8252
ExactMass: 506.27021023
Spectrum_type: 2
charge: -1
Formula: C28H42O6S
SMILES: C[C@@H]1C[C@@H]([C@@]2([C@]1(C3CCC4CC5(CC[C@@]4(C3CC2)C)C[C@@H]5OS(=O)(=O)O)C)C)C6=COC(C=C6)O
Method: HCD
Collision_energy: [28.333334]
Isolation_window: 4.0
Ion_mode: N
Num Peaks: 18
56.1418	4.9
61.9875	6.9
79.9564	29.4
80.9643	5.7
96.9592	26.5
102.0551	9.9
149.0601	7.6
150.0416	3.4
151.0255	11.8
229.0172	16.8
271.2284	5.4
461.3185	6.7
504.3335	11.9
505.2620	100.0
505.3440	4.9
506.2645	27.5
507.2641	10.2
507.3149	23.3

Name: ((1R,2R)-2-phenylcyclopropyl)methyl N-((2S)-4-methyl-1-oxo-1-(((2S)-1-oxo-3-((3S)-2-oxopyrrolidin-3-yl)propan-2-yl)amino)pentan-2-yl)carbamate
PrecursorMZ: 442.23534
RT: 4.9699
ExactMass: 443.24202116
Spectrum_type: 2
charge: -1
Formula: C24H33N3O5
SMILES: CC(C)C[C@@H](C(=O)N[C@@H](C[C@@H]1CCNC1=O)C=O)NC(=O)OC[C@@H]2C[C@H]2C3=CC=CC=C3
Method: HCD
Collision_energy: [28.333334]
Isolation_window: 4.0
Ion_mode: N
Num Peaks: 9
255.1505	15.6
287.1399	22.2
294.1749	14.6
308.1909	14.1
337.2291	17.3
380.2351	76.1
381.2386	20.3
442.2370	100.0
443.2394	27.6

Name: ((1R,5R,6R)-5-hydroxy-3-(hydroxymethyl)-2-oxo-6-propan-2-ylcyclohex-3-en-1-yl) 3-methylbutanoate
PrecursorMZ: 283.15516
RT: 6.0061
ExactMass: 284.16237386
Spectrum_type: 2
charge: -1
Formula: C15H24O5
SMILES: CC(C)CC(=O)O[C@@H]1[C@@H]([C@@H](C=C(C1=O)CO)O)C(C)C
Method: HCD
Collision_energy: [28.333334]
Isolation_window: 4.0
Ion_mode: N
Num Peaks: 10
78.9581	12.5
101.0599	100.0
102.0631	4.8
129.0549	5.3
181.0862	6.0
211.1335	16.2
239.1650	5.9
283.1557	52.5
284.1597	8.6
285.1263	4.7

Name: ((1S,2R,3R,5R,7R,10S,11R,14R,15S)-3-hydroxy-15-((3S,5R)-2-hydroxy-5-((2S,3R)-3-(hydroxymethyl)-3-methyloxiran-2-yl)oxolan-3-yl)-2,6,6,10-tetramethyl-7-pentacyclo(12.3.1.01,14.02,11.05,10)octadecanyl) 8-methyldecanoate
PrecursorMZ: 671.48967
RT: 10.4885
ExactMass: 672.4965045
Spectrum_type: 2
charge: -1
Formula: C41H68O7
SMILES: CCC(C)CCCCCCC(=O)O[C@@H]1CC[C@@]2([C@H]3CC[C@]45C[C@@]4([C@@]3([C@@H](C[C@H]2C1(C)C)O)C)CC[C@H]5[C@@H]6C[C@@H](OC6O)[C@H]7[C@@](O7)(C)CO)C
Method: HCD
Collision_energy: [28.333334]
Isolation_window: 4.0
Ion_mode: N
Num Peaks: 15
61.9875	20.9
74.6165	3.8
281.2481	6.4
295.2267	4.3
297.2436	9.0
299.2585	3.2
315.2537	4.6
357.2799	5.6
373.2749	10.8
669.5100	21.8
670.5139	19.1
671.4351	3.2
671.5258	100.0
672.5289	41.4
673.5373	14.0

Name: ((2E,4E)-6-hydroxy-2-((1S,2R,5Z,7S)-7-hydroxy-2-(hydroxymethyl)-7-methyl-3-methylidenecyclonon-5-en-1-yl)-6-methylhepta-2,4-dienyl) octadecanoate
PrecursorMZ: 601.48151
RT: 11.3036
ExactMass: 602.4910252
Spectrum_type: 2
charge: -1
Formula: C38H66O5
SMILES: CCCCCCCCCCCCCCCCCC(=O)OC/C(=C/C=C/C(C)(C)O)/[C@H]1CC[C@](/C=C\CC(=C)[C@@H]1CO)(C)O
Method: HCD
Collision_energy: [28.333334]
Isolation_window: 4.0
Ion_mode: N
Num Peaks: 9
66.8334	4.1
209.1899	17.3
373.2740	6.4
417.2997	20.0
418.3011	4.2
583.4698	4.3
601.4819	100.0
602.4856	32.8
603.4929	7.2

Name: ((2E,4E,6E,8E)-9-(3,3-difluoro-2,6,6-trimethylcyclohexen-1-yl)-3,7-dimethylnona-2,4,6,8-tetraenyl) hexadecanoate
PrecursorMZ: 559.43487
RT: 10.9048
ExactMass: 560.44048741
Spectrum_type: 2
charge: -1
Formula: C36H58F2O2
SMILES: CCCCCCCCCCCCCCCC(=O)OC/C=C(\C)/C=C/C=C(\C)/C=C/C1=C(C(CCC1(C)C)(F)F)C
Method: HCD
Collision_energy: [28.333334]
Isolation_window: 4.0
Ion_mode: N
Num Peaks: 12
69.0567	10.7
69.0819	10.1
311.2939	23.0
527.4091	19.5
529.4235	10.9
557.4161	13.4
558.4217	21.9
558.4292	15.3
559.4366	100.0
560.4412	32.9
561.3794	9.7
561.4553	24.9

Name: ((2R)-1,1,3,3-tetradeuterio-3-(2,3-dihydroxypropoxy(hydroxy)phosphoryl)oxy-2-hydroxypropyl) heptadecanoate
PrecursorMZ: 497.28961
RT: 7.9136
ExactMass: 502.32087705
Spectrum_type: 2
charge: -1
Formula: C23H47O9P
SMILES: [2H]C([2H])([C@H](C([2H])([2H])OP(=O)(O)OCC(CO)O)O)OC(=O)CCCCCCCCCCCCCCCC
Method: HCD
Collision_energy: [28.333334]
Isolation_window: 4.0
Ion_mode: N
Num Peaks: 13
78.9583	4.0
152.9954	16.6
241.2171	5.1
267.2334	17.0
268.2370	11.4
269.2491	100.0
270.2525	16.1
495.2741	7.5
496.2773	8.7
496.3475	3.2
497.2900	40.4
498.2932	10.0
499.3051	8.0

Name: ((2R)-2-((2R)-1-((4S)-3,4-dihydroxy-2,5-bis(hydroxymethyl)oxolan-2-yl)oxy-2-hydroxypropoxy)-3-hydroxybutyl) dodecanoate
PrecursorMZ: 523.31052
RT: 7.8034
ExactMass: 524.31966234
Spectrum_type: 2
charge: -1
Formula: C25H48O11
SMILES: CCCCCCCCCCCC(=O)OC[C@H](C(C)O)OC([C@@H](C)O)OC1(C([C@@H](C(O1)CO)O)O)CO
Method: HCD
Collision_energy: [28.333334]
Isolation_window: 4.0
Ion_mode: N
Num Peaks: 15
69.1322	3.5
73.0284	7.2
87.0439	5.7
152.9944	3.3
227.2007	28.1
241.2164	100.0
242.2199	11.8
253.0920	10.0
477.3054	11.1
521.3289	16.7
522.3328	14.8
523.3334	8.6
523.3425	11.3
524.3477	3.4
525.2814	40.9

Name: ((2R)-2-hydroxy-3-((2S,3S,4R,5R,6S)-3,4,5-trihydroxy-6-(hydroxymethyl)oxan-2-yl)oxypropyl) (9Z,12Z,15Z)-octadeca-9,12,15-trienoate
PrecursorMZ: 513.30861
RT: 7.84825
ExactMass: 514.31418304
Spectrum_type: 2
charge: -1
Formula: C27H46O9
SMILES: CC/C=C\C/C=C\C/C=C\CCCCCCCC(=O)OC[C@@H](CO[C@@H]1[C@H]([C@@H]([C@H]([C@@H](O1)CO)O)O)O)O
Method: HCD
Collision_energy: [28.333334]
Isolation_window: 4.0
Ion_mode: N
Num Peaks: 11
61.9875	2.1
92.0245	3.1
96.9592	1.1
135.0088	0.7
135.0305	100.0
135.0517	0.7
136.0346	4.5
511.3637	0.7
512.3062	0.7
513.2897	0.8
515.2941	0.7

Name: ((2R,3S,4S,5R,6S)-6-((2S,3S,4S,5S,6R)-2-(5,7-dihydroxy-2-(4-hydroxyphenyl)-4-oxochromen-6-yl)-4,5-dihydroxy-6-(hydroxymethyl)oxan-3-yl)oxy-3,4,5-trihydroxyoxan-2-yl)methyl (E)-3-(4-hydroxyphenyl)prop-2-enoate
PrecursorMZ: 739.18723
RT: 3.9072
ExactMass: 740.19524968
Spectrum_type: 2
charge: -1
Formula: C36H36O17
SMILES: C1=CC(=CC=C1/C=C/C(=O)OC[C@@H]2[C@H]([C@@H]([C@H]([C@@H](O2)O[C@H]3[C@H]([C@@H]([C@H](O[C@H]3C4=C(C5=C(C=C4O)OC(=CC5=O)C6=CC=C(C=C6)O)O)CO)O)O)O)O)O)O
Method: HCD
Collision_energy: [28.333334]
Isolation_window: 4.0
Ion_mode: N
Num Peaks: 27
82.1348	4.4
89.0234	3.4
119.0492	9.3
145.0284	9.9
161.0598	17.5
163.0389	28.7
177.0548	11.0
205.0496	29.0
235.0608	5.3
265.0712	14.3
269.0452	5.0
293.0448	83.1
294.0485	12.3
311.0555	13.1
314.0420	3.1
323.0562	9.9
335.0543	5.5
341.0654	9.3
353.0655	4.6
413.0870	42.8
414.0904	8.5
473.1067	3.1
593.1492	16.4
594.1525	3.4
739.1870	100.0
740.1894	36.9
741.1935	6.2

Name: ((2S)-2-ethylhexyl) 3-((3-((2R)-2-ethylhexoxy)-3-oxopropyl)sulfanylmethylsulfanyl)propanoate
PrecursorMZ: 447.26056
RT: 7.0306
ExactMass: 448.26810223
Spectrum_type: 2
charge: -1
Formula: C23H44O4S2
SMILES: CCCC[C@@H](CC)COC(=O)CCSCSCCC(=O)OC[C@@H](CC)CCCC
Method: HCD
Collision_energy: [28.333334]
Isolation_window: 4.0
Ion_mode: N
Num Peaks: 1
61.9875	100.0

Name: ((2S)-3-(ethoxy(hydroxy)phosphoryl)oxy-1-(methylamino)-2-((Z)-octadec-9-enimidoyl)oxypropyl) hexadecanoate
PrecursorMZ: 729.55177
RT: 10.1997
ExactMass: 730.56248986
Spectrum_type: 2
charge: -1
Formula: C40H79N2O7P
SMILES: CCCCCCCCCCCCCCCC(=O)OC([C@H](COP(=O)(O)OCC)OC(=N)CCCCCCC/C=C\CCCCCCCC)NC
Method: HCD
Collision_energy: [28.333334]
Isolation_window: 4.0
Ion_mode: N
Num Peaks: 10
74.0239	38.9
78.9582	7.2
152.9953	27.5
255.2331	100.0
256.2366	11.9
474.2624	4.4
728.5489	42.3
729.5551	22.2
730.5032	57.1
731.5095	24.0

Name: ((2S,3S,4R)-3-benzoyloxy-1-hydroxy-2-(tetracosanoylamino)heptan-4-yl) benzoate
PrecursorMZ: 720.52194
RT: 8.1356
ExactMass: 721.52813898
Spectrum_type: 2
charge: -1
Formula: C45H71NO6
SMILES: CCCCCCCCCCCCCCCCCCCCCCCC(=O)N[C@@H](CO)[C@@H]([C@@H](CCC)OC(=O)C1=CC=CC=C1)OC(=O)C2=CC=CC=C2
Method: HCD
Collision_energy: [28.333334]
Isolation_window: 4.0
Ion_mode: N
Num Peaks: 23
51.5881	2.4
78.9578	7.4
80.0556	2.1
80.0608	4.7
97.4670	1.6
152.9946	10.2
171.0052	7.9
227.2007	5.6
241.2164	10.2
242.2202	2.1
253.2157	2.5
255.2321	33.8
256.2354	4.5
269.2477	6.6
281.2477	3.9
464.2825	43.7
465.2859	11.9
718.5324	4.6
719.4865	9.0
719.5084	4.3
720.5230	100.0
721.5224	47.8
722.5218	12.8

Name: ((3S,4R,4aR,6aR,6bS,8S,8aS,10S,12aS,14aR,14bR)-3,8-dihydroxy-8a-(hydroxymethyl)-4,6a,6b,11,11,14b-hexamethyl-10-((2R,3R,4S,5S,6R)-3,4,5-trihydroxy-6-(hydroxymethyl)oxan-2-yl)oxy-1,2,3,4a,5,6,7,8,9,10,12,12a,14,14a-tetradecahydropicen-4-yl)methyl acetate
PrecursorMZ: 693.4223
RT: 6.8259
ExactMass: 694.42921279
Spectrum_type: 2
charge: -1
Formula: C38H62O11
SMILES: CC(=O)OC[C@]1([C@@H]2CC[C@@]3([C@@H]([C@]2(CC[C@@H]1O)C)CC=C4[C@]3(C[C@@H]([C@@]5([C@H]4CC([C@H](C5)O[C@H]6[C@@H]([C@H]([C@@H]([C@H](O6)CO)O)O)O)(C)C)CO)O)C)C)C
Method: HCD
Collision_energy: [28.333334]
Isolation_window: 4.0
Ion_mode: N
Num Peaks: 8
59.0129	100.0
131.0342	16.7
605.4059	54.8
606.4083	20.4
647.4167	61.8
648.4211	22.8
693.4223	66.9
694.4258	25.4

Name: ((3S,4S,6bS,8R,8aR,9S,10R,14bR)-3,8-dihydroxy-4,6b,10,11,11,14b-hexamethyl-9-(3-methylbut-2-enoyloxy)-8a-(3-methylbut-2-enoyloxymethyl)-2,3,4a,5,6,6a,7,8,9,10,12,12a,14,14a-tetradecahydro-1H-picen-4-yl)methyl 3-methylbut-2-enoate
PrecursorMZ: 735.48485
RT: 11.66205
ExactMass: 736.49141912
Spectrum_type: 2
charge: -1
Formula: C45H68O8
SMILES: C[C@H]1[C@@H]([C@@]2([C@@H](C[C@]3(C4CCC5[C@@](C4CC=C3C2CC1(C)C)(CC[C@@H]([C@]5(C)COC(=O)C=C(C)C)O)C)C)O)COC(=O)C=C(C)C)OC(=O)C=C(C)C
Method: HCD
Collision_energy: [28.333334]
Isolation_window: 4.0
Ion_mode: N
Num Peaks: 20
61.9874	8.3
62.1614	3.9
81.7233	4.3
160.0160	3.7
161.0237	58.9
162.0271	4.2
175.0394	25.1
193.0500	8.2
541.4244	4.4
558.4291	8.1
559.4369	84.4
560.4401	29.8
561.4423	4.3
573.4524	16.2
574.4577	5.3
733.5828	5.7
734.5800	3.8
735.4844	100.0
736.4877	46.5
737.4866	8.5

Name: ((3S,5R,6S,8R,9R,10R,12R,13R,14R,17S)-3,6-dihydroxy-17-((2S)-2-hydroxy-6-methylhept-5-en-2-yl)-4,4,8,10,14-pentamethyl-2,3,5,6,7,9,11,12,13,15,16,17-dodecahydro-1H-cyclopenta(a)phenanthren-12-yl) 2,2-dimethylpropanoate
PrecursorMZ: 559.43438
RT: 8.7063
ExactMass: 560.44407501
Spectrum_type: 2
charge: -1
Formula: C35H60O5
SMILES: CC(=CCC[C@@](C)([C@H]1CC[C@@]2([C@@H]1[C@@H](C[C@H]3[C@]2(C[C@@H]([C@@H]4[C@@]3(CC[C@@H](C4(C)C)O)C)O)C)OC(=O)C(C)(C)C)C)O)C
Method: HCD
Collision_energy: [28.333334]
Isolation_window: 4.0
Ion_mode: N
Num Peaks: 18
61.9871	2.0
62.1576	3.3
62.1614	4.4
62.2728	1.5
87.0438	9.2
289.2157	3.1
457.3693	1.6
475.3774	2.8
485.3642	2.2
529.4249	2.0
541.3889	1.6
543.4060	2.4
557.4227	3.6
558.4097	4.3
558.4290	4.3
559.4384	100.0
560.4418	32.5
561.4188	16.6

Name: ((3S,5R,8R,9R,10R,12R,13R,14R,17S)-12-butanoyloxy-17-((2R)-2-hydroxy-6-methoxy-6-methylheptan-2-yl)-4,4,8,10,14-pentamethyl-2,3,5,6,7,9,11,12,13,15,16,17-dodecahydro-1H-cyclopenta(a)phenanthren-3-yl) butanoate
PrecursorMZ: 631.49346
RT: 10.7732
ExactMass: 632.50158988
Spectrum_type: 2
charge: -1
Formula: C39H68O6
SMILES: CCCC(=O)O[C@H]1CC[C@]2([C@H](C1(C)C)CC[C@@]3([C@@H]2C[C@H]([C@H]4[C@]3(CC[C@@H]4[C@@](C)(CCCC(C)(C)OC)O)C)OC(=O)CCC)C)C
Method: HCD
Collision_energy: [28.333334]
Isolation_window: 4.0
Ion_mode: N
Num Peaks: 23
61.9401	4.9
61.9859	10.6
61.9895	5.6
70.1667	6.8
279.2321	3.8
495.4556	5.9
513.4666	16.2
514.4702	6.2
537.4326	4.4
538.4362	4.9
539.4465	40.1
540.4496	15.2
541.4601	3.4
555.4418	7.7
556.4450	11.2
557.4567	77.2
558.4606	28.2
559.4689	6.3
629.4782	14.2
630.4835	19.3
631.4940	100.0
632.4979	37.4
633.5193	7.6

Name: ((3S,5R,8R,9R,10R,12R,13R,14R,17S)-12-hydroxy-17-((2R)-2-hydroxy-6-methoxy-6-methylheptan-2-yl)-4,4,8,10,14-pentamethyl-2,3,5,6,7,9,11,12,13,15,16,17-dodecahydro-1H-cyclopenta(a)phenanthren-3-yl) hexanoate
PrecursorMZ: 589.48147
RT: 11.5086
ExactMass: 590.4910252
Spectrum_type: 2
charge: -1
Formula: C37H66O5
SMILES: CCCCCC(=O)O[C@H]1CC[C@]2([C@H](C1(C)C)CC[C@@]3([C@@H]2C[C@H]([C@H]4[C@]3(CC[C@@H]4[C@@](C)(CCCC(C)(C)OC)O)C)O)C)C
Method: HCD
Collision_energy: [28.333334]
Isolation_window: 4.0
Ion_mode: N
Num Peaks: 36
65.3835	3.1
65.5000	4.3
69.0250	3.4
69.0529	2.2
134.0364	2.5
160.0153	7.4
161.0188	2.8
171.1011	3.7
175.0387	60.3
176.0421	22.2
193.0494	5.6
277.2161	31.1
278.2198	4.2
279.2317	21.9
280.2353	3.9
295.2271	4.8
297.2423	50.5
298.2457	8.3
411.3842	2.6
412.3861	5.3
495.4548	4.2
497.4727	3.2
513.4659	7.3
514.4682	2.5
515.4820	5.7
539.4463	3.7
556.4016	3.7
557.4563	22.9
558.4594	8.3
559.4706	20.6
587.4289	12.1
588.4323	76.5
588.4680	6.6
589.4825	100.0
590.4862	32.0
591.4966	52.0

Name: ((3S,5S,8S,9S,10R,13R,14S,17R)-17-((2S,3R,4R,5S)-3,4-dihydroxy-5,6-dimethylheptan-2-yl)-10,13-dimethyl-6-oxo-1,2,3,4,5,7,8,9,11,12,14,15,16,17-tetradecahydrocyclopenta(a)phenanthren-3-yl) dodecanoate
PrecursorMZ: 629.51471
RT: 11.704825
ExactMass: 630.52232533
Spectrum_type: 2
charge: -1
Formula: C40H70O5
SMILES: CCCCCCCCCCCC(=O)O[C@H]1CC[C@@]2([C@H]3CC[C@@]4([C@H]([C@@H]3CC(=O)[C@H]2C1)CC[C@@H]4[C@H](C)[C@H]([C@@H]([C@@H](C)C(C)C)O)O)C)C
Method: HCD
Collision_energy: [28.333334]
Isolation_window: 4.0
Ion_mode: N
Num Peaks: 13
69.9440	2.2
69.9484	4.4
70.0598	1.7
237.2222	17.3
238.2257	2.7
255.2334	1.8
345.2803	1.7
365.3068	1.7
373.2749	2.5
391.2857	1.7
629.5154	100.0
630.5190	39.9
631.5218	6.4

Name: ((3aR,5aR,5bR,7aR,9S,11aR,11bR,13aR)-1-((1S)-1-hydroperoxyethyl)-3a,5a,5b,8,8,11a-hexamethyl-1,2,3,4,5,6,7,7a,9,10,11,11b,12,13,13a,13b-hexadecahydrocyclopenta(a)chrysen-9-yl) acetate
PrecursorMZ: 487.37961
RT: 11.6957
ExactMass: 488.38656014
Spectrum_type: 2
charge: -1
Formula: C31H52O4
SMILES: C[C@@H](C1CC[C@]2(C1[C@H]3CC[C@@H]4[C@]5(CC[C@@H](C([C@@H]5CC[C@]4([C@@]3(CC2)C)C)(C)C)OC(=O)C)C)C)OO
Method: HCD
Collision_energy: [28.333334]
Isolation_window: 4.0
Ion_mode: N
Num Peaks: 11
52.4853	2.7
54.1517	2.0
54.1547	4.6
61.9874	3.2
133.0287	7.7
177.0188	5.1
472.3560	57.1
473.3593	16.7
487.3795	100.0
488.3829	33.4
489.3865	4.1

Name: ((4S)-4-((3S,7R,8S,9R,10R,13S,17S)-3,7-dihydroxy-10,13-dimethyl-2,3,4,5,6,7,8,9,11,12,14,15,16,17-tetradecahydro-1H-cyclopenta(a)phenanthren-17-yl)pentyl) (4R)-4-((3R,7S,8R,9S,10S,13R,17R)-3,7-dihydroxy-10,13-dimethyl-2,3,4,5,6,7,8,9,11,12,14,15,16,17-tetradecahydro-1H-cyclopenta(a)phenanthren-17-yl)pentanoate
PrecursorMZ: 751.5864
RT: 8.4004
ExactMass: 752.59549027
Spectrum_type: 2
charge: -1
Formula: C48H80O6
SMILES: C[C@@H](CCCOC(=O)CC[C@@H](C)[C@H]1CCC2[C@@]1(CC[C@H]3[C@H]2[C@H](CC4[C@@]3(CC[C@H](C4)O)C)O)C)[C@@H]5CCC6[C@]5(CC[C@@H]7[C@@H]6[C@@H](CC8[C@]7(CC[C@@H](C8)O)C)O)C
Method: HCD
Collision_energy: [28.333334]
Isolation_window: 4.0
Ion_mode: N
Num Peaks: 13
78.9578	2.1
152.9944	2.2
339.1984	0.7
375.1895	0.7
375.2891	100.0
375.3683	0.6
375.3880	0.7
376.2924	23.2
377.2954	2.1
393.2998	1.6
750.3402	0.5
751.5891	1.9
752.5886	0.8

Name: (1-(2-aminoethoxy(hydroxy)phosphoryl)oxy-3-((4Z,7Z,10Z,13Z,16Z,19Z)-docosa-4,7,10,13,16,19-hexaenoxy)propan-2-yl) butanoate
PrecursorMZ: 580.33971
RT: 9.3739
ExactMass: 581.34814
Spectrum_type: 2
charge: -1
Formula: C31H52NO7P
SMILES: CCCC(=O)OC(COCCC/C=C\C/C=C\C/C=C\C/C=C\C/C=C\C/C=C\CC)COP(=O)(O)OCCN
Method: HCD
Collision_energy: [28.333334]
Isolation_window: 4.0
Ion_mode: N
Num Peaks: 9
128.0092	6.4
220.1466	22.9
221.1544	20.1
346.1775	17.0
391.1755	26.7
392.1781	4.5
580.3398	100.0
581.3431	30.4
582.3460	4.4

Name: (12R)-19-hexadeca-7,10-dienyl-12-hydroxyicos-9-enedioic acid
PrecursorMZ: 575.4687
RT: 10.627
ExactMass: 576.47537514
Spectrum_type: 2
charge: -1
Formula: C36H64O5
SMILES: CCCCCC=CCC=CCCCCCCC(CCCCCC[C@H](CC=CCCCCCCCC(=O)O)O)C(=O)O
Method: HCD
Collision_energy: [28.333334]
Isolation_window: 4.0
Ion_mode: N
Num Peaks: 15
63.9429	4.3
277.2172	5.0
279.2327	2.4
295.2276	2.4
297.2430	7.3
298.2472	2.1
513.4680	4.4
556.4462	2.2
557.4581	12.9
558.4606	4.1
573.4526	13.5
574.4561	22.9
575.4686	100.0
576.4721	35.2
577.4856	10.4

Name: (12R,13R)-7,13-dihydroxy-N-((2S)-1-hydroxypropan-2-yl)-2,10,12,14,16-pentamethylheptadeca-2,4,8,10,14-pentaenamide
PrecursorMZ: 400.28596
RT: 9.597
ExactMass: 419.30355879
Spectrum_type: 2
charge: -1
Formula: C25H41NO4
SMILES: C[C@@H](CO)NC(=O)C(=CC=CCC(C=CC(=C[C@@H](C)[C@H](C(=CC(C)C)C)O)C)O)C
Method: HCD
Collision_energy: [28.333334]
Isolation_window: 4.0
Ion_mode: N
Num Peaks: 10
96.0446	4.0
102.0550	4.2
107.0369	5.2
108.0449	4.8
314.2491	100.0
315.2524	22.2
316.2612	4.3
399.2518	6.0
400.2864	72.1
401.2899	20.8

Name: (1R,2S,3R)-2-(3,5-dihydroxyphenyl)-3-(4-hydroxy-3-methoxyphenyl)-1-((4-hydroxy-3-methoxyphenyl)-methoxymethyl)-2,3-dihydro-1H-indene-4,6-diol
PrecursorMZ: 545.17986
RT: 4.9476
ExactMass: 546.18898253
Spectrum_type: 2
charge: -1
Formula: C31H30O9
SMILES: COC1=C(C=CC(=C1)[C@H]2[C@@H]([C@H](C3=C2C(=CC(=C3)O)O)C(C4=CC(=C(C=C4)O)OC)OC)C5=CC(=CC(=C5)O)O)O
Method: HCD
Collision_energy: [28.333334]
Isolation_window: 4.0
Ion_mode: N
Num Peaks: 8
61.9871	13.4
255.0650	100.0
256.0685	15.0
289.0849	11.3
359.0913	44.6
405.1347	10.4
499.1742	60.4
500.1781	20.8

Name: (1R,3R)-2,3,4,9-tetrahydro-1H-pyrido(3,4-b)indol-2-ium-1,3-dicarboxylate
PrecursorMZ: 259.07201
RT: 2.840057142857143
ExactMass: 259.07188184
Spectrum_type: 2
charge: -1
Formula: C13H11N2O4-
SMILES: C1[C@@H]([NH2+][C@H](C2=C1C3=CC=CC=C3N2)C(=O)[O-])C(=O)[O-]
Method: HCD
Collision_energy: [28.333334]
Isolation_window: 4.0
Ion_mode: N
Num Peaks: 10
86.0237	56.1
88.9872	8.3
92.0496	34.2
116.0496	36.5
142.0655	10.4
169.0767	7.4
171.0920	55.6
172.0958	7.9
215.0820	100.0
216.0856	13.8

Name: (1R,3R)-3-((3R,3aS,5aR,5bR,7aS,11aS,11bR,13aR,13bS)-5a,5b,8,8,11a,13b-hexamethyl-1,2,3,3a,4,5,6,7,7a,9,10,11,11b,12,13,13a-hexadecahydrocyclopenta(a)chrysen-3-yl)-1-((3aR,4R,6R,6aR)-4-methoxy-2,2-dimethyl-3a,4,6,6a-tetrahydrofuro(3,4-d)(1,3)dioxol-6-yl)butan-1-ol
PrecursorMZ: 613.48245
RT: 11.2204
ExactMass: 614.4910252
Spectrum_type: 2
charge: -1
Formula: C39H66O5
SMILES: C[C@H](C[C@H]([C@@H]1[C@@H]2[C@H]([C@@H](O1)OC)OC(O2)(C)C)O)[C@H]3CC[C@]4([C@H]3CC[C@@]5([C@@H]4CC[C@H]6[C@]5(CC[C@@H]7[C@@]6(CCCC7(C)C)C)C)C)C
Method: HCD
Collision_energy: [28.333334]
Isolation_window: 4.0
Ion_mode: N
Num Peaks: 3
61.9875	100.0
565.5031	8.1
566.5072	4.2

Name: (1R,3aS,5aR,5bR,7aR,11aR,11bR,13aR,13bR)-5a,5b,8,8,11a-pentamethyl-9-oxo-1-prop-1-en-2-yl-10-(2,2,2-trifluoroacetyl)-2,3,4,5,6,7,7a,10,11,11b,12,13,13a,13b-tetradecahydro-1H-cyclopenta(a)chrysene-3a-carboxylic acid
PrecursorMZ: 549.31827
RT: 10.1411
ExactMass: 550.3269944
Spectrum_type: 2
charge: -1
Formula: C32H45F3O4
SMILES: CC(=C)[C@@H]1CC[C@]2([C@H]1[C@H]3CC[C@H]4[C@]([C@@]3(CC2)C)(CC[C@@H]5[C@@]4(CC(C(=O)C5(C)C)C(=O)C(F)(F)F)C)C)C(=O)O
Method: HCD
Collision_energy: [28.333334]
Isolation_window: 4.0
Ion_mode: N
Num Peaks: 6
409.3101	100.0
410.3132	24.6
481.3314	18.6
503.3132	12.6
549.3187	31.2
550.3214	10.4

Name: (1R,6S,7S)-9-((Z)-2-Methoxycarbonyl-3-methylbut-1-enyl)-5,5-dimethyl-8,11-dioxo-12-oxatricyclo(5.3.2.01,6)dodec-9-ene-10-carboxylic acid
PrecursorMZ: 389.15937
RT: 7.6868
ExactMass: 390.16785316
Spectrum_type: 2
charge: -1
Formula: C21H26O7
SMILES: CC(C)/C(=C/C1=C([C@@]23CCCC([C@@H]2[C@@H](C1=O)OC3=O)(C)C)C(=O)O)/C(=O)OC
Method: HCD
Collision_energy: [28.333334]
Isolation_window: 4.0
Ion_mode: N
Num Peaks: 35
69.0907	0.7
75.0083	0.6
213.0910	2.1
226.0986	0.8
241.1586	2.4
245.1535	1.0
245.1899	0.8
254.1295	0.6
269.1538	11.8
270.0890	0.7
270.1571	2.2
271.0962	1.0
273.2219	0.7
283.2056	1.1
285.1492	2.5
285.2211	3.5
286.1542	1.2
301.2160	8.5
302.1161	1.0
313.1435	1.4
317.1747	1.0
327.1589	1.2
345.1690	1.3
345.2066	2.5
347.2217	12.5
361.1648	1.7
373.2010	1.2
389.0543	0.6
389.1591	100.0
389.2681	9.4
390.1628	23.0
390.2694	2.4
391.1658	2.1
391.2111	17.5
391.2837	10.0

Name: (1S,3Z)-3-(2-((1R,7aR)-7a-methyl-1-((2R)-6-methylheptan-2-yl)-2,3,3a,5,6,7-hexahydro-1H-inden-4-ylidene)ethylidene)-1-((1R,5S)-3-(2-((1S,7aS)-1-((1S)-1-(3-hydroxy-3-methylbutoxy)ethyl)-7a-methyl-2,3,3a,5,6,7-hexahydro-1H-inden-4-ylidene)ethylidene)-5-hydroxy-4-methylidenecyclohexyl)peroxy-4-methylidenecyclohexan-1-ol
PrecursorMZ: 815.61806
RT: 8.7562
ExactMass: 816.62679039
Spectrum_type: 2
charge: -1
Formula: C53H84O6
SMILES: C[C@H](CCCC(C)C)[C@H]1CCC2[C@@]1(CCCC2=C/C=C\3/C[C@@](CCC3=C)(O)OO[C@H]4C[C@@H](C(=C)C(=CC=C5CCC[C@]6(C5CC[C@@H]6[C@H](C)OCCC(C)(C)O)C)C4)O)C
Method: HCD
Collision_energy: [28.333334]
Isolation_window: 4.0
Ion_mode: N
Num Peaks: 9
325.1837	0.9
373.2740	12.7
374.2773	2.8
439.3207	1.8
440.3241	1.0
441.3366	100.0
441.4645	0.7
442.3398	27.3
443.3438	2.2

Name: (1S,4R,5R,9R,10S,12R,13R,17R)-5,9-dimethyl-14,16-dioxo-19-propan-2-yl-15-oxapentacyclo(10.5.2.01,10.04,9.013,17)nonadec-18-ene-5-carboxylic acid
PrecursorMZ: 399.21793
RT: 8.0556
ExactMass: 400.22497412
Spectrum_type: 2
charge: -1
Formula: C24H32O5
SMILES: CC(C)C1=C[C@@]23CC[C@@H]4[C@@]([C@@H]2C[C@@H]1[C@@H]5[C@H]3C(=O)OC5=O)(CCC[C@@]4(C)C(=O)O)C
Method: HCD
Collision_energy: [28.333334]
Isolation_window: 4.0
Ion_mode: N
Num Peaks: 8
98.0000	16.7
99.0079	17.6
299.2016	7.4
301.2172	24.0
302.2202	5.4
355.2285	4.8
399.2179	100.0
400.2211	26.3

Name: (1S,6S)-6-(((3,4,5-trimethoxybenzoyl)amino)carbamoyl)cyclohex-3-ene-1-carboxylate
PrecursorMZ: 377.13539
RT: 3.2665
ExactMass: 377.13487601
Spectrum_type: 2
charge: -1
Formula: C18H21N2O7-
SMILES: COC1=CC(=CC(=C1OC)OC)C(=O)NNC(=O)[C@H]2CC=CC[C@@H]2C(=O)[O-]
Method: HCD
Collision_energy: [28.333334]
Isolation_window: 4.0
Ion_mode: N
Num Peaks: 23
59.0129	1.1
108.0446	3.0
127.0505	1.0
136.0758	1.7
214.1239	2.2
227.0820	1.7
241.0039	1.3
242.1059	9.7
243.1093	1.9
257.1295	100.0
258.1327	16.5
259.1352	1.1
301.1197	1.3
331.1186	1.5
341.0879	1.1
345.1087	26.3
346.1118	4.9
375.2013	1.2
375.2760	1.1
376.1473	1.5
377.1247	2.8
377.2177	2.5
379.1829	2.1

Name: (2,2,2-Trifluoro-1-hydroxyethylidene)oxidanium
PrecursorMZ: 112.98482
RT: 0.8088
ExactMass: 115.00068879
Spectrum_type: 2
charge: -1
Formula: C2H2F3O2+
SMILES: C(=[OH+])(C(F)(F)F)O
Method: HCD
Collision_energy: [28.333334]
Isolation_window: 4.0
Ion_mode: N
Num Peaks: 3
68.9949	100.0
84.9899	27.3
96.0083	30.8

Name: (2,3,4,5-13C4)hexanedioic acid
PrecursorMZ: 145.04977
RT: 2.1804
ExactMass: 150.07132814
Spectrum_type: 2
charge: -1
Formula: C6H10O4
SMILES: [13CH2]([13CH2][13CH2]C(=O)O)[13CH2]C(=O)O
Method: HCD
Collision_energy: [28.333334]
Isolation_window: 4.0
Ion_mode: N
Num Peaks: 13
65.9977	6.0
81.0337	7.2
83.0493	82.1
86.0238	6.1
101.0599	100.0
118.0403	7.5
119.0241	11.6
127.0395	7.0
144.0198	8.8
144.0442	14.3
145.0501	44.5
146.0239	7.8
146.0352	12.6

Name: (2,5,10,11,19-Pentahydroxy-6,9-dimethyl-12-oxo-7,17-dioxapentacyclo(11.6.0.03,9.06,10.016,19)nonadecan-14-yl) acetate
PrecursorMZ: 441.17535
RT: 4.0163
ExactMass: 442.18389715
Spectrum_type: 2
charge: -1
Formula: C21H30O10
SMILES: CC(=O)OC1CC2C(CO2)(C3C1C(=O)C(C4(C5(COC4(C(CC5C3O)O)C)C)O)O)O
Method: HCD
Collision_energy: [28.333334]
Isolation_window: 4.0
Ion_mode: N
Num Peaks: 18
88.0027	11.7
88.9868	11.9
133.0494	25.1
181.0858	17.6
191.1061	8.1
217.1226	14.9
261.1130	12.2
271.1338	11.4
279.1236	11.1
281.1387	15.1
289.1439	14.8
307.1549	11.7
347.1493	8.6
351.1444	15.5
377.1592	16.7
395.1702	100.0
396.1737	19.4
441.1731	7.9

Name: (2-dodecylphenyl) 4-(3,7,12-trihydroxy-10,13-dimethyl-2,3,4,5,6,7,8,9,11,12,14,15,16,17-tetradecahydro-1H-cyclopenta(a)phenanthren-17-yl)pentanoate
PrecursorMZ: 651.49698
RT: 11.371
ExactMass: 652.50667527
Spectrum_type: 2
charge: -1
Formula: C42H68O5
SMILES: CCCCCCCCCCCCC1=CC=CC=C1OC(=O)CCC(C)C2CCC3C2(C(CC4C3C(CC5C4(CCC(C5)O)C)O)O)C
Method: HCD
Collision_energy: [28.333334]
Isolation_window: 4.0
Ion_mode: N
Num Peaks: 40
69.0262	0.7
72.3864	1.3
72.3910	2.4
72.5025	0.9
72.6103	2.2
72.6149	4.6
83.0489	1.3
97.0645	1.1
97.4669	0.6
255.1593	1.0
259.2056	4.0
260.2086	0.6
261.2212	12.1
277.2160	1.7
279.2321	1.6
281.2477	0.9
295.2266	1.3
327.2675	1.2
329.2844	0.6
345.2783	1.4
347.2953	0.7
355.2628	1.1
357.2787	6.7
365.3051	0.9
371.2581	1.4
373.2735	6.9
375.2890	3.0
391.2842	1.6
529.3848	0.5
553.4236	1.1
581.4554	9.4
633.4871	0.6
635.5032	3.3
651.4976	55.6
651.5787	0.7
652.5012	21.1
653.2816	0.6
653.5050	4.0
653.5128	100.0
653.7436	0.6

Name: (2E,4E,7R,12S,13S)-12-hydroxy-13-(hydroxymethyl)-3,5,7-trimethyltetradeca-2,4-dienedioic acid
PrecursorMZ: 341.19651
RT: 5.9369
ExactMass: 342.20423867
Spectrum_type: 2
charge: -1
Formula: C18H30O6
SMILES: C[C@H](CCCC[C@@H]([C@H](CO)C(=O)O)O)C/C(=C/C(=C/C(=O)O)/C)/C
Method: HCD
Collision_energy: [28.333334]
Isolation_window: 4.0
Ion_mode: N
Num Peaks: 44
59.0129	2.1
83.0492	1.7
120.0116	2.3
134.9844	2.0
209.1363	2.1
233.1905	1.9
235.2062	34.1
236.2098	5.4
251.2010	2.4
252.2055	1.6
255.1754	4.5
261.1861	9.0
263.1650	2.0
263.2018	4.5
265.1807	6.3
267.0663	6.2
277.1815	1.9
278.1829	1.9
279.1962	22.5
280.1993	3.9
281.2119	5.1
282.0890	2.8
295.1913	2.2
295.2281	2.8
296.1944	1.9
297.2066	20.5
298.2096	3.9
305.1756	4.8
321.1705	1.8
323.1862	30.4
324.1898	5.4
325.2018	10.0
326.0792	4.7
328.0211	1.9
339.1808	12.7
339.1996	2.2
339.2175	2.1
340.1849	12.3
341.1057	14.5
341.1973	100.0
342.1102	2.8
342.1993	19.8
343.1565	7.9
343.2120	34.1

Name: (2R)-2,3-dihydroxy(1,2-13C2)propanoic acid
PrecursorMZ: 105.01842
RT: 0.9303142857142858
ExactMass: 108.03331834
Spectrum_type: 2
charge: -1
Formula: C3H6O4
SMILES: C([13C@H]([13C](=O)O)O)O
Method: HCD
Collision_energy: [28.333334]
Isolation_window: 4.0
Ion_mode: N
Num Peaks: 5
59.0129	49.4
72.9921	61.7
75.0078	19.2
105.0183	100.0
106.0400	44.0

Name: (2R)-2-((4-(2,2-dimethylpropyl)bicyclo(2.2.1)heptane-1-carbonyl)amino)-3-(2,2-dimethylpropylsulfanyl)propanoic acid
PrecursorMZ: 382.24294
RT: 9.5175
ExactMass: 383.24941522
Spectrum_type: 2
charge: -1
Formula: C21H37NO3S
SMILES: CC(C)(C)CC12CCC(C1)(CC2)C(=O)N[C@@H](CSCC(C)(C)C)C(=O)O
Method: HCD
Collision_energy: [28.333334]
Isolation_window: 4.0
Ion_mode: N
Num Peaks: 11
61.9876	11.3
74.9902	8.7
84.0447	91.4
253.1999	41.6
254.2027	8.9
267.2157	26.3
304.2658	16.7
338.2532	100.0
339.2565	22.7
382.2441	73.5
383.2469	15.2

Name: (2R)-2-((4-tert-butylphenyl)methyl-methylamino)-4-methyl-N-((2S)-1-oxo-1-(3-(2-oxopyrrolidin-1-yl)propylamino)-3-(4-phenylmethoxyphenyl)propan-2-yl)pentanamide
PrecursorMZ: 667.41974
RT: 8.6551
ExactMass: 668.43015628
Spectrum_type: 2
charge: -1
Formula: C41H56N4O4
SMILES: CC(C)C[C@H](C(=O)N[C@@H](CC1=CC=C(C=C1)OCC2=CC=CC=C2)C(=O)NCCCN3CCCC3=O)N(C)CC4=CC=C(C=C4)C(C)(C)C
Method: HCD
Collision_energy: [28.333334]
Isolation_window: 4.0
Ion_mode: N
Num Peaks: 25
74.1555	2.2
74.1602	4.7
119.0489	3.0
162.0546	9.5
172.0866	6.3
174.1022	12.1
231.1238	6.5
240.2323	1.9
263.1178	47.1
264.1211	7.0
280.1443	28.8
280.2263	2.6
281.1478	4.4
297.2537	4.9
337.1656	6.1
386.2687	3.4
443.2074	6.9
444.2114	2.1
455.3375	9.3
456.3406	2.4
561.3789	21.9
562.3821	6.5
667.4205	100.0
668.4241	39.9
669.4250	7.6

Name: (2R)-2-((E)-3-(2-((E)-2-(3,4-dihydroxyphenyl)ethenyl)-3,4-dihydroxyphenyl)prop-2-enoyl)oxy-3-(3-hydroxyphenyl)propanoic acid
PrecursorMZ: 477.12005
RT: 6.0062
ExactMass: 478.12638228
Spectrum_type: 2
charge: -1
Formula: C26H22O9
SMILES: C1=CC(=CC(=C1)O)C[C@H](C(=O)O)OC(=O)/C=C/C2=C(C(=C(C=C2)O)O)/C=C/C3=CC(=C(C=C3)O)O
Method: HCD
Collision_energy: [28.333334]
Isolation_window: 4.0
Ion_mode: N
Num Peaks: 10
135.0446	100.0
136.0479	8.5
161.0241	15.9
179.0346	16.3
197.0454	7.6
279.0666	92.2
280.0702	16.6
297.0776	9.1
477.1194	21.5
478.1210	7.0

Name: (2R)-2-(dodecanoylamino)-3-(4-hydroxyphenyl)propanoic acid
PrecursorMZ: 362.23493
RT: 7.6535
ExactMass: 363.24095853
Spectrum_type: 2
charge: -1
Formula: C21H33NO4
SMILES: CCCCCCCCCCCC(=O)N[C@H](CC1=CC=C(C=C1)O)C(=O)O
Method: HCD
Collision_energy: [28.333334]
Isolation_window: 4.0
Ion_mode: N
Num Peaks: 8
79.9562	2.4
80.9643	1.0
106.9798	2.0
124.0065	1.5
180.0659	4.5
362.2370	100.0
363.2405	20.1
364.2365	3.6

Name: (2R)-2-hydroxy-N-((2S,3R,4E,11E)-3-hydroxy-1-((2R,4R,5S)-3,4,5-trihydroxy-6-(hydroxymethyl)oxan-2-yl)oxyoctadeca-4,11-dien-2-yl)propanamide
PrecursorMZ: 530.3336
RT: 7.81875
ExactMass: 531.34073214
Spectrum_type: 2
charge: -1
Formula: C27H49NO9
SMILES: CCCCCC/C=C/CCCCC/C=C/[C@H]([C@H](CO[C@H]1C([C@@H]([C@@H](C(O1)CO)O)O)O)NC(=O)[C@@H](C)O)O
Method: HCD
Collision_energy: [28.333334]
Isolation_window: 4.0
Ion_mode: N
Num Peaks: 13
59.0129	21.1
96.9590	2.6
100.0394	4.3
132.0657	5.5
202.0719	5.0
234.0980	20.3
253.2171	100.0
254.2205	14.8
276.1087	22.4
277.1114	2.4
294.1194	13.7
529.3052	14.6
530.3267	7.0

Name: (2R)-3-phenyl-2-(propanoylamino)propanoic acid
PrecursorMZ: 220.09719
RT: 4.3694
ExactMass: 221.10519334
Spectrum_type: 2
charge: -1
Formula: C12H15NO3
SMILES: CCC(=O)N[C@H](CC1=CC=CC=C1)C(=O)O
Method: HCD
Collision_energy: [28.333334]
Isolation_window: 4.0
Ion_mode: N
Num Peaks: 5
72.0445	19.7
84.0445	24.3
147.0443	29.7
164.0708	100.0
220.0974	61.4

Name: (2R,3R)-3-methyl-2-(tetradecanoylamino)pentanoic acid
PrecursorMZ: 340.28539
RT: 9.2289
ExactMass: 341.29299411
Spectrum_type: 2
charge: -1
Formula: C20H39NO3
SMILES: CCCCCCCCCCCCCC(=O)N[C@H]([C@H](C)CC)C(=O)O
Method: HCD
Collision_energy: [28.333334]
Isolation_window: 4.0
Ion_mode: N
Num Peaks: 9
102.0552	5.1
116.0709	5.2
130.0865	62.5
296.2957	5.6
339.2001	100.0
340.2029	20.3
340.2856	74.3
341.2016	5.1
341.2882	13.1

Name: (2R,3R,4S,5S,6R)-2-(((3S,5R,8R,9S,10R,12R,13S,14R,17S)-12-hydroxy-17-((2S)-2-hydroxy-6-methylhept-5-en-2-yl)-4,4,8,10,14-pentamethyl-2,3,5,6,7,9,11,12,13,15,16,17-dodecahydro-1H-cyclopenta(a)phenanthren-3-yl)oxy)-6-(((2S,3R,4S,5R)-3,4,5-trihydroxyoxan-2-yl)oxymethyl)oxane-3,4,5-triol
PrecursorMZ: 753.47989
RT: 10.3232
ExactMass: 754.48672766
Spectrum_type: 2
charge: -1
Formula: C41H70O12
SMILES: CC(=CCC[C@@](C)([C@H]1CC[C@@]2([C@H]1[C@@H](C[C@@H]3[C@]2(CC[C@@H]4[C@@]3(CC[C@@H](C4(C)C)O[C@H]5[C@@H]([C@H]([C@@H]([C@H](O5)CO[C@H]6[C@@H]([C@H]([C@@H](CO6)O)O)O)O)O)O)C)C)O)C)O)C
Method: HCD
Collision_energy: [28.333334]
Isolation_window: 4.0
Ion_mode: N
Num Peaks: 44
59.0130	33.6
61.9875	9.5
71.0130	72.1
72.0163	2.3
72.9923	3.6
73.0287	14.8
81.0338	1.8
83.0130	9.8
83.7175	2.5
83.7234	4.0
83.8349	1.7
85.0286	37.2
87.0079	6.6
89.0236	57.0
95.0130	4.7
97.0287	4.1
99.0079	26.4
101.0236	73.3
102.0269	3.0
113.0236	69.6
114.0270	3.5
119.0342	23.2
125.0237	6.0
131.0340	2.4
137.0237	4.2
143.0343	17.9
149.0452	1.7
159.0293	4.3
161.0450	52.0
162.0483	3.2
163.0759	20.5
164.0792	1.8
179.0557	9.7
203.0557	1.9
205.0354	1.7
221.0665	3.9
323.0677	1.7
323.0987	100.0
324.1022	11.8
429.3742	9.9
430.3775	3.5
753.4805	98.7
754.4836	39.7
755.4840	8.1

Name: (2R,3S,4S,5R)-2-(10-hexadecoxydecylsulfonylmethyl)-5-(hydroxymethyl)oxolane-3,4-diol
PrecursorMZ: 591.42802
RT: 11.7162
ExactMass: 592.43727555
Spectrum_type: 2
charge: -1
Formula: C32H64O7S
SMILES: CCCCCCCCCCCCCCCCOCCCCCCCCCCS(=O)(=O)C[C@H]1[C@H]([C@@H]([C@H](O1)CO)O)O
Method: HCD
Collision_energy: [28.333334]
Isolation_window: 4.0
Ion_mode: N
Num Peaks: 13
65.7162	4.2
68.9935	5.1
96.9588	35.8
241.2163	100.0
242.2198	12.6
255.2319	5.1
349.2043	74.7
350.2078	13.1
589.4691	6.7
590.4684	6.2
591.4284	95.1
592.4316	29.1
593.4330	6.0

Name: (2R,3S,4S,5S,6R)-2-((2S,3S,4S,5S,6R)-4,5-dihydroxy-6-(hydroxymethyl)-2-(((2R,3S,4S,5S,6S)-3,4,5-trihydroxy-6-(((2R,3S,4S,5S,6S)-3,4,5-trihydroxy-6-(6-sulfanylhexoxy)oxan-2-yl)methoxy)oxan-2-yl)methoxy)oxan-3-yl)oxy-6-(hydroxymethyl)oxane-3,4,5-triol
PrecursorMZ: 781.2786
RT: 7.9409
ExactMass: 782.2878299
Spectrum_type: 2
charge: -1
Formula: C30H54O21S
SMILES: C(CCCS)CCO[C@@H]1[C@H]([C@H]([C@@H]([C@H](O1)CO[C@@H]2[C@H]([C@H]([C@@H]([C@H](O2)CO[C@@H]3[C@H]([C@H]([C@@H]([C@H](O3)CO)O)O)O[C@@H]4[C@H]([C@H]([C@@H]([C@H](O4)CO)O)O)O)O)O)O)O)O)O
Method: HCD
Collision_energy: [28.333334]
Isolation_window: 4.0
Ion_mode: N
Num Peaks: 7
183.0101	1.3
291.1960	1.4
325.1035	0.6
325.1837	100.0
325.2647	0.7
326.1869	17.9
327.1821	2.4

Name: (2R,4S,5S,7S)-5-amino-N-(2-(dimethylamino)ethyl)-4-hydroxy-7-((4-methoxy-3-(3-methoxypropoxy)phenyl)methyl)-2,8-dimethylnonanamide
PrecursorMZ: 494.36079
RT: 7.0933
ExactMass: 495.36722167
Spectrum_type: 2
charge: -1
Formula: C27H49N3O5
SMILES: C[C@H](C[C@@H]([C@H](C[C@H](CC1=CC(=C(C=C1)OC)OCCCOC)C(C)C)N)O)C(=O)NCCN(C)C
Method: HCD
Collision_energy: [28.333334]
Isolation_window: 4.0
Ion_mode: N
Num Peaks: 10
54.9305	4.3
150.0676	4.9
162.0679	34.0
163.0755	6.9
177.0914	59.2
178.0948	7.3
493.3621	15.7
494.3620	100.0
495.3716	35.8
496.3665	5.1

Name: (2R,5S)-2-(((3S,8S,10R,12R)-12-hydroxy-17-(1-hydroxy-5-methylhex-4-enyl)-4,4,8,10-tetramethyl-1,2,3,5,6,7,9,11,12,13,14,15,16,17-tetradecahydrocyclopenta(a)phenanthren-3-yl)oxy)-6-(hydroxymethyl)oxane-3,4,5-triol
PrecursorMZ: 593.40611
RT: 9.0413
ExactMass: 594.4131688
Spectrum_type: 2
charge: -1
Formula: C34H58O8
SMILES: CC(=CCCC(C1CCC2C1[C@@H](CC3[C@]2(CCC4[C@@]3(CC[C@@H](C4(C)C)O[C@H]5C(C([C@@H](C(O5)CO)O)O)O)C)C)O)O)C
Method: HCD
Collision_energy: [28.333334]
Isolation_window: 4.0
Ion_mode: N
Num Peaks: 12
57.0336	2.2
65.9321	2.3
65.9361	4.2
71.0129	2.8
75.0078	24.1
85.0285	21.6
95.0128	2.0
113.0235	16.0
157.0135	2.0
593.4061	100.0
594.4097	32.0
595.4138	4.6

Name: (2S)-2-(((2S)-2-(((4R)-4-((3R,5R,8R,9S,10S,13R,14S,17R)-3-hydroxy-10,13-dimethyl-2,3,4,5,6,7,8,9,11,12,14,15,16,17-tetradecahydro-1H-cyclopenta(a)phenanthren-17-yl)pentanoyl)amino)-3-methylbutanoyl)amino)propanoic acid
PrecursorMZ: 545.39755
RT: 9.855699999999999
ExactMass: 546.40327283
Spectrum_type: 2
charge: -1
Formula: C32H54N2O5
SMILES: C[C@H](CCC(=O)N[C@@H](C(C)C)C(=O)N[C@@H](C)C(=O)O)[C@H]1CC[C@@H]2[C@@]1(CC[C@H]3[C@H]2CC[C@H]4[C@@]3(CC[C@H](C4)O)C)C
Method: HCD
Collision_energy: [28.333334]
Isolation_window: 4.0
Ion_mode: N
Num Peaks: 12
61.9875	19.2
218.1547	27.3
332.3324	46.2
333.3361	8.8
457.4155	23.3
483.3950	30.7
484.3987	12.1
501.4064	67.3
502.4103	22.6
544.4387	100.0
545.3868	95.8
546.3949	34.7

Name: (2S)-2-(((4R)-4-((3R,5R,8R,9S,10S,13R,14S,17R)-3-hydroxy-10,13-dimethyl-2,3,4,5,6,7,8,9,11,12,14,15,16,17-tetradecahydro-1H-cyclopenta(a)phenanthren-17-yl)pentanoyl)amino)-3-phenylpropanoic acid
PrecursorMZ: 522.35969
RT: 8.5907
ExactMass: 523.36615904
Spectrum_type: 2
charge: -1
Formula: C33H49NO4
SMILES: C[C@H](CCC(=O)N[C@@H](CC1=CC=CC=C1)C(=O)O)[C@H]2CC[C@@H]3[C@@]2(CC[C@H]4[C@H]3CC[C@H]5[C@@]4(CC[C@H](C5)O)C)C
Method: HCD
Collision_energy: [28.333334]
Isolation_window: 4.0
Ion_mode: N
Num Peaks: 7
147.0447	8.3
164.0712	59.4
165.0750	5.4
374.3068	6.7
522.3600	100.0
523.3636	46.4
524.3674	6.5

Name: (2S)-2-(((6S,9S,12S,13R)-6-tert-butyl-13-methyl-2,8,11-trioxo-9-propan-2-yl-1,4,7,10-tetrazabicyclo(10.3.0)pentadec-4-en-5-yl)amino)-N-((2S,3S)-1-(((1R)-3-hydrazinyl-3-oxo-1-(1,3-thiazol-2-yl)propyl)amino)-1-oxo-3-phenylbutan-2-yl)-3,3-dimethylbutanamide
PrecursorMZ: 821.44631
RT: 7.2937
ExactMass: 822.45745091
Spectrum_type: 2
charge: -1
Formula: C41H62N10O6S
SMILES: C[C@@H]1CCN2[C@@H]1C(=O)N[C@H](C(=O)N[C@H](C(=NCC2=O)N[C@H](C(=O)N[C@@H]([C@@H](C)C3=CC=CC=C3)C(=O)N[C@H](CC(=O)NN)C4=NC=CS4)C(C)(C)C)C(C)(C)C)C(C)C
Method: HCD
Collision_energy: [28.333334]
Isolation_window: 4.0
Ion_mode: N
Num Peaks: 5
99.0074	42.7
112.9867	100.0
173.0079	86.9
174.0158	23.2
821.4490	26.9

Name: (2S)-2-((2-((2-cyclopenta-2,4-dien-1-ylacetyl)amino)-2-methylpropanoyl)amino)-N-(1-((1-((1-((1-(cyclopenta-2,4-dien-1-ylmethylamino)-2-methyl-1-oxopropan-2-yl)amino)-2-methyl-1-oxopropan-2-yl)amino)-2-methyl-1-oxopropan-2-yl)amino)-2-methyl-1-oxopropan-2-yl)-5-(4-(methoxymethyl)triazol-1-yl)pentanamide
PrecursorMZ: 835.48268
RT: 9.6744
ExactMass: 836.49085904
Spectrum_type: 2
charge: -1
Formula: C42H64N10O8
SMILES: CC(C)(C(=O)NCC1C=CC=C1)NC(=O)C(C)(C)NC(=O)C(C)(C)NC(=O)C(C)(C)NC(=O)[C@H](CCCN2C=C(N=N2)COC)NC(=O)C(C)(C)NC(=O)CC3C=CC=C3
Method: HCD
Collision_energy: [28.333334]
Isolation_window: 4.0
Ion_mode: N
Num Peaks: 6
179.1062	32.0
197.1171	100.0
295.2270	23.3
817.4739	21.9
835.4847	95.6
836.4844	46.2

Name: (2S)-2-((deuterio(9H-fluoren-9-yl)methoxy)carbonylamino)-3-hydroxypropanoic acid
PrecursorMZ: 326.10341
RT: 6.1217
ExactMass: 328.11694939
Spectrum_type: 2
charge: -1
Formula: C18H17NO5
SMILES: [2H]C(C1C2=CC=CC=C2C3=CC=CC=C13)OC(=O)N[C@@H](CO)C(=O)O
Method: HCD
Collision_energy: [28.333334]
Isolation_window: 4.0
Ion_mode: N
Num Peaks: 6
100.0031	5.1
104.0345	7.6
130.0139	12.9
325.1843	100.0
326.1875	21.5
327.1822	4.8

Name: (2S)-2-(1,2,3,4,4a,5,6,7,8,8a-decahydroquinoline-2-carbonylamino)-N-((2S,3R)-4-(tert-butylcarbamoyl(3-methylbutyl)amino)-1-cyclohexyl-3-hydroxybutan-2-yl)butanediamide
PrecursorMZ: 633.47141
RT: 9.4385
ExactMass: 634.4781691
Spectrum_type: 2
charge: -1
Formula: C34H62N6O5
SMILES: CC(C)CCN(C[C@H]([C@H](CC1CCCCC1)NC(=O)[C@H](CC(=O)N)NC(=O)C2CCC3CCCCC3N2)O)C(=O)NC(C)(C)C
Method: HCD
Collision_energy: [28.333334]
Isolation_window: 4.0
Ion_mode: N
Num Peaks: 16
69.0235	3.3
70.3872	5.8
141.1271	6.7
241.1796	8.4
259.1903	13.1
299.2577	20.4
300.2614	3.1
373.2727	3.4
391.2842	100.0
392.2876	21.0
409.2950	6.1
632.4603	4.6
633.4728	94.9
634.4772	30.4
635.4658	11.7
635.4807	3.9

Name: (2S)-2-(hexadecanoylamino)-3-hydroxybutanoic acid
PrecursorMZ: 356.2813
RT: 8.7863
ExactMass: 357.28790873
Spectrum_type: 2
charge: -1
Formula: C20H39NO4
SMILES: CCCCCCCCCCCCCCCC(=O)N[C@@H](C(C)O)C(=O)O
Method: HCD
Collision_energy: [28.333334]
Isolation_window: 4.0
Ion_mode: N
Num Peaks: 10
63.9617	4.9
74.0240	24.1
88.0396	100.0
118.0503	11.7
130.0504	40.5
294.2459	6.5
312.2563	12.4
355.2294	5.3
356.2814	44.4
357.2849	8.9

Name: (2S)-2-acetamido-2,3,3-trideuterio-3-(2,3,4,5,6-pentadeuteriophenyl)propanoic acid
PrecursorMZ: 206.08156
RT: 3.3987
ExactMass: 215.139757244
Spectrum_type: 2
charge: -1
Formula: C11H13NO3
SMILES: [2H]C1=C(C(=C(C(=C1[2H])[2H])C([2H])([2H])[C@@]([2H])(C(=O)O)NC(=O)C)[2H])[2H]
Method: HCD
Collision_energy: [28.333334]
Isolation_window: 4.0
Ion_mode: N
Num Peaks: 3
58.0289	100.0
164.0710	46.1
206.0819	42.0

Name: (2S)-2-amino-3,4-dideuteriopentanedioic acid
PrecursorMZ: 146.0451
RT: 0.9064
ExactMass: 149.06571126
Spectrum_type: 2
charge: -1
Formula: C5H9NO4
SMILES: [2H]C([C@@H](C(=O)O)N)C([2H])C(=O)O
Method: HCD
Collision_energy: [28.333334]
Isolation_window: 4.0
Ion_mode: N
Num Peaks: 8
57.0336	9.6
73.0285	10.1
85.0285	80.4
101.0234	58.8
101.0599	8.3
102.0551	10.1
103.0391	24.0
147.0655	100.0

Name: (2S)-2-amino-3-((1,4,5,6-13C4)cyclohexatrienyl)(2,3-13C2)propanoic acid
PrecursorMZ: 164.07102
RT: 1.7573
ExactMass: 171.09910761
Spectrum_type: 2
charge: -1
Formula: C9H11NO2
SMILES: C1=C[13C](=[13CH][13CH]=[13CH]1)[13CH2][13C@@H](C(=O)O)N
Method: HCD
Collision_energy: [28.333334]
Isolation_window: 4.0
Ion_mode: N
Num Peaks: 7
72.0082	25.2
94.9920	38.2
99.0442	17.9
147.0444	100.0
163.0029	31.0
164.0710	75.5
164.9618	17.2

Name: (2S)-2-amino-4-(2-aminophenyl)-2-deuterio-4-oxobutanoic acid
PrecursorMZ: 190.05041
RT: 3.3132
ExactMass: 209.091069
Spectrum_type: 2
charge: -1
Formula: C10H12N2O3
SMILES: [2H][C@](CC(=O)C1=CC=CC=C1N)(C(=O)O)N
Method: HCD
Collision_energy: [28.333334]
Isolation_window: 4.0
Ion_mode: N
Num Peaks: 12
102.9478	10.4
111.0079	2.8
128.0496	3.2
131.0367	3.5
144.0447	23.0
145.0483	2.3
146.0603	100.0
146.9378	3.6
147.0639	9.5
172.0397	4.6
190.0503	21.5
191.0545	2.5

Name: (2S)-2-amino-5-(1-carboxybut-3-ynylamino)-5-oxopentanoic acid
PrecursorMZ: 224.05622
RT: 2.0576
ExactMass: 242.09027155
Spectrum_type: 2
charge: -1
Formula: C10H14N2O5
SMILES: C#CCC(C(=O)O)NC(=O)CC[C@@H](C(=O)O)N
Method: HCD
Collision_energy: [28.333334]
Isolation_window: 4.0
Ion_mode: N
Num Peaks: 16
69.0335	3.4
82.0289	33.0
110.0239	7.9
111.0319	3.9
112.0396	5.7
123.0556	6.7
152.0710	5.0
153.0657	4.2
180.0660	100.0
181.0696	9.0
181.0976	76.9
182.1008	4.2
222.0770	3.5
224.0561	39.0
225.0604	4.8
225.0881	47.7

Name: (2S)-2-hydroxy-N-(2-(((2S)-2-hydroxydodecanoyl)amino)ethyl)-14-((2S)-2-methyl-5-oxo-2H-furan-4-yl)tetradecanamide
PrecursorMZ: 579.43902
RT: 11.0028
ExactMass: 580.44513764
Spectrum_type: 2
charge: -1
Formula: C33H60N2O6
SMILES: CCCCCCCCCC[C@@H](C(=O)NCCNC(=O)[C@H](CCCCCCCCCCCCC1=C[C@@H](OC1=O)C)O)O
Method: HCD
Collision_energy: [28.333334]
Isolation_window: 4.0
Ion_mode: N
Num Peaks: 16
277.2175	12.6
279.2329	25.8
280.2362	5.7
295.2278	9.3
297.2435	10.4
515.4835	6.7
517.4982	9.6
559.4733	13.7
560.4771	11.8
561.4870	14.7
577.4857	100.0
578.4903	69.7
579.4385	56.6
579.5029	55.2
580.4434	20.6
580.5092	14.7

Name: (2S)-3-(3,4-dihydroxyphenyl)-2-(3-(3,4-dihydroxyphenyl)propanoyloxy)propanoic acid
PrecursorMZ: 361.09348
RT: 4.1045
ExactMass: 362.10016753
Spectrum_type: 2
charge: -1
Formula: C18H18O8
SMILES: C1=CC(=C(C=C1CCC(=O)O[C@@H](CC2=CC(=C(C=C2)O)O)C(=O)O)O)O
Method: HCD
Collision_energy: [28.333334]
Isolation_window: 4.0
Ion_mode: N
Num Peaks: 27
59.0129	1.8
72.9923	2.3
123.0445	2.1
135.0445	100.0
136.0479	8.5
165.0552	9.7
171.1022	2.4
179.0345	24.8
180.0379	2.0
181.0505	3.3
195.0661	5.1
197.0451	6.9
201.1132	2.2
269.0819	1.5
271.0981	1.6
329.1036	4.9
330.1071	2.0
359.1143	7.6
359.2079	8.5
360.1175	4.3
360.2106	3.2
361.0924	24.9
361.1323	16.5
361.2230	19.5
362.0958	4.5
362.1305	3.3
362.2278	3.4

Name: (2S)-3-methyl-2-(2-oxooctadecanoylamino)butanoic acid
PrecursorMZ: 396.31228
RT: 8.6283
ExactMass: 397.31920885
Spectrum_type: 2
charge: -1
Formula: C23H43NO4
SMILES: CCCCCCCCCCCCCCCCC(=O)C(=O)N[C@@H](C(C)C)C(=O)O
Method: HCD
Collision_energy: [28.333334]
Isolation_window: 4.0
Ion_mode: N
Num Peaks: 6
116.0708	99.5
117.0742	5.2
139.1120	5.0
352.3223	11.0
396.3121	100.0
397.3167	22.6

Name: (2S)-4-(octadecylamino)-4-oxo-2-sulfobutanoic acid
PrecursorMZ: 448.27334
RT: 7.907166666666667
ExactMass: 449.28110926
Spectrum_type: 2
charge: -1
Formula: C22H43NO6S
SMILES: CCCCCCCCCCCCCCCCCCNC(=O)C[C@@H](C(=O)O)S(=O)(=O)O
Method: HCD
Collision_energy: [28.333334]
Isolation_window: 4.0
Ion_mode: N
Num Peaks: 7
59.0129	18.0
74.9900	30.6
123.0111	100.0
280.2636	9.8
324.2540	13.5
448.2726	61.0
449.2756	15.2

Name: (2S)-5-(((2R,3R,4R,5S,6R)-3-acetamido-5-((2S,3R,4R,5S,6R)-3-acetamido-4,5-dihydroxy-6-(hydroxymethyl)oxan-2-yl)oxy-4-hydroxy-6-(hydroxymethyl)oxan-2-yl)amino)-2-amino-5-oxopentanoic acid
PrecursorMZ: 551.21921
RT: 5.2713
ExactMass: 552.22788722
Spectrum_type: 2
charge: -1
Formula: C21H36N4O13
SMILES: CC(=O)N[C@@H]1[C@H]([C@@H]([C@H](O[C@H]1NC(=O)CC[C@@H](C(=O)O)N)CO)O[C@H]2[C@@H]([C@H]([C@@H]([C@H](O2)CO)O)O)NC(=O)C)O
Method: HCD
Collision_energy: [28.333334]
Isolation_window: 4.0
Ion_mode: N
Num Peaks: 9
61.9875	9.6
127.0507	15.4
191.0492	17.4
252.1352	9.9
280.1309	12.8
344.1297	9.7
505.2134	100.0
506.2162	23.1
550.3059	9.6

Name: (2S,3S,4R,5R)-5-(6-aminopurin-9-yl)-3,4-dihydroxy-N-(3-oxo-3-(1,4,7,10-tetrazacyclododec-1-yl)propyl)oxolane-2-carboxamide
PrecursorMZ: 505.26468
RT: 3.9725
ExactMass: 506.27136422
Spectrum_type: 2
charge: -1
Formula: C21H34N10O5
SMILES: C1CNCCN(CCNCCN1)C(=O)CCNC(=O)[C@@H]2[C@H]([C@H]([C@@H](O2)N3C=NC4=C(N=CN=C43)N)O)O
Method: HCD
Collision_energy: [28.333334]
Isolation_window: 4.0
Ion_mode: N
Num Peaks: 15
59.0128	16.8
71.0128	20.6
89.0233	16.9
101.0233	28.8
113.0233	25.3
120.9952	23.0
161.0444	14.1
171.1017	16.9
343.2118	67.1
344.2147	13.1
385.2228	16.0
505.2637	100.0
506.2683	24.1
507.1063	21.9
507.2788	33.6

Name: (2S,3S,4S,5R,6R)-3,4,5-trihydroxy-6-(2-hydroxy-3-((9Z,12Z)-octadeca-9,12-dienoyl)oxypropoxy)oxane-2-carboxylic acid
PrecursorMZ: 529.30274
RT: 7.9964
ExactMass: 530.30909766
Spectrum_type: 2
charge: -1
Formula: C27H46O10
SMILES: CCCCC/C=C\C/C=C\CCCCCCCC(=O)OCC(CO[C@H]1[C@@H]([C@H]([C@@H]([C@H](O1)C(=O)O)O)O)O)O
Method: HCD
Collision_energy: [28.333334]
Isolation_window: 4.0
Ion_mode: N
Num Peaks: 7
96.9591	0.9
108.0195	11.9
151.0255	100.0
152.0299	4.0
527.3998	1.0
529.3022	11.1
530.3052	3.1

Name: (3-(2,3-Dihydroxypropoxy(hydroxy)phosphoryl)oxy-2-hydroxypropyl) decanoate
PrecursorMZ: 399.17946
RT: 5.5915
ExactMass: 400.18621962
Spectrum_type: 2
charge: -1
Formula: C16H33O9P
SMILES: CCCCCCCCCC(=O)OCC(COP(=O)(O)OCC(CO)O)O
Method: HCD
Collision_energy: [28.333334]
Isolation_window: 4.0
Ion_mode: N
Num Peaks: 6
152.9954	20.9
171.1386	100.0
172.1420	10.7
227.0326	4.7
399.1798	53.2
400.1830	9.8

Name: (3-(Acetyloxymethyl)-12-(hydroxymethyl)-4,4,6a,6b,8a,11,11,14b-octamethyl-1,2,3,4a,5,6,7,8,9,10,12,12a,14,14a-tetradecahydropicen-2-yl)methyl acetate
PrecursorMZ: 583.43471
RT: 10.8618
ExactMass: 584.44407501
Spectrum_type: 2
charge: -1
Formula: C37H60O5
SMILES: CC(=O)OCC1CC2(C(CCC3(C2CC=C4C3(CCC5(C4C(C(CC5)(C)C)CO)C)C)C)C(C1COC(=O)C)(C)C)C
Method: HCD
Collision_energy: [28.333334]
Isolation_window: 4.0
Ion_mode: N
Num Peaks: 39
57.0335	2.8
61.9872	2.8
64.8281	2.7
65.0482	2.1
65.0520	4.3
69.0357	2.6
69.0527	2.1
69.0686	2.4
113.0959	2.8
125.0958	6.5
167.0338	2.3
185.1171	2.4
219.0652	2.5
255.1592	2.5
275.2011	2.8
277.2159	5.2
279.2314	3.1
293.2109	5.0
295.2264	3.5
383.3312	2.4
399.3239	2.8
455.3517	4.6
491.4249	2.0
507.4190	2.7
509.4344	4.3
533.3975	2.4
535.4139	3.9
551.4092	9.1
552.4128	2.7
553.4244	15.0
567.3596	2.2
581.3829	2.1
582.3839	9.1
582.4124	3.1
582.4193	3.1
582.4255	4.7
583.4356	63.7
584.4391	22.4
585.4508	100.0

Name: (3-Methanimidoyl-4-(4-(4-pentylcyclohexyl)cyclohexanecarbonyl)oxyphenyl) 4-(4-pentylcyclohexyl)cyclohexane-1-carboxylate
PrecursorMZ: 706.50656
RT: 10.7017
ExactMass: 661.50700962
Spectrum_type: 2
charge: -1
Formula: C43H67NO4
SMILES: CCCCCC1CCC(CC1)C2CCC(CC2)C(=O)OC3=CC(=C(C=C3)OC(=O)C4CCC(CC4)C5CCC(CC5)CCCCC)C=N
Method: HCD
Collision_energy: [28.333334]
Isolation_window: 4.0
Ion_mode: N
Num Peaks: 33
69.0297	0.4
74.0162	0.6
74.0239	78.6
74.0327	0.6
78.5037	0.4
78.7223	2.8
78.7277	4.2
78.9582	2.1
140.0111	0.7
152.9952	1.8
171.0059	1.9
227.2016	0.3
255.2331	3.3
256.2367	0.5
261.2226	3.1
279.2333	1.5
326.2498	0.4
384.2906	0.7
400.2864	0.5
402.3020	4.6
426.2658	0.6
428.2808	1.4
704.5391	1.3
705.5084	1.0
705.5209	0.5
705.5408	0.7
706.5064	9.0
707.5095	3.8
708.2670	0.8
708.3187	0.7
708.5223	100.0
708.7301	0.4
708.7838	0.8

Name: (3-hydroxy-2-(hydroxymethyl)-2-methylpropyl) (1R,2S,4aR,4bR,8S,10aR,10bR,12aR)-8-acetyloxy-1,4a,4b,7,7,10a-hexamethyl-2-(4-methylpent-4-enyl)-3,4,5,6,6a,8,9,10,10b,11,12,12a-dodecahydro-1H-chrysene-2-carboxylate
PrecursorMZ: 615.46386
RT: 11.5865
ExactMass: 616.47028976
Spectrum_type: 2
charge: -1
Formula: C38H64O6
SMILES: C[C@@H]1[C@H]2CC[C@@H]3[C@]4(CC[C@@H](C(C4CC[C@]3([C@@]2(CC[C@]1(CCCC(=C)C)C(=O)OCC(C)(CO)CO)C)C)(C)C)OC(=O)C)C
Method: HCD
Collision_energy: [28.333334]
Isolation_window: 4.0
Ion_mode: N
Num Peaks: 12
68.3870	4.4
134.0365	3.5
160.0158	10.4
175.0394	100.0
176.0428	9.0
193.0502	9.3
439.4157	8.2
440.4211	2.5
583.4388	4.7
615.4629	96.8
616.4663	36.2
617.4471	4.6

Name: (3E,7S,8R,11R,12S,15E)-8,11-bis(methoxymethoxy)-3,7,12,16-tetramethyl-1,18-bis((4R)-2,2,5,5-tetramethyl-1,3-dioxolan-4-yl)octadeca-3,15-diene-7,12-diol
PrecursorMZ: 713.52169
RT: 10.4059
ExactMass: 714.52819855
Spectrum_type: 2
charge: -1
Formula: C40H74O10
SMILES: C/C(=C\CC[C@](O)([C@H](OCOC)CC[C@@H](OCOC)[C@@](O)(CC/C=C(/CC[C@H]1OC(OC1(C)C)(C)C)\C)C)C)/CC[C@H]2OC(OC2(C)C)(C)C
Method: HCD
Collision_energy: [28.333334]
Isolation_window: 4.0
Ion_mode: N
Num Peaks: 2
61.9874	59.1
283.2641	100.0

Name: (3R)-1,3,4,5-tetrahydroxycyclohexane-1-carboxylic acid
PrecursorMZ: 191.05543
RT: 1.1481
ExactMass: 192.0633881
Spectrum_type: 2
charge: -1
Formula: C7H12O6
SMILES: C1[C@H](C(C(CC1(C(=O)O)O)O)O)O
Method: HCD
Collision_energy: [28.333334]
Isolation_window: 4.0
Ion_mode: N
Num Peaks: 47
59.0129	11.5
71.0129	8.3
71.0493	5.1
72.9922	12.4
73.0285	7.9
74.0237	3.9
75.0078	6.6
83.0129	3.8
83.0493	6.1
85.0285	16.0
87.0078	17.9
89.0234	5.7
97.0286	4.0
99.0078	6.1
99.0440	5.5
101.0234	13.9
101.0598	7.6
103.0027	3.2
103.0391	3.4
111.0079	8.2
111.0442	5.0
113.0235	3.8
115.0392	4.0
117.0184	6.0
127.0392	8.9
128.0343	3.2
129.0184	11.7
129.0548	12.3
131.0341	15.4
133.0497	3.7
145.0397	4.3
145.0498	5.1
146.0815	13.5
147.0299	3.2
171.0291	6.6
172.0615	3.9
173.0449	16.3
189.0400	16.9
189.0756	11.5
190.0709	8.4
191.0187	3.3
191.0555	100.0
191.0921	6.7
192.0307	4.2
192.0585	6.7
193.0359	3.3
193.0722	7.0

Name: (3R)-2-amino-3-hydroxybutanoic acid
PrecursorMZ: 118.05011
RT: 0.8753500000000001
ExactMass: 119.058243149
Spectrum_type: 2
charge: -1
Formula: C4H9NO3
SMILES: C[C@H](C(C(=O)O)N)O
Method: HCD
Collision_energy: [28.333334]
Isolation_window: 4.0
Ion_mode: N
Num Peaks: 5
59.0130	16.2
71.0129	8.4
72.0082	86.8
74.0238	100.0
118.0500	34.0

Name: (3R)-3-hydroxy-L-aspartate(2-)
PrecursorMZ: 148.02427
RT: 0.5702
ExactMass: 147.01677226
Spectrum_type: 2
charge: -1
Formula: C4H5NO5-2
SMILES: [C@H]([C@H](C(=O)[O-])O)(C(=O)[O-])N
Method: HCD
Collision_energy: [28.333334]
Isolation_window: 4.0
Ion_mode: N
Num Peaks: 3
72.9922	78.7
86.0238	100.0
87.0078	93.1

Name: (3R,5S,6S,7S)-3-((3S,5S,7R,9S,10S,12R,15R)-3-((2R,5R,6S)-5-ethyl-5-hydroxy-6-methyloxan-2-yl)-15-hydroxy-3,10,12-trimethyl-4,6,8-trioxadispiro(4.1.57.35)pentadec-13-en-9-yl)-6-hydroxy-5-methyl-7-((2R,3S,6R)-3-methyl-6-((3R)-2-methylpentan-3-yl)oxan-2-yl)octan-4-one
PrecursorMZ: 747.54283
RT: 11.265
ExactMass: 748.548934
Spectrum_type: 2
charge: -1
Formula: C44H76O9
SMILES: CC[C@@H]([C@H]1CC[C@@H]([C@@H](O1)[C@@H](C)[C@@H]([C@H](C)C(=O)[C@H](CC)[C@@H]2[C@H](C[C@H]([C@]3(O2)C=C[C@H]([C@@]4(O3)CC[C@@](O4)(C)[C@H]5CC[C@@]([C@@H](O5)C)(CC)O)O)C)C)O)C)C(C)C
Method: HCD
Collision_energy: [28.333334]
Isolation_window: 4.0
Ion_mode: N
Num Peaks: 12
61.9874	18.1
97.3406	7.6
281.2485	7.1
299.2590	100.0
300.2628	17.4
373.2749	28.0
374.2770	7.0
673.5422	20.8
674.5469	8.8
701.5367	99.3
702.5405	48.1
703.5436	6.2

Name: (3R,5S,7R,8R,9S,10S,12S,13R,14S,17R)-10,13-dimethyl-17-((2R)-5,5,5-trihydroxypentan-2-yl)-2,3,4,5,6,7,8,9,11,12,14,15,16,17-tetradecahydro-1H-cyclopenta(a)phenanthrene-3,7,12-triol
PrecursorMZ: 425.29147
RT: 7.3005
ExactMass: 426.29813906
Spectrum_type: 2
charge: -1
Formula: C24H42O6
SMILES: C[C@H](CCC(O)(O)O)[C@H]1CC[C@@H]2[C@@]1([C@H](C[C@H]3[C@H]2[C@@H](C[C@H]4[C@@]3(CC[C@H](C4)O)C)O)O)C
Method: HCD
Collision_energy: [28.333334]
Isolation_window: 4.0
Ion_mode: N
Num Peaks: 19
59.0129	2.9
99.0806	3.0
101.0235	6.5
115.0391	1.9
129.0914	6.7
233.1909	2.1
251.2017	12.1
263.2020	1.9
295.1924	1.9
363.2904	2.4
381.3015	5.4
407.2804	17.1
408.2839	4.3
423.2742	7.4
424.2803	7.2
425.1734	4.4
425.2914	100.0
426.2942	26.2
427.3069	6.3

Name: (3R,6S,9S,12S)-3-((2S)-butan-2-yl)-6-((4-methoxyphenyl)methyl)-9-(6-((2S)-oxiran-2-yl)-6-oxohexyl)-1,4,7,10-tetrazabicyclo(10.4.0)hexadecane-2,5,8,11-tetrone
PrecursorMZ: 597.32901
RT: 5.4084
ExactMass: 598.33664982
Spectrum_type: 2
charge: -1
Formula: C32H46N4O7
SMILES: CC[C@H](C)[C@@H]1C(=O)N2CCCC[C@H]2C(=O)N[C@H](C(=O)N[C@H](C(=O)N1)CC3=CC=C(C=C3)OC)CCCCCC(=O)[C@@H]4CO4
Method: HCD
Collision_energy: [28.333334]
Isolation_window: 4.0
Ion_mode: N
Num Peaks: 15
61.9874	100.0
85.0286	13.9
87.0441	15.5
88.9869	14.1
99.0442	16.9
101.0598	15.4
113.0598	19.9
153.0913	13.9
165.0913	39.5
533.3112	22.8
550.3077	15.0
551.3225	80.2
552.3253	23.8
553.3379	65.1
597.3307	20.8

Name: (3S)-1-methyl-2,3,4,9-tetrahydropyrido(3,4-b)indole-1,3-dicarboxylate
PrecursorMZ: 273.08837
RT: 3.2712
ExactMass: 272.07970687
Spectrum_type: 2
charge: -1
Formula: C14H12N2O4-2
SMILES: CC1(C2=C(C[C@H](N1)C(=O)[O-])C3=CC=CC=C3N2)C(=O)[O-]
Method: HCD
Collision_energy: [28.333334]
Isolation_window: 4.0
Ion_mode: N
Num Peaks: 15
88.9871	5.1
92.0496	32.3
100.0394	22.9
116.0497	21.0
142.0656	8.7
183.0920	14.4
185.1078	38.7
186.1116	5.2
195.0293	100.0
229.0980	85.9
230.1014	11.5
273.0882	20.1
274.9868	16.4
275.0197	12.2
275.1138	7.1

Name: (3S)-8-(((5S)-5-(((2S)-2-aminopropanoyl)amino)-6-(((2S)-3-hydroxy-1-(((2S)-1-(((2S)-3-hydroxy-1-oxo-1-(((2S)-1-oxopropan-2-yl)amino)propan-2-yl)amino)-3-methyl-1-oxobutan-2-yl)amino)-1-oxopropan-2-yl)amino)-6-oxohexyl)amino)-8-oxooctane-3-thiolate
PrecursorMZ: 702.387
RT: 6.4563
ExactMass: 702.38602256
Spectrum_type: 2
charge: -1
Formula: C31H56N7O9S-
SMILES: CC[C@@H](CCCCC(=O)NCCCC[C@@H](C(=O)N[C@@H](CO)C(=O)N[C@@H](C(C)C)C(=O)N[C@@H](CO)C(=O)N[C@@H](C)C=O)NC(=O)[C@H](C)N)[S-]
Method: HCD
Collision_energy: [28.333334]
Isolation_window: 4.0
Ion_mode: N
Num Peaks: 8
144.1135	9.2
170.0926	9.6
180.0658	17.1
264.1717	9.1
272.1394	6.7
308.1614	18.5
702.3870	100.0
703.3908	42.2

Name: (3S)-N,1-dicyclohexyl-2,4,5-trioxopyrrolidine-3-carboxamide
PrecursorMZ: 319.16588
RT: 4.6514
ExactMass: 320.17360725
Spectrum_type: 2
charge: -1
Formula: C17H24N2O4
SMILES: C1CCC(CC1)NC(=O)[C@@H]2C(=O)C(=O)N(C2=O)C3CCCCC3
Method: HCD
Collision_energy: [28.333334]
Isolation_window: 4.0
Ion_mode: N
Num Peaks: 18
59.0129	4.8
120.0810	3.0
122.0965	2.0
124.0759	15.6
132.0809	7.7
148.0760	2.2
150.0917	15.1
165.1026	3.9
166.0865	3.0
194.0814	5.8
219.1499	5.6
247.1814	3.7
275.1756	2.2
291.1714	19.7
292.1744	3.4
318.1544	3.6
319.1660	100.0
320.1691	18.6

Name: (3S,4R,6R)-6-(((3S,4R,6aR,6bS,8aR,9R,14bR)-4,9-dihydroxy-4,6a,6b,8a,11,11,14b-heptamethyl-1,2,3,4a,5,6,7,8,9,10,12,12a,14,14a-tetradecahydropicen-3-yl)oxy)oxane-2,3,4,5-tetrol
PrecursorMZ: 591.39174
RT: 10.375499999999999
ExactMass: 592.39751874
Spectrum_type: 2
charge: -1
Formula: C34H56O8
SMILES: C[C@@]12CC[C@@]3(C(=CCC4[C@]3(CCC5[C@@]4(CC[C@@H]([C@]5(C)O)O[C@H]6C([C@@H]([C@@H](C(O6)O)O)O)O)C)C)C1CC(C[C@H]2O)(C)C)C
Method: HCD
Collision_energy: [28.333334]
Isolation_window: 4.0
Ion_mode: N
Num Peaks: 9
65.7123	4.6
71.0130	6.1
75.0080	17.9
85.0287	21.4
113.0237	22.5
116.0107	5.0
591.3918	100.0
592.3945	32.0
593.4010	6.3

Name: (3S,4R,6R)-6-((4R,6S)-5-acetamido-3-hydroxy-2-(hydroxymethyl)-6-methyloxan-4-yl)oxy-4,5-dihydroxy-3-methoxy-N-(3-(4-(3-oxo-3-(((3R,4R,5S,6R)-2,4,5-trihydroxy-6-(hydroxymethyl)oxan-3-yl)amino)propyl)triazol-1-yl)propyl)oxane-2-carboxamide
PrecursorMZ: 749.32309
RT: 6.5642
ExactMass: 750.32832953
Spectrum_type: 2
charge: -1
Formula: C30H50N6O16
SMILES: C[C@H]1C([C@H](C(C(O1)CO)O)O[C@H]2C([C@H]([C@@H](C(O2)C(=O)NCCCN3C=C(N=N3)CCC(=O)N[C@@H]4[C@H]([C@@H]([C@H](OC4O)CO)O)O)OC)O)O)NC(=O)C
Method: HCD
Collision_energy: [28.333334]
Isolation_window: 4.0
Ion_mode: N
Num Peaks: 9
81.0336	10.1
83.0492	100.0
127.0392	16.6
145.0497	23.4
189.0761	21.7
233.1024	37.4
405.1765	7.2
749.3235	59.2
750.3279	18.0

Name: (3S,6R)-3-(1H-imidazol-4-ylmethyl)-6-isobutyl-2,5-piperazinedione acetate
PrecursorMZ: 249.13515
RT: 1.4771
ExactMass: 250.14297583
Spectrum_type: 2
charge: -1
Formula: C12H18N4O2
SMILES: CC(C)C[C@@H]1C(=O)N[C@H](C(=O)N1)CC2=CN=CN2
Method: HCD
Collision_energy: [28.333334]
Isolation_window: 4.0
Ion_mode: N
Num Peaks: 10
67.0292	21.3
93.0449	7.1
129.0184	6.4
155.0814	6.3
169.0973	100.0
170.1014	7.5
181.0975	8.8
206.1288	9.7
249.1352	79.6
250.1385	11.0

Name: (3S,6R)-6-((8R,9S,10S,13S,14S,17R)-3,16-dihydroxy-10,13-dimethyl-2,3,4,5,6,7,8,9,11,12,14,15,16,17-tetradecahydro-1H-cyclopenta(a)phenanthren-17-yl)-2,3-dimethylheptane-1,2,4,5,6-pentol
PrecursorMZ: 497.34893
RT: 6.9524
ExactMass: 498.35565393
Spectrum_type: 2
charge: -1
Formula: C28H50O7
SMILES: C[C@@H](C(C([C@@](C)([C@H]1C(C[C@@H]2[C@@]1(CC[C@H]3[C@H]2CCC4[C@@]3(CCC(C4)O)C)C)O)O)O)O)C(C)(CO)O
Method: HCD
Collision_energy: [28.333334]
Isolation_window: 4.0
Ion_mode: N
Num Peaks: 9
61.9874	37.9
71.0129	8.9
171.9829	31.5
333.2433	29.0
451.3430	100.0
452.3461	26.7
497.1672	41.9
497.3479	11.3
498.1708	10.6

Name: (3Z,6Z,9Z,12Z,15Z)-N-((E)-1,3-dihydroxynon-4-en-2-yl)octadeca-3,6,9,12,15-pentaenamide
PrecursorMZ: 428.32021
RT: 5.8709
ExactMass: 429.32429423
Spectrum_type: 2
charge: -1
Formula: C27H43NO3
SMILES: CCCC/C=C/C(C(CO)NC(=O)C/C=C\C/C=C\C/C=C\C/C=C\C/C=C\CC)O
Method: HCD
Collision_energy: [28.333334]
Isolation_window: 4.0
Ion_mode: N
Num Peaks: 3
428.3173	100.0
429.3207	32.1
430.3342	11.7

Name: (3a,5b,7a)-24-((carboxymethyl)amino)-7-hydroxy-24-oxocholan-3-yl b-D-glucopyranosiduronic acid
PrecursorMZ: 624.33895
RT: 5.911
ExactMass: 625.34621144
Spectrum_type: 2
charge: -1
Formula: C32H51NO11
SMILES: C[C@H](CCC(=O)NCC(=O)O)[C@H]1CCC2[C@@]1(CCC3C2[C@H](CC4[C@@]3(CCC(C4)O[C@H]5[C@@H]([C@@H]([C@@H]([C@H](O5)C(=O)O)O)O)O)C)O)C
Method: HCD
Collision_energy: [28.333334]
Isolation_window: 4.0
Ion_mode: N
Num Peaks: 12
69.3690	2.2
69.3733	4.1
74.0238	16.8
75.0078	2.7
85.0285	3.8
113.0235	3.8
448.3070	12.0
449.3112	3.7
623.3419	2.6
624.3391	100.0
625.3428	31.1
626.3472	4.6

Name: (3aS,5aR,5bR,9S,11aR)-9-hydroxy-1-(1-hydroxyethyl)-5a,5b,8,8,11a-pentamethyl-1,2,3,4,5,6,7,7a,9,10,11,11b,12,13,13a,13b-hexadecahydrocyclopenta(a)chrysene-3a-carboxylic acid
PrecursorMZ: 459.34638
RT: 8.621
ExactMass: 460.35526001
Spectrum_type: 2
charge: -1
Formula: C29H48O4
SMILES: CC(C1CC[C@]2(C1C3CCC4[C@]5(CC[C@@H](C(C5CC[C@]4([C@@]3(CC2)C)C)(C)C)O)C)C(=O)O)O
Method: HCD
Collision_energy: [28.333334]
Isolation_window: 4.0
Ion_mode: N
Num Peaks: 10
51.0398	4.3
69.0690	2.1
248.0794	2.4
415.3583	3.1
441.3372	2.6
457.3305	10.8
458.3354	10.6
459.3473	100.0
460.3505	31.6
461.3635	38.0

Name: (3aS,6aS)-1,4-bis(4-hydroxy-3-methoxyphenyl)-1,3a,4,6a-tetrahydrofuro(3,4-c)furan-3,6-dione
PrecursorMZ: 385.09273
RT: 4.1551
ExactMass: 386.10016753
Spectrum_type: 2
charge: -1
Formula: C20H18O8
SMILES: COC1=C(C=CC(=C1)C2[C@@H]3[C@@H](C(OC3=O)C4=CC(=C(C=C4)O)OC)C(=O)O2)O
Method: HCD
Collision_energy: [28.333334]
Isolation_window: 4.0
Ion_mode: N
Num Peaks: 24
91.0180	14.6
108.0208	7.7
123.0442	64.6
145.0287	17.3
146.0365	16.7
158.0366	79.9
159.0444	100.0
160.0478	11.3
161.0603	8.4
173.0601	82.8
174.0633	8.8
267.0663	20.0
280.0739	16.2
281.0818	88.8
282.0883	41.8
283.0936	8.7
297.1130	10.6
326.0796	10.6
341.1028	30.3
385.0940	28.9
385.1891	9.4
385.1962	19.5
386.0923	7.1
387.1090	28.2

Name: (4-(3-fluoro-4-(4-((2S)-2-fluoroheptanoyl)oxycyclohexyl)phenyl)cyclohexyl) (2S)-2-fluoroheptanoate
PrecursorMZ: 551.33423
RT: 9.6677
ExactMass: 552.34264446
Spectrum_type: 2
charge: -1
Formula: C32H47F3O4
SMILES: CCCCC[C@@H](C(=O)OC1CCC(CC1)C2=CC(=C(C=C2)C3CCC(CC3)OC(=O)[C@H](CCCCC)F)F)F
Method: HCD
Collision_energy: [28.333334]
Isolation_window: 4.0
Ion_mode: N
Num Peaks: 5
464.2918	7.2
479.3153	100.0
480.3193	32.8
551.3361	31.8
552.3402	8.4

Name: (4R)-4-((1R,4R,7R,9aS,11S,11aR)-4,7,11-trihydroxy-9a,11a-dimethyl-hexadecahydro-1H-cyclopenta(a)phenanthren-1-yl)-N-phenylpentanamide
PrecursorMZ: 482.3261
RT: 8.140266666666667
ExactMass: 483.33485892
Spectrum_type: 2
charge: -1
Formula: C30H45NO4
SMILES: C[C@H](CCC(=O)NC1=CC=CC=C1)[C@H]2CCC3[C@@]2([C@H](CC4C3[C@@H](CC5[C@@]4(CC[C@H](C5)O)C)O)O)C
Method: HCD
Collision_energy: [28.333334]
Isolation_window: 4.0
Ion_mode: N
Num Peaks: 9
53.5905	2.0
53.5934	4.4
108.0445	100.0
109.0478	6.1
480.3122	2.8
481.3115	3.0
482.3272	99.3
483.3308	30.1
484.3335	2.7

Name: (4R)-4-((1S,2S,5R,7R,9S,10S,11S,14S,16R)-9,16-dihydroxy-2,11-dimethyl-5-((4R)-4-((3R,5S,7R,8R,9S,10S,12S,13R,14S,17R)-3,7,12-trihydroxy-10,13-dimethyl-2,3,4,5,6,7,8,9,11,12,14,15,16,17-tetradecahydro-1H-cyclopenta(a)phenanthren-17-yl)pentanoyl)oxy-14-tricyclo(8.7.0.02,7)heptadecanyl)pentanoic acid
PrecursorMZ: 799.5732
RT: 6.2996
ExactMass: 800.58023413
Spectrum_type: 2
charge: -1
Formula: C48H80O9
SMILES: C[C@H]1CC[C@@H](C[C@H](C[C@H]2[C@H]1[C@H](C[C@H]3[C@@]2(CC[C@H](C3)OC(=O)CC[C@@H](C)[C@H]4CC[C@@H]5[C@@]4([C@H](C[C@H]6[C@H]5[C@@H](C[C@H]7[C@@]6(CC[C@H](C7)O)C)O)O)C)C)O)O)[C@H](C)CCC(=O)O
Method: HCD
Collision_energy: [28.333334]
Isolation_window: 4.0
Ion_mode: N
Num Peaks: 12
363.2900	0.7
391.2855	3.8
392.2883	0.8
405.2648	1.9
406.2687	1.3
407.1679	0.8
407.2803	100.0
407.3914	0.7
408.2837	23.9
409.2870	2.0
799.5740	1.1
800.5778	0.6

Name: (4R)-4-((3R,5R,8R,9S,10S,12S,13R,14S,17R)-3,12-dihydroxy-10,13-dimethyl-2,3,4,5,6,7,8,9,11,12,14,15,16,17-tetradecahydro-1H-cyclopenta(a)phenanthren-17-yl)-N-(1,3-dihydroxy-2-(hydroxymethyl)propan-2-yl)pentanamide
PrecursorMZ: 494.34937
RT: 8.2955
ExactMass: 495.35598828
Spectrum_type: 2
charge: -1
Formula: C28H49NO6
SMILES: C[C@H](CCC(=O)NC(CO)(CO)CO)[C@H]1CC[C@@H]2[C@@]1([C@H](C[C@H]3[C@H]2CC[C@H]4[C@@]3(CC[C@H](C4)O)C)O)C
Method: HCD
Collision_energy: [28.333334]
Isolation_window: 4.0
Ion_mode: N
Num Peaks: 18
54.9291	4.6
78.9850	11.6
165.0410	3.2
256.2357	3.0
305.2848	21.4
306.2887	4.9
349.2745	15.2
350.2774	2.9
366.3013	23.9
367.3003	5.1
447.3204	5.3
450.3585	5.1
464.3386	3.9
493.3554	2.8
494.3483	100.0
495.3576	28.5
495.4179	4.0
496.3624	2.9

Name: (4R)-4-((3R,7R,10S,12S,13R)-3-acetyloxy-7,12-dihydroxy-10,13-dimethyl-2,3,4,5,6,7,8,9,11,12,14,15,16,17-tetradecahydro-1H-cyclopenta(a)phenanthren-17-yl)pentanoic acid
PrecursorMZ: 449.29132
RT: 8.423466666666666
ExactMass: 450.29813906
Spectrum_type: 2
charge: -1
Formula: C26H42O6
SMILES: C[C@H](CCC(=O)O)C1CCC2[C@@]1([C@H](CC3C2[C@@H](CC4[C@@]3(CC[C@H](C4)OC(=O)C)C)O)O)C
Method: HCD
Collision_energy: [28.333334]
Isolation_window: 4.0
Ion_mode: N
Num Peaks: 10
50.0340	1.2
59.0130	8.8
363.2903	1.7
389.2702	7.5
390.2740	2.1
407.2811	7.7
408.2832	2.0
449.2911	100.0
450.2944	27.2
451.2971	3.5

Name: (4R)-4-((3R,7R,13R)-3-hydroxy-7-(2-(((4R,8R)-14-hydroxy-4,8,12-trimethyl-2-oxatricyclo(7.4.1.05,14)tetradecan-3-yl)oxy)ethoxy)-10,13-dimethyl-2,3,4,5,6,7,8,9,11,12,14,15,16,17-tetradecahydro-1H-cyclopenta(a)phenanthren-17-yl)pentanoic acid
PrecursorMZ: 685.50467
RT: 9.5756
ExactMass: 686.51215457
Spectrum_type: 2
charge: -1
Formula: C42H70O7
SMILES: C[C@@H]1CCC2[C@H](C(OC3C2(C1CCC(C3)C)O)OCCO[C@@H]4CC5C[C@@H](CCC5(C6C4C7CCC([C@]7(CC6)C)[C@H](C)CCC(=O)O)C)O)C
Method: HCD
Collision_energy: [28.333334]
Isolation_window: 4.0
Ion_mode: N
Num Peaks: 8
69.0401	8.6
311.2229	14.4
373.2764	8.2
389.2702	8.3
391.2863	12.3
685.5053	100.0
686.5091	40.3
687.5191	20.4

Name: (4R)-4-((3R,7R,8R,9S,10S,13R,14S,17R)-7-hydroxy-3-((4R)-4-((3S,10S,13R,17R)-3-hydroxy-10,13-dimethyl-7-oxo-1,2,3,4,5,6,8,9,11,12,14,15,16,17-tetradecahydrocyclopenta(a)phenanthren-17-yl)pentanoyl)oxy-10,13-dimethyl-2,3,4,5,6,7,8,9,11,12,14,15,16,17-tetradecahydro-1H-cyclopenta(a)phenanthren-17-yl)pentanoic acid
PrecursorMZ: 763.55228
RT: 9.8173
ExactMass: 764.55910476
Spectrum_type: 2
charge: -1
Formula: C48H76O7
SMILES: C[C@H](CCC(=O)O)[C@H]1CC[C@@H]2[C@@]1(CC[C@H]3[C@H]2[C@@H](CC4[C@@]3(CC[C@H](C4)OC(=O)CC[C@@H](C)[C@H]5CCC6[C@@]5(CCC7C6C(=O)CC8[C@@]7(CC[C@@H](C8)O)C)C)C)O)C
Method: HCD
Collision_energy: [28.333334]
Isolation_window: 4.0
Ion_mode: N
Num Peaks: 9
61.9874	2.0
85.0604	2.3
85.0662	4.3
373.2741	1.6
389.2703	2.9
391.2858	2.2
763.5525	23.8
764.5559	12.6
765.5678	100.0

Name: (4R)-N-(1,3-dihydroxy-2-(hydroxymethyl)propan-2-yl)-4-((3R,5S,7R,8R,9S,10S,12S,13R,14S,17R)-3,7,12-trihydroxy-10,13-dimethyl-2,3,4,5,6,7,8,9,11,12,14,15,16,17-tetradecahydro-1H-cyclopenta(a)phenanthren-17-yl)pentanamide
PrecursorMZ: 510.34365
RT: 5.6816
ExactMass: 511.3509029
Spectrum_type: 2
charge: -1
Formula: C28H49NO7
SMILES: C[C@H](CCC(=O)NC(CO)(CO)CO)[C@H]1CC[C@@H]2[C@@]1([C@H](C[C@H]3[C@H]2[C@@H](C[C@H]4[C@@]3(CC[C@H](C4)O)C)O)O)C
Method: HCD
Collision_energy: [28.333334]
Isolation_window: 4.0
Ion_mode: N
Num Peaks: 5
407.2801	7.2
464.3383	74.9
465.3397	23.0
510.3437	100.0
511.3436	33.6

Name: (4R)-N-cyclopropyl-4-((3R,5S,7S,8S,9R,10S,13R,14R,17S)-3,7-dihydroxy-10,13-dimethyl-2,3,4,5,6,7,8,9,11,12,14,15,16,17-tetradecahydro-1H-cyclopenta(a)phenanthren-17-yl)pentanamide
PrecursorMZ: 430.33319
RT: 5.6777
ExactMass: 431.3399443
Spectrum_type: 2
charge: -1
Formula: C27H45NO3
SMILES: C[C@H](CCC(=O)NC1CC1)[C@@H]2CC[C@H]3[C@@]2(CC[C@@H]4[C@@H]3[C@H](C[C@H]5[C@@]4(CC[C@H](C5)O)C)O)C
Method: HCD
Collision_energy: [28.333334]
Isolation_window: 4.0
Ion_mode: N
Num Peaks: 8
61.9874	5.2
97.3394	4.0
134.0464	4.4
384.3283	13.1
428.3166	10.6
429.3209	7.7
430.3330	100.0
431.3362	29.1

Name: (4S)-4-((3S,7R,12S,17S)-3,7,12-trihydroxy-10,13-dimethyl-2,3,4,5,6,7,8,9,11,12,14,15,16,17-tetradecahydro-1H-cyclopenta(a)phenanthren-17-yl)pentanoic acid
PrecursorMZ: 407.28091
RT: 5.1863
ExactMass: 408.28757437
Spectrum_type: 2
charge: -1
Formula: C24H40O5
SMILES: C[C@@H](CCC(=O)O)[C@@H]1CCC2C1([C@H](CC3C2[C@@H](CC4C3(CC[C@@H](C4)O)C)O)O)C
Method: HCD
Collision_energy: [28.333334]
Isolation_window: 4.0
Ion_mode: N
Num Peaks: 7
343.2654	1.2
345.2804	3.3
346.2831	0.8
407.2810	100.0
407.3935	0.8
408.2846	26.9
409.2878	3.0

Name: (4S)-5-methoxy-5-oxo-4-(((4R)-4-((3R,5S,7R,8R,9S,10S,12S,13R,14S,17R)-3,7,12-trihydroxy-10,13-dimethyl-2,3,4,5,6,7,8,9,11,12,14,15,16,17-tetradecahydro-1H-cyclopenta(a)phenanthren-17-yl)pentanoyl)amino)pentanoic acid
PrecursorMZ: 550.3386
RT: 5.993
ExactMass: 551.34581752
Spectrum_type: 2
charge: -1
Formula: C30H49NO8
SMILES: C[C@H](CCC(=O)N[C@@H](CCC(=O)O)C(=O)OC)[C@H]1CC[C@@H]2[C@@]1([C@H](C[C@H]3[C@H]2[C@@H](C[C@H]4[C@@]3(CC[C@H](C4)O)C)O)O)C
Method: HCD
Collision_energy: [28.333334]
Isolation_window: 4.0
Ion_mode: N
Num Peaks: 8
61.9874	4.0
128.0344	100.0
129.0379	4.1
518.3118	11.1
549.3114	13.3
550.3391	59.9
551.3412	25.0
552.3467	4.7

Name: (4S,11S,18S)-7,14,21-tris(aminomethyl)-6,13,20-trimethyl-4,11,18-tri(propan-2-yl)-3,6,10,13,17,20,22,23,24-nonazatetracyclo(17.2.1.15,8.112,15)tetracosa-1(21),5(24),7,12(23),14,19(22)-hexaene-2,9,16-trione
PrecursorMZ: 623.39035
RT: 10.076
ExactMass: 624.39723344
Spectrum_type: 2
charge: -1
Formula: C30H48N12O3
SMILES: CC(C)[C@H]1C2=NC(=C(N2C)CN)C(=O)N[C@H](C3=NC(=C(N3C)CN)C(=O)N[C@H](C4=NC(=C(N4C)CN)C(=O)N1)C(C)C)C(C)C
Method: HCD
Collision_energy: [28.333334]
Isolation_window: 4.0
Ion_mode: N
Num Peaks: 6
68.9953	17.4
185.1532	31.0
227.2002	100.0
241.2158	31.7
623.3904	69.9
624.3937	17.9

Name: (4Z,6E)-2-Amino-7-hydroperoxy-4-((E)-2-hydroxyvinyl)hepta-4,6-dienoic acid
PrecursorMZ: 214.07172
RT: 2.4704
ExactMass: 215.07937252
Spectrum_type: 2
charge: -1
Formula: C9H13NO5
SMILES: C([C@@H](C(=O)O)N)/C(=C/C=C/OO)/C=C/O
Method: HCD
Collision_energy: [28.333334]
Isolation_window: 4.0
Ion_mode: N
Num Peaks: 4
85.0285	100.0
153.0552	10.4
171.0657	39.4
215.0095	21.7

Name: (4aS,5aS,12aS)-9-(4,4-dimethylpentyl)-2-(1-hydroxyethyl)-7-(1-(methoxyamino)ethyl)-2,3,4,4a,5,5a,6,6a,7,8,9,10,10a,11,11a,12-hexadecahydro-1H-tetracene-1,3,10,11,12,12a-hexol
PrecursorMZ: 539.35944
RT: 6.7553
ExactMass: 557.39276771
Spectrum_type: 2
charge: -1
Formula: C30H55NO8
SMILES: CC(C1CC(C(C2C1C[C@H]3C[C@H]4CC(C(C([C@]4(C(C3C2O)O)O)O)C(C)O)O)O)CCCC(C)(C)C)NOC
Method: HCD
Collision_energy: [28.333334]
Isolation_window: 4.0
Ion_mode: N
Num Peaks: 10
61.9875	52.3
175.0761	6.5
493.3515	19.0
494.3546	6.4
521.3501	9.0
537.3408	34.3
538.3469	49.9
539.3621	100.0
540.3664	28.3
541.3863	19.9

Name: (5'-13C)2'-Deoxyuridine
PrecursorMZ: 227.06702
RT: 1.1128
ExactMass: 229.07797632
Spectrum_type: 2
charge: -1
Formula: C9H12N2O5
SMILES: C1[C@@H]([C@H](O[C@H]1N2C=CC(=O)NC2=O)[13CH2]O)O
Method: HCD
Collision_energy: [28.333334]
Isolation_window: 4.0
Ion_mode: N
Num Peaks: 5
68.9948	26.0
94.0289	36.6
112.9847	74.2
184.0610	100.0
227.0677	35.4

Name: (5R)-5-((3S,8S,9S,10R,13R,14S,17R)-10,13-dimethyl-3-sulfooxy-2,3,4,7,8,9,11,12,14,15,16,17-dodecahydro-1H-cyclopenta(a)phenanthren-17-yl)-2-propan-2-ylhexanoic acid
PrecursorMZ: 509.29442
RT: 8.4203
ExactMass: 510.30151036
Spectrum_type: 2
charge: -1
Formula: C28H46O6S
SMILES: C[C@H](CCC(C(C)C)C(=O)O)[C@H]1CC[C@@H]2[C@@]1(CC[C@H]3[C@H]2CC=C4[C@@]3(CC[C@@H](C4)OS(=O)(=O)O)C)C
Method: HCD
Collision_energy: [28.333334]
Isolation_window: 4.0
Ion_mode: N
Num Peaks: 7
56.5867	2.1
56.5898	4.5
96.9591	73.3
98.9550	1.8
509.2940	100.0
510.2974	27.9
511.3039	12.3

Name: (6-Acetyloxy-2-hydroxy-10-(4-hydroxy-3-methoxyphenyl)-3-methoxy-5,5a,6,7,8,9,10,11,11a,12-decahydrocycloocta(b)naphthalen-8-yl) acetate
PrecursorMZ: 497.21882
RT: 4.7931
ExactMass: 498.22536804
Spectrum_type: 2
charge: -1
Formula: C28H34O8
SMILES: CC(=O)OC1CC(CC2CC3=CC(=C(C=C3CC2C(C1)OC(=O)C)OC)O)C4=CC(=C(C=C4)O)OC
Method: HCD
Collision_energy: [28.333334]
Isolation_window: 4.0
Ion_mode: N
Num Peaks: 20
55.2449	0.9
55.2479	2.3
61.9875	0.8
109.0287	0.9
121.0285	0.9
122.0365	1.9
135.0446	1.1
164.0476	0.9
165.0551	7.2
179.0707	1.4
283.1340	2.7
301.1439	1.4
313.1461	1.0
316.1318	1.2
331.1553	100.0
332.1587	19.3
333.1607	1.8
497.2186	47.0
498.2221	13.1
499.2265	2.0

Name: (6R)-3-benzyl-6-(1H-imidazol-5-ylmethyl)piperazine-2,5-dione
PrecursorMZ: 283.12034
RT: 2.2713
ExactMass: 284.12732577
Spectrum_type: 2
charge: -1
Formula: C15H16N4O2
SMILES: C1=CC=C(C=C1)CC2C(=O)N[C@@H](C(=O)N2)CC3=CN=CN3
Method: HCD
Collision_energy: [28.333334]
Isolation_window: 4.0
Ion_mode: N
Num Peaks: 8
67.0293	16.6
111.0193	21.3
136.0510	19.8
146.0605	31.3
203.0824	86.9
238.0986	24.3
283.1205	100.0
284.1237	15.8

Name: (6R,9R,12R,15S,18S,19S)-15-((2R)-butan-2-yl)-19-heptyl-9-(hydroxymethyl)-16,18-dimethyl-6,12-di(propan-2-yl)-1-oxa-3,7,10,13,16-pentazacyclononadecane-2,5,8,11,14,17-hexone
PrecursorMZ: 652.429
RT: 10.4756
ExactMass: 653.43636386
Spectrum_type: 2
charge: -1
Formula: C33H59N5O8
SMILES: CCCCCCC[C@H]1[C@@H](C(=O)N([C@H](C(=O)N[C@@H](C(=O)N[C@@H](C(=O)N[C@@H](C(=O)CNC(=O)O1)C(C)C)CO)C(C)C)[C@H](C)CC)C)C
Method: HCD
Collision_energy: [28.333334]
Isolation_window: 4.0
Ion_mode: N
Num Peaks: 19
72.3789	4.0
78.9581	4.0
152.9953	18.7
171.1385	16.7
185.1543	54.2
186.1578	6.5
199.1701	49.4
200.1735	5.8
213.1859	21.7
214.1894	4.0
227.2016	82.8
228.2050	13.8
241.2174	100.0
242.2208	17.4
255.2334	19.0
256.2360	3.6
651.4014	80.5
652.4039	31.2
653.4131	6.1

Name: (9-(2,3-Dimethylpentanoyloxy)-14-hydroxy-15-(5-(2-hydroxypropan-2-yl)-2-methyloxolan-2-yl)-7,12,16-trimethyl-6-pentacyclo(9.7.0.01,3.03,8.012,16)octadecanyl) 2,3-dimethylpentanoate
PrecursorMZ: 699.52164
RT: 11.2286
ExactMass: 700.52780463
Spectrum_type: 2
charge: -1
Formula: C43H72O7
SMILES: CCC(C)C(C)C(=O)OC1CCC23CC24CCC5(C(C(CC5(C4CC(C3C1C)OC(=O)C(C)C(C)CC)C)O)C6(CCC(O6)C(C)(C)O)C)C
Method: HCD
Collision_energy: [28.333334]
Isolation_window: 4.0
Ion_mode: N
Num Peaks: 10
61.9874	100.0
72.6152	3.0
145.0287	5.5
373.2745	8.6
651.4991	2.7
652.5027	7.8
653.5151	74.1
654.5187	32.6
655.5220	4.5
698.5068	2.9

Name: (E)-3-(((2S)-2,4-dihydroxy-3,3-dimethylbutanoyl)amino)prop-2-enoic acid
PrecursorMZ: 216.08747
RT: 1.6331
ExactMass: 217.09502258
Spectrum_type: 2
charge: -1
Formula: C9H15NO5
SMILES: CC(C)(CO)[C@@H](C(=O)N/C=C/C(=O)O)O
Method: HCD
Collision_energy: [28.333334]
Isolation_window: 4.0
Ion_mode: N
Num Peaks: 49
59.0129	0.7
71.0129	10.1
71.0493	3.7
72.0082	0.5
72.0445	0.2
79.9564	2.5
80.9641	0.3
85.0284	0.2
86.0240	0.2
87.0078	0.2
88.0139	0.3
88.0247	0.2
88.0282	0.7
88.0304	0.6
88.0394	100.0
88.0483	0.6
88.0507	0.8
88.0538	0.2
88.0681	0.3
88.9871	0.4
98.0237	0.3
99.0441	1.3
100.0392	0.2
114.0552	0.5
116.0344	0.7
116.0707	1.4
126.9431	0.2
129.0548	0.9
130.0868	0.2
144.0294	2.7
146.0573	0.3
146.0620	0.2
146.0814	49.9
146.1005	0.4
146.1054	0.4
186.0764	0.6
187.1082	0.5
215.0095	0.2
215.0378	2.6
215.0559	0.3
216.0398	0.3
216.0873	0.3
217.0734	0.2
217.1073	0.2
218.0589	0.2
218.0677	0.2
218.1029	35.3
218.1377	0.2
218.1467	0.3

Name: (E)-3-((2R,3S)-2-(4-hydroxy-3-methoxyphenyl)-3-(hydroxymethyl)-7-methoxy-2,3-dihydro-1-benzofuran-5-yl)-N-(2-(4-hydroxyphenyl)ethyl)prop-2-enamide
PrecursorMZ: 490.18793
RT: 5.42065
ExactMass: 491.19440226
Spectrum_type: 2
charge: -1
Formula: C28H29NO7
SMILES: COC1=CC(=CC2=C1O[C@H]([C@@H]2CO)C3=CC(=C(C=C3)O)OC)/C=C/C(=O)NCCC4=CC=C(C=C4)O
Method: HCD
Collision_energy: [28.333334]
Isolation_window: 4.0
Ion_mode: N
Num Peaks: 28
52.4655	4.2
61.9875	4.3
204.0663	4.0
282.0894	6.0
283.0969	5.9
296.1055	5.0
297.1133	16.6
308.1053	4.8
312.1243	3.7
338.1035	9.7
354.1350	3.5
430.1300	12.1
431.1361	3.1
440.1504	3.2
442.1298	43.2
443.1326	12.3
445.1535	13.1
446.1566	4.3
457.1536	51.6
458.1570	15.3
460.1773	41.0
461.1809	12.4
472.1770	100.0
473.1804	30.1
474.1837	3.7
489.1672	3.7
490.1918	9.9
491.1948	5.1

Name: (E)-7-(4-(4-fluorophenyl)-1-phenyl-2-propan-2-ylpyrrol-3-yl)-3,5-dihydroxyhept-6-enoic acid
PrecursorMZ: 436.1927
RT: 7.9331
ExactMass: 437.20023654
Spectrum_type: 2
charge: -1
Formula: C26H28FNO4
SMILES: CC(C)C1=C(C(=CN1C2=CC=CC=C2)C3=CC=C(C=C3)F)/C=C/C(CC(CC(=O)O)O)O
Method: HCD
Collision_energy: [28.333334]
Isolation_window: 4.0
Ion_mode: N
Num Peaks: 6
59.0129	25.4
251.0750	13.3
294.1298	100.0
295.1330	20.1
436.1931	23.9
437.1957	9.3

Name: (E,3R,4S,9R,10S)-3,10-dihydroxy-4,9-dimethyldodec-6-enedioic acid
PrecursorMZ: 287.15016
RT: 4.509433333333334
ExactMass: 288.15728848
Spectrum_type: 2
charge: -1
Formula: C14H24O6
SMILES: C[C@H](C/C=C/C[C@H](C)[C@@H](CC(=O)O)O)[C@H](CC(=O)O)O
Method: HCD
Collision_energy: [28.333334]
Isolation_window: 4.0
Ion_mode: N
Num Peaks: 12
120.0117	16.0
201.0952	2.9
207.1388	5.4
215.1186	3.1
216.1232	3.2
225.1493	28.7
226.1529	3.8
269.1394	22.3
270.1428	3.1
286.1663	10.8
287.1498	100.0
288.1537	14.3

Name: (R)-3-(4-hydroxyphenyl)-2-palmitamidopropanoic acid
PrecursorMZ: 418.29686
RT: 8.9563
ExactMass: 419.30355879
Spectrum_type: 2
charge: -1
Formula: C25H41NO4
SMILES: CCCCCCCCCCCCCCCC(=O)N[C@H](CC1=CC=C(C=C1)O)C(=O)O
Method: HCD
Collision_energy: [28.333334]
Isolation_window: 4.0
Ion_mode: N
Num Peaks: 14
107.0493	7.9
119.0493	4.2
162.0556	2.6
163.0393	8.1
180.0659	75.9
181.0695	7.4
254.2487	7.4
266.2482	3.4
374.3071	12.2
375.3091	3.2
417.3050	5.2
418.2967	100.0
419.3004	27.9
420.3067	2.7

Name: (Z)-2-oct-7-enylpent-2-enedioic acid
PrecursorMZ: 239.12847
RT: 6.1229
ExactMass: 240.13615911
Spectrum_type: 2
charge: -1
Formula: C13H20O4
SMILES: C=CCCCCCC/C(=C/CC(=O)O)/C(=O)O
Method: HCD
Collision_energy: [28.333334]
Isolation_window: 4.0
Ion_mode: N
Num Peaks: 6
138.0677	7.7
153.1277	7.2
195.1383	36.2
196.1418	4.6
239.1285	100.0
240.1322	13.7

Name: (Z)-3-((7S)-7-hydroxy-4-methoxycarbonyl-1-((2R,3S,4R,5R,6S)-3,4,5-trihydroxy-6-(hydroxymethyl)oxan-2-yl)oxy-4a,7a-dihydro-1H-cyclopenta(c)pyran-7-carbonyl)oxy-2-(4-hydroxy-3-methoxyphenyl)prop-2-enoic acid
PrecursorMZ: 609.1456
RT: 4.4171
ExactMass: 610.15338487
Spectrum_type: 2
charge: -1
Formula: C27H30O16
SMILES: COC1=C(C=CC(=C1)/C(=C/OC(=O)[C@@]2(C=CC3C2C(OC=C3C(=O)OC)O[C@@H]4[C@H]([C@@H]([C@H]([C@@H](O4)CO)O)O)O)O)/C(=O)O)O
Method: HCD
Collision_energy: [28.333334]
Isolation_window: 4.0
Ion_mode: N
Num Peaks: 26
57.0336	3.7
59.0129	6.0
81.0336	6.3
83.0129	8.0
85.0285	48.4
99.0441	18.4
111.0077	38.7
121.0286	5.7
127.0391	38.0
129.0184	28.2
153.0549	19.0
167.0344	3.8
171.0291	17.0
177.0545	3.1
182.0213	8.6
195.0655	37.7
196.0695	3.2
197.0448	100.0
198.0484	7.1
215.0192	8.7
263.0921	12.3
265.0717	9.5
309.0620	3.1
367.1039	3.9
369.0824	3.7
413.0729	3.9

Name: (Z)-N-((2S,3S,4S)-1-((2S,3S)-2,4-dihydroxy-3-propan-2-yloxybutoxy)-4-hydroxy-3-propan-2-yloxyoctadecan-2-yl)hept-3-enamide
PrecursorMZ: 614.50036
RT: 10.844966666666666
ExactMass: 615.50740354
Spectrum_type: 2
charge: -1
Formula: C35H69NO7
SMILES: CCCCCCCCCCCCCC[C@@H]([C@H]([C@H](COC[C@@H]([C@H](CO)OC(C)C)O)NC(=O)C/C=C\CCC)OC(C)C)O
Method: HCD
Collision_energy: [28.333334]
Isolation_window: 4.0
Ion_mode: N
Num Peaks: 4
61.9874	50.4
271.2277	35.7
568.4943	100.0
569.5009	37.3

Name: 1,1,1-Tris(3-indolyl)methane
PrecursorMZ: 360.15049
RT: 8.6367
ExactMass: 361.157897619
Spectrum_type: 2
charge: -1
Formula: C25H19N3
SMILES: C1=CC=C2C(=C1)C(=CN2)C(C3=CNC4=CC=CC=C43)C5=CNC6=CC=CC=C65
Method: HCD
Collision_energy: [28.333334]
Isolation_window: 4.0
Ion_mode: N
Num Peaks: 4
116.0496	50.4
243.0923	38.6
360.1507	100.0
361.1537	31.3

Name: 1,14-Tetradecanedioic-D24 acid
PrecursorMZ: 257.17595
RT: 6.3233
ExactMass: 282.33375121
Spectrum_type: 2
charge: -1
Formula: C14H26O4
SMILES: [2H]C([2H])(C(=O)O)C([2H])([2H])C([2H])([2H])C([2H])([2H])C([2H])([2H])C([2H])([2H])C([2H])([2H])C([2H])([2H])C([2H])([2H])C([2H])([2H])C([2H])([2H])C([2H])([2H])C(=O)O
Method: HCD
Collision_energy: [28.333334]
Isolation_window: 4.0
Ion_mode: N
Num Peaks: 6
195.1751	48.5
196.1784	6.8
219.8456	4.5
239.1652	19.8
257.1760	100.0
258.1794	15.2

Name: 1,3,4-Oxadiazol-2(3H)-one, 3,3'-(1,4-piperazinediylbis(methylene))bis(5-(3,4,5-trimethoxyphenyl)-
PrecursorMZ: 613.22727
RT: 5.4682
ExactMass: 614.2336413
Spectrum_type: 2
charge: -1
Formula: C28H34N6O10
SMILES: COC1=CC(=CC(=C1OC)OC)C2=NN(C(=O)O2)CN3CCN(CC3)CN4C(=O)OC(=N4)C5=CC(=C(C(=C5)OC)OC)OC
Method: HCD
Collision_energy: [28.333334]
Isolation_window: 4.0
Ion_mode: N
Num Peaks: 9
61.9872	18.1
150.0308	40.8
165.0544	100.0
180.0416	16.6
181.0492	31.3
195.0650	68.9
417.1554	30.7
565.2054	50.3
613.2255	39.5

Name: 1,3-Benzothiazole-2-sulfonate
PrecursorMZ: 213.96273
RT: 3.1927
ExactMass: 213.96326034
Spectrum_type: 2
charge: -1
Formula: C7H4NO3S2-
SMILES: C1=CC=C2C(=C1)N=C(S2)S(=O)(=O)[O-]
Method: HCD
Collision_energy: [28.333334]
Isolation_window: 4.0
Ion_mode: N
Num Peaks: 7
98.0235	3.3
134.0058	44.0
135.0098	3.0
150.0008	12.1
213.9628	100.0
214.9657	8.8
215.9584	5.2

Name: 1,4-Bis(4-hydroxy-3,5-dimethoxyphenyl)-1,3a,4,6a-tetrahydrofuro(3,4-c)furan-3,6-dione
PrecursorMZ: 445.11256
RT: 4.2977
ExactMass: 446.12129689
Spectrum_type: 2
charge: -1
Formula: C22H22O10
SMILES: COC1=CC(=CC(=C1O)OC)C2C3C(C(OC3=O)C4=CC(=C(C(=C4)OC)O)OC)C(=O)O2
Method: HCD
Collision_energy: [28.333334]
Isolation_window: 4.0
Ion_mode: N
Num Peaks: 9
271.0971	9.0
312.0632	11.1
327.0863	100.0
328.0899	18.3
342.1096	40.7
343.1136	9.1
357.1334	32.6
358.1368	7.4
445.1142	8.4

Name: 1,4a,7-trimethyl-7-(2-sulfooxyethyl)-3,4,4b,5,6,8,10,10a-octahydro-2H-phenanthrene-1-carboxylic acid
PrecursorMZ: 417.19595
RT: 4.1064
ExactMass: 400.19195991
Spectrum_type: 2
charge: -1
Formula: C20H32O6S
SMILES: CC1(CCC2C(=CCC3C2(CCCC3(C)C(=O)O)C)C1)CCOS(=O)(=O)O
Method: HCD
Collision_energy: [28.333334]
Isolation_window: 4.0
Ion_mode: N
Num Peaks: 13
69.0709	1.9
79.9565	7.1
80.9644	9.2
96.9594	6.8
157.0867	3.8
177.0916	2.4
179.1077	1.9
337.2029	3.2
415.1810	9.0
416.1816	8.9
417.1998	100.0
418.2013	22.7
419.2126	13.1

Name: 1-(((Z)-(amino-(4-(((1-((2E,4Z)-hexa-2,4-dien-2-yl)-2,5-dimethylpyrrole-3-carbonyl)amino)methyl)phenyl)methylidene)amino)-phenylmethyl)-N-((4-carbamimidoylphenyl)methyl)-3,5-dimethylpyrazole-4-carboxamide
PrecursorMZ: 708.37754
RT: 5.4462
ExactMass: 709.38527178
Spectrum_type: 2
charge: -1
Formula: C42H47N9O2
SMILES: C/C=C\C=C(/C)\N1C(=CC(=C1C)C(=O)NCC2=CC=C(C=C2)/C(=N/C(C3=CC=CC=C3)N4C(=C(C(=N4)C)C(=O)NCC5=CC=C(C=C5)C(=N)N)C)/N)C
Method: HCD
Collision_energy: [28.333334]
Isolation_window: 4.0
Ion_mode: N
Num Peaks: 10
116.0497	42.0
245.1657	92.9
246.1689	14.8
247.1232	9.3
253.1710	45.7
372.2083	15.8
378.2558	28.6
503.3385	18.7
708.3773	100.0
709.3798	47.9

Name: 1-((2R)-2-amino-3-(4-hydroxyphenyl)propanoyl)pyrrolidine-2-carboxylic acid
PrecursorMZ: 277.11935
RT: 2.0078
ExactMass: 278.12665706
Spectrum_type: 2
charge: -1
Formula: C14H18N2O4
SMILES: C1CC(N(C1)C(=O)[C@@H](CC2=CC=C(C=C2)O)N)C(=O)O
Method: HCD
Collision_energy: [28.333334]
Isolation_window: 4.0
Ion_mode: N
Num Peaks: 5
88.9870	17.4
107.0492	39.7
114.0550	54.5
171.0772	19.6
277.1194	100.0

Name: 1-((4S)-4-((2-(4-((R)-(((4S)-4-(ethylamino)-4-hydroxybutyl)amino)-hydroxymethyl)pyrrolidin-2-yl)-1,2,3,4-tetrahydropyridin-4-yl)oxy)cyclohexen-1-yl)-3-((1R,2S,5R)-2-fluoro-5-methylcyclohexyl)urea
PrecursorMZ: 579.40191
RT: 6.2912
ExactMass: 580.41123236
Spectrum_type: 2
charge: -1
Formula: C30H53FN6O4
SMILES: CCN[C@H](CCCN[C@@H](C1CC(NC1)C2CC(C=CN2)O[C@H]3CCC(=CC3)NC(=O)N[C@@H]4C[C@@H](CC[C@@H]4F)C)O)O
Method: HCD
Collision_energy: [28.333334]
Isolation_window: 4.0
Ion_mode: N
Num Peaks: 12
59.2680	4.3
61.9875	5.0
454.2356	3.6
491.3863	3.7
531.3807	2.8
533.3967	100.0
534.4008	29.9
535.4033	4.0
578.3623	3.2
579.4057	20.4
580.3333	3.4
580.4026	5.4

Name: 1-(2-Amino-3-phenylpropanoyl)pyrrolidine-2-carboxylic acid
PrecursorMZ: 261.12451
RT: 3.10825
ExactMass: 262.13174244
Spectrum_type: 2
charge: -1
Formula: C14H18N2O3
SMILES: C1CC(N(C1)C(=O)C(CC2=CC=CC=C2)N)C(=O)O
Method: HCD
Collision_energy: [28.333334]
Isolation_window: 4.0
Ion_mode: N
Num Peaks: 11
91.0543	12.1
114.0551	53.5
136.0762	6.9
145.0609	19.2
156.1023	7.1
200.0914	5.9
261.1242	100.0
262.0702	12.0
262.1288	12.9
263.0947	6.4
263.1510	10.2

Name: 1-(3,4,5-Trimethoxyphenyl)octan-2-amine
PrecursorMZ: 277.18092
RT: 6.76
ExactMass: 295.21474379
Spectrum_type: 2
charge: -1
Formula: C17H29NO3
SMILES: CCCCCCC(CC1=CC(=C(C(=C1)OC)OC)OC)N
Method: HCD
Collision_energy: [28.333334]
Isolation_window: 4.0
Ion_mode: N
Num Peaks: 11
59.0129	25.1
205.1594	10.9
206.1632	1.8
233.1550	3.9
233.1909	4.6
277.1507	3.1
277.1810	100.0
278.0286	1.6
278.1844	18.1
279.1594	1.3
279.1873	1.4

Name: 1-(6-ammonio-N-(1-carboxy-3-phenylpropyl)norleucyl)pyrrolidine-2-carboxylate
PrecursorMZ: 404.21962
RT: 4.15
ExactMass: 405.2263711
Spectrum_type: 2
charge: -1
Formula: C21H31N3O5
SMILES: C1CC(N(C1)C(=O)C(CCCC[NH3+])NC(CCC2=CC=CC=C2)C(=O)O)C(=O)[O-]
Method: HCD
Collision_energy: [28.333334]
Isolation_window: 4.0
Ion_mode: N
Num Peaks: 9
61.9874	18.6
124.0760	26.3
274.1925	17.3
291.1717	57.7
318.1822	100.0
319.1862	20.6
403.1748	21.9
404.2187	30.5
405.1889	17.9

Name: 1-(9Z,12Z-heptadecadienoyl)-glycero-3-phosphoserine
PrecursorMZ: 506.25094
RT: 7.5244
ExactMass: 507.25971891
Spectrum_type: 2
charge: -1
Formula: C23H42NO9P
SMILES: CCCC/C=C\C/C=C\CCCCCCCC(=O)OC[C@H](COP(=O)(O)OC[C@@H](C(=O)O)N)O
Method: HCD
Collision_energy: [28.333334]
Isolation_window: 4.0
Ion_mode: N
Num Peaks: 7
61.9876	12.6
196.0381	9.5
241.2176	100.0
242.2210	14.8
438.2636	51.1
439.2685	7.8
506.2505	7.7

Name: 1-(9Z-pentadecenoyl)-glycero-3-phospho-(1'-sn-glycerol)
PrecursorMZ: 467.24137
RT: 7.0171
ExactMass: 468.24881988
Spectrum_type: 2
charge: -1
Formula: C21H41O9P
SMILES: CCCCC/C=C\CCCCCCCC(=O)OC[C@H](COP(=O)(O)OC[C@H](CO)O)O
Method: HCD
Collision_energy: [28.333334]
Isolation_window: 4.0
Ion_mode: N
Num Peaks: 7
152.9952	14.4
239.2014	100.0
240.2044	16.8
241.2171	18.0
467.2418	42.7
468.2448	11.5
469.2528	9.7

Name: 1-Cyclohexyl-5-(2-oxopropyl)-5-(2-propen-1-yl)-2,4,6(1H,3H,5H)-pyrimidinetrione
PrecursorMZ: 305.15063
RT: 3.7659
ExactMass: 306.15795719
Spectrum_type: 2
charge: -1
Formula: C16H22N2O4
SMILES: CC(=O)CC1(C(=O)NC(=O)N(C1=O)C2CCCCC2)CC=C
Method: HCD
Collision_energy: [28.333334]
Isolation_window: 4.0
Ion_mode: N
Num Peaks: 14
59.0129	4.8
108.0445	3.8
124.0758	28.3
125.0793	1.9
136.0759	100.0
137.0794	7.1
138.0912	1.8
168.0658	36.5
169.0695	2.7
180.0658	28.7
181.0692	2.8
218.1546	2.0
305.1504	17.8
306.1547	2.9

Name: 1-Heptadecanoyl-rac-glycerol-3-phosphate
PrecursorMZ: 423.25249
RT: 8.0093
ExactMass: 424.25899064
Spectrum_type: 2
charge: -1
Formula: C20H41O7P
SMILES: CCCCCCCCCCCCCCCCC(=O)OCC(COP(=O)(O)O)O
Method: HCD
Collision_energy: [28.333334]
Isolation_window: 4.0
Ion_mode: N
Num Peaks: 18
61.9875	15.4
80.9643	16.8
119.0495	13.1
125.8724	20.2
127.8696	14.3
157.8624	39.9
159.8597	25.9
275.0147	15.1
310.9916	31.8
312.9887	22.8
339.2001	37.6
375.2909	22.2
387.1401	38.5
422.1091	100.0
423.1132	28.1
423.3274	30.4
424.1064	66.7
425.1089	15.5

Name: 1-Hydroxy-1,4a,7-trimethyl-7-(2-(3,4,5-trihydroxy-6-(hydroxymethyl)oxan-2-yl)oxyethyl)-2,3,4,4b,5,6,10,10a-octahydrophenanthren-9-one
PrecursorMZ: 467.26502
RT: 7.1276
ExactMass: 468.27231823
Spectrum_type: 2
charge: -1
Formula: C25H40O8
SMILES: CC1(CCC2C(=C1)C(=O)CC3C2(CCCC3(C)O)C)CCOC4C(C(C(C(O4)CO)O)O)O
Method: HCD
Collision_energy: [28.333334]
Isolation_window: 4.0
Ion_mode: N
Num Peaks: 12
59.0130	100.0
71.0130	35.4
89.0235	49.0
177.0764	10.4
277.1809	53.9
278.1844	9.6
347.2228	16.0
437.2547	20.1
449.2547	61.5
450.2581	16.0
467.2653	62.2
468.2690	16.4

Name: 1-Nonadecanoyl-glycero-3-phospho-(1'-sn-glycerol)
PrecursorMZ: 525.31953
RT: 8.1163
ExactMass: 526.3270702
Spectrum_type: 2
charge: -1
Formula: C25H51O9P
SMILES: CCCCCCCCCCCCCCCCCCC(=O)OC[C@H](COP(=O)(O)OC[C@H](CO)O)O
Method: HCD
Collision_energy: [28.333334]
Isolation_window: 4.0
Ion_mode: N
Num Peaks: 16
78.9581	48.9
152.9950	49.8
171.0057	8.9
241.2171	16.1
242.2204	8.9
433.2722	21.7
507.3708	7.3
523.3485	45.6
523.3637	23.9
524.3538	36.1
524.3672	16.7
525.3190	100.0
525.3820	39.9
526.3215	25.9
526.3848	13.2
527.3943	12.4

Name: 1-Octadecyl-glycero-3-phospho-(1'-myo-inositol)
PrecursorMZ: 585.34057
RT: 7.5247
ExactMass: 586.34819956
Spectrum_type: 2
charge: -1
Formula: C27H55O11P
SMILES: CCCCCCCCCCCCCCCCCCOC[C@H](COP(=O)(O)OC1C([C@@H](C(C(C1O)O)O)O)O)O
Method: HCD
Collision_energy: [28.333334]
Isolation_window: 4.0
Ion_mode: N
Num Peaks: 7
78.9581	41.4
121.0285	13.7
152.9951	45.5
171.0057	16.9
493.2935	15.9
585.3362	100.0
586.3393	32.0

Name: 1-S-(N-hydroxy-4-(methanesulfinyl)butanimidoyl)-1-thio-beta-D-glucopyranose
PrecursorMZ: 342.07044
RT: 5.0094
ExactMass: 343.07594436
Spectrum_type: 2
charge: -1
Formula: C11H21NO7S2
SMILES: CS(=O)CCCC(=NO)S[C@H]1[C@@H]([C@H]([C@@H]([C@H](O1)CO)O)O)O
Method: HCD
Collision_energy: [28.333334]
Isolation_window: 4.0
Ion_mode: N
Num Peaks: 16
57.9749	7.5
78.9850	16.3
91.0392	20.8
193.0062	10.4
194.0138	54.5
195.0213	7.7
249.0674	23.2
272.9998	68.8
274.0066	22.2
340.1220	6.9
341.1036	15.1
341.1416	6.9
342.0699	100.0
342.1309	8.9
343.0733	14.3
343.1192	11.2

Name: 10,11-Dihydroxy-6a,6b,9,9,12a-pentamethyl-2-methylidene-1,3,4,5,6,6a,7,8,8a,10,11,12,13,14b-tetradecahydropicene-4a-carboxylic acid
PrecursorMZ: 455.31472
RT: 7.7019
ExactMass: 456.32395988
Spectrum_type: 2
charge: -1
Formula: C29H44O4
SMILES: CC1(C2CCC3(C(C2(CC(C1O)O)C)CC=C4C3(CCC5(C4CC(=C)CC5)C(=O)O)C)C)C
Method: HCD
Collision_energy: [28.333334]
Isolation_window: 4.0
Ion_mode: N
Num Peaks: 16
50.5892	2.2
50.5918	4.5
50.7033	1.4
50.8158	1.0
69.0106	1.0
149.0597	0.8
311.1673	15.5
409.3123	0.8
411.3272	1.9
413.1087	1.0
453.3003	0.9
454.3045	0.9
455.3154	100.0
456.3188	30.9
457.0973	1.4
457.3317	24.5

Name: 10,12,14-Trihydroxy-9,19,21,26-tetramethyl-1-azacyclohexacosa-3,5,7,15,17,19,21,23-octaen-2-one
PrecursorMZ: 466.29441
RT: 9.4636
ExactMass: 467.30355879
Spectrum_type: 2
charge: -1
Formula: C29H41NO4
SMILES: CC1CC=CC=C(C=C(C=CC=CC(CC(CC(C(C=CC=CC=CC(=O)N1)C)O)O)O)C)C
Method: HCD
Collision_energy: [28.333334]
Isolation_window: 4.0
Ion_mode: N
Num Peaks: 5
167.1067	12.9
280.1696	24.7
298.1800	100.0
299.1828	16.9
467.3236	11.2

Name: 11-Deoxy-4,4-dimethyl-4-silaprostaglandin E1
PrecursorMZ: 381.24561
RT: 8.9592
ExactMass: 382.25393622
Spectrum_type: 2
charge: -1
Formula: C21H38O4Si
SMILES: CCCCC[C@H](/C=C/[C@H]1CCC(=O)[C@@H]1CCC[Si](C)(C)CCC(=O)O)O
Method: HCD
Collision_energy: [28.333334]
Isolation_window: 4.0
Ion_mode: N
Num Peaks: 5
319.2454	37.1
363.2355	31.7
381.2462	100.0
382.2500	26.8
383.3153	46.2

Name: 12-Amino-7-oxododecanoic acid
PrecursorMZ: 228.16026
RT: 4.970264285714285
ExactMass: 229.1677936
Spectrum_type: 2
charge: -1
Formula: C12H23NO3
SMILES: C(CCC(=O)CCCCCN)CCC(=O)O
Method: HCD
Collision_energy: [28.333334]
Isolation_window: 4.0
Ion_mode: N
Num Peaks: 7
167.1435	16.2
210.1497	4.3
211.1337	21.5
212.1367	3.1
228.1603	100.0
229.1441	22.7
229.1641	11.3

Name: 13'-Hydroxy-gamma-tocopherol
PrecursorMZ: 431.35267
RT: 10.4702
ExactMass: 432.36034539
Spectrum_type: 2
charge: -1
Formula: C28H48O3
SMILES: CC1=C(C=C2CC[C@@](OC2=C1C)(C)CCC[C@@H](C)CCC[C@@H](C)CCCC(C)CO)O
Method: HCD
Collision_energy: [28.333334]
Isolation_window: 4.0
Ion_mode: N
Num Peaks: 6
149.0599	100.0
150.0632	9.3
176.0835	30.7
191.1069	6.6
431.3531	37.0
432.3559	10.1

Name: 14-Hexyl-19,21-dihydroxy-5,8,11,17-tetramethyl-24-propyl-22-oxahexacyclo(19.2.1.01,18.04,17.05,14.08,13)tetracosane-11-carboxylic acid
PrecursorMZ: 585.45026
RT: 11.2828
ExactMass: 586.45972507
Spectrum_type: 2
charge: -1
Formula: C37H62O5
SMILES: CCCCCCC12CCC3(C(C1(CCC4(C2CC(CC4)(C)C(=O)O)C)C)CCC56C3C(CC(C5CCC)(OC6)O)O)C
Method: HCD
Collision_energy: [28.333334]
Isolation_window: 4.0
Ion_mode: N
Num Peaks: 54
61.7168	1.3
65.0516	1.7
65.2721	1.6
65.2758	6.0
69.1287	0.9
97.0645	1.0
99.9246	1.2
111.0802	1.2
113.0957	1.4
115.9194	1.0
116.9272	5.1
125.0958	3.6
171.1012	2.2
183.1009	1.1
223.1331	1.1
261.2217	1.9
275.2007	3.4
277.2161	1.8
279.2317	6.3
293.2112	2.4
295.2265	1.7
297.2422	6.5
383.3309	2.0
385.3480	1.9
389.3421	2.1
399.3653	2.0
401.3406	2.3
411.3630	1.7
443.3516	2.4
455.3497	2.0
457.2032	1.3
457.3670	2.1
491.4240	1.5
493.4403	4.2
509.4348	3.9
510.4382	1.1
511.4503	7.0
535.4152	1.5
537.4296	6.1
553.4242	10.4
554.4283	3.3
555.4398	21.8
569.4562	1.5
583.4333	0.9
583.4975	1.5
584.4209	1.0
584.4322	1.3
584.4395	1.4
585.3014	1.1
585.4501	29.1
586.4539	8.8
587.3060	12.4
587.3167	1.8
587.4661	100.0

Name: 14-Hexyl-21-hydroxy-18-(hydroxymethyl)-5,8,11,17-tetramethyl-24-propyl-22-oxahexacyclo(19.2.1.01,18.04,17.05,14.08,13)tetracosane-11-carboxylic acid
PrecursorMZ: 599.46858
RT: 9.6668
ExactMass: 600.47537514
Spectrum_type: 2
charge: -1
Formula: C38H64O5
SMILES: CCCCCCC12CCC3(C(C1(CCC4(C2CC(CC4)(C)C(=O)O)C)C)CCC56C3(CCC(C5CCC)(OC6)O)CO)C
Method: HCD
Collision_energy: [28.333334]
Isolation_window: 4.0
Ion_mode: N
Num Peaks: 14
61.9874	30.8
66.6057	2.3
66.6097	4.2
87.0442	8.0
273.1615	2.6
317.1510	3.1
523.4372	5.9
524.4411	4.2
581.4596	2.0
597.4721	6.1
598.4798	5.7
599.4686	100.0
600.4724	38.0
601.4793	5.8

Name: 14-Hydroxytetradecanoic acid
PrecursorMZ: 243.19625
RT: 7.7723
ExactMass: 244.20384475
Spectrum_type: 2
charge: -1
Formula: C14H28O3
SMILES: C(CCCCCCC(=O)O)CCCCCCO
Method: HCD
Collision_energy: [28.333334]
Isolation_window: 4.0
Ion_mode: N
Num Peaks: 6
197.1905	30.2
225.1855	18.9
241.1798	6.7
242.1753	9.3
243.1964	100.0
244.1998	15.5

Name: 16-((3R,5S,7R,8R,9S,10S,12S,13R,14S,17R)-17-((2R)-4-carboxybutan-2-yl)-3,7,12-trihydroxy-10,13-dimethyl-2,3,4,5,6,7,8,9,11,12,14,15,16,17-tetradecahydro-1H-cyclopenta(a)phenanthren-1-yl)hexadecanoic acid
PrecursorMZ: 661.50526
RT: 9.9245
ExactMass: 662.51215457
Spectrum_type: 2
charge: -1
Formula: C40H70O7
SMILES: C[C@H](CCC(=O)O)[C@H]1CC[C@@H]2[C@@]1([C@H](C[C@H]3[C@H]2[C@@H](C[C@H]4[C@@]3(C(C[C@H](C4)O)CCCCCCCCCCCCCCCC(=O)O)C)O)O)C
Method: HCD
Collision_energy: [28.333334]
Isolation_window: 4.0
Ion_mode: N
Num Peaks: 10
271.2279	70.3
272.2314	10.0
287.2226	28.4
373.2752	6.2
389.2704	30.5
390.2745	5.8
391.2860	5.9
661.5054	100.0
662.5089	37.4
663.5140	6.4

Name: 16-(beta-D-Glucopyranosyloxy)hexadecanoic acid
PrecursorMZ: 433.2814
RT: 6.682
ExactMass: 434.28796829
Spectrum_type: 2
charge: -1
Formula: C22H42O8
SMILES: C(CCCCCCCC(=O)O)CCCCCCCO[C@H]1[C@@H]([C@H]([C@@H]([C@H](O1)CO)O)O)O
Method: HCD
Collision_energy: [28.333334]
Isolation_window: 4.0
Ion_mode: N
Num Peaks: 11
91.0390	21.3
201.1124	10.5
235.1449	20.2
313.2383	100.0
314.2420	15.6
387.2687	61.7
388.2719	15.2
389.2700	37.4
433.3003	16.0
434.2973	12.4
435.3199	24.9

Name: 1H-pyrimidine-2,4-di(17O2)one
PrecursorMZ: 111.01896
RT: 0.9809
ExactMass: 114.03571165
Spectrum_type: 2
charge: -1
Formula: C4H4N2O2
SMILES: C1=CNC(=[17O])NC1=[17O]
Method: HCD
Collision_energy: [28.333334]
Isolation_window: 4.0
Ion_mode: N
Num Peaks: 9
66.0088	4.6
67.0292	13.9
68.0132	35.2
78.9580	11.9
82.0288	7.7
109.0396	5.7
110.9747	16.9
111.0190	100.0
113.0346	6.0

Name: 2,2',2'',2'''-((6-Chloro-1,3,5-triazine-2,4-diyl)dinitrilo)tetrakisethanol
PrecursorMZ: 320.1136
RT: 4.8773
ExactMass: 321.1203818
Spectrum_type: 2
charge: -1
Formula: C11H20ClN5O4
SMILES: C(CO)N(CCO)C1=NC(=NC(=N1)Cl)N(CCO)CCO
Method: HCD
Collision_energy: [28.333334]
Isolation_window: 4.0
Ion_mode: N
Num Peaks: 5
136.0759	29.9
139.0391	87.7
203.0945	75.5
232.1337	100.0
320.1128	27.5

Name: 2,2,4,4-Tetramethylpentyl 3-(4-(2-(3-hydroxy-3-methylbutoxy)-2-methyl-1-(2-methyl-2-(3-oxo-3-(2,2,4,4-tetramethylpentoxy)propyl)-1,3-dioxolan-4-yl)propyl)-2-methyl-1,3-dioxolan-2-yl)propanoate
PrecursorMZ: 727.5375
RT: 10.4791
ExactMass: 728.54384862
Spectrum_type: 2
charge: -1
Formula: C41H76O10
SMILES: CC1(OCC(O1)C(C2COC(O2)(C)CCC(=O)OCC(C)(C)CC(C)(C)C)C(C)(C)OCCC(C)(C)O)CCC(=O)OCC(C)(C)CC(C)(C)C
Method: HCD
Collision_energy: [28.333334]
Isolation_window: 4.0
Ion_mode: N
Num Peaks: 4
61.9874	100.0
607.4945	96.7
608.4982	41.9
649.5049	21.2

Name: 2,2-dimethylpropanoyloxymethyl (E,2Z)-2-((3R,4S,5S,8S,9S,10S,11R,13R,14S)-11-hydroxy-3,4,8,10,14-pentamethyl-16-prop-1-en-2-yloxy-2,3,4,5,6,7,9,11,12,13,15,16-dodecahydro-1H-cyclopenta(a)phenanthren-17-ylidene)-5-propan-2-ylideneundec-6-enoate
PrecursorMZ: 707.52393
RT: 11.8114
ExactMass: 708.53289001
Spectrum_type: 2
charge: -1
Formula: C45H72O6
SMILES: CCCC/C=C/C(=C(C)C)CC/C(=C/1\[C@@H]2C[C@H]([C@H]3[C@]4(CC[C@H]([C@@H]([C@@H]4CC[C@@]3([C@]2(CC1OC(=C)C)C)C)C)C)C)O)/C(=O)OCOC(=O)C(C)(C)C
Method: HCD
Collision_energy: [28.333334]
Isolation_window: 4.0
Ion_mode: N
Num Peaks: 19
78.6163	4.3
123.0805	4.2
281.2482	4.9
283.2630	3.9
323.2373	15.8
324.2406	4.5
379.2638	6.6
605.4930	4.9
606.4955	5.6
607.5083	52.8
608.5121	20.2
609.5176	3.4
663.5347	18.9
664.5394	7.5
705.5107	7.7
706.5137	14.0
707.5252	100.0
708.5288	41.7
709.5398	17.8

Name: 2,3-Dihydroxyundecanedioic acid
PrecursorMZ: 247.11856
RT: 3.2239500000000003
ExactMass: 248.12598835
Spectrum_type: 2
charge: -1
Formula: C11H20O6
SMILES: C(CCCC(C(C(=O)O)O)O)CCCC(=O)O
Method: HCD
Collision_energy: [28.333334]
Isolation_window: 4.0
Ion_mode: N
Num Peaks: 13
72.9922	10.3
75.0078	68.3
96.9592	2.3
171.1019	25.3
172.1056	3.2
185.1176	5.7
201.1129	5.2
245.1317	4.9
247.0654	4.7
247.1184	100.0
248.0727	3.9
248.1219	12.1
249.0802	9.2

Name: 2,3-dihydroxybutanedioate;hydron
PrecursorMZ: 105.01831
RT: 1.2375
ExactMass: 150.01643791
Spectrum_type: 2
charge: -1
Formula: C4H6O6
SMILES: [H+].[H+].C(C(C(=O)[O-])O)(C(=O)[O-])O
Method: HCD
Collision_energy: [28.333334]
Isolation_window: 4.0
Ion_mode: N
Num Peaks: 11
57.0337	18.4
59.0130	24.4
65.0136	3.9
65.9977	7.9
72.9922	53.0
75.0079	22.3
103.0029	3.7
103.0392	23.1
105.0184	100.0
106.0220	3.5
106.0402	24.1

Name: 2,4-Diamino-4-oxobutanoic acid;hydron
PrecursorMZ: 114.01886
RT: 3.5185
ExactMass: 133.06131715
Spectrum_type: 2
charge: -1
Formula: C4H9N2O3+
SMILES: [H+].C(C(C(=O)O)N)C(=O)N
Method: HCD
Collision_energy: [28.333334]
Isolation_window: 4.0
Ion_mode: N
Num Peaks: 22
58.0290	3.3
64.0184	5.4
65.0137	29.7
68.0133	4.7
71.0131	3.5
71.0242	8.5
72.0082	5.2
72.9922	6.1
73.0399	6.4
74.0239	4.7
83.0243	3.5
86.0239	10.2
88.0185	3.4
89.0137	81.4
96.0083	26.0
113.0139	4.8
113.0349	10.9
114.0091	48.3
114.0185	4.4
115.0131	3.7
115.0294	53.8
116.0247	100.0

Name: 2,4-Dideuterio-3-hydroxybutanoic acid
PrecursorMZ: 103.03913
RT: 1.3344799999999999
ExactMass: 106.059897605
Spectrum_type: 2
charge: -1
Formula: C4H8O3
SMILES: [2H]CC(C([2H])C(=O)O)O
Method: HCD
Collision_energy: [28.333334]
Isolation_window: 4.0
Ion_mode: N
Num Peaks: 3
57.0337	25.4
59.0129	100.0
103.0391	30.5

Name: 2,5-Diamino-2,3,3,4,4,5,5-heptadeuteriopentanoic acid
PrecursorMZ: 131.08187
RT: 0.8641
ExactMass: 139.133814851
Spectrum_type: 2
charge: -1
Formula: C5H12N2O2
SMILES: [2H]C([2H])(C([2H])([2H])C([2H])(C(=O)O)N)C([2H])([2H])N
Method: HCD
Collision_energy: [28.333334]
Isolation_window: 4.0
Ion_mode: N
Num Peaks: 11
61.9875	6.4
84.0446	6.0
86.0602	16.2
88.0394	9.6
103.0027	8.3
114.0189	6.3
130.0502	8.9
130.8884	7.3
131.0818	80.6
132.0657	18.2
132.8670	100.0

Name: 2-(((1R,3S,6S)-5-((2R,4S,5R,10S)-5-ethyl-2,11-dihydroxy-10-methoxy-4,5,11-trimethyldodecan-4-yl)-2-((3S)-3-hydroxy-2-methylpentan-2-yl)-1,6-dimethyl-3-bicyclo(4.1.0)heptanyl)oxy)-6-(hydroxymethyl)oxane-3,4,5-triol
PrecursorMZ: 701.52208
RT: 10.37325
ExactMass: 702.52819855
Spectrum_type: 2
charge: -1
Formula: C39H74O10
SMILES: CC[C@@H](C(C)(C)C1[C@H](CC([C@]2([C@@]1(C2)C)C)[C@](C)(C[C@@H](C)O)[C@](C)(CC)CCCC[C@@H](C(C)(C)O)OC)OC3C(C(C(C(O3)CO)O)O)O)O
Method: HCD
Collision_energy: [28.333334]
Isolation_window: 4.0
Ion_mode: N
Num Peaks: 6
61.9874	62.2
269.2488	100.0
581.4794	26.7
637.4941	23.1
655.5117	19.3
702.5217	18.1

Name: 2-(((3S)-3-hydroxyhexadecanoyl)amino)acetic acid
PrecursorMZ: 328.24976
RT: 8.17505
ExactMass: 329.2566086
Spectrum_type: 2
charge: -1
Formula: C18H35NO4
SMILES: CCCCCCCCCCCCC[C@@H](CC(=O)NCC(=O)O)O
Method: HCD
Collision_energy: [28.333334]
Isolation_window: 4.0
Ion_mode: N
Num Peaks: 4
74.0239	100.0
116.0346	41.4
328.2500	45.3
329.2660	14.5

Name: 2-(((4R)-4-((3R,5S,8S,9R,10S,13R,14S,17R)-3-hydroxy-10,13-dimethyl-2,3,4,5,6,7,8,9,11,12,14,15,16,17-tetradecahydro-1H-cyclopenta(a)phenanthren-17-yl)pentanoyl)amino)acetic acid
PrecursorMZ: 432.3124
RT: 7.0422
ExactMass: 433.31920885
Spectrum_type: 2
charge: -1
Formula: C26H43NO4
SMILES: C[C@H](CCC(=O)NCC(=O)O)[C@H]1CC[C@@H]2[C@@]1(CC[C@@H]3[C@@H]2CC[C@@H]4[C@@]3(CC[C@H](C4)O)C)C
Method: HCD
Collision_energy: [28.333334]
Isolation_window: 4.0
Ion_mode: N
Num Peaks: 8
74.0239	57.1
75.0273	1.1
139.1125	1.1
388.3227	2.9
389.3250	0.9
432.3128	100.0
433.3159	27.7
434.3189	3.6

Name: 2-(((4R)-4-((3R,7R,8R,9S,10S,12S,13R,14S,17R)-7,12-dihydroxy-10,13-dimethyl-3-octadeca-9,12-dienoyloxy-2,3,4,5,6,7,8,9,11,12,14,15,16,17-tetradecahydro-1H-cyclopenta(a)phenanthren-17-yl)pentanoyl)amino)acetic acid
PrecursorMZ: 726.5323
RT: 10.5491
ExactMass: 727.53870367
Spectrum_type: 2
charge: -1
Formula: C44H73NO7
SMILES: CCCCCC=CCC=CCCCCCCCC(=O)O[C@@H]1CC[C@@]2([C@H]3C[C@@H]([C@]4([C@H]([C@@H]3[C@@H](CC2C1)O)CC[C@@H]4[C@H](C)CCC(=O)NCC(=O)O)C)O)C
Method: HCD
Collision_energy: [28.333334]
Isolation_window: 4.0
Ion_mode: N
Num Peaks: 23
61.9875	10.3
74.0239	100.0
75.0272	2.3
80.7290	2.6
97.4650	1.7
152.9952	2.9
255.2331	10.6
279.2332	3.8
295.2278	1.9
402.3025	2.4
446.2912	1.9
464.3018	1.8
706.5064	3.2
707.5100	6.7
708.5126	2.0
724.5173	2.2
725.5201	4.4
726.5330	65.4
727.5368	31.4
728.4823	6.9
728.5036	6.1
728.5307	6.7
728.5452	6.5

Name: 2-(((4R)-4-((3S,7S,8S,9S,10R,13R,14S,17R)-7-hydroxy-10,13-dimethyl-3-sulfooxy-2,3,4,7,8,9,11,12,14,15,16,17-dodecahydro-1H-cyclopenta(a)phenanthren-17-yl)pentanoyl)amino)acetic acid
PrecursorMZ: 526.2484
RT: 5.0805
ExactMass: 527.25528844
Spectrum_type: 2
charge: -1
Formula: C26H41NO8S
SMILES: C[C@H](CCC(=O)NCC(=O)O)[C@H]1CC[C@@H]2[C@@]1(CC[C@H]3[C@H]2[C@@H](C=C4[C@@]3(CC[C@@H](C4)OS(=O)(=O)O)C)O)C
Method: HCD
Collision_energy: [28.333334]
Isolation_window: 4.0
Ion_mode: N
Num Peaks: 16
58.4704	2.2
58.4737	4.3
61.9874	1.7
74.0238	24.5
96.9592	27.1
114.0552	1.4
128.0345	2.9
446.2917	71.8
447.2953	20.0
448.3020	3.5
525.2427	4.0
525.3133	2.5
526.2484	100.0
527.2523	29.0
527.3231	3.6
528.2599	11.9

Name: 2-(((Z)-hexadec-9-enoyl)amino)-3-phenylpropanoic acid
PrecursorMZ: 400.28567
RT: 9.5784
ExactMass: 401.29299411
Spectrum_type: 2
charge: -1
Formula: C25H39NO3
SMILES: CCCCCC/C=C\CCCCCCCC(=O)NC(CC1=CC=CC=C1)C(=O)O
Method: HCD
Collision_energy: [28.333334]
Isolation_window: 4.0
Ion_mode: N
Num Peaks: 5
147.0444	17.4
164.0710	71.2
314.2491	23.4
400.2856	100.0
401.2891	26.8

Name: 2-((1,5-Dihydro-3,4-dimethyl-5-oxo-2h-pyrrole-2-ylidene)methyl)-5-carboxy-4-methyl-1h-pyrrole-3-propanoic acid
PrecursorMZ: 317.11432
RT: 4.7512
ExactMass: 318.12157168
Spectrum_type: 2
charge: -1
Formula: C16H18N2O5
SMILES: CC1=C(C(=O)NC1=CC2=C(C(=C(N2)C(=O)O)C)CCC(=O)O)C
Method: HCD
Collision_energy: [28.333334]
Isolation_window: 4.0
Ion_mode: N
Num Peaks: 49
59.0129	4.6
94.0652	0.7
106.0654	0.5
109.0649	0.4
120.0809	2.3
121.0524	1.5
122.0603	2.6
122.0966	1.6
124.0759	14.8
132.0810	7.9
134.0603	3.8
136.0759	0.7
148.0760	1.8
150.0916	15.1
159.0555	0.5
160.0634	5.5
161.0677	0.5
165.1025	4.0
166.0866	3.2
176.0710	0.5
194.0816	6.5
212.1075	0.9
214.1105	0.4
219.1498	4.7
226.0738	0.4
229.1342	6.6
230.1377	0.9
233.1658	0.4
240.0899	0.7
245.1653	0.5
247.1446	1.9
247.1811	3.9
255.1137	8.3
256.1161	1.3
257.1656	1.2
273.1241	1.1
273.1606	2.3
275.1763	2.4
291.1714	20.8
301.1558	0.7
315.1276	0.7
316.1343	0.7
317.1144	0.6
317.1499	3.0
318.1546	0.6
319.0880	0.6
319.1037	0.5
319.1657	100.0
319.2446	0.7

Name: 2-((2-((2-Amino-5-(diaminomethylideneamino)pentanoyl)amino)-4-methylpentanoyl)amino)acetic acid
PrecursorMZ: 343.21258
RT: 6.9275
ExactMass: 344.2172034
Spectrum_type: 2
charge: -1
Formula: C14H28N6O4
SMILES: CC(C)CC(C(=O)NCC(=O)O)NC(=O)C(CCCN=C(N)N)N
Method: HCD
Collision_energy: [28.333334]
Isolation_window: 4.0
Ion_mode: N
Num Peaks: 19
83.0492	4.1
115.0755	15.6
145.0500	1.8
165.1277	2.8
183.1386	3.5
209.1173	2.5
215.1646	2.6
227.1284	30.7
228.1318	3.9
283.1700	5.2
299.1652	18.2
300.1688	4.1
301.1799	1.5
341.2330	2.6
343.1550	100.0
343.2127	6.3
344.1593	28.7
344.2143	1.3
345.1694	12.3

Name: 2-((2-((2-acetamido-3-(ethyldisulfanyl)propanoyl)amino)acetyl)amino)-N-(3-hydroxypentan-2-yl)butanediamide
PrecursorMZ: 478.17998
RT: 0.9236
ExactMass: 479.18722614
Spectrum_type: 2
charge: -1
Formula: C18H33N5O6S2
SMILES: CCC(C(C)NC(=O)C(CC(=O)N)NC(=O)CNC(=O)C(CSSCC)NC(=O)C)O
Method: HCD
Collision_energy: [28.333334]
Isolation_window: 4.0
Ion_mode: N
Num Peaks: 13
64.9517	5.9
74.0061	7.9
75.0079	5.1
116.0166	100.0
281.1617	7.0
282.1932	3.7
315.1497	9.6
324.2041	6.0
366.2148	12.7
398.1869	9.7
432.1745	61.6
433.1782	12.8
434.1716	4.1

Name: 2-((2-(2-(4-Carboxybut-2-enyl)-3-oxocyclopentyl)acetyl)amino)-3-methylpentanoic acid
PrecursorMZ: 352.17672
RT: 4.45505
ExactMass: 353.18383758
Spectrum_type: 2
charge: -1
Formula: C18H27NO6
SMILES: CCC(C)C(C(=O)O)NC(=O)CC1CCC(=O)C1CC=CCC(=O)O
Method: HCD
Collision_energy: [28.333334]
Isolation_window: 4.0
Ion_mode: N
Num Peaks: 19
58.0289	1.3
59.0129	1.6
95.0492	1.8
128.1073	12.0
130.0866	100.0
131.0901	5.3
135.0808	2.2
154.0867	3.8
172.0973	6.1
177.0913	1.9
246.1859	2.0
290.1763	3.5
308.1869	12.9
309.1896	2.2
334.1664	4.3
350.1755	1.3
352.1768	67.0
353.1803	13.7
354.1858	2.1

Name: 2-((2-(4-(3,7-dihydroxy-10,13-dimethyl-2,3,4,5,6,7,8,9,11,12,14,15,16,17-tetradecahydro-1H-cyclopenta(a)phenanthren-17-yl)pentanoyl-methylamino)acetyl)-methylamino)acetic acid
PrecursorMZ: 533.36035
RT: 6.55776
ExactMass: 534.36688732
Spectrum_type: 2
charge: -1
Formula: C30H50N2O6
SMILES: CC(CCC(=O)N(C)CC(=O)N(C)CC(=O)O)C1CCC2C1(CCC3C2C(CC4C3(CCC(C4)O)C)O)C
Method: HCD
Collision_energy: [28.333334]
Isolation_window: 4.0
Ion_mode: N
Num Peaks: 14
59.2606	2.4
59.2641	4.1
88.0396	30.1
115.0869	6.9
159.0770	7.6
295.2282	2.1
296.2320	2.0
444.3129	4.6
489.3745	1.8
531.3193	2.0
532.3220	8.1
533.3619	100.0
534.3649	31.0
535.3091	39.6

Name: 2-((2-Acetamido-3-methylbutanoyl)amino)-3-phenylpropanoic acid
PrecursorMZ: 305.15081
RT: 5.0212
ExactMass: 306.15795719
Spectrum_type: 2
charge: -1
Formula: C16H22N2O4
SMILES: CC(C)C(C(=O)NC(CC1=CC=CC=C1)C(=O)O)NC(=O)C
Method: HCD
Collision_energy: [28.333334]
Isolation_window: 4.0
Ion_mode: N
Num Peaks: 8
129.1025	35.4
140.0710	8.5
147.0442	7.5
157.0976	36.1
164.0710	26.7
233.1657	23.9
305.1506	100.0
306.1544	13.7

Name: 2-((2-Azaniumyl-3-methylbutanoyl)amino)-3-methylbutanoate
PrecursorMZ: 215.13963
RT: 1.438
ExactMass: 216.1473925
Spectrum_type: 2
charge: -1
Formula: C10H20N2O3
SMILES: CC(C)C(C(=O)NC(C(C)C)C(=O)[O-])[NH3+]
Method: HCD
Collision_energy: [28.333334]
Isolation_window: 4.0
Ion_mode: N
Num Peaks: 12
72.9923	2.8
88.9871	4.3
112.0395	3.2
116.0708	21.1
138.0552	6.7
171.1497	34.2
172.1535	3.7
215.0554	3.3
215.1398	100.0
216.0336	3.4
216.1432	11.5
217.0713	11.3

Name: 2-((2S)-2-((4R)-9,17-dihydroxy-3,4,14,18,18-pentamethyl-7-pentacyclo(11.8.0.03,11.04,8.014,19)henicosanyl)-6-methylhept-5-en-2-yl)oxy-6-methyloxane-3,4,5-triol
PrecursorMZ: 659.49026
RT: 10.2066
ExactMass: 660.4965045
Spectrum_type: 2
charge: -1
Formula: C40H68O7
SMILES: CC1C(C(C(C(O1)O[C@@](C)(CCC=C(C)C)C2CC[C@@]3(C2C(CC4C3(CC5CCC6C(C(CCC6(C5C4)C)O)(C)C)C)O)C)O)O)O
Method: HCD
Collision_energy: [28.333334]
Isolation_window: 4.0
Ion_mode: N
Num Peaks: 11
73.2744	2.1
73.2792	4.6
73.3908	1.8
139.1122	28.6
140.1156	2.2
269.2125	14.5
270.2163	2.1
389.2705	6.0
659.4904	100.0
660.4937	41.5
661.4965	7.8

Name: 2-((2S,5S)-5-benzyl-3,6-dioxopiperazin-2-yl)acetate
PrecursorMZ: 261.08825
RT: 4.5734
ExactMass: 261.0875319
Spectrum_type: 2
charge: -1
Formula: C13H13N2O4-
SMILES: C1=CC=C(C=C1)C[C@H]2C(=O)N[C@H](C(=O)N2)CC(=O)[O-]
Method: HCD
Collision_energy: [28.333334]
Isolation_window: 4.0
Ion_mode: N
Num Peaks: 7
113.0349	100.0
124.0270	29.4
126.0428	32.9
147.0445	15.3
199.0873	28.9
217.0983	38.8
261.0883	57.4

Name: 2-((3-(3-Cyclopentylpropanoyloxy)-2-hydroxypropoxy)-hydroxyphosphoryl)oxyethyl-trimethylazanium
PrecursorMZ: 426.19029
RT: 3.2466
ExactMass: 382.19946439
Spectrum_type: 2
charge: -1
Formula: C16H33NO7P+
SMILES: C[N+](C)(C)CCOP(=O)(O)OCC(COC(=O)CCC1CCCC1)O
Method: HCD
Collision_energy: [28.333334]
Isolation_window: 4.0
Ion_mode: N
Num Peaks: 12
78.9581	9.5
122.9844	10.4
125.0964	100.0
126.0998	8.2
169.0862	7.7
187.0971	5.9
201.1127	67.2
202.1162	8.1
224.0689	14.4
367.1163	6.0
426.1904	70.8
427.1923	16.0

Name: 2-((3R)-2,5-dioxooxolan-3-yl)acetic acid
PrecursorMZ: 157.01365
RT: 2.0654
ExactMass: 158.02152329
Spectrum_type: 2
charge: -1
Formula: C6H6O5
SMILES: C1[C@H](C(=O)OC1=O)CC(=O)O
Method: HCD
Collision_energy: [28.333334]
Isolation_window: 4.0
Ion_mode: N
Num Peaks: 28
59.0130	2.4
65.9977	1.5
69.0337	74.1
70.0371	3.3
71.0129	11.0
72.9922	1.6
82.9913	1.7
82.9952	100.0
83.0493	4.1
83.9986	3.3
84.0447	1.8
84.9910	3.1
85.0285	4.1
86.0238	3.1
87.0079	2.8
95.0494	3.5
113.0059	7.1
113.0235	17.5
113.0599	8.4
114.0552	20.0
116.0708	2.6
126.9851	8.2
156.0659	7.3
156.9958	10.7
157.0136	19.9
157.0500	10.8
158.0815	2.0
159.0656	34.4

Name: 2-((4R)-4-((3R,5R,7R,8R,9S,10S,12S,13R,14S,17R)-7,12-dihydroxy-10,13-dimethyl-3-undec-10-enoyloxy-2,3,4,5,6,7,8,9,11,12,14,15,16,17-tetradecahydro-1H-cyclopenta(a)phenanthren-17-yl)pentanoyl)oxyethyl undec-10-enoate
PrecursorMZ: 783.5786
RT: 6.1274
ExactMass: 784.58531951
Spectrum_type: 2
charge: -1
Formula: C48H80O8
SMILES: C[C@H](CCC(=O)OCCOC(=O)CCCCCCCCC=C)[C@H]1CC[C@@H]2[C@@]1([C@H](C[C@H]3[C@H]2[C@@H](C[C@H]4[C@@]3(CC[C@H](C4)OC(=O)CCCCCCCCC=C)C)O)O)C
Method: HCD
Collision_energy: [28.333334]
Isolation_window: 4.0
Ion_mode: N
Num Peaks: 5
389.2700	9.8
390.2733	5.8
391.2853	100.0
392.2889	25.9
393.2923	2.2

Name: 2-((4R)-4-((3R,5S,7R,8R,9S,10S,12S,13R,14S,17R)-3,7,12-trihydroxy-10,13-dimethyl-2,3,4,5,6,7,8,9,11,12,14,15,16,17-tetradecahydro-1H-cyclopenta(a)phenanthren-17-yl)pentanoyl)oxyethyl (2R)-2-propyloctanoate
PrecursorMZ: 619.45894
RT: 10.9544
ExactMass: 620.46520438
Spectrum_type: 2
charge: -1
Formula: C37H64O7
SMILES: CCCCCC[C@@H](CCC)C(=O)OCCOC(=O)CC[C@@H](C)[C@H]1CC[C@@H]2[C@@]1([C@H](C[C@H]3[C@H]2[C@@H](C[C@H]4[C@@]3(CC[C@H](C4)O)C)O)O)C
Method: HCD
Collision_energy: [28.333334]
Isolation_window: 4.0
Ion_mode: N
Num Peaks: 14
61.9875	30.2
63.7189	4.4
199.1698	10.7
271.2280	2.8
299.2582	2.8
373.2744	9.5
391.2856	5.4
557.4553	2.6
573.4529	100.0
574.4560	35.0
575.4571	5.3
619.3981	16.7
620.4008	6.4
621.4834	4.1

Name: 2-(1-(2-Amino-2-oxoethyl)cyclohexyl)acetate
PrecursorMZ: 198.11301
RT: 3.9656
ExactMass: 198.11301837
Spectrum_type: 2
charge: -1
Formula: C10H16NO3-
SMILES: C1CCC(CC1)(CC(=O)N)CC(=O)[O-]
Method: HCD
Collision_energy: [28.333334]
Isolation_window: 4.0
Ion_mode: N
Num Peaks: 24
84.0208	8.8
96.9604	7.3
97.9594	6.1
98.9558	66.2
99.0806	6.3
114.9508	40.7
126.9508	33.4
127.1121	14.1
137.0965	25.5
140.9506	11.1
141.9497	9.5
142.9459	100.0
143.9459	6.2
154.1232	35.4
154.9459	29.5
168.9456	5.3
170.9409	52.2
171.0671	5.3
180.1025	83.0
181.1057	9.2
197.0817	6.9
198.1131	67.7
199.0971	6.6
199.1165	8.0

Name: 2-(1-Oxotetradecylamino)-3-phenylpropanoic acid
PrecursorMZ: 374.27003
RT: 9.297
ExactMass: 375.27734404
Spectrum_type: 2
charge: -1
Formula: C23H37NO3
SMILES: CCCCCCCCCCCCCC(=O)NC(CC1=CC=CC=C1)C(=O)O
Method: HCD
Collision_energy: [28.333334]
Isolation_window: 4.0
Ion_mode: N
Num Peaks: 6
147.0444	17.7
164.0710	69.1
165.0747	5.7
226.2174	14.7
374.2701	100.0
375.2735	23.4

Name: 2-(2-(2-(2-(2-Ethyl-2,3,4,5,6-pentahydroxyhexanoyl)oxyethoxy)ethoxy)ethoxy)ethyl 2-ethyl-2,3,4,5,6-pentahydroxyhexanoate
PrecursorMZ: 605.26692
RT: 1.3326
ExactMass: 606.27349999
Spectrum_type: 2
charge: -1
Formula: C24H46O17
SMILES: CCC(C(C(C(CO)O)O)O)(C(=O)OCCOCCOCCOCCOC(=O)C(CC)(C(C(C(CO)O)O)O)O)O
Method: HCD
Collision_energy: [28.333334]
Isolation_window: 4.0
Ion_mode: N
Num Peaks: 9
85.0285	3.4
88.9870	1.4
101.0235	5.0
103.0391	2.3
129.0186	2.8
144.0293	1.3
147.0293	2.9
147.0656	100.0
148.0689	5.4

Name: 2-(2-(2-Dodecoxyethoxy)ethoxy)ethyl sulfate
PrecursorMZ: 397.22668
RT: 7.6623
ExactMass: 397.22599969
Spectrum_type: 2
charge: -1
Formula: C18H37O7S-
SMILES: CCCCCCCCCCCCOCCOCCOCCOS(=O)(=O)[O-]
Method: HCD
Collision_energy: [28.333334]
Isolation_window: 4.0
Ion_mode: N
Num Peaks: 16
74.0238	1.0
78.9581	2.0
79.9563	1.1
80.9642	3.2
87.0442	1.0
96.9591	22.0
122.9749	1.6
130.0862	1.0
152.9951	5.7
311.2229	1.9
395.2154	1.1
395.2787	0.9
397.2265	100.0
398.2298	21.5
399.2246	5.9
399.2754	1.2

Name: 2-(2-Butoxyethoxy)acetate
PrecursorMZ: 175.09719
RT: 3.7598
ExactMass: 175.09703396
Spectrum_type: 2
charge: -1
Formula: C8H15O4-
SMILES: CCCCOCCOCC(=O)[O-]
Method: HCD
Collision_energy: [28.333334]
Isolation_window: 4.0
Ion_mode: N
Num Peaks: 8
72.9923	19.8
75.0079	10.7
118.9656	12.9
146.9606	100.0
174.8281	40.6
174.9558	9.3
175.0974	34.4
176.8258	7.2

Name: 2-(2-aminoethoxy(hydroxy)phosphoryl)oxyethyl (Z)-octadec-9-enoate
PrecursorMZ: 448.2842
RT: 10.065850000000001
ExactMass: 449.29062512
Spectrum_type: 2
charge: -1
Formula: C22H44NO6P
SMILES: CCCCCCCC/C=C\CCCCCCCC(=O)OCCOP(=O)(O)OCCN
Method: HCD
Collision_energy: [28.333334]
Isolation_window: 4.0
Ion_mode: N
Num Peaks: 19
116.0492	7.0
171.1013	7.2
346.2162	25.1
347.2195	5.7
385.3462	6.9
402.3452	13.0
403.3570	13.3
404.2936	7.0
429.3349	8.0
430.2738	19.8
431.2779	5.2
432.2896	23.1
446.3348	52.4
447.3466	79.5
448.2851	100.0
448.3509	23.8
449.2793	17.8
449.2867	31.8
450.2991	65.4

Name: 2-(3-Methylbutanoylamino)pentanedioate
PrecursorMZ: 230.10331
RT: 3.4984
ExactMass: 229.09502258
Spectrum_type: 2
charge: -1
Formula: C10H15NO5-2
SMILES: CC(C)CC(=O)NC(CCC(=O)[O-])C(=O)[O-]
Method: HCD
Collision_energy: [28.333334]
Isolation_window: 4.0
Ion_mode: N
Num Peaks: 19
70.0290	8.0
71.0130	25.2
85.0287	3.4
96.9923	32.6
100.0760	76.7
101.0793	4.7
114.0189	6.5
129.0187	100.0
130.0223	4.5
130.0869	3.6
146.0451	2.6
154.0868	36.4
155.0901	2.8
166.0867	3.2
186.1134	2.8
198.0769	32.4
199.0802	2.7
228.1322	2.8
230.1034	3.9

Name: 2-(4,8-Bis(2-amino-2-oxoethyl)-11-(2-aminoprop-2-enyl)-1,4,8,11-tetrazacyclotetradec-1-yl)acetamide
PrecursorMZ: 425.30079
RT: 6.2735
ExactMass: 426.3066871
Spectrum_type: 2
charge: -1
Formula: C19H38N8O3
SMILES: C=C(CN1CCCN(CCN(CCCN(CC1)CC(=O)N)CC(=O)N)CC(=O)N)N
Method: HCD
Collision_energy: [28.333334]
Isolation_window: 4.0
Ion_mode: N
Num Peaks: 20
116.0705	11.2
135.0438	18.2
152.9944	11.8
157.0967	17.0
199.1688	24.8
247.2056	23.3
288.1950	7.3
295.1658	8.6
345.1692	36.4
346.1724	7.3
361.2849	100.0
362.2880	23.0
383.1884	7.7
424.2724	36.8
425.1246	30.0
425.2096	10.0
425.2558	10.7
426.1294	9.5
427.1773	13.5
427.2275	11.5

Name: 2-(4-(10,13-dimethyl-2,3,4,5,6,7,8,9,11,12,14,15,16,17-tetradecahydro-1H-cyclopenta(a)phenanthren-17-yl)pentanoylamino)acetic acid
PrecursorMZ: 416.31572
RT: 9.9504
ExactMass: 417.32429423
Spectrum_type: 2
charge: -1
Formula: C26H43NO3
SMILES: CC(CCC(=O)NCC(=O)O)C1CCC2C1(CCC3C2CCC4C3(CCCC4)C)C
Method: HCD
Collision_energy: [28.333334]
Isolation_window: 4.0
Ion_mode: N
Num Peaks: 11
69.3905	1.8
88.0392	2.4
96.0442	2.7
99.0440	9.6
116.0704	2.2
316.2637	61.7
317.2672	13.5
372.3282	1.8
416.3165	100.0
417.3198	28.4
418.3302	3.1

Name: 2-(4-(12-hydroxy-10,13-dimethyl-3-((9Z,12Z)-octadeca-9,12-dienoyl)oxy-2,3,4,5,6,7,8,9,11,12,14,15,16,17-tetradecahydro-1H-cyclopenta(a)phenanthren-17-yl)pentanoylamino)acetic acid
PrecursorMZ: 710.53769
RT: 10.554933333333333
ExactMass: 711.54378905
Spectrum_type: 2
charge: -1
Formula: C44H73NO6
SMILES: CCCCC/C=C\C/C=C\CCCCCCCC(=O)OC1CCC2(C(C1)CCC3C2CC(C4(C3CCC4C(C)CCC(=O)NCC(=O)O)C)O)C
Method: HCD
Collision_energy: [28.333334]
Isolation_window: 4.0
Ion_mode: N
Num Peaks: 15
74.0239	100.0
78.9516	3.2
78.9582	17.7
96.9688	2.3
152.9954	5.7
171.0060	23.0
295.2282	8.1
414.3023	11.8
415.3059	3.5
708.5226	11.2
709.5281	26.7
710.5382	82.3
711.5416	32.7
712.5066	5.6
712.5539	12.6

Name: 2-(4-(12-hydroxy-10,13-dimethyl-3-((9Z,12Z,15Z)-octadeca-9,12,15-trienoyl)oxy-2,3,4,5,6,7,8,9,11,12,14,15,16,17-tetradecahydro-1H-cyclopenta(a)phenanthren-17-yl)pentanoylamino)acetic acid
PrecursorMZ: 708.52178
RT: 10.32695
ExactMass: 709.52813898
Spectrum_type: 2
charge: -1
Formula: C44H71NO6
SMILES: CC/C=C\C/C=C\C/C=C\CCCCCCCC(=O)OC1CCC2(C(C1)CCC3C2CC(C4(C3CCC4C(C)CCC(=O)NCC(=O)O)C)O)C
Method: HCD
Collision_energy: [28.333334]
Isolation_window: 4.0
Ion_mode: N
Num Peaks: 12
74.0239	100.0
75.0272	2.3
78.7276	2.8
97.4646	2.1
97.4668	1.7
205.1596	2.0
386.3069	1.9
706.5077	3.7
707.5089	13.9
708.5225	70.5
709.5259	32.1
710.5290	6.1

Name: 2-(4-(3-((9Z,12Z)-hexadeca-9,12-dienoyl)oxy-12-hydroxy-10,13-dimethyl-2,3,4,5,6,7,8,9,11,12,14,15,16,17-tetradecahydro-1H-cyclopenta(a)phenanthren-17-yl)pentanoylamino)acetic acid
PrecursorMZ: 682.50627
RT: 10.7364
ExactMass: 683.51248892
Spectrum_type: 2
charge: -1
Formula: C42H69NO6
SMILES: CCC/C=C\C/C=C\CCCCCCCC(=O)OC1CCC2(C(C1)CCC3C2CC(C4(C3CCC4C(C)CCC(=O)NCC(=O)O)C)O)C
Method: HCD
Collision_energy: [28.333334]
Isolation_window: 4.0
Ion_mode: N
Num Peaks: 11
74.0239	100.0
75.8368	3.9
235.2069	2.8
293.2126	3.6
371.2609	3.4
402.3021	5.2
665.4804	9.9
666.4854	3.4
682.5065	94.2
683.5102	39.8
684.5158	9.1

Name: 2-(4-(3-dodecanoyloxy-12-hydroxy-10,13-dimethyl-2,3,4,5,6,7,8,9,11,12,14,15,16,17-tetradecahydro-1H-cyclopenta(a)phenanthren-17-yl)pentanoylamino)acetic acid
PrecursorMZ: 630.47509
RT: 10.1787
ExactMass: 631.48118879
Spectrum_type: 2
charge: -1
Formula: C38H65NO6
SMILES: CCCCCCCCCCCC(=O)OC1CCC2(C(C1)CCC3C2CC(C4(C3CCC4C(C)CCC(=O)NCC(=O)O)C)O)C
Method: HCD
Collision_energy: [28.333334]
Isolation_window: 4.0
Ion_mode: N
Num Peaks: 12
70.0508	2.3
70.0552	4.1
74.0239	79.3
97.4666	1.8
130.0503	3.4
181.1594	4.3
386.3061	1.7
448.3078	1.7
629.4557	2.4
630.4748	100.0
631.4786	34.5
632.4819	6.5

Name: 2-(4-(3-hydroxy-10,13-dimethyl-2,3,4,7,8,9,11,12,14,15,16,17-dodecahydro-1H-cyclopenta(a)phenanthren-17-yl)pentanoylamino)acetic acid
PrecursorMZ: 430.29756
RT: 7.7844
ExactMass: 431.30355879
Spectrum_type: 2
charge: -1
Formula: C26H41NO4
SMILES: CC(CCC(=O)NCC(=O)O)C1CCC2C1(CCC3C2CC=C4C3(CCC(C4)O)C)C
Method: HCD
Collision_energy: [28.333334]
Isolation_window: 4.0
Ion_mode: N
Num Peaks: 11
74.0239	65.7
139.1123	4.2
183.1023	3.5
201.1130	4.8
236.9181	3.5
245.1393	2.8
386.3067	4.2
429.2518	6.0
430.2973	100.0
431.3008	29.5
432.3038	3.3

Name: 2-(Carboxyformamido)-3-phenylpropanoic acid
PrecursorMZ: 236.05583
RT: 3.2087
ExactMass: 237.06372245
Spectrum_type: 2
charge: -1
Formula: C11H11NO5
SMILES: C1=CC=C(C=C1)CC(C(=O)O)NC(=O)C(=O)O
Method: HCD
Collision_energy: [28.333334]
Isolation_window: 4.0
Ion_mode: N
Num Peaks: 3
147.0442	22.5
164.0708	100.0
165.0746	8.3

Name: 2-(Carboxylatomethyl-(2-(2,6-di(propan-2-yl)anilino)-2-oxoethyl)azaniumyl)acetate
PrecursorMZ: 349.1767
RT: 4.8137
ExactMass: 349.1763469
Spectrum_type: 2
charge: -1
Formula: C18H25N2O5-
SMILES: CC(C)C1=C(C(=CC=C1)C(C)C)NC(=O)C[NH+](CC(=O)[O-])CC(=O)[O-]
Method: HCD
Collision_energy: [28.333334]
Isolation_window: 4.0
Ion_mode: N
Num Peaks: 4
245.1665	14.3
273.1621	28.2
349.1782	100.0
350.1810	21.8

Name: 2-(Carboxymethyl)butanedioate
PrecursorMZ: 157.01362
RT: 0.9728
ExactMass: 174.01643791
Spectrum_type: 2
charge: -1
Formula: C6H6O6-2
SMILES: C(C(CC(=O)[O-])C(=O)[O-])C(=O)O
Method: HCD
Collision_energy: [28.333334]
Isolation_window: 4.0
Ion_mode: N
Num Peaks: 26
59.0130	3.1
69.0337	100.0
70.0289	4.6
70.0370	4.0
71.0129	16.3
85.0286	6.9
86.0239	2.7
88.0395	3.1
95.0605	27.0
112.0395	4.6
113.0235	25.1
113.0598	3.6
114.0551	5.2
115.0028	3.1
115.0391	2.8
130.9829	2.6
156.0657	4.7
156.0773	6.2
157.0136	29.1
157.0499	3.2
157.0611	35.4
158.0459	2.8
158.0816	8.1
159.0294	2.6
159.0655	18.2
159.0772	4.1

Name: 2-(Dodecanoylamino)-3-phenylpropanoate
PrecursorMZ: 346.23842
RT: 8.702
ExactMass: 346.23821888
Spectrum_type: 2
charge: -1
Formula: C21H32NO3-
SMILES: CCCCCCCCCCCC(=O)NC(CC1=CC=CC=C1)C(=O)[O-]
Method: HCD
Collision_energy: [28.333334]
Isolation_window: 4.0
Ion_mode: N
Num Peaks: 5
147.0444	20.1
164.0709	88.6
198.1857	16.0
346.2386	100.0
347.2425	22.1

Name: 2-(Dodecanoylamino)pentanedioate
PrecursorMZ: 328.21326
RT: 7.22244
ExactMass: 327.20457303
Spectrum_type: 2
charge: -1
Formula: C17H29NO5-2
SMILES: CCCCCCCCCCCC(=O)NC(CCC(=O)[O-])C(=O)[O-]
Method: HCD
Collision_energy: [28.333334]
Isolation_window: 4.0
Ion_mode: N
Num Peaks: 10
102.0552	42.2
128.0346	65.6
146.0454	9.1
146.9379	8.3
199.1700	49.0
240.2333	11.4
284.2238	19.1
310.2029	8.4
328.2135	100.0
329.2160	16.3

Name: 2-(Methoxy-(2-(2-(2-(2-(2-methoxyethoxy)ethoxy)ethoxy)ethoxy)ethoxy)phosphoryl)oxyethyl-trimethylazanium
PrecursorMZ: 430.22197
RT: 7.3891
ExactMass: 432.23624382
Spectrum_type: 2
charge: -1
Formula: C17H39NO9P+
SMILES: C[N+](C)(C)CCOP(=O)(OC)OCCOCCOCCOCCOCCOC
Method: HCD
Collision_energy: [28.333334]
Isolation_window: 4.0
Ion_mode: N
Num Peaks: 6
385.2008	69.7
386.2040	19.5
415.1968	10.5
429.2508	16.5
430.2212	100.0
431.2258	26.4

Name: 2-(carboxymethylamino)-3-(1H-indol-3-yl)propanoic acid
PrecursorMZ: 261.08817
RT: 2.35575
ExactMass: 262.09535693
Spectrum_type: 2
charge: -1
Formula: C13H14N2O4
SMILES: C1=CC=C2C(=C1)C(=CN2)CC(C(=O)O)NCC(=O)O
Method: HCD
Collision_energy: [28.333334]
Isolation_window: 4.0
Ion_mode: N
Num Peaks: 17
74.0238	32.7
86.0238	8.0
88.0395	22.9
88.9871	4.7
92.0494	3.1
100.0395	10.3
116.0497	36.0
117.0530	2.8
132.0294	16.8
142.0654	12.2
173.1080	4.5
186.0555	9.5
203.0829	3.2
217.0979	59.5
218.1013	7.9
261.0880	100.0
262.0913	13.9

Name: 2-Amino-3-dodecanoyloxypropanoic acid
PrecursorMZ: 269.17589
RT: 4.5925
ExactMass: 287.20965841
Spectrum_type: 2
charge: -1
Formula: C15H29NO4
SMILES: CCCCCCCCCCCC(=O)OCC(C(=O)O)N
Method: HCD
Collision_energy: [28.333334]
Isolation_window: 4.0
Ion_mode: N
Num Peaks: 9
115.0756	2.0
138.0679	2.8
153.0913	10.9
207.1753	2.1
209.1180	2.9
225.1857	5.3
269.1424	3.0
269.1757	100.0
270.1791	15.4

Name: 2-Amino-5-((1-(carboxymethylamino)-1-oxo-3-((6-oxo-3-(pyridin-4-ylmethyl)-7-oxatetracyclo(7.6.2.11,5.08,18)octadeca-3,8(18),16-trien-9-yl)sulfanyl)propan-2-yl)amino)-5-oxopentanoic acid
PrecursorMZ: 651.24939
RT: 6.7071
ExactMass: 652.25668542
Spectrum_type: 2
charge: -1
Formula: C33H40N4O8S
SMILES: C1CCCC2(C=CC3(CC1)CC(=CC4C3=C2OC4=O)CC5=CC=NC=C5)SCC(C(=O)NCC(=O)O)NC(=O)CCC(C(=O)O)N
Method: HCD
Collision_energy: [28.333334]
Isolation_window: 4.0
Ion_mode: N
Num Peaks: 13
74.0238	14.4
99.0554	8.9
128.0343	47.4
143.0453	71.3
179.0451	11.4
210.0878	17.4
254.0778	15.9
272.0886	100.0
273.0919	8.0
294.0595	11.0
378.1529	40.0
651.2484	34.4
652.2520	8.7

Name: 2-Butyn-1-amine, 4-((1-(4-(diethylamino)-2-butynyl)-1H-benzimidazol-2-yl)thio)-N,N-diethyl-
PrecursorMZ: 441.23223
RT: 6.5211
ExactMass: 396.23476821
Spectrum_type: 2
charge: -1
Formula: C23H32N4S
SMILES: CCN(CC)CC#CCN1C2=CC=CC=C2N=C1SCC#CCN(CC)CC
Method: HCD
Collision_energy: [28.333334]
Isolation_window: 4.0
Ion_mode: N
Num Peaks: 5
96.9592	28.7
311.1325	21.0
379.1955	26.3
441.2324	100.0
442.2333	25.3

Name: 2-Carboxy-3-pentadecylphenolate
PrecursorMZ: 347.25906
RT: 10.4873
ExactMass: 347.25861997
Spectrum_type: 2
charge: -1
Formula: C22H35O3-
SMILES: CCCCCCCCCCCCCCCC1=C(C(=CC=C1)[O-])C(=O)O
Method: HCD
Collision_energy: [28.333334]
Isolation_window: 4.0
Ion_mode: N
Num Peaks: 10
301.2532	3.1
302.2573	2.8
303.2690	100.0
304.2725	22.9
305.2760	1.8
345.2427	1.8
346.2466	2.6
347.2589	97.2
348.2623	23.4
349.2656	1.9

Name: 2-Cyclododecyl-3-hydroxybutanedioic acid
PrecursorMZ: 299.1866
RT: 6.0108
ExactMass: 300.19367399
Spectrum_type: 2
charge: -1
Formula: C16H28O5
SMILES: C1CCCCCC(CCCCC1)C(C(C(=O)O)O)C(=O)O
Method: HCD
Collision_energy: [28.333334]
Isolation_window: 4.0
Ion_mode: N
Num Peaks: 10
78.9581	24.5
87.0079	21.6
237.1860	12.0
253.1810	10.7
281.1764	11.5
299.1435	11.0
299.1866	100.0
300.1901	18.1
301.1214	16.1
301.2019	17.1

Name: 2-Dimethylcarbamoyloxy-3-octadecyloxypropyl 10-trimethylammoniodecyl phosphate
PrecursorMZ: 691.53834
RT: 10.5168
ExactMass: 692.5468398
Spectrum_type: 2
charge: -1
Formula: C37H77N2O7P
SMILES: CCCCCCCCCCCCCCCCCCOCC(COP(=O)([O-])OCCCCCCCCCC[N+](C)(C)C)OC(=O)N(C)C
Method: HCD
Collision_energy: [28.333334]
Isolation_window: 4.0
Ion_mode: N
Num Peaks: 17
76.8361	2.6
78.9584	33.2
97.4658	2.6
140.0113	35.6
152.9954	18.1
171.0061	7.5
227.2020	4.0
241.2175	100.0
242.2210	12.0
255.2333	50.7
256.2366	8.2
375.2312	3.5
467.2783	2.4
690.5085	9.4
691.4908	63.8
692.5023	25.6
693.5055	10.4

Name: 2-Hexadecyl-3-methylidenebutanedioate
PrecursorMZ: 353.26973
RT: 9.5071
ExactMass: 352.26135963
Spectrum_type: 2
charge: -1
Formula: C21H36O4-2
SMILES: CCCCCCCCCCCCCCCCC(C(=C)C(=O)[O-])C(=O)[O-]
Method: HCD
Collision_energy: [28.333334]
Isolation_window: 4.0
Ion_mode: N
Num Peaks: 9
116.0707	100.0
265.2535	17.7
309.2797	63.2
310.2828	11.8
310.3124	7.8
353.2144	32.3
354.2165	6.8
354.3014	92.6
355.3227	67.7

Name: 2-Methacrylamidosuccinic acid
PrecursorMZ: 200.05574
RT: 1.3949
ExactMass: 201.06372245
Spectrum_type: 2
charge: -1
Formula: C8H11NO5
SMILES: CC(=C)C(=O)NC(CC(=O)O)C(=O)O
Method: HCD
Collision_energy: [28.333334]
Isolation_window: 4.0
Ion_mode: N
Num Peaks: 38
59.0129	13.1
73.0286	8.4
82.9951	6.9
84.0445	19.0
86.0602	8.5
88.0394	35.8
96.0445	11.3
98.0238	6.6
98.9557	6.3
102.0552	8.8
112.0396	6.2
114.0551	7.0
126.0551	6.9
128.0344	59.9
130.0864	42.9
131.0818	32.2
138.0552	9.8
139.0391	6.9
140.0708	10.5
142.9460	7.4
155.0817	16.5
156.0658	99.9
156.1015	9.7
157.0698	6.7
157.1337	11.9
158.0814	8.0
158.1180	7.4
168.0297	6.9
182.0452	6.2
199.0731	16.8
199.1088	8.4
200.0559	71.5
200.0922	24.2
201.0396	7.1
201.0882	7.0
201.1239	100.0
202.0715	52.6
202.1077	15.4

Name: 2-Pentanamido-3-phenylpropanoic acid
PrecursorMZ: 248.12927
RT: 5.2859
ExactMass: 249.13649347
Spectrum_type: 2
charge: -1
Formula: C14H19NO3
SMILES: CCCCC(=O)NC(CC1=CC=CC=C1)C(=O)O
Method: HCD
Collision_energy: [28.333334]
Isolation_window: 4.0
Ion_mode: N
Num Peaks: 17
91.0543	5.7
96.9591	25.5
100.0759	14.6
112.0759	11.7
130.9919	4.4
147.0444	28.5
164.0710	28.7
204.1032	4.4
206.0636	4.8
246.0740	10.3
246.5756	5.9
246.9812	4.6
247.0838	9.8
248.0732	10.0
248.1290	100.0
249.0789	4.7
249.1322	13.7

Name: 2-amino-2-(((4R)-4-((3R,5R,6R,7S,10R,12S,13R,17R)-3,6,7,12-tetrahydroxy-10,13-dimethyl-2,3,4,5,6,7,8,9,11,12,14,15,16,17-tetradecahydro-1H-cyclopenta(a)phenanthren-17-yl)pentanoyl)amino)acetic acid
PrecursorMZ: 495.30742
RT: 8.9618
ExactMass: 496.31485175
Spectrum_type: 2
charge: -1
Formula: C26H44N2O7
SMILES: C[C@H](CCC(=O)NC(C(=O)O)N)[C@H]1CCC2[C@@]1([C@H](CC3C2[C@@H]([C@@H]([C@H]4[C@@]3(CC[C@H](C4)O)C)O)O)O)C
Method: HCD
Collision_energy: [28.333334]
Isolation_window: 4.0
Ion_mode: N
Num Peaks: 3
61.9874	100.0
495.3665	2.6
497.1677	4.2

Name: 2-amino-8-(4-aminobut-1-ynyl)-9-((2R,4S,5R)-4-hydroxy-5-(hydroxymethyl)oxolan-2-yl)-1H-purin-6-one
PrecursorMZ: 333.13041
RT: 0.9235
ExactMass: 334.13895308
Spectrum_type: 2
charge: -1
Formula: C14H18N6O4
SMILES: C1[C@@H]([C@H](O[C@H]1N2C(=NC3=C2N=C(NC3=O)N)C#CCCN)CO)O
Method: HCD
Collision_energy: [28.333334]
Isolation_window: 4.0
Ion_mode: N
Num Peaks: 16
59.0129	20.9
61.9874	21.5
71.0128	15.2
89.0235	52.9
112.9846	25.2
129.9750	12.2
149.0712	50.2
150.0413	47.2
179.0820	14.6
197.0216	54.3
197.0677	51.0
215.0328	17.4
239.1035	16.9
266.0893	100.0
333.0952	43.5
334.0736	15.4

Name: 2-azaniumylethyl ((2R)-3-((E)-hexadec-9-enoyl)oxy-2-hydroxypropyl) phosphate
PrecursorMZ: 450.26261
RT: 7.2247
ExactMass: 451.26988968
Spectrum_type: 2
charge: -1
Formula: C21H42NO7P
SMILES: CCCCCC/C=C/CCCCCCCC(=O)OC[C@H](COP(=O)([O-])OCC[NH3+])O
Method: HCD
Collision_energy: [28.333334]
Isolation_window: 4.0
Ion_mode: N
Num Peaks: 6
78.9581	2.8
214.0487	3.1
253.2171	100.0
254.2206	16.4
450.2629	25.3
451.2672	6.4

Name: 2-benzyl-N'-(2-benzyl-6-methylpiperidin-1-yl)-N-(1-(((2S,3R,4S)-1-cyclohexyl-3,4-dihydroxy-6-methylheptan-2-yl)amino)-1-oxopentan-2-yl)-N'-methylbutanediamide
PrecursorMZ: 731.51311
RT: 10.3298
ExactMass: 732.51897128
Spectrum_type: 2
charge: -1
Formula: C44H68N4O5
SMILES: CCCC(C(=O)N[C@@H](CC1CCCCC1)[C@H]([C@H](CC(C)C)O)O)NC(=O)C(CC2=CC=CC=C2)CC(=O)N(C)N3C(CCCC3CC4=CC=CC=C4)C
Method: HCD
Collision_energy: [28.333334]
Isolation_window: 4.0
Ion_mode: N
Num Peaks: 11
61.9875	20.1
297.2434	100.0
298.2468	18.2
387.2541	14.7
388.2585	3.1
685.5051	29.7
686.5089	13.9
687.5130	2.5
729.6205	2.2
730.5154	1.5
733.4916	2.7

Name: 2-ethyl-5,7-dimethyl-3-(4-(2-(2H-tetrazol-5-yl)phenyl)phenyl)imidazo(4,5-b)pyridine
PrecursorMZ: 394.18202
RT: 8.288
ExactMass: 395.1858437
Spectrum_type: 2
charge: -1
Formula: C23H21N7
SMILES: CCC1=NC2=C(N1C3=CC=C(C=C3)C4=CC=CC=C4C5=NNN=N5)N=C(C=C2C)C
Method: HCD
Collision_energy: [28.333334]
Isolation_window: 4.0
Ion_mode: N
Num Peaks: 7
251.0749	41.3
252.0786	8.3
293.1219	11.1
294.1298	69.8
295.1326	13.4
394.1823	100.0
395.1850	26.2

Name: 2-hydroxy-N-((E,2S,3S)-1,3,4,5-tetrahydroxyoctadec-4-en-2-yl)hexadecanamide
PrecursorMZ: 584.49002
RT: 10.88675
ExactMass: 585.49683886
Spectrum_type: 2
charge: -1
Formula: C34H67NO6
SMILES: CCCCCCCCCCCCCCC(C(=O)N[C@@H](CO)[C@@H](/C(=C(/CCCCCCCCCCCCC)\O)/O)O)O
Method: HCD
Collision_energy: [28.333334]
Isolation_window: 4.0
Ion_mode: N
Num Peaks: 12
59.8333	4.1
223.2059	8.1
225.2216	4.5
251.2015	3.8
252.2330	4.8
269.2123	3.3
286.2750	4.7
294.2434	7.4
520.4740	3.2
538.4840	100.0
539.4874	33.5
540.4920	4.4

Name: 22-(Carboxymethylamino)-22-oxodocosa-10,12-diynoic acid
PrecursorMZ: 464.26341
RT: 7.4049
ExactMass: 419.26717328
Spectrum_type: 2
charge: -1
Formula: C24H37NO5
SMILES: C(CCCCC(=O)NCC(=O)O)CCCC#CC#CCCCCCCCCC(=O)O
Method: HCD
Collision_energy: [28.333334]
Isolation_window: 4.0
Ion_mode: N
Num Peaks: 4
169.0127	17.0
355.2634	25.5
418.2586	100.0
419.2633	23.7

Name: 28-(3-(4-Hydroxy-3-methoxyphenyl)prop-2-enoyloxy)octacosyl 3-(3,4-dihydroxyphenyl)prop-2-enoate
PrecursorMZ: 763.51611
RT: 11.9099
ExactMass: 764.52271925
Spectrum_type: 2
charge: -1
Formula: C47H72O8
SMILES: COC1=C(C=CC(=C1)C=CC(=O)OCCCCCCCCCCCCCCCCCCCCCCCCCCCCOC(=O)C=CC2=CC(=C(C=C2)O)O)O
Method: HCD
Collision_energy: [28.333334]
Isolation_window: 4.0
Ion_mode: N
Num Peaks: 31
61.9875	8.3
65.2724	2.2
65.2763	4.1
84.8325	2.6
84.8382	4.2
84.9497	1.9
133.0285	3.1
134.0365	4.2
135.0445	2.3
160.0158	4.5
161.0236	74.5
162.0269	6.7
175.0393	32.9
176.0427	2.9
179.0343	3.2
193.0500	9.5
280.0736	3.5
295.0985	2.0
569.4562	5.4
586.4603	8.3
587.4679	96.2
588.4713	33.5
589.4736	4.1
601.4840	16.3
602.4872	6.3
761.5624	2.2
762.5544	3.5
763.5139	100.0
764.5167	48.5
765.5043	7.9
765.6311	1.9

Name: 3,7-Dimethyl-1-(5-(1-methyl-2,3-dihydrotetrazol-5-yl)pentyl)purine-2,6-dione
PrecursorMZ: 379.1864
RT: 5.3993
ExactMass: 334.18657197
Spectrum_type: 2
charge: -1
Formula: C14H22N8O2
SMILES: CN1C=NC2=C1C(=O)N(C(=O)N2C)CCCCCC3=NNNN3C
Method: HCD
Collision_energy: [28.333334]
Isolation_window: 4.0
Ion_mode: N
Num Peaks: 5
178.0862	39.0
192.0655	86.6
239.0787	99.0
254.1027	75.4
379.1867	100.0

Name: 3-((3-(((2S)-2-(((2S,3R)-2-(((2S,3S)-2-acetamido-3-methylpentanoyl)amino)-3-hydroxybutanoyl)amino)propanoyl)amino)-2-oxo-4-((3S)-2-oxopyrrolidin-3-yl)butanoyl)amino)propanoic acid
PrecursorMZ: 597.28682
RT: 2.0973
ExactMass: 598.29624156
Spectrum_type: 2
charge: -1
Formula: C26H42N6O10
SMILES: CC[C@H](C)[C@@H](C(=O)N[C@@H]([C@@H](C)O)C(=O)N[C@@H](C)C(=O)NC(C[C@@H]1CCNC1=O)C(=O)C(=O)NCCC(=O)O)NC(=O)C
Method: HCD
Collision_energy: [28.333334]
Isolation_window: 4.0
Ion_mode: N
Num Peaks: 8
116.0706	100.0
181.1336	15.8
225.1237	47.4
299.1607	54.0
341.1707	18.2
359.1817	68.6
597.2879	76.3
598.2913	20.5

Name: 3-((3S,6E)-3-hydroxy-2-((3E,7E)-5-hydroxy-4,8,12-trimethyltrideca-3,7,11-trienyl)-2,3-dimethyl-6-(1-oxopropan-2-ylidene)cyclohexyl)propyl decanoate
PrecursorMZ: 627.49684
RT: 11.5353
ExactMass: 628.50667527
Spectrum_type: 2
charge: -1
Formula: C40H68O5
SMILES: CCCCCCCCCC(=O)OCCCC1/C(=C(\C)/C=O)/CC[C@](C1(C)CC/C=C(\C)/C(C/C=C(\C)/CCC=C(C)C)O)(C)O
Method: HCD
Collision_energy: [28.333334]
Isolation_window: 4.0
Ion_mode: N
Num Peaks: 19
60.9921	3.9
69.7240	4.6
71.0491	2.9
81.0699	2.8
115.0390	8.6
139.1117	4.2
263.2375	65.4
264.2409	9.8
281.2479	57.9
282.2511	8.9
307.2270	8.5
363.2538	4.6
607.5085	7.6
608.5124	7.3
625.5198	23.4
626.5245	27.0
627.4996	100.0
628.5023	35.3
629.5123	7.5

Name: 3-((4-Tert-butylphenyl)methylsulfanyl)-2-((2-methylpropan-2-yl)oxycarbonylamino)propanoic acid
PrecursorMZ: 366.17432
RT: 6.0348
ExactMass: 367.18172958
Spectrum_type: 2
charge: -1
Formula: C19H29NO4S
SMILES: CC(C)(C)C1=CC=C(C=C1)CSCC(C(=O)O)NC(=O)OC(C)(C)C
Method: HCD
Collision_energy: [28.333334]
Isolation_window: 4.0
Ion_mode: N
Num Peaks: 3
120.0116	100.0
288.1963	38.7
366.1747	80.4

Name: 3-(1H-indol-3-yl)-2-(((Z)-octadec-9-enoyl)amino)propanoic acid
PrecursorMZ: 467.3284
RT: 9.7421
ExactMass: 468.33519327
Spectrum_type: 2
charge: -1
Formula: C29H44N2O3
SMILES: CCCCCCCC/C=C\CCCCCCCC(=O)NC(CC1=CNC2=CC=CC=C21)C(=O)O
Method: HCD
Collision_energy: [28.333334]
Isolation_window: 4.0
Ion_mode: N
Num Peaks: 17
51.9267	4.2
74.0238	32.9
96.9592	26.5
116.0496	9.7
159.0920	3.3
203.0821	52.6
204.0855	6.2
292.2645	3.2
320.2595	12.4
338.2701	16.9
339.2731	3.5
423.3379	4.9
465.3045	19.6
466.3075	34.2
467.3284	100.0
468.3315	29.7
469.3380	3.4

Name: 3-(1H-indol-3-yl)-2-(octadec-9-enylamino)propanoic acid
PrecursorMZ: 453.34947
RT: 9.3516
ExactMass: 454.35592871
Spectrum_type: 2
charge: -1
Formula: C29H46N2O2
SMILES: CCCCCCCCC=CCCCCCCCCNC(CC1=CNC2=CC=CC=C21)C(=O)O
Method: HCD
Collision_energy: [28.333334]
Isolation_window: 4.0
Ion_mode: N
Num Peaks: 9
72.0083	11.8
92.0498	49.4
116.0499	22.3
324.2918	13.2
366.3177	16.4
409.3597	42.3
410.3632	12.9
453.3498	100.0
454.3536	32.0

Name: 3-(1H-indol-3-yl)-2-(octadeca-9,12-dienylamino)propanoic acid
PrecursorMZ: 451.33377
RT: 8.9331
ExactMass: 452.34027865
Spectrum_type: 2
charge: -1
Formula: C29H44N2O2
SMILES: CCCCCC=CCC=CCCCCCCCCNC(CC1=CNC2=CC=CC=C21)C(=O)O
Method: HCD
Collision_energy: [28.333334]
Isolation_window: 4.0
Ion_mode: N
Num Peaks: 11
79.9565	8.8
92.0498	9.5
116.0499	59.9
322.2756	47.6
323.2794	9.5
364.3014	13.2
407.3438	27.9
408.3461	10.3
450.3060	9.6
451.3343	100.0
452.3379	36.4

Name: 3-(2,3-Dihydroxypropoxy(hydroxy)phosphoryl)oxypropyl octadecanoate
PrecursorMZ: 495.30918
RT: 8.1212
ExactMass: 496.31650551
Spectrum_type: 2
charge: -1
Formula: C24H49O8P
SMILES: CCCCCCCCCCCCCCCCCC(=O)OCCCOP(=O)(O)OCC(CO)O
Method: HCD
Collision_energy: [28.333334]
Isolation_window: 4.0
Ion_mode: N
Num Peaks: 9
78.9581	62.2
152.9951	74.3
269.2484	51.5
403.2617	22.6
493.2900	12.1
494.2953	29.5
495.3096	100.0
496.3137	28.0
497.2861	30.8

Name: 3-(2-((3-(2-carboxyethyl)-4-methyl-5-((3-methyl-5-oxopyrrol-2-ylidene)methyl)-1H-pyrrol-2-yl)methyl)-4-methyl-5-((4-methyl-5-oxopyrrol-2-ylidene)methyl)-1H-pyrrol-3-yl)propanoic acid
PrecursorMZ: 531.22339
RT: 5.2346
ExactMass: 532.23218475
Spectrum_type: 2
charge: -1
Formula: C29H32N4O6
SMILES: CC1=CC(=CC2=C(C(=C(N2)CC3=C(C(=C(N3)C=C4C(=CC(=O)N4)C)C)CCC(=O)O)CCC(=O)O)C)NC1=O
Method: HCD
Collision_energy: [28.333334]
Isolation_window: 4.0
Ion_mode: N
Num Peaks: 4
59.0129	68.5
68.9973	100.0
443.2466	45.6
487.2364	70.4

Name: 3-(3,4-Dihydroxyphenyl)propanoate
PrecursorMZ: 181.05017
RT: 3.3012
ExactMass: 181.05008376
Spectrum_type: 2
charge: -1
Formula: C9H9O4-
SMILES: C1=CC(=C(C=C1CCC(=O)[O-])O)O
Method: HCD
Collision_energy: [28.333334]
Isolation_window: 4.0
Ion_mode: N
Num Peaks: 16
59.0130	4.5
68.9948	4.8
96.9592	100.0
98.9551	2.8
109.0287	3.8
112.9848	16.4
121.0292	3.4
122.0366	92.4
123.0395	6.4
134.9872	6.1
137.0602	25.1
165.0186	5.4
181.0533	87.6
182.0569	7.4
183.0294	5.7
183.1023	14.6

Name: 3-Hydroxy-2-((3-(3-(3-hydroxy-6-methylheptanoyl)oxy-6-methylheptanoyl)oxy-8-methylnonanoyl)amino)propanoic acid
PrecursorMZ: 558.36481
RT: 8.5381
ExactMass: 559.37203227
Spectrum_type: 2
charge: -1
Formula: C29H53NO9
SMILES: CC(C)CCCCC(CC(=O)NC(CO)C(=O)O)OC(=O)CC(CCC(C)C)OC(=O)CC(CCC(C)C)O
Method: HCD
Collision_energy: [28.333334]
Isolation_window: 4.0
Ion_mode: N
Num Peaks: 15
59.0129	21.4
100.0394	4.3
112.0395	1.8
132.0657	6.0
143.0340	1.9
202.0717	4.3
234.0980	21.3
235.1013	2.2
276.1087	23.6
277.1127	2.0
281.2484	100.0
282.2517	16.8
294.1193	14.0
558.3641	7.6
559.3687	1.9

Name: 3-Hydroxy-2-(octadeca-9,12-dienoylamino)propanoic acid
PrecursorMZ: 366.26511
RT: 8.3599
ExactMass: 367.27225866
Spectrum_type: 2
charge: -1
Formula: C21H37NO4
SMILES: CCCCCC=CCC=CCCCCCCCC(=O)NC(CO)C(=O)O
Method: HCD
Collision_energy: [28.333334]
Isolation_window: 4.0
Ion_mode: N
Num Peaks: 14
72.0445	2.8
74.0238	61.6
104.0344	19.0
261.2224	5.7
292.2645	3.5
304.2643	19.2
305.2679	4.0
318.2436	18.1
319.2475	3.2
336.2544	33.9
337.2576	7.5
366.2650	100.0
367.2297	13.4
367.2689	21.4

Name: 3-Hydroxy-2-(octadecanoylamino)propanoic acid
PrecursorMZ: 370.29653
RT: 7.9005
ExactMass: 371.30355879
Spectrum_type: 2
charge: -1
Formula: C21H41NO4
SMILES: CCCCCCCCCCCCCCCCCC(=O)NC(CO)C(=O)O
Method: HCD
Collision_energy: [28.333334]
Isolation_window: 4.0
Ion_mode: N
Num Peaks: 9
88.0394	100.0
89.0427	2.7
299.2593	2.5
324.2903	1.6
369.2081	1.1
369.2725	1.4
370.2964	87.4
371.2997	20.1
372.3030	1.7

Name: 3-Methyl-2-(3-methylbutanamido)butanoic acid
PrecursorMZ: 200.12887
RT: 4.32534
ExactMass: 201.13649347
Spectrum_type: 2
charge: -1
Formula: C10H19NO3
SMILES: CC(C)CC(=O)NC(C(C)C)C(=O)O
Method: HCD
Collision_energy: [28.333334]
Isolation_window: 4.0
Ion_mode: N
Num Peaks: 15
86.0602	1.6
116.0710	30.1
117.0745	1.6
128.1075	2.0
130.0867	100.0
131.0902	6.3
155.1072	3.3
156.1025	24.4
156.1387	9.9
157.1062	2.3
199.0977	1.7
200.1290	49.0
201.1133	10.6
201.1319	4.8
202.0505	1.6

Name: 3-hydroxydodecanedioate
PrecursorMZ: 245.13921
RT: 4.5746
ExactMass: 244.13107373
Spectrum_type: 2
charge: -1
Formula: C12H20O5-2
SMILES: C(CCCCC(=O)[O-])CCCC(CC(=O)[O-])O
Method: HCD
Collision_energy: [28.333334]
Isolation_window: 4.0
Ion_mode: N
Num Peaks: 7
59.0129	26.0
183.1386	35.9
185.1177	100.0
186.1211	10.1
227.1287	14.1
245.1394	78.1
246.1425	9.9

Name: 3-hydroxytetradecanedioate
PrecursorMZ: 273.17103
RT: 4.4057
ExactMass: 272.16237386
Spectrum_type: 2
charge: -1
Formula: C14H24O5-2
SMILES: C(CCCCCC(=O)[O-])CCCCC(CC(=O)[O-])O
Method: HCD
Collision_energy: [28.333334]
Isolation_window: 4.0
Ion_mode: N
Num Peaks: 49
59.0130	15.0
71.0130	10.8
71.0492	4.1
85.0286	3.5
95.0495	3.4
99.0807	8.6
111.0808	22.0
113.0601	4.4
115.0393	12.7
123.0447	4.0
127.0758	8.6
129.0915	18.6
134.0604	3.2
136.0762	7.5
139.1122	8.4
149.0603	8.6
150.0640	8.8
152.0713	3.4
155.0708	25.8
155.1072	8.2
161.0714	4.0
173.0814	4.0
193.1597	3.8
201.1138	4.1
201.1493	3.9
203.0950	3.1
211.1702	3.5
214.1235	4.6
228.0901	5.1
228.1397	5.6
229.1435	5.5
230.1196	4.9
230.1550	5.6
232.1350	3.2
237.1496	6.5
242.1057	4.7
255.1150	4.8
255.1604	6.2
256.1355	9.8
257.1300	71.9
257.1753	5.1
271.1473	4.8
271.1920	45.0
272.1012	14.1
272.1485	9.0
272.1947	18.1
273.1711	100.0
274.1744	15.5
275.1868	41.3

Name: 3-methyl-2-(((2R)-pyrrolidine-2-carbonyl)amino)pentanoic acid
PrecursorMZ: 227.1397
RT: 1.9381
ExactMass: 228.1473925
Spectrum_type: 2
charge: -1
Formula: C11H20N2O3
SMILES: CCC(C)C(C(=O)O)NC(=O)[C@H]1CCCN1
Method: HCD
Collision_energy: [28.333334]
Isolation_window: 4.0
Ion_mode: N
Num Peaks: 12
88.9870	11.1
116.0708	10.4
165.0663	7.9
181.0977	19.1
183.1497	14.7
185.1652	12.4
208.1086	8.3
225.0881	25.2
226.0915	16.9
227.1397	100.0
228.1433	10.5
229.1556	36.4

Name: 3-oxo-N-((3R)-2-oxooxolan-3-yl)tridecanamide
PrecursorMZ: 328.21278
RT: 7.2591
ExactMass: 311.20965841
Spectrum_type: 2
charge: -1
Formula: C17H29NO4
SMILES: CCCCCCCCCCC(=O)CC(=O)N[C@@H]1CCOC1=O
Method: HCD
Collision_energy: [28.333334]
Isolation_window: 4.0
Ion_mode: N
Num Peaks: 11
102.0551	42.0
128.0345	61.8
146.0450	11.5
199.1698	44.4
240.2331	10.9
284.2230	19.0
326.1876	89.1
327.1834	69.0
328.2143	100.0
329.2146	15.1
329.2203	16.7

Name: 4-((2,4-Dihydroxy-3,3-dimethylbutanoyl)amino)butanoate
PrecursorMZ: 232.11877
RT: 2.1772
ExactMass: 232.11849767
Spectrum_type: 2
charge: -1
Formula: C10H18NO5-
SMILES: CC(C)(CO)C(C(=O)NCCCC(=O)[O-])O
Method: HCD
Collision_energy: [28.333334]
Isolation_window: 4.0
Ion_mode: N
Num Peaks: 7
85.0285	6.2
88.9870	7.0
102.0551	100.0
146.0814	33.0
160.9171	6.8
232.1186	55.4
234.0767	10.3

Name: 4-(1,3,3a,4,5,6,7,7a-Octahydroisoindol-2-yl)-2-benzyl-4-oxobutanoate
PrecursorMZ: 314.17626
RT: 7.0182
ExactMass: 314.17561863
Spectrum_type: 2
charge: -1
Formula: C19H24NO3-
SMILES: C1CCC2CN(CC2C1)C(=O)CC(CC3=CC=CC=C3)C(=O)[O-]
Method: HCD
Collision_energy: [28.333334]
Isolation_window: 4.0
Ion_mode: N
Num Peaks: 16
116.0497	23.4
125.0964	3.2
145.0862	2.6
153.1278	6.2
187.0972	9.0
197.1176	7.2
215.1287	6.5
270.1863	2.5
296.1656	37.3
297.1686	7.9
312.2256	7.5
313.2375	12.7
314.1762	100.0
314.2384	2.4
315.1800	22.4
315.2530	2.9

Name: 4-(12-hydroxy-10,13-dimethyl-3-octadecanoyloxy-2,3,4,5,6,7,8,9,11,12,14,15,16,17-tetradecahydro-1H-cyclopenta(a)phenanthren-17-yl)pentanoic acid
PrecursorMZ: 657.5425
RT: 11.8897
ExactMass: 658.55362546
Spectrum_type: 2
charge: -1
Formula: C42H74O5
SMILES: CCCCCCCCCCCCCCCCCC(=O)OC1CCC2(C(C1)CCC3C2CC(C4(C3CCC4C(C)CCC(=O)O)C)O)C
Method: HCD
Collision_energy: [28.333334]
Isolation_window: 4.0
Ion_mode: N
Num Peaks: 9
73.0629	4.2
265.2525	16.5
266.2560	2.4
283.2631	2.7
373.2736	6.5
656.5387	2.2
657.5445	100.0
658.5476	40.8
659.5516	6.5

Name: 4-(3-((Z)-heptadec-9-enoyl)oxy-12-hydroxy-10,13-dimethyl-2,3,4,5,6,7,8,9,11,12,14,15,16,17-tetradecahydro-1H-cyclopenta(a)phenanthren-17-yl)pentanoic acid
PrecursorMZ: 641.51246
RT: 11.5512
ExactMass: 642.52232533
Spectrum_type: 2
charge: -1
Formula: C41H70O5
SMILES: CCCCCCC/C=C\CCCCCCCC(=O)OC1CCC2(C(C1)CCC3C2CC(C4(C3CCC4C(C)CCC(=O)O)C)O)C
Method: HCD
Collision_energy: [28.333334]
Isolation_window: 4.0
Ion_mode: N
Num Peaks: 13
61.9871	3.9
71.2815	4.3
97.4637	3.9
249.2213	13.1
251.2367	7.8
267.2325	2.5
301.2527	2.5
345.2422	6.8
371.2582	5.5
373.2734	6.1
641.5131	100.0
642.5165	35.3
643.5211	7.8

Name: 4-(4-(((4R)-4-((10S,13R)-3,7,12-trihydroxy-10,13-dimethyl-2,3,4,5,6,7,8,9,11,12,14,15,16,17-tetradecahydro-1H-cyclopenta(a)phenanthren-17-yl)pentanoyl)amino)butanoylamino)butanoic acid
PrecursorMZ: 577.38617
RT: 6.3314
ExactMass: 578.39310207
Spectrum_type: 2
charge: -1
Formula: C32H54N2O7
SMILES: C[C@H](CCC(=O)NCCCC(=O)NCCCC(=O)O)C1CCC2[C@@]1(C(CC3C2C(CC4[C@@]3(CCC(C4)O)C)O)O)C
Method: HCD
Collision_energy: [28.333334]
Isolation_window: 4.0
Ion_mode: N
Num Peaks: 21
59.0432	2.9
59.2672	6.4
61.9866	1.0
64.3791	1.3
100.0383	1.2
159.1133	3.2
388.2864	1.4
390.3014	2.1
460.3432	1.1
489.3711	2.9
491.3861	3.9
513.3722	2.4
515.3906	1.9
529.3672	1.3
530.3614	1.1
531.3810	45.7
532.3844	12.9
533.3963	100.0
577.3892	5.0
578.3980	1.5
579.4024	22.0

Name: 4-Acetamidobutanoate
PrecursorMZ: 144.06593
RT: 1.4571
ExactMass: 144.066068181
Spectrum_type: 2
charge: -1
Formula: C6H10NO3-
SMILES: CC(=O)NCCCC(=O)[O-]
Method: HCD
Collision_energy: [28.333334]
Isolation_window: 4.0
Ion_mode: N
Num Peaks: 4
88.0395	50.3
102.0551	100.0
144.0448	26.6
144.0656	17.4

Name: 4-Amino-2,3-dimethylheptadeca-2,4-dienedioic acid
PrecursorMZ: 321.20714
RT: 6.7393
ExactMass: 339.24095853
Spectrum_type: 2
charge: -1
Formula: C19H33NO4
SMILES: CC(=C(C)C(=O)O)C(=CCCCCCCCCCCCC(=O)O)N
Method: HCD
Collision_energy: [28.333334]
Isolation_window: 4.0
Ion_mode: N
Num Peaks: 11
137.0963	2.6
163.1121	4.4
259.2066	21.9
260.2101	3.9
277.2165	1.9
303.1965	13.7
304.1994	3.0
321.2069	100.0
322.2104	21.9
323.1651	2.5
323.2169	1.9

Name: 4-Oxo-4-((2-phenylethyl)amino)butanoate
PrecursorMZ: 220.09755
RT: 4.1918
ExactMass: 220.09736831
Spectrum_type: 2
charge: -1
Formula: C12H14NO3-
SMILES: C1=CC=C(C=C1)CCNC(=O)CCC(=O)[O-]
Method: HCD
Collision_energy: [28.333334]
Isolation_window: 4.0
Ion_mode: N
Num Peaks: 5
98.0238	46.5
148.9539	12.7
202.0869	100.0
203.0897	10.6
220.0979	17.6

Name: 4Z-Infectopyrone
PrecursorMZ: 263.09227
RT: 5.4319
ExactMass: 264.09977361
Spectrum_type: 2
charge: -1
Formula: C14H16O5
SMILES: CC1=C(C=C(OC1=O)/C(=C\C(=C\C(=O)O)\C)/C)OC
Method: HCD
Collision_energy: [28.333334]
Isolation_window: 4.0
Ion_mode: N
Num Peaks: 8
143.0858	100.0
144.0894	11.2
160.0886	21.2
187.0757	8.3
189.0551	25.9
204.0786	33.0
219.1024	7.1
263.0927	20.3

Name: 5-(((1R,3aR,5aR,5bR,7aR,9S,11aR,11bR,13aR,13bR)-3a-(3-cyclopropyl-2-oxopropyl)-5a,5b,8,8,11a-pentamethyl-1-prop-1-en-2-yl-1,2,3,4,5,6,7,7a,9,10,11,11b,12,13,13a,13b-hexadecahydrocyclopenta(a)chrysen-9-yl)oxy)-3,3-dimethyl-5-oxopentanoic acid
PrecursorMZ: 649.48436
RT: 11.7831
ExactMass: 650.4910252
Spectrum_type: 2
charge: -1
Formula: C42H66O5
SMILES: CC(=C)[C@@H]1CC[C@]2([C@H]1[C@H]3CC[C@@H]4[C@]5(CC[C@@H](C([C@@H]5CC[C@]4([C@@]3(CC2)C)C)(C)C)OC(=O)CC(C)(C)CC(=O)O)C)CC(=O)CC6CC6
Method: HCD
Collision_energy: [28.333334]
Isolation_window: 4.0
Ion_mode: N
Num Peaks: 22
61.9875	35.6
69.0336	19.6
98.0000	41.9
99.0079	24.6
287.2380	32.8
288.2413	6.9
289.2538	6.5
331.2280	61.2
332.2317	12.8
333.2431	8.2
341.2479	6.4
343.2641	20.2
384.2664	6.3
551.4815	8.5
561.4639	7.6
577.4999	6.8
587.4843	10.6
605.4951	32.6
606.4985	11.7
649.4847	100.0
650.4880	43.5
651.5015	11.8

Name: 5-(((3aS,5aR,5bR,9S,11aR)-9-(4-carboxy-3,3-dimethylbutanoyl)oxy-5a,5b,8,8,11a-pentamethyl-1-propan-2-yl-1,2,3,4,5,6,7,7a,9,10,11,11b,12,13,13a,13b-hexadecahydrocyclopenta(a)chrysen-3a-yl)methoxy)-3,3-dimethyl-5-oxopentanoic acid
PrecursorMZ: 727.51655
RT: 11.652
ExactMass: 728.52271925
Spectrum_type: 2
charge: -1
Formula: C44H72O8
SMILES: CC(C)C1CC[C@]2(C1C3CCC4[C@]5(CC[C@@H](C(C5CC[C@]4([C@@]3(CC2)C)C)(C)C)OC(=O)CC(C)(C)CC(=O)O)C)COC(=O)CC(C)(C)CC(=O)O
Method: HCD
Collision_energy: [28.333334]
Isolation_window: 4.0
Ion_mode: N
Num Peaks: 15
61.9875	100.0
94.9799	4.6
162.0680	7.0
281.2483	4.9
430.3460	7.9
635.5064	6.5
653.5154	16.8
654.5194	9.7
681.5103	27.3
682.5142	13.4
725.5771	12.2
726.5825	11.1
727.5811	11.5
728.5981	4.5
729.5786	6.3

Name: 5-((8aS)-1,3-dioxo-2-prop-2-enyl-5,6,8,8a-tetrahydroimidazo(1,5-a)pyrazin-7-yl)-3,3-dimethyl-5-oxopentanoate
PrecursorMZ: 319.13009
RT: 4.6121
ExactMass: 336.15594581
Spectrum_type: 2
charge: -1
Formula: C16H22N3O5-
SMILES: CC(C)(CC(=O)N1CCN2[C@@H](C1)C(=O)N(C2=O)CC=C)CC(=O)[O-]
Method: HCD
Collision_energy: [28.333334]
Isolation_window: 4.0
Ion_mode: N
Num Peaks: 17
59.0129	4.5
120.0808	5.5
124.0759	12.9
132.0810	8.2
148.0760	4.7
150.0916	14.5
165.1024	3.8
166.0865	3.8
194.0818	6.9
219.1499	4.4
247.1807	3.6
291.1713	17.7
292.1735	3.2
317.1501	15.9
318.1535	5.6
319.1661	100.0
320.1693	20.8

Name: 5-Hydroxy-2-(octadecanoylamino)-5-oxopentanoate
PrecursorMZ: 412.30748
RT: 9.3469
ExactMass: 412.30629844
Spectrum_type: 2
charge: -1
Formula: C23H42NO5-
SMILES: CCCCCCCCCCCCCCCCCC(=O)NC(CCC(=O)O)C(=O)[O-]
Method: HCD
Collision_energy: [28.333334]
Isolation_window: 4.0
Ion_mode: N
Num Peaks: 6
102.0553	39.2
128.0347	68.0
283.2644	49.1
368.3185	15.1
412.3081	100.0
413.3108	22.6

Name: 5-Vinyluracil
PrecursorMZ: 183.04067
RT: 0.4705
ExactMass: 138.042927438
Spectrum_type: 2
charge: -1
Formula: C6H6N2O2
SMILES: C=CC1=CNC(=O)NC1=O
Method: HCD
Collision_energy: [28.333334]
Isolation_window: 4.0
Ion_mode: N
Num Peaks: 4
68.0134	48.6
72.9923	100.0
87.0080	57.3
94.0290	73.0

Name: 5-ethyl-6-(1-methoxy-1-oxopropan-2-yl)-1,4a-dimethyl-6-(5,6,6-trimethyl-3-(2-methylpentan-3-yl)-4-(2-oxo-2-(3-oxopropanoyloxy)ethyl)decan-2-yl)-3,4,5,7,8,8a-hexahydro-2H-naphthalene-1-carboxylic acid
PrecursorMZ: 717.52917
RT: 10.7796
ExactMass: 718.53836931
Spectrum_type: 2
charge: -1
Formula: C43H74O8
SMILES: CCCCC(C)(C)C(C)C(CC(=O)OC(=O)CC=O)C(C(C)C1(CCC2C(C1CC)(CCCC2(C)C(=O)O)C)C(C)C(=O)OC)C(CC)C(C)C
Method: HCD
Collision_energy: [28.333334]
Isolation_window: 4.0
Ion_mode: N
Num Peaks: 18
61.9875	8.0
74.6164	3.3
152.9953	3.2
185.1179	6.3
255.2332	12.2
297.2437	100.0
298.2470	17.6
343.2856	7.9
373.2753	19.2
374.2794	4.5
671.5269	70.8
672.5305	30.3
673.5393	14.5
716.5244	7.3
717.5737	13.8
718.6448	17.1
718.6576	9.8
719.6399	48.3

Name: 5-hydroxy-1-(4-hydroxy-3-methoxyphenyl)(413C)decan-3-one
PrecursorMZ: 293.17564
RT: 11.6732
ExactMass: 295.18646414
Spectrum_type: 2
charge: -1
Formula: C17H26O4
SMILES: CCCCCC([13CH2]C(=O)CCC1=CC(=C(C=C1)O)OC)O
Method: HCD
Collision_energy: [28.333334]
Isolation_window: 4.0
Ion_mode: N
Num Peaks: 6
220.1462	34.5
221.1541	85.1
222.1577	16.9
236.1050	100.0
237.1088	14.4
293.1769	53.3

Name: 5-hydroxy-N-(2-methyl-7-((3-methyl-1-(3-methylcycloheptyl)-1-oxobutan-2-yl)amino)-7-oxoheptan-2-yl)-1,2-dihydropyridine-2-carboxamide
PrecursorMZ: 474.33324
RT: 8.9552
ExactMass: 475.34100693
Spectrum_type: 2
charge: -1
Formula: C27H45N3O4
SMILES: CC1CCCCC(C1)C(=O)C(C(C)C)NC(=O)CCCCC(C)(C)NC(=O)C2C=CC(=CN2)O
Method: HCD
Collision_energy: [28.333334]
Isolation_window: 4.0
Ion_mode: N
Num Peaks: 21
52.5972	4.4
61.9872	13.1
71.0127	5.1
73.0283	5.2
101.0231	9.0
113.0229	4.4
155.1063	5.2
161.0443	7.6
163.0751	32.9
183.1013	9.2
311.2580	25.7
312.2615	4.8
472.3494	5.8
473.3627	100.0
474.3261	62.7
474.3314	65.1
475.3279	26.8
475.3386	50.9
475.3838	17.0
476.3343	4.9
476.3419	9.8

Name: 5H-1,2,4-Triazolo(3,4-i)purin-5-one, 6,9-dihydro-9-methyl-3-(4-nitrophenyl)-6-propyl-
PrecursorMZ: 352.11771
RT: 6.936
ExactMass: 353.12363737
Spectrum_type: 2
charge: -1
Formula: C16H15N7O3
SMILES: CCCN1C2=C(C3=NN=C(N3C1=O)C4=CC=C(C=C4)[N+](=O)[O-])N(C=N2)C
Method: HCD
Collision_energy: [28.333334]
Isolation_window: 4.0
Ion_mode: N
Num Peaks: 8
149.0232	29.2
185.0600	5.4
209.0597	7.4
225.0547	3.8
227.0704	9.3
253.0497	65.7
254.0530	9.8
255.0653	100.0

Name: 5alpha-Pregn-20-en-2beta,3beta,4beta,15beta,16beta-pentol 2-sulfate
PrecursorMZ: 445.19065
RT: 3.329
ExactMass: 446.19743921
Spectrum_type: 2
charge: -1
Formula: C21H34O8S
SMILES: C[C@]12CC[C@H]3[C@H]([C@@H]1[C@@H]([C@@H]([C@@H]2C=C)O)O)CC[C@@H]4[C@@]3(C[C@@H]([C@@H]([C@@H]4O)O)OS(=O)(=O)O)C
Method: HCD
Collision_energy: [28.333334]
Isolation_window: 4.0
Ion_mode: N
Num Peaks: 10
79.9565	3.1
96.9593	15.9
444.1433	5.0
445.1451	9.4
445.1915	100.0
445.1992	39.5
446.1938	27.2
446.1985	11.9
447.1675	10.6
447.1926	5.7

Name: 6-(((12R,16R,17R)-15-ethoxycarbonyl-3,7,7,11,12,15-hexamethyl-16-propyl-6-tetracyclo(9.8.0.03,8.012,17)nonadecanyl)oxy)-3,3-dimethyl-6-oxohexanoic acid
PrecursorMZ: 629.47941
RT: 10.7683
ExactMass: 630.48593982
Spectrum_type: 2
charge: -1
Formula: C39H66O6
SMILES: CCC[C@@H]1[C@H]2CCC3CC4(CCC(C(C4CCC3([C@@]2(CCC1(C)C(=O)OCC)C)C)(C)C)OC(=O)CCC(C)(C)CC(=O)O)C
Method: HCD
Collision_energy: [28.333334]
Isolation_window: 4.0
Ion_mode: N
Num Peaks: 29
61.7173	2.9
61.9875	4.1
69.0175	2.8
69.0887	2.6
69.9443	5.4
227.2019	2.3
279.2331	2.9
281.2487	2.9
491.4246	2.9
492.4303	2.7
493.4420	9.1
494.4466	2.8
495.4584	4.2
511.4540	5.3
535.4134	2.8
536.4189	3.1
537.4321	20.7
538.4357	7.5
539.4468	11.8
553.4270	5.3
554.4309	6.6
555.4426	54.6
556.4462	17.1
557.4570	29.7
627.4630	5.4
628.4690	9.4
629.4801	100.0
630.4838	36.3
631.4938	48.6

Name: 6-(((3S,6aR,6bS,8aS,12aS,14bR)-8a-carboxy-4,4,6a,6b,11,11,14b-heptamethyl-1,2,3,4a,5,6,7,8,9,10,12,12a,14,14a-tetradecahydropicen-3-yl)oxy)-4-(2-carboxy-1-(carboxymethoxy)-2-hydroxyethoxy)-3,5-dihydroxyoxane-2-carboxylic acid
PrecursorMZ: 793.39929
RT: 7.2867
ExactMass: 794.40887127
Spectrum_type: 2
charge: -1
Formula: C41H62O15
SMILES: C[C@]12CC[C@@H](C(C1CC[C@@]3(C2CC=C4[C@]3(CC[C@@]5([C@H]4CC(CC5)(C)C)C(=O)O)C)C)(C)C)OC6C(C(C(C(O6)C(=O)O)O)OC(C(C(=O)O)O)OCC(=O)O)O
Method: HCD
Collision_energy: [28.333334]
Isolation_window: 4.0
Ion_mode: N
Num Peaks: 48
59.0126	3.3
70.1556	2.7
71.0127	2.9
72.9920	6.8
73.0284	3.8
74.8236	3.6
75.0076	20.3
78.9579	3.0
85.0283	10.7
87.0079	1.5
88.0392	1.8
88.1522	1.6
88.1583	5.4
88.2698	2.2
95.0126	3.5
97.0283	2.3
99.0076	1.7
109.0282	2.2
111.0075	2.3
112.0156	2.2
113.0232	13.2
114.0303	1.5
116.9820	1.5
117.0181	20.1
129.0177	1.6
137.0233	1.8
139.0024	2.2
152.9946	5.3
157.0129	1.8
161.0079	14.0
453.3364	3.2
455.3517	9.7
456.3555	2.9
483.3474	1.8
497.3631	1.5
551.3734	1.5
555.3688	1.8
631.3839	48.4
632.3872	20.3
633.3906	2.9
673.3942	65.4
674.3975	23.9
675.4002	3.3
791.3782	2.7
792.3865	6.8
793.3999	100.0
794.4033	41.8
795.4050	8.1

Name: 6-((10,13-dimethyl-17-(6-methylheptan-2-yl)-2,3,4,7,8,9,11,12,14,15,16,17-dodecahydro-1H-cyclopenta(a)phenanthren-3-yl)oxy)-3,4,5-trihydroxyoxane-2-carboxylic acid
PrecursorMZ: 561.38016
RT: 9.8068
ExactMass: 562.38695406
Spectrum_type: 2
charge: -1
Formula: C33H54O7
SMILES: CC(C)CCCC(C)C1CCC2C1(CCC3C2CC=C4C3(CCC(C4)OC5C(C(C(C(O5)C(=O)O)O)O)O)C)C
Method: HCD
Collision_energy: [28.333334]
Isolation_window: 4.0
Ion_mode: N
Num Peaks: 21
57.0338	1.7
59.0130	4.0
62.3738	2.4
62.3775	4.2
71.0130	12.8
72.9922	2.0
75.0079	34.3
85.0286	18.3
87.0079	4.9
89.0236	2.0
95.0129	3.1
99.0079	1.7
113.0235	17.8
129.0185	1.7
157.0137	2.1
545.4239	1.9
559.3986	3.4
560.4013	2.5
561.3787	100.0
562.3821	32.2
563.4420	11.2

Name: 6-tert-Butyl-4-methyl-3-(methylthio)-1,2,4-triazin-5(4H)-one
PrecursorMZ: 212.08641
RT: 2.0971
ExactMass: 213.09358328
Spectrum_type: 2
charge: -1
Formula: C9H15N3OS
SMILES: CC(C)(C)C1=NN=C(N(C1=O)C)SC
Method: HCD
Collision_energy: [28.333334]
Isolation_window: 4.0
Ion_mode: N
Num Peaks: 16
83.0241	0.8
97.0398	18.4
98.0430	0.9
110.0351	3.1
114.9507	2.3
136.0506	1.3
154.0615	3.7
168.0646	16.5
169.0685	1.1
183.0882	11.4
184.0923	0.8
193.0728	1.9
196.0597	1.2
211.0832	100.0
212.0866	8.7
213.0884	1.0

Name: 7-(3-(2-Aminopropanoylamino)pyrrolidin-1-yl)-1-cyclopropyl-6-fluoro-4-oxoquinoline-3-carboxylic acid
PrecursorMZ: 401.16375
RT: 9.871749999999999
ExactMass: 402.17033339
Spectrum_type: 2
charge: -1
Formula: C20H23FN4O4
SMILES: CC(C(=O)NC1CCN(C1)C2=C(C=C3C(=C2)N(C=C(C3=O)C(=O)O)C4CC4)F)N
Method: HCD
Collision_energy: [28.333334]
Isolation_window: 4.0
Ion_mode: N
Num Peaks: 9
255.2332	100.0
256.2357	19.9
313.1841	85.4
314.1869	16.7
343.1584	15.3
345.1587	16.3
357.1743	71.0
358.1776	15.9
401.1644	43.3

Name: 7-(4-Acetylpiperazin-1-yl)-1-cyclopropyl-6-fluoro-1,4-dihydro-N-hydroxy-4-oxoquinoline-3-carboxamide (2a)
PrecursorMZ: 387.14649
RT: 9.4836
ExactMass: 388.15468333
Spectrum_type: 2
charge: -1
Formula: C19H21FN4O4
SMILES: CC(=O)N1CCN(CC1)C2=C(C=C3C(=C2)N(C=C(C3=O)C(=O)NO)C4CC4)F
Method: HCD
Collision_energy: [28.333334]
Isolation_window: 4.0
Ion_mode: N
Num Peaks: 10
90.9323	16.7
241.2163	99.5
242.2196	15.8
299.1670	100.0
300.1710	16.2
329.1422	15.5
331.1413	27.3
343.1570	93.9
344.1586	17.7
387.1468	55.5

Name: 7-Deazaxanthine
PrecursorMZ: 168.04069
RT: 2.1279
ExactMass: 151.038176411
Spectrum_type: 2
charge: -1
Formula: C6H5N3O2
SMILES: C1=CNC2=C1C(=O)NC(=O)N2
Method: HCD
Collision_energy: [28.333334]
Isolation_window: 4.0
Ion_mode: N
Num Peaks: 13
68.0133	58.3
83.0242	35.8
84.0082	44.0
91.0291	36.1
95.0242	39.6
96.0081	38.1
97.0398	63.4
98.0239	100.0
109.0397	46.3
111.0191	48.0
114.9508	47.4
125.0349	64.3
141.0301	39.5

Name: 7-hydroxy-2,6-dimethyl-4-((1S,6R,9R)-14-(1,1,13-trihydroxy-6,10-bis(hydroxymethyl)-2,8,12-trimethyltridecan-4-yl)-6-tricyclo(10.4.0.04,9)hexadeca-7,12-dienyl)heptanoic acid
PrecursorMZ: 719.54722
RT: 10.8304
ExactMass: 720.55401938
Spectrum_type: 2
charge: -1
Formula: C43H76O8
SMILES: CC(CC(CC(C)CO)CO)CC(CC(CC(C)C(O)O)C1CC[C@@H]2CCC3C[C@@H](C=C[C@@H]3CCC2=C1)C(CC(C)CO)CC(C)C(=O)O)CO
Method: HCD
Collision_energy: [28.333334]
Isolation_window: 4.0
Ion_mode: N
Num Peaks: 8
74.8404	2.7
299.2591	100.0
300.2624	18.6
373.2748	20.9
374.2778	4.5
673.5413	60.7
674.5447	27.2
675.5461	4.4

Name: 8-((4-(Furan-2-carbonyl)piperazin-1-yl)methyl)-1,3-dimethyl-7-((2-methylphenyl)methyl)purine-2,6-dione
PrecursorMZ: 475.20893
RT: 5.0534
ExactMass: 476.2172034
Spectrum_type: 2
charge: -1
Formula: C25H28N6O4
SMILES: CC1=CC=CC=C1CN2C(=NC3=C2C(=O)N(C(=O)N3C)C)CN4CCN(CC4)C(=O)C5=CC=CO5
Method: HCD
Collision_energy: [28.333334]
Isolation_window: 4.0
Ion_mode: N
Num Peaks: 5
91.0391	34.4
133.0862	100.0
249.0667	59.7
341.1143	18.7
383.1617	24.1

Name: 8-Ethyl-11-hydroxy-20-(5-(5-(1-hydroxyethyl)-5-methyloxolan-2-yl)-5-methyloxolan-2-yl)-2,4,6,12,14,18,19-heptamethyl-9-oxoicosa-10,16-dienoic acid
PrecursorMZ: 675.52094
RT: 11.7372
ExactMass: 676.52780463
Spectrum_type: 2
charge: -1
Formula: C41H72O7
SMILES: CCC(CC(C)CC(C)CC(C)C(=O)O)C(=O)C=C(C(C)CC(C)CC=CC(C)C(C)CC1CCC(O1)(C)C2CCC(O2)(C)C(C)O)O
Method: HCD
Collision_energy: [28.333334]
Isolation_window: 4.0
Ion_mode: N
Num Peaks: 14
61.9862	44.3
61.9898	15.6
69.9471	6.7
130.0844	5.9
255.2329	23.5
299.2593	4.4
373.2749	19.1
374.2797	4.9
629.5153	100.0
630.5187	40.6
631.5214	5.7
673.5416	23.1
674.5501	20.5
675.5697	6.0

Name: 9,10,12,13-tetrahydroxyhenicosanoic Acid
PrecursorMZ: 389.29131
RT: 4.912
ExactMass: 390.29813906
Spectrum_type: 2
charge: -1
Formula: C21H42O6
SMILES: CCCCCCCCC(C(CC(C(CCCCCCCC(=O)O)O)O)O)O
Method: HCD
Collision_energy: [28.333334]
Isolation_window: 4.0
Ion_mode: N
Num Peaks: 16
59.0130	6.2
73.0286	48.6
83.0493	5.0
139.1122	7.8
195.1381	9.6
207.1755	4.8
211.1701	5.8
213.1489	9.5
227.1648	6.1
229.1805	5.0
253.1811	7.4
271.1915	19.1
289.2022	15.5
388.2744	7.9
389.2911	100.0
390.2942	22.0

Name: Acetyl-L-leucyl-L-leucine
PrecursorMZ: 285.18213
RT: 4.3299
ExactMass: 286.18925731
Spectrum_type: 2
charge: -1
Formula: C14H26N2O4
SMILES: CC(C)C[C@@H](C(=O)N[C@@H](CC(C)C)C(=O)O)NC(=O)C
Method: HCD
Collision_energy: [28.333334]
Isolation_window: 4.0
Ion_mode: N
Num Peaks: 4
130.0866	63.2
199.1810	57.0
285.1822	100.0
286.1874	14.6

Name: Adenosine,6N-I-pentyl
PrecursorMZ: 383.18142
RT: 4.645933333333334
ExactMass: 337.17500423
Spectrum_type: 2
charge: -1
Formula: C15H23N5O4
SMILES: CC(C)CCNC1=C2C(=NC=N1)N(C=N2)C3C(C(C(O3)CO)O)O
Method: HCD
Collision_energy: [28.333334]
Isolation_window: 4.0
Ion_mode: N
Num Peaks: 16
69.0142	5.6
85.0283	5.6
113.0234	6.6
115.0390	6.2
162.0549	53.0
163.0577	5.9
180.0653	6.0
194.0812	100.0
195.0846	12.5
251.1393	12.0
263.1393	36.6
305.1499	12.7
319.1654	15.4
337.1761	44.5
338.1797	7.8
385.1533	16.5

Name: Alfuzosin, (S)-
PrecursorMZ: 388.20171
RT: 6.6754
ExactMass: 389.20630436
Spectrum_type: 2
charge: -1
Formula: C19H27N5O4
SMILES: CN(CCCNC(=O)[C@@H]1CCCO1)C2=NC3=CC(=C(C=C3C(=N2)N)OC)OC
Method: HCD
Collision_energy: [28.333334]
Isolation_window: 4.0
Ion_mode: N
Num Peaks: 13
263.1177	8.3
264.1255	38.3
265.1333	100.0
266.1366	15.7
296.1153	4.6
346.1099	10.4
387.2527	10.1
388.2022	66.2
388.2523	3.3
389.2066	16.1
389.2689	74.0
390.1002	3.9
390.2711	14.9

Name: Bacillusamide A
PrecursorMZ: 210.12435
RT: 1.8263
ExactMass: 211.132076794
Spectrum_type: 2
charge: -1
Formula: C10H17N3O2
SMILES: CNCC[C@H]1C(=O)N2CCC[C@H]2C(=O)N1
Method: HCD
Collision_energy: [28.333334]
Isolation_window: 4.0
Ion_mode: N
Num Peaks: 28
83.0605	1.2
84.0446	1.5
94.0289	2.4
96.0445	0.8
96.9592	0.9
97.0397	2.2
113.0711	2.4
123.0555	1.8
124.0396	1.2
125.0349	0.9
141.0661	8.7
152.0583	0.8
153.0662	2.4
165.0662	0.7
167.0455	9.5
167.0818	0.8
167.1183	0.8
168.0648	1.8
182.0930	3.0
183.0872	1.1
208.1087	4.1
210.0820	1.0
210.1243	100.0
210.1659	0.8
211.0835	10.4
211.1275	11.7
212.0873	0.7
212.1286	0.9

Name: Belactosin B
PrecursorMZ: 383.18278
RT: 3.8191
ExactMass: 401.21620034
Spectrum_type: 2
charge: -1
Formula: C18H31N3O7
SMILES: CC[C@H](C)[C@@H]([C@H](C(=O)N[C@H]1C[C@@H]1C[C@@H](C(=O)O)NC(=O)[C@H](C)N)O)C(=O)OC
Method: HCD
Collision_energy: [28.333334]
Isolation_window: 4.0
Ion_mode: N
Num Peaks: 14
73.0285	8.2
108.0445	21.8
154.0866	100.0
155.0902	8.5
162.0555	9.5
182.0811	8.0
194.0819	17.2
305.1510	7.9
319.1654	12.6
337.1764	15.4
381.1919	70.3
382.1946	34.8
383.2060	19.6
385.1734	15.8

Name: Benzoic-18O acid, 4-(hydroxy-18O)-
PrecursorMZ: 137.02365
RT: 2.5977
ExactMass: 142.04018403
Spectrum_type: 2
charge: -1
Formula: C7H6O3
SMILES: C1=CC(=CC=C1C(=O)[18OH])[18OH]
Method: HCD
Collision_energy: [28.333334]
Isolation_window: 4.0
Ion_mode: N
Num Peaks: 8
93.0336	3.4
108.0208	2.9
123.0317	3.6
136.0158	5.9
137.0237	100.0
137.0327	2.7
138.0270	8.7
138.0550	4.3

Name: Benzyl 2-((2-methylpropan-2-yl)oxycarbonylamino)-3-(4-((2-methylpropan-2-yl)oxycarbonylamino)phenyl)propanoate
PrecursorMZ: 469.23477
RT: 4.7967
ExactMass: 470.24168681
Spectrum_type: 2
charge: -1
Formula: C26H34N2O6
SMILES: CC(C)(C)OC(=O)NC1=CC=C(C=C1)CC(C(=O)OCC2=CC=CC=C2)NC(=O)OC(C)(C)C
Method: HCD
Collision_energy: [28.333334]
Isolation_window: 4.0
Ion_mode: N
Num Peaks: 15
86.0602	5.9
91.0544	2.1
96.9592	6.4
98.0603	5.2
147.0445	6.8
164.0711	33.6
165.0745	3.1
234.1134	100.0
235.1168	13.4
315.1281	1.8
316.1362	2.0
423.2751	7.2
424.2776	1.8
470.2595	11.0
471.2443	11.5

Name: Boc-Ser-Pro-N(Me)Ala-Ala-Pro-OH
PrecursorMZ: 554.28246
RT: 2.8827333333333334
ExactMass: 555.2904279
Spectrum_type: 2
charge: -1
Formula: C25H41N5O9
SMILES: C[C@@H](C(=O)N1CCC[C@H]1C(=O)O)NC(=O)[C@H](C)N(C)C(=O)[C@@H]2CCCN2C(=O)[C@H](CO)NC(=O)OC(C)(C)C
Method: HCD
Collision_energy: [28.333334]
Isolation_window: 4.0
Ion_mode: N
Num Peaks: 33
58.0289	3.9
61.5853	2.5
61.5888	4.5
73.0397	6.2
98.0237	4.6
111.0555	3.1
114.0187	2.9
114.0550	15.4
115.0503	25.3
127.0505	1.8
128.0344	4.0
129.0660	3.7
140.0342	2.3
155.0453	12.9
155.0816	8.0
195.1131	9.6
211.1081	41.0
212.1121	3.9
254.1141	6.8
323.2088	12.4
367.1993	3.0
380.2303	13.2
381.2321	2.7
422.2409	19.1
423.2436	3.5
466.2304	42.0
467.2335	8.3
510.2565	21.5
511.2598	4.6
553.2604	2.2
554.2836	100.0
555.2883	24.1
556.2882	3.3

Name: Bu(-3)(Bu(-4))(Bu(-6))Hex(?1-4)(Bu(-3))(Bu(-6))HexNAc-O-Bu
PrecursorMZ: 718.5111
RT: 10.8808
ExactMass: 719.51836214
Spectrum_type: 2
charge: -1
Formula: C38H73NO11
SMILES: CCCCOCC1C(C(C(C(O1)OC2C(OC(C(C2OCCCC)NC(=O)C)OCCCC)COCCCC)O)OCCCC)OCCCC
Method: HCD
Collision_energy: [28.333334]
Isolation_window: 4.0
Ion_mode: N
Num Peaks: 20
78.9582	10.3
79.8322	2.0
79.8374	3.7
152.9954	10.4
171.0060	8.4
227.2016	4.3
241.2175	24.7
242.2208	4.3
255.2332	8.9
267.2332	9.4
269.2491	4.0
279.2337	2.3
281.2488	3.9
462.2693	29.2
463.2730	7.1
716.5226	2.4
717.5130	16.9
718.5107	100.0
719.5152	49.3
720.5173	15.5

Name: Butanoic acid, 2,3-dihydroxy-2-(1-methylethyl)-, (2R,3S)-
PrecursorMZ: 161.08128
RT: 1.3388
ExactMass: 162.08920892
Spectrum_type: 2
charge: -1
Formula: C7H14O4
SMILES: C[C@@H]([C@](C(C)C)(C(=O)O)O)O
Method: HCD
Collision_energy: [28.333334]
Isolation_window: 4.0
Ion_mode: N
Num Peaks: 30
57.0338	37.3
59.0130	86.9
71.0130	18.3
72.0083	5.8
72.9923	14.1
73.0287	20.0
74.0239	8.8
75.0079	13.4
85.0286	34.1
86.0239	9.1
87.0079	50.2
88.0394	5.9
89.0235	14.4
97.0650	6.2
99.0443	20.0
101.0236	15.9
101.0600	11.6
102.0188	16.4
103.0028	15.8
115.0757	13.3
116.0343	5.5
117.0548	10.8
143.0708	11.6
160.0608	9.8
160.8413	6.1
161.0814	100.0
162.0406	8.8
162.0743	6.9
163.0244	18.5
163.0607	31.9

PrecursorMZ: 116.98164
RT: 0.5407
Spectrum_type: 2
charge: -1
SMILES: C(=O)(C(=O)O)C(=O)O
Method: HCD
Collision_energy: [28.333334]
Isolation_window: 4.0
Ion_mode: N
Num Peaks: 13
65.0134	22.3
71.0127	33.9
72.0079	55.2
72.9919	100.0
73.0283	64.5
74.0235	69.3
75.0076	31.8
89.0132	29.6
90.0085	25.2
116.0241	48.3
116.9272	85.4
117.0193	25.1
119.0336	78.5

PrecursorMZ: 118.01311
RT: 1.6787
Spectrum_type: 2
charge: -1
SMILES: C(C(=O)O)(C(=O)O)N
Method: HCD
Collision_energy: [28.333334]
Isolation_window: 4.0
Ion_mode: N
Num Peaks: 9
71.0126	29.5
72.0080	23.6
72.9919	99.6
73.0283	65.0
74.0235	45.5
75.0075	33.0
116.9271	97.0
119.0238	39.2
119.0336	100.0

Name: C12-alkyl-5-ethoxy-sulfate
PrecursorMZ: 485.27923
RT: 7.777
ExactMass: 486.28625421
Spectrum_type: 2
charge: -1
Formula: C22H46O9S
SMILES: CCCCCCCCCCCCOCCOCCOCCOCCOCCOS(=O)(=O)O
Method: HCD
Collision_energy: [28.333334]
Isolation_window: 4.0
Ion_mode: N
Num Peaks: 4
96.9591	15.6
485.2793	100.0
486.2828	23.7
487.2800	5.3

PrecursorMZ: 257.21191
RT: 8.3724
Spectrum_type: 2
charge: -1
SMILES: CCCCCCCC/C=C\CCCCCCCCC(=O)O
Method: HCD
Collision_energy: [28.333334]
Isolation_window: 4.0
Ion_mode: N
Num Peaks: 3
59.0129	100.0
257.2120	79.7
258.2150	10.6

Name: Cbz-Ala-D-His-Pro-OH
PrecursorMZ: 439.16268
RT: 3.9364
ExactMass: 457.1961336
Spectrum_type: 2
charge: -1
Formula: C22H27N5O6
SMILES: C[C@@H](C(=O)N[C@H](CC1=CN=CN1)C(=O)N2CCC[C@H]2C(=O)O)NC(=O)OCC3=CC=CC=C3
Method: HCD
Collision_energy: [28.333334]
Isolation_window: 4.0
Ion_mode: N
Num Peaks: 7
114.0552	72.2
139.0504	10.6
142.0654	14.3
270.0885	31.9
439.1619	100.0
439.2907	13.8
440.1644	25.3

Name: Cer 18:3;3O/16:2;(2OH)
PrecursorMZ: 560.43271
RT: 8.9091
ExactMass: 561.43932398
Spectrum_type: 2
charge: -1
Formula: C34H59NO5
SMILES: CCCCCCCC/C=C\C/C=C\CC(C(=O)NC(CO)C(C(CCC/C=C/CC/C=C/CC/C=C/C)O)O)O
Method: HCD
Collision_energy: [28.333334]
Isolation_window: 4.0
Ion_mode: N
Num Peaks: 9
62.2721	4.4
69.0335	3.8
86.0238	2.9
167.0707	3.4
223.1698	10.7
559.4255	3.5
560.4322	100.0
561.4358	37.0
562.4416	5.2

Name: Cer(d16:1/PGJ2)
PrecursorMZ: 586.44882
RT: 9.2108
ExactMass: 587.45497405
Spectrum_type: 2
charge: -1
Formula: C36H61NO5
SMILES: CCCCCCCCCCC/C=C/[C@H]([C@H](CO)NC(=O)CCC/C=C\C[C@H]1C=CC(=O)[C@@H]1/C=C/[C@H](CCCCC)O)O
Method: HCD
Collision_energy: [28.333334]
Isolation_window: 4.0
Ion_mode: N
Num Peaks: 7
61.9875	46.6
251.2013	5.7
524.3954	13.6
585.4323	12.8
586.4499	100.0
587.4490	44.7
588.4643	45.5

Name: Cpa(18:2(9Z,12Z)/0:0)
PrecursorMZ: 415.22611
RT: 8.0412
ExactMass: 416.23277589
Spectrum_type: 2
charge: -1
Formula: C21H37O6P
SMILES: CCCCC/C=C\C/C=C\CCCCCCCC(=O)OCC1COP(=O)(O1)O
Method: HCD
Collision_energy: [28.333334]
Isolation_window: 4.0
Ion_mode: N
Num Peaks: 15
59.0130	0.6
78.9580	0.7
80.9642	0.9
152.9951	21.4
153.9985	0.6
279.1697	0.7
279.1823	0.6
279.2330	100.0
279.2970	0.7
280.2364	19.5
281.2399	1.2
415.2256	27.4
415.3400	0.9
416.2294	6.2
417.2291	1.4

Name: D-erythro-Sphingosine, N-Acetyl
PrecursorMZ: 386.28993
RT: 9.1779
ExactMass: 341.29299411
Spectrum_type: 2
charge: -1
Formula: C20H39NO3
SMILES: CCCCCCCCCCCCC/C=C\[C@H]([C@H](CO)NC(=O)C)O
Method: HCD
Collision_energy: [28.333334]
Isolation_window: 4.0
Ion_mode: N
Num Peaks: 3
59.0127	42.2
296.2581	47.6
310.2741	100.0

Name: Dehydrohistidyltryptophyldiketopiperazine
PrecursorMZ: 320.11525
RT: 2.6305666666666667
ExactMass: 321.12257474
Spectrum_type: 2
charge: -1
Formula: C17H15N5O2
SMILES: C1=CC=C2C(=C1)C(=CN2)CC3C(=O)N/C(=C/C4=CN=CN4)/C(=O)N3
Method: HCD
Collision_energy: [28.333334]
Isolation_window: 4.0
Ion_mode: N
Num Peaks: 13
67.0291	2.7
108.0558	4.2
111.0191	6.5
120.0557	2.2
123.0190	7.6
147.0671	2.6
164.0461	3.4
177.0410	3.1
190.0486	2.5
191.0568	100.0
192.0605	9.0
320.1152	68.9
321.1181	13.5

Name: Deuterio 1,3,3,4,4-pentadeuterio-5-oxopyrrolidine-2-carboxylate
PrecursorMZ: 128.0346
RT: 1.0412
ExactMass: 135.080253561
Spectrum_type: 2
charge: -1
Formula: C5H7NO3
SMILES: [2H]C1(C(N(C(=O)C1([2H])[2H])[2H])C(=O)O[2H])[2H]
Method: HCD
Collision_energy: [28.333334]
Isolation_window: 4.0
Ion_mode: N
Num Peaks: 9
79.9566	1.6
80.9644	1.9
82.0290	3.3
85.0287	7.1
89.0236	2.8
126.9043	1.4
126.9522	1.3
128.0347	100.0
129.0383	5.8

Name: Disuccinimidyl suberate
PrecursorMZ: 335.1241
RT: 3.491
ExactMass: 336.13213636
Spectrum_type: 2
charge: -1
Formula: C16H20N2O6
SMILES: C1CC(=O)N(C1=O)C(=O)CCCCCCC(=O)N2C(=O)CCC2=O
Method: HCD
Collision_energy: [28.333334]
Isolation_window: 4.0
Ion_mode: N
Num Peaks: 24
59.0128	14.9
136.0757	53.2
137.0597	40.4
138.0550	18.8
138.0915	13.9
166.0497	22.5
171.1019	19.4
182.0814	22.1
196.0972	14.7
204.1024	27.0
210.0402	23.7
225.0875	14.9
255.1134	38.8
257.1284	13.6
273.1241	43.2
290.1759	13.9
291.1348	22.7
305.1503	22.4
318.1342	18.1
333.1912	100.0
334.1950	33.0
335.1219	37.3
335.1685	41.2
336.1454	25.8

Name: Dodecanoylglycinate
PrecursorMZ: 256.19189
RT: 7.3748
ExactMass: 256.19126869
Spectrum_type: 2
charge: -1
Formula: C14H26NO3-
SMILES: CCCCCCCCCCCC(=O)NCC(=O)[O-]
Method: HCD
Collision_energy: [28.333334]
Isolation_window: 4.0
Ion_mode: N
Num Peaks: 6
74.0238	100.0
75.0271	2.2
212.2016	6.8
255.0878	1.0
256.1918	56.7
257.1951	8.8

Name: Drevogenin I
PrecursorMZ: 583.34938
RT: 4.9961
ExactMass: 584.35604785
Spectrum_type: 2
charge: -1
Formula: C31H52O10
SMILES: CC(CC(=O)O)C[C@]1(C[C@@H]2[C@]3(CC[C@@H](C[C@@H]3CCC2([C@@]4([C@]1([C@](CC4)(C(C)(CC(C)CC(=O)O)O)O)C)O)O)O)C)O
Method: HCD
Collision_energy: [28.333334]
Isolation_window: 4.0
Ion_mode: N
Num Peaks: 11
61.9874	20.1
88.9870	15.1
99.0443	17.2
113.0600	19.2
165.0913	21.5
519.3362	21.2
536.3335	20.8
537.3458	100.0
538.3494	32.1
539.3620	40.5
583.3425	28.1

Name: Enterolactone-d6
PrecursorMZ: 297.11337
RT: 5.835857142857143
ExactMass: 304.15816953
Spectrum_type: 2
charge: -1
Formula: C18H18O4
SMILES: [2H]C1=CC(=C(C(=C1C[C@@H]2COC(=O)[C@H]2CC3=C(C(=C(C=C3[2H])[2H])O)[2H])[2H])O)[2H]
Method: HCD
Collision_energy: [28.333334]
Isolation_window: 4.0
Ion_mode: N
Num Peaks: 35
83.0130	12.6
107.0494	19.4
108.0529	1.4
119.0495	7.4
121.0287	1.1
121.0652	7.4
131.0496	1.8
133.0654	1.5
145.0653	3.1
147.0445	1.7
147.0808	1.6
149.0602	3.1
150.0317	5.0
151.0396	4.6
165.0552	7.3
189.0554	11.1
190.0588	1.2
191.0347	12.9
191.0711	2.5
192.0377	1.3
251.1079	1.8
253.1236	29.0
253.1810	6.9
254.1270	5.5
254.1841	0.9
295.0974	1.9
296.0973	1.5
297.0436	1.2
297.0799	2.7
297.0867	3.0
297.1135	100.0
297.1646	2.5
298.1169	19.5
299.0928	4.6
299.1200	1.4

Name: Glutaminylisoleucine
PrecursorMZ: 258.14581
RT: 1.8062
ExactMass: 259.15320616
Spectrum_type: 2
charge: -1
Formula: C11H21N3O4
SMILES: CCC(C)C(C(=O)O)NC(=O)C(CCC(=O)N)N
Method: HCD
Collision_energy: [28.333334]
Isolation_window: 4.0
Ion_mode: N
Num Peaks: 27
59.0129	7.7
70.0289	6.0
75.0079	4.2
88.0394	4.7
88.9870	5.0
89.0057	31.9
89.0234	4.2
96.0444	4.4
98.0239	3.4
110.0238	55.1
126.0552	58.8
127.0504	3.4
130.0865	67.2
142.0501	3.6
143.1180	9.1
186.0401	4.5
196.0610	20.3
196.1449	11.7
197.1292	13.2
214.1561	3.8
241.1191	5.6
257.0658	4.0
258.0997	6.4
258.1458	100.0
259.0824	7.2
259.1201	14.8
259.1494	10.4

Name: H-Phe-Leu-Ser-Thr-Lys-al
PrecursorMZ: 577.33773
RT: 5.5021
ExactMass: 578.34279783
Spectrum_type: 2
charge: -1
Formula: C28H46N6O7
SMILES: C[C@H]([C@@H](C(=O)N[C@@H](CCCCN)C=O)NC(=O)[C@H](CO)NC(=O)[C@H](CC(C)C)NC(=O)[C@H](CC1=CC=CC=C1)N)O
Method: HCD
Collision_energy: [28.333334]
Isolation_window: 4.0
Ion_mode: N
Num Peaks: 12
124.0755	57.1
243.1492	100.0
245.1649	76.1
253.1698	15.8
289.1542	16.2
376.2386	46.4
377.2432	13.7
378.2519	14.2
501.3220	83.8
502.3254	30.7
533.3496	34.9
577.3447	39.1

Name: H-Pyr-Glu-Leu-OH
PrecursorMZ: 370.1615
RT: 3.08695
ExactMass: 371.16925015
Spectrum_type: 2
charge: -1
Formula: C16H25N3O7
SMILES: CC(C)C[C@@H](C(=O)O)NC(=O)[C@H](CCC(=O)O)NC(=O)[C@@H]1CCC(=O)N1
Method: HCD
Collision_energy: [28.333334]
Isolation_window: 4.0
Ion_mode: N
Num Peaks: 13
102.0550	9.1
114.0549	12.2
128.0343	100.0
130.0863	10.1
146.0450	15.6
197.1290	9.0
223.1078	13.7
239.0662	9.7
241.1190	22.5
326.1716	8.8
352.1513	11.3
370.1614	73.4
371.1671	12.7

Name: H-Tyr-Ala-D-Phe-Ala-NH2
PrecursorMZ: 468.22586
RT: 3.638
ExactMass: 469.23251911
Spectrum_type: 2
charge: -1
Formula: C24H31N5O5
SMILES: C[C@@H](C(=O)N)NC(=O)[C@@H](CC1=CC=CC=C1)NC(=O)[C@H](C)NC(=O)[C@H](CC2=CC=C(C=C2)O)N
Method: HCD
Collision_energy: [28.333334]
Isolation_window: 4.0
Ion_mode: N
Num Peaks: 12
61.9875	8.1
71.0243	8.3
96.0083	36.2
98.0239	24.7
199.0873	19.9
200.0714	6.4
224.1406	8.0
304.1298	16.7
319.1420	7.6
321.1567	11.5
468.2261	100.0
469.2300	28.0

Name: Isolariciresinol sulfate
PrecursorMZ: 439.10707
RT: 4.9632
ExactMass: 440.11410351
Spectrum_type: 2
charge: -1
Formula: C20H24O9S
SMILES: COC1=C(C=C2C(C(C(CC2=C1)CO)COS(=O)(=O)O)C3=CC(=C(C=C3)O)OC)O
Method: HCD
Collision_energy: [28.333334]
Isolation_window: 4.0
Ion_mode: N
Num Peaks: 13
79.9564	86.1
80.9642	11.5
96.9591	13.4
329.1029	33.8
330.1063	5.9
344.1264	44.0
345.1303	8.7
359.1501	34.9
360.1530	7.4
439.1062	100.0
440.1096	20.8
441.1069	6.3
441.1992	8.3

Name: L-Tryptophyl-L-Proline
PrecursorMZ: 300.13549
RT: 3.2979
ExactMass: 301.14264148
Spectrum_type: 2
charge: -1
Formula: C16H19N3O3
SMILES: C1C[C@H](N(C1)C(=O)[C@H](CC2=CNC3=CC=CC=C32)N)C(=O)O
Method: HCD
Collision_energy: [28.333334]
Isolation_window: 4.0
Ion_mode: N
Num Peaks: 7
114.0551	62.3
130.0654	19.1
171.0768	61.6
238.1347	12.8
299.0349	9.1
300.1354	100.0
301.1413	17.7

Name: L-erythronate
PrecursorMZ: 135.02921
RT: 0.918925
ExactMass: 135.02934832
Spectrum_type: 2
charge: -1
Formula: C4H7O5-
SMILES: C([C@@H]([C@@H](C(=O)[O-])O)O)O
Method: HCD
Collision_energy: [28.333334]
Isolation_window: 4.0
Ion_mode: N
Num Peaks: 11
65.0136	2.3
79.9564	5.9
80.9643	2.6
92.0245	76.2
93.0279	3.2
107.0354	12.4
134.0464	56.9
135.0304	100.0
135.0498	3.2
136.0343	5.7
136.9907	7.4

Name: Linoleoyl Phenylalanine
PrecursorMZ: 426.3014
RT: 9.659876470588236
ExactMass: 427.30864417
Spectrum_type: 2
charge: -1
Formula: C27H41NO3
SMILES: CCCCCC=CCC=CCCCCCCCC(=O)NC(CC1=CC=CC=C1)C(=O)O
Method: HCD
Collision_energy: [28.333334]
Isolation_window: 4.0
Ion_mode: N
Num Peaks: 31
58.0289	4.0
72.0082	1.9
87.0441	2.4
91.0027	5.2
91.0544	3.2
108.0446	6.3
147.0444	20.9
148.0477	1.9
157.8623	2.5
164.0710	83.0
165.0745	6.9
278.2491	3.0
279.2303	1.9
290.2494	3.1
307.2642	11.7
308.2681	2.1
351.2546	3.2
369.1582	3.5
381.1743	3.9
382.3116	1.8
425.1635	2.8
425.3067	5.2
425.3114	1.8
425.3638	6.4
426.1048	1.8
426.3017	100.0
426.3662	2.1
427.3052	28.9
427.3138	10.1
428.3080	2.9
428.3250	1.7

Name: Me-DL-N(1)Ala-N(Me)Leu-Thr-N(Me)Leu-Ser(tBu)-N(Me)Leu-DL-Asp(1)-piperidide
PrecursorMZ: 891.59661
RT: 10.8036
ExactMass: 892.59974078
Spectrum_type: 2
charge: -1
Formula: C45H80N8O10
SMILES: CC1C(=O)N([C@H](C(=O)N[C@H](C(=O)N([C@H](C(=O)N[C@H](C(=O)N([C@H](C(=O)NC(CC(=O)N1C)C(=O)N2CCCCC2)CC(C)C)C)COC(C)(C)C)CC(C)C)C)[C@@H](C)O)CC(C)C)C
Method: HCD
Collision_energy: [28.333334]
Isolation_window: 4.0
Ion_mode: N
Num Peaks: 6
97.4638	13.0
149.0594	19.3
161.0593	37.0
163.0750	27.6
177.0542	28.1
179.0700	100.0

Name: N'-((1R,5S)-5-amino-4-((2R,6S)-3-amino-6-(aminomethyl)oxan-2-yl)oxy-2-(((4R,6R)-1,5-dihydroxy-7-methyl-3-oxa-7-azabicyclo(4.1.0)heptan-4-yl)oxy)-3-hydroxycyclohexyl)-2-hydroxyethanimidamide
PrecursorMZ: 489.26895
RT: 4.7743
ExactMass: 490.27511219
Spectrum_type: 2
charge: -1
Formula: C20H38N6O8
SMILES: CN1[C@H]2C1(CO[C@@H](C2O)OC3[C@@H](C[C@@H](C(C3O)O[C@@H]4C(CC[C@H](O4)CN)N)N)N=C(CO)N)O
Method: HCD
Collision_energy: [28.333334]
Isolation_window: 4.0
Ion_mode: N
Num Peaks: 19
59.0127	12.0
71.0127	21.7
73.0283	10.3
85.0283	14.0
101.0232	35.7
113.0231	23.6
161.0443	20.4
171.1015	33.9
201.1120	24.9
239.1643	9.7
309.2062	11.3
327.2168	100.0
328.2202	18.2
329.2321	17.1
369.2273	11.6
399.2368	11.0
489.2707	66.9
490.2765	20.6
491.2836	46.7

Name: N-((2S)-5-(carbamoylamino)-1-oxopentan-2-yl)-2-(3-(2-(2-(2-(2-((3-(2,5-dioxopyrrol-1-yl)propanoylamino)methoxy)ethoxy)ethoxy)ethoxy)ethoxy)propanoylamino)-3-methylbutanamide
PrecursorMZ: 685.34253
RT: 7.0976
ExactMass: 686.34867105
Spectrum_type: 2
charge: -1
Formula: C30H50N6O12
SMILES: CC(C)C(C(=O)N[C@@H](CCCNC(=O)N)C=O)NC(=O)CCOCCOCCOCCOCCOCNC(=O)CCN1C(=O)C=CC1=O
Method: HCD
Collision_energy: [28.333334]
Isolation_window: 4.0
Ion_mode: N
Num Peaks: 10
125.0959	23.0
155.1065	28.2
187.0965	18.1
197.1173	20.6
217.1074	14.5
461.2372	9.6
683.3647	9.4
684.3647	10.2
685.3428	100.0
686.3450	27.3

Name: N-((2S,3R,4R,5S,6R)-4-hydroxy-2-(2-(2-hydroxyethoxy)ethoxy)-6-(hydroxymethyl)-5-((2S,3R,4S,5R,6R)-3,4,5-trihydroxy-6-(hydroxymethyl)oxan-2-yl)oxyoxan-3-yl)acetamide
PrecursorMZ: 470.18721
RT: 0.9367
ExactMass: 471.19519011
Spectrum_type: 2
charge: -1
Formula: C18H33NO13
SMILES: CC(=O)N[C@@H]1[C@H]([C@@H]([C@H](O[C@@H]1OCCOCCO)CO)O[C@H]2[C@@H]([C@H]([C@H]([C@H](O2)CO)O)O)O)O
Method: HCD
Collision_energy: [28.333334]
Isolation_window: 4.0
Ion_mode: N
Num Peaks: 28
59.0129	4.9
71.0128	7.2
73.0285	8.3
83.0491	3.5
84.0444	8.5
85.0284	7.2
88.9870	15.1
92.0495	11.0
100.0394	6.2
101.0234	9.1
110.0601	100.0
111.0635	5.9
119.0340	7.1
122.0602	9.2
128.0708	18.8
138.0551	3.7
146.0451	4.1
152.0709	7.0
172.0607	47.2
173.0642	3.3
202.0712	7.0
214.0714	14.0
232.0821	97.9
233.0855	8.5
262.0928	14.5
304.1038	5.0
322.1149	3.6
470.1900	11.8

Name: N-((3R,6S,9S,12R)-3-(cyclohexylmethyl)-6-ethyl-12-methyl-9-(2-((1-methylazetidin-3-yl)amino)ethyl)-2,5,8,11-tetraoxo-1,4,7,10-tetrazacyclotetradec-12-yl)-2-methylpropanamide
PrecursorMZ: 590.40478
RT: 8.975
ExactMass: 591.41081782
Spectrum_type: 2
charge: -1
Formula: C30H53N7O5
SMILES: CC[C@H]1C(=O)N[C@@H](C(=O)NCC[C@@](C(=O)N[C@H](C(=O)N1)CCNC2CN(C2)C)(C)NC(=O)C(C)C)CC3CCCCC3
Method: HCD
Collision_energy: [28.333334]
Isolation_window: 4.0
Ion_mode: N
Num Peaks: 6
74.0236	65.0
414.3003	57.6
415.3036	11.4
430.2949	30.8
590.4055	100.0
591.4075	34.5

Name: N-(1-(2-carbamoylpyrrolidin-1-yl)-1-oxo-3-phenylpropan-2-yl)-5-oxopyrrolidine-2-carboxamide
PrecursorMZ: 371.17277
RT: 3.8847500000000004
ExactMass: 372.17975526
Spectrum_type: 2
charge: -1
Formula: C19H24N4O4
SMILES: C1CC(N(C1)C(=O)C(CC2=CC=CC=C2)NC(=O)C3CCC(=O)N3)C(=O)N
Method: HCD
Collision_energy: [28.333334]
Isolation_window: 4.0
Ion_mode: N
Num Peaks: 14
127.0505	100.0
128.0540	5.5
147.0445	7.8
164.0710	8.7
205.0609	3.4
224.1401	5.5
329.1892	2.9
370.1340	4.5
370.1814	13.8
371.1327	3.1
371.1728	48.4
372.1950	54.0
373.1446	3.1
373.1916	15.0

Name: N-(1-(2-carbamoylpyrrolidin-1-yl)-4-methyl-1-oxopentan-2-yl)-5-oxopyrrolidine-2-carboxamide
PrecursorMZ: 337.18841
RT: 3.631
ExactMass: 338.19540532
Spectrum_type: 2
charge: -1
Formula: C16H26N4O4
SMILES: CC(C)CC(C(=O)N1CCCC1C(=O)N)NC(=O)C2CCC(=O)N2
Method: HCD
Collision_energy: [28.333334]
Isolation_window: 4.0
Ion_mode: N
Num Peaks: 31
73.0286	3.4
85.0286	3.2
108.0446	5.7
113.0347	12.1
124.0396	5.1
124.0759	5.0
126.0551	3.8
127.0410	2.9
127.0504	100.0
128.0541	5.0
136.0756	2.7
138.0915	3.5
141.0659	3.6
154.0866	7.3
166.0867	2.4
180.0346	5.3
180.0660	22.4
182.0822	2.5
209.0932	3.0
209.1288	3.3
212.0920	3.6
245.1294	3.3
257.1657	2.4
261.1608	2.6
287.1408	3.4
305.1507	8.2
319.1660	5.7
335.1564	3.8
336.1627	3.7
337.1882	60.0
338.1924	8.9

Name: N-(1-(2-carbamoylpyrrolidin-1-yl)-4-methyl-1-oxopentan-2-yl)-6-oxopiperidine-2-carboxamide
PrecursorMZ: 351.20393
RT: 4.7254
ExactMass: 352.21105539
Spectrum_type: 2
charge: -1
Formula: C17H28N4O4
SMILES: CC(C)CC(C(=O)N1CCCC1C(=O)N)NC(=O)C2CCCC(=O)N2
Method: HCD
Collision_energy: [28.333334]
Isolation_window: 4.0
Ion_mode: N
Num Peaks: 7
139.0506	7.8
141.0662	22.9
155.0820	14.1
211.1453	7.8
351.1422	6.9
351.2042	100.0
352.2076	19.7

Name: N-(1-carboxy-2-phenylethyl)cyclohexanecarboximidate
PrecursorMZ: 274.14538
RT: 6.1408
ExactMass: 274.1443185
Spectrum_type: 2
charge: -1
Formula: C16H20NO3-
SMILES: C1CCC(CC1)C(=NC(CC2=CC=CC=C2)C(=O)O)[O-]
Method: HCD
Collision_energy: [28.333334]
Isolation_window: 4.0
Ion_mode: N
Num Peaks: 7
91.0545	4.1
126.0918	16.9
138.0918	8.0
147.0446	20.3
164.0712	22.6
274.1453	100.0
275.1490	15.8

Name: N-(2-(1,4-diazepane-6-carbonyl-(2-(1,4-diazepane-6-carbonylamino)ethyl)amino)ethyl)-1,4-diazepane-6-carboxamide
PrecursorMZ: 480.34137
RT: 7.1943
ExactMass: 481.34888627
Spectrum_type: 2
charge: -1
Formula: C22H43N9O3
SMILES: C1CNCC(CN1)C(=O)NCCN(CCNC(=O)C2CNCCNC2)C(=O)C3CNCCNC3
Method: HCD
Collision_energy: [28.333334]
Isolation_window: 4.0
Ion_mode: N
Num Peaks: 9
53.2624	2.1
53.2652	4.6
161.0964	3.3
163.1122	8.1
461.3644	7.1
462.3683	2.6
479.3747	100.0
480.3784	31.4
481.3823	5.4

Name: N-(2-(3-(2-aminoethyl-(2-((4-((ethyl-(1-methylpyrrolidin-2-yl)amino)methyl)benzoyl)amino)ethyl)amino)propylamino)ethyl)-4-((ethyl-(1-methylpyrrolidin-2-yl)amino)methyl)benzamide
PrecursorMZ: 736.52039
RT: 10.9038
ExactMass: 691.52612235
Spectrum_type: 2
charge: -1
Formula: C39H65N9O2
SMILES: CCN(CC1=CC=C(C=C1)C(=O)NCCNCCCN(CCN)CCNC(=O)C2=CC=C(C=C2)CN(CC)C3CCCN3C)C4CCCN4C
Method: HCD
Collision_energy: [28.333334]
Isolation_window: 4.0
Ion_mode: N
Num Peaks: 14
78.9582	3.5
81.8385	3.9
81.9500	1.7
152.9953	11.8
277.2175	19.9
278.2214	3.9
279.2333	28.5
280.2365	5.2
480.2795	9.8
481.2837	2.3
735.5049	2.9
736.5175	100.0
737.5203	45.2
738.5214	11.6

Name: N-(2-(cyclohexylamino)-2-oxoethyl)-N-((4-(hydroxycarbamoyl)phenyl)methyl)-3,5-dimethylbenzamide
PrecursorMZ: 436.22485
RT: 6.1044
ExactMass: 437.23145648
Spectrum_type: 2
charge: -1
Formula: C25H31N3O4
SMILES: CC1=CC(=CC(=C1)C(=O)N(CC2=CC=C(C=C2)C(=O)NO)CC(=O)NC3CCCCC3)C
Method: HCD
Collision_energy: [28.333334]
Isolation_window: 4.0
Ion_mode: N
Num Peaks: 16
120.0812	6.7
136.0762	41.8
148.0762	10.4
152.0713	4.2
180.0663	18.3
239.1192	3.7
243.1507	15.0
245.1662	97.9
267.1510	4.5
269.1664	45.6
364.2057	3.9
373.2754	8.9
394.2509	100.0
436.2252	22.6
437.2192	4.7
437.2816	5.7

Name: N-(3-Pyridyl)indomethacin Amide
PrecursorMZ: 432.11399
RT: 1.1786
ExactMass: 433.1193192
Spectrum_type: 2
charge: -1
Formula: C24H20ClN3O3
SMILES: CC1=C(C2=C(N1C(=O)C3=CC=C(C=C3)Cl)C=CC(=C2)OC)CC(=O)NC4=CN=CC=C4
Method: HCD
Collision_energy: [28.333334]
Isolation_window: 4.0
Ion_mode: N
Num Peaks: 4
60.9922	5.0
88.9870	100.0
180.0659	5.0
272.1257	2.3

Name: N-(3-carboxylatopropanoyl)-L-glutamate(3-)
PrecursorMZ: 246.06154
RT: 1.0483
ExactMass: 244.04572666
Spectrum_type: 2
charge: -1
Formula: C9H10NO7-3
SMILES: C(CC(=O)[O-])[C@@H](C(=O)[O-])NC(=O)CCC(=O)[O-]
Method: HCD
Collision_energy: [28.333334]
Isolation_window: 4.0
Ion_mode: N
Num Peaks: 4
98.0237	76.9
128.0345	100.0
146.0451	64.0
228.0511	31.9

Name: N-(4-Hydroxy-3,5-dimethoxybenzoyl)glycine
PrecursorMZ: 254.06685
RT: 1.4296
ExactMass: 255.07428713
Spectrum_type: 2
charge: -1
Formula: C11H13NO6
SMILES: COC1=CC(=CC(=C1O)OC)C(=O)NCC(=O)O
Method: HCD
Collision_energy: [28.333334]
Isolation_window: 4.0
Ion_mode: N
Num Peaks: 13
80.9971	7.4
84.0445	14.9
88.9871	14.9
95.0128	18.1
97.0285	8.8
125.0236	25.1
128.0342	6.2
178.0501	8.4
180.0659	80.4
208.0735	8.1
210.0766	50.6
254.0668	100.0
255.0706	11.9

Name: N-(4-Methylpentanoyl)-L-Phenylalanine
PrecursorMZ: 262.14445
RT: 6.13325
ExactMass: 263.15214353
Spectrum_type: 2
charge: -1
Formula: C15H21NO3
SMILES: CC(C)CCC(=O)N[C@@H](CC1=CC=CC=C1)C(=O)O
Method: HCD
Collision_energy: [28.333334]
Isolation_window: 4.0
Ion_mode: N
Num Peaks: 4
114.0915	22.1
147.0442	22.9
164.0709	100.0
262.1446	76.6

Name: N-(4-amino-1-(2-(cyclohexylmethylcarbamoyl)pyrrolidin-1-yl)-1,4-dioxobutan-2-yl)-5-oxopyrrolidine-2-carboxamide
PrecursorMZ: 434.24173
RT: 3.3843
ExactMass: 435.24816917
Spectrum_type: 2
charge: -1
Formula: C21H33N5O5
SMILES: C1CCC(CC1)CNC(=O)C2CCCN2C(=O)C(CC(=O)N)NC(=O)C3CCC(=O)N3
Method: HCD
Collision_energy: [28.333334]
Isolation_window: 4.0
Ion_mode: N
Num Peaks: 8
96.0083	25.7
98.0239	22.1
113.0713	21.4
165.1029	15.0
320.1623	15.0
434.2424	100.0
435.2454	22.2
436.2568	12.8

Name: N-(4-pyrrolidin-1-ylsulfonylphenyl)-4-(1,2,3,4-tetrahydroisoquinolin-2-ium-2-ylmethyl)benzamide
PrecursorMZ: 474.18482
RT: 8.6506
ExactMass: 476.200788
Spectrum_type: 2
charge: -1
Formula: C27H30N3O3S+
SMILES: C1CCN(C1)S(=O)(=O)C2=CC=C(C=C2)NC(=O)C3=CC=C(C=C3)C[NH+]4CCC5=CC=CC=C5C4
Method: HCD
Collision_energy: [28.333334]
Isolation_window: 4.0
Ion_mode: N
Num Peaks: 13
52.8172	4.6
80.9641	3.9
150.0680	4.4
163.0755	24.1
311.2588	6.9
347.2260	2.6
364.2521	4.7
473.3625	2.4
474.1849	29.8
475.1967	6.4
475.3423	100.0
476.1825	13.8
476.3452	14.3

Name: N-(6-((6-acetamidohexylcarbamoyl(6-isocyanatohexyl)carbamoyl)amino)hexyl)acetamide
PrecursorMZ: 509.34611
RT: 7.2555
ExactMass: 510.35296859
Spectrum_type: 2
charge: -1
Formula: C25H46N6O5
SMILES: CC(=O)NCCCCCCNC(=O)N(CCCCCCN=C=O)C(=O)NCCCCCCNC(=O)C
Method: HCD
Collision_energy: [28.333334]
Isolation_window: 4.0
Ion_mode: N
Num Peaks: 12
59.0127	42.7
61.9872	38.7
149.0594	16.8
151.0752	19.2
161.0958	73.1
449.3253	19.9
463.3421	38.1
467.3358	100.0
468.3390	23.1
508.3318	22.9
509.3452	74.6
510.3517	18.9

Name: N-(6-(4-((4-(dodecanoylamino)-5-oxohexanoyl)amino)butylamino)-2,6-dioxohexan-3-yl)dodecanamide
PrecursorMZ: 705.5547
RT: 10.6296
ExactMass: 706.56083609
Spectrum_type: 2
charge: -1
Formula: C40H74N4O6
SMILES: CCCCCCCCCCCC(=O)NC(CCC(=O)NCCCCNC(=O)CCC(C(=O)C)NC(=O)CCCCCCCCCCC)C(=O)C
Method: HCD
Collision_energy: [28.333334]
Isolation_window: 4.0
Ion_mode: N
Num Peaks: 7
78.3977	2.9
78.9580	58.4
140.0109	100.0
437.3153	4.1
705.5552	68.7
706.5598	25.1
707.5635	4.4

Name: N-(benzo(d)thiazol-2-yl)-2-((4-methyl-2-oxo-2H-chromen-7-yl)oxy)acetamide
PrecursorMZ: 365.06052
RT: 6.2576
ExactMass: 366.06742811
Spectrum_type: 2
charge: -1
Formula: C19H14N2O4S
SMILES: CC1=CC(=O)OC2=C1C=CC(=C2)OCC(=O)NC3=NC4=CC=CC=C4S3
Method: HCD
Collision_energy: [28.333334]
Isolation_window: 4.0
Ion_mode: N
Num Peaks: 6
148.0220	1.9
176.0171	100.0
177.0205	9.6
178.0124	2.8
365.0606	4.9
365.1047	2.0

Name: N-(d-pantothenyl)aminoethyl mercaptan
PrecursorMZ: 277.12289
RT: 4.3244
ExactMass: 278.13002836
Spectrum_type: 2
charge: -1
Formula: C11H22N2O4S
SMILES: CC(C)(CO)[C@@H](C(=O)NCCC(=O)NCCS)O
Method: HCD
Collision_energy: [28.333334]
Isolation_window: 4.0
Ion_mode: N
Num Peaks: 37
58.0287	0.7
70.0289	7.4
71.0493	5.7
86.0601	1.0
87.0554	5.2
99.0442	1.6
115.0504	1.6
116.0708	1.7
122.0603	3.6
124.0395	1.4
129.0550	1.3
130.0324	13.1
131.0361	0.7
136.0760	15.6
137.0795	1.2
138.0555	0.9
140.0709	18.3
141.0745	1.4
146.0575	0.7
146.0623	0.6
146.0815	100.0
146.1007	0.7
146.1054	0.8
147.0590	5.7
147.0850	5.6
154.0869	0.7
217.1190	29.1
218.1225	2.9
243.1350	0.8
257.1290	0.9
259.1453	2.3
260.1499	1.0
275.1762	1.9
277.1230	55.0
277.1549	3.2
278.1259	6.4
279.1213	1.8

Name: N-Arachidonoyl Lysine
PrecursorMZ: 431.32764
RT: 7.7061
ExactMass: 432.33519327
Spectrum_type: 2
charge: -1
Formula: C26H44N2O3
SMILES: CCCCC/C=C/C/C=C/C/C=C/C/C=C/CCCC(=O)NC(CCCCN)C(=O)O
Method: HCD
Collision_energy: [28.333334]
Isolation_window: 4.0
Ion_mode: N
Num Peaks: 8
145.0287	3.2
145.0974	53.8
146.1010	4.1
163.0754	2.4
331.2274	5.2
431.3274	100.0
432.3309	27.5
433.3371	22.9

Name: N-Dodecanoyl-L-isoleucine
PrecursorMZ: 312.25451
RT: 8.469899999999999
ExactMass: 313.26169398
Spectrum_type: 2
charge: -1
Formula: C18H35NO3
SMILES: CCCCCCCCCCCC(=O)N[C@@H]([C@@H](C)CC)C(=O)O
Method: HCD
Collision_energy: [28.333334]
Isolation_window: 4.0
Ion_mode: N
Num Peaks: 8
130.0865	100.0
131.0900	5.8
268.2646	7.4
269.2682	1.3
311.1686	21.3
312.1766	4.6
312.2543	78.5
313.2591	15.3

Name: N-Formyl-norleucyl-leucyl-phenylalanyl-methylester
PrecursorMZ: 432.25086
RT: 4.6043
ExactMass: 433.25767123
Spectrum_type: 2
charge: -1
Formula: C23H35N3O5
SMILES: CCCCC(C(=O)NC(CC(C)C)C(=O)NC(CC1=CC=CC=C1)C(=O)OC)NC=O
Method: HCD
Collision_energy: [28.333334]
Isolation_window: 4.0
Ion_mode: N
Num Peaks: 9
61.9874	17.4
328.2040	19.2
356.2340	42.6
400.2242	100.0
401.2274	23.0
432.1828	34.8
432.2484	14.2
433.1787	17.0
434.2090	17.5

Name: N-Linoleoyl Threonine
PrecursorMZ: 380.2807
RT: 8.5523
ExactMass: 381.28790873
Spectrum_type: 2
charge: -1
Formula: C22H39NO4
SMILES: CCCCC/C=C/C/C=C/CCCCCCCC(=O)NC(C(C)O)C(=O)O
Method: HCD
Collision_energy: [28.333334]
Isolation_window: 4.0
Ion_mode: N
Num Peaks: 15
74.0238	61.5
118.0500	12.5
219.1390	7.3
292.2650	5.1
318.2442	19.2
333.2433	11.0
335.2590	25.7
336.2553	40.1
337.2565	7.7
378.2351	4.9
379.2490	100.0
380.2434	5.7
380.2866	54.9
381.2385	14.1
381.2850	8.7

Name: N-Linoleoyl valine
PrecursorMZ: 378.30188
RT: 9.2504
ExactMass: 379.30864417
Spectrum_type: 2
charge: -1
Formula: C23H41NO3
SMILES: CCCCC/C=C\C/C=C\CCCCCCCC(=O)N[C@@H](C(C)C)C(=O)O
Method: HCD
Collision_energy: [28.333334]
Isolation_window: 4.0
Ion_mode: N
Num Peaks: 8
114.0914	3.5
116.0708	100.0
117.0743	4.4
334.3119	3.5
336.3279	2.2
378.3018	74.4
379.3048	19.5
380.3172	22.8

Name: N-Pentyl-3-((3,4,5-trimethoxyphenyl)formamido)propanamide
PrecursorMZ: 351.19302
RT: 8.0757
ExactMass: 352.199822
Spectrum_type: 2
charge: -1
Formula: C18H28N2O5
SMILES: CCCCCNC(=O)CCNC(=O)C1=CC(=C(C(=C1)OC)OC)OC
Method: HCD
Collision_energy: [28.333334]
Isolation_window: 4.0
Ion_mode: N
Num Peaks: 7
168.0299	9.4
170.1546	93.1
171.1580	9.7
214.1451	5.3
336.1697	20.4
351.1931	100.0
352.1970	20.9

Name: N-Stearoyl Threonine
PrecursorMZ: 384.3128
RT: 9.5401
ExactMass: 385.31920885
Spectrum_type: 2
charge: -1
Formula: C22H43NO4
SMILES: CCCCCCCCCCCCCCCCCC(=O)NC(C(C)O)C(=O)O
Method: HCD
Collision_energy: [28.333334]
Isolation_window: 4.0
Ion_mode: N
Num Peaks: 6
74.0240	82.9
118.0504	28.5
322.2764	30.4
340.2867	47.2
384.3133	100.0
385.3168	24.2

Name: N-Stearoyl glycine
PrecursorMZ: 340.28622
RT: 9.6856
ExactMass: 341.29299411
Spectrum_type: 2
charge: -1
Formula: C20H39NO3
SMILES: CCCCCCCCCCCCCCCCCC(=O)NCC(=O)O
Method: HCD
Collision_energy: [28.333334]
Isolation_window: 4.0
Ion_mode: N
Num Peaks: 7
74.0240	100.0
271.2284	7.3
296.2965	6.6
339.2009	34.9
340.2049	8.4
340.2864	74.6
341.2899	16.8

Name: N-docosanoylglycine
PrecursorMZ: 396.34865
RT: 10.731
ExactMass: 397.35559436
Spectrum_type: 2
charge: -1
Formula: C24H47NO3
SMILES: CCCCCCCCCCCCCCCCCCCCCC(=O)NCC(=O)O
Method: HCD
Collision_energy: [28.333334]
Isolation_window: 4.0
Ion_mode: N
Num Peaks: 6
68.9952	3.4
74.0239	100.0
97.4661	3.1
352.3596	6.3
396.3489	82.1
397.3525	21.6

Name: N-icosanoylglycinate
PrecursorMZ: 368.31735
RT: 10.2499
ExactMass: 368.3164692
Spectrum_type: 2
charge: -1
Formula: C22H42NO3-
SMILES: CCCCCCCCCCCCCCCCCCCC(=O)NCC(=O)[O-]
Method: HCD
Collision_energy: [28.333334]
Isolation_window: 4.0
Ion_mode: N
Num Peaks: 5
74.0239	100.0
97.4654	3.2
324.3276	6.8
368.3175	81.7
369.3209	23.0

Name: N-stearoyl phenylalanine
PrecursorMZ: 430.33288
RT: 10.376266666666668
ExactMass: 431.3399443
Spectrum_type: 2
charge: -1
Formula: C27H45NO3
SMILES: CCCCCCCCCCCCCCCCCC(=O)N[C@@H](CC1=CC=CC=C1)C(=O)O
Method: HCD
Collision_energy: [28.333334]
Isolation_window: 4.0
Ion_mode: N
Num Peaks: 29
90.9326	9.6
116.0495	2.3
140.0498	4.5
197.0478	8.3
283.2643	23.0
284.2670	5.0
316.2645	16.3
317.2671	3.1
328.2641	2.1
341.2150	18.9
342.2181	4.6
369.1585	2.1
371.1896	5.0
373.1908	10.0
373.2744	14.6
374.2790	3.2
385.2046	12.3
386.2102	3.2
386.3432	39.6
387.3468	12.2
402.2811	2.1
429.1954	11.2
430.2062	2.0
430.2758	23.9
430.3334	100.0
431.2786	3.3
431.3351	30.8
432.2900	3.0
432.3463	2.5

Name: N-stearoyl tryptophan
PrecursorMZ: 469.34371
RT: 10.0685
ExactMass: 470.35084333
Spectrum_type: 2
charge: -1
Formula: C29H46N2O3
SMILES: CCCCCCCCCCCCCCCCCC(=O)N[C@@H](CC1=CNC2=CC=CC=C21)C(=O)O
Method: HCD
Collision_energy: [28.333334]
Isolation_window: 4.0
Ion_mode: N
Num Peaks: 17
52.1506	4.3
74.0238	36.4
116.0496	11.1
159.0917	3.6
203.0821	55.8
204.0854	5.7
282.2804	3.7
294.2797	3.9
296.2959	2.5
322.2751	12.2
323.2783	2.9
340.2856	18.7
341.2893	3.9
425.3545	5.8
469.3436	100.0
470.3469	30.7
471.3570	3.5

PrecursorMZ: 237.11656
RT: 6.3156
Spectrum_type: 2
charge: -1
SMILES: N=c1ccn([C@@H]2O[C@H](COP(=O)(O)O)[C@@H](O)[C@H]2O)c(O)n1
Method: HCD
Collision_energy: [28.333334]
Isolation_window: 4.0
Ion_mode: N
Num Peaks: 3
96.9593	43.2
237.1166	100.0
238.1200	8.7

Name: Nonadecylresorcinol glucuronide
PrecursorMZ: 551.35948
RT: 9.9054
ExactMass: 552.36621861
Spectrum_type: 2
charge: -1
Formula: C31H52O8
SMILES: CCCCCCCCCCCCCCCCCCCC1=CC(=CC(=C1)O[C@H]2[C@@H]([C@H]([C@@H]([C@H](O2)C(=O)O)O)O)O)O
Method: HCD
Collision_energy: [28.333334]
Isolation_window: 4.0
Ion_mode: N
Num Peaks: 24
59.0130	14.8
61.2604	2.2
61.2640	4.2
71.0129	10.6
72.9922	3.0
75.0078	15.9
85.0286	41.0
87.0079	7.4
89.0235	5.8
95.0129	12.1
99.0078	17.4
103.0027	6.8
113.0236	81.6
114.0269	4.3
115.0029	5.1
117.0185	10.6
129.0185	6.4
157.0136	2.5
175.0242	20.7
375.3271	56.1
376.3304	14.3
551.3597	100.0
552.3633	29.0
553.3666	2.6

Name: N~1~,N~1'~-(Ethane-1,2-diyl)bis(N~1~-butyl-N~3~,N~3~-diethylpiperidine-1,3-dicarboxamide)
PrecursorMZ: 591.46118
RT: 9.5758
ExactMass: 592.46760442
Spectrum_type: 2
charge: -1
Formula: C32H60N6O4
SMILES: CCCCN(CCN(CCCC)C(=O)N1CCCC(C1)C(=O)N(CC)CC)C(=O)N2CCCC(C2)C(=O)N(CC)CC
Method: HCD
Collision_energy: [28.333334]
Isolation_window: 4.0
Ion_mode: N
Num Peaks: 15
65.7201	4.3
78.9583	3.3
152.9949	6.6
211.1331	22.2
488.2215	6.0
503.2441	3.9
547.2340	7.4
573.4515	7.9
589.4443	4.0
590.4558	11.6
591.3868	9.5
591.4628	100.0
592.3891	3.6
592.4676	31.8
593.4769	8.5

Name: OxPS 34:0+2O
PrecursorMZ: 794.51941
RT: 10.6548
ExactMass: 795.52616392
Spectrum_type: 2
charge: -1
Formula: C40H78NO12P
SMILES: CCCCCCCCCCCCCCCC(=O)OCC(COP(=O)(O)OCC(C(=O)O)N)OC(=O)CCCCCCCCCC(C(CCCCCC)O)O
Method: HCD
Collision_energy: [28.333334]
Isolation_window: 4.0
Ion_mode: N
Num Peaks: 14
61.9875	45.0
78.9582	100.0
96.9688	29.6
241.0118	43.4
259.0223	22.6
366.2418	30.3
380.2576	35.9
381.2613	7.2
528.2953	11.5
542.3105	34.9
543.3112	7.8
794.5196	84.7
795.5231	37.3
796.5356	55.0

Name: Oxirane, 2,2',2''-(ethylidynetris(4,1-phenyleneoxymethylene))tris-
PrecursorMZ: 473.19509
RT: 8.4122
ExactMass: 474.20423867
Spectrum_type: 2
charge: -1
Formula: C29H30O6
SMILES: CC(C1=CC=C(C=C1)OCC2CO2)(C3=CC=C(C=C3)OCC4CO4)C5=CC=C(C=C5)OCC6CO6
Method: HCD
Collision_energy: [28.333334]
Isolation_window: 4.0
Ion_mode: N
Num Peaks: 6
93.0333	11.4
178.0624	23.2
296.1040	55.8
311.1275	23.0
473.1956	100.0
474.1993	26.7

Name: Paeonenoide C
PrecursorMZ: 441.30101
RT: 8.9527
ExactMass: 442.30830982
Spectrum_type: 2
charge: -1
Formula: C28H42O4
SMILES: C[C@]12CC[C@@H]([C@@]([C@@H]1CC[C@@]3([C@@H]2CC=C4[C@]3(CC[C@@]5([C@H]4CC(=C)CC5)C(=O)O)C)C)(C)O)O
Method: HCD
Collision_energy: [28.333334]
Isolation_window: 4.0
Ion_mode: N
Num Peaks: 5
379.3013	23.6
397.3110	36.2
423.2905	27.9
441.3012	100.0
442.3048	26.7

Name: Palmitoyl Isoleucine
PrecursorMZ: 368.31729
RT: 9.67065
ExactMass: 369.32429423
Spectrum_type: 2
charge: -1
Formula: C22H43NO3
SMILES: CCCCCCCCCCCCCCCC(=O)N[C@@H]([C@@H](C)CC)C(=O)O
Method: HCD
Collision_energy: [28.333334]
Isolation_window: 4.0
Ion_mode: N
Num Peaks: 6
116.0708	14.3
130.0864	93.8
131.0899	4.7
324.3271	8.0
368.3170	100.0
369.3204	22.5

Name: Pandaroside D
PrecursorMZ: 577.37486
RT: 9.9941
ExactMass: 578.38186868
Spectrum_type: 2
charge: -1
Formula: C33H54O8
SMILES: C[C@H](CC(=O)CC(C)C)[C@H]1CC[C@H]2[C@@]1(CC[C@H]3[C@H]2CC[C@@H]4[C@@]3(CC[C@@H](C4)O[C@H]5[C@H](C([C@@H](C(O5)C(=O)O)O)O)O)C)C
Method: HCD
Collision_energy: [28.333334]
Isolation_window: 4.0
Ion_mode: N
Num Peaks: 24
59.0130	14.2
61.9875	3.2
64.1547	4.0
71.0129	11.0
72.9923	3.4
75.0078	17.1
85.0285	39.5
87.0078	7.7
89.0234	4.9
95.0129	11.5
99.0078	16.3
103.0027	7.1
113.0235	75.4
114.0269	3.3
115.0028	4.6
117.0184	11.2
129.0185	6.5
157.0139	3.2
175.0242	18.1
401.3426	58.7
402.3460	15.5
577.3747	100.0
578.3776	33.2
579.3868	4.0

Name: Putative (3-hydroxyheptadecanoyl)glycine
PrecursorMZ: 342.26474
RT: 8.453785714285715
ExactMass: 343.27225866
Spectrum_type: 2
charge: -1
Formula: C19H37NO4
SMILES: CCCCCCCCCCCCCCC(CC(=O)NCC(=O)O)O
Method: HCD
Collision_energy: [28.333334]
Isolation_window: 4.0
Ion_mode: N
Num Peaks: 3
74.0240	100.0
116.0348	61.7
342.2661	63.0

Name: Ricinoleic acid dimer
PrecursorMZ: 577.48151
RT: 11.1119
ExactMass: 578.4910252
Spectrum_type: 2
charge: -1
Formula: C36H66O5
SMILES: CCCCCCC(OC(C/C=C/CCCCCCCC(=O)O)CCCCCC)C/C=C/CCCCCCCC(=O)O
Method: HCD
Collision_energy: [28.333334]
Isolation_window: 4.0
Ion_mode: N
Num Peaks: 42
64.1626	1.7
64.1665	4.1
69.0054	2.7
97.4667	2.2
171.1017	2.1
183.1377	36.0
184.1409	3.4
195.1372	2.3
223.1691	3.7
277.2161	9.4
278.2190	2.7
279.2318	23.9
280.2353	7.0
281.2473	14.9
282.2507	7.6
293.2110	6.4
294.2144	3.1
295.2266	18.8
296.2302	6.4
297.2422	81.0
298.2457	14.2
299.2578	35.1
300.2612	5.6
514.4698	3.4
515.4796	5.6
516.4839	2.2
532.4798	2.8
533.4921	16.2
534.4952	5.5
558.4594	3.4
559.4713	20.2
560.4747	6.6
575.4661	16.4
576.4703	42.5
577.4128	10.1
577.4825	100.0
577.4918	14.5
578.4158	3.4
578.4861	31.9
578.4965	5.7
579.4331	19.1
579.4996	7.3

Name: Sodium
PrecursorMZ: 213.1493
RT: 7.156
ExactMass: 22.98976928
Spectrum_type: 2
charge: -1
SMILES: [Na]
Method: HCD
Collision_energy: [28.333334]
Isolation_window: 4.0
Ion_mode: N
Num Peaks: 7
71.0493	16.2
169.1591	59.6
186.8969	14.8
213.1492	100.0
213.9643	11.7
214.1533	12.1
215.0094	66.3

Name: Sphingosinsulfat
PrecursorMZ: 375.18495
RT: 7.6284
ExactMass: 393.21850901
Spectrum_type: 2
charge: -1
Formula: C18H35NO6S
SMILES: CCCCCCCCCCCCC/C=C/[C@H]([C@@H](C1(OS(=O)(=O)O1)O)N)O
Method: HCD
Collision_energy: [28.333334]
Isolation_window: 4.0
Ion_mode: N
Num Peaks: 10
96.9591	100.0
98.9550	2.1
164.0380	1.9
266.2488	3.8
295.2277	3.7
374.2373	8.3
375.1848	29.6
375.2363	1.5
376.1877	6.3
377.2002	7.5

Name: Spinacoside D
PrecursorMZ: 763.39175
RT: 7.2639
ExactMass: 764.39830658
Spectrum_type: 2
charge: -1
Formula: C40H60O14
SMILES: C[C@]12CC[C@@H](C([C@@H]1CC[C@@]3([C@@H]2CC=C4[C@]3(CC[C@@]5([C@H]4CC(CC5)(C)C)C(=O)O)C)C)(C)C)O[C@H]6[C@@H]([C@H]([C@@H]([C@H](O6)C(=O)O)O)O[C@@H](C(=O)O)OCC(=O)O)O
Method: HCD
Collision_energy: [28.333334]
Isolation_window: 4.0
Ion_mode: N
Num Peaks: 13
72.9922	35.9
75.0078	42.1
85.0286	7.6
103.0028	28.2
113.0235	7.2
130.9978	89.7
152.9954	7.7
325.1842	18.0
631.3857	41.1
632.3882	15.3
763.3920	100.0
764.3944	41.9
765.3970	8.0

Name: Striatisporin A
PrecursorMZ: 253.10806
RT: 2.6564
ExactMass: 254.11542367
Spectrum_type: 2
charge: -1
Formula: C13H18O5
SMILES: C[C@@H]([C@H](/C(=C/C=C/C(=C/C(=O)O)/C)/C)O)C(=O)O
Method: HCD
Collision_energy: [28.333334]
Isolation_window: 4.0
Ion_mode: N
Num Peaks: 14
72.9922	13.0
88.0394	11.3
88.9870	13.2
100.0029	10.1
113.0712	9.0
147.0808	10.1
149.0962	12.5
173.0964	38.5
191.1071	26.0
208.9536	35.5
210.1242	31.8
253.1078	100.0
254.0530	12.6
254.1136	45.9

Name: Tert-butyl 2-((6-((bis(2-((2-methylpropan-2-yl)oxy)-2-oxoethyl)amino)methyl)-4-chloro-2-pyridinyl)methyl-(2-((2-methylpropan-2-yl)oxy)-2-oxoethyl)amino)acetate
PrecursorMZ: 626.3203
RT: 6.5513
ExactMass: 627.3286433
Spectrum_type: 2
charge: -1
Formula: C31H50ClN3O8
SMILES: CC(C)(C)OC(=O)CN(CC1=CC(=CC(=N1)CN(CC(=O)OC(C)(C)C)CC(=O)OC(C)(C)C)Cl)CC(=O)OC(C)(C)C
Method: HCD
Collision_energy: [28.333334]
Isolation_window: 4.0
Ion_mode: N
Num Peaks: 11
61.9876	54.6
243.1505	12.3
245.1657	10.0
271.1459	8.4
273.1612	16.6
291.1721	13.0
302.1635	8.6
307.1662	16.5
563.3248	100.0
564.3281	30.9
625.3588	8.7

Name: Thr-Thr-Pro
PrecursorMZ: 299.12481
RT: 1.9433
ExactMass: 317.15868546
Spectrum_type: 2
charge: -1
Formula: C13H23N3O6
SMILES: C[C@H]([C@@H](C(=O)N[C@@H]([C@@H](C)O)C(=O)N1CCC[C@@H]1C(=O)O)N)O
Method: HCD
Collision_energy: [28.333334]
Isolation_window: 4.0
Ion_mode: N
Num Peaks: 10
59.0129	5.9
71.0129	16.5
88.9871	4.3
112.0395	33.7
114.0551	100.0
115.0585	5.6
181.0974	4.7
184.0609	14.1
299.1248	90.0
300.1289	12.1

Name: Vitamin K1 Impurity 45
PrecursorMZ: 449.3427
RT: 11.9422
ExactMass: 450.349780706
Spectrum_type: 2
charge: -1
Formula: C31H46O2
SMILES: CC1=C(C(=O)C2=CC=CC=C2C1=O)C/C=C(/C)\CCCC(C)CCCC(C)CCCC(C)C
Method: HCD
Collision_energy: [28.333334]
Isolation_window: 4.0
Ion_mode: N
Num Peaks: 29
50.0372	1.1
50.0400	2.4
171.0445	1.8
172.0521	3.8
185.0602	15.4
186.0634	1.4
195.0444	1.3
196.0523	3.5
197.0592	0.9
198.0679	1.2
208.0527	1.2
209.0600	2.5
210.0669	1.4
222.0679	1.0
223.0759	3.5
224.0832	2.3
225.0913	1.1
237.0912	1.6
238.0996	18.7
239.1031	3.0
255.0659	2.0
431.3318	1.0
434.3191	54.6
435.3225	16.9
436.3254	2.2
448.3330	1.2
449.3426	100.0
450.3481	62.3
451.3524	11.2

Name: alpha-Ketosuberate
PrecursorMZ: 187.06081
RT: 2.3463
ExactMass: 186.05282342
Spectrum_type: 2
charge: -1
Formula: C8H10O5-2
SMILES: C(CCC(=O)C(=O)[O-])CCC(=O)[O-]
Method: HCD
Collision_energy: [28.333334]
Isolation_window: 4.0
Ion_mode: N
Num Peaks: 17
59.0130	41.4
72.9922	6.6
86.0239	8.1
97.0650	12.2
98.0238	8.0
99.0806	65.4
115.0392	57.6
125.0600	39.4
127.0756	20.6
143.0706	100.0
144.0447	41.3
144.0743	7.9
151.0391	6.5
169.0498	20.9
187.0606	51.4
187.1095	7.7
189.0763	91.1

Name: cyclo(D-N(Me)Ala-Sar-Phe-D-N(Me)Leu-N(Me)Leu-Tyr)
PrecursorMZ: 702.38788
RT: 6.3954
ExactMass: 720.42104815
Spectrum_type: 2
charge: -1
Formula: C39H56N6O7
SMILES: C[C@@H]1C(=O)N(CC(=O)N[C@H](C(=O)N([C@@H](C(=O)N([C@H](C(=O)N[C@H](C(=O)N1C)CC2=CC=C(C=C2)O)CC(C)C)C)CC(C)C)C)CC3=CC=CC=C3)C
Method: HCD
Collision_energy: [28.333334]
Isolation_window: 4.0
Ion_mode: N
Num Peaks: 14
119.0494	5.1
144.1134	12.1
166.1230	7.3
170.0928	10.5
180.0660	21.6
228.1496	5.1
264.1718	11.4
272.1396	8.1
290.1512	5.0
308.1617	20.8
310.1920	7.3
702.3880	100.0
703.3904	42.2
704.3945	5.4

Name: cyclo(DL-Leu-ObAla(3-hex-2-yl)-DL-Trp-DL-Phe)
PrecursorMZ: 601.34025
RT: 6.4128
ExactMass: 602.34682058
Spectrum_type: 2
charge: -1
Formula: C35H46N4O5
SMILES: CCCCC(C)C1CC(=O)NC(C(=O)NC(C(=O)NC(C(=O)O1)CC(C)C)CC2=CC=CC=C2)CC3=CNC4=CC=CC=C43
Method: HCD
Collision_energy: [28.333334]
Isolation_window: 4.0
Ion_mode: N
Num Peaks: 10
61.9874	100.0
243.1500	40.2
245.1658	42.7
390.2548	54.8
391.2577	14.9
515.3391	62.6
516.3417	19.6
559.3309	36.2
601.3395	83.2
602.3443	29.8

Name: cyclo(Dap-Ser-Gly-ObAla(2R-Me,3R-hexyl)-N(Me)Leu-aIle)
PrecursorMZ: 639.41159
RT: 10.2275
ExactMass: 640.41596277
Spectrum_type: 2
charge: -1
Formula: C31H56N6O8
SMILES: CCCCCC[C@@H]1[C@H](C(=O)N([C@H](C(=O)N[C@H](C(=O)N[C@H](C(=O)N[C@H](C(=O)NCC(=O)O1)CO)CN)[C@H](C)CC)CC(C)C)C)C
Method: HCD
Collision_energy: [28.333334]
Isolation_window: 4.0
Ion_mode: N
Num Peaks: 22
70.9366	4.0
152.9944	15.0
171.1376	9.3
172.1411	3.1
185.1532	28.5
186.1564	9.7
199.1689	34.2
200.1722	12.9
213.1844	4.9
214.1884	2.1
227.2002	100.0
228.2036	44.3
229.2063	4.2
241.2159	82.1
242.2193	39.6
243.2226	4.2
255.2316	22.8
256.2350	12.4
637.4062	40.1
638.4095	91.0
639.4122	21.7
640.4146	2.6

Name: enkephalin-Leu, Ala(2)-Me-Phe(4)-
PrecursorMZ: 565.26702
RT: 6.442
ExactMass: 583.30059866
Spectrum_type: 2
charge: -1
Formula: C30H41N5O7
SMILES: C[C@H](C(=O)OC(=O)[C@H](CC(C)C)NC(=O)[C@H](CC1=CC=CC=C1)NC(=O)CNC)NC(=O)[C@H](CC2=CC=C(C=C2)O)N
Method: HCD
Collision_energy: [28.333334]
Isolation_window: 4.0
Ion_mode: N
Num Peaks: 41
62.8094	4.1
73.0398	5.2
74.0238	6.8
83.0243	2.2
96.9591	2.2
99.0191	8.7
119.0494	3.5
142.1229	8.9
162.0555	4.1
163.0394	2.6
180.0660	18.9
193.0978	3.2
197.0714	3.1
199.1449	3.6
200.0825	3.0
200.1288	6.2
201.0668	6.7
219.0775	7.9
237.0880	11.6
240.0777	25.3
241.0815	2.6
253.0859	7.5
254.0936	6.2
257.1505	3.5
321.1243	6.3
326.1861	2.4
350.1513	16.9
351.1541	3.0
365.1130	4.8
366.1824	3.9
377.1625	6.6
382.1408	2.9
547.2554	7.7
563.3660	9.1
564.3548	4.4
565.2665	100.0
565.3656	14.2
566.2677	30.8
566.3680	4.4
567.2974	6.2
567.3862	7.3

Name: gamma-Ureidonorvaline
PrecursorMZ: 157.06117
RT: 1.4102
ExactMass: 175.09569129
Spectrum_type: 2
charge: -1
Formula: C6H13N3O3
SMILES: C(C[C@@H](C(=O)[O-])[NH3+])CNC(=O)N
Method: HCD
Collision_energy: [28.333334]
Isolation_window: 4.0
Ion_mode: N
Num Peaks: 6
86.0238	8.7
87.0077	6.9
88.9871	6.2
114.0552	100.0
115.0585	5.3
130.9827	5.0

Name: methyl (2S)-4-methylsulfanyl-2-(((4R)-4-((3R,5S,7R,8R,9S,10S,12S,13R,14S,17R)-3,7,12-trihydroxy-10,13-dimethyl-2,3,4,5,6,7,8,9,11,12,14,15,16,17-tetradecahydro-1H-cyclopenta(a)phenanthren-17-yl)pentanoyl)amino)butanoate
PrecursorMZ: 552.33804
RT: 6.486
ExactMass: 553.34370952
Spectrum_type: 2
charge: -1
Formula: C30H51NO6S
SMILES: C[C@H](CCC(=O)N[C@@H](CCSC)C(=O)OC)[C@H]1CC[C@@H]2[C@@]1([C@H](C[C@H]3[C@H]2[C@@H](C[C@H]4[C@@]3(CC[C@H](C4)O)C)O)O)C
Method: HCD
Collision_energy: [28.333334]
Isolation_window: 4.0
Ion_mode: N
Num Peaks: 4
69.1430	29.1
72.0447	72.0
162.0590	100.0
552.3362	72.5

Name: methyl (2S,4S,5R,6R)-5-(hexadecanoylamino)-2,4-dihydroxy-6-((1R,2R)-1,2,3-trihydroxypropyl)oxane-2-carboxylate
PrecursorMZ: 518.33368
RT: 7.7739
ExactMass: 519.34073214
Spectrum_type: 2
charge: -1
Formula: C26H49NO9
SMILES: CCCCCCCCCCCCCCCC(=O)N[C@@H]1[C@H](C[C@](O[C@H]1[C@@H]([C@@H](CO)O)O)(C(=O)OC)O)O
Method: HCD
Collision_energy: [28.333334]
Isolation_window: 4.0
Ion_mode: N
Num Peaks: 47
59.0129	24.8
60.0163	0.6
71.0129	1.1
79.9564	1.2
83.0129	0.7
84.0446	1.8
89.0235	1.0
96.9591	2.5
100.0394	4.3
101.0235	1.7
102.0551	1.0
112.0395	1.9
113.0235	1.6
114.0550	0.6
119.0340	1.0
126.0552	0.8
132.0658	6.7
138.0553	0.8
142.0502	0.6
143.0342	2.9
154.0503	0.6
156.0659	1.7
168.0660	1.6
174.0765	2.2
186.0765	0.7
198.0766	0.8
202.0716	4.7
210.0772	1.1
216.0874	0.8
234.0981	24.7
235.1014	2.1
241.1657	0.6
241.2170	100.0
241.2684	0.7
242.2204	14.3
243.2230	0.8
276.1087	27.4
277.1121	3.0
294.1195	13.1
295.1226	1.5
517.2617	1.2
517.3247	0.7
518.3323	7.4
519.2593	1.3
519.3182	5.1
520.2554	1.8
520.3283	0.8

Name: methyl (4R)-4-((3R,5R,6S,7S,8R,9S,10R,12S,13R,14S,17R)-3,6,7,12-tetrahydroxy-10,13-dimethyl-2,3,4,5,6,7,8,9,11,12,14,15,16,17-tetradecahydro-1H-cyclopenta(a)phenanthren-17-yl)pentanoate
PrecursorMZ: 437.29032
RT: 7.1373
ExactMass: 438.29813906
Spectrum_type: 2
charge: -1
Formula: C25H42O6
SMILES: C[C@H](CCC(=O)OC)[C@H]1CC[C@@H]2[C@@]1([C@H](C[C@H]3[C@H]2[C@@H]([C@H]([C@H]4[C@@]3(CC[C@H](C4)O)C)O)O)O)C
Method: HCD
Collision_energy: [28.333334]
Isolation_window: 4.0
Ion_mode: N
Num Peaks: 6
389.2697	8.0
390.2726	6.5
391.2852	100.0
392.2888	24.9
409.2957	26.0
410.2994	6.6

Name: methyl (4R)-4-((3R,5S,8R,9S,10S,13R,14S,17R)-3-amino-3,7,7,12,12-pentahydroxy-10,13-dimethyl-1,2,4,5,6,8,9,11,14,15,16,17-dodecahydrocyclopenta(a)phenanthren-17-yl)pentanoate
PrecursorMZ: 451.27051
RT: 5.651
ExactMass: 469.30395271
Spectrum_type: 2
charge: -1
Formula: C25H43NO7
SMILES: C[C@H](CCC(=O)OC)[C@H]1CC[C@@H]2[C@@]1(C(C[C@H]3[C@H]2C(C[C@H]4[C@@]3(CC[C@@](C4)(N)O)C)(O)O)(O)O)C
Method: HCD
Collision_energy: [28.333334]
Isolation_window: 4.0
Ion_mode: N
Num Peaks: 15
59.0129	13.7
87.0443	8.0
405.2647	50.2
406.2683	12.0
407.2815	16.6
409.3005	8.4
433.2595	11.6
435.2801	11.4
449.2557	11.1
449.3057	7.5
450.2509	12.9
451.2733	100.0
452.2758	26.2
453.2401	10.2
453.2946	88.3

Name: methyl (4R)-4-((3R,5S,8S,9S,10S,13R,14S,17R)-3-acetyloxy-10,13-dimethyl-11-oxo-1,2,3,4,5,6,7,8,9,12,14,15,16,17-tetradecahydrocyclopenta(a)phenanthren-17-yl)-2-sulfinylpentanoate
PrecursorMZ: 491.24699
RT: 8.3884
ExactMass: 492.25456017
Spectrum_type: 2
charge: -1
Formula: C27H40O6S
SMILES: C[C@H](CC(=S=O)C(=O)OC)[C@H]1CC[C@@H]2[C@@]1(CC(=O)[C@H]3[C@H]2CC[C@@H]4[C@@]3(CC[C@H](C4)OC(=O)C)C)C
Method: HCD
Collision_energy: [28.333334]
Isolation_window: 4.0
Ion_mode: N
Num Peaks: 8
80.9642	6.6
96.9591	19.2
152.9949	10.1
255.2326	35.1
375.2903	10.8
491.2459	100.0
492.2456	23.1
493.3006	25.5

Name: methyl (4S)-4-((3S,5R,7R,8S,9R,10S,12R,13S,14R,17S)-7-acetyloxy-3,12-dihydroxy-10,13-dimethyl-2,3,4,5,6,7,8,9,11,12,14,15,16,17-tetradecahydro-1H-cyclopenta(a)phenanthren-17-yl)pentanoate
PrecursorMZ: 463.30725
RT: 7.5595
ExactMass: 464.31378912
Spectrum_type: 2
charge: -1
Formula: C27H44O6
SMILES: C[C@@H](CCC(=O)OC)[C@@H]1CC[C@H]2[C@]1([C@@H](C[C@@H]3[C@@H]2[C@@H](C[C@@H]4[C@@]3(CC[C@@H](C4)O)C)OC(=O)C)O)C
Method: HCD
Collision_energy: [28.333334]
Isolation_window: 4.0
Ion_mode: N
Num Peaks: 12
51.4771	1.9
51.4798	4.9
51.5913	1.4
73.0286	21.2
149.0603	5.0
363.2901	1.5
389.2701	10.9
390.2729	2.6
407.2804	4.4
463.3059	100.0
464.3086	28.3
465.3134	4.0

Name: methyl (Z)-3-((1R,2R,4S,7S,8S,11R,12S,16R)-7-(furan-3-yl)-1,8,15,15-tetramethyl-5,17,18-trioxo-3,6,14-trioxapentacyclo(9.7.0.02,4.02,8.012,16)octadecan-12-yl)prop-2-enoate
PrecursorMZ: 497.18231
RT: 8.59
ExactMass: 498.18898253
Spectrum_type: 2
charge: -1
Formula: C27H30O9
SMILES: C[C@@]12CC[C@H]3[C@]([C@@]14[C@H](O4)C(=O)O[C@H]2C5=COC=C5)(C(=O)C(=O)[C@@H]6[C@]3(COC6(C)C)/C=C\C(=O)OC)C
Method: HCD
Collision_energy: [28.333334]
Isolation_window: 4.0
Ion_mode: N
Num Peaks: 13
139.1115	28.9
171.9823	28.3
307.0985	16.5
309.1151	13.9
363.1962	10.6
405.1702	13.2
407.1876	100.0
408.1903	22.3
409.2036	34.4
451.1774	20.8
497.1752	70.0
498.1735	13.6
498.1790	16.8

Name: propionyl-DL-Tyr-DL-xiIle-DL-Phe-ol
PrecursorMZ: 482.26647
RT: 4.3078
ExactMass: 483.27332129
Spectrum_type: 2
charge: -1
Formula: C27H37N3O5
SMILES: CCC(C)C(C(=O)NC(CC1=CC=CC=C1)CO)NC(=O)C(CC2=CC=C(C=C2)O)NC(=O)CC
Method: HCD
Collision_energy: [28.333334]
Isolation_window: 4.0
Ion_mode: N
Num Peaks: 23
53.5866	4.7
93.0336	3.6
96.0081	3.3
98.0240	3.3
113.0349	3.6
115.0869	3.2
127.0505	3.4
157.0975	13.2
228.1715	20.0
263.1407	2.9
270.1821	6.2
292.2031	7.8
334.2138	43.7
335.2172	8.9
376.2245	24.2
377.2279	5.7
440.2564	4.3
481.2064	3.1
482.2045	5.4
482.2671	100.0
483.2098	3.0
483.2720	30.7
484.2664	13.3

Name: rac Enterodiol-d6
PrecursorMZ: 301.14457
RT: 4.7108
ExactMass: 308.18946965
Spectrum_type: 2
charge: -1
Formula: C18H22O4
SMILES: [2H]C1=CC(=C(C(=C1CC(CO)C(CC2=C(C(=C(C=C2[2H])[2H])O)[2H])CO)[2H])O)[2H]
Method: HCD
Collision_energy: [28.333334]
Isolation_window: 4.0
Ion_mode: N
Num Peaks: 11
107.0494	1.3
109.0649	1.1
241.1232	3.3
253.1233	30.9
254.1266	5.0
271.1340	9.8
272.1368	1.5
283.1337	1.9
301.1444	100.0
302.1478	20.2
303.1504	1.8

Name: tert-butyl N-((2R)-1-oxo-1-(((2S)-1-oxo-1-((1S,9R)-6-oxo-7,11-diazatricyclo(7.3.1.02,7)trideca-2,4-dien-11-yl)propan-2-yl)amino)-3-phenylpropan-2-yl)carbamate
PrecursorMZ: 507.26092
RT: 6.6853
ExactMass: 508.26857026
Spectrum_type: 2
charge: -1
Formula: C28H36N4O5
SMILES: C[C@@H](C(=O)N1C[C@H]2C[C@@H](C1)C3=CC=CC(=O)N3C2)NC(=O)[C@@H](CC4=CC=CC=C4)NC(=O)OC(C)(C)C
Method: HCD
Collision_energy: [28.333334]
Isolation_window: 4.0
Ion_mode: N
Num Peaks: 8
172.1085	11.4
214.1555	8.1
262.1558	10.6
401.2193	45.3
402.2227	10.9
507.2612	100.0
507.3704	9.5
508.2648	31.7

Name: triethyl-(2-(((2R)-3-hexadecanoyloxy-2-((9Z,11E)-13-hydroperoxyoctadeca-9,11-dienoyl)oxypropoxy)-hydroxyphosphoryl)oxyethyl)azanium
PrecursorMZ: 830.58965
RT: 9.7571
ExactMass: 832.60675997
Spectrum_type: 2
charge: -1
Formula: C45H87NO10P+
SMILES: CCCCCCCCCCCCCCCC(=O)OC[C@H](COP(=O)(O)OCC[N+](CC)(CC)CC)OC(=O)CCCCCCC/C=C\C=C\C(CCCCC)OO
Method: HCD
Collision_energy: [28.333334]
Isolation_window: 4.0
Ion_mode: N
Num Peaks: 6
279.2318	21.4
281.2476	100.0
282.2510	16.6
283.2637	8.0
770.5685	37.0
771.5711	18.0

Name: 1,3,7-Trimethyluric acid
PrecursorMZ: 209.06771
RT: 2.62841875
ExactMass: 210.07529019
Spectrum_type: 2
charge: -1
Formula: C8H10N4O3
SMILES: CN1C2=C(NC1=O)N(C(=O)N(C2=O)C)C
Method: HCD
Collision_energy: [28.333334]
Isolation_window: 4.0
Ion_mode: N
Num Peaks: 7
100.0394	7.2
102.0551	9.4
194.0439	19.9
208.0970	9.9
209.0459	9.0
209.0674	100.0
210.0727	11.0

Name: 1,3-Dimethyluric acid
PrecursorMZ: 195.05196
RT: 2.0255
ExactMass: 196.05964013
Spectrum_type: 2
charge: -1
Formula: C7H8N4O3
SMILES: CN1C2=C(C(=O)N(C1=O)C)NC(=O)N2
Method: HCD
Collision_energy: [28.333334]
Isolation_window: 4.0
Ion_mode: N
Num Peaks: 5
96.9593	9.2
108.0447	12.8
138.0553	15.1
152.0344	8.7
195.0517	100.0

Name: 1,5-Isoquinolinediol
PrecursorMZ: 160.0397
RT: 2.5032
ExactMass: 161.047678466
Spectrum_type: 2
charge: -1
Formula: C9H7NO2
SMILES: C1=CC2=C(C=CNC2=O)C(=C1)O
Method: HCD
Collision_energy: [28.333334]
Isolation_window: 4.0
Ion_mode: N
Num Peaks: 20
65.0136	5.0
65.9977	3.8
71.0130	3.6
74.0238	3.0
91.0293	5.4
107.0243	2.9
117.0341	3.6
118.0404	4.1
119.0246	4.2
131.0359	3.7
132.0448	9.1
132.0559	3.7
133.0400	6.7
133.0509	4.5
134.0351	9.6
159.0311	15.9
159.0667	6.8
160.0397	100.0
160.0505	3.9
161.0444	12.1

Name: 11-Keto-beta-boswellic acid
PrecursorMZ: 469.33071
RT: 9.1244
ExactMass: 470.33960994
Spectrum_type: 2
charge: -1
Formula: C30H46O4
SMILES: C[C@@H]1CC[C@@]2(CC[C@@]3(C(=CC(=O)[C@H]4[C@]3(CC[C@@H]5[C@@]4(CC[C@H]([C@]5(C)C(=O)O)O)C)C)[C@@H]2[C@H]1C)C)C
Method: HCD
Collision_energy: [28.333334]
Isolation_window: 4.0
Ion_mode: N
Num Peaks: 3
52.1492	4.4
469.3312	100.0
470.3347	32.4

Name: 12-Hydroxyoctadec-9-enoic acid
PrecursorMZ: 297.2434
RT: 8.252575
ExactMass: 298.25079494
Spectrum_type: 2
charge: -1
Formula: C18H34O3
SMILES: CCCCCCC(CC=CCCCCCCCC(=O)O)O
Method: HCD
Collision_energy: [28.333334]
Isolation_window: 4.0
Ion_mode: N
Num Peaks: 10
155.1068	4.9
183.1383	14.3
279.2327	9.4
295.2275	25.8
296.2309	15.8
297.1530	22.8
297.2431	100.0
298.1561	4.2
298.2466	20.0
299.2588	24.1

Name: 1H-Indole-3-propanoic acid
PrecursorMZ: 188.07119
RT: 5.145993333333333
ExactMass: 189.078978594
Spectrum_type: 2
charge: -1
Formula: C11H11NO2
SMILES: C1=CC=C2C(=C1)C(=CN2)CCC(=O)O
Method: HCD
Collision_energy: [28.333334]
Isolation_window: 4.0
Ion_mode: N
Num Peaks: 17
59.0129	100.0
99.9248	9.2
99.9482	11.0
100.9525	16.3
101.9509	5.3
115.9199	6.1
116.0496	37.1
141.8675	6.9
142.0654	27.7
143.9382	7.6
144.0810	10.4
144.9222	8.5
144.9420	6.3
160.0509	5.6
187.0969	6.3
188.0711	66.7
189.0754	8.6

Name: 2',4'-Dihydroxyacetophenone
PrecursorMZ: 151.03937
RT: 4.2623
ExactMass: 152.047344113
Spectrum_type: 2
charge: -1
Formula: C8H8O3
SMILES: CC(=O)C1=C(C=C(C=C1)O)O
Method: HCD
Collision_energy: [28.333334]
Isolation_window: 4.0
Ion_mode: N
Num Peaks: 24
63.0023	0.5
65.0136	0.5
65.9977	0.5
66.0340	0.5
67.0293	0.7
81.0448	0.6
82.0402	0.4
106.0403	1.0
106.0652	0.6
106.9922	2.1
107.0343	0.5
107.0493	100.0
107.0645	0.7
108.0525	7.1
109.0398	1.3
109.0648	1.1
110.0237	1.1
121.0286	0.5
123.0189	0.5
149.0607	0.7
150.0302	0.4
150.0663	0.5
151.0394	6.3
152.0440	0.7

Name: 2,2-Dimethylsuccinic acid
PrecursorMZ: 145.05063
RT: 2.5898666666666665
ExactMass: 146.0579088
Spectrum_type: 2
charge: -1
Formula: C6H10O4
SMILES: CC(C)(CC(=O)O)C(=O)O
Method: HCD
Collision_energy: [28.333334]
Isolation_window: 4.0
Ion_mode: N
Num Peaks: 4
101.0598	100.0
127.0391	7.8
144.0446	59.1
145.0497	36.0

Name: 2-Methylcitric acid
PrecursorMZ: 205.03499
RT: 0.9483
ExactMass: 206.04265265
Spectrum_type: 2
charge: -1
Formula: C7H10O7
SMILES: CC(C(=O)O)C(CC(=O)O)(C(=O)O)O
Method: HCD
Collision_energy: [28.333334]
Isolation_window: 4.0
Ion_mode: N
Num Peaks: 78
58.0289	7.3
59.0129	14.1
63.9617	3.7
69.0336	3.8
71.0130	15.8
71.0493	6.9
72.0082	3.5
72.9922	11.0
73.0287	8.5
74.0238	6.8
75.0078	9.2
79.9563	5.4
80.9642	4.4
84.0445	8.9
85.0285	14.5
86.0238	18.4
87.0078	27.2
88.0395	12.8
97.0284	5.0
98.0239	3.9
98.0602	23.3
99.0077	6.1
99.0442	26.1
100.0395	8.9
101.0235	21.8
102.0550	5.0
113.0234	9.2
114.0189	6.9
114.0550	4.8
115.0027	8.7
115.0392	15.3
116.0345	3.8
116.0709	6.3
117.0183	5.9
124.0761	3.5
125.0236	95.9
126.0269	6.3
127.0393	3.5
128.0345	4.9
129.0186	4.2
131.0342	7.8
132.0296	4.3
132.0658	4.1
135.0116	4.2
140.0709	11.4
141.0744	3.7
142.0501	19.9
142.0865	6.9
143.0343	14.5
143.0706	7.4
144.0289	4.3
145.0135	31.3
145.0499	15.6
146.0451	13.3
158.0816	28.7
160.0611	4.4
160.0972	10.2
161.0449	3.7
162.0771	3.7
164.0379	15.0
173.0926	3.6
186.0415	4.4
186.0767	57.9
187.0242	26.8
187.0608	8.4
187.0799	4.3
189.0399	6.7
191.0249	10.5
203.0557	6.6
203.0752	22.1
203.1025	4.6
204.0512	7.0
204.0875	100.0
205.0350	48.9
205.0714	26.5
205.0907	9.8
206.0500	18.9
207.0512	19.8

Name: 2H-Indol-2-one, 3-(1,3-dihydro-3-oxo-2H-indol-2-ylidene)-1,3-dihydro-
PrecursorMZ: 261.067
RT: 7.2669
ExactMass: 262.074227566
Spectrum_type: 2
charge: -1
Formula: C16H10N2O2
SMILES: C1=CC=C2C(=C1)C(=C(N2)O)C3=NC4=CC=CC=C4C3=O
Method: HCD
Collision_energy: [28.333334]
Isolation_window: 4.0
Ion_mode: N
Num Peaks: 3
141.0450	66.9
261.0669	100.0
262.0696	16.1

Name: 3'-Hydroxyphenylacetic acid
PrecursorMZ: 151.03945
RT: 3.175
ExactMass: 152.047344113
Spectrum_type: 2
charge: -1
Formula: C8H8O3
SMILES: C1=CC(=CC(=C1)O)CC(=O)O
Method: HCD
Collision_energy: [28.333334]
Isolation_window: 4.0
Ion_mode: N
Num Peaks: 41
65.0137	5.7
65.0388	3.1
65.9977	5.2
66.0341	6.6
67.0293	4.5
68.0134	4.4
81.0338	4.2
81.0450	5.3
82.0289	3.8
85.0287	8.5
91.0294	4.1
93.0338	13.9
95.0130	9.6
95.0243	4.7
95.0496	2.9
106.0402	3.5
106.9923	2.4
107.0495	47.7
108.0209	31.1
108.0447	37.5
108.0527	3.6
109.0287	100.0
109.0398	6.3
110.0240	9.9
121.0288	15.4
122.0354	4.3
123.0080	8.6
123.0194	6.1
123.0444	9.6
125.0349	5.6
135.0081	10.5
136.0160	3.4
139.0394	2.7
149.0238	4.7
150.0307	6.1
150.0555	4.2
151.0262	2.8
151.0396	49.1
152.0109	3.2
152.0443	6.4
153.0188	79.9

Name: 3,3-Dimethylglutaric acid
PrecursorMZ: 159.06561
RT: 2.6706
ExactMass: 160.07355886
Spectrum_type: 2
charge: -1
Formula: C7H12O4
SMILES: CC(C)(CC(=O)O)CC(=O)O
Method: HCD
Collision_energy: [28.333334]
Isolation_window: 4.0
Ion_mode: N
Num Peaks: 9
115.0756	57.9
116.0789	3.6
130.9829	1.4
141.0550	4.9
159.0656	25.1
159.1014	2.4
160.0397	100.0
160.0668	2.3
161.0434	7.1

Name: 3,4-Dihydroxybenzaldehyde
PrecursorMZ: 137.02349
RT: 2.7355
ExactMass: 138.031694049
Spectrum_type: 2
charge: -1
Formula: C7H6O3
SMILES: C1=CC(=C(C=C1C=O)O)O
Method: HCD
Collision_energy: [28.333334]
Isolation_window: 4.0
Ion_mode: N
Num Peaks: 8
93.0336	26.6
94.0288	11.8
123.0317	96.2
135.0447	8.5
137.0237	84.4
137.0347	5.8
138.0278	7.1
138.0553	100.0

Name: 3,4-Dimethylbenzoic acid
PrecursorMZ: 149.0601
RT: 5.6919
ExactMass: 150.068079557
Spectrum_type: 2
charge: -1
Formula: C9H10O2
SMILES: CC1=C(C=C(C=C1)C(=O)O)C
Method: HCD
Collision_energy: [28.333334]
Isolation_window: 4.0
Ion_mode: N
Num Peaks: 1
106.0403	100.0

Name: 3-(3'-Hydroxyphenyl)propionic acid
PrecursorMZ: 331.1187
RT: 3.6900166666666667
ExactMass: 166.062994177
Spectrum_type: 2
charge: -1
Formula: C9H10O3
SMILES: C1=CC(=CC(=C1)O)CCC(=O)O
Method: HCD
Collision_energy: [28.333334]
Isolation_window: 4.0
Ion_mode: N
Num Peaks: 7
119.0494	20.0
120.0528	1.6
121.0650	15.0
122.0682	1.2
165.0550	100.0
166.0583	9.7
183.0656	1.1

Name: 3-Hydroxyhippuric Acid
PrecursorMZ: 194.04541
RT: 2.2353
ExactMass: 195.05315777
Spectrum_type: 2
charge: -1
Formula: C9H9NO4
SMILES: C1=CC(=CC(=C1)O)C(=O)NCC(=O)O
Method: HCD
Collision_energy: [28.333334]
Isolation_window: 4.0
Ion_mode: N
Num Peaks: 11
93.0336	27.2
109.0399	4.5
123.0443	8.0
148.0397	5.7
150.0553	100.0
151.0394	33.5
151.0582	8.8
193.0496	8.7
194.0451	43.5
195.0289	20.3
195.0497	5.7

Name: 3-O-Acetyl-16a-hydroxytrametenolic acid
PrecursorMZ: 513.35666
RT: 9.2084
ExactMass: 514.36582469
Spectrum_type: 2
charge: -1
Formula: C32H50O5
SMILES: CC(=CCC[C@H]([C@H]1[C@@H](C[C@@]2([C@@]1(CCC3=C2CC[C@@H]4[C@@]3(CC[C@@H](C4(C)C)OC(=O)C)C)C)C)O)C(=O)O)C
Method: HCD
Collision_energy: [28.333334]
Isolation_window: 4.0
Ion_mode: N
Num Peaks: 7
57.0412	4.5
59.0127	4.9
495.3464	16.5
496.3508	4.8
513.3569	100.0
514.3603	32.9
515.3631	5.1

Name: 4-Hydroxycyclohexanecarboxylic acid
PrecursorMZ: 189.07693
RT: 1.0085
ExactMass: 144.078644241
Spectrum_type: 2
charge: -1
Formula: C7H12O3
SMILES: C1CC(CCC1C(=O)O)O
Method: HCD
Collision_energy: [28.333334]
Isolation_window: 4.0
Ion_mode: N
Num Peaks: 15
59.0129	24.6
87.0079	22.6
113.0235	19.8
116.0708	37.5
127.0756	71.6
129.0548	53.5
143.0703	20.7
144.0447	59.2
144.1022	64.2
157.0137	31.6
171.0292	18.9
171.0659	20.0
188.0923	63.1
189.0764	100.0
191.0559	37.8

Name: 6-Hydroxynicotinic acid
PrecursorMZ: 138.01875
RT: 0.9727
ExactMass: 139.026943022
Spectrum_type: 2
charge: -1
Formula: C6H5NO3
SMILES: C1=CC(=O)NC=C1C(=O)O
Method: HCD
Collision_energy: [28.333334]
Isolation_window: 4.0
Ion_mode: N
Num Peaks: 8
94.0289	100.0
95.0322	5.5
95.0492	5.5
123.0315	3.3
138.0188	27.3
138.0550	4.5
139.0391	4.6
139.0505	3.3

Name: Aceglutamide
PrecursorMZ: 187.07197
RT: 0.9495
ExactMass: 188.07970687
Spectrum_type: 2
charge: -1
Formula: C7H12N2O4
SMILES: CC(=O)N[C@@H](CCC(=O)N)C(=O)O
Method: HCD
Collision_energy: [28.333334]
Isolation_window: 4.0
Ion_mode: N
Num Peaks: 36
57.9748	1.5
59.0130	1.7
61.9875	4.0
71.0130	1.9
72.9923	1.7
73.0286	1.7
75.0079	1.4
84.0446	7.5
85.0286	5.5
97.0035	8.0
97.0287	1.5
98.0112	3.5
98.0240	2.6
99.0191	16.1
99.0441	1.4
111.0191	4.3
113.0348	3.6
119.9461	2.7
123.0445	1.4
125.0240	1.4
125.0348	9.6
126.0189	1.5
127.0393	2.0
127.0504	3.0
128.0344	1.4
142.0614	12.3
143.0657	1.5
144.0659	12.2
150.0417	2.2
151.0255	1.4
169.0612	3.9
185.0574	3.1
187.0076	1.7
187.0720	100.0
187.1063	2.5
188.0753	7.8

Name: Allothreonine, L-
PrecursorMZ: 118.04997
RT: 0.86294
ExactMass: 119.058243149
Spectrum_type: 2
charge: -1
Formula: C4H9NO3
SMILES: C[C@@H]([C@@H](C(=O)O)N)O
Method: HCD
Collision_energy: [28.333334]
Isolation_window: 4.0
Ion_mode: N
Num Peaks: 12
59.0129	9.5
71.0129	8.3
72.0081	74.8
72.9921	10.6
73.0285	45.9
74.0238	100.0
86.0238	7.7
98.0236	6.1
99.0078	7.3
116.0706	8.2
117.0185	10.0
118.0500	42.9

Name: Alpha-D-Glucose
PrecursorMZ: 179.0555
RT: 0.9065
ExactMass: 180.0633881
Spectrum_type: 2
charge: -1
Formula: C6H12O6
SMILES: C([C@@H]1[C@H]([C@@H]([C@H]([C@H](O1)O)O)O)O)O
Method: HCD
Collision_energy: [28.333334]
Isolation_window: 4.0
Ion_mode: N
Num Peaks: 16
59.0129	43.2
63.9615	22.9
71.0129	40.6
75.0079	7.0
78.9850	100.0
79.9565	4.3
80.9642	3.8
85.0286	4.8
89.0235	42.6
101.0235	8.8
113.0236	6.8
119.0342	4.1
122.0239	5.2
134.9872	13.1
165.9369	7.0
180.0329	23.7

Name: Alpha-Hydroxyhippuric acid
PrecursorMZ: 194.04523
RT: 2.4393
ExactMass: 195.05315777
Spectrum_type: 2
charge: -1
Formula: C9H9NO4
SMILES: C1=CC=C(C=C1)C(=O)NC(C(=O)O)O
Method: HCD
Collision_energy: [28.333334]
Isolation_window: 4.0
Ion_mode: N
Num Peaks: 8
91.0291	4.3
94.9920	4.9
108.0445	38.4
123.0553	6.0
150.0551	6.0
152.0345	100.0
153.0383	6.9
194.0451	37.3

Name: Bempedoic Acid
PrecursorMZ: 343.24756
RT: 6.9126
ExactMass: 344.25627424
Spectrum_type: 2
charge: -1
Formula: C19H36O5
SMILES: CC(C)(CCCCCC(CCCCCC(C)(C)C(=O)O)O)C(=O)O
Method: HCD
Collision_energy: [28.333334]
Isolation_window: 4.0
Ion_mode: N
Num Peaks: 9
269.2112	16.6
281.2470	21.5
295.2264	17.3
313.2376	22.5
325.2378	18.7
341.2318	12.8
343.2101	17.0
343.2475	100.0
344.2513	20.4

Name: Bortezomib
PrecursorMZ: 383.19023
RT: 5.2335
ExactMass: 384.1968855
Spectrum_type: 2
charge: -1
Formula: C19H25BN4O4
SMILES: B([C@H](CC(C)C)NC(=O)[C@H](CC1=CC=CC=C1)NC(=O)C2=NC=CN=C2)(O)O
Method: HCD
Collision_energy: [28.333334]
Isolation_window: 4.0
Ion_mode: N
Num Peaks: 14
79.9564	3.2
80.9643	6.9
95.9513	2.7
96.9592	11.4
130.0865	1.2
381.1758	2.8
381.2274	1.7
382.2263	1.9
383.1514	21.0
383.1906	100.0
384.1547	4.6
384.1939	22.6
385.1670	4.9
385.2054	18.0

Name: Castanospermine
PrecursorMZ: 188.09233
RT: 0.95389375
ExactMass: 189.10010796
Spectrum_type: 2
charge: -1
Formula: C8H15NO4
SMILES: C1CN2C[C@@H]([C@H]([C@@H]([C@H]2[C@H]1O)O)O)O
Method: HCD
Collision_energy: [28.333334]
Isolation_window: 4.0
Ion_mode: N
Num Peaks: 35
58.0289	1.1
59.0130	2.5
71.0130	2.3
72.0446	1.2
74.0238	1.9
84.0445	0.8
85.0285	1.5
88.0394	1.3
98.0238	1.2
102.0551	1.6
114.0552	5.6
115.0028	2.5
116.0708	100.0
117.0742	5.0
118.0501	1.6
126.0915	0.9
128.0345	1.4
128.0709	4.8
131.0818	10.9
132.0659	1.0
142.0502	2.8
142.0866	2.0
143.1182	4.0
144.0295	3.9
144.0660	1.8
145.0975	8.3
146.0819	1.4
158.0816	1.4
186.0763	1.2
187.1083	10.5
188.0202	0.9
188.0559	2.9
188.0923	2.7
190.0354	0.9
190.0717	2.9

Name: Chrysin
PrecursorMZ: 253.05079
RT: 6.54428
ExactMass: 254.0579088
Spectrum_type: 2
charge: -1
Formula: C15H10O4
SMILES: C1=CC=C(C=C1)C2=CC(=O)C3=C(C=C(C=C3O2)O)O
Method: HCD
Collision_energy: [28.333334]
Isolation_window: 4.0
Ion_mode: N
Num Peaks: 5
79.9564	2.4
251.1656	3.3
252.0720	2.1
253.0506	100.0
254.0539	16.2

Name: Citraconic acid
PrecursorMZ: 175.02396
RT: 1.256
ExactMass: 130.02660867
Spectrum_type: 2
charge: -1
Formula: C5H6O4
SMILES: C/C(=C/C(=O)O)/C(=O)O
Method: HCD
Collision_energy: [28.333334]
Isolation_window: 4.0
Ion_mode: N
Num Peaks: 24
58.0289	5.1
59.0130	5.9
69.0336	17.7
71.0129	3.8
87.0078	3.2
87.0441	21.4
88.0394	21.2
89.0234	11.5
101.0234	3.0
113.0234	13.8
114.0189	4.0
115.0026	3.7
115.0391	3.8
130.0500	8.6
130.0864	6.8
131.0340	7.9
156.0657	7.7
157.0134	100.0
158.0168	7.1
174.0402	6.3
174.0767	8.7
175.0241	12.3
175.0603	5.1
177.0406	3.2

Name: D-Arabitol
PrecursorMZ: 151.06026
RT: 0.8497
ExactMass: 152.06847348
Spectrum_type: 2
charge: -1
Formula: C5H12O5
SMILES: C([C@H](C([C@@H](CO)O)O)O)O
Method: HCD
Collision_energy: [28.333334]
Isolation_window: 4.0
Ion_mode: N
Num Peaks: 6
59.0129	40.7
71.0129	91.5
89.0234	100.0
101.0234	83.5
151.0604	65.9
152.0015	98.5

Name: D-Glutamic Acid
PrecursorMZ: 146.04495
RT: 0.8324125
ExactMass: 147.05315777
Spectrum_type: 2
charge: -1
Formula: C5H9NO4
SMILES: C(CC(=O)O)[C@H](C(=O)O)N
Method: HCD
Collision_energy: [28.333334]
Isolation_window: 4.0
Ion_mode: N
Num Peaks: 8
85.0286	1.8
102.0550	100.0
103.0584	5.1
118.0499	3.0
128.0344	44.5
129.0379	2.9
146.0450	23.6
147.0486	2.2

Name: Daidzein
PrecursorMZ: 253.05075
RT: 4.733423529411764
ExactMass: 254.0579088
Spectrum_type: 2
charge: -1
Formula: C15H10O4
SMILES: C1=CC(=CC=C1C2=COC3=C(C2=O)C=CC(=C3)O)O
Method: HCD
Collision_energy: [28.333334]
Isolation_window: 4.0
Ion_mode: N
Num Peaks: 28
91.0179	2.6
93.0335	0.3
119.0494	2.0
121.0288	1.4
133.0284	0.2
135.0080	10.9
148.0157	0.5
148.9702	0.2
148.9916	0.2
148.9990	0.7
149.0039	0.6
149.0237	100.0
149.0434	0.4
149.0487	0.8
149.0556	0.2
149.0841	0.3
153.0186	4.8
180.0063	0.3
253.0509	4.2
254.0544	0.8
254.9947	0.3
255.0106	0.7
255.0232	0.6
255.0663	99.5
255.1108	0.5
255.1221	0.7
255.1383	0.2
255.2017	0.2

Name: Daminozide
PrecursorMZ: 159.07682
RT: 0.8747142857142857
ExactMass: 160.08479225
Spectrum_type: 2
charge: -1
Formula: C6H12N2O3
SMILES: CN(C)NC(=O)CCC(=O)O
Method: HCD
Collision_energy: [28.333334]
Isolation_window: 4.0
Ion_mode: N
Num Peaks: 29
61.9874	3.1
71.0129	2.8
72.9921	3.8
75.0078	3.8
87.0556	2.1
88.0393	13.9
98.0600	2.2
100.0079	7.2
101.0041	29.1
102.9877	19.8
103.9886	2.3
115.0866	7.6
116.0029	2.9
116.9991	7.4
130.0160	2.1
130.9827	60.4
131.0123	2.6
131.9836	8.0
132.9799	6.2
158.0136	25.8
158.0255	2.9
158.0454	2.7
158.9806	2.6
159.0097	100.0
159.0653	14.5
159.0769	19.3
160.0131	4.7
160.0601	5.5
160.8416	2.4

Name: Deoxyguanosine
PrecursorMZ: 266.08884
RT: 1.2417500000000001
ExactMass: 267.09675391
Spectrum_type: 2
charge: -1
Formula: C10H13N5O4
SMILES: C1[C@@H]([C@H](O[C@H]1N2C=NC3=C2N=C(NC3=O)N)CO)O
Method: HCD
Collision_energy: [28.333334]
Isolation_window: 4.0
Ion_mode: N
Num Peaks: 15
61.9874	3.2
127.0504	14.9
133.0146	6.1
135.0304	5.8
140.0457	8.8
150.0413	100.0
151.0262	4.7
151.0458	4.4
154.0614	12.7
176.0572	10.9
197.0675	61.9
198.0709	4.4
266.0894	85.4
267.0718	4.7
267.0970	8.6

Name: Dihydrocaffeic Acid
PrecursorMZ: 181.05014
RT: 2.785
ExactMass: 182.0579088
Spectrum_type: 2
charge: -1
Formula: C9H10O4
SMILES: C1=CC(=C(C=C1CCC(=O)O)O)O
Method: HCD
Collision_energy: [28.333334]
Isolation_window: 4.0
Ion_mode: N
Num Peaks: 10
59.0130	54.3
109.0286	18.9
109.0650	10.4
119.0494	10.0
121.0286	18.4
135.0445	10.9
137.0600	100.0
138.0634	8.7
181.0500	76.3
182.0536	7.6

Name: Dihydroferulic Acid
PrecursorMZ: 195.06592
RT: 3.8084
ExactMass: 196.07355886
Spectrum_type: 2
charge: -1
Formula: C10H12O4
SMILES: COC1=C(C=CC(=C1)CCC(=O)O)O
Method: HCD
Collision_energy: [28.333334]
Isolation_window: 4.0
Ion_mode: N
Num Peaks: 10
61.9875	14.4
91.0292	10.8
123.0555	10.6
135.0446	42.7
136.0523	100.0
149.0601	21.1
151.0395	17.7
151.0758	82.2
168.0423	35.5
195.0662	37.9

Name: Docosanoic Acid
PrecursorMZ: 339.32524
RT: 11.3204
ExactMass: 340.334130642
Spectrum_type: 2
charge: -1
Formula: C22H44O2
SMILES: CCCCCCCCCCCCCCCCCCCCCC(=O)O
Method: HCD
Collision_energy: [28.333334]
Isolation_window: 4.0
Ion_mode: N
Num Peaks: 8
183.0105	3.3
339.1988	93.1
339.2317	1.4
339.3255	100.0
340.2019	18.9
340.3289	23.8
341.1998	3.4
341.3318	1.8

Name: E-64c
PrecursorMZ: 313.17702
RT: 5.2563
ExactMass: 314.18417193
Spectrum_type: 2
charge: -1
Formula: C15H26N2O5
SMILES: CC(C)CCNC(=O)[C@H](CC(C)C)NC(=O)[C@@H]1[C@H](O1)C(=O)O
Method: HCD
Collision_energy: [28.333334]
Isolation_window: 4.0
Ion_mode: N
Num Peaks: 23
79.9563	5.6
86.0238	4.9
96.9591	12.2
130.0864	43.5
138.0914	3.2
147.0806	5.4
149.0600	17.8
163.0757	8.6
182.0815	35.6
183.0852	3.6
197.1653	4.0
225.1607	10.8
225.1962	7.2
311.2228	3.0
313.1099	9.4
313.1461	6.7
313.1761	72.5
314.1193	63.9
314.1745	11.1
314.6207	21.4
315.1260	100.0
315.1601	55.6
315.2107	5.6

Name: Fuconic acid
PrecursorMZ: 209.02979
RT: 1.1045
ExactMass: 180.0633881
Spectrum_type: 2
charge: -1
Formula: C6H12O6
SMILES: CC(C(C(C(C(=O)O)O)O)O)O
Method: HCD
Collision_energy: [28.333334]
Isolation_window: 4.0
Ion_mode: N
Num Peaks: 1
191.0194	100.0

Name: Gemfibrozil
PrecursorMZ: 249.14939
RT: 7.7759
ExactMass: 250.15689456
Spectrum_type: 2
charge: -1
Formula: C15H22O3
SMILES: CC1=CC(=C(C=C1)C)OCCCC(C)(C)C(=O)O
Method: HCD
Collision_energy: [28.333334]
Isolation_window: 4.0
Ion_mode: N
Num Peaks: 13
69.0336	47.4
99.0077	9.0
112.9847	13.2
123.0807	16.7
137.0963	19.0
184.0011	42.7
205.1593	65.8
206.1629	10.0
248.0799	100.0
248.5813	28.8
249.0805	12.5
249.1495	45.1
250.1524	8.5

Name: Genistein
PrecursorMZ: 269.04588
RT: 5.4454714285714285
ExactMass: 270.05282342
Spectrum_type: 2
charge: -1
Formula: C15H10O5
SMILES: C1=CC(=CC=C1C2=COC3=CC(=CC(=C3C2=O)O)O)O
Method: HCD
Collision_energy: [28.333334]
Isolation_window: 4.0
Ion_mode: N
Num Peaks: 15
107.0130	1.0
117.0334	1.0
137.0239	1.4
149.0237	1.2
151.0031	5.1
165.0188	99.7
165.0475	0.7
225.0553	1.0
267.0301	2.4
268.0352	1.1
269.0459	48.3
269.1213	1.0
270.0495	7.8
271.0614	100.0
271.1226	0.7

Name: Ginkgolic acid
PrecursorMZ: 345.24319
RT: 10.338445945945946
ExactMass: 346.25079494
Spectrum_type: 2
charge: -1
Formula: C22H34O3
SMILES: CCCCCC/C=C\CCCCCCCC1=C(C(=CC=C1)O)C(=O)O
Method: HCD
Collision_energy: [28.333334]
Isolation_window: 4.0
Ion_mode: N
Num Peaks: 4
301.2535	100.0
302.2570	21.5
345.2435	78.0
346.2470	16.4

Name: Glutaric Acid
PrecursorMZ: 131.03443
RT: 1.4898
ExactMass: 132.04225873
Spectrum_type: 2
charge: -1
Formula: C5H8O4
SMILES: C(CC(=O)O)CC(=O)O
Method: HCD
Collision_energy: [28.333334]
Isolation_window: 4.0
Ion_mode: N
Num Peaks: 12
59.0130	4.1
65.0136	5.5
69.0336	10.8
86.0238	2.4
87.0441	100.0
88.0474	5.5
89.0135	3.5
103.0027	6.7
113.0235	9.8
130.0402	14.0
130.0865	6.3
131.0348	28.1

Name: Glyceric acid
PrecursorMZ: 105.01829
RT: 0.9276666666666666
ExactMass: 106.02660867
Spectrum_type: 2
charge: -1
Formula: C3H6O4
SMILES: C(C(C(=O)O)O)O
Method: HCD
Collision_energy: [28.333334]
Isolation_window: 4.0
Ion_mode: N
Num Peaks: 5
59.0129	18.9
72.9921	63.7
75.0078	22.2
105.0183	100.0
106.0401	23.5

Name: Glyceryl 1-phosphate
PrecursorMZ: 343.0197
RT: 0.8464499999999999
ExactMass: 172.013675
Spectrum_type: 2
charge: -1
Formula: C3H9O6P
SMILES: C(C(COP(=O)(O)O)O)O
Method: HCD
Collision_energy: [28.333334]
Isolation_window: 4.0
Ion_mode: N
Num Peaks: 2
78.9581	40.4
171.0057	100.0

Name: Hederagenin
PrecursorMZ: 471.34654
RT: 7.7709
ExactMass: 472.35526001
Spectrum_type: 2
charge: -1
Formula: C30H48O4
SMILES: C[C@]12CC[C@@H]([C@@]([C@@H]1CC[C@@]3([C@@H]2CC=C4[C@]3(CC[C@@]5([C@H]4CC(CC5)(C)C)C(=O)O)C)C)(C)CO)O
Method: HCD
Collision_energy: [28.333334]
Isolation_window: 4.0
Ion_mode: N
Num Peaks: 15
52.3732	4.6
52.5972	3.6
69.1657	3.5
248.0786	3.2
325.1835	28.2
326.1863	5.2
407.3311	4.0
451.3207	6.2
453.3365	36.3
454.3396	10.5
469.3328	6.0
470.3365	6.6
471.3474	100.0
472.3506	32.5
473.3629	86.0

Name: Heptadecanoic Acid
PrecursorMZ: 269.24865
RT: 10.1247
ExactMass: 270.255880323
Spectrum_type: 2
charge: -1
Formula: C17H34O2
SMILES: CCCCCCCCCCCCCCCCC(=O)O
Method: HCD
Collision_energy: [28.333334]
Isolation_window: 4.0
Ion_mode: N
Num Peaks: 3
188.1111	1.9
269.2487	100.0
270.2520	18.1

Name: Hesperetin
PrecursorMZ: 301.07185
RT: 5.6943
ExactMass: 302.07903816
Spectrum_type: 2
charge: -1
Formula: C16H14O6
SMILES: COC1=C(C=C(C=C1)[C@@H]2CC(=O)C3=C(C=C(C=C3O2)O)O)O
Method: HCD
Collision_energy: [28.333334]
Isolation_window: 4.0
Ion_mode: N
Num Peaks: 15
125.0236	4.6
134.0366	3.1
151.0029	9.8
164.0109	9.4
174.0318	3.6
196.0009	8.0
199.0397	3.6
201.0194	3.6
242.0582	8.9
257.0822	4.9
258.0535	3.4
286.0485	14.3
287.0510	2.3
301.0718	100.0
302.0752	17.4

Name: Hexahydrocurcumin
PrecursorMZ: 373.1658
RT: 5.3389
ExactMass: 374.17293854
Spectrum_type: 2
charge: -1
Formula: C21H26O6
SMILES: COC1=C(C=CC(=C1)CCC(CC(=O)CCC2=CC(=C(C=C2)O)OC)O)O
Method: HCD
Collision_energy: [28.333334]
Isolation_window: 4.0
Ion_mode: N
Num Peaks: 9
57.0337	5.8
121.0285	5.9
164.0473	3.6
165.0551	9.3
179.0707	100.0
180.0742	11.1
193.0863	10.3
373.1658	25.7
374.1689	6.1

Name: Hexylresorcinol
PrecursorMZ: 387.25416
RT: 7.2665
ExactMass: 194.130679813
Spectrum_type: 2
charge: -1
Formula: C12H18O2
SMILES: CCCCCCC1=C(C=C(C=C1)O)O
Method: HCD
Collision_energy: [28.333334]
Isolation_window: 4.0
Ion_mode: N
Num Peaks: 4
343.2638	11.5
387.2543	100.0
388.2579	31.1
389.2693	28.5

Name: Homogentisic Acid
PrecursorMZ: 167.03445
RT: 2.0088999999999997
ExactMass: 168.04225873
Spectrum_type: 2
charge: -1
Formula: C8H8O4
SMILES: C1=CC(=C(C=C1O)CC(=O)O)O
Method: HCD
Collision_energy: [28.333334]
Isolation_window: 4.0
Ion_mode: N
Num Peaks: 25
72.9922	10.4
81.0337	20.6
93.0337	15.5
95.0130	19.1
95.0240	7.3
95.0494	9.3
97.0397	8.6
98.0237	16.5
121.0286	100.0
121.0397	58.5
122.0325	6.6
122.0432	7.1
123.0080	31.9
123.0443	42.6
124.0161	7.9
125.0235	16.9
125.0345	7.0
125.0600	24.1
149.0238	44.8
151.0031	9.4
166.0499	6.6
166.9981	15.1
167.0343	51.1
169.0136	27.9
169.0499	37.5

Name: Homovanillic Acid
PrecursorMZ: 181.05003
RT: 3.3091
ExactMass: 182.0579088
Spectrum_type: 2
charge: -1
Formula: C9H10O4
SMILES: COC1=C(C=CC(=C1)CC(=O)O)O
Method: HCD
Collision_energy: [28.333334]
Isolation_window: 4.0
Ion_mode: N
Num Peaks: 26
59.0129	13.4
68.9948	31.6
71.0127	2.6
90.9971	3.2
95.0240	2.6
109.0286	9.0
109.0397	3.4
109.0649	3.6
112.9846	100.0
119.0492	4.0
121.0285	6.4
122.0365	11.6
134.9870	8.3
135.0443	6.7
136.0757	4.6
137.0600	41.3
137.0961	4.8
138.0548	2.4
138.0639	4.0
138.0916	31.8
163.0391	4.0
180.0652	2.8
181.0499	26.4
181.0843	2.4
182.0441	2.3
182.0813	11.5

Name: Ibuprofen, (+-)-
PrecursorMZ: 457.25705
RT: 6.3942000000000005
ExactMass: 206.130679813
Spectrum_type: 2
charge: -1
Formula: C13H18O2
SMILES: CC(C)CC1=CC=C(C=C1)C(C)C(=O)O
Method: HCD
Collision_energy: [28.333334]
Isolation_window: 4.0
Ion_mode: N
Num Peaks: 4
389.2699	100.0
390.2729	26.8
457.2571	79.9
458.2594	23.8

Name: Indole-3-lactic acid
PrecursorMZ: 204.06595
RT: 4.048
ExactMass: 205.07389321
Spectrum_type: 2
charge: -1
Formula: C11H11NO3
SMILES: C1=CC=C2C(=C1)C(=CN2)CC(C(=O)O)O
Method: HCD
Collision_energy: [28.333334]
Isolation_window: 4.0
Ion_mode: N
Num Peaks: 9
72.9922	12.5
116.0496	18.5
130.0653	5.7
142.0653	12.9
158.0603	51.9
159.0640	6.0
186.0554	26.3
204.0660	100.0
205.0693	12.4

Name: Isoliquiritigenin
PrecursorMZ: 255.06619
RT: 5.86905
ExactMass: 256.07355886
Spectrum_type: 2
charge: -1
Formula: C15H12O4
SMILES: C1=CC(=CC=C1/C=C/C(=O)C2=C(C=C(C=C2)O)O)O
Method: HCD
Collision_energy: [28.333334]
Isolation_window: 4.0
Ion_mode: N
Num Peaks: 10
166.9591	7.4
167.0859	99.2
168.0892	12.3
182.9540	11.4
210.9491	30.6
211.0759	100.0
212.0793	14.2
228.9597	25.3
255.0661	18.9
255.1058	8.1

Name: Kynurenic Acid
PrecursorMZ: 188.03496
RT: 2.5796
ExactMass: 189.042593085
Spectrum_type: 2
charge: -1
Formula: C10H7NO3
SMILES: C1=CC=C2C(=C1)C(=O)C=C(N2)C(=O)O
Method: HCD
Collision_energy: [28.333334]
Isolation_window: 4.0
Ion_mode: N
Num Peaks: 9
100.9526	13.8
141.8676	16.4
143.8647	7.7
144.0449	100.0
144.9427	5.4
145.0483	10.5
159.8783	10.8
161.8752	5.1
188.0350	6.5

Name: L-Fucose
PrecursorMZ: 163.06047
RT: 0.947375
ExactMass: 164.06847348
Spectrum_type: 2
charge: -1
Formula: C6H12O5
SMILES: C[C@H]1[C@H]([C@H]([C@@H](C(O1)O)O)O)O
Method: HCD
Collision_energy: [28.333334]
Isolation_window: 4.0
Ion_mode: N
Num Peaks: 39
59.0130	6.9
63.9615	1.8
69.0337	2.7
71.0129	9.8
72.9922	6.5
73.0286	22.0
75.0078	25.2
76.9693	2.0
79.9564	2.2
80.9642	4.7
81.0336	3.3
83.0129	2.8
83.0493	1.8
85.0285	7.0
87.0078	4.9
87.0442	4.3
89.0234	6.6
99.0079	3.0
99.0442	5.3
100.0393	1.5
101.0234	20.6
113.0234	1.9
115.0391	2.4
117.0548	21.8
118.0581	1.6
119.0340	21.4
129.0184	3.9
145.0498	17.1
147.0290	3.9
149.9987	3.5
161.0449	10.5
161.0708	2.2
162.0559	7.5
163.0248	2.0
163.0604	100.0
164.0645	5.1
164.9856	1.8
165.0222	5.8
165.0397	24.5

Name: L-Malic Acid
PrecursorMZ: 133.01326
RT: 0.9334
ExactMass: 134.02152329
Spectrum_type: 2
charge: -1
Formula: C4H6O5
SMILES: C([C@@H](C(=O)O)O)C(=O)O
Method: HCD
Collision_energy: [28.333334]
Isolation_window: 4.0
Ion_mode: N
Num Peaks: 4
71.0129	48.9
115.0027	100.0
133.0135	29.1
134.0350	12.5

Name: L-leucyl-L-leucine
PrecursorMZ: 243.1715
RT: 2.934425
ExactMass: 244.17869263
Spectrum_type: 2
charge: -1
Formula: C12H24N2O3
SMILES: CC(C)C[C@@H](C(=O)N[C@@H](CC(C)C)C(=O)O)N
Method: HCD
Collision_energy: [28.333334]
Isolation_window: 4.0
Ion_mode: N
Num Peaks: 4
130.0867	26.4
199.1812	21.0
243.1717	100.0
244.1759	11.9

Name: Liquiritin
PrecursorMZ: 417.11859
RT: 4.0716
ExactMass: 418.12638228
Spectrum_type: 2
charge: -1
Formula: C21H22O9
SMILES: C1[C@H](OC2=C(C1=O)C=CC(=C2)O)C3=CC=C(C=C3)O[C@H]4[C@@H]([C@H]([C@@H]([C@H](O4)CO)O)O)O
Method: HCD
Collision_energy: [28.333334]
Isolation_window: 4.0
Ion_mode: N
Num Peaks: 17
96.9919	5.3
123.0441	4.7
134.0363	5.6
164.0470	6.1
189.0547	4.8
193.0495	8.6
223.0614	5.0
311.0920	10.7
312.0981	6.3
325.0715	7.7
340.0944	8.6
355.1186	9.1
399.1081	4.8
416.1917	19.0
417.1186	100.0
417.2026	7.4
418.1188	23.0

Name: Lumichrome
PrecursorMZ: 241.07294
RT: 4.268823809523809
ExactMass: 242.08037557
Spectrum_type: 2
charge: -1
Formula: C12H10N4O2
SMILES: CC1=CC2=C(C=C1C)N=C3C(=N2)C(=O)NC(=O)N3
Method: HCD
Collision_energy: [28.333334]
Isolation_window: 4.0
Ion_mode: N
Num Peaks: 18
57.0337	2.4
96.9591	2.2
151.1120	1.2
172.0874	1.3
195.1386	5.1
198.0667	25.2
199.0702	2.9
239.0869	1.7
239.1286	5.5
240.0748	6.4
240.1308	1.4
240.5764	1.9
241.0729	100.0
241.1395	1.5
242.0771	16.0
243.0300	9.6
243.0887	23.0
243.1133	1.3

Name: Luteolin
PrecursorMZ: 285.04038
RT: 4.919133333333333
ExactMass: 286.04773803
Spectrum_type: 2
charge: -1
Formula: C15H10O6
SMILES: C1=CC(=C(C=C1C2=CC(=O)C3=C(C=C(C=C3O2)O)O)O)O
Method: HCD
Collision_energy: [28.333334]
Isolation_window: 4.0
Ion_mode: N
Num Peaks: 2
285.0402	100.0
286.0436	17.1

Name: Maslinic Acid
PrecursorMZ: 471.34816
RT: 7.990125
ExactMass: 472.35526001
Spectrum_type: 2
charge: -1
Formula: C30H48O4
SMILES: C[C@@]12CC[C@@H]3[C@@]([C@H]1CC=C4[C@]2(CC[C@@]5([C@H]4CC(CC5)(C)C)C(=O)O)C)(C[C@H]([C@@H](C3(C)C)O)O)C
Method: HCD
Collision_energy: [28.333334]
Isolation_window: 4.0
Ion_mode: N
Num Peaks: 6
52.3706	2.0
52.3734	4.6
52.4848	1.3
471.3481	100.0
472.3514	30.4
473.3553	3.7

Name: Melilotic acid
PrecursorMZ: 165.05491
RT: 4.1486
ExactMass: 166.062994177
Spectrum_type: 2
charge: -1
Formula: C9H10O3
SMILES: C1=CC=C(C(=C1)CCC(=O)O)O
Method: HCD
Collision_energy: [28.333334]
Isolation_window: 4.0
Ion_mode: N
Num Peaks: 24
65.0136	8.1
65.0387	37.6
65.9976	7.7
81.0449	8.9
82.0401	25.4
93.0700	16.1
95.0241	9.4
97.0398	11.7
106.0414	100.0
107.0447	6.2
109.0399	9.2
119.0494	11.8
120.0559	13.3
121.0286	14.8
121.0400	11.3
121.0511	33.9
121.0650	50.7
122.0351	7.9
124.0506	13.6
136.0507	14.1
137.0350	14.0
138.0308	6.2
139.0506	7.1
164.0455	10.4

Name: Methionine Sulfoxide
PrecursorMZ: 164.03802
RT: 0.8723846153846154
ExactMass: 165.04596439
Spectrum_type: 2
charge: -1
Formula: C5H11NO3S
SMILES: CS(=O)CC[C@@H](C(=O)O)N
Method: HCD
Collision_energy: [28.333334]
Isolation_window: 4.0
Ion_mode: N
Num Peaks: 22
60.9744	12.0
61.9874	74.0
63.9615	66.2
72.0082	20.5
75.0078	51.4
76.9693	57.1
79.9564	70.4
88.9870	64.4
90.9350	13.6
100.0395	100.0
104.0344	18.8
136.9313	11.2
137.9442	26.5
144.0661	13.2
147.0289	9.4
149.0145	11.1
162.0764	53.9
162.8384	47.5
163.0032	15.5
164.0379	72.5
164.8357	15.3
165.0399	59.2

Name: Methylsuccinic acid
PrecursorMZ: 131.03514
RT: 1.9365
ExactMass: 132.04225873
Spectrum_type: 2
charge: -1
Formula: C5H8O4
SMILES: CC(CC(=O)O)C(=O)O
Method: HCD
Collision_energy: [28.333334]
Isolation_window: 4.0
Ion_mode: N
Num Peaks: 6
87.0442	100.0
88.0475	4.6
113.0234	6.9
130.0401	6.2
130.0865	10.3
131.0345	21.3

Name: N-Acetyl-L-glutamic acid
PrecursorMZ: 188.05582
RT: 1.1814
ExactMass: 189.06372245
Spectrum_type: 2
charge: -1
Formula: C7H11NO5
SMILES: CC(=O)N[C@@H](CCC(=O)O)C(=O)O
Method: HCD
Collision_energy: [28.333334]
Isolation_window: 4.0
Ion_mode: N
Num Peaks: 9
59.0129	27.1
87.9245	21.7
98.0237	32.8
102.0551	28.6
116.0708	24.8
128.0344	38.6
144.0657	35.7
144.9221	100.0
188.0557	33.9

Name: N-Acetyl-L-ornithine
PrecursorMZ: 173.09261
RT: 0.91705
ExactMass: 174.10044231
Spectrum_type: 2
charge: -1
Formula: C7H14N2O3
SMILES: CC(=O)N[C@@H](CCCN)C(=O)O
Method: HCD
Collision_energy: [28.333334]
Isolation_window: 4.0
Ion_mode: N
Num Peaks: 22
58.0289	2.7
72.9922	0.8
78.9579	0.6
88.9871	1.3
102.0551	4.3
104.0345	2.4
110.9691	1.0
112.0759	2.5
129.0661	0.9
129.1026	9.8
131.0614	0.7
131.0818	100.0
131.1024	0.7
132.0856	4.2
146.9605	0.9
154.9467	1.0
155.0822	0.7
172.1082	0.6
173.0237	2.0
173.0925	22.2
174.0758	0.9
174.0979	1.4

Name: N-Acetyl-L-tyrosine
PrecursorMZ: 222.07705
RT: 2.3082
ExactMass: 223.0844579
Spectrum_type: 2
charge: -1
Formula: C11H13NO4
SMILES: CC(=O)N[C@@H](CC1=CC=C(C=C1)O)C(=O)O
Method: HCD
Collision_energy: [28.333334]
Isolation_window: 4.0
Ion_mode: N
Num Peaks: 40
58.0290	13.1
69.0336	9.3
70.0290	4.9
107.0494	14.9
110.0240	7.6
119.0494	5.6
123.0443	22.3
133.0652	11.7
134.0604	32.8
135.0445	14.3
137.0600	7.4
148.0758	4.5
149.0602	14.2
151.0397	3.7
159.0449	4.9
160.0395	6.2
161.0602	5.3
162.0548	5.3
163.0396	11.0
176.0348	6.8
176.0711	92.6
177.0551	12.0
177.0742	18.0
178.0501	23.4
178.0871	18.9
179.0346	13.4
179.0699	15.0
180.0660	100.0
181.0501	4.2
181.0692	8.4
220.0613	27.6
220.1268	9.2
221.0454	12.7
221.0640	7.7
222.0421	12.3
222.0769	58.4
223.0263	5.9
223.0608	23.5
223.0795	3.8
224.0552	6.7

Name: N-Acetyl-L-valine
PrecursorMZ: 158.08171
RT: 2.179936363636364
ExactMass: 159.08954328
Spectrum_type: 2
charge: -1
Formula: C7H13NO3
SMILES: CC(C)[C@@H](C(=O)O)NC(=O)C
Method: HCD
Collision_energy: [28.333334]
Isolation_window: 4.0
Ion_mode: N
Num Peaks: 13
86.0602	2.1
88.0395	100.0
89.0428	3.5
102.0551	47.1
103.0584	2.0
113.0600	2.5
114.0916	1.6
116.0708	5.2
157.0501	1.9
158.0816	27.2
159.0656	5.7
159.0850	2.1
160.0397	12.3

Name: N-Acetylvaline
PrecursorMZ: 158.08156
RT: 2.1859
ExactMass: 159.08954328
Spectrum_type: 2
charge: -1
Formula: C7H13NO3
SMILES: CC(C)C(C(=O)O)NC(=O)C
Method: HCD
Collision_energy: [28.333334]
Isolation_window: 4.0
Ion_mode: N
Num Peaks: 16
58.0290	1.9
83.0493	1.8
88.0394	8.9
95.0494	2.6
102.0553	2.1
113.0599	7.5
114.0915	7.4
116.0708	100.0
117.0742	4.8
156.0657	2.0
157.0500	8.0
157.0861	2.2
158.0815	30.1
159.0656	21.6
159.0845	2.2
160.0397	3.4

Name: N-Oleoylglycine
PrecursorMZ: 338.27032
RT: 9.1527
ExactMass: 339.27734404
Spectrum_type: 2
charge: -1
Formula: C20H37NO3
SMILES: CCCCCCCC/C=C\CCCCCCCC(=O)NCC(=O)O
Method: HCD
Collision_energy: [28.333334]
Isolation_window: 4.0
Ion_mode: N
Num Peaks: 6
74.0238	100.0
294.2802	3.4
338.2702	73.7
339.2004	44.9
339.2727	16.5
340.2034	6.1

Name: N-acetylglutamic acid
PrecursorMZ: 188.05583
RT: 0.9463
ExactMass: 189.06372245
Spectrum_type: 2
charge: -1
Formula: C7H11NO5
SMILES: CC(=O)NC(CCC(=O)O)C(=O)O
Method: HCD
Collision_energy: [28.333334]
Isolation_window: 4.0
Ion_mode: N
Num Peaks: 70
58.0290	9.7
59.0129	39.1
71.0129	7.6
71.0494	4.3
72.9921	6.5
74.0238	9.7
83.0130	4.2
83.0492	11.0
84.0445	5.8
85.0285	9.8
87.0078	13.0
88.0394	14.9
97.0285	7.2
98.0238	16.7
98.0601	6.7
99.0079	6.5
99.0444	6.0
100.0394	10.7
100.0759	17.7
101.0234	4.8
101.0712	5.2
102.0551	63.0
114.0551	13.2
116.0344	7.7
116.0708	100.0
117.0744	4.3
118.0500	11.2
119.0342	8.3
122.0240	6.2
125.0236	4.3
125.0711	6.4
126.0552	11.3
127.0393	7.1
127.0504	6.3
128.0344	92.5
128.0706	5.1
129.0185	22.2
129.0381	6.1
142.0501	48.4
142.0865	6.8
143.0549	4.6
143.1182	15.8
144.0293	15.2
144.0658	51.2
144.1022	14.5
145.0407	6.1
145.0498	4.3
145.0600	16.4
145.0973	18.2
146.0450	11.8
146.0816	7.0
160.0608	12.6
169.0612	4.7
170.0452	29.0
170.0818	4.9
171.0290	9.1
172.0612	4.2
174.0162	4.9
186.0396	10.1
186.0757	6.6
187.0601	15.0
187.0724	15.3
187.1081	51.9
188.0557	62.6
188.0922	21.3
188.1113	4.9
189.0398	31.1
189.0587	5.3
189.0762	15.5
190.0710	14.3

Name: Naproxen
PrecursorMZ: 229.08686
RT: 6.7032
ExactMass: 230.094294304
Spectrum_type: 2
charge: -1
Formula: C14H14O3
SMILES: C[C@@H](C1=CC2=C(C=C1)C=C(C=C2)OC)C(=O)O
Method: HCD
Collision_energy: [28.333334]
Isolation_window: 4.0
Ion_mode: N
Num Peaks: 6
174.0317	16.0
182.9540	5.4
206.0216	19.2
227.0719	3.9
229.0868	100.0
230.0902	13.6

Name: Npc151250
PrecursorMZ: 327.25386
RT: 10.067
ExactMass: 282.255880323
Spectrum_type: 2
charge: -1
Formula: C18H34O2
SMILES: CCCCCCC=CCCCCCCCCCC(=O)O
Method: HCD
Collision_energy: [28.333334]
Isolation_window: 4.0
Ion_mode: N
Num Peaks: 5
73.0288	100.0
253.2182	81.5
271.2285	98.6
281.2495	79.3
326.1887	37.4

Name: O-Desmethylangolensin
PrecursorMZ: 257.08079
RT: 5.953380769230769
ExactMass: 258.08920892
Spectrum_type: 2
charge: -1
Formula: C15H14O4
SMILES: CC(C1=CC=C(C=C1)O)C(=O)C2=C(C=C(C=C2)O)O
Method: HCD
Collision_energy: [28.333334]
Isolation_window: 4.0
Ion_mode: N
Num Peaks: 10
106.0410	8.5
107.0489	22.3
213.0908	100.0
214.0941	12.4
255.1584	6.0
256.1906	15.3
257.0808	63.8
257.1724	4.7
258.0842	10.0
259.1908	5.7

Name: Obeticholic Acid
PrecursorMZ: 419.31694
RT: 7.9689
ExactMass: 420.32395988
Spectrum_type: 2
charge: -1
Formula: C26H44O4
SMILES: CC[C@@H]1[C@@H]2C[C@@H](CC[C@@]2([C@H]3CC[C@]4([C@H]([C@@H]3[C@@H]1O)CC[C@@H]4[C@H](C)CCC(=O)O)C)C)O
Method: HCD
Collision_energy: [28.333334]
Isolation_window: 4.0
Ion_mode: N
Num Peaks: 6
99.0805	2.0
331.2641	2.4
419.2501	3.2
419.3167	100.0
420.3202	27.8
421.3235	3.1

Name: Octadecanedioic acid
PrecursorMZ: 313.23862
RT: 8.386
ExactMass: 314.24570956
Spectrum_type: 2
charge: -1
Formula: C18H34O4
SMILES: C(CCCCCCCCC(=O)O)CCCCCCCC(=O)O
Method: HCD
Collision_energy: [28.333334]
Isolation_window: 4.0
Ion_mode: N
Num Peaks: 5
59.0129	100.0
251.2380	8.4
253.2172	8.4
313.2383	88.1
314.2421	16.2

Name: Palmitic Acid
PrecursorMZ: 255.23307
RT: 9.873970833333333
ExactMass: 256.240230259
Spectrum_type: 2
charge: -1
Formula: C16H32O2
SMILES: CCCCCCCCCCCCCCCC(=O)O
Method: HCD
Collision_energy: [28.333334]
Isolation_window: 4.0
Ion_mode: N
Num Peaks: 4
219.8454	4.7
255.0879	2.3
255.2331	100.0
256.2365	17.2

Name: Pyridoxal
PrecursorMZ: 166.0503
RT: 1.0342
ExactMass: 167.058243149
Spectrum_type: 2
charge: -1
Formula: C8H9NO3
SMILES: CC1=NC=C(C(=C1O)C=O)CO
Method: HCD
Collision_energy: [28.333334]
Isolation_window: 4.0
Ion_mode: N
Num Peaks: 8
78.9581	19.6
94.9921	11.9
96.9686	100.0
108.0445	25.5
136.0392	6.3
138.0552	63.6
166.0502	52.8
167.0543	4.3

Name: Rhamnetin
PrecursorMZ: 315.0514
RT: 6.1122
ExactMass: 316.05830272
Spectrum_type: 2
charge: -1
Formula: C16H12O7
SMILES: COC1=CC(=C2C(=C1)OC(=C(C2=O)O)C3=CC(=C(C=C3)O)O)O
Method: HCD
Collision_energy: [28.333334]
Isolation_window: 4.0
Ion_mode: N
Num Peaks: 19
121.0286	9.4
149.0600	3.0
165.0187	26.5
166.0223	2.2
171.1024	2.7
183.1385	5.8
193.0136	3.4
283.0247	3.7
295.2275	7.6
296.2304	2.2
298.0492	2.6
300.0272	5.3
313.0722	4.7
313.2386	100.0
314.0760	2.1
314.2421	26.1
315.0513	42.3
315.2459	3.3
316.0544	7.0

Name: Sebacic Acid
PrecursorMZ: 201.11272
RT: 4.6441
ExactMass: 202.12050905
Spectrum_type: 2
charge: -1
Formula: C10H18O4
SMILES: C(CCCCC(=O)O)CCCC(=O)O
Method: HCD
Collision_energy: [28.333334]
Isolation_window: 4.0
Ion_mode: N
Num Peaks: 6
139.1120	72.1
140.1154	6.7
183.1019	32.2
184.1054	4.0
201.1126	100.0
202.1159	11.4

Name: Shikimic Acid
PrecursorMZ: 173.04502
RT: 0.9801
ExactMass: 174.05282342
Spectrum_type: 2
charge: -1
Formula: C7H10O5
SMILES: C1[C@H]([C@@H]([C@@H](C=C1C(=O)O)O)O)O
Method: HCD
Collision_energy: [28.333334]
Isolation_window: 4.0
Ion_mode: N
Num Peaks: 48
58.0290	10.0
59.0129	7.0
60.9923	5.7
61.9875	9.6
67.0181	18.9
69.0338	4.2
71.0130	14.7
72.9923	5.7
75.0079	82.2
81.0337	2.9
83.0130	3.1
85.0285	9.5
87.0080	4.3
93.0337	100.0
94.0370	6.2
99.0081	4.5
99.0189	3.1
99.0440	3.5
100.0396	3.5
101.0042	7.4
101.0236	3.6
104.0344	2.9
104.9531	3.5
105.0185	41.0
109.0288	3.3
111.0079	3.1
111.0191	27.1
111.0443	19.5
113.0237	3.5
113.0348	58.2
115.0030	4.3
118.9653	6.8
128.8775	3.1
130.0502	10.4
145.0289	3.5
146.9605	58.3
154.9468	29.2
155.0344	5.9
171.0407	12.4
172.0612	4.0
172.9576	6.4
173.0246	19.5
173.0447	55.2
173.0568	36.0
174.0465	5.3
174.9554	6.1
174.9809	3.3
175.0413	6.9

Name: Suberic acid
PrecursorMZ: 173.08134
RT: 3.4731833333333335
ExactMass: 174.08920892
Spectrum_type: 2
charge: -1
Formula: C8H14O4
SMILES: C(CCCC(=O)O)CCC(=O)O
Method: HCD
Collision_energy: [28.333334]
Isolation_window: 4.0
Ion_mode: N
Num Peaks: 5
111.0806	25.8
127.0755	39.0
129.0912	100.0
173.0236	25.8
173.0813	81.4

Name: Sulfamethizole
PrecursorMZ: 269.01654
RT: 3.79185
ExactMass: 270.02451792
Spectrum_type: 2
charge: -1
Formula: C9H10N4O2S2
SMILES: CC1=NN=C(S1)NS(=O)(=O)C2=CC=C(C=C2)N
Method: HCD
Collision_energy: [28.333334]
Isolation_window: 4.0
Ion_mode: N
Num Peaks: 8
113.0042	23.4
156.0114	5.5
187.9835	9.2
196.0176	87.2
197.0209	6.9
269.0166	100.0
270.0190	12.0
271.0118	5.5

Name: Sulfolithocholic acid
PrecursorMZ: 455.24699
RT: 6.55345
ExactMass: 456.25456017
Spectrum_type: 2
charge: -1
Formula: C24H40O6S
SMILES: C[C@H](CCC(=O)O)[C@H]1CC[C@@H]2[C@@]1(CC[C@H]3[C@H]2CC[C@H]4[C@@]3(CC[C@H](C4)OS(=O)(=O)O)C)C
Method: HCD
Collision_energy: [28.333334]
Isolation_window: 4.0
Ion_mode: N
Num Peaks: 5
96.9591	21.4
152.9949	6.9
454.2285	4.5
455.2473	100.0
456.2502	28.1

Name: Supiculisporic Acid
PrecursorMZ: 327.1811
RT: 7.309633333333333
ExactMass: 328.18858861
Spectrum_type: 2
charge: -1
Formula: C17H28O6
SMILES: CCCCCCCCCC[C@H](C(=O)O)[C@@]1(CCC(=O)O1)C(=O)O
Method: HCD
Collision_energy: [28.333334]
Isolation_window: 4.0
Ion_mode: N
Num Peaks: 5
239.2013	100.0
265.1805	65.1
325.1836	64.2
326.1873	54.6
327.1823	63.5

Name: Trehalose
PrecursorMZ: 341.10909
RT: 0.8773333333333333
ExactMass: 342.11621151
Spectrum_type: 2
charge: -1
Formula: C12H22O11
SMILES: C([C@@H]1[C@H]([C@@H]([C@H]([C@H](O1)O[C@@H]2[C@@H]([C@H]([C@@H]([C@H](O2)CO)O)O)O)O)O)O)O
Method: HCD
Collision_energy: [28.333334]
Isolation_window: 4.0
Ion_mode: N
Num Peaks: 47
59.0129	26.6
70.0290	2.7
71.0129	37.4
72.9922	8.4
73.0286	11.9
75.0079	3.4
83.0129	5.1
85.0286	11.1
87.0079	19.3
89.0235	57.7
92.9271	9.0
95.0129	3.0
97.0286	7.0
99.0078	4.0
100.0031	5.3
101.0235	70.0
102.0268	2.9
112.0396	6.4
113.0235	39.3
115.0392	5.3
117.0185	3.8
118.0502	6.6
119.0341	20.5
124.0066	4.4
125.0237	7.8
129.0185	4.5
130.0502	2.9
131.0341	11.4
142.0502	6.4
143.0343	13.8
148.0606	5.0
149.0448	6.5
155.0342	2.9
159.0292	3.3
160.0608	2.9
161.0449	26.9
168.0269	2.8
177.0400	6.2
179.0556	23.5
191.0556	7.9
220.0822	4.4
221.0665	8.1
250.0943	2.7
251.0771	5.9
341.1090	100.0
342.1133	14.5
343.1230	5.9

Name: Urb937
PrecursorMZ: 353.15092
RT: 6.1119
ExactMass: 354.15795719
Spectrum_type: 2
charge: -1
Formula: C20H22N2O4
SMILES: C1CCC(CC1)NC(=O)OC2=CC(=C(C=C2)O)C3=CC(=CC=C3)C(=O)N
Method: HCD
Collision_energy: [28.333334]
Isolation_window: 4.0
Ion_mode: N
Num Peaks: 11
265.1346	9.0
267.1503	25.8
268.1538	4.6
269.1296	100.0
270.1328	19.5
309.1612	41.3
310.1654	10.1
311.1399	7.6
351.1818	5.1
353.1506	49.0
354.1537	11.2

Name: Uridine
PrecursorMZ: 279.03893
RT: 0.9084
ExactMass: 244.06953611
Spectrum_type: 2
charge: -1
Formula: C9H12N2O6
SMILES: C1=CN(C(=O)NC1=O)[C@H]2[C@@H]([C@@H]([C@H](O2)CO)O)O
Method: HCD
Collision_energy: [28.333334]
Isolation_window: 4.0
Ion_mode: N
Num Peaks: 6
110.0239	20.5
111.0191	35.9
130.0864	40.9
200.0556	19.4
243.0619	100.0
279.0381	19.5

Name: Urolithin B
PrecursorMZ: 211.03968
RT: 5.921517647058823
ExactMass: 212.047344113
Spectrum_type: 2
charge: -1
Formula: C13H8O3
SMILES: C1=CC=C2C(=C1)C3=C(C=C(C=C3)O)OC2=O
Method: HCD
Collision_energy: [28.333334]
Isolation_window: 4.0
Ion_mode: N
Num Peaks: 7
153.1278	1.7
167.1070	2.1
182.9546	1.6
211.0398	63.7
211.1338	3.1
212.0432	9.0
213.1493	100.0

Name: Ursodeoxycholic Acid
PrecursorMZ: 391.28585
RT: 6.3862
ExactMass: 392.29265975
Spectrum_type: 2
charge: -1
Formula: C24H40O4
SMILES: C[C@H](CCC(=O)O)[C@H]1CC[C@@H]2[C@@]1(CC[C@H]3[C@H]2[C@H](C[C@H]4[C@@]3(CC[C@H](C4)O)C)O)C
Method: HCD
Collision_energy: [28.333334]
Isolation_window: 4.0
Ion_mode: N
Num Peaks: 5
345.2794	3.3
347.2953	2.1
391.2858	100.0
392.2893	28.3
393.2920	2.6

Name: Warfarin
PrecursorMZ: 307.0972
RT: 6.94215
ExactMass: 308.10485899
Spectrum_type: 2
charge: -1
Formula: C19H16O4
SMILES: CC(=O)CC(C1=CC=CC=C1)C2=C(C3=CC=CC=C3OC2=O)O
Method: HCD
Collision_energy: [28.333334]
Isolation_window: 4.0
Ion_mode: N
Num Peaks: 3
119.0493	100.0
143.0493	43.5
187.0393	38.1

Name: cis,cis-Muconic acid
PrecursorMZ: 141.02002
RT: 2.5558
ExactMass: 142.02660867
Spectrum_type: 2
charge: -1
Formula: C6H6O4
SMILES: C(=C\C(=O)O)\C=C/C(=O)O
Method: HCD
Collision_energy: [28.333334]
Isolation_window: 4.0
Ion_mode: N
Num Peaks: 16
65.0137	14.3
89.0137	10.0
90.0090	18.2
96.0083	5.2
97.0399	5.5
98.0240	16.3
114.0091	52.8
115.0294	9.7
116.0247	15.6
140.0249	21.9
141.0201	100.0
141.0292	5.5
142.0150	33.1
142.0404	18.8
142.0506	13.0
143.0357	24.4

Name: ((3S,8S,9S,10R,13R,14S,17R)-10,13-dimethyl-17-((2R)-6-methylheptan-2-yl)-2,3,4,7,8,9,11,12,14,15,16,17-dodecahydro-1H-cyclopenta(a)phenanthren-3-yl) sulfate
PrecursorMZ: 465.30444
RT: 8.7897
ExactMass: 465.30385609
Spectrum_type: 2
charge: -1
Formula: C27H45O4S-
SMILES: C[C@H](CCCC(C)C)[C@H]1CC[C@@H]2[C@@]1(CC[C@H]3[C@H]2CC=C4[C@@]3(CC[C@@H](C4)OS(=O)(=O)[O-])C)C
Method: HCD
Collision_energy: [28.333334]
Isolation_window: 4.0
Ion_mode: N
Num Peaks: 6
51.6991	2.0
51.7019	4.4
96.9591	84.9
465.3045	100.0
466.3077	29.8
467.3080	2.9

Name: (+)-Eudesmin
PrecursorMZ: 385.16586
RT: 6.6944
ExactMass: 386.17293854
Spectrum_type: 2
charge: -1
Formula: C22H26O6
SMILES: COC1=C(C=C(C=C1)[C@@H]2[C@H]3CO[C@@H]([C@H]3CO2)C4=CC(=C(C=C4)OC)OC)OC
Method: HCD
Collision_energy: [28.333334]
Isolation_window: 4.0
Ion_mode: N
Num Peaks: 14
73.0286	75.6
253.1235	21.2
265.1234	5.5
269.1297	9.1
283.1339	100.0
284.1374	17.4
301.1445	32.3
302.1480	7.5
309.1612	6.0
311.1409	4.5
357.1709	48.0
358.1752	10.8
385.1675	87.7
386.1716	21.7

Name: (+)-Lariciresinol
PrecursorMZ: 359.15031
RT: 7.240833333333333
ExactMass: 360.15728848
Spectrum_type: 2
charge: -1
Formula: C20H24O6
SMILES: COC1=C(C=CC(=C1)C[C@H]2CO[C@@H]([C@H]2CO)C3=CC(=C(C=C3)O)OC)O
Method: HCD
Collision_energy: [28.333334]
Isolation_window: 4.0
Ion_mode: N
Num Peaks: 15
61.9875	3.8
211.1335	2.5
216.0427	2.4
259.0977	3.5
272.1056	5.9
293.2126	2.6
295.2276	7.9
315.1602	21.2
316.1638	4.3
331.1550	2.9
359.1501	100.0
359.2253	4.5
360.1555	39.9
361.1600	6.2
361.2028	3.0

Name: (+)-Lyoniresinol
PrecursorMZ: 419.1718
RT: 3.84495
ExactMass: 420.17841785
Spectrum_type: 2
charge: -1
Formula: C22H28O8
SMILES: COC1=CC(=CC(=C1O)OC)[C@@H]2[C@H]([C@@H](CC3=CC(=C(C(=C23)OC)O)OC)CO)CO
Method: HCD
Collision_energy: [28.333334]
Isolation_window: 4.0
Ion_mode: N
Num Peaks: 18
61.9875	9.2
88.9871	8.3
139.0394	4.5
221.0819	4.6
344.0901	4.0
358.1063	12.1
359.1139	45.9
360.1182	8.5
373.1297	63.0
373.2577	4.2
374.1334	13.9
389.1248	23.5
390.1289	4.5
404.1482	35.2
405.1520	7.3
419.1720	100.0
420.1758	25.1
421.1877	4.8

Name: (+-)-2-Hydroxyisovaleric acid
PrecursorMZ: 117.05494
RT: 1.5442
ExactMass: 118.062994177
Spectrum_type: 2
charge: -1
Formula: C5H10O3
SMILES: CC(C)C(C(=O)O)O
Method: HCD
Collision_energy: [28.333334]
Isolation_window: 4.0
Ion_mode: N
Num Peaks: 3
59.0131	100.0
116.9279	44.7
117.0549	30.7

Name: (+-)-3,4-Dihydroxymandelic acid
PrecursorMZ: 183.02943
RT: 2.2227
ExactMass: 184.03717335
Spectrum_type: 2
charge: -1
Formula: C8H8O5
SMILES: C1=CC(=C(C=C1C(C(=O)O)O)O)O
Method: HCD
Collision_energy: [28.333334]
Isolation_window: 4.0
Ion_mode: N
Num Peaks: 24
72.9922	4.2
112.0395	2.8
118.0289	4.9
119.0494	5.8
123.0079	6.3
124.0158	44.0
124.0395	2.5
125.0186	2.4
135.0443	9.3
137.0602	2.4
138.0550	2.2
139.0032	2.4
139.0394	22.9
163.0394	16.9
166.9982	4.2
168.0058	100.0
169.0090	7.7
181.0500	15.0
181.9914	5.2
182.0553	2.4
183.0293	55.4
183.0636	2.5
184.0333	4.4
184.0607	4.0

Name: (+-)-4-Hydroxymandelic acid
PrecursorMZ: 167.03429
RT: 2.7201
ExactMass: 168.04225873
Spectrum_type: 2
charge: -1
Formula: C8H8O4
SMILES: C1=CC(=CC=C1C(C(=O)O)O)O
Method: HCD
Collision_energy: [28.333334]
Isolation_window: 4.0
Ion_mode: N
Num Peaks: 14
68.0133	12.6
82.0401	14.5
95.0241	13.9
97.0397	17.1
98.0238	15.2
108.0207	68.8
109.0396	10.7
121.0286	13.7
123.0443	100.0
124.0500	14.7
125.0348	17.3
125.0598	12.2
139.0505	13.3
167.0341	23.9

Name: (+/-)-7-hydroxy-4Z,8E,10Z,13Z,16Z,19Z-docosahexaenoic acid
PrecursorMZ: 343.22793
RT: 9.8013
ExactMass: 344.23514488
Spectrum_type: 2
charge: -1
Formula: C22H32O3
SMILES: CC/C=C\C/C=C\C/C=C\C/C=C\C=C\C(C/C=C\CCC(=O)O)O
Method: HCD
Collision_energy: [28.333334]
Isolation_window: 4.0
Ion_mode: N
Num Peaks: 4
299.2378	100.0
300.2411	21.6
343.2277	83.5
344.2311	20.2

Name: (-)-9,10-Dihydrojasmonic acid
PrecursorMZ: 211.13359
RT: 4.9912
ExactMass: 212.1412445
Spectrum_type: 2
charge: -1
Formula: C12H20O3
SMILES: CCCCC[C@@H]1[C@H](CCC1=O)CC(=O)O
Method: HCD
Collision_energy: [28.333334]
Isolation_window: 4.0
Ion_mode: N
Num Peaks: 7
59.0130	3.4
167.1435	4.7
169.1228	11.2
193.1228	5.5
211.1335	100.0
212.1370	13.0
213.1128	8.2

Name: (11-Methyl-2,7-dimethylidene-6,12-dioxo-5,14-dioxatricyclo(9.2.1.04,8)tetradec-1(13)-en-9-yl) 2-methylprop-2-enoate
PrecursorMZ: 343.11892
RT: 4.9057
ExactMass: 344.12598835
Spectrum_type: 2
charge: -1
Formula: C19H20O6
SMILES: CC(=C)C(=O)OC1CC2(C(=O)C=C(O2)C(=C)CC3C1C(=C)C(=O)O3)C
Method: HCD
Collision_energy: [28.333334]
Isolation_window: 4.0
Ion_mode: N
Num Peaks: 25
59.0130	10.2
121.0287	10.5
123.0442	4.9
171.1019	8.7
195.0658	13.6
201.1127	5.7
209.1175	4.7
269.0818	21.9
270.0858	3.9
283.0975	35.2
283.1534	4.0
284.1032	12.4
299.1289	4.9
311.0924	14.4
323.1865	6.7
325.1081	9.9
328.0954	9.2
341.1972	23.5
342.2004	8.5
343.0836	4.8
343.1189	100.0
343.2110	23.8
344.1221	22.5
344.2155	4.3
345.1343	27.8

Name: (1R,2R,4aR,8aS)-1-(2-(furan-3-yl)ethyl)-2,4a,5-trimethyl-2,3,4,7,8,8a-hexahydronaphthalene-1-carboxylic acid
PrecursorMZ: 315.19658
RT: 8.2634
ExactMass: 316.20384475
Spectrum_type: 2
charge: -1
Formula: C20H28O3
SMILES: C[C@@H]1CC[C@@]2([C@@H]([C@]1(CCC3=COC=C3)C(=O)O)CCC=C2C)C
Method: HCD
Collision_energy: [28.333334]
Isolation_window: 4.0
Ion_mode: N
Num Peaks: 7
271.2071	7.9
295.2279	73.1
296.2311	26.5
313.2384	9.2
315.1968	100.0
316.2001	22.8
317.2118	13.8

Name: (1R,2S)-7-hydroxy-1-(4-hydroxy-3,5-dimethoxyphenyl)-2-N,3-N-bis(2-(4-hydroxyphenyl)ethyl)-6,8-dimethoxy-1,2-dihydronaphthalene-2,3-dicarboxamide
PrecursorMZ: 683.26202
RT: 5.2601
ExactMass: 684.26829548
Spectrum_type: 2
charge: -1
Formula: C38H40N2O10
SMILES: COC1=CC(=CC(=C1O)OC)[C@H]2[C@@H](C(=CC3=CC(=C(C(=C23)OC)O)OC)C(=O)NCCC4=CC=C(C=C4)O)C(=O)NCCC5=CC=C(C=C5)O
Method: HCD
Collision_energy: [28.333334]
Isolation_window: 4.0
Ion_mode: N
Num Peaks: 11
189.0550	15.2
336.0870	9.0
337.0953	10.2
341.1033	10.4
351.1110	15.3
352.1191	40.3
504.1666	15.4
505.1736	15.1
520.1976	34.2
683.2618	100.0
684.2643	39.2

Name: (1S,2R,3R,5'R,6R,7R)-5'-(furan-3-yl)-3,6,7-trimethylspiro(9-oxatricyclo(5.2.2.01,6)undecane-2,3'-oxolane)-2',8-dione
PrecursorMZ: 343.15504
RT: 5.504375
ExactMass: 344.16237386
Spectrum_type: 2
charge: -1
Formula: C20H24O5
SMILES: C[C@@H]1CC[C@@]2([C@]3(CC[C@]2([C@@]14C[C@@H](OC4=O)C5=COC=C5)OC3=O)C)C
Method: HCD
Collision_energy: [28.333334]
Isolation_window: 4.0
Ion_mode: N
Num Peaks: 18
59.0129	31.7
83.0493	3.1
121.0285	2.9
143.0702	3.0
253.1232	24.4
254.1264	4.5
271.1335	2.6
283.1338	72.6
284.1370	12.9
299.1291	3.2
301.1443	56.3
302.1477	9.6
341.1952	3.0
343.1550	100.0
343.2136	6.5
343.2547	2.6
344.1574	21.8
345.2287	9.1

Name: (1S,4R)-4,7,7-Trimethyl-3-oxo-2-oxabicyclo(2.2.1)heptane-1-carboxylic acid
PrecursorMZ: 197.0814
RT: 4.1696
ExactMass: 198.08920892
Spectrum_type: 2
charge: -1
Formula: C10H14O4
SMILES: C[C@@]12CC[C@@](C1(C)C)(OC2=O)C(=O)O
Method: HCD
Collision_energy: [28.333334]
Isolation_window: 4.0
Ion_mode: N
Num Peaks: 10
59.0129	20.9
98.9557	5.7
135.0805	6.8
142.9456	9.3
153.0913	100.0
154.0948	8.8
170.9403	6.1
182.0214	25.1
197.0448	11.2
197.0813	5.2

Name: (20S)-Protopanaxatriol
PrecursorMZ: 521.38494
RT: 8.2363
ExactMass: 476.38656014
Spectrum_type: 2
charge: -1
Formula: C30H52O4
SMILES: CC(=CCC[C@@](C)([C@H]1CC[C@@]2([C@@H]1[C@@H](C[C@H]3[C@]2(C[C@@H]([C@@H]4[C@@]3(CC[C@@H](C4(C)C)O)C)O)C)O)C)O)C
Method: HCD
Collision_energy: [28.333334]
Isolation_window: 4.0
Ion_mode: N
Num Peaks: 3
475.3793	43.8
521.3850	100.0
522.3870	31.2

Name: (2E,4E)-12-hydroxy-13-(hydroxymethyl)-14-methoxy-3,5,7-trimethyl-14-oxotetradeca-2,4-dienoic acid
PrecursorMZ: 355.21278
RT: 5.9284
ExactMass: 356.21988874
Spectrum_type: 2
charge: -1
Formula: C19H32O6
SMILES: CC(CCCCC(C(CO)C(=O)OC)O)C/C(=C/C(=C/C(=O)O)/C)/C
Method: HCD
Collision_energy: [28.333334]
Isolation_window: 4.0
Ion_mode: N
Num Peaks: 26
57.0337	8.7
85.0285	11.2
120.0810	10.6
122.0603	19.7
137.0963	5.9
171.1019	36.5
211.1334	9.2
229.1440	8.2
241.1343	6.4
253.1339	8.3
269.1659	21.9
283.1456	4.0
291.1970	7.7
309.2070	13.8
311.1763	25.6
312.1800	4.7
313.1552	7.0
327.2175	100.0
328.2210	19.4
329.2324	5.6
353.2331	6.4
355.1660	33.3
355.2122	24.3
356.1693	6.8
356.2161	5.6
357.1443	13.0

Name: (2R)-2,3-Dihydro-3beta,5,7-trihydroxy-2alpha-(4-hydroxyphenyl)-8-(3-methyl-2-butenyl)-4H-1-benzopyran-4-one
PrecursorMZ: 355.11902
RT: 6.828825
ExactMass: 356.12598835
Spectrum_type: 2
charge: -1
Formula: C20H20O6
SMILES: CC(=CCC1=C2C(=C(C=C1O)O)C(=O)[C@H]([C@@H](O2)C3=CC=C(C=C3)O)O)C
Method: HCD
Collision_energy: [28.333334]
Isolation_window: 4.0
Ion_mode: N
Num Peaks: 9
177.0187	19.8
193.0864	58.4
255.0662	28.3
327.1238	73.0
355.0815	67.0
355.1196	100.0
355.1925	38.0
356.0862	19.3
356.1239	21.1

Name: (2R)-2,3-Dihydroxypropanoic acid
PrecursorMZ: 105.0185
RT: 1.236
ExactMass: 106.02660867
Spectrum_type: 2
charge: -1
Formula: C3H6O4
SMILES: C([C@H](C(=O)O)O)O
Method: HCD
Collision_energy: [28.333334]
Isolation_window: 4.0
Ion_mode: N
Num Peaks: 5
59.0130	20.2
72.9923	53.1
75.0080	22.8
105.0185	100.0
106.0403	38.4

Name: (2R,3R,4S,5R,6R)-2-((7-((2R,3R,4R,5S)-3,4-dihydroxy-5-(hydroxymethyl)oxolan-2-yl)oxy-2-ethenyl-2,4b,8,8-tetramethyl-4,4a,5,6,7,8a,9,10-octahydro-3H-phenanthren-3-yl)oxy)-6-methyloxane-3,4,5-triol
PrecursorMZ: 581.33391
RT: 5.9849
ExactMass: 582.34039779
Spectrum_type: 2
charge: -1
Formula: C31H50O10
SMILES: C[C@@H]1[C@@H]([C@@H]([C@H]([C@@H](O1)OC2CC3C(=CC2(C)C=C)CCC4C3(CCC(C4(C)C)O[C@H]5[C@@H]([C@H]([C@@H](O5)CO)O)O)C)O)O)O
Method: HCD
Collision_energy: [28.333334]
Isolation_window: 4.0
Ion_mode: N
Num Peaks: 19
61.9875	100.0
87.0443	3.7
99.0444	3.9
101.0600	5.5
113.0598	8.2
125.0605	4.3
149.0969	3.9
153.0917	3.8
165.0916	8.7
259.1454	15.5
260.1482	5.4
517.3186	8.3
533.3099	4.0
534.3180	4.5
535.3299	24.6
536.3329	8.2
537.3436	12.3
580.3121	3.4
581.3361	5.7

Name: (2S)-3-(4-hydroxyphenyl)-2-(((4R)-4-((3R,5R,6S,7R,8S,9S,10R,13R,14S,17R)-3,6,7-trihydroxy-10,13-dimethyl-2,3,4,5,6,7,8,9,11,12,14,15,16,17-tetradecahydro-1H-cyclopenta(a)phenanthren-17-yl)pentanoyl)amino)propanoic acid
PrecursorMZ: 570.34455
RT: 5.3459
ExactMass: 571.3509029
Spectrum_type: 2
charge: -1
Formula: C33H49NO7
SMILES: C[C@H](CCC(=O)N[C@@H](CC1=CC=C(C=C1)O)C(=O)O)[C@H]2CC[C@@H]3[C@@]2(CC[C@H]4[C@H]3[C@H]([C@H]([C@H]5[C@@]4(CC[C@H](C5)O)C)O)O)C
Method: HCD
Collision_energy: [28.333334]
Isolation_window: 4.0
Ion_mode: N
Num Peaks: 19
63.3698	2.0
63.3736	4.4
74.0239	3.9
119.0496	5.3
163.0395	3.3
180.0662	51.2
181.0697	3.7
344.1266	3.2
359.1508	6.5
373.1276	4.6
385.1236	4.4
464.3021	2.5
526.3554	7.1
569.2007	8.0
569.3379	5.8
570.2033	3.4
570.3452	100.0
571.3496	32.9
572.3539	5.9

Name: (2S)-3-phenyl-2-(((4R)-4-((3R,5R,6S,7R,8S,9S,10R,13R,14S,17R)-3,6,7-trihydroxy-10,13-dimethyl-2,3,4,5,6,7,8,9,11,12,14,15,16,17-tetradecahydro-1H-cyclopenta(a)phenanthren-17-yl)pentanoyl)amino)propanoic acid
PrecursorMZ: 554.34887
RT: 6.8251333333333335
ExactMass: 555.35598828
Spectrum_type: 2
charge: -1
Formula: C33H49NO6
SMILES: C[C@H](CCC(=O)N[C@@H](CC1=CC=CC=C1)C(=O)O)[C@H]2CC[C@@H]3[C@@]2(CC[C@H]4[C@H]3[C@H]([C@H]([C@H]5[C@@]4(CC[C@H](C5)O)C)O)O)C
Method: HCD
Collision_energy: [28.333334]
Isolation_window: 4.0
Ion_mode: N
Num Peaks: 10
61.5962	3.8
61.9875	8.1
147.0444	6.7
164.0710	47.1
165.0746	3.9
388.2862	4.9
553.3230	14.0
554.3491	100.0
555.3516	45.9
556.3543	8.6

Name: (2r)-1-(2,4-Dihydroxyphenyl)-2-(4-methoxyphenyl)propan-1-one
PrecursorMZ: 271.09683
RT: 7.2691
ExactMass: 272.10485899
Spectrum_type: 2
charge: -1
Formula: C16H16O4
SMILES: C[C@H](C1=CC=C(C=C1)OC)C(=O)C2=C(C=C(C=C2)O)O
Method: HCD
Collision_energy: [28.333334]
Isolation_window: 4.0
Ion_mode: N
Num Peaks: 17
107.0127	8.5
108.0208	3.2
109.0285	3.3
120.0244	4.0
123.0076	2.5
135.0077	3.6
136.0155	18.8
153.0183	2.5
256.0731	1.4
269.0528	2.1
270.0599	1.7
271.0686	38.1
271.0735	2.7
271.0971	100.0
271.2090	3.5
272.0717	5.6
272.1005	18.0

Name: (3R,5R,6S,7S,9R,11E,13S,14R)-14-Ethyl-13-hydroxy-3,5,7,9,13-pentamethyl-2,4,10-trioxooxacyclotetradec-11-en-6-yl 3,4,6-trideoxy-3-(dimethylamino)-D-xylo-hexopyranoside
PrecursorMZ: 524.32293
RT: 6.1069
ExactMass: 525.33016746
Spectrum_type: 2
charge: -1
Formula: C28H47NO8
SMILES: CC[C@@H]1[C@@](/C=C/C(=O)[C@@H](C[C@@H]([C@@H]([C@H](C(=O)[C@H](C(=O)O1)C)C)OC2[C@@H]([C@H](C[C@H](O2)C)N(C)C)O)C)C)(C)O
Method: HCD
Collision_energy: [28.333334]
Isolation_window: 4.0
Ion_mode: N
Num Peaks: 8
59.0129	16.3
74.0237	13.3
163.0757	29.2
522.3474	89.1
523.3525	100.0
524.3220	74.5
525.3337	68.4
526.3392	20.1

Name: (4,5-dihydroxy-3,4-bis(hydroxymethyl)-4a,8,8-trimethyl-5,6,7,8a-tetrahydro-1H-naphthalen-1-yl) octanoate
PrecursorMZ: 447.2517
RT: 8.1883
ExactMass: 412.28248899
Spectrum_type: 2
charge: -1
Formula: C23H40O6
SMILES: CCCCCCCC(=O)OC1C=C(C(C2(C1C(CCC2O)(C)C)C)(CO)O)CO
Method: HCD
Collision_energy: [28.333334]
Isolation_window: 4.0
Ion_mode: N
Num Peaks: 5
167.0114	10.9
279.2338	100.0
280.2371	18.8
447.2540	52.2
448.2573	12.1

Name: (4R,4aS,8aS)-1-Hydroxy-2-(hydroxymethyl)-5,5,8a-trimethyl-4-((2E,4E,6E)-2,4,6-octatrienoyloxy)-1,4,4a,5,6,7,8,8a-octahydro-1-naphthalenecarboxylic acid
PrecursorMZ: 403.2133
RT: 5.7155
ExactMass: 404.21988874
Spectrum_type: 2
charge: -1
Formula: C23H32O6
SMILES: C/C=C/C=C/C=C/C(=O)O[C@@H]1C=C(C([C@@]2([C@@H]1C(CCC2)(C)C)C)(C(=O)O)O)CO
Method: HCD
Collision_energy: [28.333334]
Isolation_window: 4.0
Ion_mode: N
Num Peaks: 24
59.0130	4.9
91.0392	4.3
122.0366	17.2
123.0445	74.6
124.0478	7.4
171.1022	3.9
181.1229	4.3
199.1339	4.3
211.1339	5.4
273.1710	6.2
293.2126	4.8
311.2231	6.4
341.2129	6.8
341.2517	6.5
359.2235	65.3
360.2269	15.1
385.2392	75.7
386.2420	20.7
401.2545	6.8
403.2132	67.8
403.2630	51.9
404.2170	16.5
404.2661	16.9
405.2657	100.0

Name: (4aR,5S,8aS,9aR)-9a-hydroxy-3,4a,5-trimethyl-5,6,7,8,8a,9-hexahydro-4H-benzo(f)(1)benzofuran-2-one
PrecursorMZ: 249.14951
RT: 7.3191
ExactMass: 250.15689456
Spectrum_type: 2
charge: -1
Formula: C15H22O3
SMILES: C[C@H]1CCC[C@@H]2[C@@]1(CC3=C(C(=O)O[C@@]3(C2)O)C)C
Method: HCD
Collision_energy: [28.333334]
Isolation_window: 4.0
Ion_mode: N
Num Peaks: 7
184.0011	20.5
219.1388	5.1
247.1703	13.7
248.0798	64.3
248.5816	17.8
249.1495	100.0
250.1528	17.1

Name: (4aR,9aR)-8,8-dimethyl-1-methylidene-2-oxo-4a,6a,7,9-tetrahydro-4H-pentaleno(1,6a-c)pyran-5-carboxylic acid
PrecursorMZ: 261.11313
RT: 5.900566666666666
ExactMass: 262.12050905
Spectrum_type: 2
charge: -1
Formula: C15H18O4
SMILES: CC1(CC2C=C([C@H]3[C@]2(C1)C(=C)C(=O)OC3)C(=O)O)C
Method: HCD
Collision_energy: [28.333334]
Isolation_window: 4.0
Ion_mode: N
Num Peaks: 4
215.1067	19.9
217.1228	48.3
261.1131	100.0
262.1169	14.4

Name: (4aS,6aS,6bR,8R,9R,10R,11R,12aR,14bS)-8,10,11-trihydroxy-9-(hydroxymethyl)-2,2,6a,6b,9,12a-hexamethyl-1,3,4,5,6,6a,7,8,8a,10,11,12,13,14b-tetradecahydropicene-4a-carboxylic acid
PrecursorMZ: 503.33829
RT: 7.5701
Spectrum_type: 2
charge: -1
SMILES: C[C@@]12CC[C@]3(CCC(C[C@H]3C1=CCC4[C@]2(C[C@H](C5[C@@]4(C[C@H]([C@@H]([C@@]5(C)CO)O)O)C)O)C)(C)C)C(=O)O
Method: HCD
Collision_energy: [28.333334]
Isolation_window: 4.0
Ion_mode: N
Num Peaks: 3
61.9875	21.8
457.3336	100.0
458.3369	33.9

Name: (5S,5aR,8aR,9R)-5-hydroxy-9-(4-hydroxy-3,5-dimethoxyphenyl)-5a,6,8a,9-tetrahydro-5H-(2)benzofuro(5,6-f)(1,3)benzodioxol-8-one
PrecursorMZ: 445.11412
RT: 3.9688999999999997
ExactMass: 400.11581759
Spectrum_type: 2
charge: -1
Formula: C21H20O8
SMILES: COC1=CC(=CC(=C1O)OC)C2C3C(COC3=O)C(C4=CC5=C(C=C24)OCO5)O
Method: HCD
Collision_energy: [28.333334]
Isolation_window: 4.0
Ion_mode: N
Num Peaks: 17
61.9875	10.5
121.0286	41.7
153.0550	33.5
188.0470	44.3
189.0550	52.4
203.0709	35.0
232.0370	9.4
326.0791	10.9
327.0870	60.7
328.0899	10.2
341.1030	32.3
342.1097	22.4
386.1004	12.4
401.1240	100.0
402.1267	27.4
445.1134	10.8
447.1297	42.7

Name: (S)-2-(1-methyl-1H-indole-2-carboxamido)-3-phenylpropanoic acid
PrecursorMZ: 321.12371
RT: 4.0164
ExactMass: 322.13174244
Spectrum_type: 2
charge: -1
Formula: C19H18N2O3
SMILES: CN1C2=CC=CC=C2C=C1C(=O)N[C@@H](CC3=CC=CC=C3)C(=O)O
Method: HCD
Collision_energy: [28.333334]
Isolation_window: 4.0
Ion_mode: N
Num Peaks: 17
72.0079	3.9
92.0494	15.3
116.0495	10.3
137.0596	5.4
169.0761	38.2
170.0800	4.8
171.0918	9.1
173.0710	100.0
174.0748	9.3
184.0757	12.4
234.0916	9.1
275.1179	6.2
277.1340	40.9
278.1375	9.0
302.1515	3.8
321.1239	48.6
322.1277	10.5

Name: (S)-2-(2-(5-methoxy-1H-indol-1-yl)acetamido)-3-phenylpropanoic acid
PrecursorMZ: 351.13516
RT: 5.1932
ExactMass: 352.14230712
Spectrum_type: 2
charge: -1
Formula: C20H20N2O4
SMILES: COC1=CC2=C(C=C1)N(C=C2)CC(=O)N[C@@H](CC3=CC=CC=C3)C(=O)O
Method: HCD
Collision_energy: [28.333334]
Isolation_window: 4.0
Ion_mode: N
Num Peaks: 23
74.0238	51.7
116.0496	9.5
142.0654	2.5
147.0444	4.9
159.0919	3.9
160.0756	2.9
164.0709	14.8
178.0866	8.6
203.0820	68.3
204.0662	3.0
204.0856	7.6
222.0767	29.2
223.0795	3.5
307.1449	8.9
349.1738	2.2
349.2033	29.8
350.2069	12.0
351.1353	100.0
351.1816	8.4
351.2172	2.6
352.1386	23.4
353.1975	8.3
353.2351	4.6

Name: (Z)-8-((Z)-hexadec-9-enoyl)oxyoctadec-9-enoic acid
PrecursorMZ: 533.45792
RT: 11.67305
ExactMass: 534.46481045
Spectrum_type: 2
charge: -1
Formula: C34H62O4
SMILES: CCCCCCCC/C=C\C(CCCCCCC(=O)O)OC(=O)CCCCCCC/C=C\CCCCCC
Method: HCD
Collision_energy: [28.333334]
Isolation_window: 4.0
Ion_mode: N
Num Peaks: 16
59.4953	1.1
59.4987	2.5
253.2172	100.0
255.2328	43.8
256.2363	6.5
271.2279	6.3
277.2172	12.6
278.2209	2.9
279.2323	1.5
281.2485	49.6
295.2278	7.9
296.2308	1.4
299.2591	16.7
533.4572	9.6
534.4606	3.3
535.4734	57.1

Name: 1-(3-Methyl-1H-pyrazole-5-carbonyl)-4-phenyl-3-(pyrrolidin-1-YL)piperidin-4-OL
PrecursorMZ: 399.20295
RT: 5.8304
ExactMass: 354.20557608
Spectrum_type: 2
charge: -1
Formula: C20H26N4O2
SMILES: CC1=CC(=NN1)C(=O)N2CC[C@@]([C@@H](C2)N3CCCC3)(C4=CC=CC=C4)O
Method: HCD
Collision_energy: [28.333334]
Isolation_window: 4.0
Ion_mode: N
Num Peaks: 6
73.0286	20.8
143.0704	17.8
205.1078	24.6
353.1972	100.0
354.2011	21.1
399.1381	23.1

Name: 1-(8-hydroxy-3-methyl-1-((2S,3R,4S,5S,6R)-3,4,5-trihydroxy-6-(hydroxymethyl)oxan-2-yl)oxynaphthalen-2-yl)ethanone
PrecursorMZ: 377.12476
RT: 4.960775
ExactMass: 378.13146766
Spectrum_type: 2
charge: -1
Formula: C19H22O8
SMILES: CC1=CC2=C(C(=CC=C2)O)C(=C1C(=O)C)O[C@H]3[C@@H]([C@H]([C@@H]([C@H](O3)CO)O)O)O
Method: HCD
Collision_energy: [28.333334]
Isolation_window: 4.0
Ion_mode: N
Num Peaks: 15
72.9922	6.0
242.1183	2.6
258.1499	3.3
269.1295	100.0
270.1327	17.2
301.1555	6.4
303.1236	9.2
304.1267	1.7
313.1194	13.8
314.1226	2.6
345.1455	56.2
346.1487	11.8
377.1245	4.3
377.1716	14.4
378.1743	3.2

Name: 1-Carboxycyclohexaneacetic acid
PrecursorMZ: 185.08136
RT: 3.3644
ExactMass: 186.08920892
Spectrum_type: 2
charge: -1
Formula: C9H14O4
SMILES: C1CCC(CC1)(CC(=O)O)C(=O)O
Method: HCD
Collision_energy: [28.333334]
Isolation_window: 4.0
Ion_mode: N
Num Peaks: 6
123.0806	11.3
141.0913	100.0
142.0947	8.4
157.0506	5.7
160.0510	5.4
185.0814	23.2

Name: 1-Eicosanoyl-glycero-3-phosphoethanolamine
PrecursorMZ: 508.34017
RT: 9.116385714285714
ExactMass: 509.34814
Spectrum_type: 2
charge: -1
Formula: C25H52NO7P
SMILES: CCCCCCCCCCCCCCCCCCCC(=O)OC[C@H](COP(=O)(O)OCCN)O
Method: HCD
Collision_energy: [28.333334]
Isolation_window: 4.0
Ion_mode: N
Num Peaks: 10
56.4856	3.6
78.9581	63.0
140.0110	95.7
196.0372	4.9
311.2954	44.5
312.2988	9.8
507.3701	3.3
508.3542	100.0
509.3570	29.4
510.3651	5.0

Name: 11,12-dihydroxy-5Z,8Z,14Z-eicosatrienoic acid
PrecursorMZ: 319.22808
RT: 8.2252
ExactMass: 338.24570956
Spectrum_type: 2
charge: -1
Formula: C20H34O4
SMILES: CCCCC/C=C\CC(C(C/C=C\C/C=C\CCCC(=O)O)O)O
Method: HCD
Collision_energy: [28.333334]
Isolation_window: 4.0
Ion_mode: N
Num Peaks: 11
59.0131	6.0
175.1490	9.3
219.1392	14.2
257.2275	8.4
301.2171	19.9
317.2123	10.8
318.2149	8.4
319.1920	10.3
319.2278	81.1
320.2309	17.8
321.2437	100.0

Name: 11,14,17-Eicosatrienoic acid
PrecursorMZ: 305.2473
RT: 9.9144
ExactMass: 306.255880323
Spectrum_type: 2
charge: -1
Formula: C20H34O2
SMILES: CC/C=C/C/C=C/C/C=C/CCCCCCCCCC(=O)O
Method: HCD
Collision_energy: [28.333334]
Isolation_window: 4.0
Ion_mode: N
Num Peaks: 3
213.1670	14.5
305.2473	100.0
306.2509	20.2

Name: 13-HOTrE
PrecursorMZ: 293.21223
RT: 8.2059
ExactMass: 294.21949481
Spectrum_type: 2
charge: -1
Formula: C18H30O3
SMILES: CC/C=C\CC(/C=C/C=C\CCCCCCCC(=O)O)O
Method: HCD
Collision_energy: [28.333334]
Isolation_window: 4.0
Ion_mode: N
Num Peaks: 10
96.9590	6.9
220.1464	7.2
221.1540	21.4
236.1050	24.6
277.2173	6.3
293.1782	26.4
293.2120	100.0
294.1819	4.5
294.2152	17.5
295.2275	15.6

Name: 16-Hydroxy-4,4,8,10,14-pentamethyl-17-(4,5,6-trihydroxy-6-methylheptan-2-yl)-1,2,5,6,7,9,11,12,15,16-decahydrocyclopenta(a)phenanthren-3-one
PrecursorMZ: 535.36404
RT: 6.6527
ExactMass: 490.36582469
Spectrum_type: 2
charge: -1
Formula: C30H50O5
SMILES: CC(CC(C(C(C)(C)O)O)O)C1=C2CCC3C4(CCC(=O)C(C4CCC3(C2(CC1O)C)C)(C)C)C
Method: HCD
Collision_energy: [28.333334]
Isolation_window: 4.0
Ion_mode: N
Num Peaks: 5
61.9875	58.0
87.0442	26.6
535.3201	68.1
536.3412	100.0
537.3406	65.7

Name: 2'-(4-Chlorophenyl)-6-(4-methylpiperazin-1-yl)-1H,3'H-2,5'-bibenzimidazole
PrecursorMZ: 441.15938
RT: 3.4534
ExactMass: 442.1672725
Spectrum_type: 2
charge: -1
Formula: C25H23ClN6
SMILES: CN1CCN(CC1)C2=CC3=C(C=C2)N=C(N3)C4=CC5=C(C=C4)N=C(N5)C6=CC=C(C=C6)Cl
Method: HCD
Collision_energy: [28.333334]
Isolation_window: 4.0
Ion_mode: N
Num Peaks: 11
79.9566	8.7
96.9593	36.6
124.0066	6.5
381.1390	9.5
411.1493	30.5
412.1526	5.9
440.1114	10.2
441.1612	100.0
442.1624	25.3
443.1399	8.8
443.1782	8.1

Name: 2,5-Dihydroxybenzoate
PrecursorMZ: 153.01872
RT: 2.5615
ExactMass: 153.01878364
Spectrum_type: 2
charge: -1
Formula: C7H5O4-
SMILES: C1=CC(=C(C=C1O)C(=O)O)[O-]
Method: HCD
Collision_energy: [28.333334]
Isolation_window: 4.0
Ion_mode: N
Num Peaks: 34
66.0340	2.4
68.9973	1.6
69.0337	2.7
71.0130	2.2
81.0337	4.9
81.0448	1.6
82.0289	1.8
83.0129	1.6
85.0286	13.2
95.0129	14.1
107.0494	1.6
108.0208	49.4
108.0446	1.5
109.0287	100.0
109.0650	1.7
110.0239	5.4
110.0321	6.2
111.0443	7.9
111.0806	3.5
113.0236	1.6
123.0079	13.1
123.0442	3.2
125.0349	1.8
138.0682	1.9
151.0394	12.9
151.0757	1.8
152.0109	10.5
152.0345	2.7
152.0444	1.8
152.0709	1.8
152.9958	1.4
153.0187	79.5
154.0223	5.8
155.0344	1.4

Name: 2-(((4R)-4-((3R,7R,8R,9S,10S,12S,13R,14S,17R)-3,7,12-trihydroxy-10,13-dimethyl-2,3,4,5,6,7,8,9,11,12,14,15,16,17-tetradecahydro-1H-cyclopenta(a)phenanthren-17-yl)pentanoyl)amino)ethanesulfonic acid
PrecursorMZ: 514.28489
RT: 3.8618
ExactMass: 515.29167395
Spectrum_type: 2
charge: -1
Formula: C26H45NO7S
SMILES: C[C@H](CCC(=O)NCCS(=O)(=O)O)[C@H]1CC[C@@H]2[C@@]1([C@H](C[C@H]3[C@H]2[C@@H](CC4[C@@]3(CC[C@H](C4)O)C)O)O)C
Method: HCD
Collision_energy: [28.333334]
Isolation_window: 4.0
Ion_mode: N
Num Peaks: 9
57.1413	2.0
57.1445	4.3
96.9593	8.5
513.2133	2.8
514.2174	2.9
514.2850	100.0
515.2254	3.6
515.2906	26.8
516.2909	6.6

Name: 2-((2R,4aS,8S,8aS)-8-(2-((4aS,7R,8aR)-7-(1-carboxyethenyl)-1-hydroxy-4a-methyl-2-oxo-6,7,8,8a-tetrahydro-5H-naphthalen-1-yl)ethyl)-4a-methyl-7-oxo-1,2,3,4,8,8a-hexahydronaphthalen-2-yl)prop-2-enoic acid
PrecursorMZ: 509.25524
RT: 7.0478
ExactMass: 510.26175355
Spectrum_type: 2
charge: -1
Formula: C30H38O7
SMILES: C[C@@]12CC[C@H](C[C@H]1[C@@H](C(=O)C=C2)CCC3([C@@H]4C[C@@H](CC[C@]4(C=CC3=O)C)C(=C)C(=O)O)O)C(=C)C(=O)O
Method: HCD
Collision_energy: [28.333334]
Isolation_window: 4.0
Ion_mode: N
Num Peaks: 13
56.5823	1.9
56.5855	5.0
56.6969	1.3
56.8135	1.1
69.0614	1.1
96.9587	6.2
507.2719	2.8
507.3083	2.1
508.2695	3.2
509.2538	100.0
510.2568	28.1
511.2500	4.8
511.3043	17.1

Name: 2-(6-Hydroxyhexyl)-3-methylidenebutanedioic acid
PrecursorMZ: 229.1078
RT: 4.4515
ExactMass: 230.11542367
Spectrum_type: 2
charge: -1
Formula: C11H18O5
SMILES: C=C(C(CCCCCCO)C(=O)O)C(=O)O
Method: HCD
Collision_energy: [28.333334]
Isolation_window: 4.0
Ion_mode: N
Num Peaks: 8
138.9641	11.0
182.9541	52.5
185.1176	100.0
186.1211	10.8
210.9493	13.1
228.9597	11.6
229.1080	17.0
230.1756	14.8

Name: 2-(Dibenzylamino)-1-(4-hydroxy-3-methoxyphenyl)ethanone
PrecursorMZ: 360.16069
RT: 8.3149
ExactMass: 361.1677936
Spectrum_type: 2
charge: -1
Formula: C23H23NO3
SMILES: COC1=C(C=CC(=C1)C(=O)CN(CC2=CC=CC=C2)CC3=CC=CC=C3)O
Method: HCD
Collision_energy: [28.333334]
Isolation_window: 4.0
Ion_mode: N
Num Peaks: 27
97.3381	2.7
99.0442	29.0
196.0763	10.8
208.0764	22.7
209.0828	7.3
210.0924	3.0
221.0842	17.2
222.0890	3.9
231.1747	2.7
241.0743	3.1
246.0923	19.1
247.0965	4.9
248.1080	5.5
249.1496	5.1
260.1083	5.2
261.1134	2.7
309.1862	3.9
314.1549	5.3
316.1706	100.0
317.1742	24.1
327.1970	3.1
333.2434	10.9
359.1532	2.7
359.2234	11.1
360.1607	54.7
361.1649	13.7
361.2326	2.5

Name: 2-Ethyl-2-hydroxybutanoic acid
PrecursorMZ: 131.07068
RT: 3.1785
ExactMass: 132.078644241
Spectrum_type: 2
charge: -1
Formula: C6H12O3
SMILES: CCC(CC)(C(=O)O)O
Method: HCD
Collision_energy: [28.333334]
Isolation_window: 4.0
Ion_mode: N
Num Peaks: 3
85.0651	62.6
131.0707	52.2
132.8672	100.0

Name: 2alpha,9alpha,11-Trihydroxy-6-oxodrim-7-ene
PrecursorMZ: 313.16594
RT: 5.120966666666667
ExactMass: 268.16745924
Spectrum_type: 2
charge: -1
Formula: C15H24O4
SMILES: CC1=CC(=O)[C@@H]2[C@@]([C@]1(CO)O)(C[C@H](CC2(C)C)O)C
Method: HCD
Collision_energy: [28.333334]
Isolation_window: 4.0
Ion_mode: N
Num Peaks: 34
72.9922	6.8
75.0079	25.3
96.9592	7.7
123.0443	5.4
139.1121	6.7
149.0963	6.7
151.0757	6.9
171.1020	9.8
184.0762	25.2
193.1230	10.9
207.1748	7.1
219.1017	6.5
237.1132	27.9
237.1483	5.5
249.1494	6.1
251.1290	9.0
251.1652	8.3
267.1600	9.3
269.1748	8.0
271.1449	5.4
281.1036	8.7
293.2121	17.2
295.1554	10.1
311.1503	23.7
311.1862	6.8
312.1525	8.6
313.1185	11.3
313.1652	88.0
313.2354	8.7
314.1196	100.0
314.1680	16.0
314.6212	33.1
315.1275	95.4
315.1765	7.8

Name: 3,15-Dihydroxyhexadecanoic acid
PrecursorMZ: 287.22282
RT: 6.8612
ExactMass: 288.2300595
Spectrum_type: 2
charge: -1
Formula: C16H32O4
SMILES: CC(CCCCCCCCCCCC(CC(=O)O)O)O
Method: HCD
Collision_energy: [28.333334]
Isolation_window: 4.0
Ion_mode: N
Num Peaks: 5
59.0129	100.0
60.0162	2.4
227.2014	17.0
287.2227	93.6
288.2262	14.5

Name: 3,3'-Dinitrobisphenol A
PrecursorMZ: 317.07772
RT: 8.2651
ExactMass: 318.08518617
Spectrum_type: 2
charge: -1
Formula: C15H14N2O6
SMILES: CC(C)(C1=CC(=C(C=C1)O)[N+](=O)[O-])C2=CC(=C(C=C2)O)[N+](=O)[O-]
Method: HCD
Collision_energy: [28.333334]
Isolation_window: 4.0
Ion_mode: N
Num Peaks: 3
285.0516	19.3
317.0779	100.0
318.0802	14.6

Name: 3,4-Dehydro-6-hydroxymellein
PrecursorMZ: 191.03447
RT: 4.574
ExactMass: 192.04225873
Spectrum_type: 2
charge: -1
Formula: C10H8O4
SMILES: CC1=CC2=CC(=CC(=C2C(=O)O1)O)O
Method: HCD
Collision_energy: [28.333334]
Isolation_window: 4.0
Ion_mode: N
Num Peaks: 19
87.0078	0.8
87.9244	3.4
90.9327	1.2
101.9510	1.3
102.9479	49.4
103.9193	3.5
103.9481	1.1
111.0079	1.6
143.8643	1.3
145.9403	0.7
146.9379	17.4
147.0446	1.9
149.0239	1.1
161.8751	0.7
171.1020	0.9
191.0345	100.0
191.0708	0.9
192.0379	10.8
193.0389	0.7

Name: 3,6-bis(1H-indol-3-ylmethyl)piperazine-2,5-dione
PrecursorMZ: 371.15151
RT: 7.8381
ExactMass: 372.15862589
Spectrum_type: 2
charge: -1
Formula: C22H20N4O2
SMILES: C1=CC=C2C(=C1)C(=CN2)CC3C(=O)NC(C(=O)N3)CC4=CNC5=CC=CC=C54
Method: HCD
Collision_energy: [28.333334]
Isolation_window: 4.0
Ion_mode: N
Num Peaks: 7
325.1461	20.0
327.1624	100.0
328.1656	19.3
341.1420	9.9
371.1522	35.2
371.2431	5.7
372.1557	8.1

Name: 3-((2,6-Dihydroxy-3,4-dimethylphenyl)methyl)-2,4-dihydroxy-6-methylbenzaldehyde
PrecursorMZ: 301.10829
RT: 4.6185
ExactMass: 302.11542367
Spectrum_type: 2
charge: -1
Formula: C17H18O5
SMILES: CC1=CC(=C(C(=C1C)O)CC2=C(C=C(C(=C2O)C=O)C)O)O
Method: HCD
Collision_energy: [28.333334]
Isolation_window: 4.0
Ion_mode: N
Num Peaks: 8
119.0493	25.2
121.0650	16.9
135.0443	55.2
165.0549	100.0
166.0582	8.0
300.1257	8.2
301.1069	23.0
302.1047	11.1

Name: 3-((2R,3S)-5-hydroxy-2,3,8,8-tetramethyl-4-oxo-2,3-dihydropyrano(2,3-h)chromen-6-yl)hexanoic acid
PrecursorMZ: 387.18204
RT: 7.2734
ExactMass: 388.18858861
Spectrum_type: 2
charge: -1
Formula: C22H28O6
SMILES: CCCC(CC(=O)O)C1=C2C(=C3C(=C1O)C(=O)[C@H]([C@H](O3)C)C)C=CC(O2)(C)C
Method: HCD
Collision_energy: [28.333334]
Isolation_window: 4.0
Ion_mode: N
Num Peaks: 16
72.9923	26.6
241.1604	7.3
253.1598	5.6
269.1910	10.1
279.1757	9.7
281.1916	44.8
282.1947	9.6
297.1848	4.2
325.1816	8.2
343.1920	40.8
344.1951	10.0
387.1817	100.0
387.2529	9.8
388.1837	24.2
389.1963	14.8
389.2701	60.6

Name: 3-((7S,8R)-5-hydroxy-2,2,7,8-tetramethyl-6-oxo-7,8-dihydropyrano(3,2-g)chromen-10-yl)-3-phenylpropanoic acid
PrecursorMZ: 421.16534
RT: 5.0498
ExactMass: 422.17293854
Spectrum_type: 2
charge: -1
Formula: C25H26O6
SMILES: C[C@H]1[C@H](OC2=C(C1=O)C(=C3C=CC(OC3=C2C(CC(=O)O)C4=CC=CC=C4)(C)C)O)C
Method: HCD
Collision_energy: [28.333334]
Isolation_window: 4.0
Ion_mode: N
Num Peaks: 28
59.0129	2.4
61.9874	5.7
70.0289	1.8
86.0602	2.4
115.0503	4.4
123.0443	4.8
130.0324	4.3
143.0703	1.8
146.0641	4.8
146.0814	13.4
147.0589	1.8
155.0708	1.7
175.0540	11.1
217.1189	6.5
277.1226	37.0
278.1256	5.1
285.1867	2.1
305.1174	9.7
347.1596	3.9
349.2383	4.8
377.2699	10.8
378.2727	2.6
403.2492	10.0
404.2535	2.2
419.2522	4.1
421.2632	100.0
422.2664	25.3
423.2793	10.4

Name: 3-(2-(6,7-dihydroxy-1,2,4a-trimethylspiro(3,4,6,7,8,8a-hexahydro-2H-naphthalene-5,2'-oxirane)-1-yl)ethyl)-2-hydroxy-2H-furan-5-one
PrecursorMZ: 365.19724
RT: 6.1455
ExactMass: 366.20423867
Spectrum_type: 2
charge: -1
Formula: C20H30O6
SMILES: CC1CCC2(C(C1(C)CCC3=CC(=O)OC3O)CC(C(C24CO4)O)O)C
Method: HCD
Collision_energy: [28.333334]
Isolation_window: 4.0
Ion_mode: N
Num Peaks: 14
259.2072	7.1
277.2174	12.5
303.1967	7.8
305.2130	5.9
321.2075	22.8
322.2108	4.3
323.2225	5.0
347.1874	7.6
349.2025	3.6
363.2182	3.9
365.1969	100.0
365.2340	9.5
366.2018	22.5
367.2123	26.7

Name: 3-Amino-5-hydroxybenzoic acid
PrecursorMZ: 152.0341
RT: 2.8791
ExactMass: 153.042593085
Spectrum_type: 2
charge: -1
Formula: C7H7NO3
SMILES: C1=C(C=C(C=C1N)O)C(=O)O
Method: HCD
Collision_energy: [28.333334]
Isolation_window: 4.0
Ion_mode: N
Num Peaks: 13
66.0338	40.5
67.0291	22.3
81.0446	17.5
94.0287	43.9
107.0491	100.0
108.0443	28.3
109.0283	35.3
109.0396	18.4
110.0236	51.4
151.0391	72.1
152.0335	20.2
152.0451	15.8
153.0183	27.9

Name: 3-Carboxy-6,7-dihydroxy-1-(3',4'-dihydroxyphenyl)-naphthalene
PrecursorMZ: 311.0563
RT: 3.9843
ExactMass: 312.0633881
Spectrum_type: 2
charge: -1
Formula: C17H12O6
SMILES: C1=CC(=C(C=C1C2=C3C=C(C(=CC3=CC(=C2)C(=O)O)O)O)O)O
Method: HCD
Collision_energy: [28.333334]
Isolation_window: 4.0
Ion_mode: N
Num Peaks: 8
267.0662	57.0
268.0701	11.0
309.1336	4.3
311.0559	100.0
311.1478	4.0
312.0591	16.5
313.0709	3.9
313.1657	8.2

Name: 3-Hydroxy-2-octylpentanedioic acid
PrecursorMZ: 259.15517
RT: 5.0037
ExactMass: 260.16237386
Spectrum_type: 2
charge: -1
Formula: C13H24O5
SMILES: CCCCCCCCC(C(CC(=O)O)O)C(=O)O
Method: HCD
Collision_energy: [28.333334]
Isolation_window: 4.0
Ion_mode: N
Num Peaks: 10
59.0130	6.2
187.0975	5.8
197.1544	20.1
199.1336	17.8
201.1130	13.4
213.1492	20.7
241.1448	12.2
257.1397	15.7
259.1552	100.0
260.1586	14.2

Name: 3-Methyl-DL-aspartic acid
PrecursorMZ: 146.04494
RT: 0.8539
ExactMass: 147.05315777
Spectrum_type: 2
charge: -1
Formula: C5H9NO4
SMILES: CC(C(C(=O)O)N)C(=O)O
Method: HCD
Collision_energy: [28.333334]
Isolation_window: 4.0
Ion_mode: N
Num Peaks: 8
74.9609	2.9
85.0285	3.8
102.0550	100.0
103.0583	5.6
128.0344	45.3
129.0184	7.3
129.0379	3.5
146.0450	22.8

Name: 3-O-Acetyl-16alpha-hydroxytrametenolic acid
PrecursorMZ: 513.3585
RT: 7.8735
ExactMass: 514.36582469
Spectrum_type: 2
charge: -1
Formula: C32H50O5
SMILES: CC(=CCC[C@H]([C@H]1[C@@H](C[C@@]2([C@@]1(CCC3=C2CCC4[C@@]3(CC[C@@H](C4(C)C)OC(=O)C)C)C)C)O)C(=O)O)C
Method: HCD
Collision_energy: [28.333334]
Isolation_window: 4.0
Ion_mode: N
Num Peaks: 4
445.3699	100.0
446.3735	28.2
513.3565	90.0
514.3602	31.9

Name: 3-O-Acetylpadmatin
PrecursorMZ: 359.07758
RT: 3.6505
ExactMass: 360.08451746
Spectrum_type: 2
charge: -1
Formula: C18H16O8
SMILES: CC(=O)O[C@@H]1[C@H](OC2=CC(=CC(=C2C1=O)O)OC)C3=CC(=C(C=C3)O)O
Method: HCD
Collision_energy: [28.333334]
Isolation_window: 4.0
Ion_mode: N
Num Peaks: 21
109.0285	5.9
128.0344	7.0
135.0443	4.4
149.0601	8.4
177.0185	23.9
227.0347	5.9
255.0661	100.0
256.0695	17.1
271.0975	9.3
299.0559	95.6
300.0595	15.5
315.0877	12.3
357.2008	4.6
359.0777	33.5
359.1172	11.0
359.1709	4.2
359.2084	31.2
360.0737	5.7
360.2110	5.8
361.0931	6.7
361.2239	9.4

Name: 3-O-phenylethyl-cyclopolic acid
PrecursorMZ: 343.11902
RT: 4.8991
Spectrum_type: 2
charge: -1
SMILES: O=C1OC(OCCC2=CC=CC=C2)C3=C(CO)C(O)=C(C)C(OC)=C31
Method: HCD
Collision_energy: [28.333334]
Isolation_window: 4.0
Ion_mode: N
Num Peaks: 43
59.0124	7.2
121.0286	8.9
123.0443	3.4
130.0865	1.8
149.0238	1.8
150.0316	6.6
171.1019	2.6
209.1178	2.3
241.0506	1.3
255.0664	4.0
256.0731	2.3
257.1298	3.5
268.0745	3.7
269.0822	23.8
269.1282	10.1
270.0861	4.4
271.0975	1.7
283.0976	33.1
284.1034	13.2
285.1071	1.7
297.2070	1.5
298.0845	2.3
299.0922	1.6
299.1293	4.4
311.0925	18.9
312.0961	3.9
313.0356	2.3
313.1217	1.5
323.1885	1.8
325.2038	1.3
327.2178	1.9
328.0952	8.6
329.0979	1.6
341.1974	11.5
342.1991	4.4
343.0837	3.5
343.1188	100.0
343.1713	2.3
343.2101	12.6
344.1221	19.5
344.2116	2.5
345.1500	5.8
345.2302	3.3

Name: 3-Rha(1-2)Gal(1-2)GluA-Soyasaponenol B
PrecursorMZ: 941.5111
RT: 6.104864705882353
ExactMass: 942.51881563
Spectrum_type: 2
charge: -1
Formula: C48H78O18
SMILES: C[C@H]1[C@@H]([C@H]([C@H]([C@@H](O1)O[C@@H]2[C@H]([C@H]([C@H](O[C@H]2O[C@@H]3[C@H]([C@@H]([C@H](O[C@H]3O[C@H]4CC[C@]5(C([C@@]4(C)CO)CC[C@@]6(C5CC=C7[C@]6(CC[C@@]8([C@H]7CC(C[C@H]8O)(C)C)C)C)C)C)C(=O)O)O)O)CO)O)O)O)O)O
Method: HCD
Collision_energy: [28.333334]
Isolation_window: 4.0
Ion_mode: N
Num Peaks: 17
71.0128	10.1
75.0077	7.3
85.0285	15.2
89.0234	8.9
99.0078	7.0
101.0234	11.1
103.0392	3.9
104.6168	4.0
113.0234	10.6
119.0339	4.1
131.0342	4.6
143.0341	6.9
163.0604	6.2
205.0713	8.3
941.5120	100.0
942.5146	55.1
943.5200	8.1

Name: 4-((4-(Diethylamino)-1-methylbutyl)amino)-6-fluoro-2-(methylsulfanyl)-3-quinolinecarbonitrile
PrecursorMZ: 373.18732
RT: 5.0375
ExactMass: 374.19404621
Spectrum_type: 2
charge: -1
Formula: C20H27FN4S
SMILES: CCN(CC)CCCC(C)NC1=C(C(=NC2=C1C=C(C=C2)F)SC)C#N
Method: HCD
Collision_energy: [28.333334]
Isolation_window: 4.0
Ion_mode: N
Num Peaks: 14
97.0286	4.8
101.0235	47.0
209.1544	6.8
227.1650	14.8
271.1551	29.7
272.1587	4.1
353.1966	5.3
355.1755	7.3
371.2073	23.9
372.2122	9.9
373.1856	100.0
373.2208	7.3
374.1895	16.1
375.1888	6.9

Name: 4-(12-hydroxy-10,13-dimethyl-3-sulfooxy-2,3,4,5,6,7,8,9,11,12,14,15,16,17-tetradecahydro-1H-cyclopenta(a)phenanthren-17-yl)pentanoic acid
PrecursorMZ: 471.2425
RT: 5.1587
ExactMass: 472.24947478
Spectrum_type: 2
charge: -1
Formula: C24H40O7S
SMILES: CC(CCC(=O)O)C1CCC2C1(C(CC3C2CCC4C3(CCC(C4)OS(=O)(=O)O)C)O)C
Method: HCD
Collision_energy: [28.333334]
Isolation_window: 4.0
Ion_mode: N
Num Peaks: 17
52.3588	2.2
52.3617	4.4
52.4703	0.6
52.4731	1.1
96.9591	25.4
98.9549	0.7
119.0493	0.9
145.0286	0.4
163.0394	1.7
469.2272	0.7
470.2319	0.5
471.1073	0.4
471.1325	1.0
471.2423	100.0
471.3831	0.7
472.2457	25.9
473.2430	5.6

Name: 4-(5-(3,4-Dimethoxyphenyl)-3,4-dimethyloxolan-2-yl)phenol
PrecursorMZ: 327.16054
RT: 7.65092
ExactMass: 328.16745924
Spectrum_type: 2
charge: -1
Formula: C20H24O4
SMILES: CC1C(C(OC1C2=CC=C(C=C2)O)C3=CC(=C(C=C3)OC)OC)C
Method: HCD
Collision_energy: [28.333334]
Isolation_window: 4.0
Ion_mode: N
Num Peaks: 15
183.0113	2.0
284.1060	13.7
284.1411	1.9
285.1090	2.0
299.1656	31.7
300.1690	6.6
312.1380	2.6
325.1846	40.7
325.2376	2.8
326.1877	15.7
327.1600	100.0
327.2219	2.3
327.2531	2.9
328.1643	25.3
329.1745	7.3

Name: 4-(Decan-4-Yl)Benzenesulfonic Acid
PrecursorMZ: 297.153
RT: 6.9973
ExactMass: 298.16026586
Spectrum_type: 2
charge: -1
Formula: C16H26O3S
SMILES: CCCCCCC(CCC)C1=CC=C(C=C1)S(=O)(=O)O
Method: HCD
Collision_energy: [28.333334]
Isolation_window: 4.0
Ion_mode: N
Num Peaks: 7
183.0113	5.4
203.1798	1.4
237.1681	5.5
281.1580	5.5
297.1530	100.0
298.1563	18.5
299.1723	7.2

Name: 4-Hydroxy-3,5-dimethoxycinnamic acid
PrecursorMZ: 223.06003
RT: 3.8968
ExactMass: 224.06847348
Spectrum_type: 2
charge: -1
Formula: C11H12O5
SMILES: COC1=CC(=CC(=C1O)OC)/C=C/C(=O)O
Method: HCD
Collision_energy: [28.333334]
Isolation_window: 4.0
Ion_mode: N
Num Peaks: 19
135.0438	3.6
146.0599	2.9
148.0754	3.6
149.0232	17.4
152.0103	18.5
163.0389	6.2
164.0467	30.8
165.0502	3.1
167.0340	2.8
169.0494	8.4
178.0842	2.8
179.0702	15.0
193.0130	19.9
208.0366	100.0
209.0401	11.5
223.0602	53.5
223.0963	4.4
224.0637	6.7
225.0765	4.8

Name: 4-Methyl-11-(6-(trifluoromethyl)pyridine-3-carbonyl)-2,3,7,11-tetraazatricyclo(7.4.0.0^(2,6))trideca-1(9),3,5,7-tetraene
PrecursorMZ: 360.10758
RT: 3.1119
ExactMass: 361.11504457
Spectrum_type: 2
charge: -1
Formula: C17H14F3N5O
SMILES: CC1=NN2C3=C(CN(CC3)C(=O)C4=CN=C(C=C4)C(F)(F)F)C=NC2=C1
Method: HCD
Collision_energy: [28.333334]
Isolation_window: 4.0
Ion_mode: N
Num Peaks: 10
109.0282	23.9
149.0593	6.9
165.0547	8.8
179.0575	31.0
194.0810	100.0
195.0845	7.8
316.1183	10.3
317.1012	12.6
360.1085	7.2
361.0899	11.2

Name: 4-Methyl-2-nitrophenol
PrecursorMZ: 152.03465
RT: 5.4368
ExactMass: 153.042593085
Spectrum_type: 2
charge: -1
Formula: C7H7NO3
SMILES: CC1=CC(=C(C=C1)O)[N+](=O)[O-]
Method: HCD
Collision_energy: [28.333334]
Isolation_window: 4.0
Ion_mode: N
Num Peaks: 3
122.0366	11.7
152.0346	100.0
153.0385	7.0

Name: 4-Methylidene-5-oxo-2-(14-oxopentadecyl)oxolane-3-carboxylic acid
PrecursorMZ: 365.23321
RT: 8.6075
ExactMass: 366.24062418
Spectrum_type: 2
charge: -1
Formula: C21H34O5
SMILES: CC(=O)CCCCCCCCCCCCCC1C(C(=C)C(=O)O1)C(=O)O
Method: HCD
Collision_energy: [28.333334]
Isolation_window: 4.0
Ion_mode: N
Num Peaks: 16
73.0649	22.6
190.0997	11.4
219.1390	24.8
220.1464	100.0
221.1499	16.5
231.1749	26.2
247.1701	43.2
275.1655	11.6
297.2435	66.8
298.2471	12.6
319.2260	25.8
323.2952	11.0
365.2323	53.3
366.2330	13.2
367.2324	34.3
367.2859	35.8

Name: 4-Nitrophenol
PrecursorMZ: 138.01877
RT: 4.5698
ExactMass: 139.026943022
Spectrum_type: 2
charge: -1
Formula: C6H5NO3
SMILES: C1=CC(=CC=C1[N+](=O)[O-])O
Method: HCD
Collision_energy: [28.333334]
Isolation_window: 4.0
Ion_mode: N
Num Peaks: 4
108.0208	33.3
136.8623	7.0
138.0188	100.0
139.0391	9.4

Name: 5-((1-Acetyl-2,3-dihydroindol-5-yl)amino)-3,3-dimethyl-5-oxopentanoic acid
PrecursorMZ: 317.15097
RT: 9.4116
ExactMass: 318.15795719
Spectrum_type: 2
charge: -1
Formula: C17H22N2O4
SMILES: CC(=O)N1CCC2=C1C=CC(=C2)NC(=O)CC(C)(C)CC(=O)O
Method: HCD
Collision_energy: [28.333334]
Isolation_window: 4.0
Ion_mode: N
Num Peaks: 6
94.0653	9.7
245.1657	18.0
273.1607	9.8
289.1558	27.7
317.1505	100.0
318.1536	19.2

Name: 5-((17-(5,6-dihydroxy-6-methylheptan-2-yl)-3,12-dihydroxy-4,4,10,13,14-pentamethyl-2,3,5,6,7,11,12,15,16,17-decahydro-1H-cyclopenta(a)phenanthren-2-yl)oxy)-3-hydroxy-3-methyl-5-oxopentanoic acid
PrecursorMZ: 635.41679
RT: 7.1776
ExactMass: 636.42373349
Spectrum_type: 2
charge: -1
Formula: C36H60O9
SMILES: CC(CCC(C(C)(C)O)O)C1CCC2(C1(C(CC3=C2CCC4C3(CC(C(C4(C)C)O)OC(=O)CC(C)(CC(=O)O)O)C)O)C)C
Method: HCD
Collision_energy: [28.333334]
Isolation_window: 4.0
Ion_mode: N
Num Peaks: 7
59.0129	8.9
101.0235	11.1
131.0341	27.1
589.4107	88.9
590.4145	32.3
635.4163	100.0
636.4199	36.2

Name: 5-((Z)-12-(3,5-dihydroxyphenyl)dodec-8-enyl)benzene-1,3-diol
PrecursorMZ: 383.22336
RT: 8.0348
ExactMass: 384.2300595
Spectrum_type: 2
charge: -1
Formula: C24H32O4
SMILES: C1=C(C=C(C=C1O)O)CCCCCCC/C=C\CCCC2=CC(=CC(=C2)O)O
Method: HCD
Collision_energy: [28.333334]
Isolation_window: 4.0
Ion_mode: N
Num Peaks: 11
123.0444	11.3
135.0445	74.5
313.1818	8.4
314.1847	9.8
339.2332	65.9
340.2368	16.7
381.2664	26.0
382.2688	13.0
383.2237	100.0
384.2262	24.5
385.2407	32.2

Name: 5-((Z)-14-(3,5-Dihydroxyphenyl)Tetradec-8-Enyl)Benzene-1,3-Diol
PrecursorMZ: 411.25478
RT: 9.1456
ExactMass: 412.26135963
Spectrum_type: 2
charge: -1
Formula: C26H36O4
SMILES: C1=C(C=C(C=C1O)O)CCCCCCC/C=C\CCCCCC2=CC(=CC(=C2)O)O
Method: HCD
Collision_energy: [28.333334]
Isolation_window: 4.0
Ion_mode: N
Num Peaks: 10
191.1077	5.7
367.2647	10.4
369.2813	4.3
391.2348	3.9
392.2587	8.9
409.2472	3.6
410.2718	34.6
411.2545	100.0
412.2577	30.2
413.2702	16.1

Name: 5-(5-methoxycarbonyl-5,8a-dimethyl-2-methylidene-3,4,4a,6,7,8-hexahydro-1H-naphthalen-1-yl)-3-methylpentanoic acid
PrecursorMZ: 349.2385
RT: 8.02
ExactMass: 350.24570956
Spectrum_type: 2
charge: -1
Formula: C21H34O4
SMILES: CC(CCC1C(=C)CCC2C1(CCCC2(C)C(=O)OC)C)CC(=O)O
Method: HCD
Collision_energy: [28.333334]
Isolation_window: 4.0
Ion_mode: N
Num Peaks: 4
113.0962	19.5
348.2271	15.3
349.2388	100.0
350.2427	22.9

Name: 5-(Hydroxymethyl)-2-(propan-2-yl)phenyl beta-D-glucopyranoside
PrecursorMZ: 373.15038
RT: 7.4826
ExactMass: 328.1522031
Spectrum_type: 2
charge: -1
Formula: C16H24O7
SMILES: CC(C)C1=C(C=C(C=C1)CO)O[C@H]2[C@@H]([C@H]([C@@H]([C@H](O2)CO)O)O)O
Method: HCD
Collision_energy: [28.333334]
Isolation_window: 4.0
Ion_mode: N
Num Peaks: 3
69.0272	89.5
111.0807	100.0
373.1502	73.2

Name: 5-Methyl hydrogen 3-C-carboxy-2,4-dideoxy-2-tetradecylpentarate
PrecursorMZ: 401.25468
RT: 5.2889
ExactMass: 402.26175355
Spectrum_type: 2
charge: -1
Formula: C21H38O7
SMILES: CCCCCCCCCCCCCCC(C(=O)O)C(CC(=O)OC)(C(=O)O)O
Method: HCD
Collision_energy: [28.333334]
Isolation_window: 4.0
Ion_mode: N
Num Peaks: 21
61.9873	13.0
99.0807	14.9
127.1120	16.0
139.1120	52.4
155.1069	22.4
157.1226	50.9
195.1382	23.1
199.1336	33.6
213.1495	25.0
239.1654	28.8
257.1757	28.4
333.2072	67.7
334.2111	13.6
357.2646	72.4
401.0258	21.8
401.0825	18.8
401.1954	55.9
401.2549	100.0
402.1964	14.4
402.2576	20.3
403.0252	12.6

Name: 7-Oxo-15-Hydroxydehydroabietic Acid
PrecursorMZ: 329.17602
RT: 6.0183
ExactMass: 330.18310931
Spectrum_type: 2
charge: -1
Formula: C20H26O4
SMILES: C[C@]12CCC[C@@]([C@@H]1CC(=O)C3=C2C=CC(=C3)C(C)(C)O)(C)C(=O)O
Method: HCD
Collision_energy: [28.333334]
Isolation_window: 4.0
Ion_mode: N
Num Peaks: 6
285.1860	100.0
286.1893	19.7
327.2188	6.4
329.1757	90.2
329.2325	15.1
330.1790	18.0

Name: 7-Prenyloxyaromadendrin
PrecursorMZ: 355.11886
RT: 5.3992
ExactMass: 356.12598835
Spectrum_type: 2
charge: -1
Formula: C20H20O6
SMILES: CC(=CCOC1=CC(=C2C(=C1)O[C@@H]([C@H](C2=O)O)C3=CC=C(C=C3)O)O)C
Method: HCD
Collision_energy: [28.333334]
Isolation_window: 4.0
Ion_mode: N
Num Peaks: 7
97.0286	22.2
119.0493	67.3
189.0550	31.0
309.1130	100.0
310.1169	17.5
355.1189	100.0
356.1230	27.6

Name: 8-(((5-methyl-2-(4-methylphenyl)-1,3-oxazol-4-yl)methyl)sulfanyl)-9-(4-methylphenyl)-1,9-dihydro-6H-purin-6-one
PrecursorMZ: 442.13349
RT: 5.9172
ExactMass: 443.1415961
Spectrum_type: 2
charge: -1
Formula: C24H21N5O2S
SMILES: CC1=CC=C(C=C1)C2=NC(=C(O2)C)CSC3=NC4=C(N3C5=CC=C(C=C5)C)N=CNC4=O
Method: HCD
Collision_energy: [28.333334]
Isolation_window: 4.0
Ion_mode: N
Num Peaks: 40
79.9565	36.6
80.9643	5.3
81.9523	0.9
96.9593	15.1
97.4641	0.7
124.0067	1.0
150.0680	0.9
212.0713	0.8
223.0638	4.1
224.0713	5.7
225.0775	1.2
226.0872	0.9
235.0640	0.7
237.0796	0.8
262.0875	11.2
263.0922	2.4
264.1028	0.8
275.0956	0.9
277.1111	7.0
278.1152	1.7
304.0294	1.9
342.0448	9.4
343.0501	3.7
344.1664	1.4
345.2078	3.4
357.0677	1.3
360.1619	0.7
362.1768	12.1
363.1803	2.8
363.2527	0.7
440.2158	2.7
441.2135	2.3
442.1338	100.0
442.2193	5.1
443.1292	20.5
443.1866	2.6
443.2221	1.4
444.1300	5.6
444.1796	0.8
444.2472	3.8

Name: 8-Hydroxy-16-(3-hydroxy-4-(2-hydroxy-4-methoxy-5-methyl-6-propan-2-yloxan-2-yl)pentan-2-yl)-15-methoxy-3,5,7,9,11-pentamethyl-1-oxacyclohexadeca-3,5,11,13-tetraen-2-one
PrecursorMZ: 619.42194
RT: 9.6175
ExactMass: 620.42881887
Spectrum_type: 2
charge: -1
Formula: C36H60O8
SMILES: CC1CC(=CC=CC(C(OC(=O)C(=CC(=CC(C1O)C)C)C)C(C)C(C(C)C2(CC(C(C(O2)C(C)C)C)OC)O)O)OC)C
Method: HCD
Collision_energy: [28.333334]
Isolation_window: 4.0
Ion_mode: N
Num Peaks: 3
209.1183	73.5
289.1805	59.9
291.1967	100.0

Name: 9,12,13-Trihydroxy-10E-octadecenoic acid
PrecursorMZ: 329.23326
RT: 5.8579
ExactMass: 330.24062418
Spectrum_type: 2
charge: -1
Formula: C18H34O5
SMILES: CCCCCC(C(/C=C/C(CCCCCCCC(=O)O)O)O)O
Method: HCD
Collision_energy: [28.333334]
Isolation_window: 4.0
Ion_mode: N
Num Peaks: 18
99.0805	1.6
129.0912	5.3
169.1226	3.4
181.1226	4.1
193.1223	1.5
197.1181	1.6
199.1332	15.3
200.1369	1.9
201.1123	1.7
211.1333	12.8
229.1444	1.8
293.2123	3.2
311.2225	4.0
327.2170	3.9
328.2208	1.7
329.2331	100.0
330.2366	19.9
331.2469	4.3

Name: 9,19-Cyclolanost-24-en-26-oic acid, 12,15-dihydroxy-3-(pentopyranosyloxy)-, (24E)-
PrecursorMZ: 619.38537
RT: 9.167
ExactMass: 620.39243336
Spectrum_type: 2
charge: -1
Formula: C35H56O9
SMILES: CC(CC/C=C(\C)/C(=O)O)C1CC(C2(C1(C(CC34C2CCC5C3(C4)CCC(C5(C)C)OC6C(C(C(CO6)O)O)O)O)C)C)O
Method: HCD
Collision_energy: [28.333334]
Isolation_window: 4.0
Ion_mode: N
Num Peaks: 6
78.9582	63.5
89.0236	90.4
179.0558	86.7
619.2795	73.6
619.3883	100.0
620.3925	56.5

Name: 9-(5-S-Methyl-5-thiopentofuranosyl)-9H-purin-6-amine
PrecursorMZ: 342.08761
RT: 2.3624
ExactMass: 297.08956053
Spectrum_type: 2
charge: -1
Formula: C11H15N5O3S
SMILES: CSCC1C(C(C(O1)N2C=NC3=C(N=CN=C32)N)O)O
Method: HCD
Collision_energy: [28.333334]
Isolation_window: 4.0
Ion_mode: N
Num Peaks: 4
88.9871	16.0
134.0462	100.0
258.0880	15.2
300.1101	37.0

Name: AM404
PrecursorMZ: 394.2738
RT: 9.765
ExactMass: 395.282429423
Spectrum_type: 2
charge: -1
Formula: C26H37NO2
SMILES: CCCCC/C=C\C/C=C\C/C=C\C/C=C\CCCC(=O)NC1=CC=C(C=C1)O
Method: HCD
Collision_energy: [28.333334]
Isolation_window: 4.0
Ion_mode: N
Num Peaks: 9
194.0960	6.2
224.1438	5.0
251.1666	8.3
349.3094	12.3
376.2629	25.1
377.2663	5.8
393.2998	24.2
394.2728	100.0
395.2761	29.6

Name: Abruquinone B
PrecursorMZ: 389.12449
RT: 5.0847
ExactMass: 390.13146766
Spectrum_type: 2
charge: -1
Formula: C20H22O8
SMILES: COC1=C(C(=C2C(=C1)C[C@H](CO2)C3=CC(=O)C(=C(C3=O)OC)OC)OC)OC
Method: HCD
Collision_energy: [28.333334]
Isolation_window: 4.0
Ion_mode: N
Num Peaks: 17
59.0129	10.3
119.0492	1.1
123.0443	2.4
124.0158	1.1
135.0442	5.5
136.0523	2.4
147.0444	5.1
151.0396	1.8
151.0757	4.0
177.0549	1.6
195.0656	100.0
196.0690	11.2
325.1082	1.1
343.1191	1.8
389.1243	60.5
390.1277	14.0
391.1306	1.7

Name: Alphitolic Acid
PrecursorMZ: 471.34797
RT: 7.7572
ExactMass: 472.35526001
Spectrum_type: 2
charge: -1
Formula: C30H48O4
SMILES: CC(=C)[C@@H]1CC[C@]2([C@H]1[C@H]3CC[C@H]4[C@]([C@@]3(CC2)C)(CC[C@@H]5[C@@]4(C[C@H]([C@@H](C5(C)C)O)O)C)C)C(=O)O
Method: HCD
Collision_energy: [28.333334]
Isolation_window: 4.0
Ion_mode: N
Num Peaks: 7
52.3705	1.9
52.3733	4.5
325.1838	2.2
470.3375	2.3
471.3477	100.0
472.3511	31.2
473.3563	4.1

Name: Arginine + DCA
PrecursorMZ: 547.38618
RT: 5.702414285714286
ExactMass: 548.39377077
Spectrum_type: 2
charge: -1
Formula: C30H52N4O5
SMILES: C[C@H](CCC(=O)N[C@@H](CCCN=C(N)N)C(=O)O)[C@H]1CC[C@@H]2[C@@]1([C@H](C[C@H]3[C@H]2CC[C@H]4[C@@]3(CC[C@H](C4)O)C)O)C
Method: HCD
Collision_energy: [28.333334]
Isolation_window: 4.0
Ion_mode: N
Num Peaks: 15
60.8189	2.1
60.8225	4.5
60.9339	1.2
131.0816	18.1
156.0769	1.9
173.1036	27.1
174.1075	1.5
461.3739	3.0
487.3564	0.9
505.3646	13.5
506.3681	3.6
530.3589	1.4
547.3863	100.0
548.3896	27.3
549.3920	3.4

Name: Arginine + UDCA
PrecursorMZ: 547.38624
RT: 5.7707
ExactMass: 548.39377077
Spectrum_type: 2
charge: -1
Formula: C30H52N4O5
SMILES: C[C@H](CCC(=O)N[C@@H](CCCN=C(N)N)C(=O)O)[C@H]1CC[C@@H]2[C@@]1(CC[C@H]3[C@H]2[C@H](C[C@H]4[C@@]3(CC[C@H](C4)O)C)O)C
Method: HCD
Collision_energy: [28.333334]
Isolation_window: 4.0
Ion_mode: N
Num Peaks: 4
131.0816	17.2
173.1038	25.6
547.3861	100.0
548.3895	32.6

Name: Asparagine + HDCA
PrecursorMZ: 505.32867
RT: 6.0487
ExactMass: 506.33558719
Spectrum_type: 2
charge: -1
Formula: C28H46N2O6
SMILES: C[C@H](CCC(=O)N[C@@H](CC(=O)N)C(=O)O)[C@H]1CC[C@@H]2[C@@]1(CC[C@H]3[C@H]2C[C@@H]([C@H]4[C@@]3(CC[C@H](C4)O)C)O)C
Method: HCD
Collision_energy: [28.333334]
Isolation_window: 4.0
Ion_mode: N
Num Peaks: 16
56.1492	3.9
74.0236	4.0
96.0081	39.4
96.9591	21.1
114.0187	13.6
131.0452	16.9
390.3011	10.1
461.3345	3.5
487.3188	6.0
504.3234	5.1
505.2653	9.8
505.3295	100.0
506.2661	3.3
506.3333	31.3
507.2863	8.3
507.3409	3.9

Name: Benzothiazole-2-sulfonic acid
PrecursorMZ: 213.96354
RT: 3.0343
ExactMass: 214.97108537
Spectrum_type: 2
charge: -1
Formula: C7H5NO3S2
SMILES: C1=CC=C2C(=C1)N=C(S2)S(=O)(=O)O
Method: HCD
Collision_energy: [28.333334]
Isolation_window: 4.0
Ion_mode: N
Num Peaks: 6
134.0061	37.8
135.0097	2.9
150.0011	11.5
213.9634	100.0
214.9659	8.5
215.9587	6.0

Name: Benzothiazolone
PrecursorMZ: 150.00128
RT: 4.615972727272728
ExactMass: 151.00918496
Spectrum_type: 2
charge: -1
Formula: C7H5NOS
SMILES: C1=CC=C2C(=C1)NC(=O)S2
Method: HCD
Collision_energy: [28.333334]
Isolation_window: 4.0
Ion_mode: N
Num Peaks: 3
106.9922	9.1
150.0014	100.0
151.0050	9.1

Name: Benzyl Alcohol
PrecursorMZ: 107.04931
RT: 3.009
ExactMass: 108.057514874
Spectrum_type: 2
charge: -1
Formula: C7H8O
SMILES: C1=CC=C(C=C1)CO
Method: HCD
Collision_energy: [28.333334]
Isolation_window: 4.0
Ion_mode: N
Num Peaks: 13
64.0184	4.4
65.0136	22.9
65.0388	25.6
65.9976	5.2
67.0293	5.4
79.0543	10.9
106.0401	44.8
107.0248	3.1
107.0354	8.7
107.0493	100.0
108.0202	2.9
108.0525	8.8
121.0287	2.7

Name: Boceprevir
PrecursorMZ: 564.33959
RT: 7.8876
ExactMass: 519.34206955
Spectrum_type: 2
charge: -1
Formula: C27H45N5O5
SMILES: CC1([C@@H]2[C@H]1[C@H](N(C2)C(=O)[C@H](C(C)(C)C)NC(=O)NC(C)(C)C)C(=O)NC(CC3CCC3)C(=O)C(=O)N)C
Method: HCD
Collision_energy: [28.333334]
Isolation_window: 4.0
Ion_mode: N
Num Peaks: 7
59.0130	27.3
234.0985	30.8
241.2173	100.0
242.2204	14.5
276.1090	33.6
294.1201	20.9
518.3337	30.0

Name: Calealactone B
PrecursorMZ: 421.15094
RT: 4.2517
ExactMass: 422.1576824
Spectrum_type: 2
charge: -1
Formula: C21H26O9
SMILES: C[C@@H]1C[C@@H]2[C@@H]([C@@H]([C@H]([C@@](C(=O)[C@@H]3[C@H]1O3)(C)O)OC(=O)C)OC(=O)C(=C)C)C(=C)C(=O)O2
Method: HCD
Collision_energy: [28.333334]
Isolation_window: 4.0
Ion_mode: N
Num Peaks: 21
61.9875	34.6
88.9871	4.3
123.0444	5.6
129.1026	5.5
135.0443	4.6
137.0601	7.5
147.0444	5.4
165.0551	100.0
166.0590	6.7
194.0580	13.8
209.0817	47.5
210.0850	6.2
211.0975	9.2
284.1143	9.9
285.1237	4.7
373.2608	5.5
375.1455	89.5
375.2745	8.9
376.1487	19.2
377.1606	36.5
420.1739	4.0

Name: Carboprost
PrecursorMZ: 367.24927
RT: 7.6275
ExactMass: 368.25627424
Spectrum_type: 2
charge: -1
Formula: C21H36O5
SMILES: CCCCC[C@@](C)(/C=C/[C@H]1[C@@H](C[C@@H]([C@@H]1C/C=C\CCCC(=O)O)O)O)O
Method: HCD
Collision_energy: [28.333334]
Isolation_window: 4.0
Ion_mode: N
Num Peaks: 7
263.1651	11.9
265.1809	100.0
266.1842	16.5
281.1762	11.9
349.2385	83.9
350.2423	19.4
367.2306	35.8

Name: Dimethyl citrate
PrecursorMZ: 219.05004
RT: 2.0317
ExactMass: 219.05047769
Spectrum_type: 2
charge: -1
Formula: C8H11O7-
SMILES: COC(=O)CC(CC(=O)OC)(C(=O)[O-])O
Method: HCD
Collision_energy: [28.333334]
Isolation_window: 4.0
Ion_mode: N
Num Peaks: 29
59.0128	2.2
71.0126	2.0
73.0283	1.8
81.0334	11.1
83.0127	14.4
85.0281	2.1
87.0076	21.2
87.0439	3.2
89.0232	1.7
97.0283	19.8
99.0076	2.6
99.0439	24.1
101.0231	2.3
115.0388	6.1
125.0232	100.0
126.0265	6.4
127.0025	8.1
133.0645	2.6
143.0338	18.9
155.0701	1.6
157.0495	6.6
159.0287	34.1
160.0314	2.4
187.0237	45.6
188.0270	3.4
199.0597	1.8
201.0393	2.6
217.0708	4.1
219.0500	17.1

Name: Ethyl beta-D-glucuronide
PrecursorMZ: 221.0663
RT: 0.90596
ExactMass: 222.07395278
Spectrum_type: 2
charge: -1
Formula: C8H14O7
SMILES: CCO[C@H]1[C@@H]([C@H]([C@@H]([C@H](O1)C(=O)O)O)O)O
Method: HCD
Collision_energy: [28.333334]
Isolation_window: 4.0
Ion_mode: N
Num Peaks: 50
59.0129	27.9
71.0129	15.8
72.9921	8.4
73.0285	9.2
74.0237	2.8
75.0078	24.1
80.9642	4.9
83.0129	3.3
85.0285	19.3
87.0078	36.7
87.0441	6.2
88.0394	8.7
89.0234	20.1
94.0287	3.4
97.0286	3.8
99.0077	3.2
99.0440	4.6
100.0394	7.7
101.0234	23.5
103.0028	3.3
104.0346	2.8
111.0442	5.0
113.0234	8.9
115.0390	3.7
117.0183	6.9
119.0341	4.4
125.0235	3.0
129.0185	6.6
129.0548	4.0
130.0503	3.4
131.0341	16.8
132.0655	4.0
143.0340	4.1
146.0448	7.1
147.0291	13.4
148.0606	3.9
149.0447	4.3
161.0448	13.3
163.0602	5.4
179.0559	3.1
202.0715	4.5
203.0558	5.3
219.0505	8.6
219.0849	3.1
220.0820	12.3
221.0662	100.0
222.0438	3.0
222.0704	9.3
222.0971	2.8
223.0827	10.4

Name: FAHFA 33:0
PrecursorMZ: 523.4733
RT: 11.733
Spectrum_type: 2
charge: -1
SMILES: CCCCCCCCCCCCCCC(=O)OC(CCCCCCCCC)CCCCCCCC(O)=O
Method: HCD
Collision_energy: [28.333334]
Isolation_window: 4.0
Ion_mode: N
Num Peaks: 16
58.1626	1.4
58.1659	1.1
59.0130	2.3
61.9874	1.4
241.2170	100.0
242.2204	14.7
255.2330	1.2
281.2485	21.2
282.2520	4.2
299.2590	15.7
300.2625	2.8
521.4964	2.4
522.4910	1.6
523.4697	35.7
524.4731	11.5
525.4846	1.4

Name: Gibberellin A34
PrecursorMZ: 347.14975
RT: 4.8523
ExactMass: 348.15728848
Spectrum_type: 2
charge: -1
Formula: C19H24O6
SMILES: C[C@]12[C@H]3[C@@H]([C@@]45C[C@@H](CC[C@H]4[C@@]3(C[C@@H]([C@@H]1O)O)OC2=O)C(=C)C5)C(=O)O
Method: HCD
Collision_energy: [28.333334]
Isolation_window: 4.0
Ion_mode: N
Num Peaks: 18
215.1183	4.1
243.1144	6.0
253.1219	10.8
253.1243	11.1
271.1464	6.6
287.1401	13.9
301.1445	100.0
302.1481	23.4
315.1350	51.5
316.1379	9.3
345.2275	31.0
346.2315	9.1
347.1531	9.5
347.1603	17.4
347.2420	5.3
349.1721	8.4
349.1750	5.0
349.2022	19.9

Name: Gibberellin A54
PrecursorMZ: 347.15006
RT: 5.0401
ExactMass: 348.15728848
Spectrum_type: 2
charge: -1
Formula: C19H24O6
SMILES: CC12C(CC(C3(C1C(C45C3CCC(C4)C(=C)C5)C(=O)O)OC2=O)O)O
Method: HCD
Collision_energy: [28.333334]
Isolation_window: 4.0
Ion_mode: N
Num Peaks: 10
239.1437	6.1
241.1595	58.1
242.1628	9.4
259.1702	8.8
285.1496	8.2
303.1599	11.3
347.1494	100.0
347.1873	27.0
348.1527	20.3
348.1908	6.1

Name: Gsk180736A
PrecursorMZ: 364.1212
RT: 4.8675
ExactMass: 365.12880293
Spectrum_type: 2
charge: -1
Formula: C19H16FN5O2
SMILES: CC1=C(C(NC(=O)N1)C2=CC=C(C=C2)F)C(=O)NC3=CC4=C(C=C3)NN=C4
Method: HCD
Collision_energy: [28.333334]
Isolation_window: 4.0
Ion_mode: N
Num Peaks: 8
110.0598	15.0
138.0548	67.0
161.0960	12.6
243.1017	20.3
256.1331	29.5
286.1438	42.7
364.1212	100.0
365.1234	23.6

Name: Gsk591
PrecursorMZ: 425.21892
RT: 5.2118
ExactMass: 380.22122615
Spectrum_type: 2
charge: -1
Formula: C22H28N4O2
SMILES: C1CC(C1)NC2=NC=CC(=C2)C(=O)NC[C@@H](CN3CCC4=CC=CC=C4C3)O
Method: HCD
Collision_energy: [28.333334]
Isolation_window: 4.0
Ion_mode: N
Num Peaks: 12
83.0494	6.6
219.1389	13.3
220.1423	2.4
249.1498	22.4
250.1534	3.9
423.2767	14.8
424.2804	11.2
425.1699	3.1
425.2187	100.0
425.2697	2.7
426.2224	22.7
427.2319	11.4

Name: Guanine
PrecursorMZ: 150.04142
RT: 0.9598166666666667
ExactMass: 151.0494098
Spectrum_type: 2
charge: -1
Formula: C5H5N5O
SMILES: C1=NC2=C(N1)C(=O)NC(=N2)N
Method: HCD
Collision_energy: [28.333334]
Isolation_window: 4.0
Ion_mode: N
Num Peaks: 8
87.0078	5.6
108.0194	36.4
126.0300	6.6
133.0146	24.0
149.0084	4.7
150.0413	11.8
151.0254	100.0
152.0294	3.9

Name: H-Lys-Trp-Lys-OH
PrecursorMZ: 459.27252
RT: 7.0874
ExactMass: 460.27980365
Spectrum_type: 2
charge: -1
Formula: C23H36N6O4
SMILES: C1=CC=C2C(=C1)C(=CN2)C[C@@H](C(=O)N[C@@H](CCCCN)C(=O)O)NC(=O)[C@H](CCCCN)N
Method: HCD
Collision_energy: [28.333334]
Isolation_window: 4.0
Ion_mode: N
Num Peaks: 5
391.2853	75.4
392.2890	16.9
409.2972	7.2
459.2721	100.0
460.2751	33.2

Name: Hexadecyl sulfate
PrecursorMZ: 321.21012
RT: 8.427985714285715
ExactMass: 322.21778074
Spectrum_type: 2
charge: -1
Formula: C16H34O4S
SMILES: CCCCCCCCCCCCCCCCOS(=O)(=O)O
Method: HCD
Collision_energy: [28.333334]
Isolation_window: 4.0
Ion_mode: N
Num Peaks: 3
96.9590	27.8
321.2103	100.0
322.2135	17.9

Name: Histidine + UDCA
PrecursorMZ: 528.34401
RT: 5.61425
ExactMass: 529.35157161
Spectrum_type: 2
charge: -1
Formula: C30H47N3O5
SMILES: C[C@H](CCC(=O)N[C@@H](CC1=CN=CN1)C(=O)O)[C@H]2CC[C@@H]3[C@@]2(CC[C@H]4[C@H]3[C@H](C[C@H]5[C@@]4(CC[C@H](C5)O)C)O)C
Method: HCD
Collision_energy: [28.333334]
Isolation_window: 4.0
Ion_mode: N
Num Peaks: 4
110.0714	12.9
154.0614	32.9
528.3442	100.0
529.3480	29.2

Name: Hydroxypyruvic acid
PrecursorMZ: 103.00235
RT: 1.6795
ExactMass: 104.0109586
Spectrum_type: 2
charge: -1
Formula: C3H4O4
SMILES: C(C(=O)C(=O)O)O
Method: HCD
Collision_energy: [28.333334]
Isolation_window: 4.0
Ion_mode: N
Num Peaks: 7
57.0336	49.1
59.0129	100.0
74.0238	19.0
101.0232	14.7
102.0188	10.4
103.0026	17.9
103.0390	58.3

Name: Hyocholic Acid
PrecursorMZ: 407.28086
RT: 7.7333
ExactMass: 408.28757437
Spectrum_type: 2
charge: -1
Formula: C24H40O5
SMILES: C[C@H](CCC(=O)O)[C@H]1CC[C@@H]2[C@@]1(CC[C@H]3[C@H]2[C@@H]([C@@H]([C@H]4[C@@]3(CC[C@H](C4)O)C)O)O)C
Method: HCD
Collision_energy: [28.333334]
Isolation_window: 4.0
Ion_mode: N
Num Peaks: 12
69.1282	3.1
149.0603	2.9
361.2755	19.3
362.2787	5.1
387.2547	3.1
389.2703	15.2
390.2733	3.3
405.2626	5.5
406.2679	9.3
407.2808	100.0
408.2847	7.7
408.2890	23.6

Name: Icos-19-ene-1,2,4-triol
PrecursorMZ: 327.28976
RT: 9.2493
ExactMass: 328.29774513
Spectrum_type: 2
charge: -1
Formula: C20H40O3
SMILES: C=CCCCCCCCCCCCCCCC(CC(CO)O)O
Method: HCD
Collision_energy: [28.333334]
Isolation_window: 4.0
Ion_mode: N
Num Peaks: 7
325.1841	17.1
325.6673	5.4
326.1873	100.0
327.1827	27.6
327.2899	54.4
328.1845	4.1
328.2935	11.8

Name: Ihvr-19029
PrecursorMZ: 488.33421
RT: 7.0045
ExactMass: 443.33592154
Spectrum_type: 2
charge: -1
Formula: C23H45N3O5
SMILES: CC(C)(C)NC(=O)N(CCCCCCN1C[C@@H]([C@H]([C@@H]([C@H]1CO)O)O)O)C2CCCCC2
Method: HCD
Collision_energy: [28.333334]
Isolation_window: 4.0
Ion_mode: N
Num Peaks: 16
61.9807	0.8
61.9875	100.0
61.9941	0.6
63.9916	0.6
84.0444	0.7
88.9869	0.9
114.0552	1.0
205.1235	0.8
374.3062	0.6
430.3343	0.6
441.3325	2.3
443.3503	2.5
487.3549	2.0
488.3421	3.5
489.3200	3.5
490.3588	2.4

Name: Int-777
PrecursorMZ: 449.32739
RT: 7.2651
ExactMass: 450.33452456
Spectrum_type: 2
charge: -1
Formula: C27H46O5
SMILES: CC[C@@H]1[C@@H]2C[C@@H](CC[C@@]2([C@H]3C[C@@H]([C@]4([C@H]([C@@H]3[C@@H]1O)CC[C@@H]4[C@H](C)C[C@H](C)C(=O)O)C)O)C)O
Method: HCD
Collision_energy: [28.333334]
Isolation_window: 4.0
Ion_mode: N
Num Peaks: 5
50.0380	1.3
448.3152	1.4
449.3274	100.0
450.3308	28.8
451.3335	2.9

Name: Isoimperatorin
PrecursorMZ: 269.08207
RT: 7.0325
ExactMass: 270.08920892
Spectrum_type: 2
charge: -1
Formula: C16H14O4
SMILES: CC(=CCOC1=C2C=CC(=O)OC2=CC3=C1C=CO3)C
Method: HCD
Collision_energy: [28.333334]
Isolation_window: 4.0
Ion_mode: N
Num Peaks: 11
96.9593	3.0
98.9545	17.5
98.9628	3.1
238.0506	5.2
267.1439	43.8
268.0359	4.8
268.1472	8.7
269.0819	100.0
269.1208	4.3
270.0854	17.4
271.0590	4.2

Name: Jaligonic acid
PrecursorMZ: 517.31722
RT: 5.9124
ExactMass: 518.3243538
Spectrum_type: 2
charge: -1
Formula: C30H46O7
SMILES: C[C@@]1(CC[C@@]2(CC[C@@]3(C(=CC[C@H]4[C@]3(CC[C@@H]5[C@@]4(C[C@@H]([C@@H]([C@@]5(C)CO)O)O)C)C)[C@@H]2C1)C)C(=O)O)C(=O)O
Method: HCD
Collision_energy: [28.333334]
Isolation_window: 4.0
Ion_mode: N
Num Peaks: 6
57.4813	4.5
473.3255	2.6
499.3068	7.6
517.3173	100.0
518.3207	31.4
519.3263	5.8

Name: Khasianine
PrecursorMZ: 766.43758
RT: 4.8941
ExactMass: 721.44011183
Spectrum_type: 2
charge: -1
Formula: C39H63NO11
SMILES: C[C@@H]1CC[C@@]2([C@H]([C@H]3[C@@H](O2)C[C@@H]4[C@@]3(CC[C@H]5[C@H]4CC=C6[C@@]5(CC[C@@H](C6)O[C@H]7[C@@H]([C@H]([C@@H]([C@H](O7)CO)O[C@H]8[C@@H]([C@@H]([C@H]([C@@H](O8)C)O)O)O)O)O)C)C)C)NC1
Method: HCD
Collision_energy: [28.333334]
Isolation_window: 4.0
Ion_mode: N
Num Peaks: 12
59.0128	26.9
71.0127	22.6
85.0284	7.9
89.0233	45.1
101.0232	39.7
113.0233	12.8
119.0339	20.2
161.0442	6.0
720.4317	100.0
721.4360	41.1
722.4405	7.1
766.4353	7.5

Name: Kobusone
PrecursorMZ: 221.15439
RT: 7.688
ExactMass: 222.16197994
Spectrum_type: 2
charge: -1
Formula: C14H22O2
SMILES: C[C@@]12CC[C@@H]3[C@H](CC3(C)C)C(=O)CC[C@H]1O2
Method: HCD
Collision_energy: [28.333334]
Isolation_window: 4.0
Ion_mode: N
Num Peaks: 5
135.9699	2.3
220.1466	5.1
221.1542	100.0
222.1576	14.4
223.0277	3.5

Name: L-Gulose
PrecursorMZ: 179.05599
RT: 3.4909
ExactMass: 180.0633881
Spectrum_type: 2
charge: -1
Formula: C6H12O6
SMILES: C([C@@H]([C@H]([C@@H]([C@@H](C=O)O)O)O)O)O
Method: HCD
Collision_energy: [28.333334]
Isolation_window: 4.0
Ion_mode: N
Num Peaks: 8
82.0398	10.2
90.9968	26.9
95.0238	11.9
109.0393	21.9
134.9866	100.0
136.0502	10.5
137.0343	13.5
178.9765	23.6

Name: LSKL, Inhibitor of Thrombospondin (TSP-1)
PrecursorMZ: 503.32031
RT: 9.4376
ExactMass: 458.32166846
Spectrum_type: 2
charge: -1
Formula: C21H42N6O5
SMILES: CC(C)C[C@@H](C(=O)N[C@@H](CO)C(=O)N[C@@H](CCCCN)C(=O)N[C@@H](CC(C)C)C(=O)N)N
Method: HCD
Collision_energy: [28.333334]
Isolation_window: 4.0
Ion_mode: N
Num Peaks: 11
55.9229	2.9
55.9261	4.6
56.1501	3.5
79.9564	19.5
80.9641	2.2
96.9591	9.3
163.0754	2.8
243.0332	2.5
503.3248	100.0
504.3279	29.8
505.3360	85.6

Name: LX-1031
PrecursorMZ: 537.17523
RT: 5.6785
ExactMass: 538.18278978
Spectrum_type: 2
charge: -1
Formula: C28H25F3N4O4
SMILES: COC1=CC=CC(=C1)C2=CC=C(C=C2)[C@H](C(F)(F)F)OC3=NC(=NC(=C3)C4=CC=C(C=C4)C[C@@H](C(=O)O)N)N
Method: HCD
Collision_energy: [28.333334]
Isolation_window: 4.0
Ion_mode: N
Num Peaks: 6
311.0918	22.2
340.0942	28.6
343.1174	100.0
344.1211	18.0
355.1175	63.6
537.1749	45.3

Name: Labdanolic acid
PrecursorMZ: 323.25925
RT: 9.3824
ExactMass: 324.26644501
Spectrum_type: 2
charge: -1
Formula: C20H36O3
SMILES: C[C@@H](CC[C@@H]1[C@]2(CCCC(C2CC[C@@]1(C)O)(C)C)C)CC(=O)O
Method: HCD
Collision_energy: [28.333334]
Isolation_window: 4.0
Ion_mode: N
Num Peaks: 6
277.2535	12.4
279.2689	30.9
323.2590	100.0
324.2615	19.7
325.1871	14.6
325.2775	39.5

Name: Lignicol
PrecursorMZ: 239.05512
RT: 2.7165
ExactMass: 240.0633881
Spectrum_type: 2
charge: -1
Formula: C11H12O6
SMILES: C[C@@H]1[C@H](C2=CC(=C(C(=C2C(=O)O1)O)OC)O)O
Method: HCD
Collision_energy: [28.333334]
Isolation_window: 4.0
Ion_mode: N
Num Peaks: 62
59.0127	5.3
66.0337	1.5
71.0126	2.5
72.9918	3.8
87.0074	5.3
94.0284	3.3
96.9587	6.0
106.0410	2.5
107.0489	16.9
108.0204	2.7
108.0441	5.9
108.0522	1.6
110.0233	5.2
110.0597	4.2
114.0546	5.2
115.0022	1.5
116.0704	1.7
121.0281	4.3
122.0598	10.2
123.0440	1.6
124.0391	3.5
125.0596	1.6
133.0645	9.1
135.0440	4.5
137.0707	1.7
138.0547	4.2
139.0497	3.5
139.0861	2.4
149.0594	34.5
150.0642	2.5
151.0387	3.4
151.0753	4.0
152.0701	2.1
153.0545	1.7
163.0388	1.5
165.0539	2.2
177.0543	40.8
178.0585	3.9
179.0336	74.1
180.0373	6.5
193.0488	3.5
194.0803	8.7
195.0282	2.6
195.0653	13.0
195.1137	3.1
196.0607	1.8
196.0963	4.3
221.0443	4.5
237.0381	2.0
237.1231	3.7
238.0699	6.1
238.1051	4.6
238.1076	2.2
239.0167	2.2
239.0550	100.0
239.0944	2.1
239.1370	2.4
240.0580	10.6
240.0864	10.7
240.1205	2.8
241.0712	3.5
241.1183	2.3

Name: Lupulone
PrecursorMZ: 413.26836
RT: 8.921
ExactMass: 414.27700969
Spectrum_type: 2
charge: -1
Formula: C26H38O4
SMILES: CC(C)CC(=O)C1=C(C(=C(C(C1=O)(CC=C(C)C)CC=C(C)C)O)CC=C(C)C)O
Method: HCD
Collision_energy: [28.333334]
Isolation_window: 4.0
Ion_mode: N
Num Peaks: 5
369.2794	15.3
412.2560	18.1
413.2691	100.0
414.2724	29.6
415.2870	10.1

Name: Magnolol
PrecursorMZ: 265.12333
RT: 8.8231
ExactMass: 266.130679813
Spectrum_type: 2
charge: -1
Formula: C18H18O2
SMILES: C=CCC1=CC(=C(C=C1)O)C2=C(C=CC(=C2)CC=C)O
Method: HCD
Collision_energy: [28.333334]
Isolation_window: 4.0
Ion_mode: N
Num Peaks: 9
69.0337	49.6
96.9591	38.6
183.0808	26.5
209.0969	17.3
221.0968	28.2
247.1127	13.4
265.1228	37.7
265.1480	100.0
266.1513	16.1

Name: Maleic Acid
PrecursorMZ: 115.00276
RT: 1.1031499999999999
ExactMass: 116.0109586
Spectrum_type: 2
charge: -1
Formula: C4H4O4
SMILES: C(=C\C(=O)O)\C(=O)O
Method: HCD
Collision_energy: [28.333334]
Isolation_window: 4.0
Ion_mode: N
Num Peaks: 5
68.9948	42.8
71.0129	100.0
96.0081	22.8
116.0245	41.5
116.9274	19.1

Name: Methionine + DCA
PrecursorMZ: 522.32652
RT: 6.4511
ExactMass: 523.33314484
Spectrum_type: 2
charge: -1
Formula: C29H49NO5S
SMILES: C[C@H](CCC(=O)N[C@@H](CCSC)C(=O)O)[C@H]1CC[C@@H]2[C@@]1([C@H](C[C@H]3[C@H]2CC[C@H]4[C@@]3(CC[C@H](C4)O)C)O)C
Method: HCD
Collision_energy: [28.333334]
Isolation_window: 4.0
Ion_mode: N
Num Peaks: 10
58.0347	2.4
58.0379	4.4
58.1494	1.3
79.9564	1.6
96.9592	9.0
520.3096	2.5
521.3054	6.3
522.3264	100.0
523.3257	41.1
524.3270	8.9

Name: Methyl 3-(3,4-dihydroxy-5-(3-methylbut-2-enyl)phenyl)-2-((4-hydroxy-3-(3-methylbut-2-enyl)phenyl)methyl)-4-methoxy-5-oxofuran-2-carboxylate
PrecursorMZ: 521.21847
RT: 8.3847
ExactMass: 522.22536804
Spectrum_type: 2
charge: -1
Formula: C30H34O8
SMILES: CC(=CCC1=C(C=CC(=C1)CC2(C(=C(C(=O)O2)OC)C3=CC(=C(C(=C3)O)O)CC=C(C)C)C(=O)OC)O)C
Method: HCD
Collision_energy: [28.333334]
Isolation_window: 4.0
Ion_mode: N
Num Peaks: 8
61.9872	14.6
431.2237	100.0
432.2275	30.3
475.2119	14.1
477.2261	17.2
493.2257	16.3
521.2192	76.6
522.2230	23.9

Name: Methyl vanillate glucoside
PrecursorMZ: 389.10828
RT: 6.6019
ExactMass: 344.11073221
Spectrum_type: 2
charge: -1
Formula: C15H20O9
SMILES: COC1=C(C=CC(=C1)C(=O)OC)O[C@H]2[C@@H]([C@H]([C@@H]([C@H](O2)CO)O)O)O
Method: HCD
Collision_energy: [28.333334]
Isolation_window: 4.0
Ion_mode: N
Num Peaks: 6
166.0082	22.0
166.0299	100.0
167.0334	7.6
221.1091	6.5
240.0805	22.1
389.1087	9.0

Name: Minecoside
PrecursorMZ: 537.16138
RT: 4.3231
ExactMass: 538.16864101
Spectrum_type: 2
charge: -1
Formula: C25H30O13
SMILES: COC1=C(C=C(C=C1)/C=C/C(=O)O[C@H]2[C@@H]3C=CO[C@H]([C@@H]3[C@@]4([C@H]2O4)CO)O[C@H]5[C@@H]([C@H]([C@@H]([C@H](O5)CO)O)O)O)O
Method: HCD
Collision_energy: [28.333334]
Isolation_window: 4.0
Ion_mode: N
Num Peaks: 24
101.0234	9.5
167.0343	13.5
209.0448	18.4
239.0557	16.1
315.0870	25.8
327.0854	9.3
345.0982	17.2
357.0977	82.1
358.1014	15.2
387.1085	100.0
388.1117	23.2
417.1189	44.4
418.1231	11.8
429.1182	17.0
447.1300	43.1
448.1337	9.8
459.1297	10.6
477.1376	9.7
535.3289	9.9
537.1611	87.2
537.2631	19.9
537.3407	37.6
538.1636	20.9
538.3523	13.8

Name: Mono-2-ethyl-5-carboxypentyl terephthalate
PrecursorMZ: 307.1187
RT: 5.95095
ExactMass: 308.12598835
Spectrum_type: 2
charge: -1
Formula: C16H20O6
SMILES: CCC(CCCC(=O)O)COC(=O)C1=CC=C(C=C1)C(=O)O
Method: HCD
Collision_energy: [28.333334]
Isolation_window: 4.0
Ion_mode: N
Num Peaks: 16
80.9642	2.3
96.9591	7.0
121.0285	5.6
165.0185	10.8
219.0653	2.0
233.0817	2.7
248.1050	1.9
263.1291	2.1
292.0954	1.6
293.1153	2.3
305.1423	1.8
307.1288	11.5
307.6318	4.5
308.1376	100.0
308.6391	33.1
309.1383	11.5

Name: Monoethyl malonate
PrecursorMZ: 131.03451
RT: 2.1702
ExactMass: 132.04225873
Spectrum_type: 2
charge: -1
Formula: C5H8O4
SMILES: CCOC(=O)CC(=O)O
Method: HCD
Collision_energy: [28.333334]
Isolation_window: 4.0
Ion_mode: N
Num Peaks: 5
59.0130	20.0
87.0442	100.0
103.0027	21.1
130.0403	51.0
131.0350	50.3

Name: Murolic acid
PrecursorMZ: 367.2467
RT: 9.5497
ExactMass: 368.25627424
Spectrum_type: 2
charge: -1
Formula: C21H36O5
SMILES: C[C@H](CCCCCCCCCCCCC[C@@H]1[C@H](C(=C)C(=O)O1)C(=O)O)O
Method: HCD
Collision_energy: [28.333334]
Isolation_window: 4.0
Ion_mode: N
Num Peaks: 7
253.2535	27.2
254.2569	4.1
299.2592	100.0
300.2624	18.7
367.2468	31.6
368.2502	7.2
368.3171	5.8

Name: Muronic acid
PrecursorMZ: 365.23336
RT: 7.364
ExactMass: 366.24062418
Spectrum_type: 2
charge: -1
Formula: C21H34O5
SMILES: CC(=O)CCCCCCCCCCCCC[C@@H]1C(C(=C)C(=O)O1)C(=O)O
Method: HCD
Collision_energy: [28.333334]
Isolation_window: 4.0
Ion_mode: N
Num Peaks: 7
57.0336	10.2
68.9972	11.1
139.1121	19.7
364.2210	10.6
365.2333	100.0
366.2363	22.0
367.2326	12.0

Name: N-((1-(tert-butoxycarbonyl)piperidin-4-yl)carbonyl)-L-phenylalanine
PrecursorMZ: 375.19281
RT: 4.4894750000000005
ExactMass: 376.199822
Spectrum_type: 2
charge: -1
Formula: C20H28N2O5
SMILES: CC(C)(C)OC(=O)N1CCC(CC1)C(=O)N[C@@H](CC2=CC=CC=C2)C(=O)O
Method: HCD
Collision_energy: [28.333334]
Isolation_window: 4.0
Ion_mode: N
Num Peaks: 29
57.0337	10.3
83.0493	2.9
106.0653	7.4
109.0650	2.8
112.0394	2.5
124.0759	9.8
148.0763	2.6
154.0866	4.7
174.0914	2.4
176.1074	15.4
188.1077	3.4
220.0974	10.3
241.1482	2.2
243.1500	7.2
255.1494	7.3
270.1864	12.8
271.1838	4.6
273.1610	2.4
296.1653	11.7
297.1688	3.1
313.1922	61.0
314.1955	12.7
331.2023	6.1
373.2587	2.3
374.1662	4.2
375.1554	2.9
375.1931	100.0
375.2747	9.6
376.1955	25.1

Name: N-(1,3-benzodioxol-5-ylmethyl)-3-(1,2,4-triazol-1-yl)adamantane-1-carboxamide
PrecursorMZ: 425.18354
RT: 3.6707
ExactMass: 380.18484064
Spectrum_type: 2
charge: -1
Formula: C21H24N4O3
SMILES: C1C2CC3(CC1CC(C2)(C3)N4C=NC=N4)C(=O)NCC5=CC6=C(C=C5)OCO6
Method: HCD
Collision_energy: [28.333334]
Isolation_window: 4.0
Ion_mode: N
Num Peaks: 4
96.9588	54.5
345.2271	17.6
425.1840	100.0
426.1874	23.2

Name: N-(1,3-dihydroxyoctadec-4-en-2-yl)tetradecanamide
PrecursorMZ: 568.49313
RT: 11.4005
ExactMass: 509.48079487
Spectrum_type: 2
charge: -1
Formula: C32H63NO3
SMILES: CCCCCCCCCCCCC/C=C/C(C(CO)NC(=O)CCCCCCCCCCCCC)O
Method: HCD
Collision_energy: [28.333334]
Isolation_window: 4.0
Ion_mode: N
Num Peaks: 31
58.2799	2.5
59.0128	100.0
68.9968	2.4
69.0001	2.2
84.0443	5.2
86.0235	9.1
223.2057	3.3
225.2215	1.7
239.2370	4.7
241.2164	2.0
266.2481	13.8
280.2634	6.2
282.2431	2.8
296.2585	17.0
297.2619	9.0
326.2691	6.3
327.2717	3.8
340.2843	1.7
342.3001	7.1
476.4824	5.0
492.4772	4.5
508.4718	2.1
522.4882	14.4
523.4912	4.1
524.5034	62.3
566.5142	8.5
567.5172	20.0
568.5216	5.0
568.5322	1.6
569.4171	1.7
570.5095	7.4

Name: N-(4-(acetylamino)phenyl)-2-(4-(morpholin-4-ylcarbonyl)-2-oxoquinolin-1(2H)-yl)acetamide
PrecursorMZ: 447.16769
RT: 3.4136
ExactMass: 448.17466988
Spectrum_type: 2
charge: -1
Formula: C24H24N4O5
SMILES: CC(=O)NC1=CC=C(C=C1)NC(=O)CN2C3=CC=CC=C3C(=CC2=O)C(=O)N4CCOCC4
Method: HCD
Collision_energy: [28.333334]
Isolation_window: 4.0
Ion_mode: N
Num Peaks: 3
447.1678	100.0
448.1702	21.6
449.1681	5.8

Name: N-Hexanoylsphingosine
PrecursorMZ: 442.35371
RT: 8.8137
ExactMass: 397.35559436
Spectrum_type: 2
charge: -1
Formula: C24H47NO3
SMILES: CCCCCCCCCCCCC/C=C/[C@H]([C@H](CO)NC(=O)CCCCC)O
Method: HCD
Collision_energy: [28.333334]
Isolation_window: 4.0
Ion_mode: N
Num Peaks: 3
113.0348	100.0
395.3286	39.6
396.3230	52.9

Name: N-Nonadecanoyl-D-sphingosine
PrecursorMZ: 638.57321
RT: 11.8871
ExactMass: 579.55904519
Spectrum_type: 2
charge: -1
Formula: C37H73NO3
SMILES: CCCCCCCCCCCCCCCCCCC(=O)NC(CO)C(/C=C/CCCCCCCCCCCCC)O
Method: HCD
Collision_energy: [28.333334]
Isolation_window: 4.0
Ion_mode: N
Num Peaks: 4
336.3273	14.8
364.3585	12.2
592.5678	100.0
593.5709	36.2

Name: N-acetyl-D-tryptophan
PrecursorMZ: 245.09278
RT: 2.9696
ExactMass: 246.10044231
Spectrum_type: 2
charge: -1
Formula: C13H14N2O3
SMILES: CC(=O)N[C@H](CC1=CNC2=CC=CC=C21)C(=O)O
Method: HCD
Collision_energy: [28.333334]
Isolation_window: 4.0
Ion_mode: N
Num Peaks: 13
59.0129	28.8
74.0239	31.8
116.0345	37.6
116.0496	68.1
165.0550	45.5
183.0913	57.3
203.0824	37.9
215.0819	36.4
243.1235	32.6
243.1716	27.9
245.0126	54.2
245.0918	100.0
247.1196	29.6

Name: N-acetyl-L-methionine
PrecursorMZ: 190.05311
RT: 2.6123
ExactMass: 191.06161445
Spectrum_type: 2
charge: -1
Formula: C7H13NO3S
SMILES: CC(=O)N[C@@H](CCSC)C(=O)O
Method: HCD
Collision_energy: [28.333334]
Isolation_window: 4.0
Ion_mode: N
Num Peaks: 22
59.0128	4.1
66.0340	4.4
84.0443	19.9
98.0600	19.0
112.0392	11.1
113.0597	5.8
121.0283	6.9
142.0499	81.8
143.0536	4.8
144.0445	61.7
145.0480	22.5
147.0654	4.3
148.0426	100.0
149.0463	6.6
157.0495	7.8
161.0233	4.5
189.0775	4.1
189.1123	9.8
190.0532	57.3
191.0554	14.3
191.0817	30.5
192.0655	5.5

Name: Npc240528
PrecursorMZ: 485.32724
RT: 9.6838
ExactMass: 486.33452456
Spectrum_type: 2
charge: -1
Formula: C30H46O5
SMILES: CC(=C)[C@@H]1CC[C@]2(C1C3CCC4[C@]([C@@]3(CC2)C)(CCC5[C@@]4([C@H]([C@@H](C5(C)C)O)C(=O)O)C)C)C(=O)O
Method: HCD
Collision_energy: [28.333334]
Isolation_window: 4.0
Ion_mode: N
Num Peaks: 4
197.1179	78.7
209.1540	85.2
485.3281	100.0
486.3337	30.6

Name: Nvx-207
PrecursorMZ: 636.403
RT: 9.6186
ExactMass: 601.4342386
Spectrum_type: 2
charge: -1
Formula: C36H59NO6
SMILES: CC(=C)[C@@H]1CC[C@]2([C@H]1[C@H]3CC[C@@H]4[C@]5(CC[C@@H](C([C@@H]5CC[C@]4([C@@]3(CC2)C)C)(C)C)OC(=O)C)C)C(=O)OCC(CO)(CO)N
Method: HCD
Collision_energy: [28.333334]
Isolation_window: 4.0
Ion_mode: N
Num Peaks: 4
69.0066	51.5
589.4127	53.0
636.4049	92.7
637.4272	100.0

Name: Olean-12-ene-23,28-dioic acid, 16-hydroxy-3-(beta-D-xylopyranosyloxy)-, (3beta,5xi,9xi,16alpha)-
PrecursorMZ: 633.36498
RT: 9.6692
ExactMass: 634.37169792
Spectrum_type: 2
charge: -1
Formula: C35H54O10
SMILES: C[C@]12CC[C@@H]([C@@](C1CC[C@@]3(C2CC=C4[C@]3(C[C@H]([C@@]5([C@H]4CC(CC5)(C)C)C(=O)O)O)C)C)(C)C(=O)O)O[C@H]6[C@@H]([C@H]([C@@H](CO6)O)O)O
Method: HCD
Collision_energy: [28.333334]
Isolation_window: 4.0
Ion_mode: N
Num Peaks: 7
134.0365	38.5
149.0600	7.4
193.0500	100.0
194.0534	9.0
632.4914	8.1
633.3640	31.5
634.3682	10.9

Name: PE(16:1/0:0); (M-H)- C21H41N1O7P1
PrecursorMZ: 450.26262
RT: 7.416925
Spectrum_type: 2
charge: -1
Method: HCD
Collision_energy: [28.333334]
Isolation_window: 4.0
Ion_mode: N
Num Peaks: 10
50.0304	2.0
78.9580	4.9
140.0109	3.5
152.9949	1.6
196.0374	11.9
214.0479	2.1
253.2170	100.0
254.2204	17.8
450.2628	41.8
451.2661	9.3

Name: PE(18:1/0:0); (M-H)- C23H45N1O7P1
PrecursorMZ: 478.29332
RT: 8.035525
Spectrum_type: 2
charge: -1
Method: HCD
Collision_energy: [28.333334]
Isolation_window: 4.0
Ion_mode: N
Num Peaks: 13
53.1451	1.5
78.9579	2.4
140.0109	2.4
196.0371	3.8
214.0480	4.3
279.2328	9.6
280.2359	4.7
281.2482	100.0
282.2515	16.7
476.2777	5.9
477.2817	4.3
478.2934	36.7
479.2954	8.2

Name: PE(P-18:0/0:0)
PrecursorMZ: 464.31479
RT: 8.6817
ExactMass: 465.32192525
Spectrum_type: 2
charge: -1
Formula: C23H48NO6P
SMILES: CCCCCCCCCCCCCCCC/C=C\OC[C@H](COP(=O)(O)OCCN)O
Method: HCD
Collision_energy: [28.333334]
Isolation_window: 4.0
Ion_mode: N
Num Peaks: 9
78.9581	57.5
140.0110	38.7
196.0374	53.2
267.2695	23.2
462.2995	13.2
463.3028	11.9
464.3148	100.0
465.3174	29.3
466.3303	39.9

Name: PG(16:0/18:1); (M-H)- C40H76O10P1
PrecursorMZ: 747.51909
RT: 11.3267
Spectrum_type: 2
charge: -1
Method: HCD
Collision_energy: [28.333334]
Isolation_window: 4.0
Ion_mode: N
Num Peaks: 13
78.9581	4.1
83.0606	2.0
152.9952	12.9
171.0058	4.5
227.0322	2.0
255.2329	100.0
256.2364	15.4
281.2487	51.7
282.2525	8.3
283.2639	2.1
747.5194	44.9
748.5222	19.9
749.5248	4.0

Name: PG(18:1(9Z)/18:0)
PrecursorMZ: 775.54876
RT: 10.7814
ExactMass: 776.55673577
Spectrum_type: 2
charge: -1
Formula: C42H81O10P
SMILES: CCCCCCCCCCCCCCCCCC(=O)O[C@H](COC(=O)CCCCCCC/C=C\CCCCCCCC)COP(=O)(O)OC[C@H](CO)O
Method: HCD
Collision_energy: [28.333334]
Isolation_window: 4.0
Ion_mode: N
Num Peaks: 20
61.9875	83.8
74.0239	3.3
78.9582	6.2
87.0443	65.6
152.9953	14.8
241.2173	3.6
255.2331	100.0
256.2366	16.3
279.2332	18.6
280.2367	3.7
281.2490	60.4
282.2522	29.0
283.2637	8.6
712.5539	9.5
713.5554	3.7
773.5356	6.2
774.5317	25.3
775.5502	63.0
776.5535	26.3
777.5525	5.3

Name: PI(18:4(6Z,9Z,12Z,15Z)/18:1(9Z))
PrecursorMZ: 855.50256
RT: 10.4414
ExactMass: 856.5101795
Spectrum_type: 2
charge: -1
Formula: C45H77O13P
SMILES: CCCCCCCC/C=C\CCCCCCCC(=O)O[C@H](COC(=O)CCCC/C=C\C/C=C\C/C=C\C/C=C\CC)COP(=O)(O)OC1C([C@@H](C(C(C1O)O)O)O)O
Method: HCD
Collision_energy: [28.333334]
Isolation_window: 4.0
Ion_mode: N
Num Peaks: 7
78.9580	23.0
152.9949	20.0
241.0116	38.4
277.2169	48.3
279.2324	63.2
855.5025	100.0
856.5059	55.1

Name: Phorbol
PrecursorMZ: 409.18728
RT: 4.2124
ExactMass: 364.18858861
Spectrum_type: 2
charge: -1
Formula: C20H28O6
SMILES: C[C@@H]1[C@H]([C@@]2([C@@H](C2(C)C)[C@H]3[C@]1([C@@H]4C=C(C(=O)[C@]4(CC(=C3)CO)O)C)O)O)O
Method: HCD
Collision_energy: [28.333334]
Isolation_window: 4.0
Ion_mode: N
Num Peaks: 28
99.0443	9.0
114.0551	23.9
125.0599	3.9
128.0346	3.1
130.0863	3.8
149.0600	3.5
193.0865	8.8
195.0657	26.3
233.1182	10.0
237.0770	6.3
239.1282	3.8
263.1305	3.4
269.1398	8.3
277.1086	4.6
279.1241	3.0
283.1184	3.9
295.1187	6.4
303.1971	3.3
347.1885	6.6
391.1780	9.0
392.1801	3.2
407.1684	6.2
408.1692	10.1
408.2166	4.2
409.1873	100.0
410.1909	25.8
411.1446	4.2
411.2041	14.5

Name: Phosphatidylethanolamine lyso 18:0
PrecursorMZ: 480.30997
RT: 9.5478
ExactMass: 481.31683987
Spectrum_type: 2
charge: -1
Formula: C23H48NO7P
SMILES: CCCCCCCCCCCCCCCCCC(=O)OC(CO)COP(=O)(O)OCCN
Method: HCD
Collision_energy: [28.333334]
Isolation_window: 4.0
Ion_mode: N
Num Peaks: 5
295.1903	59.8
298.1802	20.3
462.3016	30.5
480.3106	100.0
481.3131	27.7

Name: Phylligenin
PrecursorMZ: 371.15029
RT: 5.0775
ExactMass: 372.15728848
Spectrum_type: 2
charge: -1
Formula: C21H24O6
SMILES: COC1=C(C=C(C=C1)[C@@H]2[C@@H]3CO[C@H]([C@@H]3CO2)C4=CC(=C(C=C4)O)OC)OC
Method: HCD
Collision_energy: [28.333334]
Isolation_window: 4.0
Ion_mode: N
Num Peaks: 6
119.0494	29.0
207.0658	64.2
313.1086	11.1
369.1340	10.5
371.1507	100.0
372.1534	25.1

Name: Physcion
PrecursorMZ: 283.06052
RT: 6.3283
ExactMass: 284.06847348
Spectrum_type: 2
charge: -1
Formula: C16H12O5
SMILES: CC1=CC2=C(C(=C1)O)C(=O)C3=C(C2=O)C=C(C=C3O)OC
Method: HCD
Collision_energy: [28.333334]
Isolation_window: 4.0
Ion_mode: N
Num Peaks: 11
240.0422	32.1
255.0656	15.1
268.0370	10.0
281.1534	29.5
281.2479	57.7
282.1566	8.4
282.2513	14.8
283.0613	100.0
283.2631	13.1
284.0643	16.2
285.2065	7.8

Name: Picrotin
PrecursorMZ: 309.09817
RT: 5.2019
ExactMass: 310.10525291
Spectrum_type: 2
charge: -1
Formula: C15H18O7
SMILES: C[C@@]12[C@H]3[C@H]4[C@H]([C@@H]([C@@]1(C[C@@H]5[C@]2(O5)C(=O)O3)O)C(=O)O4)C(C)(C)O
Method: HCD
Collision_energy: [28.333334]
Isolation_window: 4.0
Ion_mode: N
Num Peaks: 25
80.9642	3.0
85.0285	3.8
95.0493	7.6
119.0492	1.5
123.0806	2.5
125.0599	13.0
137.0600	3.6
139.0391	2.5
177.1278	12.0
178.1311	1.8
179.0707	3.6
203.1075	1.9
221.1179	25.6
222.1215	3.3
223.0609	4.9
247.0977	2.8
265.1085	9.4
265.1799	1.5
266.1122	1.5
307.1581	1.5
309.0979	100.0
309.1717	4.0
310.1014	16.8
311.1033	2.2
311.1867	3.6

Name: Polygalic acid
PrecursorMZ: 487.30693
RT: 5.5064
ExactMass: 488.31378912
Spectrum_type: 2
charge: -1
Formula: C29H44O6
SMILES: C[C@@]12CC[C@@H]3[C@@]([C@H]1CCC4=C2CC[C@@]5([C@H]4CC(CC5)(C)C)C(=O)O)(C[C@@H]([C@@H]([C@@]3(C)C(=O)O)O)O)C
Method: HCD
Collision_energy: [28.333334]
Isolation_window: 4.0
Ion_mode: N
Num Peaks: 11
61.9875	12.6
71.0493	16.4
369.2438	12.4
371.2599	13.1
415.2491	8.7
425.3068	24.5
426.3106	7.4
443.3171	19.1
487.3000	100.0
488.3026	29.8
489.3180	13.4

Name: Pravastatin
PrecursorMZ: 423.23936
RT: 9.0386
ExactMass: 424.24610348
Spectrum_type: 2
charge: -1
Formula: C23H36O7
SMILES: CC[C@H](C)C(=O)O[C@H]1C[C@@H](C=C2[C@H]1[C@H]([C@H](C=C2)C)CC[C@H](C[C@H](CC(=O)O)O)O)O
Method: HCD
Collision_energy: [28.333334]
Isolation_window: 4.0
Ion_mode: N
Num Peaks: 25
57.0337	12.2
59.0130	10.0
80.9643	4.2
102.0551	5.7
121.0285	3.8
128.0709	4.1
139.0392	2.9
172.0607	3.1
173.0965	4.8
257.1910	7.8
258.1945	4.4
279.1966	100.0
280.2000	19.9
299.2025	3.7
375.2907	2.9
389.1733	2.9
404.1957	6.0
421.2022	3.2
421.3134	4.5
422.1988	8.2
423.2495	6.4
423.3084	4.2
425.1611	9.1
425.2318	7.1
425.2819	5.6

Name: Prostaglandin H2
PrecursorMZ: 351.2169
RT: 6.9481
ExactMass: 352.22497412
Spectrum_type: 2
charge: -1
Formula: C20H32O5
SMILES: CCCCC[C@@H](/C=C/[C@H]1[C@H]2C[C@@H]([C@@H]1C/C=C\CCCC(=O)O)OO2)O
Method: HCD
Collision_energy: [28.333334]
Isolation_window: 4.0
Ion_mode: N
Num Peaks: 9
83.0491	38.3
97.0648	28.2
125.0597	9.5
253.0501	13.7
317.2107	8.6
319.1908	34.6
351.2171	100.0
352.2194	21.4
353.2320	17.5

Name: Sodium Taurodeoxycholate
PrecursorMZ: 498.28929
RT: 5.6255
ExactMass: 521.27870358
Spectrum_type: 2
charge: -1
Formula: C26H44NNaO6S
SMILES: C[C@H](CCC(=O)NCCS(=O)(=O)[O-])[C@H]1CC[C@@H]2[C@@]1([C@H](C[C@H]3[C@H]2CC[C@H]4[C@@]3(CC[C@H](C4)O)C)O)C.[Na+]
Method: HCD
Collision_energy: [28.333334]
Isolation_window: 4.0
Ion_mode: N
Num Peaks: 4
55.3670	4.3
498.2895	100.0
499.2903	26.0
500.2881	6.3

Name: Spirostane + 2O,-2H, O-Hex-dHex-dHex
PrecursorMZ: 945.47103
RT: 5.0581
ExactMass: 900.47186544
Spectrum_type: 2
charge: -1
Formula: C45H72O18
SMILES: CC1CCC2(C(C3C(O2)CC4C3(C(CC5C4CC=C6C5(CCC(C6)OC7C(C(C(C(O7)CO)OC8C(C(C(C(O8)C)O)O)O)O)OC9C(C(C(C(O9)C)O)O)O)C)O)C)C)OC1O
Method: HCD
Collision_energy: [28.333334]
Isolation_window: 4.0
Ion_mode: N
Num Peaks: 19
71.0129	16.5
85.0284	4.1
89.0234	31.5
99.9372	2.8
99.9447	4.4
101.0234	23.2
113.0235	12.0
119.0341	18.4
131.0342	3.9
143.0341	7.1
161.0450	4.8
163.0605	4.2
179.0556	5.4
205.0713	4.6
737.4126	15.0
738.4142	6.6
899.4654	100.0
900.4688	41.1
901.4750	9.8

Name: Succinate
PrecursorMZ: 117.01837
RT: 0.9888
ExactMass: 116.0109586
Spectrum_type: 2
charge: -1
Formula: C4H4O4-2
SMILES: C(CC(=O)[O-])C(=O)[O-]
Method: HCD
Collision_energy: [28.333334]
Isolation_window: 4.0
Ion_mode: N
Num Peaks: 20
59.0129	3.3
65.0136	3.3
71.0129	7.8
71.0492	3.0
72.9921	3.1
73.0285	100.0
74.0238	5.6
74.0318	4.7
89.0135	8.7
90.0088	5.5
91.0292	2.9
99.0078	10.1
99.9248	5.2
116.0245	16.6
116.9275	35.5
117.0185	24.7
117.9276	4.1
118.0290	4.7
119.0242	3.7
119.0341	4.0

Name: Taxiresinol
PrecursorMZ: 345.13443
RT: 4.8746
ExactMass: 346.14163842
Spectrum_type: 2
charge: -1
Formula: C19H22O6
SMILES: COC1=C(C=CC(=C1)C[C@H]2CO[C@@H]([C@H]2CO)C3=CC(=C(C=C3)O)O)O
Method: HCD
Collision_energy: [28.333334]
Isolation_window: 4.0
Ion_mode: N
Num Peaks: 20
59.0130	8.3
135.0444	5.1
136.0525	5.1
149.0601	13.6
151.0758	8.3
171.1022	8.0
177.0548	6.6
195.0658	57.8
196.0692	5.8
269.0811	5.4
270.0856	4.5
283.0978	6.6
284.1022	7.0
343.1197	16.8
343.2126	20.0
344.1219	20.3
344.2152	6.1
345.1346	100.0
345.2239	6.5
346.1375	23.4

Name: Tectochrysin
PrecursorMZ: 267.06659
RT: 5.1966
ExactMass: 268.07355886
Spectrum_type: 2
charge: -1
Formula: C16H12O4
SMILES: COC1=CC(=C2C(=C1)OC(=CC2=O)C3=CC=CC=C3)O
Method: HCD
Collision_energy: [28.333334]
Isolation_window: 4.0
Ion_mode: N
Num Peaks: 5
188.1111	4.0
267.0664	100.0
267.1591	2.4
268.0696	18.5
269.1213	3.3

Name: Thaxtomin C
PrecursorMZ: 391.13867
RT: 4.7953
ExactMass: 392.14845513
Spectrum_type: 2
charge: -1
Formula: C21H20N4O4
SMILES: CN1[C@H](C(=O)N[C@H](C1=O)CC2=CC=CC=C2)CC3=CNC4=C3C(=CC=C4)[N+](=O)[O-]
Method: HCD
Collision_energy: [28.333334]
Isolation_window: 4.0
Ion_mode: N
Num Peaks: 27
72.9919	12.9
114.0547	6.1
153.0547	3.9
164.0465	8.4
165.0546	8.9
179.0698	6.9
195.0649	8.5
208.0365	26.6
209.0401	6.5
223.0600	71.5
224.0635	18.3
241.0707	100.0
242.0740	10.3
243.1129	3.7
257.1283	3.9
258.1355	3.9
302.1266	3.1
361.1757	7.8
389.1235	11.4
389.2543	9.0
390.1235	10.8
390.2012	3.5
391.1388	91.7
391.1879	4.0
391.2727	8.6
392.1408	18.1
392.2432	4.8

Name: Thiophaninic acid
PrecursorMZ: 338.98318
RT: 5.964666666666666
ExactMass: 339.9905288
Spectrum_type: 2
charge: -1
Formula: C15H10Cl2O5
SMILES: CC1=CC(=CC2=C1C(=O)C3=C(C(=C(C(=C3O2)Cl)O)Cl)O)OC
Method: HCD
Collision_energy: [28.333334]
Isolation_window: 4.0
Ion_mode: N
Num Peaks: 14
102.9475	6.4
146.9374	12.5
190.9272	6.6
224.8597	4.0
292.9763	15.7
294.9935	100.0
295.9940	22.6
296.9910	6.9
311.9600	5.4
324.9677	45.4
325.9683	10.8
338.9832	23.4
339.1996	6.1
339.9841	4.8

Name: Thr-UDCA
PrecursorMZ: 492.33217
RT: 4.6549
ExactMass: 493.34033822
Spectrum_type: 2
charge: -1
Formula: C28H47NO6
SMILES: C[C@H](CCC(=O)N[C@@H]([C@@H](C)O)C(=O)O)[C@H]1CC[C@@H]2[C@@]1(CC[C@H]3[C@H]2[C@H](C[C@H]4[C@@]3(CC[C@H](C4)O)C)O)C
Method: HCD
Collision_energy: [28.333334]
Isolation_window: 4.0
Ion_mode: N
Num Peaks: 3
490.3166	48.5
491.3213	100.0
492.3338	25.7

Name: Tryptophan + HDCA
PrecursorMZ: 577.36559
RT: 7.1734
ExactMass: 578.3719727
Spectrum_type: 2
charge: -1
Formula: C35H50N2O5
SMILES: C[C@H](CCC(=O)N[C@@H](CC1=CNC2=CC=CC=C21)C(=O)O)[C@H]3CC[C@@H]4[C@@]3(CC[C@H]5[C@H]4C[C@@H]([C@H]6[C@@]5(CC[C@H](C6)O)C)O)C
Method: HCD
Collision_energy: [28.333334]
Isolation_window: 4.0
Ion_mode: N
Num Peaks: 18
64.1501	2.0
64.1538	4.4
64.2652	1.5
74.0239	18.5
116.0498	4.4
124.0068	1.9
159.0926	1.8
203.0823	49.7
204.0859	4.5
404.3182	1.5
448.3074	12.2
449.3100	3.1
533.3761	5.4
534.3818	1.7
576.3486	2.4
577.3656	100.0
578.3695	37.3
579.3726	7.2

Name: Tyrosine + UDCA
PrecursorMZ: 554.34822
RT: 6.737842857142857
ExactMass: 555.35598828
Spectrum_type: 2
charge: -1
Formula: C33H49NO6
SMILES: C[C@H](CCC(=O)N[C@@H](CC1=CC=C(C=C1)O)C(=O)O)[C@H]2CC[C@@H]3[C@@]2(CC[C@H]4[C@H]3[C@H](C[C@H]5[C@@]4(CC[C@H](C5)O)C)O)C
Method: HCD
Collision_energy: [28.333334]
Isolation_window: 4.0
Ion_mode: N
Num Peaks: 16
61.5961	4.4
74.0238	2.9
79.9564	5.1
96.9591	9.6
163.0391	2.6
180.0659	44.5
181.0694	3.4
510.3588	6.5
525.3253	2.6
552.3026	6.1
553.3214	64.7
554.3494	100.0
555.3484	69.1
556.2927	9.3
556.3509	9.7
556.3620	9.3

Name: Uracil Arabinoside
PrecursorMZ: 289.06777
RT: 1.1505
ExactMass: 244.06953611
Spectrum_type: 2
charge: -1
Formula: C9H12N2O6
SMILES: C1=CN(C(=O)NC1=O)[C@H]2[C@H]([C@@H]([C@H](O2)CO)O)O
Method: HCD
Collision_energy: [28.333334]
Isolation_window: 4.0
Ion_mode: N
Num Peaks: 20
59.0130	7.5
71.0129	8.5
85.0286	5.2
87.0078	6.6
88.9870	9.5
89.0234	6.4
101.0234	6.7
110.0238	35.4
111.0192	30.7
128.0345	83.3
133.0498	12.8
140.0342	5.8
152.0344	11.1
170.0452	7.9
200.0559	67.6
243.0621	100.0
244.0652	10.2
289.0932	9.1
290.0885	23.9
291.0693	5.8

Name: Urs-12-ene-24,28-dioic acid, 3,19-dihydroxy-, (3beta,5xi,9xi,18xi)-
PrecursorMZ: 547.32802
RT: 5.6568
ExactMass: 502.32943918
Spectrum_type: 2
charge: -1
Formula: C30H46O6
SMILES: C[C@@H]1CC[C@@]2(CC[C@@]3(C(=CCC4[C@]3(CCC5[C@@]4(CC[C@@H]([C@]5(C)C(=O)O)O)C)C)C2[C@]1(C)O)C)C(=O)O
Method: HCD
Collision_energy: [28.333334]
Isolation_window: 4.0
Ion_mode: N
Num Peaks: 6
83.0492	26.6
121.0650	8.7
139.0755	56.4
501.3223	100.0
502.3259	31.2
547.3355	8.0

Name: Vaccenic Acid
PrecursorMZ: 281.2473
RT: 10.2356
ExactMass: 282.255880323
Spectrum_type: 2
charge: -1
Formula: C18H34O2
SMILES: CCCCCC/C=C/CCCCCCCCCC(=O)O
Method: HCD
Collision_energy: [28.333334]
Isolation_window: 4.0
Ion_mode: N
Num Peaks: 3
69.0546	2.7
281.2472	100.0
282.2506	18.1

Name: Voacangarine
PrecursorMZ: 383.19784
RT: 4.0837
ExactMass: 384.20490738
Spectrum_type: 2
charge: -1
Formula: C22H28N2O4
SMILES: C[C@@H]([C@H]1C[C@@H]2C[C@@]3([C@H]1N(C2)CCC4=C3NC5=C4C=C(C=C5)OC)C(=O)OC)O
Method: HCD
Collision_energy: [28.333334]
Isolation_window: 4.0
Ion_mode: N
Num Peaks: 9
58.0289	6.9
129.1024	7.1
171.1132	17.8
235.1450	51.3
236.1480	7.9
277.1557	29.1
278.1577	5.3
383.1977	100.0
384.2009	26.2

Name: bonanniol A
PrecursorMZ: 423.18176
RT: 5.347
ExactMass: 424.18858861
Spectrum_type: 2
charge: -1
Formula: C25H28O6
SMILES: CC(=CCC/C(=C/CC1=C(C2=C(C=C1O)O[C@@H]([C@H](C2=O)O)C3=CC=C(C=C3)O)O)/C)C
Method: HCD
Collision_energy: [28.333334]
Isolation_window: 4.0
Ion_mode: N
Num Peaks: 4
405.1710	100.0
406.1742	25.5
423.1818	84.2
424.1848	23.5

Name: glycyl-L-isoleucine
PrecursorMZ: 187.10819
RT: 1.733
ExactMass: 188.11609238
Spectrum_type: 2
charge: -1
Formula: C8H16N2O3
SMILES: CC[C@H](C)[C@@H](C(=O)O)NC(=O)CN
Method: HCD
Collision_energy: [28.333334]
Isolation_window: 4.0
Ion_mode: N
Num Peaks: 18
59.0129	16.9
72.9921	13.6
73.0398	23.6
98.0238	15.4
114.0551	13.5
116.0708	24.3
125.0599	20.6
130.0864	64.7
142.0498	15.5
143.0705	18.9
143.1181	66.5
144.0446	89.6
144.9221	12.7
169.0498	14.3
186.0762	21.8
187.0607	64.5
187.1084	100.0
189.0764	15.0

Name: methyl (2E,4E,8E)-7,13-dihydroxy-4,8,12-trimethyltetradeca-2,4,8-trienoate
PrecursorMZ: 309.20729
RT: 6.7956
ExactMass: 310.21440943
Spectrum_type: 2
charge: -1
Formula: C18H30O4
SMILES: CC(CC/C=C(\C)/C(C/C=C(\C)/C=C/C(=O)OC)O)C(C)O
Method: HCD
Collision_energy: [28.333334]
Isolation_window: 4.0
Ion_mode: N
Num Peaks: 25
111.0805	4.7
163.0760	7.0
183.1385	5.0
185.1170	4.7
197.1177	12.2
205.0862	5.2
209.1174	5.8
209.1541	6.4
221.1543	23.7
251.1652	5.4
291.1965	63.7
292.1220	5.8
292.1999	14.0
293.1254	4.2
293.2117	7.0
307.1455	8.2
307.1905	6.0
308.1485	5.2
309.1114	6.1
309.1698	19.1
309.2061	100.0
310.2095	18.1
311.1306	5.3
311.1676	78.3
311.2219	49.6

Name: methyl (4aR)-5,6-dihydroxy-1,1-dimethyl-7-propan-2-yl-2,3,4,9,10,10a-hexahydrophenanthrene-4a-carboxylate
PrecursorMZ: 345.20725
RT: 8.739571428571429
ExactMass: 346.21440943
Spectrum_type: 2
charge: -1
Formula: C21H30O4
SMILES: CC(C)C1=C(C(=C2C(=C1)CCC3[C@@]2(CCCC3(C)C)C(=O)OC)O)O
Method: HCD
Collision_energy: [28.333334]
Isolation_window: 4.0
Ion_mode: N
Num Peaks: 8
286.1941	100.0
287.1974	19.3
288.2017	1.5
301.2175	73.2
302.2209	16.9
345.2075	76.4
346.2108	17.6
347.2141	2.0

Name: n-Octyl sulfate
PrecursorMZ: 209.08487
RT: 5.1634
ExactMass: 209.08475519
Spectrum_type: 2
charge: -1
Formula: C8H17O4S-
SMILES: CCCCCCCCOS(=O)(=O)[O-]
Method: HCD
Collision_energy: [28.333334]
Isolation_window: 4.0
Ion_mode: N
Num Peaks: 7
96.9591	55.8
98.9549	1.4
167.1068	3.1
209.0847	100.0
210.0884	9.6
211.0279	3.1
211.0789	2.9

Name: trans-Aconitic acid
PrecursorMZ: 173.00866
RT: 1.6211
ExactMass: 174.01643791
Spectrum_type: 2
charge: -1
Formula: C6H6O6
SMILES: C(/C(=C\C(=O)O)/C(=O)O)C(=O)O
Method: HCD
Collision_energy: [28.333334]
Isolation_window: 4.0
Ion_mode: N
Num Peaks: 17
69.0337	17.3
72.9922	4.6
85.0286	85.2
86.0240	6.5
86.0319	4.6
87.0442	21.3
100.0396	4.0
111.0079	10.1
113.0235	12.8
129.0187	19.8
129.0549	3.9
131.0341	8.2
146.9606	6.8
157.0136	100.0
171.0188	3.6
173.0238	12.6
175.0243	15.4

Name: (1R,4S)-7,7-dimethyl-2-oxobicyclo(2.2.1)heptane-1-carboxylate
PrecursorMZ: 241.1079
RT: 4.863
ExactMass: 181.086469272
Spectrum_type: 2
charge: -1
Formula: C10H13O3-
SMILES: CC1([C@H]2CC[C@@]1(C(=O)C2)C(=O)[O-])C
Method: HCD
Collision_energy: [28.333334]
Isolation_window: 4.0
Ion_mode: N
Num Peaks: 8
179.1072	6.2
197.1178	100.0
198.1212	11.1
241.1079	66.9
242.1114	7.6
242.1760	5.3
243.1255	5.1
243.1596	4.4

Name: (2R)-1-((2S)-4-methyl-2-((2-methylpropan-2-yl)oxycarbonylamino)pentanoyl)pyrrolidine-2-carboxylate
PrecursorMZ: 327.19224
RT: 2.9642666666666666
ExactMass: 327.19199697
Spectrum_type: 2
charge: -1
Formula: C16H27N2O5-
SMILES: CC(C)C[C@@H](C(=O)N1CCC[C@@H]1C(=O)[O-])NC(=O)OC(C)(C)C
Method: HCD
Collision_energy: [28.333334]
Isolation_window: 4.0
Ion_mode: N
Num Peaks: 10
114.0552	9.0
116.0708	20.1
129.0184	9.3
130.0865	25.4
197.0445	5.7
227.1396	11.9
265.1918	6.3
327.1923	100.0
328.1949	15.9
329.2080	12.4

Name: (2R)-N-(6-amino-1-hydroxy-1-morpholin-4-ylhexan-2-yl)-2-(((2R)-3-cyclohexa-1,5-dien-1-yl-2-((2-(((2R)-2-cyclohexa-1,5-dien-1-ylcyclopropyl)amino)acetyl)amino)propanoyl)amino)-4-methylpentanamide
PrecursorMZ: 653.43939
RT: 8.8965
ExactMass: 654.44686897
Spectrum_type: 2
charge: -1
Formula: C36H58N6O5
SMILES: CC(C)C[C@H](C(=O)NC(CCCCN)C(N1CCOCC1)O)NC(=O)[C@@H](CC2=CCCC=C2)NC(=O)CNC3C[C@@H]3C4=CCCC=C4
Method: HCD
Collision_energy: [28.333334]
Isolation_window: 4.0
Ion_mode: N
Num Peaks: 25
69.0334	3.8
69.0838	2.1
71.0489	2.0
81.0696	3.2
121.1008	3.8
171.1014	2.3
201.1119	1.9
201.1634	6.1
211.1327	5.9
297.2419	4.7
313.2369	3.1
315.2526	11.0
317.2107	6.9
319.2264	81.3
320.2298	13.9
325.1998	2.0
333.2058	100.0
334.2091	17.1
335.2212	31.6
336.2248	3.6
651.4480	2.6
652.4499	2.6
653.4455	49.9
654.4483	17.4
655.4754	36.2

Name: (2S)-1-((1R)-1-carboxyethyl)-5-oxopyrrolidine-2-carboxylic acid
PrecursorMZ: 200.05561
RT: 1.3533
ExactMass: 201.06372245
Spectrum_type: 2
charge: -1
Formula: C8H11NO5
SMILES: C[C@H](C(=O)O)N1[C@@H](CCC1=O)C(=O)O
Method: HCD
Collision_energy: [28.333334]
Isolation_window: 4.0
Ion_mode: N
Num Peaks: 6
84.0445	15.7
88.9872	21.1
110.9689	21.5
128.0344	100.0
142.9456	24.9
200.0558	37.3

Name: (2S)-2-(((2S)-2-(acetyl(15N)amino)-3-(113C)methyl(1,2,3,4-13C4)butanoyl)(15N)amino)-4-(113C)methyl(1,2,3,4,5-13C5)pentanoic acid
PrecursorMZ: 271.16563
RT: 3.1396
ExactMass: 285.20458023
Spectrum_type: 2
charge: -1
Formula: C13H24N2O4
SMILES: CC(=O)[15NH][13C@@H]([13CH]([13CH3])[13CH3])[13C](=O)[15NH][13C@@H]([13CH2][13CH]([13CH3])[13CH3])[13C](=O)O
Method: HCD
Collision_energy: [28.333334]
Isolation_window: 4.0
Ion_mode: N
Num Peaks: 31
72.0444	14.0
86.0600	14.7
96.0441	2.1
98.0236	4.3
109.0396	9.6
130.0862	38.2
143.1179	26.9
145.0971	4.3
150.0043	3.1
154.1226	2.4
157.1338	3.1
171.1497	2.3
185.1286	4.4
187.1076	4.5
201.1235	72.9
202.1270	7.5
209.1290	2.1
215.1392	12.9
225.1240	3.0
227.1760	3.8
229.0990	2.3
229.1185	43.2
253.1201	2.2
255.1129	2.2
270.1058	2.3
271.1296	18.7
271.1657	100.0
272.1311	2.1
272.1691	14.0
273.1247	2.3
273.1448	2.7

Name: (2Z,4E,7R)-11-((2S,3S)-3-(hydroxymethyl)-4-oxooxetan-2-yl)-3,5,7-trimethylundeca-2,4-dienoic acid
PrecursorMZ: 323.18489
RT: 4.4949
ExactMass: 324.19367399
Spectrum_type: 2
charge: -1
Formula: C18H28O5
SMILES: C[C@H](CCCC[C@H]1[C@@H](C(=O)O1)CO)C/C(=C/C(=C\C(=O)O)/C)/C
Method: HCD
Collision_energy: [28.333334]
Isolation_window: 4.0
Ion_mode: N
Num Peaks: 4
261.1849	27.5
279.1957	12.6
323.1852	100.0
324.1887	17.8

Name: (3S,6S,9S,12S)-3-benzyl-6-((2R)-3-hydroxybutan-2-yl)-9,12-di(propan-2-yl)-1,4,7,10-tetrazacyclododecane-2,5,8,11-tetrone
PrecursorMZ: 473.27691
RT: 6.3905
ExactMass: 474.28422033
Spectrum_type: 2
charge: -1
Formula: C25H38N4O5
SMILES: C[C@H]([C@H]1C(=O)N[C@H](C(=O)N[C@H](C(=O)N[C@H](C(=O)N1)C(C)C)C(C)C)CC2=CC=CC=C2)C(C)O
Method: HCD
Collision_energy: [28.333334]
Isolation_window: 4.0
Ion_mode: N
Num Peaks: 20
52.5875	5.0
115.0867	1.7
119.0494	5.3
126.0551	2.1
141.0660	1.8
155.0818	5.1
169.0974	1.7
172.1083	3.8
186.1241	4.1
211.1443	2.0
214.1555	6.5
228.1714	18.2
229.1744	2.4
323.2455	1.8
353.2199	1.6
367.2349	57.6
368.2380	12.3
473.2770	100.0
474.2801	26.7
475.2814	3.2

Name: (4R)-4-((3R,7S,8S,9S,10R,13R,14S,17R)-3,7-dihydroxy-10,13-dimethyl-6-(oxomethylidene)-1,2,3,4,5,7,8,9,11,12,14,15,16,17-tetradecahydrocyclopenta(a)phenanthren-17-yl)pentanoic acid
PrecursorMZ: 417.26358
RT: 8.9172
ExactMass: 418.27192431
Spectrum_type: 2
charge: -1
Formula: C25H38O5
SMILES: C[C@H](CCC(=O)O)[C@H]1CC[C@@H]2[C@@]1(CC[C@H]3[C@H]2[C@@H](C(=C=O)C4[C@@]3(CC[C@H](C4)O)C)O)C
Method: HCD
Collision_energy: [28.333334]
Isolation_window: 4.0
Ion_mode: N
Num Peaks: 28
136.0519	2.4
137.0600	1.0
152.0468	2.5
164.0467	11.6
165.0545	3.4
196.0367	4.3
353.2466	0.9
355.2635	2.8
371.2585	1.4
373.2740	1.8
381.2428	6.7
382.2462	1.9
383.2946	1.2
384.2300	1.3
389.2689	2.8
399.2534	9.2
400.2565	2.7
401.2571	0.8
401.2670	1.2
401.3124	1.3
402.2407	1.1
417.2097	15.4
417.2630	100.0
418.2124	3.9
418.2666	26.6
419.2115	0.9
419.2735	7.6
419.3166	5.5

Name: (4S)-3-((3S,7S,10S,12R,13R,17R)-17-((2R)-4-carboxybutan-2-yl)-3,7,12-trihydroxy-10,13-dimethyl-1,2,4,5,6,7,8,9,11,12,14,15,16,17-tetradecahydrocyclopenta(a)phenanthren-3-yl)-4-((3R,5S,7R,8R,9S,10S,12S,13R,14S,17R)-3,7,12-trihydroxy-10,13-dimethyl-2,3,4,5,6,7,8,9,11,12,14,15,16,17-tetradecahydro-1H-cyclopenta(a)phenanthren-17-yl)pentanoic acid
PrecursorMZ: 813.55273
RT: 6.2539
ExactMass: 814.55949868
Spectrum_type: 2
charge: -1
Formula: C48H78O10
SMILES: C[C@H](CCC(=O)O)[C@H]1CCC2[C@@]1([C@@H](CC3C2[C@H](CC4[C@@]3(CC[C@](C4)(C(CC(=O)O)[C@@H](C)[C@H]5CC[C@@H]6[C@@]5([C@H](C[C@H]7[C@H]6[C@@H](C[C@H]8[C@@]7(CC[C@H](C8)O)C)O)O)C)O)C)O)O)C
Method: HCD
Collision_energy: [28.333334]
Isolation_window: 4.0
Ion_mode: N
Num Peaks: 17
90.6219	0.2
343.2634	0.3
363.2899	0.6
389.2734	0.2
405.2649	11.5
406.2683	2.5
407.1350	0.3
407.1675	0.7
407.1919	0.4
407.2802	100.0
407.3700	0.6
407.3918	0.8
407.4248	0.2
408.2830	0.6
813.5503	0.5
814.5571	0.2
815.5682	4.8

Name: (5-(1-benzylsulfonylpiperidin-4-yl)-3a-cyclodecyl-2-methyl-2,3,4,5,6,7-hexahydro-1H-pyrazolo(1,5-a)pyridin-3-yl)-(3,5-dimethylpiperidin-1-yl)methanone
PrecursorMZ: 653.4476
RT: 9.161
ExactMass: 654.45426303
Spectrum_type: 2
charge: -1
Formula: C38H62N4O3S
SMILES: CC1CC(CN(C1)C(=O)C2C(NN3C2(CC(CC3)C4CCN(CC4)S(=O)(=O)CC5=CC=CC=C5)C6CCCCCCCCC6)C)C
Method: HCD
Collision_energy: [28.333334]
Isolation_window: 4.0
Ion_mode: N
Num Peaks: 16
59.0129	4.4
61.0284	1.6
72.6032	1.9
72.6077	4.1
72.9921	10.0
74.0238	2.2
75.0079	2.8
78.9580	11.3
101.0234	16.5
152.9949	2.8
197.1903	4.2
333.2441	3.5
652.4288	3.2
653.4483	100.0
654.4532	31.4
655.4514	7.6

Name: 1-((2S)-5-oxopyrrolidine-2-carbonyl)pyrrolidine-2-carboxylic acid
PrecursorMZ: 225.08781
RT: 2.0695333333333332
ExactMass: 226.09535693
Spectrum_type: 2
charge: -1
Formula: C10H14N2O4
SMILES: C1CC(N(C1)C(=O)[C@@H]2CCC(=O)N2)C(=O)O
Method: HCD
Collision_energy: [28.333334]
Isolation_window: 4.0
Ion_mode: N
Num Peaks: 18
82.0288	28.1
88.9871	4.8
110.0238	5.4
112.0395	5.6
114.0551	53.8
137.0597	4.4
167.0818	5.6
180.0658	19.2
181.0978	61.3
182.1006	6.0
183.0657	5.9
183.1136	11.0
183.1494	4.3
224.0557	7.9
225.0873	33.3
227.0558	9.0
227.1053	23.8
227.1397	100.0

Name: 17-(7-Hydroxy-5,6-dimethylheptan-2-yl)-10,13-dimethyl-1,2,3,4,5,6,7,9,11,12,14,15,16,17-tetradecahydrocyclopenta(a)phenanthrene-3,4,6,7,8,15,16-heptol
PrecursorMZ: 513.34437
RT: 6.8977
ExactMass: 514.35056855
Spectrum_type: 2
charge: -1
Formula: C28H50O8
SMILES: CC(CCC(C)C(C)CO)C1C(C(C2C1(CCC3C2(C(C(C4C3(CCC(C4O)O)C)O)O)O)C)O)O
Method: HCD
Collision_energy: [28.333334]
Isolation_window: 4.0
Ion_mode: N
Num Peaks: 6
61.9876	7.0
69.2337	6.3
133.0864	8.5
333.2444	13.4
467.3392	100.0
468.3419	25.9

Name: 2-(1-((((4R)-4-((3R,5S,7R,8R,9S,10S,13R,14S,17R)-3,7-dihydroxy-10,13-dimethyl-2,3,4,5,6,7,8,9,11,12,14,15,16,17-tetradecahydro-1H-cyclopenta(a)phenanthren-17-yl)pentanoyl)amino)methyl)cyclohexyl)acetic acid
PrecursorMZ: 544.40163
RT: 10.3532
ExactMass: 545.40802385
Spectrum_type: 2
charge: -1
Formula: C33H55NO5
SMILES: C[C@H](CCC(=O)NCC1(CCCCC1)CC(=O)O)[C@H]2CC[C@@H]3[C@@]2(CC[C@H]4[C@H]3[C@@H](C[C@H]5[C@@]4(CC[C@H](C5)O)C)O)C
Method: HCD
Collision_energy: [28.333334]
Isolation_window: 4.0
Ion_mode: N
Num Peaks: 8
60.4910	4.1
74.0240	90.3
129.0915	12.9
414.3020	13.7
415.3049	4.9
544.4020	100.0
545.4055	33.1
546.4093	4.7

Name: 2-(4-(12-hydroxy-10,13-dimethyl-3-((Z)-octadec-9-enoyl)oxy-2,3,4,5,6,7,8,9,11,12,14,15,16,17-tetradecahydro-1H-cyclopenta(a)phenanthren-17-yl)pentanoylamino)acetic acid
PrecursorMZ: 712.55343
RT: 10.9219
ExactMass: 713.55943911
Spectrum_type: 2
charge: -1
Formula: C44H75NO6
SMILES: CCCCCCCC/C=C\CCCCCCCC(=O)OC1CCC2(C(C1)CCC3C2CC(C4(C3CCC4C(C)CCC(=O)NCC(=O)O)C)O)C
Method: HCD
Collision_energy: [28.333334]
Isolation_window: 4.0
Ion_mode: N
Num Peaks: 18
74.0239	100.0
75.0273	2.2
78.9583	5.4
79.1705	2.2
79.1756	3.7
79.2871	1.6
185.1182	2.5
297.2439	16.3
298.2474	2.5
355.3226	2.8
388.3241	1.2
414.3021	20.7
415.3058	5.4
710.5369	3.7
711.5417	13.9
712.5540	91.7
713.5578	39.3
714.5660	7.8

Name: 2-(4-(3-(4-(4-Hydroxy-6-((4-hydroxy-6-(hydroxymethyl)oxan-2-yl)oxymethyl)oxan-2-yl)oxy-1,3,3-trimethyl-2-propylcyclohexyl)-1-methylcyclohexyl)butan-2-yl)-6-methylhept-2-ene-1,5,6-triol
PrecursorMZ: 753.55325
RT: 10.7077
ExactMass: 754.55949868
Spectrum_type: 2
charge: -1
Formula: C43H78O10
SMILES: CCCC1C(C(CCC1(C)C2CCCC(C2)(C)CCC(C)C(=CCC(C(C)(C)O)O)CO)OC3CC(CC(O3)COC4CC(CC(O4)CO)O)O)(C)C
Method: HCD
Collision_energy: [28.333334]
Isolation_window: 4.0
Ion_mode: N
Num Peaks: 8
61.9875	24.8
91.0391	65.1
541.4612	24.3
559.4742	34.0
615.5004	100.0
616.5010	36.8
633.5107	76.7
634.5119	24.9

Name: 2-aminoethyl ((2R)-3-hexadecanoyloxy-2-(9,10,12,13-tetrahydroxyoctadecanoyloxy)propyl) phosphate
PrecursorMZ: 782.5193
RT: 10.1432
ExactMass: 782.51833889
Spectrum_type: 2
charge: -1
Formula: C39H77NO12P-
SMILES: CCCCCCCCCCCCCCCC(=O)OC[C@H](COP(=O)([O-])OCCN)OC(=O)CCCCCCCC(C(CC(C(CCCCC)O)O)O)O
Method: HCD
Collision_energy: [28.333334]
Isolation_window: 4.0
Ion_mode: N
Num Peaks: 7
78.9581	55.2
96.9688	14.0
241.0118	61.3
259.0226	39.2
782.5199	100.0
783.5231	40.8
784.5256	6.5

Name: 3-(3',5'-Di-tert-butyl-4'-hydroxyphenyl)propionic acid
PrecursorMZ: 277.18069
RT: 6.9587
ExactMass: 278.18819469
Spectrum_type: 2
charge: -1
Formula: C17H26O3
SMILES: CC(C)(C)C1=CC(=CC(=C1O)C(C)(C)C)CCC(=O)O
Method: HCD
Collision_energy: [28.333334]
Isolation_window: 4.0
Ion_mode: N
Num Peaks: 14
55.0180	3.4
59.0129	23.1
99.0079	10.4
133.0652	5.4
147.0807	7.0
205.1593	7.2
215.1437	23.4
216.1471	4.1
233.1904	5.0
277.1459	8.6
277.1807	100.0
278.1842	17.0
279.1237	5.0
279.1594	7.4

Name: 3-(4-hydroxyphenyl)-2-(((2S)-5-oxopyrrolidine-2-carbonyl)amino)propanoic acid
PrecursorMZ: 291.09901
RT: 2.2887
ExactMass: 292.10592162
Spectrum_type: 2
charge: -1
Formula: C14H16N2O5
SMILES: C1CC(=O)N[C@@H]1C(=O)NC(CC2=CC=C(C=C2)O)C(=O)O
Method: HCD
Collision_energy: [28.333334]
Isolation_window: 4.0
Ion_mode: N
Num Peaks: 16
72.9922	14.1
74.0238	9.2
100.0031	8.8
109.0399	12.0
119.0494	13.6
127.0505	100.0
141.0662	9.7
185.0565	11.3
247.1091	22.3
273.1339	6.9
291.0989	96.2
291.1436	7.2
292.1014	10.4
292.1311	10.9
293.0706	7.7
293.1513	11.9

Name: 4-(12-hydroxy-10,13-dimethyl-3-tetradecanoyloxy-2,3,4,5,6,7,8,9,11,12,14,15,16,17-tetradecahydro-1H-cyclopenta(a)phenanthren-17-yl)pentanoic acid
PrecursorMZ: 601.48135
RT: 11.4968
ExactMass: 602.4910252
Spectrum_type: 2
charge: -1
Formula: C38H66O5
SMILES: CCCCCCCCCCCCCC(=O)OC1CCC2(C(C1)CCC3C2CC(C4(C3CCC4C(C)CCC(=O)O)C)O)C
Method: HCD
Collision_energy: [28.333334]
Isolation_window: 4.0
Ion_mode: N
Num Peaks: 21
66.8293	2.3
66.8333	4.4
66.9449	1.4
69.0469	1.4
69.0500	1.2
209.1897	17.7
210.1932	2.4
227.2006	1.1
253.1798	1.7
283.2631	30.0
284.2667	4.3
345.2788	1.5
365.3050	1.8
373.2732	2.2
391.2842	1.5
431.3510	2.6
599.4648	1.9
600.4695	2.1
601.4818	100.0
602.4852	34.5
603.4895	6.9

Name: 4-(12-hydroxy-3-((11Z,14Z,17Z)-icosa-11,14,17-trienoyl)oxy-10,13-dimethyl-2,3,4,5,6,7,8,9,11,12,14,15,16,17-tetradecahydro-1H-cyclopenta(a)phenanthren-17-yl)pentanoic acid
PrecursorMZ: 679.53094
RT: 11.6456
ExactMass: 680.53797539
Spectrum_type: 2
charge: -1
Formula: C44H72O5
SMILES: CC/C=C\C/C=C\C/C=C\CCCCCCCCCC(=O)OC1CCC2(C(C1)CCC3C2CC(C4(C3CCC4C(C)CCC(=O)O)C)O)C
Method: HCD
Collision_energy: [28.333334]
Isolation_window: 4.0
Ion_mode: N
Num Peaks: 12
75.5011	2.4
75.5060	4.0
75.6175	1.9
287.2378	7.6
305.2484	12.2
306.2526	2.2
327.2695	2.3
373.2746	21.8
374.2782	5.0
679.5311	100.0
680.5345	45.2
681.5391	7.9

Name: 4-(12-hydroxy-3-((8Z,11Z,14Z,17Z)-icosa-8,11,14,17-tetraenoyl)oxy-10,13-dimethyl-2,3,4,5,6,7,8,9,11,12,14,15,16,17-tetradecahydro-1H-cyclopenta(a)phenanthren-17-yl)pentanoic acid
PrecursorMZ: 677.51594
RT: 11.469475
ExactMass: 678.52232533
Spectrum_type: 2
charge: -1
Formula: C44H70O5
SMILES: CC/C=C\C/C=C\C/C=C\C/C=C\CCCCCCC(=O)OC1CCC2(C(C1)CCC3C2CC(C4(C3CCC4C(C)CCC(=O)O)C)O)C
Method: HCD
Collision_energy: [28.333334]
Isolation_window: 4.0
Ion_mode: N
Num Peaks: 20
61.9875	5.4
75.2770	1.8
75.2818	4.7
75.3933	2.3
83.0493	5.2
94.9799	1.8
109.0649	1.3
135.0805	2.0
285.2223	7.7
286.2254	1.3
303.2328	3.8
327.2696	1.8
345.2792	1.3
373.2747	24.7
374.2782	4.8
391.2856	2.2
630.5205	1.0
677.5153	100.0
678.5188	47.8
679.5211	7.5

Name: 4-(2-Carboxyethylamino)butanoate
PrecursorMZ: 174.07664
RT: 0.9155
ExactMass: 174.07663286
Spectrum_type: 2
charge: -1
Formula: C7H12NO4-
SMILES: C(CC(=O)[O-])CNCCC(=O)O
Method: HCD
Collision_energy: [28.333334]
Isolation_window: 4.0
Ion_mode: N
Num Peaks: 25
59.0129	5.7
71.0129	10.3
75.0078	26.2
84.0446	12.6
85.0285	79.6
86.0318	4.0
88.0394	6.3
102.0551	100.0
103.0584	4.2
105.0183	5.0
111.0079	21.0
114.0551	10.8
117.0660	11.1
129.0185	17.2
129.1025	5.3
130.0865	18.4
131.0817	54.2
132.0657	4.8
146.9604	21.9
156.0659	18.4
172.0972	12.8
173.0235	12.9
173.0920	26.7
174.0765	22.1
175.0618	6.3

Name: 4-(3-((7Z,10Z,13Z)-hexadeca-7,10,13-trienoyl)oxy-12-hydroxy-10,13-dimethyl-2,3,4,5,6,7,8,9,11,12,14,15,16,17-tetradecahydro-1H-cyclopenta(a)phenanthren-17-yl)pentanoic acid
PrecursorMZ: 623.46549
RT: 11.1601
ExactMass: 624.47537514
Spectrum_type: 2
charge: -1
Formula: C40H64O5
SMILES: CC/C=C\C/C=C\C/C=C\CCCCCC(=O)OC1CCC2(C(C1)CCC3C2CC(C4(C3CCC4C(C)CCC(=O)O)C)O)C
Method: HCD
Collision_energy: [28.333334]
Isolation_window: 4.0
Ion_mode: N
Num Peaks: 10
69.1065	4.5
231.1739	5.5
249.1853	6.1
293.2104	4.1
297.2423	8.5
373.2738	5.4
391.2844	3.8
623.4673	100.0
624.4700	36.3
625.4747	7.1

Name: 4-(4-(3,7-dihydroxy-10,13-dimethyl-2,3,4,5,6,7,8,9,11,12,14,15,16,17-tetradecahydro-1H-cyclopenta(a)phenanthren-17-yl)pentanoylamino)-1,1-dioxothiane-4-carboxylic acid
PrecursorMZ: 566.31553
RT: 5.8835
ExactMass: 567.32297408
Spectrum_type: 2
charge: -1
Formula: C30H49NO7S
SMILES: CC(CCC(=O)NC1(CCS(=O)(=O)CC1)C(=O)O)C2CCC3C2(CCC4C3C(CC5C4(CCC(C5)O)C)O)C
Method: HCD
Collision_energy: [28.333334]
Isolation_window: 4.0
Ion_mode: N
Num Peaks: 11
74.0060	70.2
134.9986	9.7
136.0065	100.0
223.0871	48.3
417.2828	29.2
447.3114	89.7
448.3147	19.7
473.1607	11.7
565.2854	9.7
566.3154	70.7
567.3166	23.9

Name: 6,10-Dihydroxy-16-(5-hydroxy-2,3,4-trimethylcyclohexyl)-2,6,10,14-tetramethylhexadecanoate
PrecursorMZ: 483.40563
RT: 9.55
ExactMass: 483.40494985
Spectrum_type: 2
charge: -1
Formula: C29H55O5-
SMILES: CC1C(C(CC(C1C)O)CCC(C)CCCC(C)(CCCC(C)(CCCC(C)C(=O)[O-])O)O)C
Method: HCD
Collision_energy: [28.333334]
Isolation_window: 4.0
Ion_mode: N
Num Peaks: 7
59.0130	16.0
241.2174	16.6
421.4065	13.6
423.3846	89.3
424.3884	25.6
483.4061	100.0
484.4096	31.3

Name: 6-amino-2-((2-(4-((3R,10S,12S,13R,17R)-3,12-dihydroxy-10,13-dimethyl-2,3,4,5,6,7,8,9,11,12,14,15,16,17-tetradecahydro-1H-cyclopenta(a)phenanthren-17-yl)pentanoylamino)acetyl)amino)hexanoic acid
PrecursorMZ: 576.40135
RT: 5.53804
ExactMass: 577.40908648
Spectrum_type: 2
charge: -1
Formula: C32H55N3O6
SMILES: CC(CCC(=O)NCC(=O)NC(CCCCN)C(=O)O)[C@H]1CCC2[C@@]1([C@H](CC3C2CCC4[C@@]3(CC[C@H](C4)O)C)O)C
Method: HCD
Collision_energy: [28.333334]
Isolation_window: 4.0
Ion_mode: N
Num Peaks: 12
64.0428	2.2
64.0465	4.5
64.1580	1.3
128.0344	1.7
145.0974	4.8
193.0497	2.2
202.1190	5.8
430.2959	1.1
575.2787	2.0
576.4018	100.0
577.4050	28.7
578.4079	3.6

Name: 7-((2S,3R,4S,5R)-3,4-dihydroxy-5-(hydroxymethyl)oxolan-2-yl)oxy-8-methoxy-1,3-dimethylpurine-2,6-dione
PrecursorMZ: 357.10712
RT: 2.6958
ExactMass: 358.11246355
Spectrum_type: 2
charge: -1
Formula: C13H18N4O8
SMILES: CN1C2=C(C(=O)N(C1=O)C)N(C(=N2)OC)O[C@H]3[C@@H]([C@@H]([C@H](O3)CO)O)O
Method: HCD
Collision_energy: [28.333334]
Isolation_window: 4.0
Ion_mode: N
Num Peaks: 11
121.0276	8.2
164.0338	12.1
165.0414	39.3
177.0414	16.2
179.0571	28.8
223.0474	7.8
300.0857	8.2
330.0960	7.7
342.0833	14.1
357.1076	100.0
358.1104	17.1

Name: 8-((2R,5S)-5-(carboxymethyl)oxolan-2-yl)octanoic acid
PrecursorMZ: 271.15535
RT: 5.3715
ExactMass: 272.16237386
Spectrum_type: 2
charge: -1
Formula: C14H24O5
SMILES: C1C[C@H](O[C@@H]1CCCCCCCC(=O)O)CC(=O)O
Method: HCD
Collision_energy: [28.333334]
Isolation_window: 4.0
Ion_mode: N
Num Peaks: 10
59.0130	16.8
209.1547	10.6
211.1346	7.8
211.1700	13.1
213.1493	100.0
227.1652	11.1
253.1444	12.4
271.1553	57.7
272.1585	11.1
273.1710	71.6

Name: Benzoic acid, 2,2'-((1,2-dioxo-1,2-ethanediyl)diimino)bis-
PrecursorMZ: 327.06218
RT: 6.1166
ExactMass: 328.06953611
Spectrum_type: 2
charge: -1
Formula: C16H12N2O6
SMILES: C1=CC=C(C(=C1)C(=O)O)NC(=O)C(=O)NC2=CC=CC=C2C(=O)O
Method: HCD
Collision_energy: [28.333334]
Isolation_window: 4.0
Ion_mode: N
Num Peaks: 15
92.0496	100.0
93.0528	4.5
118.0289	9.0
136.0396	37.2
146.0240	6.6
162.0189	26.1
211.0870	6.1
239.0824	3.6
255.0776	11.0
309.0512	4.0
325.1843	60.5
326.1877	18.8
327.0623	75.6
327.1822	4.8
328.0655	12.5

PrecursorMZ: 171.10207
RT: 6.039
Spectrum_type: 2
charge: -1
SMILES: CCCCCCCC(=O)O
Method: HCD
Collision_energy: [28.333334]
Isolation_window: 4.0
Ion_mode: N
Num Peaks: 5
126.8803	22.9
127.1123	16.6
170.8329	28.3
171.1022	100.0
172.8301	16.7

PrecursorMZ: 353.30604
RT: 10.3148
Spectrum_type: 2
charge: -1
SMILES: CCCCCCCC/C=C\CCCCCCCCCCCC(=O)O
Method: HCD
Collision_energy: [28.333334]
Isolation_window: 4.0
Ion_mode: N
Num Peaks: 3
97.0651	9.4
353.3062	100.0
354.3098	21.1

Name: Cholylhydroxamic acid
PrecursorMZ: 405.26483
RT: 5.6695
ExactMass: 423.29847341
Spectrum_type: 2
charge: -1
Formula: C24H41NO5
SMILES: C[C@H](CCC(=O)NO)[C@H]1CC[C@@H]2[C@@]1([C@H](C[C@H]3[C@H]2[C@@H](C[C@H]4[C@@]3(CC[C@H](C4)O)C)O)O)C
Method: HCD
Collision_energy: [28.333334]
Isolation_window: 4.0
Ion_mode: N
Num Peaks: 10
289.2170	0.6
343.2645	2.9
361.2747	2.3
363.2906	1.4
389.2705	1.0
405.2649	45.2
406.2681	12.0
407.1677	0.7
407.2802	100.0
407.3919	0.7

Name: H-DL-Val-DL-Tyr-DL-Tyr-DL-Phe-OH
PrecursorMZ: 589.267
RT: 6.624725
ExactMass: 590.27404956
Spectrum_type: 2
charge: -1
Formula: C32H38N4O7
SMILES: CC(C)C(C(=O)NC(CC1=CC=C(C=C1)O)C(=O)NC(CC2=CC=C(C=C2)O)C(=O)NC(CC3=CC=CC=C3)C(=O)O)N
Method: HCD
Collision_energy: [28.333334]
Isolation_window: 4.0
Ion_mode: N
Num Peaks: 27
65.4760	4.6
73.0398	3.7
74.0238	6.6
99.0190	11.2
162.0553	4.5
180.0659	16.3
193.0976	4.1
197.0715	3.7
201.0668	7.3
219.0771	5.5
221.1538	7.4
224.1290	4.8
236.1050	9.1
237.0879	10.8
240.0774	24.0
253.0857	5.5
254.0929	5.7
293.1757	8.7
321.1248	3.9
350.1507	14.8
365.1134	3.7
377.1623	5.3
571.2563	6.3
589.2665	100.0
589.3524	5.1
590.2691	31.7
591.2634	3.7

Name: N-((1S)-1-carboxy-2-(1H-indol-3-yl)ethyl)hexadecanimidate
PrecursorMZ: 441.31223
RT: 9.7576
ExactMass: 441.31171817
Spectrum_type: 2
charge: -1
Formula: C27H41N2O3-
SMILES: CCCCCCCCCCCCCCCC(=N[C@@H](CC1=CNC2=CC=CC=C21)C(=O)O)[O-]
Method: HCD
Collision_energy: [28.333334]
Isolation_window: 4.0
Ion_mode: N
Num Peaks: 18
61.9875	5.7
74.0238	40.2
116.0496	12.7
160.8414	44.3
162.8384	45.4
203.0821	63.8
204.0852	7.9
215.1649	6.2
294.2437	14.2
312.2544	18.4
397.3214	6.5
439.3420	15.2
440.0750	18.4
440.3474	8.8
441.3115	100.0
442.0720	18.4
442.3148	28.3
443.3160	13.9

Name: N-Benzoylaspartic acid
PrecursorMZ: 236.05626
RT: 2.0618
ExactMass: 237.06372245
Spectrum_type: 2
charge: -1
Formula: C11H11NO5
SMILES: C1=CC=C(C=C1)C(=O)NC(CC(=O)O)C(=O)O
Method: HCD
Collision_energy: [28.333334]
Isolation_window: 4.0
Ion_mode: N
Num Peaks: 10
122.0238	3.5
123.0318	1.9
148.0510	2.1
192.0660	100.0
193.0692	10.0
216.0773	9.2
217.0809	1.5
234.0904	2.4
236.0561	43.2
237.0589	3.8

Name: N-methylsphingosine
PrecursorMZ: 326.27027
RT: 8.8126
ExactMass: 327.27734404
Spectrum_type: 2
charge: -1
Formula: C19H37NO3
SMILES: CCCCCCCCCCCCC/C=C/[C@H]([C@H](CO)NC=O)O
Method: HCD
Collision_energy: [28.333334]
Isolation_window: 4.0
Ion_mode: N
Num Peaks: 12
58.0050	4.4
70.0289	53.7
116.0708	14.6
225.2222	28.0
226.2253	4.5
255.2329	60.8
256.2361	10.1
324.2911	6.1
325.1848	11.7
325.2910	3.6
326.2701	100.0
327.2737	18.5

Name: N-monomethylphytosphingosine
PrecursorMZ: 344.28077
RT: 8.0105
ExactMass: 345.28790873
Spectrum_type: 2
charge: -1
Formula: C19H39NO4
SMILES: CCCCCCCCCCCCCC[C@H]([C@H]([C@H](CO)NC=O)O)O
Method: HCD
Collision_energy: [28.333334]
Isolation_window: 4.0
Ion_mode: N
Num Peaks: 32
58.0288	2.1
59.0129	2.0
60.0445	1.9
70.0289	3.1
71.0129	5.6
72.0082	3.0
72.0446	1.9
86.0237	1.9
88.0394	18.1
90.0551	19.1
100.0394	10.6
118.0500	3.3
225.2220	19.4
226.2254	2.5
253.2170	7.5
254.2211	1.2
255.2330	4.4
267.2327	4.4
271.2275	1.4
278.2489	3.4
280.2642	1.3
284.2594	1.8
296.2591	2.9
312.2547	3.0
314.2710	1.4
316.2862	2.7
326.2706	2.4
343.1544	1.4
343.2855	4.1
344.2808	100.0
345.2841	20.4
346.2856	2.1

Name: Poly(oxy-1,2-ethanediyl), alpha-(carboxymethyl)-omega-(tridecyloxy)-
PrecursorMZ: 301.23885
RT: 8.6268
ExactMass: 302.24570956
Spectrum_type: 2
charge: -1
Formula: C17H34O4
SMILES: CCCCCCCCCCCCCOCCOCC(=O)O
Method: HCD
Collision_energy: [28.333334]
Isolation_window: 4.0
Ion_mode: N
Num Peaks: 7
72.9923	31.0
74.0239	16.4
75.0079	15.1
299.2609	38.7
300.2643	22.4
301.2388	100.0
302.2425	21.3

