Name: (2S,4R)-Pentane-1,2,3,4,5-Pentol
PrecursorMZ: 151.06143
RT: 2.1695
ExactMass: 152.06847348
Spectrum_type: 2
charge: -1
Formula: C5H12O5
SMILES: C([C@H](C([C@H](CO)O)O)O)O
Method: HCD
Collision_energy: [28.333334]
Isolation_window: 4.0
Ion_mode: N
Num Peaks: 16
41.0031	8.6
43.0188	10.7
55.0187	15.4
57.0344	4.0
59.0136	88.0
71.0136	100.0
73.0292	11.0
79.9571	13.5
83.0136	9.0
85.0292	6.6
89.0242	21.1
101.0242	46.7
123.0561	11.7
151.0067	4.4
151.0510	11.0
151.0609	52.0

Name: 3-Methylglutaconic acid
PrecursorMZ: 287.0775
RT: 22.7837
ExactMass: 144.04225873
Spectrum_type: 2
charge: -1
Formula: C6H8O4
SMILES: C/C(=C\C(=O)O)/CC(=O)O
Method: HCD
Collision_energy: [28.333334]
Isolation_window: 4.0
Ion_mode: N
Num Peaks: 18
72.9928	19.7
96.9598	20.4
109.0405	15.8
113.0241	50.6
121.0404	41.7
139.0397	39.1
139.0508	12.8
148.9809	18.7
148.9894	14.5
151.0395	16.8
165.0552	16.0
173.0451	24.9
179.0708	12.9
183.0408	13.3
213.0760	12.3
225.0763	65.4
287.0767	100.0
287.1497	26.9

Name: 4-Methyl-2-oxovaleric acid
PrecursorMZ: 129.05594
RT: 13.7285
ExactMass: 130.062994177
Spectrum_type: 2
charge: -1
Formula: C6H10O3
SMILES: CC(C)CC(=O)C(=O)O
Method: HCD
Collision_energy: [28.333334]
Isolation_window: 4.0
Ion_mode: N
Num Peaks: 6
57.0344	2.8
85.0292	6.9
85.0656	4.8
129.0191	3.9
129.0554	100.0
129.0918	4.4

Name: Acetylglycine
PrecursorMZ: 116.03545
RT: 4.6461500000000004
ExactMass: 117.042593085
Spectrum_type: 2
charge: -1
Formula: C4H7NO3
SMILES: CC(=O)NCC(=O)O
Method: HCD
Collision_energy: [28.333334]
Isolation_window: 4.0
Ion_mode: N
Num Peaks: 18
41.9984	98.2
41.9995	4.9
41.9999	3.2
44.0140	6.1
54.0347	2.7
55.0187	1.8
70.0296	7.7
72.0452	62.1
72.0476	1.8
72.0488	1.6
74.0245	53.3
74.0283	1.4
98.0245	100.0
98.0280	1.9
98.0302	2.0
99.0085	6.7
116.0350	67.1
116.0714	52.5

Name: D-Erythrose
PrecursorMZ: 119.03522
RT: 2.5018
ExactMass: 120.04225873
Spectrum_type: 2
charge: -1
Formula: C4H8O4
SMILES: C([C@H]([C@H](C=O)O)O)O
Method: HCD
Collision_energy: [28.333334]
Isolation_window: 4.0
Ion_mode: N
Num Peaks: 11
41.0031	5.8
43.0188	6.0
55.0187	4.9
59.0136	100.0
59.0162	2.7
71.0136	24.7
75.0085	4.3
95.9520	2.8
101.0242	3.0
118.9418	5.8
119.0347	13.8

Name: L-Aspartic Acid
PrecursorMZ: 132.03018
RT: 19.2768
ExactMass: 133.0375077
Spectrum_type: 2
charge: -1
Formula: C4H7NO4
SMILES: C([C@@H](C(=O)O)N)C(=O)O
Method: HCD
Collision_energy: [28.333334]
Isolation_window: 4.0
Ion_mode: N
Num Peaks: 12
41.4966	11.0
48.5267	12.7
59.4819	12.4
71.0136	21.5
77.0140	12.7
88.0402	100.0
92.3199	14.5
93.7918	12.6
101.9337	18.0
105.0608	13.4
124.8318	13.6
132.0299	34.2

Name: L-Fucose
PrecursorMZ: 163.06144
RT: 2.21195
ExactMass: 164.06847348
Spectrum_type: 2
charge: -1
Formula: C6H12O5
SMILES: C[C@H]1[C@H]([C@H]([C@@H](C(O1)O)O)O)O
Method: HCD
Collision_energy: [28.333334]
Isolation_window: 4.0
Ion_mode: N
Num Peaks: 28
41.0031	5.9
41.9984	2.8
43.0188	12.3
44.9980	4.5
55.0188	10.8
57.0344	7.2
59.0137	100.0
59.0163	2.5
60.0089	5.6
69.0345	3.5
71.0137	36.4
72.9929	3.9
73.0293	14.3
75.0086	4.1
83.0137	3.0
85.0293	19.8
89.0242	4.1
97.0294	3.5
99.0086	3.1
101.0243	41.5
113.0244	4.9
118.9925	4.7
125.0243	3.2
131.0349	14.5
143.0349	4.3
145.0507	11.2
163.0612	50.6
163.0978	3.5

Name: Lactulose
PrecursorMZ: 341.1093
RT: 2.3357
ExactMass: 342.11621151
Spectrum_type: 2
charge: -1
Formula: C12H22O11
SMILES: C([C@@H]1[C@@H]([C@@H]([C@H]([C@@H](O1)O[C@@H]2[C@H](O[C@@]([C@H]2O)(CO)O)CO)O)O)O)O
Method: HCD
Collision_energy: [28.333334]
Isolation_window: 4.0
Ion_mode: N
Num Peaks: 23
59.0136	80.0
71.0135	63.8
73.0292	37.6
83.0136	10.1
85.0292	18.8
87.0085	21.2
89.0241	41.5
95.0135	8.2
96.9598	100.0
97.0292	20.2
101.0241	65.8
113.0241	56.7
119.0346	11.5
124.0399	6.8
125.0241	7.5
131.0346	10.9
143.0346	13.8
161.0452	26.9
163.0609	5.3
177.0765	10.8
179.0557	16.6
221.0663	7.3
341.1087	75.4

Name: Pantothenic Acid
PrecursorMZ: 218.10335
RT: 5.3712
ExactMass: 219.11067264
Spectrum_type: 2
charge: -1
Formula: C9H17NO5
SMILES: CC(C)(CO)[C@H](C(=O)NCCC(=O)O)O
Method: HCD
Collision_energy: [28.333334]
Isolation_window: 4.0
Ion_mode: N
Num Peaks: 38
44.0140	4.9
59.0136	3.4
71.0136	12.8
71.0160	0.3
71.0500	14.6
71.0524	0.4
72.0089	0.5
72.0453	0.3
85.0293	0.2
88.0400	100.0
88.0448	2.2
88.0482	0.4
89.0436	0.4
94.0296	3.1
96.9598	0.3
98.0609	0.2
99.0450	5.2
116.0351	0.8
116.0715	1.8
128.0351	0.2
128.0433	0.3
129.0556	0.6
130.0872	0.6
131.0906	0.9
144.1222	0.5
146.0642	0.2
146.0820	54.7
146.0879	0.6
146.0925	0.7
146.0954	0.5
147.0855	0.3
188.1121	1.2
218.0662	0.3
218.0759	1.1
218.1032	32.4
218.1228	1.1
219.0874	0.2
219.1067	0.3

Name: Pentanoic Acid
PrecursorMZ: 203.12917
RT: 8.8229
ExactMass: 102.068079557
Spectrum_type: 2
charge: -1
Formula: C5H10O2
SMILES: CCCCC(=O)O
Method: HCD
Collision_energy: [28.333334]
Isolation_window: 4.0
Ion_mode: N
Num Peaks: 17
41.0031	3.0
41.9984	4.8
59.0136	100.0
59.0162	2.8
85.0293	5.0
87.0084	3.4
87.0270	3.2
143.1076	5.7
148.9778	3.8
148.9866	4.4
160.0437	5.0
160.0799	4.2
171.0492	5.6
203.0560	11.1
203.1288	39.6
204.0336	4.4
204.0693	3.8

Name: Thymine
PrecursorMZ: 125.03576
RT: 11.6791
ExactMass: 126.042927438
Spectrum_type: 2
charge: -1
Formula: C5H6N2O2
SMILES: CC1=CNC(=O)NC1=O
Method: HCD
Collision_energy: [28.333334]
Isolation_window: 4.0
Ion_mode: N
Num Peaks: 11
41.9983	100.0
42.0004	1.2
42.0029	0.2
81.0456	0.5
97.0292	0.1
125.0242	0.5
125.0353	65.2
125.0410	0.4
125.0436	0.9
125.0459	0.6
125.0490	0.2

Name: l-Alanyl-l-leucine
PrecursorMZ: 201.12462
RT: 5.21765
ExactMass: 202.13174244
Spectrum_type: 2
charge: -1
Formula: C9H18N2O3
SMILES: C[C@@H](C(=O)N[C@@H](CC(C)C)C(=O)O)N
Method: HCD
Collision_energy: [28.333334]
Isolation_window: 4.0
Ion_mode: N
Num Peaks: 7
87.0563	13.5
88.0404	8.9
127.0513	4.4
130.0873	44.7
140.1081	14.0
157.1346	100.0
201.1244	69.0

Name: (+-)-2-Hydroxy-2-methylbutyric acid
PrecursorMZ: 117.05593
RT: 5.3526
ExactMass: 118.062994177
Spectrum_type: 2
charge: -1
Formula: C5H10O3
SMILES: CCC(C)(C(=O)O)O
Method: HCD
Collision_energy: [28.333334]
Isolation_window: 4.0
Ion_mode: N
Num Peaks: 15
41.0032	1.0
43.0189	4.0
55.0189	1.9
57.0345	1.0
59.0138	2.7
69.0345	1.4
71.0501	100.0
71.0524	0.9
73.0294	2.1
73.0658	3.1
99.0451	9.5
115.0400	6.6
116.9285	0.9
117.0557	38.5
117.0750	8.2

Name: (+-)-2-Hydroxyisovaleric acid
PrecursorMZ: 117.05565
RT: 7.3533
ExactMass: 118.062994177
Spectrum_type: 2
charge: -1
Formula: C5H10O3
SMILES: CC(C)C(C(=O)O)O
Method: HCD
Collision_energy: [28.333334]
Isolation_window: 4.0
Ion_mode: N
Num Peaks: 15
41.7256	33.7
41.9614	30.8
49.2517	35.1
56.6403	34.9
57.1952	36.5
59.4982	34.8
62.8928	33.0
63.6553	36.7
66.8795	30.3
70.7452	39.6
71.0501	100.0
99.9258	69.5
106.1056	32.0
117.0556	83.3
119.1177	34.7

Name: (+-)-3-(4-Hydroxyphenyl)lactic acid
PrecursorMZ: 181.05104
RT: 31.7494
ExactMass: 182.0579088
Spectrum_type: 2
charge: -1
Formula: C9H10O4
SMILES: C1=CC(=CC=C1CC(C(=O)O)O)O
Method: HCD
Collision_energy: [28.333334]
Isolation_window: 4.0
Ion_mode: N
Num Peaks: 9
44.9982	3.9
72.9931	28.9
107.0503	6.4
118.9421	4.4
119.0503	69.9
134.0374	15.8
135.0452	100.0
163.0401	71.5
181.0507	39.3

Name: (+-)-3-Methyladipic acid
PrecursorMZ: 159.06622
RT: 22.0978
ExactMass: 160.07355886
Spectrum_type: 2
charge: -1
Formula: C7H12O4
SMILES: CC(CCC(=O)O)CC(=O)O
Method: HCD
Collision_energy: [28.333334]
Isolation_window: 4.0
Ion_mode: N
Num Peaks: 41
41.0032	0.4
41.9984	0.7
59.0137	0.3
71.0137	0.3
75.0086	1.2
80.0267	0.3
81.0345	6.5
83.0501	0.3
85.0295	0.1
87.0086	0.1
95.0501	16.3
95.0535	0.3
95.0556	0.2
97.0616	0.4
97.0656	100.0
97.0691	1.6
97.0712	1.3
97.0751	0.3
97.0772	0.2
105.0192	0.2
109.0406	0.2
115.0400	0.3
115.0512	0.2
115.0638	0.1
115.0762	87.5
115.0803	0.8
115.0836	0.9
115.0857	0.7
115.0885	0.2
115.0913	0.2
127.0402	0.4
141.0558	0.6
145.0519	0.4
146.0598	0.2
159.0300	0.6
159.0461	0.2
159.0507	0.4
159.0538	0.3
159.0662	59.6
159.0786	0.3
159.0818	0.4

Name: (+-)-3-Phenyllactic acid
PrecursorMZ: 165.05606
RT: 16.4764
ExactMass: 166.062994177
Spectrum_type: 2
charge: -1
Formula: C9H10O3
SMILES: C1=CC=C(C=C1)CC(C(=O)O)O
Method: HCD
Collision_energy: [28.333334]
Isolation_window: 4.0
Ion_mode: N
Num Peaks: 7
72.9930	32.8
101.0396	4.6
119.0502	51.6
121.0294	7.1
147.0451	100.0
149.0095	15.4
165.0556	26.4

Name: (+-)-Citramalic acid
PrecursorMZ: 147.02988
RT: 21.0249
ExactMass: 148.03717335
Spectrum_type: 2
charge: -1
Formula: C5H8O5
SMILES: CC(CC(=O)O)(C(=O)O)O
Method: HCD
Collision_energy: [28.333334]
Isolation_window: 4.0
Ion_mode: N
Num Peaks: 22
53.6092	1.2
57.0344	12.2
58.5455	1.1
65.4682	1.1
77.1542	1.1
79.0529	1.0
85.0293	31.5
87.0085	15.7
101.0242	2.3
103.0398	2.2
109.8046	1.2
112.5200	1.1
117.0190	3.1
129.0191	100.0
129.0239	1.2
129.0385	3.5
130.2859	1.1
137.1489	1.1
151.1903	1.3
153.8032	1.0
153.9150	1.1
157.3540	1.1

Name: (+-)-Mevalonolactone
PrecursorMZ: 129.05604
RT: 24.1065
ExactMass: 130.062994177
Spectrum_type: 2
charge: -1
Formula: C6H10O3
SMILES: CC1(CCOC(=O)C1)O
Method: HCD
Collision_energy: [28.333334]
Isolation_window: 4.0
Ion_mode: N
Num Peaks: 11
41.0031	8.9
41.9984	7.3
43.0188	9.3
57.0344	11.3
59.0136	8.1
85.0292	100.0
85.0656	15.0
111.0449	7.1
129.0190	26.8
129.0555	41.2
129.0918	9.5

Name: (+-)-Pantothenic acid
PrecursorMZ: 218.10343
RT: 5.628
ExactMass: 219.11067264
Spectrum_type: 2
charge: -1
Formula: C9H17NO5
SMILES: CC(C)(CO)C(C(=O)NCCC(=O)O)O
Method: HCD
Collision_energy: [28.333334]
Isolation_window: 4.0
Ion_mode: N
Num Peaks: 13
68.2693	1.8
68.2756	1.7
88.0401	100.0
95.3736	1.6
105.2343	2.0
106.3325	1.7
109.8192	1.9
146.0821	9.2
153.7091	1.7
158.0455	1.7
173.4770	2.7
173.4841	2.2
175.8321	1.9

Name: (-)-Asparagine
PrecursorMZ: 131.04646
RT: 4.084133333333333
ExactMass: 132.05349212
Spectrum_type: 2
charge: -1
Formula: C4H8N2O3
SMILES: C([C@@H](C(=O)O)N)C(=O)N
Method: HCD
Collision_energy: [28.333334]
Isolation_window: 4.0
Ion_mode: N
Num Peaks: 16
41.9985	100.0
58.0298	18.2
70.0297	55.5
71.0138	3.0
71.0250	11.4
72.0090	21.0
74.0247	10.3
75.0087	3.8
87.0563	9.9
95.0250	18.9
100.9336	10.3
113.0356	50.6
114.0196	72.5
131.0462	21.4
131.0713	7.6
131.0825	16.9

Name: (-)-Stachydrine
PrecursorMZ: 142.08764
RT: 24.83
ExactMass: 143.094628657
Spectrum_type: 2
charge: -1
Formula: C7H13NO2
SMILES: C[N+]1(CCC[C@H]1C(=O)[O-])C
Method: HCD
Collision_energy: [28.333334]
Isolation_window: 4.0
Ion_mode: N
Num Peaks: 8
41.9984	27.4
44.0140	10.9
59.0136	16.5
82.0660	10.7
114.0922	79.4
142.0507	10.7
142.0635	11.6
142.0871	100.0

Name: (15Z)-9,12,13-Trihydroxy-15-octadecenoic acid
PrecursorMZ: 329.23362
RT: 31.84
ExactMass: 330.24062418
Spectrum_type: 2
charge: -1
Formula: C18H34O5
SMILES: CC/C=C\CC(C(CCC(CCCCCCCC(=O)O)O)O)O
Method: HCD
Collision_energy: [28.333334]
Isolation_window: 4.0
Ion_mode: N
Num Peaks: 19
57.0343	7.5
59.0136	7.8
75.0085	41.0
96.9598	17.2
102.0558	8.3
113.0354	8.1
114.0557	10.1
124.0765	7.1
128.0350	19.3
139.1125	17.5
154.0618	16.2
171.1023	41.4
211.1336	35.4
229.1441	23.2
267.1598	7.6
329.0995	8.6
329.1604	38.3
329.1969	7.7
329.2331	100.0

Name: (1alpha,2beta,4aalpha,4bbeta,10beta)-2-Hydroxy-1,4a-dimethyl-8-methylenegibbane-1,10-dicarboxylic acid
PrecursorMZ: 347.18668
RT: 35.102
ExactMass: 348.19367399
Spectrum_type: 2
charge: -1
Formula: C20H28O5
SMILES: C[C@@]12CC[C@@H]([C@@]([C@H]1[C@@H]([C@]34[C@H]2CC[C@H](C3)C(=C)C4)C(=O)O)(C)C(=O)O)O
Method: HCD
Collision_energy: [28.333334]
Isolation_window: 4.0
Ion_mode: N
Num Peaks: 8
96.9598	8.6
114.0557	9.2
128.0351	7.4
260.1290	8.1
303.1345	13.4
303.1963	8.7
347.1237	8.7
347.1862	100.0

Name: (2-Hydroxyphenyl)acetate
PrecursorMZ: 151.04008
RT: 34.8603
ExactMass: 151.039519081
Spectrum_type: 2
charge: -1
Formula: C8H7O3-
SMILES: C1=CC=C(C(=C1)CC(=O)[O-])O
Method: HCD
Collision_energy: [28.333334]
Isolation_window: 4.0
Ion_mode: N
Num Peaks: 15
48.2750	8.9
50.2818	8.3
55.5247	10.3
56.6206	9.4
59.0138	20.0
60.1016	8.6
70.1113	9.2
88.4671	8.8
107.0499	100.0
110.9837	10.0
118.0350	8.9
122.0532	9.3
134.0570	9.5
220.8089	9.9
278.7744	11.2

Name: (2-Hydroxyphenyl)acetic acid
PrecursorMZ: 151.04008
RT: 34.2628
ExactMass: 152.047344113
Spectrum_type: 2
charge: -1
Formula: C8H8O3
SMILES: C1=CC=C(C(=C1)CC(=O)O)O
Method: HCD
Collision_energy: [28.333334]
Isolation_window: 4.0
Ion_mode: N
Num Peaks: 16
50.0614	10.4
52.6490	7.9
62.1200	8.0
73.0054	8.8
74.2366	7.5
77.6617	8.0
94.0636	8.6
94.1540	8.5
97.1100	8.8
103.4454	8.5
107.0500	100.0
108.8585	7.8
118.5844	8.4
118.7696	8.5
127.9491	8.0
148.1600	7.7

Name: (2R)-2,3-Dihydroxypropanoic acid
PrecursorMZ: 105.01939
RT: 5.4832
ExactMass: 106.02660867
Spectrum_type: 2
charge: -1
Formula: C3H6O4
SMILES: C([C@H](C(=O)O)O)O
Method: HCD
Collision_energy: [28.333334]
Isolation_window: 4.0
Ion_mode: N
Num Peaks: 22
41.0031	1.4
43.0188	3.2
44.9980	18.3
47.0137	0.2
56.9980	1.0
59.0136	13.7
59.0162	0.4
61.0179	0.4
72.9929	3.3
75.0085	33.7
75.0110	1.0
75.0135	0.3
103.0036	0.4
105.0015	0.4
105.0145	0.7
105.0189	100.0
105.0233	1.3
105.0253	1.9
105.0297	0.4
105.0321	0.3
105.0374	0.2
105.0440	0.2

Name: (2R)-2-((2R,5S)-5-((2S)-2-Hydroxybutyl)oxolan-2-YL)propanoic acid
PrecursorMZ: 215.129
RT: 31.9383
ExactMass: 216.13615911
Spectrum_type: 2
charge: -1
Formula: C11H20O4
SMILES: CC[C@@H](C[C@@H]1CC[C@@H](O1)[C@@H](C)C(=O)O)O
Method: HCD
Collision_energy: [28.333334]
Isolation_window: 4.0
Ion_mode: N
Num Peaks: 18
59.0138	20.8
71.0138	13.7
71.0502	7.4
74.0247	10.5
79.9573	8.6
88.0403	9.1
96.9601	9.7
97.0117	7.4
102.0560	7.1
111.0815	8.9
114.0560	9.0
116.0717	8.1
128.0353	16.7
130.0873	9.0
135.0299	10.5
150.5643	11.6
153.1285	100.0
215.1289	72.2

Name: (2R,3S)-2-methylcitric acid
PrecursorMZ: 205.03556
RT: 33.6518
ExactMass: 206.04265265
Spectrum_type: 2
charge: -1
Formula: C7H10O7
SMILES: C[C@H](C(=O)O)[C@](CC(=O)O)(C(=O)O)O
Method: HCD
Collision_energy: [28.333334]
Isolation_window: 4.0
Ion_mode: N
Num Peaks: 36
41.9984	10.9
57.0344	7.4
59.0137	9.3
71.0136	7.4
71.0500	8.5
72.9929	30.7
73.0293	41.4
75.0085	6.7
79.9571	6.7
80.9650	4.8
81.0344	6.7
85.0293	5.3
87.0085	15.7
87.0449	13.6
88.0401	4.0
99.0086	7.8
99.0449	40.2
101.0242	37.2
113.0242	4.5
114.0559	3.6
115.0398	18.4
116.0716	4.3
117.0191	52.0
123.0323	4.2
125.0242	100.0
128.0351	11.4
130.0871	3.8
131.0347	13.0
143.0348	24.0
145.0140	33.8
159.0299	6.0
162.0559	12.4
187.0246	91.7
205.0352	48.1
205.1156	12.4
205.1594	4.7

Name: (2S,3R)-2,3,4-Trihydroxybutanoic acid
PrecursorMZ: 135.02978
RT: 5.4832
ExactMass: 136.03717335
Spectrum_type: 2
charge: -1
Formula: C4H8O5
SMILES: C([C@H]([C@@H](C(=O)O)O)O)O
Method: HCD
Collision_energy: [28.333334]
Isolation_window: 4.0
Ion_mode: N
Num Peaks: 27
41.0032	0.6
43.0188	0.2
44.9980	5.0
47.9674	0.2
55.0188	1.5
56.9981	0.4
59.0136	15.2
59.0163	0.4
62.9908	1.0
71.0136	6.6
71.0160	0.2
72.9929	3.4
75.0057	0.8
75.0084	100.0
75.0109	2.9
75.0134	1.2
75.0164	0.3
87.0086	1.2
89.0242	2.2
99.0086	0.3
117.0191	6.6
135.0295	68.7
135.0350	0.7
135.0388	1.0
135.0415	0.7
135.0448	0.3
135.0494	0.2

Name: (2S,3R,5R,10R,13R,14S,17R)-17-((2S,3R)-3,6-dihydroxy-6-methylheptan-2-yl)-2,3,14-trihydroxy-10,13-dimethyl-2,3,4,5,9,11,12,15,16,17-decahydro-1H-cyclopenta(a)phenanthren-6-one
PrecursorMZ: 509.31267
RT: 10.9226
ExactMass: 464.31378912
Spectrum_type: 2
charge: -1
Formula: C27H44O6
SMILES: C[C@@H]([C@H]1CC[C@@]2([C@@]1(CCC3C2=CC(=O)[C@H]4[C@@]3(C[C@@H]([C@@H](C4)O)O)C)C)O)[C@@H](CCC(C)(C)O)O
Method: HCD
Collision_energy: [28.333334]
Isolation_window: 4.0
Ion_mode: N
Num Peaks: 6
96.9597	8.3
289.2533	3.9
333.2433	5.5
451.2697	17.4
509.3116	100.0
510.3149	8.6

Name: (2S,3S)-3-decyl-2-hydroxy-2-(3-methoxy-3-oxopropyl)butanedioic acid
PrecursorMZ: 359.20786
RT: 37.3777
ExactMass: 360.21480336
Spectrum_type: 2
charge: -1
Formula: C18H32O7
SMILES: CCCCCCCCCC[C@H](C(=O)O)[C@@](CCC(=O)OC)(C(=O)O)O
Method: HCD
Collision_energy: [28.333334]
Isolation_window: 4.0
Ion_mode: N
Num Peaks: 17
87.0085	59.8
96.9598	5.2
171.1023	10.8
209.1544	17.6
227.1650	27.0
253.1444	6.9
271.1549	63.9
272.1290	4.8
279.1959	4.7
297.1704	4.8
297.2072	4.9
315.1811	38.2
323.1859	4.7
341.1969	4.9
359.1711	100.0
359.2073	33.3
360.1739	6.6

Name: (2S,3S,4S,5R)-2,3,4,5-tetrahydroxy-6-oxohexanoic acid
PrecursorMZ: 193.03603
RT: 11.7634
ExactMass: 194.04265265
Spectrum_type: 2
charge: -1
Formula: C6H10O7
SMILES: C(=O)[C@@H]([C@H]([C@@H]([C@@H](C(=O)O)O)O)O)O
Method: HCD
Collision_energy: [28.333334]
Isolation_window: 4.0
Ion_mode: N
Num Peaks: 24
41.0031	5.4
43.0188	4.7
44.9980	6.3
55.0187	3.6
57.0344	10.7
59.0136	100.0
59.0162	2.9
71.0136	44.9
72.9929	62.8
73.0293	27.5
83.0136	4.4
85.0293	48.4
89.0242	9.6
95.0136	11.3
99.0086	2.4
101.0242	17.8
103.0035	8.5
113.0242	62.0
131.0348	10.3
133.0141	4.1
175.0248	2.4
193.0353	19.0
193.0508	2.7
193.0611	2.6

Name: (2S,3S,9R,12R,13R,14S,15R,16R,17S)-3,12,13,15,16-pentahydroxy-2,6,14,17-tetramethyl-10-oxatetracyclo)7.7.1.02,7.013,17(heptadec-5-ene-4,11-dione
PrecursorMZ: 395.1711
RT: 31.9421
ExactMass: 396.17841785
Spectrum_type: 2
charge: -1
Formula: C20H28O8
SMILES: C[C@H]1[C@H]([C@@H](C2[C@@]3([C@]1([C@H](C(=O)O[C@@H]3CC4[C@@]2([C@@H](C(=O)C=C4C)O)C)O)O)C)O)O
Method: HCD
Collision_energy: [28.333334]
Isolation_window: 4.0
Ion_mode: N
Num Peaks: 17
58.5356	9.6
70.0570	10.5
73.9447	10.9
84.1528	11.4
88.3924	10.1
110.2124	12.2
111.9180	11.1
146.5237	13.4
146.7095	10.2
173.4805	100.0
183.6396	11.6
185.3062	10.8
195.8941	10.3
225.9176	11.1
251.7204	10.9
317.1097	10.8
384.2740	11.6

Name: (3-Methoxyphenyl)acetic acid
PrecursorMZ: 165.05575
RT: 37.4946
ExactMass: 166.062994177
Spectrum_type: 2
charge: -1
Formula: C9H10O3
SMILES: COC1=CC=CC(=C1)CC(=O)O
Method: HCD
Collision_energy: [28.333334]
Isolation_window: 4.0
Ion_mode: N
Num Peaks: 16
42.8828	5.5
58.8237	6.2
63.8373	5.7
66.8941	6.5
73.0439	7.9
93.2449	5.8
108.7989	6.2
121.0291	100.0
121.0655	26.3
127.9250	6.1
144.8590	5.5
162.2018	5.9
163.2986	6.3
165.2399	5.6
173.4767	6.6
173.4839	11.0

Name: (9S)-9-hydroxy-9-((2R,4S,5R)-4-hydroxy-5-((E)-3-hydroxypent-1-enyl)oxolan-2-yl)nonanoic acid
PrecursorMZ: 343.213
RT: 12.2841
ExactMass: 344.21988874
Spectrum_type: 2
charge: -1
Formula: C18H32O6
SMILES: CCC(/C=C/[C@@H]1[C@H](C[C@@H](O1)[C@H](CCCCCCCC(=O)O)O)O)O
Method: HCD
Collision_energy: [28.333334]
Isolation_window: 4.0
Ion_mode: N
Num Peaks: 15
96.9598	7.6
97.0656	2.6
116.0713	3.1
123.0813	3.1
127.0510	3.1
171.1023	4.5
185.1181	4.7
197.1177	3.1
199.1338	3.0
201.1129	6.5
209.1180	33.6
325.2012	3.8
343.1621	3.3
343.2123	100.0
344.2158	5.0

Name: (E)-2,7-dimethyloct-4-enedioic acid
PrecursorMZ: 199.09755
RT: 30.7416
ExactMass: 200.10485899
Spectrum_type: 2
charge: -1
Formula: C10H16O4
SMILES: CC(C/C=C/CC(C)C(=O)O)C(=O)O
Method: HCD
Collision_energy: [28.333334]
Isolation_window: 4.0
Ion_mode: N
Num Peaks: 18
51.3409	2.7
51.4133	2.8
54.6366	2.8
92.3103	2.6
109.6564	2.9
115.6994	2.8
130.3963	3.5
134.8294	3.0
135.0451	9.2
137.0973	4.5
140.1042	3.1
141.3028	2.8
155.1077	100.0
163.1864	2.8
173.4808	6.7
181.0878	3.5
191.7089	2.8
199.0074	7.4

Name: (E)-4-((1R,4aS,5R,8aS)-6-hydroxy-5-(hydroxymethyl)-5,8a-dimethyl-2-methylidene-3,4,4a,6,7,8-hexahydro-1H-naphthalen-1-yl)-2-(1,2-dihydroxyethyl)but-2-enoic acid
PrecursorMZ: 367.2129
RT: 31.3284
ExactMass: 368.21988874
Spectrum_type: 2
charge: -1
Formula: C20H32O6
SMILES: C[C@@]12CCC([C@@]([C@H]1CCC(=C)[C@H]2C/C=C(\C(CO)O)/C(=O)O)(C)CO)O
Method: HCD
Collision_energy: [28.333334]
Isolation_window: 4.0
Ion_mode: N
Num Peaks: 8
96.9598	28.2
114.0557	19.2
115.0397	44.7
128.0349	15.5
305.2120	15.2
323.2226	85.0
367.1764	24.2
367.2124	100.0

Name: (E)-4-)(1R,4aS,5R,8aS)-6-hydroxy-5-(hydroxymethyl)-5,8a-dimethyl-2-methylidene-3,4,4a,6,7,8-hexahydro-1H-naphthalen-1-yl(-2-(1,2-dihydroxyethyl)but-2-enoic acid
PrecursorMZ: 367.21271
RT: 32.3618
ExactMass: 368.21988874
Spectrum_type: 2
charge: -1
Formula: C20H32O6
SMILES: C[C@@]12CCC([C@@]([C@H]1CCC(=C)[C@H]2C/C=C(\C(CO)O)/C(=O)O)(C)CO)O
Method: HCD
Collision_energy: [28.333334]
Isolation_window: 4.0
Ion_mode: N
Num Peaks: 14
99.6841	4.8
114.2215	6.6
114.5294	6.1
131.7511	7.1
133.1461	6.8
153.3194	6.4
168.1050	8.9
173.4801	100.0
181.2958	8.1
185.3996	8.2
193.4880	8.0
276.6223	9.5
300.4723	10.8
323.2237	24.1

Name: (E)-9-hydroxy-11-(3-hydroxy-5-(1-hydroxypropyl)tetrahydrofuran-2-yl)undec-10-enoic acid
PrecursorMZ: 343.21293
RT: 11.3428
ExactMass: 344.21988874
Spectrum_type: 2
charge: -1
Formula: C18H32O6
SMILES: CCC(C1CC(C(O1)/C=C/C(CCCCCCCC(=O)O)O)O)O
Method: HCD
Collision_energy: [28.333334]
Isolation_window: 4.0
Ion_mode: N
Num Peaks: 13
96.9598	4.5
123.0812	4.1
171.1023	4.0
185.1179	6.4
197.1179	2.9
201.1129	5.0
209.1179	7.8
249.1494	2.5
267.1600	2.6
289.1805	2.5
325.2018	4.3
343.2123	100.0
344.2159	4.2

Name: (E,E)-sorbate
PrecursorMZ: 111.04545
RT: 21.7984
ExactMass: 111.044604462
Spectrum_type: 2
charge: -1
Formula: C6H7O2-
SMILES: C/C=C/C=C/C(=O)[O-]
Method: HCD
Collision_energy: [28.333334]
Isolation_window: 4.0
Ion_mode: N
Num Peaks: 12
41.0031	15.8
41.9984	28.3
55.0187	10.8
79.9571	31.9
80.9649	4.2
83.0500	25.3
93.0343	6.0
95.9520	6.1
110.9755	100.0
111.0085	13.5
111.0197	21.1
111.0449	73.1

Name: (R)-3-phenyllactic acid
PrecursorMZ: 165.05594
RT: 16.2365
ExactMass: 166.062994177
Spectrum_type: 2
charge: -1
Formula: C9H10O3
SMILES: C1=CC=C(C=C1)C[C@H](C(=O)O)O
Method: HCD
Collision_energy: [28.333334]
Isolation_window: 4.0
Ion_mode: N
Num Peaks: 48
41.9984	1.0
44.9981	2.7
59.0137	0.5
71.0137	0.6
72.9929	30.6
72.9966	0.6
73.0406	2.5
74.0008	2.1
74.0246	1.4
75.0086	0.7
88.0402	0.5
91.0552	2.9
101.0396	1.7
103.0552	2.8
104.0352	0.8
109.0406	0.5
114.0378	1.8
114.0560	9.1
115.0185	0.5
115.0592	0.5
116.0716	1.2
117.0345	0.9
119.0501	41.4
119.0543	0.6
121.0294	3.9
121.0457	0.7
127.0512	0.6
128.0353	1.5
131.0615	0.9
136.5485	0.4
142.5486	0.6
144.0666	0.6
147.0311	0.7
147.0450	100.0
147.0500	0.9
147.0559	0.7
147.0587	0.7
148.0486	0.8
149.0096	3.5
149.5564	0.4
150.5642	4.6
164.5840	1.9
165.0194	1.4
165.0409	2.3
165.0557	65.8
165.0725	0.6
165.0748	0.8
165.5695	1.4

Name: (Z)-2-octylpent-2-enedioic acid
PrecursorMZ: 241.14493
RT: 7.1776
ExactMass: 242.15180918
Spectrum_type: 2
charge: -1
Formula: C13H22O4
SMILES: CCCCCCCC/C(=C/CC(=O)O)/C(=O)O
Method: HCD
Collision_energy: [28.333334]
Isolation_window: 4.0
Ion_mode: N
Num Peaks: 11
57.0343	13.1
59.0136	8.6
148.9749	7.1
148.9832	10.4
181.1231	30.1
197.1544	19.3
223.1337	27.8
241.0715	23.9
241.1077	10.0
241.1444	100.0
241.2168	8.3

Name: 1,10a-Dihydroxy-4,4,7,11b-tetramethyl-1,2,3,4a,5,6,6a,7,11,11a-decahydronaphtho)2,1-f()1(benzofuran-9-one
PrecursorMZ: 379.21237
RT: 17.9486
ExactMass: 334.21440943
Spectrum_type: 2
charge: -1
Formula: C20H30O4
SMILES: CC1C2CCC3C(CCC(C3(C2CC4(C1=CC(=O)O4)O)C)O)(C)C
Method: HCD
Collision_energy: [28.333334]
Isolation_window: 4.0
Ion_mode: N
Num Peaks: 19
102.7522	2.0
107.3830	2.2
111.9834	2.1
123.4328	2.4
124.5666	2.2
153.6515	3.3
157.5387	2.9
173.4814	9.1
179.0713	19.3
189.2549	3.1
197.0819	37.6
210.4500	3.0
214.2111	3.6
225.8826	3.7
226.1824	3.1
265.7542	3.4
277.1447	8.6
303.1598	5.4
361.2022	100.0

Name: 1,2,3,4-Tetrahydro-2,4-dioxo-5-pyrimidinecarboxylic acid
PrecursorMZ: 155.01017
RT: 31.2396
ExactMass: 156.01710661
Spectrum_type: 2
charge: -1
Formula: C5H4N2O4
SMILES: C1=C(C(=O)NC(=O)N1)C(=O)O
Method: HCD
Collision_energy: [28.333334]
Isolation_window: 4.0
Ion_mode: N
Num Peaks: 7
41.9985	19.3
67.0301	1.8
68.0141	0.9
111.0199	100.0
111.0233	1.3
111.0257	0.5
155.0098	0.5

Name: 1,2,3,4-Tetrahydro-Beta-Carboline-3-Carboxylic Acid
PrecursorMZ: 215.08285
RT: 34.3979
ExactMass: 216.08987763
Spectrum_type: 2
charge: -1
Formula: C12H12N2O2
SMILES: C1C(NCC2=C1C3=CC=CC=C3N2)C(=O)O
Method: HCD
Collision_energy: [28.333334]
Isolation_window: 4.0
Ion_mode: N
Num Peaks: 36
59.0136	4.5
71.0136	3.2
72.0089	17.3
79.9571	12.0
80.9650	3.4
83.0136	2.3
86.0245	86.2
88.0402	2.6
92.0503	94.6
95.9520	4.2
96.9599	25.7
109.0292	2.3
114.0558	3.2
116.0503	94.7
116.0714	2.3
126.0557	2.4
128.0351	3.9
129.0581	4.0
130.0660	3.2
142.0660	43.2
143.0613	5.0
144.0816	13.7
154.0660	8.4
156.0690	8.1
169.0769	16.9
171.0925	100.0
171.1019	2.6
179.6052	4.6
206.5720	4.1
215.0823	79.6
215.0924	3.0
215.1285	6.9
215.1469	3.9
215.1651	3.3
215.5775	3.3
216.0729	61.3

Name: 1,2,3-Propanetricarboxylic acid
PrecursorMZ: 175.02489
RT: 34.1242
ExactMass: 176.03208797
Spectrum_type: 2
charge: -1
Formula: C6H8O6
SMILES: C(C(CC(=O)O)C(=O)O)C(=O)O
Method: HCD
Collision_energy: [28.333334]
Isolation_window: 4.0
Ion_mode: N
Num Peaks: 45
41.0032	5.1
41.9984	0.3
43.0189	0.7
44.9981	0.5
55.0188	0.3
57.0345	0.8
59.0138	1.8
69.0307	0.3
69.0344	61.8
69.0372	0.6
69.0402	0.3
71.0138	8.9
72.9930	1.8
73.0294	1.6
79.9572	0.6
80.9650	0.2
83.0138	0.2
85.0294	2.7
87.0087	2.6
87.0387	0.3
87.0450	55.6
87.0495	0.5
87.0532	0.2
88.0403	0.2
95.0138	0.5
99.0088	0.3
101.0243	0.2
113.0243	26.1
115.0037	1.3
128.0351	0.2
131.0349	10.0
132.0617	0.5
156.9988	0.7
157.0020	0.6
157.0140	100.0
157.0206	0.3
157.0258	0.5
157.0292	0.6
157.0339	0.3
158.0177	0.2
163.0626	0.2
166.0749	0.6
175.0068	0.2
175.0247	25.0
175.0873	0.3

Name: 1,3,7-Trimethyluric acid
PrecursorMZ: 209.068
RT: 13.8171
ExactMass: 210.07529019
Spectrum_type: 2
charge: -1
Formula: C8H10N4O3
SMILES: CN1C2=C(NC1=O)N(C(=O)N(C2=O)C)C
Method: HCD
Collision_energy: [28.333334]
Isolation_window: 4.0
Ion_mode: N
Num Peaks: 51
41.9984	3.7
52.2662	0.2
74.0246	0.2
85.0293	0.5
94.0045	0.5
96.9599	0.3
114.0558	0.1
121.9995	0.2
124.0513	18.9
124.0563	0.2
124.0595	0.3
124.0618	0.2
125.0355	0.3
125.0547	0.1
126.0671	0.4
135.0449	0.1
136.5486	0.1
137.0228	27.3
137.0285	0.4
137.0323	0.4
137.0349	0.3
138.0263	0.2
147.0450	0.1
152.0464	2.3
165.0415	0.1
165.0556	0.1
165.0590	0.4
170.0570	0.7
179.0209	2.0
186.5840	0.1
193.0367	0.3
194.0231	0.2
194.0441	46.7
194.0522	0.6
194.0605	0.4
194.0648	0.4
194.0709	0.1
195.0477	0.4
209.0370	0.2
209.0441	0.5
209.0589	0.1
209.0674	100.0
209.0773	0.1
209.0820	0.2
209.0857	1.0
209.0906	0.9
209.0935	0.1
209.0973	0.3
209.1043	0.2
209.1546	0.2
210.0712	0.8

Name: 1-(1-Hydroxybutyl)-1,3,4,5,6,7-hexahydro-2-benzofuran-4,5,6,7-tetrol
PrecursorMZ: 259.11909
RT: 21.1008
ExactMass: 260.12598835
Spectrum_type: 2
charge: -1
Formula: C12H20O6
SMILES: CCCC(C1C2=C(CO1)C(C(C(C2O)O)O)O)O
Method: HCD
Collision_energy: [28.333334]
Isolation_window: 4.0
Ion_mode: N
Num Peaks: 40
59.0136	10.0
71.0136	5.4
72.9927	5.6
85.0290	8.2
87.0084	13.9
96.9597	32.5
97.0655	6.0
101.0239	5.2
102.0558	5.6
114.0556	6.3
126.0559	5.4
128.0349	20.7
129.1030	6.8
130.0870	32.3
134.0971	14.8
137.0604	6.0
138.0430	5.6
148.9781	7.9
148.9871	7.3
153.0665	24.0
171.1500	11.9
173.0814	17.2
179.1073	7.8
180.0660	6.4
197.0813	37.6
197.1178	28.3
215.0918	6.8
215.1283	30.4
215.1400	11.8
241.0461	5.8
241.0711	17.3
241.1074	14.2
241.1194	6.7
259.0122	21.7
259.0567	5.6
259.0815	76.9
259.1179	100.0
259.1304	17.9
259.1809	19.4
260.0769	19.8

Name: 1-(2,4-Dihydroxy-5-methylphenyl)-2-(4-methylphenoxy)ethanone
PrecursorMZ: 135.04516
RT: 30.2949
ExactMass: 272.10485899
Spectrum_type: 2
charge: -1
Formula: C16H16O4
SMILES: CC1=CC=C(C=C1)OCC(=O)C2=C(C=C(C(=C2)C)O)O
Method: HCD
Collision_energy: [28.333334]
Isolation_window: 4.0
Ion_mode: N
Num Peaks: 16
45.6665	53.9
46.5946	48.1
48.7497	55.6
55.4494	47.4
55.7826	46.9
60.7834	57.3
61.9022	44.4
70.4712	46.6
74.1052	50.8
74.6289	53.2
85.8174	53.7
86.4450	55.8
97.9811	61.7
108.2787	55.2
134.8946	100.0
140.5654	48.3

Name: 1-(2,5-Dihydroxyphenyl)-3-hydroxybutan-1-one
PrecursorMZ: 195.06636
RT: 32.7243
ExactMass: 196.07355886
Spectrum_type: 2
charge: -1
Formula: C10H12O4
SMILES: CC(CC(=O)C1=C(C=CC(=C1)O)O)O
Method: HCD
Collision_energy: [28.333334]
Isolation_window: 4.0
Ion_mode: N
Num Peaks: 16
49.1405	5.1
50.4625	6.0
54.6481	5.2
65.2281	5.5
69.6322	5.6
96.9598	13.9
99.4788	5.0
110.5149	5.6
130.9923	7.4
135.0451	8.5
149.9249	6.3
151.0398	100.0
161.1369	5.5
166.2090	5.6
173.4803	10.1
195.7412	5.7

Name: 1-Methyl-1,2,3,4-tetrahydro-beta-carboline-3-carboxylic acid
PrecursorMZ: 229.09836
RT: 33.3207
ExactMass: 230.105527694
Spectrum_type: 2
charge: -1
Formula: C13H14N2O2
SMILES: CC1C2=C(CC(N1)C(=O)O)C3=CC=CC=C3N2
Method: HCD
Collision_energy: [28.333334]
Isolation_window: 4.0
Ion_mode: N
Num Peaks: 49
56.0504	1.0
59.0137	2.6
71.0137	2.7
72.0090	12.6
74.0246	7.1
79.9572	1.0
80.9650	1.0
88.0401	0.9
92.0504	100.0
92.0533	1.3
92.0556	1.4
93.0539	0.8
100.0403	39.5
114.0560	4.5
115.0036	2.3
116.0504	51.0
116.0715	1.1
123.0643	0.9
124.0071	1.4
128.0351	1.9
130.0661	0.8
130.0872	1.1
142.0661	34.7
143.0739	0.8
144.0818	2.8
148.9756	1.0
148.9846	1.6
153.0584	0.9
154.0382	1.3
155.0740	1.8
156.0692	9.4
156.0818	10.4
157.0770	4.9
158.0974	6.5
166.0661	0.8
168.0818	7.9
169.0770	0.9
171.0815	1.9
181.0771	1.6
183.0927	27.5
185.1082	76.7
185.1156	1.5
186.1117	1.2
192.1076	1.0
229.0872	2.1
229.0981	66.6
229.1442	2.8
230.0670	1.4
230.1016	1.0

Name: 1-Methyluric Acid
PrecursorMZ: 181.03707
RT: 11.2492
ExactMass: 182.04399007
Spectrum_type: 2
charge: -1
Formula: C6H6N4O3
SMILES: CN1C(=O)C2=C(NC(=O)N2)NC1=O
Method: HCD
Collision_energy: [28.333334]
Isolation_window: 4.0
Ion_mode: N
Num Peaks: 11
41.0144	24.8
41.9984	44.7
82.0296	12.0
110.0358	25.9
137.0607	16.1
137.0720	23.9
138.0308	14.5
138.0672	49.8
156.0414	15.3
181.0367	100.0
181.0870	11.3

Name: 1-O-trans-Cinnamoyl-beta-D-glucopyranose
PrecursorMZ: 355.10355
RT: 36.0592
ExactMass: 310.10525291
Spectrum_type: 2
charge: -1
Formula: C15H18O7
SMILES: C1=CC=C(C=C1)/C=C/C(=O)O[C@H]2[C@@H]([C@H]([C@@H]([C@H](O2)CO)O)O)O
Method: HCD
Collision_energy: [28.333334]
Isolation_window: 4.0
Ion_mode: N
Num Peaks: 23
93.6371	6.5
101.3703	7.5
102.1260	9.1
103.4217	7.2
103.7851	7.1
107.6313	7.5
109.3600	8.0
111.0383	9.8
115.7657	8.0
120.4422	9.8
122.9608	9.3
148.5747	11.7
163.4327	14.3
173.4821	100.0
181.0512	33.4
183.9427	12.4
195.9645	11.3
229.7380	12.5
261.5344	12.9
262.5018	12.9
270.7787	14.5
271.2166	15.3
322.3972	13.6

Name: 1-amino-1,3-dicarboxycyclopentane, trans-(1R,3S)-
PrecursorMZ: 172.06192
RT: 21.8888
ExactMass: 173.06880783
Spectrum_type: 2
charge: -1
Formula: C7H11NO4
SMILES: C1C[C@@](C[C@H]1C(=O)O)(C(=O)O)N
Method: HCD
Collision_energy: [28.333334]
Isolation_window: 4.0
Ion_mode: N
Num Peaks: 15
41.9984	4.3
59.0136	5.7
71.0136	8.6
84.0533	1.8
100.0765	39.2
111.0085	1.6
111.0449	1.9
112.0483	3.9
121.0405	3.6
128.0351	8.4
128.0714	100.0
128.0766	1.8
137.0354	4.3
172.0072	2.1
172.0613	12.0

Name: 11-(Hydroxymethyl)-2,11-dimethyl-3-oxotricyclo(4.3.2.01,5)undecane-9-carboxylic acid
PrecursorMZ: 265.1447
RT: 12.8123
ExactMass: 266.15180918
Spectrum_type: 2
charge: -1
Formula: C15H22O4
SMILES: CC1C(=O)CC2C13CC(C2CCC3C(=O)O)(C)CO
Method: HCD
Collision_energy: [28.333334]
Isolation_window: 4.0
Ion_mode: N
Num Peaks: 17
59.0137	7.8
71.0500	16.5
85.0655	7.6
111.0813	11.7
121.0657	10.5
149.0467	7.5
149.0971	11.5
150.0419	14.5
163.1126	10.0
165.0668	37.9
165.1283	50.5
179.0461	9.9
203.1439	11.1
219.1389	100.0
265.1195	8.7
265.1448	39.8
266.1036	8.3

Name: 11-Deoxycortisol
PrecursorMZ: 391.21302
RT: 27.4428
ExactMass: 346.21440943
Spectrum_type: 2
charge: -1
Formula: C21H30O4
SMILES: C[C@]12CCC(=O)C=C1CC[C@@H]3[C@@H]2CC[C@]4([C@H]3CC[C@@]4(C(=O)CO)O)C
Method: HCD
Collision_energy: [28.333334]
Isolation_window: 4.0
Ion_mode: N
Num Peaks: 8
89.0241	33.6
96.9598	62.6
128.0350	13.2
148.9795	10.9
148.9884	8.4
319.1913	100.0
391.2125	18.6
391.2781	28.1

Name: 12,14-Dihydroxy-11-methyl-6-methylidene-16-oxo-15-oxapentacyclo)9.3.2.15,8.01,10.02,8(heptadecane-9-carboxylic acid
PrecursorMZ: 347.15
RT: 32.5447
ExactMass: 348.15728848
Spectrum_type: 2
charge: -1
Formula: C19H24O6
SMILES: CC12C(CC(C3(C1C(C45C3CCC(C4)C(=C)C5)C(=O)O)OC2=O)O)O
Method: HCD
Collision_energy: [28.333334]
Isolation_window: 4.0
Ion_mode: N
Num Peaks: 21
91.8578	5.1
96.2372	5.5
103.9458	5.3
114.3262	5.9
118.9393	10.1
122.9589	7.7
127.6737	6.8
142.8260	7.4
143.6312	7.5
144.1453	7.2
147.3435	10.1
147.6926	10.0
153.9774	8.2
169.5831	8.6
173.4809	27.7
175.2182	9.0
191.5177	10.1
241.1597	45.1
254.6839	10.4
259.1705	89.7
303.1602	100.0

Name: 12-Hydroxydodecanoic Acid
PrecursorMZ: 215.16549
RT: 38.858
ExactMass: 216.17254462
Spectrum_type: 2
charge: -1
Formula: C12H24O3
SMILES: C(CCCCCC(=O)O)CCCCCO
Method: HCD
Collision_energy: [28.333334]
Isolation_window: 4.0
Ion_mode: N
Num Peaks: 27
57.0344	4.2
59.0137	1.8
71.0500	1.6
79.9571	4.8
80.9649	100.0
80.9679	3.3
82.9608	2.4
111.0085	3.0
135.0562	1.3
141.1282	1.2
148.9809	1.8
148.9897	1.2
169.1595	18.1
171.1024	3.4
175.0181	3.1
177.0666	1.2
178.1104	1.7
179.1439	2.8
194.9966	9.6
197.1544	5.0
207.0773	1.5
213.1493	1.5
214.5776	1.2
215.0180	5.4
215.1285	2.1
215.1650	26.7
219.0772	1.6

Name: 1H-Benzotriazole
PrecursorMZ: 118.04063
RT: 31.2921
ExactMass: 119.048347172
Spectrum_type: 2
charge: -1
Formula: C6H5N3
SMILES: C1=CC2=NNN=C2C=C1
Method: HCD
Collision_energy: [28.333334]
Isolation_window: 4.0
Ion_mode: N
Num Peaks: 11
41.9984	25.1
50.0035	22.1
65.0269	17.4
74.0245	23.5
91.0300	100.0
92.0378	27.0
93.0219	22.3
118.0404	37.3
120.0454	53.2
121.0532	30.3
122.0610	31.3

Name: 1H-Indole-3-acetic acid, 2,3-dihydro-3-hydroxy-2-oxo-
PrecursorMZ: 206.04589
RT: 33.0056
ExactMass: 207.05315777
Spectrum_type: 2
charge: -1
Formula: C10H9NO4
SMILES: C1=CC=C2C(=C1)C(C(=O)N2)(CC(=O)O)O
Method: HCD
Collision_energy: [28.333334]
Isolation_window: 4.0
Ion_mode: N
Num Peaks: 7
62.1788	5.2
84.3591	4.6
105.4747	5.3
151.1281	5.1
160.0404	56.5
162.0560	100.0
173.4812	46.0

Name: 1H-Indole-3-propanoic acid
PrecursorMZ: 188.07203
RT: 39.4294
ExactMass: 189.078978594
Spectrum_type: 2
charge: -1
Formula: C11H11NO2
SMILES: C1=CC=C2C(=C1)C(=CN2)CCC(=O)O
Method: HCD
Collision_energy: [28.333334]
Isolation_window: 4.0
Ion_mode: N
Num Peaks: 16
59.0137	6.2
79.9572	0.5
116.0504	12.2
142.0661	0.5
144.0316	0.4
144.0452	100.0
144.0511	1.5
144.0554	1.3
144.0582	0.9
144.0624	0.4
144.0817	1.0
145.0486	1.2
162.0560	1.1
188.0352	3.6
188.0717	3.8
188.9862	0.5

Name: 2'-O-Methylguanosine
PrecursorMZ: 296.10023
RT: 10.8453
ExactMass: 297.1073186
Spectrum_type: 2
charge: -1
Formula: C11H15N5O5
SMILES: CO[C@@H]1[C@@H]([C@H](O[C@H]1N2C=NC3=C2N=C(NC3=O)N)CO)O
Method: HCD
Collision_energy: [28.333334]
Isolation_window: 4.0
Ion_mode: N
Num Peaks: 4
133.0153	9.3
150.0418	100.0
206.0679	5.7
296.0996	66.8

Name: 2,2-Dimethylsuccinic acid
PrecursorMZ: 145.05078
RT: 22.4824
ExactMass: 146.0579088
Spectrum_type: 2
charge: -1
Formula: C6H10O4
SMILES: CC(C)(CC(=O)O)C(=O)O
Method: HCD
Collision_energy: [28.333334]
Isolation_window: 4.0
Ion_mode: N
Num Peaks: 28
41.0031	0.4
41.9984	0.5
43.0188	0.4
57.0344	1.2
59.0136	0.9
69.0344	0.4
71.0136	0.4
73.0293	0.5
79.9571	0.6
81.0343	1.2
83.0137	0.8
83.0500	9.0
98.0007	0.4
99.0449	0.5
101.0242	3.1
101.0563	0.6
101.0604	100.0
101.0665	1.9
101.0705	0.4
102.0558	0.8
127.0398	6.0
128.0352	0.4
145.0141	0.7
145.0503	57.7
145.0564	1.0
145.0607	0.9
145.0635	0.5
145.0980	1.2

Name: 2,3-Bis((4-hydroxy-3-methoxyphenyl)methyl)butane-1,4-diol
PrecursorMZ: 361.1659
RT: 36.2889
ExactMass: 362.17293854
Spectrum_type: 2
charge: -1
Formula: C20H26O6
SMILES: COC1=C(C=CC(=C1)CC(CO)C(CC2=CC(=C(C=C2)O)OC)CO)O
Method: HCD
Collision_energy: [28.333334]
Isolation_window: 4.0
Ion_mode: N
Num Peaks: 9
96.9598	3.4
114.0557	2.5
128.0349	2.6
263.0226	2.4
271.1698	3.4
317.1756	7.0
343.1546	3.3
361.1655	100.0
362.1691	5.9

Name: 2,5-Dihydroxybenzenesulfonic Acid
PrecursorMZ: 188.98656
RT: 38.2829
ExactMass: 189.99359446
Spectrum_type: 2
charge: -1
Formula: C6H6O5S
SMILES: C1=CC(=C(C=C1O)S(=O)(=O)O)O
Method: HCD
Collision_energy: [28.333334]
Isolation_window: 4.0
Ion_mode: N
Num Peaks: 12
41.9984	12.8
59.0136	12.8
79.9571	52.5
80.9650	92.1
97.0293	27.8
106.9806	16.3
107.0501	20.1
109.0294	17.7
125.0243	16.8
135.0450	17.5
188.9532	21.0
188.9862	100.0

Name: 2-(1-hydroxyethyl)-4-(2-hydroxypropyl)-2H-furan-5-one
PrecursorMZ: 185.0823
RT: 8.5629
ExactMass: 186.08920892
Spectrum_type: 2
charge: -1
Formula: C9H14O4
SMILES: CC(CC1=CC(OC1=O)C(C)O)O
Method: HCD
Collision_energy: [28.333334]
Isolation_window: 4.0
Ion_mode: N
Num Peaks: 39
40.0191	5.5
41.0031	7.8
41.9984	27.1
55.0187	12.8
57.0344	5.3
59.0137	17.0
63.9623	8.3
69.0344	9.0
71.0137	7.3
73.0293	13.0
81.0344	7.5
83.0136	7.0
84.0089	7.4
85.0293	16.6
87.0086	6.7
95.0249	5.8
95.0501	5.0
97.0293	7.9
99.0198	11.4
99.0450	16.4
111.0086	21.3
111.0449	6.6
111.0562	19.7
111.0814	31.8
113.0243	12.8
113.0355	48.2
121.0293	5.6
122.0722	7.0
123.0450	18.8
123.0814	6.6
125.0243	85.2
137.0608	9.0
141.0668	12.2
167.0349	12.9
185.0455	83.6
185.0566	26.4
185.0819	100.0
185.1013	6.8
185.1184	5.5

Name: 2-(2-((2-Acetamido-4-methylpentanoyl)amino)propanoylamino)-3-hydroxypropanoic acid
PrecursorMZ: 330.16737
RT: 17.2991
ExactMass: 331.17433553
Spectrum_type: 2
charge: -1
Formula: C14H25N3O6
SMILES: CC(C)CC(C(=O)NC(C)C(=O)NC(CO)C(=O)O)NC(=O)C
Method: HCD
Collision_energy: [28.333334]
Isolation_window: 4.0
Ion_mode: N
Num Peaks: 32
74.0244	7.5
88.0401	100.0
96.9597	14.5
100.0401	6.5
114.0556	11.1
127.0509	5.5
128.0350	4.7
130.0869	36.4
136.1128	7.7
138.0556	19.7
140.0713	19.7
145.0615	10.3
146.0454	6.2
153.0665	5.2
155.0822	7.5
157.1342	6.7
171.0770	14.2
179.1187	4.4
180.1026	98.0
181.0613	6.8
197.1292	17.7
199.0718	7.1
201.1240	19.8
223.1084	41.6
224.0925	5.0
241.1190	11.3
268.1662	9.2
312.1561	29.1
330.1304	18.4
330.1668	90.7
330.2361	7.3
331.1696	4.7

Name: 2-(2-((Z)-pent-2-enyl)-3-(3,4,5-trihydroxy-6-(hydroxymethyl)oxan-2-yl)oxycyclopentyl)acetic acid
PrecursorMZ: 373.18708
RT: 37.5584
ExactMass: 374.19406791
Spectrum_type: 2
charge: -1
Formula: C18H30O8
SMILES: CC/C=C\CC1C(CCC1OC2C(C(C(C(O2)CO)O)O)O)CC(=O)O
Method: HCD
Collision_energy: [28.333334]
Isolation_window: 4.0
Ion_mode: N
Num Peaks: 17
57.0345	2.4
96.9599	3.6
101.0243	61.0
128.0351	2.9
148.9782	3.4
148.9873	3.2
171.1026	3.9
184.0766	2.7
209.1545	11.5
227.1651	27.3
253.1444	2.6
271.1550	54.3
272.1581	2.5
289.1656	2.9
355.1762	10.1
373.1866	100.0
374.1898	6.0

Name: 2-(4,5-dihydroxy-7,7a-dimethyl-2-oxo-5,6,7,7b-tetrahydro-4H-naphtho(1,2-b)oxiren-1a-yl)prop-2-enyl 2,3,4-trihydroxybutanoate
PrecursorMZ: 397.15087
RT: 24.2797
ExactMass: 398.1576824
Spectrum_type: 2
charge: -1
Formula: C19H26O9
SMILES: CC1CC(C(C2=CC(=O)C3(C(C12C)O3)C(=C)COC(=O)C(C(CO)O)O)O)O
Method: HCD
Collision_energy: [28.333334]
Isolation_window: 4.0
Ion_mode: N
Num Peaks: 8
96.9598	58.1
148.9777	14.8
148.9863	17.8
249.1492	25.0
293.1393	29.8
337.1290	100.0
397.1502	29.0
397.2229	75.1

Name: 2-)2-)(Z)-pent-2-enyl(-3-)3,4,5-trihydroxy-6-(hydroxymethyl)oxan-2-yl(oxycyclopentyl(acetic acid
PrecursorMZ: 373.18681
RT: 32.5447
ExactMass: 374.19406791
Spectrum_type: 2
charge: -1
Formula: C18H30O8
SMILES: CC/C=C\CC1C(CCC1OC2C(C(C(C(O2)CO)O)O)O)CC(=O)O
Method: HCD
Collision_energy: [28.333334]
Isolation_window: 4.0
Ion_mode: N
Num Peaks: 13
112.5236	13.0
114.9594	14.4
116.0624	13.9
117.3742	13.8
126.7555	15.4
144.3388	17.6
171.1211	23.7
173.4821	63.1
192.1624	21.1
202.1635	19.6
243.6946	23.8
263.1074	21.5
355.1763	100.0

Name: 2-Amino-3-hydroxybutanoic acid
PrecursorMZ: 118.05103
RT: 4.2401
ExactMass: 119.058243149
Spectrum_type: 2
charge: -1
Formula: C4H9NO3
SMILES: CC(C(C(=O)O)N)O
Method: HCD
Collision_energy: [28.333334]
Isolation_window: 4.0
Ion_mode: N
Num Peaks: 7
44.9981	0.3
72.0090	1.5
74.0246	100.0
74.0270	1.0
74.0292	0.2
118.0509	15.2
118.0547	0.2

Name: 2-Aminophenol
PrecursorMZ: 108.04568
RT: 3.4224
ExactMass: 109.052763847
Spectrum_type: 2
charge: -1
Formula: C6H7NO
SMILES: C1=CC=C(C(=C1)N)O
Method: HCD
Collision_energy: [28.333334]
Isolation_window: 4.0
Ion_mode: N
Num Peaks: 3
41.9984	5.4
107.0374	6.4
108.0452	100.0

Name: 2-Dec-9-enyl-3-hydroxypentanedioic acid
PrecursorMZ: 285.1709
RT: 30.1153
ExactMass: 286.17802393
Spectrum_type: 2
charge: -1
Formula: C15H26O5
SMILES: C=CCCCCCCCCC(C(CC(=O)O)O)C(=O)O
Method: HCD
Collision_energy: [28.333334]
Isolation_window: 4.0
Ion_mode: N
Num Peaks: 18
59.0136	6.8
87.0085	4.8
88.0401	5.6
96.9598	100.0
97.0656	23.3
114.0558	7.5
116.0714	5.3
123.0811	5.1
125.0969	47.0
128.0351	10.8
148.9787	6.1
148.9877	6.0
167.0711	5.2
241.0728	11.9
267.1600	41.9
285.1706	72.6
285.2071	5.4
285.2706	7.1

Name: 2-Furancarboxylic acid
PrecursorMZ: 111.00902
RT: 12.2644
ExactMass: 112.016043985
Spectrum_type: 2
charge: -1
Formula: C5H4O3
SMILES: C1=COC(=C1)C(=O)O
Method: HCD
Collision_energy: [28.333334]
Isolation_window: 4.0
Ion_mode: N
Num Peaks: 12
41.0031	11.3
41.9984	57.1
49.0082	7.2
55.0187	7.5
67.0187	32.5
79.9571	28.4
80.9650	3.1
83.0136	3.5
95.9520	5.4
110.9755	100.0
111.0085	15.9
111.0197	44.9

Name: 2-Furancarboxylic acid, 5-methyl-
PrecursorMZ: 125.02467
RT: 10.6609
ExactMass: 126.031694049
Spectrum_type: 2
charge: -1
Formula: C6H6O3
SMILES: CC1=CC=C(O1)C(=O)O
Method: HCD
Collision_energy: [28.333334]
Isolation_window: 4.0
Ion_mode: N
Num Peaks: 9
41.0031	6.5
41.9983	5.2
55.0187	25.2
81.0343	4.4
81.0455	10.3
97.0292	8.7
125.0241	100.0
125.0352	4.2
125.0434	4.1

Name: 2-Hydroxyhexanoic acid
PrecursorMZ: 131.07129
RT: 9.3653
ExactMass: 132.078644241
Spectrum_type: 2
charge: -1
Formula: C6H12O3
SMILES: CCCCC(C(=O)O)O
Method: HCD
Collision_energy: [28.333334]
Isolation_window: 4.0
Ion_mode: N
Num Peaks: 13
43.8567	14.3
50.0735	13.2
54.6581	12.5
58.7736	14.7
60.9570	13.0
71.7328	14.3
80.2463	20.9
85.0656	100.0
89.1717	12.9
91.9194	14.6
100.8042	14.5
100.9334	45.1
122.6132	14.1

Name: 2-Hydroxyisobutyrate
PrecursorMZ: 103.0402
RT: 6.3887
ExactMass: 103.039519081
Spectrum_type: 2
charge: -1
Formula: C4H7O3-
SMILES: CC(C)(C(=O)[O-])O
Method: HCD
Collision_energy: [28.333334]
Isolation_window: 4.0
Ion_mode: N
Num Peaks: 10
44.9981	0.5
57.0343	68.8
57.0368	1.9
59.0136	3.9
85.0293	1.8
101.0242	1.6
103.0353	0.6
103.0397	100.0
103.0438	2.0
103.0477	1.0

Name: 2-Isopropylmalic acid
PrecursorMZ: 175.06147
RT: 21.438
ExactMass: 176.06847348
Spectrum_type: 2
charge: -1
Formula: C7H12O5
SMILES: CC(C)C(CC(=O)O)(C(=O)O)O
Method: HCD
Collision_energy: [28.333334]
Isolation_window: 4.0
Ion_mode: N
Num Peaks: 29
41.9984	2.5
44.9980	4.3
57.0344	5.5
59.0137	6.2
71.0136	1.9
71.0500	4.7
73.0293	3.1
79.9571	4.2
80.9650	2.4
81.0344	4.0
83.0500	10.2
85.0656	35.5
87.0449	4.6
95.0500	5.5
97.0293	1.8
101.0242	1.8
111.0449	11.2
113.0242	1.9
113.0606	47.5
115.0398	25.8
116.0715	6.4
123.0562	13.0
129.0555	33.7
131.0348	3.7
131.0711	25.8
132.0301	3.0
157.0504	19.0
166.5317	1.9
175.0609	100.0

Name: 2-Keto-3-deoxy-D-gluconic acid
PrecursorMZ: 177.04073
RT: 6.6846
ExactMass: 178.04773803
Spectrum_type: 2
charge: -1
Formula: C6H10O6
SMILES: C([C@H]([C@@H](CO)O)O)C(=O)C(=O)O
Method: HCD
Collision_energy: [28.333334]
Isolation_window: 4.0
Ion_mode: N
Num Peaks: 19
41.0031	1.1
43.0188	3.7
44.9980	0.7
57.0344	9.0
59.0136	6.5
69.0344	0.6
71.0136	2.3
72.9929	2.2
73.0293	2.1
75.0085	2.6
85.0293	3.9
87.0085	100.0
87.0126	1.8
96.9599	14.5
99.0086	1.1
129.0192	9.5
176.9170	0.8
177.0404	10.9
177.0770	1.0

Name: 2-Keto-3-deoxy-d-gluconic acid
PrecursorMZ: 177.04054
RT: 6.275
ExactMass: 178.04773803
Spectrum_type: 2
charge: -1
Formula: C6H10O6
SMILES: C([C@H]([C@@H](CO)O)O)C(=O)C(=O)O
Method: HCD
Collision_energy: [28.333334]
Isolation_window: 4.0
Ion_mode: N
Num Peaks: 20
46.2720	3.8
51.6445	3.7
59.8044	3.9
61.1268	3.6
65.0053	4.0
81.7266	4.1
86.7816	4.7
87.0085	100.0
90.7717	4.2
94.9806	5.2
99.6760	4.2
103.3914	3.7
111.0602	4.1
129.0190	10.7
131.4882	4.0
148.7630	3.8
149.2033	3.8
154.9531	4.3
173.4799	8.2
173.7103	4.2

Name: 2-Methoxy-12-methyloctadec-17-en-5-ynoyl anhydride
PrecursorMZ: 159.06648
RT: 22.6314
ExactMass: 626.4910252
Spectrum_type: 2
charge: -1
Formula: C40H66O5
SMILES: CC(CCCCCC#CCCC(C(=O)OC(=O)C(CCC#CCCCCCC(C)CCCCC=C)OC)OC)CCCCC=C
Method: HCD
Collision_energy: [28.333334]
Isolation_window: 4.0
Ion_mode: N
Num Peaks: 24
41.0032	0.4
41.9984	0.4
59.0137	0.6
69.0344	1.5
72.9930	0.7
81.0344	0.5
83.0501	0.4
85.0293	0.4
95.0501	24.2
95.0534	0.4
97.0294	0.9
97.0656	100.0
97.0691	1.1
97.0713	1.3
97.0728	1.0
97.0750	0.4
115.0400	0.9
115.0763	37.2
141.0557	0.7
159.0300	2.4
159.0507	0.4
159.0662	60.9
159.0786	0.4
159.0818	0.4

Name: 2-Methyl-4-pentenoic acid
PrecursorMZ: 113.06075
RT: 23.9707
ExactMass: 114.068079557
Spectrum_type: 2
charge: -1
Formula: C6H10O2
SMILES: CC(CC=C)C(=O)O
Method: HCD
Collision_energy: [28.333334]
Isolation_window: 4.0
Ion_mode: N
Num Peaks: 18
42.1176	1.3
42.1646	1.4
46.2955	1.3
57.8439	1.4
59.1090	1.4
60.5885	1.2
60.8914	1.4
62.2141	1.3
67.7250	1.2
68.9956	100.0
68.9979	3.9
71.0649	1.3
74.9587	1.5
77.1247	1.3
79.0646	1.4
79.2235	1.5
86.3925	1.3
112.9853	3.7

Name: 2-Methylbenzoic acid
PrecursorMZ: 135.04544
RT: 17.5283
ExactMass: 136.052429494
Spectrum_type: 2
charge: -1
Formula: C8H8O2
SMILES: CC1=CC=CC=C1C(=O)O
Method: HCD
Collision_energy: [28.333334]
Isolation_window: 4.0
Ion_mode: N
Num Peaks: 3
91.0552	100.0
91.0578	1.9
135.0451	0.9

Name: 2-Methylbutyrylglycine
PrecursorMZ: 158.0825
RT: 8.043
ExactMass: 159.08954328
Spectrum_type: 2
charge: -1
Formula: C7H13NO3
SMILES: CCC(C)C(=O)NCC(=O)O
Method: HCD
Collision_energy: [28.333334]
Isolation_window: 4.0
Ion_mode: N
Num Peaks: 15
41.9984	1.5
57.0344	1.2
74.0245	100.0
74.0283	2.1
84.0453	1.7
86.0610	20.9
96.0453	3.7
112.0403	14.6
114.0560	6.1
114.0923	6.2
116.0716	1.4
130.0873	2.2
156.0302	1.9
158.0459	48.4
158.0822	44.9

Name: 2-Methylglutaric Acid
PrecursorMZ: 145.05096
RT: 22.6865
ExactMass: 146.0579088
Spectrum_type: 2
charge: -1
Formula: C6H10O4
SMILES: CC(CCC(=O)O)C(=O)O
Method: HCD
Collision_energy: [28.333334]
Isolation_window: 4.0
Ion_mode: N
Num Peaks: 4
83.0502	8.9
101.0607	100.0
127.0401	6.3
145.0506	18.2

Name: 2-Oxoadipic acid
PrecursorMZ: 159.03016
RT: 26.6206
ExactMass: 160.03717335
Spectrum_type: 2
charge: -1
Formula: C6H8O5
SMILES: C(CC(=O)C(=O)O)CC(=O)O
Method: HCD
Collision_energy: [28.333334]
Isolation_window: 4.0
Ion_mode: N
Num Peaks: 13
59.0136	9.8
71.0136	6.3
71.0500	20.5
75.0085	7.2
83.0500	9.1
87.0085	11.9
87.0448	6.8
97.0293	5.5
97.0656	21.4
115.0398	100.0
115.0762	30.6
159.0296	27.5
159.0660	32.7

Name: 2-Oxoglutaric Acid
PrecursorMZ: 145.01424
RT: 25.5897
ExactMass: 146.02152329
Spectrum_type: 2
charge: -1
Formula: C5H6O5
SMILES: C(CC(=O)O)C(=O)C(=O)O
Method: HCD
Collision_energy: [28.333334]
Isolation_window: 4.0
Ion_mode: N
Num Peaks: 15
41.4464	2.2
41.8426	2.8
45.3492	2.2
46.0822	2.6
46.4032	2.5
57.0345	3.0
61.5582	2.5
68.3233	2.3
74.6312	2.3
74.7969	2.3
99.6645	2.7
101.0204	2.9
101.0242	100.0
109.4660	3.2
155.9195	2.6

Name: 2-Oxovaleric acid
PrecursorMZ: 115.04006
RT: 5.6939
ExactMass: 116.047344113
Spectrum_type: 2
charge: -1
Formula: C5H8O3
SMILES: CCCC(=O)C(=O)O
Method: HCD
Collision_energy: [28.333334]
Isolation_window: 4.0
Ion_mode: N
Num Peaks: 18
41.0032	18.4
45.4467	5.5
48.8012	6.1
50.7271	5.5
53.2709	5.9
59.0138	14.3
62.7159	5.4
64.3708	5.7
65.6241	5.9
71.0140	6.2
71.0501	100.0
75.3979	6.6
85.8570	6.7
95.2335	6.6
97.0293	22.1
101.9659	7.0
115.0399	54.2
117.8823	6.6

Name: 2-Phenylethyl 3-O-(4-carboxy-3-hydroxy-3-methylbutanoyl)-beta-D-glucopyranoside
PrecursorMZ: 427.16218
RT: 9.1623
ExactMass: 428.16824709
Spectrum_type: 2
charge: -1
Formula: C20H28O10
SMILES: CC(CC(=O)O)(CC(=O)O[C@H]1[C@@H]([C@H](O[C@H]([C@@H]1O)OCCC2=CC=CC=C2)CO)O)O
Method: HCD
Collision_energy: [28.333334]
Isolation_window: 4.0
Ion_mode: N
Num Peaks: 27
113.4895	24.3
115.2324	20.2
120.5853	20.7
120.8258	24.6
121.9027	27.3
128.6099	26.6
147.3322	38.7
147.3391	73.2
147.3458	100.0
147.3525	68.2
147.3592	38.7
157.3241	26.1
170.3988	33.0
173.4758	32.6
173.4832	59.7
175.5695	28.3
182.0699	28.5
184.7856	34.6
187.1218	29.9
199.0072	68.9
214.8052	30.5
305.5031	36.8
305.7359	35.1
312.0991	80.4
322.0513	35.5
412.9279	31.9
430.3035	36.2

Name: 2-oxo-1-(2-oxo-2-(phenylamino)ethyl)-N-propyl-1,2-dihydroquinoline-4-carboxamide
PrecursorMZ: 362.15178
RT: 14.6633
ExactMass: 363.15829154
Spectrum_type: 2
charge: -1
Formula: C21H21N3O3
SMILES: CCCNC(=O)C1=CC(=O)N(C2=CC=CC=C21)CC(=O)NC3=CC=CC=C3
Method: HCD
Collision_energy: [28.333334]
Isolation_window: 4.0
Ion_mode: N
Num Peaks: 17
88.0401	14.4
96.9597	6.8
116.0714	6.3
128.0350	7.0
148.9819	6.5
148.9904	4.7
158.0820	5.1
167.0823	4.3
169.0615	6.4
202.0718	8.3
229.0826	5.8
248.1136	6.1
353.1457	6.1
362.1511	100.0
362.2019	10.1
362.6527	35.3
522.2304	5.1

Name: 2H-(1,6)Dioxacycloundecino(2,3,4-gh)pyrrolizine-2,6(3H)-dione, 4,5,8,10,12,13,13a,13b-octahydro-3,4-dihydroxy-3,4,5-trimethyl-, 11-oxide
PrecursorMZ: 201.1134
RT: 30.2896
ExactMass: 341.14745207
Spectrum_type: 2
charge: -1
Formula: C16H23NO7
SMILES: CC1C(=O)OCC2=CC[N+]3(C2C(CC3)OC(=O)C(C1(C)O)(C)O)[O-]
Method: HCD
Collision_energy: [28.333334]
Isolation_window: 4.0
Ion_mode: N
Num Peaks: 24
41.9984	8.4
57.0344	2.6
59.0136	6.7
71.0136	3.6
71.0500	8.9
74.0245	3.5
79.9571	7.2
80.9649	3.8
86.0245	3.7
88.0402	4.3
97.0657	6.7
102.0559	4.5
111.0813	2.6
113.0429	6.6
114.0558	4.4
116.0716	2.6
127.0511	3.0
128.0351	6.8
137.0970	3.2
139.1126	100.0
201.0224	7.1
201.0698	2.8
201.1131	61.4
201.1495	2.5

Name: 3,3-Dimethylglutaric acid
PrecursorMZ: 159.0664
RT: 24.5203
ExactMass: 160.07355886
Spectrum_type: 2
charge: -1
Formula: C7H12O4
SMILES: CC(C)(CC(=O)O)CC(=O)O
Method: HCD
Collision_energy: [28.333334]
Isolation_window: 4.0
Ion_mode: N
Num Peaks: 26
41.9984	0.1
59.0137	0.2
69.0344	0.1
71.0501	0.1
79.9572	0.1
83.0501	0.2
95.0501	0.2
97.0293	0.2
97.0658	3.1
98.0008	1.5
115.0401	0.2
115.0762	100.0
115.0803	1.3
115.0835	1.2
115.0856	0.9
115.0882	0.3
115.0913	0.1
115.0939	0.1
141.0557	7.4
159.0297	0.2
159.0507	0.3
159.0538	0.3
159.0662	51.1
159.0786	0.3
159.0818	0.4
159.0857	0.1

Name: 3,4,5,6-Tetrahydro-2-oxo-2h-1,6-benzoxazocine-8-carboxylic acid
PrecursorMZ: 220.06178
RT: 30.4082
ExactMass: 221.06880783
Spectrum_type: 2
charge: -1
Formula: C11H11NO4
SMILES: C1CC(=O)OC2=C(C=C(C=C2)C(=O)O)NC1
Method: HCD
Collision_energy: [28.333334]
Isolation_window: 4.0
Ion_mode: N
Num Peaks: 16
59.0137	3.5
69.0344	25.8
71.0136	2.1
88.0402	2.0
89.0066	2.5
107.0375	5.2
108.0453	3.3
114.0559	8.8
116.0715	2.6
128.0351	3.0
148.9735	1.9
148.9823	3.6
148.9911	2.2
176.0715	100.0
220.0613	22.9
220.6373	1.8

Name: 3,4,7-trihydroxy-7-methyl-2-((E)-prop-1-enyl)-3,4-dihydro-2H-furo(3,4-b)pyran-5-one
PrecursorMZ: 241.07219
RT: 8.919
ExactMass: 242.07903816
Spectrum_type: 2
charge: -1
Formula: C11H14O6
SMILES: C/C=C/C1C(C(C2=C(O1)C(OC2=O)(C)O)O)O
Method: HCD
Collision_energy: [28.333334]
Isolation_window: 4.0
Ion_mode: N
Num Peaks: 30
44.9980	11.3
57.0344	22.9
85.0293	13.7
97.0655	17.4
99.0449	17.6
115.0399	13.1
119.0499	23.2
125.0606	12.4
127.0398	12.9
135.0449	19.8
135.0813	15.8
137.0606	12.1
147.0449	15.8
148.9755	10.5
148.9776	12.7
148.9853	16.0
148.9934	9.7
153.1283	10.7
161.0607	10.6
165.0555	15.4
179.0712	14.1
197.0819	11.0
197.1180	32.5
241.0385	9.9
241.0716	100.0
241.1079	14.2
241.1195	10.8
241.1444	73.2
241.1565	9.6
241.2173	16.7

Name: 3,4-Dihydroxybenzaldehyde
PrecursorMZ: 137.02441
RT: 42.067
ExactMass: 138.031694049
Spectrum_type: 2
charge: -1
Formula: C7H6O3
SMILES: C1=CC(=C(C=C1C=O)O)O
Method: HCD
Collision_energy: [28.333334]
Isolation_window: 4.0
Ion_mode: N
Num Peaks: 17
40.0011	12.3
47.0452	15.5
47.9934	13.2
55.2110	13.6
64.6132	16.8
65.6498	13.9
93.7617	15.6
108.0213	33.9
115.1844	15.2
119.1721	12.7
121.4755	12.8
122.9441	12.4
127.2799	12.6
129.6467	15.0
136.8917	13.7
137.0242	100.0
140.5665	14.0

Name: 3,5-Dihydroxybenzoic Acid
PrecursorMZ: 153.01959
RT: 38.1772
ExactMass: 154.02660867
Spectrum_type: 2
charge: -1
Formula: C7H6O4
SMILES: C1=C(C=C(C=C1O)O)C(=O)O
Method: HCD
Collision_energy: [28.333334]
Isolation_window: 4.0
Ion_mode: N
Num Peaks: 12
71.0137	4.1
79.9572	64.5
80.9650	27.2
82.0059	6.7
82.9609	6.6
109.0294	100.0
110.0009	19.4
125.0244	6.0
137.9959	4.6
152.9865	6.3
153.0194	84.2
153.0921	4.7

Name: 3-(2-(2,3-dihydroxy-5,6,8a-trimethyloctahydro-2H-spiro(naphthalene-1,2'-oxiran)-5-yl)ethyl)-5-hydroxyfuran-2(5H)-one
PrecursorMZ: 365.19723
RT: 8.9612
ExactMass: 366.20423867
Spectrum_type: 2
charge: -1
Formula: C20H30O6
SMILES: CC1CCC2(C(C1(C)CCC3=CC(OC3=O)O)CC(C(C24CO4)O)O)C
Method: HCD
Collision_energy: [28.333334]
Isolation_window: 4.0
Ion_mode: N
Num Peaks: 3
96.9597	23.9
335.1860	59.2
365.1966	100.0

Name: 3-(2-(6,7-dihydroxy-1,2,4a-trimethylspiro(3,4,6,7,8,8a-hexahydro-2H-naphthalene-5,2'-oxirane)-1-yl)ethyl)-2-hydroxy-2H-furan-5-one
PrecursorMZ: 365.19726
RT: 10.8453
ExactMass: 366.20423867
Spectrum_type: 2
charge: -1
Formula: C20H30O6
SMILES: CC1CCC2(C(C1(C)CCC3=CC(=O)OC3O)CC(C(C24CO4)O)O)C
Method: HCD
Collision_energy: [28.333334]
Isolation_window: 4.0
Ion_mode: N
Num Peaks: 6
80.9649	3.5
96.9598	24.0
317.1756	3.9
365.1586	4.5
365.1967	100.0
366.1999	6.1

Name: 3-Amino-5-hydroxybenzoic acid
PrecursorMZ: 152.03555
RT: 14.6491
ExactMass: 153.042593085
Spectrum_type: 2
charge: -1
Formula: C7H7NO3
SMILES: C1=C(C=C(C=C1N)O)C(=O)O
Method: HCD
Collision_energy: [28.333334]
Isolation_window: 4.0
Ion_mode: N
Num Peaks: 10
41.9984	0.5
66.0324	0.7
66.0347	79.2
66.0375	1.9
93.0219	2.0
108.0453	100.0
108.0491	0.7
108.0520	1.0
152.0353	26.5
152.0716	0.5

Name: 3-Ethylphenol
PrecursorMZ: 121.06613
RT: 35.2808
ExactMass: 122.073164938
Spectrum_type: 2
charge: -1
Formula: C8H10O
SMILES: CCC1=CC(=CC=C1)O
Method: HCD
Collision_energy: [28.333334]
Isolation_window: 4.0
Ion_mode: N
Num Peaks: 4
106.0424	31.5
119.0502	34.6
121.0295	100.0
121.0659	76.2

Name: 3-HYDROXY-4-(SUCCIN-2-YL)-CARYOLANE delta-LACTONE
PrecursorMZ: 319.19177
RT: 22.751
ExactMass: 320.19875937
Spectrum_type: 2
charge: -1
Formula: C19H28O4
SMILES: C[C@@]12CCC3C(CC(=O)O[C@]3(C1)C4CC(C4CC2)(C)C)C(=O)O
Method: HCD
Collision_energy: [28.333334]
Isolation_window: 4.0
Ion_mode: N
Num Peaks: 7
124.0765	4.2
150.0920	3.7
275.2013	3.1
291.1709	3.7
319.1666	15.7
319.1911	100.0
320.1943	4.5

Name: 3-Hydroxy-3-methylglutaric acid
PrecursorMZ: 161.04593
RT: 21.7824
ExactMass: 162.05282342
Spectrum_type: 2
charge: -1
Formula: C6H10O5
SMILES: CC(CC(=O)O)(CC(=O)O)O
Method: HCD
Collision_energy: [28.333334]
Isolation_window: 4.0
Ion_mode: N
Num Peaks: 10
41.0032	4.6
57.0345	100.0
59.0138	24.0
63.9446	1.8
71.0502	3.0
99.0451	59.7
101.0244	14.4
117.0557	3.0
143.0350	2.9
161.0455	9.6

Name: 3-Hydroxyanthranilic Acid
PrecursorMZ: 152.03565
RT: 13.2763
ExactMass: 153.042593085
Spectrum_type: 2
charge: -1
Formula: C7H7NO3
SMILES: C1=CC(=C(C(=C1)O)N)C(=O)O
Method: HCD
Collision_energy: [28.333334]
Isolation_window: 4.0
Ion_mode: N
Num Peaks: 3
65.9983	33.6
108.0452	100.0
152.0351	61.2

Name: 3-Hydroxybutanoic acid, (R)-
PrecursorMZ: 103.04023
RT: 6.3941
ExactMass: 104.047344113
Spectrum_type: 2
charge: -1
Formula: C4H8O3
SMILES: C[C@H](CC(=O)O)O
Method: HCD
Collision_energy: [28.333334]
Isolation_window: 4.0
Ion_mode: N
Num Peaks: 3
57.0345	100.0
59.0138	5.7
103.0400	75.5

Name: 3-Hydroxybutyric Acid
PrecursorMZ: 103.04011
RT: 5.1482
ExactMass: 104.047344113
Spectrum_type: 2
charge: -1
Formula: C4H8O3
SMILES: CC(CC(=O)O)O
Method: HCD
Collision_energy: [28.333334]
Isolation_window: 4.0
Ion_mode: N
Num Peaks: 16
41.0031	5.7
57.0344	13.3
57.0369	0.4
59.0136	100.0
59.0162	2.8
59.0191	0.2
59.0500	0.3
73.0293	1.6
85.0293	4.0
101.0242	2.0
103.0353	0.2
103.0397	37.5
103.0438	0.7
103.0463	0.7
103.0502	0.2
103.0592	0.3

Name: 3-Hydroxyglutaric acid
PrecursorMZ: 147.03003
RT: 21.5818
ExactMass: 148.03717335
Spectrum_type: 2
charge: -1
Formula: C5H8O5
SMILES: C(C(CC(=O)O)O)C(=O)O
Method: HCD
Collision_energy: [28.333334]
Isolation_window: 4.0
Ion_mode: N
Num Peaks: 25
43.0188	7.8
57.0344	24.2
59.0136	13.3
71.0136	6.2
73.0292	5.2
75.0085	8.8
79.9571	2.9
83.0500	10.7
85.0292	100.0
87.0085	9.8
89.0242	4.9
99.0449	7.6
101.0242	15.4
101.0606	10.9
102.0558	8.1
103.0398	19.5
103.0591	29.9
103.0649	7.0
129.0190	66.4
129.0384	20.2
147.0296	46.7
147.0489	21.3
147.0550	8.4
147.0661	4.8
151.0333	3.5

Name: 3-Hydroxyisobutyric acid
PrecursorMZ: 103.04028
RT: 5.4613
ExactMass: 104.047344113
Spectrum_type: 2
charge: -1
Formula: C4H8O3
SMILES: CC(CO)C(=O)O
Method: HCD
Collision_energy: [28.333334]
Isolation_window: 4.0
Ion_mode: N
Num Peaks: 5
41.0032	7.4
57.0345	44.7
59.0138	100.0
73.0294	14.4
103.0400	30.7

Name: 3-Hydroxyisovaleric acid
PrecursorMZ: 117.05589
RT: 6.3826
ExactMass: 118.062994177
Spectrum_type: 2
charge: -1
Formula: C5H10O3
SMILES: CC(C)(CC(=O)O)O
Method: HCD
Collision_energy: [28.333334]
Isolation_window: 4.0
Ion_mode: N
Num Peaks: 10
41.0031	4.5
59.0136	100.0
59.0162	2.6
71.0500	8.7
73.0293	4.9
87.0449	14.7
116.9283	1.0
117.0191	1.9
117.0554	40.2
117.0748	3.7

Name: 3-Hydroxypicolinic Acid
PrecursorMZ: 138.01973
RT: 30.584
ExactMass: 139.026943022
Spectrum_type: 2
charge: -1
Formula: C6H5NO3
SMILES: C1=CC(=C(N=C1)C(=O)O)O
Method: HCD
Collision_energy: [28.333334]
Isolation_window: 4.0
Ion_mode: N
Num Peaks: 32
40.0191	0.1
41.0032	0.2
41.9984	0.2
52.0192	0.1
66.0347	8.5
66.0368	0.3
66.0389	0.1
67.0188	0.1
72.9929	0.1
74.0245	0.2
76.0192	0.1
79.9571	0.2
87.0085	0.1
94.0258	0.7
94.0294	100.0
94.0336	2.3
94.0364	1.1
94.0385	0.4
94.0418	0.1
94.0446	0.1
100.0038	0.1
108.0215	0.1
109.0167	0.1
110.0245	0.1
115.5656	0.3
123.0323	0.1
138.0193	25.3
138.0255	0.3
138.0288	0.3
138.0317	0.2
138.0356	0.1
138.0558	0.2

Name: 3-Hydroxypyridine-2-methanol
PrecursorMZ: 124.04049
RT: 26.2575
ExactMass: 125.047678466
Spectrum_type: 2
charge: -1
Formula: C6H7NO2
SMILES: C1=CC(=C(N=C1)CO)O
Method: HCD
Collision_energy: [28.333334]
Isolation_window: 4.0
Ion_mode: N
Num Peaks: 7
61.9881	6.6
66.0347	47.1
78.0347	4.9
79.9571	5.4
94.0296	100.0
123.9462	6.1
124.0401	61.3

Name: 3-Methoxy-5-Methylphenol
PrecursorMZ: 137.06107
RT: 12.7151
ExactMass: 138.068079557
Spectrum_type: 2
charge: -1
Formula: C8H10O2
SMILES: CC1=CC(=CC(=C1)OC)O
Method: HCD
Collision_energy: [28.333334]
Isolation_window: 4.0
Ion_mode: N
Num Peaks: 8
41.0031	7.7
41.9984	5.3
93.0343	21.0
118.9419	8.0
122.0371	8.3
137.0241	12.4
137.0605	100.0
137.0799	45.3

Name: 3-Methyl-2-(methylamino)pentanoic acid
PrecursorMZ: 144.10324
RT: 2.1247
ExactMass: 145.110278721
Spectrum_type: 2
charge: -1
Formula: C7H15NO2
SMILES: CCC(C)C(C(=O)O)NC
Method: HCD
Collision_energy: [28.333334]
Isolation_window: 4.0
Ion_mode: N
Num Peaks: 3
41.9984	2.9
144.0665	5.5
144.1027	100.0

Name: 3-Oxocholic acid
PrecursorMZ: 405.26501
RT: 22.8601
ExactMass: 406.27192431
Spectrum_type: 2
charge: -1
Formula: C24H38O5
SMILES: C[C@H](CCC(=O)O)[C@H]1CC[C@@H]2[C@@]1([C@H](C[C@H]3[C@H]2[C@@H](C[C@H]4[C@@]3(CCC(=O)C4)C)O)O)C
Method: HCD
Collision_energy: [28.333334]
Isolation_window: 4.0
Ion_mode: N
Num Peaks: 4
96.9598	4.7
135.0308	4.4
405.2643	100.0
406.2675	7.6

Name: 3-Tyrosine, DL-
PrecursorMZ: 180.06691
RT: 28.9884
ExactMass: 181.07389321
Spectrum_type: 2
charge: -1
Formula: C9H11NO3
SMILES: C1=CC(=CC(=C1)O)CC(C(=O)O)N
Method: HCD
Collision_energy: [28.333334]
Isolation_window: 4.0
Ion_mode: N
Num Peaks: 41
41.9984	1.2
59.0137	2.0
72.0089	11.9
74.0245	2.9
79.9571	0.9
92.0504	14.9
93.0344	10.4
96.9599	2.0
106.0422	1.0
107.0500	1.2
119.0500	35.8
121.0531	1.6
122.0609	4.1
124.0766	0.9
134.0609	1.8
135.0688	0.9
136.0402	8.9
136.0766	8.0
148.0766	2.4
149.0844	3.1
158.0715	1.8
158.0822	0.8
158.5833	1.7
162.0559	1.6
163.0398	36.1
179.6017	2.8
180.0302	3.0
180.0663	100.0
180.0743	1.7
180.0806	0.9
180.0849	0.8
180.1076	4.2
180.6096	0.9
194.0821	0.8
229.0982	1.0
243.1137	2.3
257.1295	5.0
258.1328	0.8
272.1529	1.8
301.1193	0.8
316.1425	0.9

Name: 3-coumaric acid, (E)-
PrecursorMZ: 163.04037
RT: 27.6121
ExactMass: 164.047344113
Spectrum_type: 2
charge: -1
Formula: C9H8O3
SMILES: C1=CC(=CC(=C1)O)/C=C/C(=O)O
Method: HCD
Collision_energy: [28.333334]
Isolation_window: 4.0
Ion_mode: N
Num Peaks: 12
41.9984	16.2
59.0136	19.5
71.0136	5.4
72.9929	7.5
78.9588	10.7
101.0242	16.2
118.9924	5.0
119.0500	100.0
140.0828	5.4
163.0398	28.8
163.0608	15.9
163.0869	7.5

Name: 3-hydroxybenzoic acid-3-O-sulphate
PrecursorMZ: 216.98164
RT: 39.7008
ExactMass: 217.98850908
Spectrum_type: 2
charge: -1
Formula: C7H6O6S
SMILES: C1=CC(=CC(=C1)OS(=O)(=O)O)C(=O)O
Method: HCD
Collision_energy: [28.333334]
Isolation_window: 4.0
Ion_mode: N
Num Peaks: 8
79.9571	10.3
93.0344	11.9
96.9599	100.0
109.0294	3.8
137.0242	11.3
172.9913	9.6
216.9094	5.2
216.9812	54.2

Name: 4,5-Dihydroxy-3-propylcyclopent-2-EN-1-one
PrecursorMZ: 155.07164
RT: 6.7907
ExactMass: 156.078644241
Spectrum_type: 2
charge: -1
Formula: C8H12O3
SMILES: CCCC1=CC(=O)C(C1O)O
Method: HCD
Collision_energy: [28.333334]
Isolation_window: 4.0
Ion_mode: N
Num Peaks: 25
41.0031	1.2
44.9980	1.2
55.0188	2.0
59.0137	1.1
72.9929	4.0
81.0344	2.5
81.0457	6.6
83.0501	3.5
93.0457	10.6
97.0657	1.5
99.0450	5.2
107.0501	1.5
109.0406	22.8
109.0658	4.6
110.0372	1.7
111.0450	8.0
111.0814	4.4
113.0607	1.2
125.0607	12.8
137.0356	6.3
137.0608	17.2
153.0557	27.8
155.0462	21.5
155.0713	100.0
155.0830	1.3

Name: 4,6,8-Trihydroxy-3-methyl-3,4-dihydroisochromen-1-one
PrecursorMZ: 209.04581
RT: 37.9355
ExactMass: 210.05282342
Spectrum_type: 2
charge: -1
Formula: C10H10O5
SMILES: CC1C(C2=C(C(=CC(=C2)O)O)C(=O)O1)O
Method: HCD
Collision_energy: [28.333334]
Isolation_window: 4.0
Ion_mode: N
Num Peaks: 22
41.9984	3.6
59.0137	10.2
79.9571	4.1
80.9650	3.9
93.0344	8.2
96.9599	11.8
106.0423	2.4
109.0293	2.5
121.0294	73.5
121.0657	25.5
123.0449	3.8
124.0766	5.7
137.0243	12.0
137.0607	2.9
150.0322	2.8
165.0193	26.7
165.0556	100.0
209.0092	9.8
209.0455	22.0
209.0849	22.5
209.1183	8.0
209.1547	24.2

Name: 4,6-O-Ethylidene-alpha-D-glucopyranose
PrecursorMZ: 251.07746
RT: 2.2472
ExactMass: 206.07903816
Spectrum_type: 2
charge: -1
Formula: C8H14O6
SMILES: CC1OC[C@@H]2[C@@H](O1)[C@@H]([C@H]([C@H](O2)O)O)O
Method: HCD
Collision_energy: [28.333334]
Isolation_window: 4.0
Ion_mode: N
Num Peaks: 32
44.9981	5.3
55.0188	4.4
57.0344	5.8
59.0137	60.8
71.0136	78.2
73.0293	42.5
83.0137	4.7
85.0293	25.6
87.0086	58.1
89.0242	29.6
94.0296	5.9
95.0136	7.9
97.0289	5.7
99.0086	7.9
101.0242	37.3
112.0515	9.4
113.0242	41.9
117.0191	4.5
125.0242	5.7
129.0191	3.8
131.0348	6.9
134.0470	5.4
135.0503	4.8
138.0671	17.3
143.0348	6.0
161.0454	8.9
177.0766	6.0
209.1042	28.5
233.1155	4.0
251.0771	100.0
251.1134	11.5
251.1264	9.3

Name: 4,8-Dihydroxy-3,7,8-trimethyl-5,7-dihydropyrano(4,3-b)pyran-2-one
PrecursorMZ: 225.07724
RT: 6.8032
ExactMass: 226.08412354
Spectrum_type: 2
charge: -1
Formula: C11H14O5
SMILES: CC1C(C2=C(CO1)C(=C(C(=O)O2)C)O)(C)O
Method: HCD
Collision_energy: [28.333334]
Isolation_window: 4.0
Ion_mode: N
Num Peaks: 50
43.0188	2.7
55.0187	2.8
57.0344	3.1
59.0136	55.1
59.0162	1.5
67.0187	2.1
68.9980	1.7
71.0137	1.6
81.0343	3.0
83.0500	4.2
93.0343	1.7
95.0500	9.4
97.0292	2.0
97.0657	2.0
99.0449	4.2
107.0500	4.1
108.0452	2.0
109.0656	7.0
111.0449	2.0
121.0657	4.6
123.0449	2.4
125.0242	2.1
125.0606	16.3
125.0718	5.4
127.0398	4.7
135.0449	2.3
136.0527	4.8
137.0241	3.1
137.0355	3.5
137.0606	11.4
137.0718	3.4
137.0968	1.7
138.0319	2.3
139.0398	3.4
139.0762	6.1
151.0762	19.5
153.0555	1.9
163.0762	5.9
163.0874	5.5
165.0555	4.9
169.0504	21.5
181.0868	9.7
183.0660	36.3
207.0660	2.3
225.0433	2.4
225.0766	100.0
225.0875	3.7
225.1130	19.0
225.1246	2.1
226.0800	1.5

Name: 4-)2-)(1R,4aS,5R,8aS)-6-hydroxy-5-(hydroxymethyl)-5,8a-dimethyl-2-methylidene-3,4,4a,6,7,8-hexahydro-1H-naphthalen-1-yl(ethyl(-2H-furan-5-one
PrecursorMZ: 379.21239
RT: 19.2703
ExactMass: 334.21440943
Spectrum_type: 2
charge: -1
Formula: C20H30O4
SMILES: C[C@@]12CCC([C@@]([C@H]1CCC(=C)[C@H]2CCC3=CCOC3=O)(C)CO)O
Method: HCD
Collision_energy: [28.333334]
Isolation_window: 4.0
Ion_mode: N
Num Peaks: 18
53.3260	11.3
65.1081	13.2
73.5486	13.7
80.1724	13.9
92.4262	12.3
100.1974	11.8
108.7151	13.4
117.2649	12.2
118.3170	11.8
137.7085	13.1
147.3449	25.5
173.4822	100.0
179.0719	19.3
225.4212	12.0
229.0796	12.7
247.2544	15.2
341.3143	13.5
379.2126	16.5

Name: 4-Acetamidobutyric acid
PrecursorMZ: 144.06677
RT: 4.6175
ExactMass: 145.07389321
Spectrum_type: 2
charge: -1
Formula: C6H11NO3
SMILES: CC(=O)NCCCC(=O)O
Method: HCD
Collision_energy: [28.333334]
Isolation_window: 4.0
Ion_mode: N
Num Peaks: 20
41.9984	16.7
44.0140	24.1
52.0191	2.4
58.0296	2.9
66.0347	1.8
68.0503	14.5
70.0660	1.3
72.0452	5.6
83.0500	2.4
88.0401	4.4
98.0609	21.9
99.0449	2.0
100.0765	73.7
100.0804	1.4
102.0558	15.2
126.0558	16.4
144.0663	100.0
144.0723	1.7
144.0766	1.4
144.1027	5.5

Name: 4-Aminobenzoic Acid
PrecursorMZ: 136.04065
RT: 13.0591
ExactMass: 137.047678466
Spectrum_type: 2
charge: -1
Formula: C7H7NO2
SMILES: C1=CC(=CC=C1C(=O)O)N
Method: HCD
Collision_energy: [28.333334]
Isolation_window: 4.0
Ion_mode: N
Num Peaks: 12
40.0191	5.2
41.9984	11.9
43.0188	1.3
92.0503	42.9
95.0499	1.5
108.0453	1.1
121.0531	8.4
136.0402	37.9
136.0765	100.0
136.0823	1.3
136.0858	1.2
136.1072	3.7

Name: 4-Aminosalicylic Acid
PrecursorMZ: 152.03524
RT: 7.8049
ExactMass: 153.042593085
Spectrum_type: 2
charge: -1
Formula: C7H7NO3
SMILES: C1=CC(=C(C=C1N)O)C(=O)O
Method: HCD
Collision_energy: [28.333334]
Isolation_window: 4.0
Ion_mode: N
Num Peaks: 16
42.9217	0.6
47.0908	0.6
47.8838	0.6
50.8779	0.7
55.0690	0.6
69.7593	0.6
96.3610	0.6
100.0482	0.7
108.0403	0.6
108.0452	100.0
108.0492	1.1
108.0540	0.9
108.7384	0.7
125.4708	0.7
129.4666	0.7
147.9617	0.7

Name: 4-Hydroxy-3,6-dimethyl-2H-pyran-2-one
PrecursorMZ: 139.04034
RT: 19.655
ExactMass: 140.047344113
Spectrum_type: 2
charge: -1
Formula: C7H8O3
SMILES: CC1=CC(=C(C(=O)O1)C)O
Method: HCD
Collision_energy: [28.333334]
Isolation_window: 4.0
Ion_mode: N
Num Peaks: 10
41.0031	3.9
41.9984	2.9
59.0136	2.9
67.0551	7.9
80.0265	7.1
93.0344	4.4
95.0500	69.9
124.0164	30.0
139.0398	100.0
139.0498	2.2

Name: 4-Hydroxybenzaldehyde
PrecursorMZ: 121.02973
RT: 27.6121
ExactMass: 122.03677943
Spectrum_type: 2
charge: -1
Formula: C7H6O2
SMILES: C1=CC(=CC=C1C=O)O
Method: HCD
Collision_energy: [28.333334]
Isolation_window: 4.0
Ion_mode: N
Num Peaks: 9
41.9984	3.2
79.9571	1.6
92.0265	6.5
93.0344	2.4
120.0215	3.7
121.0292	100.0
121.0340	1.7
121.0396	1.6
121.0579	1.7

Name: 4-Hydroxybenzoic Acid
PrecursorMZ: 137.02442
RT: 32.8703
ExactMass: 138.031694049
Spectrum_type: 2
charge: -1
Formula: C7H6O3
SMILES: C1=CC(=CC=C1C(=O)O)O
Method: HCD
Collision_energy: [28.333334]
Isolation_window: 4.0
Ion_mode: N
Num Peaks: 13
40.8125	10.7
43.9912	10.1
46.7052	10.4
48.0710	11.1
79.4643	10.9
93.0343	100.0
101.3214	12.6
104.2043	12.4
110.4232	11.1
128.4205	10.8
130.2752	12.5
138.5852	12.8
144.1752	10.9

Name: 4-Hydroxycyclohexanecarboxylic acid
PrecursorMZ: 143.07161
RT: 5.13
ExactMass: 144.078644241
Spectrum_type: 2
charge: -1
Formula: C7H12O3
SMILES: C1CC(CCC1C(=O)O)O
Method: HCD
Collision_energy: [28.333334]
Isolation_window: 4.0
Ion_mode: N
Num Peaks: 3
97.0659	7.9
125.0607	3.6
143.0713	100.0

Name: 4-Hydroxyisoquinoline-3-carboxylic acid
PrecursorMZ: 188.03572
RT: 39.5404
ExactMass: 189.042593085
Spectrum_type: 2
charge: -1
Formula: C10H7NO3
SMILES: C1=CC=C2C(=C1)C=NC(=C2O)C(=O)O
Method: HCD
Collision_energy: [28.333334]
Isolation_window: 4.0
Ion_mode: N
Num Peaks: 17
41.9984	0.3
59.0136	6.8
79.9571	0.9
116.0503	11.9
142.0660	0.5
144.0316	0.3
144.0451	100.0
144.0512	1.5
144.0554	1.3
144.0582	0.9
144.0621	0.4
144.0816	0.9
145.0486	0.4
162.0559	1.2
166.0507	0.3
188.0351	3.5
188.0715	3.2

Name: 4-Hydroxyquinoline
PrecursorMZ: 144.0458
RT: 39.5797
ExactMass: 145.052763847
Spectrum_type: 2
charge: -1
Formula: C9H7NO
SMILES: C1=CC=C2C(=C1)C(=O)C=CN2
Method: HCD
Collision_energy: [28.333334]
Isolation_window: 4.0
Ion_mode: N
Num Peaks: 6
41.9984	3.0
79.9571	4.2
88.0401	3.2
92.9955	3.5
116.0504	6.0
144.0452	100.0

Name: 4-Methyl-1-oxo-1,2-dihydroisoquinoline-3-carboxylic acid
PrecursorMZ: 202.05123
RT: 38.1446
ExactMass: 203.058243149
Spectrum_type: 2
charge: -1
Formula: C11H9NO3
SMILES: CC1=C(NC(=O)C2=CC=CC=C12)C(=O)O
Method: HCD
Collision_energy: [28.333334]
Isolation_window: 4.0
Ion_mode: N
Num Peaks: 17
41.9984	1.0
59.0137	0.7
78.9589	0.7
79.9572	1.5
80.9650	1.1
124.0765	0.7
130.0660	1.5
157.0531	1.6
158.0609	100.0
158.0676	0.9
158.0727	1.1
158.0760	0.8
159.0644	0.9
201.9813	1.7
202.0259	1.8
202.0507	26.8
202.1102	0.8

Name: 4-Methyl-2-nitrophenol
PrecursorMZ: 152.03566
RT: 7.5125
ExactMass: 153.042593085
Spectrum_type: 2
charge: -1
Formula: C7H7NO3
SMILES: CC1=CC(=C(C=C1)O)[N+](=O)[O-]
Method: HCD
Collision_energy: [28.333334]
Isolation_window: 4.0
Ion_mode: N
Num Peaks: 5
80.0505	4.3
107.0376	5.2
108.0454	100.0
126.0560	3.7
152.0353	7.1

Name: 4-Oxododecanedioic acid
PrecursorMZ: 243.12373
RT: 31.9359
ExactMass: 244.13107373
Spectrum_type: 2
charge: -1
Formula: C12H20O5
SMILES: C(CCCC(=O)CCC(=O)O)CCCC(=O)O
Method: HCD
Collision_energy: [28.333334]
Isolation_window: 4.0
Ion_mode: N
Num Peaks: 14
70.4207	1.6
78.4657	1.5
97.7805	1.7
99.0086	7.6
128.7627	1.4
173.4799	8.1
175.9358	1.7
181.1233	7.1
199.1341	1.8
207.1028	2.5
220.5811	1.8
225.1005	2.7
225.1132	100.0
244.5644	1.5

Name: 4-butyl-N-(5-(propylsulfonyl)-1,3,4-thiadiazol-2-yl)cyclohexanecarboxamide
PrecursorMZ: 372.14166
RT: 30.2514
ExactMass: 373.14938408
Spectrum_type: 2
charge: -1
Formula: C16H27N3O3S2
SMILES: CCCCC1CCC(CC1)C(=O)NC2=NN=C(S2)S(=O)(=O)CCC
Method: HCD
Collision_energy: [28.333334]
Isolation_window: 4.0
Ion_mode: N
Num Peaks: 12
96.9598	6.5
114.0558	5.9
128.0350	100.0
146.0456	8.9
148.9793	4.3
148.9880	3.5
199.1085	2.7
225.0878	5.7
239.0670	4.4
243.0982	3.2
257.0777	6.3
372.1414	16.3

Name: 4-dodecyl-N-(1,3,4-thiadiazol-2-yl)benzenesulfonamide
PrecursorMZ: 408.17792
RT: 33.4863
ExactMass: 409.18576959
Spectrum_type: 2
charge: -1
Formula: C20H31N3O2S2
SMILES: CCCCCCCCCCCCC1=CC=C(C=C1)S(=O)(=O)NC2=NN=CS2
Method: HCD
Collision_energy: [28.333334]
Isolation_window: 4.0
Ion_mode: N
Num Peaks: 18
96.9598	9.8
116.0713	4.9
127.0509	5.0
128.0349	18.1
146.0455	3.5
148.9796	4.9
148.9888	4.3
180.0662	16.1
227.1035	4.5
247.1087	4.1
273.0876	4.2
279.1346	7.4
292.1301	4.6
390.1667	7.5
407.2801	14.7
408.1412	4.7
408.1773	21.3
408.2834	100.0

Name: 4-nitro-N-(3,4,5-trimethoxybenzyl)benzamide
PrecursorMZ: 345.10946
RT: 35.9644
ExactMass: 346.1164863
Spectrum_type: 2
charge: -1
Formula: C17H18N2O6
SMILES: COC1=CC(=CC(=C1OC)OC)CNC(=O)C2=CC=C(C=C2)[N+](=O)[O-]
Method: HCD
Collision_energy: [28.333334]
Isolation_window: 4.0
Ion_mode: N
Num Peaks: 25
96.9598	4.6
101.0242	14.3
114.0558	2.6
124.0765	2.6
128.0350	3.7
135.0449	5.6
148.9644	6.7
148.9800	3.7
148.9880	3.0
158.9253	2.3
179.0347	4.6
189.0555	6.9
202.9514	2.7
225.1130	4.0
243.1235	8.7
246.9414	22.7
256.0978	50.5
258.1133	100.0
259.1169	3.7
301.1193	14.8
303.1017	4.5
345.1092	40.6
345.1541	2.4
345.1916	4.7
345.2282	5.0

Name: 4.5-Dimethyl-3-hydroxy-2,5-dihydrofuran-2-one sulfate
PrecursorMZ: 206.99682
RT: 29.3053
ExactMass: 208.00415914
Spectrum_type: 2
charge: -1
Formula: C6H8O6S
SMILES: CC1C(=C(C(=O)O1)OS(=O)(=O)O)C
Method: HCD
Collision_energy: [28.333334]
Isolation_window: 4.0
Ion_mode: N
Num Peaks: 22
58.7680	3.6
60.6906	3.6
71.1090	4.8
78.6158	3.4
78.7162	4.0
79.0823	3.4
79.9572	22.3
80.9650	31.2
87.0451	8.2
88.5099	3.3
100.2831	4.0
117.2927	4.1
125.0242	16.7
127.0397	11.5
139.1957	3.6
151.0069	13.7
158.9834	4.0
163.0073	3.9
173.4749	4.3
173.4824	15.4
179.0018	100.0
181.7854	3.4

Name: 5-(3-Furyl)-2a',5'-dihydroxy-8b'-(hydroxymethyl)-7'-methyldodecahydrospiro)furan-3,6'-naphtho)1,8-bc(furan(-2-one
PrecursorMZ: 377.16046
RT: 27.8198
ExactMass: 378.16785316
Spectrum_type: 2
charge: -1
Formula: C20H26O7
SMILES: CC1CC2C3(C(C14CC(OC4=O)C5=COC=C5)C(CCC3(CO2)O)O)CO
Method: HCD
Collision_energy: [28.333334]
Isolation_window: 4.0
Ion_mode: N
Num Peaks: 21
99.3283	7.5
101.5240	7.6
102.4885	8.0
103.2835	7.9
111.1752	9.5
118.2030	8.8
118.7695	9.7
119.6588	11.2
122.3221	8.0
123.3143	9.3
131.9321	10.2
138.6768	13.3
153.7487	10.2
171.7099	12.4
173.4812	100.0
186.4338	13.5
186.8739	12.2
191.3884	11.3
263.9647	13.4
315.1603	81.6
333.1705	86.4

Name: 5-Acetamido-4-oxohexanoic acid
PrecursorMZ: 186.07703
RT: 4.3458
ExactMass: 187.0844579
Spectrum_type: 2
charge: -1
Formula: C8H13NO4
SMILES: CC(C(=O)CCC(=O)O)NC(=O)C
Method: HCD
Collision_energy: [28.333334]
Isolation_window: 4.0
Ion_mode: N
Num Peaks: 48
41.0031	12.7
41.9984	7.1
43.0188	35.9
58.0296	5.8
59.0137	2.4
71.0137	3.0
72.0453	1.3
78.9588	44.7
79.9571	1.8
79.9631	1.4
80.9644	2.9
82.0297	1.4
83.0500	3.8
84.0453	19.2
88.0402	1.8
96.0453	1.0
98.0609	3.6
100.0402	1.2
106.9806	1.7
110.9851	38.3
111.9885	12.6
112.0403	2.4
112.0766	1.1
112.9894	2.0
114.0559	6.6
116.0716	1.4
124.0767	3.6
125.0718	3.5
126.0560	1.8
127.0399	1.4
127.0511	3.7
140.0716	5.2
142.0872	9.5
143.0463	1.4
143.1189	3.1
144.0665	6.1
145.0616	2.7
152.9958	1.0
153.9992	2.4
168.0665	3.6
186.0254	20.6
186.0696	2.3
186.0770	100.0
186.0966	3.8
186.1135	3.5
187.0261	1.2
187.0723	3.7
187.1088	6.1

Name: 5-Acetylamino-6-amino-3-methyluracil
PrecursorMZ: 197.06813
RT: 5.729
ExactMass: 198.07529019
Spectrum_type: 2
charge: -1
Formula: C7H10N4O3
SMILES: CC(=O)NC1=C(NC(=O)N(C1=O)C)N
Method: HCD
Collision_energy: [28.333334]
Isolation_window: 4.0
Ion_mode: N
Num Peaks: 25
59.1215	1.7
62.4036	1.6
72.0433	2.5
72.0453	35.9
72.0476	2.2
77.3330	1.7
85.0405	4.5
96.0468	1.5
98.0248	1.8
98.0358	6.5
102.9030	1.6
127.0511	100.0
134.9620	1.5
140.0400	2.5
140.0464	66.6
154.0621	75.0
155.0573	3.1
155.9883	2.3
158.8926	1.9
168.2823	1.6
173.4776	6.1
173.4866	2.8
182.9938	5.2
188.4907	1.9
199.9994	2.0

Name: 5-Aminosalicylic Acid
PrecursorMZ: 152.03555
RT: 31.6439
ExactMass: 153.042593085
Spectrum_type: 2
charge: -1
Formula: C7H7NO3
SMILES: C1=CC(=C(C=C1N)C(=O)O)O
Method: HCD
Collision_energy: [28.333334]
Isolation_window: 4.0
Ion_mode: N
Num Peaks: 25
41.9984	3.7
59.0137	2.0
71.0137	1.4
72.9929	1.0
74.0246	2.8
78.9589	2.1
79.9572	4.2
80.0504	1.5
80.9650	1.2
85.0293	1.0
87.0087	0.9
88.0402	1.4
102.0559	2.8
107.0375	4.8
108.0453	100.0
108.0491	0.9
108.0520	1.2
114.0560	1.6
116.0716	2.8
120.5480	0.8
128.0352	1.3
130.0872	0.9
142.5429	1.3
152.0353	24.0
152.0717	1.6

Name: 5-Aminovaleric acid
PrecursorMZ: 116.07179
RT: 4.07885
ExactMass: 117.078978594
Spectrum_type: 2
charge: -1
Formula: C5H11NO2
SMILES: C(CCN)CC(=O)O
Method: HCD
Collision_energy: [28.333334]
Isolation_window: 4.0
Ion_mode: N
Num Peaks: 9
41.9984	0.4
68.0503	1.0
98.0609	1.1
116.0660	0.5
116.0713	100.0
116.0760	1.6
116.0786	1.7
116.0808	0.9
116.0836	0.4

Name: 5-Hydroxy-2-hydroxymethylpyridine
PrecursorMZ: 124.04067
RT: 10.0855
ExactMass: 125.047678466
Spectrum_type: 2
charge: -1
Formula: C6H7NO2
SMILES: C1=CC(=NC=C1O)CO
Method: HCD
Collision_energy: [28.333334]
Isolation_window: 4.0
Ion_mode: N
Num Peaks: 5
61.9881	10.6
94.0296	26.5
96.0452	7.4
109.0166	15.9
124.0401	100.0

Name: 5-Hydroxyindoleacetic Acid
PrecursorMZ: 190.05121
RT: 6.4018
ExactMass: 191.058243149
Spectrum_type: 2
charge: -1
Formula: C10H9NO3
SMILES: C1=CC2=C(C=C1O)C(=CN2)CC(=O)O
Method: HCD
Collision_energy: [28.333334]
Isolation_window: 4.0
Ion_mode: N
Num Peaks: 14
41.9984	3.6
65.0395	4.0
74.0245	11.4
83.0136	8.5
87.0086	3.4
105.0014	17.2
107.0375	9.6
144.0453	8.4
146.0610	61.5
172.0402	5.4
190.0509	100.0
190.0717	4.0
190.1166	8.3
191.0559	10.7

Name: 5-Methyluridine
PrecursorMZ: 257.07798
RT: 7.8846
ExactMass: 258.08518617
Spectrum_type: 2
charge: -1
Formula: C10H14N2O6
SMILES: CC1=CN(C(=O)NC1=O)[C@H]2[C@@H]([C@@H]([C@H](O2)CO)O)O
Method: HCD
Collision_energy: [28.333334]
Isolation_window: 4.0
Ion_mode: N
Num Peaks: 15
59.0136	20.7
109.0167	11.9
109.0657	11.2
123.0562	30.9
124.0402	44.5
167.0460	16.0
169.0698	12.2
171.0776	11.7
214.0720	100.0
256.2365	53.8
257.0665	46.4
257.0786	23.3
257.1031	20.3
257.1389	14.3
257.2394	21.1

Name: 6,10a-Dihydroxy-4-(hydroxymethyl)-4,7,11b-trimethyl-1,2,3,4a,5,6,6a,7,11,11a-decahydronaphtho(2,1-f)(1)benzofuran-9-one
PrecursorMZ: 349.20244
RT: 20.1154
ExactMass: 350.20932405
Spectrum_type: 2
charge: -1
Formula: C20H30O5
SMILES: CC1C2C(CC3C(CCCC3(C2CC4(C1=CC(=O)O4)O)C)(C)CO)O
Method: HCD
Collision_energy: [28.333334]
Isolation_window: 4.0
Ion_mode: N
Num Peaks: 17
96.9598	9.6
98.9556	0.9
114.0560	0.9
148.9807	1.3
148.9891	1.0
257.1908	3.5
273.1859	1.2
275.2014	2.0
277.2169	0.6
285.1859	1.0
287.2015	6.8
303.1963	6.0
305.2119	19.8
306.2161	1.0
349.1625	1.4
349.2017	100.0
350.2053	5.9

Name: 6,10a-Dihydroxy-4-(hydroxymethyl)-4,7,11b-trimethyl-1,2,3,4a,5,6,6a,7,11,11a-decahydronaphtho)2,1-f()1(benzofuran-9-one
PrecursorMZ: 349.2018
RT: 25.5477
ExactMass: 350.20932405
Spectrum_type: 2
charge: -1
Formula: C20H30O5
SMILES: CC1C2C(CC3C(CCCC3(C2CC4(C1=CC(=O)O4)O)C)(C)CO)O
Method: HCD
Collision_energy: [28.333334]
Isolation_window: 4.0
Ion_mode: N
Num Peaks: 22
94.7634	1.5
95.5016	1.4
101.3103	1.4
103.9499	1.2
109.1004	1.6
112.3107	1.6
116.2320	2.2
138.2883	2.1
140.8236	2.0
143.7533	1.8
159.2373	2.0
162.7787	2.3
173.4826	18.4
192.0864	2.3
202.1544	2.5
203.5349	2.5
257.1910	3.7
275.2011	7.1
287.2017	24.5
288.4311	2.7
303.1966	18.1
305.2122	100.0

Name: 6-(2-(4-(4-methylpiperazin-1-yl)-3-nitrophenyl)ethenyl)-5-nitro-1H-pyrimidine-2,4-dione
PrecursorMZ: 401.12091
RT: 20.9912
ExactMass: 402.12878232
Spectrum_type: 2
charge: -1
Formula: C17H18N6O6
SMILES: CN1CCN(CC1)C2=C(C=C(C=C2)C=CC3=C(C(=O)NC(=O)N3)[N+](=O)[O-])[N+](=O)[O-]
Method: HCD
Collision_energy: [28.333334]
Isolation_window: 4.0
Ion_mode: N
Num Peaks: 5
96.9598	100.0
207.0772	35.2
383.1090	37.7
401.1199	91.8
401.2542	26.3

Name: 6-)3-(2-Carboxyethyl)-5-hydroxyphenoxy(-3,4,5-trihydroxyoxane-2-carboxylic acid
PrecursorMZ: 357.08258
RT: 22.8908
ExactMass: 358.08999677
Spectrum_type: 2
charge: -1
Formula: C15H18O10
SMILES: C1=C(C=C(C=C1O)OC2C(C(C(C(O2)C(=O)O)O)O)O)CCC(=O)O
Method: HCD
Collision_energy: [28.333334]
Isolation_window: 4.0
Ion_mode: N
Num Peaks: 24
100.3829	12.9
101.0190	12.5
101.6027	12.4
103.1638	14.5
103.9215	15.6
108.9542	15.4
109.6545	16.0
110.8761	15.4
111.1393	17.4
117.2281	17.2
117.4118	14.9
121.5567	17.6
129.8901	18.9
130.3704	17.9
134.5514	18.2
136.9723	16.2
145.7328	19.8
173.4822	69.2
178.4992	20.2
188.5288	21.5
190.7798	26.2
203.5688	22.0
231.0510	100.0
250.7155	22.5

Name: 6-Acetylaminocaproic acid
PrecursorMZ: 172.09808
RT: 4.5694
ExactMass: 173.10519334
Spectrum_type: 2
charge: -1
Formula: C8H15NO3
SMILES: CC(=O)NCCCCCC(=O)O
Method: HCD
Collision_energy: [28.333334]
Isolation_window: 4.0
Ion_mode: N
Num Peaks: 39
41.0031	3.9
41.9984	20.7
43.0188	6.1
57.0344	5.0
58.0297	7.9
59.0137	2.6
68.0504	3.8
71.0136	1.9
71.0500	2.3
72.0453	45.0
73.0293	3.8
74.0246	2.6
82.0296	2.2
82.0661	2.7
83.0250	2.1
83.0501	2.7
84.0453	31.8
86.0609	1.9
96.0453	1.8
98.0247	1.8
98.0610	11.3
100.0403	4.5
100.0767	3.6
110.0610	6.2
112.0403	3.2
116.0716	57.4
126.0559	32.6
126.0924	3.0
128.0353	3.1
128.0716	14.3
128.1080	82.6
129.0306	2.4
130.0509	15.3
130.0873	7.2
154.0509	4.4
154.0874	3.7
172.0615	71.5
172.0979	100.0
173.0820	3.5

Name: 6-Ethyl-2,4-dihydroxy-3-methylbenzaldehyde
PrecursorMZ: 179.07172
RT: 38.0793
ExactMass: 180.078644241
Spectrum_type: 2
charge: -1
Formula: C10H12O3
SMILES: CCC1=CC(=C(C(=C1C=O)O)C)O
Method: HCD
Collision_energy: [28.333334]
Isolation_window: 4.0
Ion_mode: N
Num Peaks: 15
41.9984	3.7
59.0136	4.4
79.9571	8.3
80.9650	10.5
90.9857	5.8
96.9599	3.5
98.9557	3.1
107.0499	3.8
120.0578	7.2
133.0656	19.5
135.0449	55.0
135.0813	100.0
179.0347	13.6
179.0711	15.7
179.1183	4.1

Name: 6-Hydroxymellein
PrecursorMZ: 193.05083
RT: 31.9928
ExactMass: 194.0579088
Spectrum_type: 2
charge: -1
Formula: C10H10O4
SMILES: C[C@@H]1CC2=C(C(=CC(=C2)O)O)C(=O)O1
Method: HCD
Collision_energy: [28.333334]
Isolation_window: 4.0
Ion_mode: N
Num Peaks: 49
41.0031	0.7
41.9984	3.0
43.0188	0.5
55.0187	1.4
57.0344	0.6
59.0136	2.2
69.0343	0.6
71.0136	1.1
72.9929	0.7
74.0245	0.7
79.0551	1.4
79.9571	5.2
80.9650	4.3
81.9529	1.0
82.0296	0.8
82.9608	0.8
83.0136	16.2
85.0293	0.7
87.0085	0.5
88.0402	0.9
89.0242	0.8
95.0136	1.4
97.0293	3.4
102.0558	0.6
105.0708	0.6
109.0292	0.6
109.0406	1.1
111.0198	1.1
114.0559	1.6
116.0715	1.6
119.0500	0.6
121.0657	1.0
123.0449	2.1
128.0351	1.1
130.0872	0.5
134.0371	0.5
137.0606	7.0
149.0606	9.5
151.0398	3.6
165.0555	6.5
175.0398	12.0
192.5704	0.5
193.0503	100.0
193.0586	1.2
193.0661	0.8
193.0709	0.8
193.0971	0.5
193.1155	1.6
194.0537	0.6

Name: 7-Hydroxy-5-methyl-2-(2-oxopropyl)-8-(3,4,5-trihydroxy-6-(hydroxymethyl)-2-oxanyl)-1-benzopyran-4-one
PrecursorMZ: 393.11954
RT: 33.5432
ExactMass: 394.12638228
Spectrum_type: 2
charge: -1
Formula: C19H22O9
SMILES: CC1=CC(=C(C2=C1C(=O)C=C(O2)CC(=O)C)C3C(C(C(C(O3)CO)O)O)O)O
Method: HCD
Collision_energy: [28.333334]
Isolation_window: 4.0
Ion_mode: N
Num Peaks: 8
72.9928	28.3
73.0292	8.6
96.9598	19.4
201.0918	10.2
231.1387	12.1
245.0815	13.1
319.1184	100.0
393.1192	24.8

Name: 7beta,18-Dihydroxykaurenolide
PrecursorMZ: 377.19739
RT: 29.1882
ExactMass: 332.19875937
Spectrum_type: 2
charge: -1
Formula: C20H28O4
SMILES: C[C@@]12CCC[C@@]3([C@H]1[C@H]([C@@H]([C@]45[C@H]2CC[C@H](C4)C(=C)C5)O)OC3=O)CO
Method: HCD
Collision_energy: [28.333334]
Isolation_window: 4.0
Ion_mode: N
Num Peaks: 21
75.0085	26.4
96.9599	5.2
115.0033	1.8
132.0663	4.5
148.9797	2.6
148.9886	2.1
213.1061	1.9
226.0718	2.6
228.1714	6.2
257.1292	3.2
262.1558	4.0
319.1913	90.3
320.1947	5.3
359.1821	2.4
376.6958	9.2
377.1378	1.6
377.1761	3.7
377.1967	100.0
378.1666	3.3
378.2004	6.4
427.2201	1.5

Name: 9-(Methoxycarbonyl)-9-decenoic acid
PrecursorMZ: 227.12909
RT: 6.8758
ExactMass: 228.13615911
Spectrum_type: 2
charge: -1
Formula: C12H20O4
SMILES: COC(=O)C(=C)CCCCCCCC(=O)O
Method: HCD
Collision_energy: [28.333334]
Isolation_window: 4.0
Ion_mode: N
Num Peaks: 42
57.0344	1.1
59.0136	100.0
59.0162	2.9
69.0344	0.7
71.0136	0.6
73.0293	0.4
79.9571	6.6
80.9649	2.2
83.0500	1.1
85.0293	0.3
85.0405	0.5
95.0499	0.4
97.0657	1.0
109.0657	1.0
111.0814	0.7
112.0515	0.3
113.0607	0.5
114.0559	0.5
116.0716	1.3
123.0814	2.7
127.0762	0.8
128.0716	0.6
136.9912	0.7
137.0970	0.3
141.1032	0.6
149.0970	0.6
153.0556	0.5
155.1075	0.9
165.0919	0.4
165.1284	0.7
167.1076	3.8
183.1138	4.0
183.1389	0.8
227.0230	22.9
227.0563	0.7
227.0924	3.1
227.1037	2.4
227.1287	44.4
227.2016	1.4
228.0262	0.9
228.0879	0.7
228.1321	0.9

Name: 9S,11,15S-trihydroxy-thrombox-13E-enoic acid
PrecursorMZ: 371.24432
RT: 16.6948
ExactMass: 372.25118886
Spectrum_type: 2
charge: -1
Formula: C20H36O6
SMILES: CCCCC[C@@H](/C=C/C1[C@H]([C@H](CC(O1)O)O)CCCCCCC(=O)O)O
Method: HCD
Collision_energy: [28.333334]
Isolation_window: 4.0
Ion_mode: N
Num Peaks: 21
59.0136	5.2
73.0292	3.4
96.9597	100.0
96.9653	2.5
111.0812	15.5
115.0397	15.2
123.0812	2.1
127.0761	2.4
141.0917	21.5
148.9791	2.9
148.9880	2.6
153.0917	3.0
177.1280	3.0
181.1230	5.8
195.1386	7.3
199.1335	6.6
277.2170	3.2
353.2331	13.4
371.1569	2.0
371.2436	92.4
372.2471	5.4

Name: Adenine
PrecursorMZ: 134.04743
RT: 17.7956
ExactMass: 135.05449518
Spectrum_type: 2
charge: -1
Formula: C5H5N5
SMILES: C1=NC2=NC=NC(=C2N1)N
Method: HCD
Collision_energy: [28.333334]
Isolation_window: 4.0
Ion_mode: N
Num Peaks: 16
41.0144	0.1
65.0143	1.0
68.0252	0.7
80.0252	0.3
92.0252	7.5
92.0304	0.2
107.0360	29.7
107.0402	0.5
107.0426	0.6
107.0469	0.1
134.0468	100.0
134.0525	1.0
134.0560	1.5
134.0586	0.9
134.0621	0.3
134.0657	0.2

Name: Adipic Acid
PrecursorMZ: 145.05074
RT: 21.6987
ExactMass: 146.0579088
Spectrum_type: 2
charge: -1
Formula: C6H10O4
SMILES: C(CCC(=O)O)CC(=O)O
Method: HCD
Collision_energy: [28.333334]
Isolation_window: 4.0
Ion_mode: N
Num Peaks: 51
41.0031	0.9
41.9984	0.9
44.9980	0.2
55.0188	0.7
57.0344	0.4
59.0137	0.4
69.0344	0.2
71.0137	0.5
71.0500	0.5
72.0089	0.4
72.9929	0.2
73.0293	0.9
74.0245	0.2
79.9571	0.1
81.0344	23.7
81.0375	0.6
81.0400	0.2
81.0456	0.2
83.0468	0.9
83.0499	100.0
83.0533	2.6
83.0557	1.0
83.0609	0.2
85.0293	0.3
98.0609	0.2
99.0449	0.2
100.0766	0.2
101.0243	1.0
101.0604	89.1
101.0644	1.5
101.0664	1.9
101.0705	0.4
101.0727	0.2
101.0751	0.1
102.0558	0.4
110.0609	0.1
115.0398	0.3
116.0715	0.2
117.0555	0.2
127.0399	3.1
128.0351	0.2
128.0715	0.2
144.5584	0.2
145.0140	0.2
145.0502	60.0
145.0564	0.8
145.0607	0.9
145.0634	0.5
145.0677	0.3
145.0981	0.5
146.0457	0.2

Name: Afalanine
PrecursorMZ: 206.08225
RT: 9.9452
ExactMass: 207.08954328
Spectrum_type: 2
charge: -1
Formula: C11H13NO3
SMILES: CC(=O)NC(CC1=CC=CC=C1)C(=O)O
Method: HCD
Collision_energy: [28.333334]
Isolation_window: 4.0
Ion_mode: N
Num Peaks: 15
47.0440	6.2
50.6526	7.2
51.4878	6.2
56.2296	7.1
58.0298	9.1
72.4244	6.5
86.8431	7.2
101.5114	5.9
107.7328	6.5
113.4026	7.3
119.1776	6.3
149.2424	6.9
162.8770	7.9
170.1062	7.0
173.4799	100.0

Name: Aldehydo-D-glucosamine 6-phosphate
PrecursorMZ: 258.03858
RT: 18.1319
ExactMass: 259.0457034
Spectrum_type: 2
charge: -1
Formula: C6H14NO8P
SMILES: C([C@H]([C@H]([C@@H]([C@H](C=O)N)O)O)O)OP(=O)(O)O
Method: HCD
Collision_energy: [28.333334]
Isolation_window: 4.0
Ion_mode: N
Num Peaks: 17
59.0137	2.2
78.9588	62.2
84.0453	3.1
96.9599	1.9
96.9695	3.0
114.0560	2.1
128.0351	1.9
148.9747	2.0
148.9831	3.2
148.9915	1.9
168.1031	1.9
171.0063	100.0
196.0979	6.6
198.9919	2.1
257.2393	2.2
258.0388	11.7
258.0986	11.2

Name: Allantoin
PrecursorMZ: 157.03708
RT: 6.9271
ExactMass: 158.04399007
Spectrum_type: 2
charge: -1
Formula: C4H6N4O3
SMILES: C1(C(=O)NC(=O)N1)NC(=O)N
Method: HCD
Collision_energy: [28.333334]
Isolation_window: 4.0
Ion_mode: N
Num Peaks: 24
41.9983	100.0
41.9995	4.5
41.9999	2.7
59.0249	3.4
71.0249	6.6
72.9929	2.4
73.0293	2.2
83.0501	2.5
85.0293	2.0
87.0086	3.9
95.0501	9.4
97.0042	49.2
97.0657	1.9
99.0450	6.8
101.0243	3.0
111.0450	1.9
112.0165	2.4
113.0607	1.8
114.0308	37.6
139.0401	2.7
157.0367	6.4
157.0506	28.3
157.0870	28.7
157.1235	4.4

Name: Allopurinol
PrecursorMZ: 135.03129
RT: 34.9224
ExactMass: 136.03851076
Spectrum_type: 2
charge: -1
Formula: C5H4N4O
SMILES: C1=NNC2=C1C(=O)NC=N2
Method: HCD
Collision_energy: [28.333334]
Isolation_window: 4.0
Ion_mode: N
Num Peaks: 36
41.0144	0.1
41.9984	0.8
64.0065	0.1
65.0143	9.2
65.0165	0.3
65.9984	0.1
66.0096	3.2
66.0127	0.1
68.0253	0.1
75.0086	0.1
79.9571	0.3
80.9650	0.1
91.0551	0.2
92.0251	94.0
92.0289	2.1
92.0319	0.9
92.0357	0.3
92.0378	0.1
93.0093	0.3
93.0344	0.1
106.0284	1.0
107.0362	1.1
107.0500	0.2
108.0202	0.4
108.0394	0.1
108.0425	0.1
126.0308	0.3
133.0155	2.5
134.0372	0.2
135.0186	0.2
135.0308	100.0
135.0366	1.6
135.0399	1.3
135.0442	2.0
135.0505	0.7
135.0536	0.2

Name: Alpha-Aminoadipic Acid
PrecursorMZ: 160.06174
RT: 19.1016
ExactMass: 161.06880783
Spectrum_type: 2
charge: -1
Formula: C6H11NO4
SMILES: C(CC(C(=O)O)N)CC(=O)O
Method: HCD
Collision_energy: [28.333334]
Isolation_window: 4.0
Ion_mode: N
Num Peaks: 24
41.9984	1.7
59.0137	4.7
71.0137	3.9
73.0294	0.7
74.0246	11.2
85.0293	4.8
88.0402	100.0
88.0451	1.5
89.0242	1.1
96.0454	0.9
98.0610	5.7
99.0450	3.4
100.0402	1.1
101.0243	0.8
102.0559	1.1
105.0193	0.7
114.0560	1.2
116.0716	47.1
116.0756	0.8
142.0509	54.0
142.0558	0.8
143.0348	0.9
143.0712	1.1
160.0615	36.1

Name: Aminoisobutyric acid
PrecursorMZ: 102.05621
RT: 4.8483
ExactMass: 103.06332853
Spectrum_type: 2
charge: -1
Formula: C4H9NO2
SMILES: CC(C)(C(=O)O)N
Method: HCD
Collision_energy: [28.333334]
Isolation_window: 4.0
Ion_mode: N
Num Peaks: 4
102.0557	100.0
102.0597	1.4
102.0618	1.8
102.0636	1.2

Name: Asp-Glu
PrecursorMZ: 261.07305
RT: 31.9891
ExactMass: 262.08010079
Spectrum_type: 2
charge: -1
Formula: C9H14N2O7
SMILES: C(CC(=O)O)[C@@H](C(=O)O)NC(=O)[C@H](CC(=O)O)N
Method: HCD
Collision_energy: [28.333334]
Isolation_window: 4.0
Ion_mode: N
Num Peaks: 22
59.0136	10.8
71.0136	35.1
80.9650	8.1
88.0401	43.4
96.0088	12.4
101.0718	23.7
102.0559	17.0
109.0405	8.0
113.0354	30.6
114.0559	18.6
115.0034	47.1
127.0511	74.2
128.0351	54.7
132.0300	44.4
136.0766	23.4
138.0559	8.3
145.0617	100.0
146.0457	52.6
155.0824	14.3
199.0723	19.2
243.0622	33.1
261.0730	71.0

Name: Azelaic Acid
PrecursorMZ: 187.09783
RT: 27.6195
ExactMass: 188.10485899
Spectrum_type: 2
charge: -1
Formula: C9H16O4
SMILES: C(CCCC(=O)O)CCCC(=O)O
Method: HCD
Collision_energy: [28.333334]
Isolation_window: 4.0
Ion_mode: N
Num Peaks: 16
41.9984	0.9
57.0344	6.2
59.0137	1.1
85.0293	1.0
95.0500	1.2
97.0657	15.3
113.0242	0.9
123.0814	4.7
125.0970	100.0
125.1016	1.1
125.1052	1.0
125.1078	0.9
143.1076	6.8
187.0248	0.8
187.0611	0.9
187.0975	56.3

Name: Benzenepropanoic acid
PrecursorMZ: 149.06103
RT: 21.6165
ExactMass: 150.068079557
Spectrum_type: 2
charge: -1
Formula: C9H10O2
SMILES: C1=CC=C(C=C1)CCC(=O)O
Method: HCD
Collision_energy: [28.333334]
Isolation_window: 4.0
Ion_mode: N
Num Peaks: 4
105.0709	10.5
149.0607	100.0
149.0636	1.0
149.0662	0.9

Name: Benzoic Acid
PrecursorMZ: 121.02951
RT: 19.9914
ExactMass: 122.03677943
Spectrum_type: 2
charge: -1
Formula: C7H6O2
SMILES: C1=CC=C(C=C1)C(=O)O
Method: HCD
Collision_energy: [28.333334]
Isolation_window: 4.0
Ion_mode: N
Num Peaks: 28
41.0144	2.1
41.9984	7.8
58.0058	2.0
59.0136	1.0
71.0136	2.0
77.0395	1.3
78.9588	2.4
87.0085	3.1
89.0242	1.7
95.0249	1.6
101.0241	1.2
102.0558	2.7
109.0405	3.3
111.0198	1.1
114.0558	4.6
120.5478	1.2
121.0292	100.0
121.0341	1.4
121.0396	1.8
121.0882	1.4
121.5374	2.1
121.5556	1.0
138.0670	38.6
139.0510	5.6
139.0704	3.1
153.0667	2.4
154.0508	1.0
197.0802	1.2

Name: Beta-Alanine
PrecursorMZ: 88.04032
RT: 4.324249999999999
ExactMass: 89.047678466
Spectrum_type: 2
charge: -1
Formula: C3H7NO2
SMILES: C(CN)C(=O)O
Method: HCD
Collision_energy: [28.333334]
Isolation_window: 4.0
Ion_mode: N
Num Peaks: 11
42.0348	0.1
44.9980	0.5
59.0137	0.2
71.0136	0.5
86.0246	0.1
88.0364	0.7
88.0400	100.0
88.0432	3.2
88.0465	1.0
88.0501	0.3
88.0546	0.1

Name: Beta-Aminoisobutyric Acid
PrecursorMZ: 102.05621
RT: 2.1695
ExactMass: 103.06332853
Spectrum_type: 2
charge: -1
Formula: C4H9NO2
SMILES: CC(CN)C(=O)O
Method: HCD
Collision_energy: [28.333334]
Isolation_window: 4.0
Ion_mode: N
Num Peaks: 13
41.0031	2.1
41.9984	19.2
43.0188	2.2
55.0187	2.0
56.0221	5.7
58.0296	20.0
72.0452	18.4
82.0296	7.6
100.0401	100.0
100.0439	2.3
102.0276	2.2
102.0558	39.8
102.0639	2.0

Name: Biotin
PrecursorMZ: 243.08137
RT: 9.27855
ExactMass: 244.08816355
Spectrum_type: 2
charge: -1
Formula: C10H16N2O3S
SMILES: C1[C@H]2[C@@H]([C@@H](S1)CCCCC(=O)O)NC(=O)N2
Method: HCD
Collision_energy: [28.333334]
Isolation_window: 4.0
Ion_mode: N
Num Peaks: 65
58.0297	0.7
66.0347	0.4
68.0504	0.6
74.0068	0.8
82.0660	4.3
84.0816	0.5
85.0405	0.8
86.0245	1.4
94.0296	1.4
95.0330	0.8
98.0609	0.9
99.0925	0.5
110.0246	0.3
112.0766	1.0
113.0354	0.5
114.0922	1.6
116.0715	0.8
122.0973	2.3
125.0241	0.4
125.0718	0.5
125.1082	0.3
126.0558	0.8
129.1031	4.9
130.0144	0.6
130.0870	52.1
130.0929	0.6
130.0958	0.8
130.0982	0.5
139.0585	0.6
140.0464	0.6
141.1031	0.9
143.0824	1.3
148.9775	0.4
148.9862	0.4
153.0303	3.6
153.0555	1.8
156.0850	1.9
157.0616	0.3
165.1031	0.9
166.0871	5.3
182.1548	2.3
183.0410	0.3
197.0678	0.6
197.0928	0.3
197.1658	0.5
199.0909	0.9
199.1452	0.5
199.1812	40.8
199.1904	0.6
199.1980	0.4
199.2028	0.4
200.0748	4.2
209.0930	0.6
225.1242	2.4
225.1608	0.5
243.0507	0.6
243.0626	0.3
243.0808	16.5
243.1247	0.3
243.1347	6.6
243.1709	100.0
243.1820	1.4
243.1935	0.7
243.2001	0.7
244.0840	0.4

Name: Boc-L-Valine
PrecursorMZ: 216.12427
RT: 18.482
ExactMass: 217.13140809
Spectrum_type: 2
charge: -1
Formula: C10H19NO4
SMILES: CC(C)[C@@H](C(=O)O)NC(=O)OC(C)(C)C
Method: HCD
Collision_energy: [28.333334]
Isolation_window: 4.0
Ion_mode: N
Num Peaks: 46
59.0137	1.6
72.0453	2.7
74.0246	1.5
87.0450	0.8
88.0401	0.9
96.0453	0.6
96.9600	16.4
98.0246	20.3
98.0609	54.4
98.0645	1.2
99.0086	2.1
99.0450	13.8
100.0403	1.0
102.0558	2.0
112.0402	6.3
112.0767	0.7
114.0559	0.6
116.0716	18.7
123.0561	0.6
126.0561	0.8
128.1080	1.2
130.0509	1.1
130.0872	5.6
134.0608	1.1
142.0508	0.6
144.0664	1.6
154.0872	1.9
156.0665	3.5
172.0978	3.1
172.1341	3.4
174.0771	2.0
198.0771	5.0
198.1058	0.7
198.1133	54.5
198.1216	0.9
199.1169	0.7
216.0134	1.8
216.0512	1.6
216.0703	1.5
216.0876	9.3
216.1238	100.0
216.1333	1.5
216.1427	0.7
216.1482	0.7
216.9094	0.6
217.1272	1.2

Name: Caprine
PrecursorMZ: 130.08747
RT: 6.8138
ExactMass: 131.094628657
Spectrum_type: 2
charge: -1
Formula: C6H13NO2
SMILES: CCCC[C@@H](C(=O)O)N
Method: HCD
Collision_energy: [28.333334]
Isolation_window: 4.0
Ion_mode: N
Num Peaks: 12
44.9980	0.5
66.0347	0.1
82.0660	0.4
84.0816	0.5
100.9334	0.2
113.0606	0.2
130.0868	100.0
130.0921	1.4
130.0957	1.5
130.0981	1.0
130.1016	0.3
130.1051	0.2

Name: Capryloyl Glycine
PrecursorMZ: 200.12935
RT: 6.521
ExactMass: 201.13649347
Spectrum_type: 2
charge: -1
Formula: C10H19NO3
SMILES: CCCCCCCC(=O)NCC(=O)O
Method: HCD
Collision_energy: [28.333334]
Isolation_window: 4.0
Ion_mode: N
Num Peaks: 17
41.9984	11.6
74.0246	6.6
86.0609	9.0
100.0766	26.6
110.0611	6.2
116.0715	100.0
126.0923	8.0
128.0352	17.7
148.9778	7.1
148.9863	7.9
156.1393	58.5
200.0562	6.1
200.0647	6.5
200.0927	11.6
200.1290	79.6
201.0767	8.8
201.1131	8.5

Name: Chelidamic Acid
PrecursorMZ: 182.00983
RT: 39.0414
ExactMass: 183.01677226
Spectrum_type: 2
charge: -1
Formula: C7H5NO5
SMILES: C1=C(NC(=CC1=O)C(=O)O)C(=O)O
Method: HCD
Collision_energy: [28.333334]
Isolation_window: 4.0
Ion_mode: N
Num Peaks: 10
41.9984	3.5
66.0347	4.5
79.9572	3.9
80.9650	2.9
94.0296	36.6
94.0376	2.4
108.0215	36.8
138.0195	100.0
182.0095	26.5
182.0949	3.9

Name: Chlorogenic Acid
PrecursorMZ: 353.10881
RT: 4.7574
ExactMass: 354.09508215
Spectrum_type: 2
charge: -1
Formula: C16H18O9
SMILES: C1[C@H]([C@H]([C@@H](C[C@@]1(C(=O)O)O)OC(=O)/C=C/C2=CC(=C(C=C2)O)O)O)O
Method: HCD
Collision_energy: [28.333334]
Isolation_window: 4.0
Ion_mode: N
Num Peaks: 25
97.0302	12.3
97.2346	12.1
99.2009	14.5
100.9433	13.9
101.2913	14.9
102.7492	12.8
105.6260	13.0
108.7728	16.2
111.7296	13.7
114.4828	16.3
115.5254	13.4
126.3459	16.4
134.0661	16.2
136.3028	18.6
141.2957	16.6
147.8185	17.7
155.1025	19.8
156.2063	20.9
173.0458	31.5
173.4781	100.0
175.4446	21.0
191.0559	41.7
228.9702	21.8
265.5483	24.1
308.8911	21.9

Name: Citraconic acid
PrecursorMZ: 129.0193
RT: 21.0244
ExactMass: 130.02660867
Spectrum_type: 2
charge: -1
Formula: C5H6O4
SMILES: C/C(=C/C(=O)O)/C(=O)O
Method: HCD
Collision_energy: [28.333334]
Isolation_window: 4.0
Ion_mode: N
Num Peaks: 14
40.6399	67.2
45.2664	81.5
53.2977	88.6
53.4178	71.8
54.3929	70.9
55.3661	70.3
56.5852	70.9
59.9903	82.5
62.3321	86.3
71.6007	72.7
71.9092	71.6
85.0294	100.0
88.4806	77.3
104.9451	81.7

Name: Citramalic acid, (-)-
PrecursorMZ: 147.03012
RT: 20.9396
ExactMass: 148.03717335
Spectrum_type: 2
charge: -1
Formula: C5H8O5
SMILES: C[C@@](CC(=O)O)(C(=O)O)O
Method: HCD
Collision_energy: [28.333334]
Isolation_window: 4.0
Ion_mode: N
Num Peaks: 29
41.0031	1.5
41.9984	1.3
43.0188	4.9
57.0344	3.7
59.0136	2.5
71.0136	10.8
72.9929	2.6
73.0293	1.1
75.0085	100.0
75.0110	3.3
75.0121	2.5
85.0293	11.6
87.0085	3.5
89.0241	68.3
89.0273	1.8
89.0289	1.4
99.0449	2.1
101.0242	2.5
102.0558	3.9
103.0398	37.8
103.0528	1.3
103.0592	15.7
115.0034	1.4
129.0191	9.9
129.0385	8.7
147.0296	59.4
147.0436	1.2
147.0490	10.5
147.0660	1.4

Name: Citric Acid
PrecursorMZ: 191.02012
RT: 33.9637
ExactMass: 192.02700259
Spectrum_type: 2
charge: -1
Formula: C6H8O7
SMILES: C(C(=O)O)C(CC(=O)O)(C(=O)O)O
Method: HCD
Collision_energy: [28.333334]
Isolation_window: 4.0
Ion_mode: N
Num Peaks: 8
57.0345	10.1
67.0189	2.9
85.0294	32.0
87.0087	45.8
111.0087	100.0
129.0193	4.9
191.0198	4.1
191.0561	4.0

Name: Citrulline
PrecursorMZ: 174.08853
RT: 3.8482333333333334
ExactMass: 175.09569129
Spectrum_type: 2
charge: -1
Formula: C6H13N3O3
SMILES: C(C[C@@H](C(=O)O)N)CNC(=O)N
Method: HCD
Collision_energy: [28.333334]
Isolation_window: 4.0
Ion_mode: N
Num Peaks: 16
41.9985	1.8
58.0298	0.2
83.0614	0.6
85.0771	0.3
113.0720	0.4
114.0560	0.4
128.0716	0.2
131.0765	0.5
131.0791	0.4
131.0824	100.0
131.0848	1.2
131.0873	0.9
131.0898	0.4
157.0619	0.2
174.0884	0.4
174.1135	0.9

Name: D-Arabinose
PrecursorMZ: 149.04583
RT: 2.5018
ExactMass: 150.05282342
Spectrum_type: 2
charge: -1
Formula: C5H10O5
SMILES: C([C@H]([C@H]([C@@H](C=O)O)O)O)O
Method: HCD
Collision_energy: [28.333334]
Isolation_window: 4.0
Ion_mode: N
Num Peaks: 15
41.0031	4.2
43.0188	3.8
44.9980	1.1
55.0187	1.2
57.0344	1.6
59.0136	100.0
59.0162	2.7
71.0136	33.9
71.0159	1.0
73.0293	0.8
85.0293	2.3
89.0242	6.7
101.0241	1.5
113.0242	0.9
149.0606	0.7

Name: D-Aspartic Acid
PrecursorMZ: 132.03045
RT: 20.9396
ExactMass: 133.0375077
Spectrum_type: 2
charge: -1
Formula: C4H7NO4
SMILES: C([C@H](C(=O)O)N)C(=O)O
Method: HCD
Collision_energy: [28.333334]
Isolation_window: 4.0
Ion_mode: N
Num Peaks: 18
41.9984	1.7
59.0137	2.6
71.0136	21.9
72.0089	3.4
75.0085	3.7
76.0119	1.8
79.9571	4.9
84.0452	1.2
88.0401	100.0
88.0440	2.1
88.0483	1.8
93.0456	1.3
101.9335	2.0
114.0194	5.6
115.0034	21.1
132.0299	73.7
132.0386	2.4
132.0745	11.1

Name: D-Glucuronic Acid
PrecursorMZ: 193.03568
RT: 10.35565
ExactMass: 194.04265265
Spectrum_type: 2
charge: -1
Formula: C6H10O7
SMILES: [C@@H]1([C@@H]([C@H](OC([C@@H]1O)O)C(=O)O)O)O
Method: HCD
Collision_energy: [28.333334]
Isolation_window: 4.0
Ion_mode: N
Num Peaks: 52
41.0031	7.0
43.0188	3.8
44.9980	6.2
51.0239	0.7
55.0188	3.2
56.9981	0.5
57.0344	9.7
59.0136	100.0
59.0162	2.7
67.0188	1.0
69.0344	1.2
71.0136	60.6
71.0160	1.7
71.0183	0.6
72.9929	67.2
72.9958	1.8
72.9977	0.7
73.0293	19.5
73.0317	0.7
75.0086	2.4
80.9650	0.5
83.0137	4.0
84.0215	0.4
85.0293	41.1
85.0323	1.0
85.0352	0.4
87.0086	1.4
89.0242	11.7
95.0137	7.0
99.0086	1.7
101.0243	18.3
101.0279	0.3
101.0303	0.3
103.0035	6.2
103.0400	0.5
113.0242	48.5
113.0286	0.9
113.0313	0.5
113.0334	0.4
115.0036	1.3
129.0194	0.3
131.0349	6.9
133.0142	4.0
149.0456	0.4
149.0606	0.8
157.0142	0.8
163.0249	0.7
175.0249	1.5
193.0173	1.2
193.0354	17.0
193.0507	0.9
193.0611	0.3

Name: D-Glutamic Acid
PrecursorMZ: 146.04633
RT: 20.9396
ExactMass: 147.05315777
Spectrum_type: 2
charge: -1
Formula: C5H9NO4
SMILES: C(CC(=O)O)[C@H](C(=O)O)N
Method: HCD
Collision_energy: [28.333334]
Isolation_window: 4.0
Ion_mode: N
Num Peaks: 27
43.0188	0.4
44.9981	0.4
59.0136	0.8
71.0136	1.3
74.0245	1.4
75.0085	7.4
82.0296	0.4
84.0452	1.3
85.0292	6.2
89.0242	4.8
100.0402	0.6
101.0242	0.6
102.0557	100.0
102.0596	1.9
102.0618	2.1
102.0658	0.4
103.0398	2.6
122.0608	0.5
128.0350	51.9
128.0402	0.9
128.0435	0.9
128.0460	0.5
146.0455	57.1
146.0521	0.8
146.0558	0.8
146.0591	0.6
147.0296	3.9

Name: D-Glutamine
PrecursorMZ: 145.06195
RT: 3.8293666666666666
ExactMass: 146.06914219
Spectrum_type: 2
charge: -1
Formula: C5H10N2O3
SMILES: C(CC(=O)N)[C@H](C(=O)O)N
Method: HCD
Collision_energy: [28.333334]
Isolation_window: 4.0
Ion_mode: N
Num Peaks: 19
41.0032	1.1
41.9985	86.7
58.0298	18.3
67.0301	1.6
70.0298	2.0
73.0406	3.3
74.0247	27.3
82.0298	7.1
84.0454	32.7
86.0247	4.4
88.0403	16.0
99.0564	3.3
101.0720	14.9
103.0513	1.0
109.0407	18.5
127.0512	100.0
127.0555	1.1
128.0352	35.9
145.0618	60.9

Name: DL-Glutamic acid
PrecursorMZ: 146.0459
RT: 19.6242
ExactMass: 147.05315777
Spectrum_type: 2
charge: -1
Formula: C5H9NO4
SMILES: C(CC(=O)O)C(C(=O)O)N
Method: HCD
Collision_energy: [28.333334]
Isolation_window: 4.0
Ion_mode: N
Num Peaks: 33
41.9985	0.1
44.9982	0.2
57.0346	0.1
59.0138	0.3
71.0138	0.4
74.0247	1.6
82.0299	0.4
84.0455	1.2
85.0295	1.8
86.0248	0.2
100.0405	0.5
101.0245	0.5
102.0434	0.1
102.0506	0.2
102.0535	0.5
102.0559	100.0
102.0586	2.0
102.0610	0.5
102.0636	0.2
102.0661	0.1
102.0687	0.1
128.0321	0.2
128.0351	40.7
128.0375	0.1
128.0395	0.4
128.0424	0.2
128.0457	0.1
128.0489	0.1
129.0194	0.2
146.0458	17.9
146.0486	0.1
146.0511	0.2
146.0546	0.1

Name: Daprodustat
PrecursorMZ: 392.18312
RT: 32.4845
ExactMass: 393.18998559
Spectrum_type: 2
charge: -1
Formula: C19H27N3O6
SMILES: C1CCC(CC1)N2C(=O)C(C(=O)N(C2=O)C3CCCCC3)C(=O)NCC(=O)O
Method: HCD
Collision_energy: [28.333334]
Isolation_window: 4.0
Ion_mode: N
Num Peaks: 22
71.0136	30.2
88.0401	30.4
96.0088	11.0
96.9598	75.8
114.0557	10.7
115.0034	51.4
128.0351	12.8
129.1030	59.0
132.0300	19.1
146.0609	40.9
148.9783	14.2
148.9873	14.0
178.0717	10.5
184.1090	11.7
227.1398	10.4
253.6352	12.7
259.1450	17.8
276.1715	70.7
277.1556	46.3
294.0828	30.8
348.1928	11.8
392.1829	100.0

Name: Deoxyguanosine
PrecursorMZ: 266.08966
RT: 12.2841
ExactMass: 267.09675391
Spectrum_type: 2
charge: -1
Formula: C10H13N5O4
SMILES: C1[C@@H]([C@H](O[C@H]1N2C=NC3=C2N=C(NC3=O)N)CO)O
Method: HCD
Collision_energy: [28.333334]
Isolation_window: 4.0
Ion_mode: N
Num Peaks: 25
59.0136	1.6
103.0034	0.7
107.0361	1.8
108.0201	1.7
123.0561	0.8
124.0595	0.6
126.0306	2.0
133.0153	12.3
134.0357	1.0
148.9763	0.5
148.9847	0.9
148.9930	0.5
149.0340	0.8
150.0418	100.0
150.0480	0.9
150.0527	1.2
150.0557	0.9
151.0452	1.0
165.0667	4.0
166.0641	0.5
166.0701	6.5
176.0575	12.2
266.0891	39.5
266.1224	1.3
267.0893	1.0

Name: Deoxyinosine
PrecursorMZ: 251.07877
RT: 12.2841
ExactMass: 252.08585488
Spectrum_type: 2
charge: -1
Formula: C10H12N4O4
SMILES: C1[C@@H]([C@H](O[C@H]1N2C=NC3=C2N=CNC3=O)CO)O
Method: HCD
Collision_energy: [28.333334]
Isolation_window: 4.0
Ion_mode: N
Num Peaks: 34
59.0136	0.4
72.9929	0.7
92.0252	1.3
97.0293	0.2
101.0242	0.2
108.0201	0.5
108.0452	0.2
118.0409	0.5
126.0307	0.4
134.0232	0.4
135.0186	0.2
135.0308	100.0
135.0365	1.4
135.0400	1.5
135.0427	0.9
135.0463	0.3
135.0499	0.2
136.0280	0.2
136.0343	0.9
143.0348	0.2
151.0510	0.2
151.1238	0.2
161.0466	12.7
161.0536	0.1
175.0623	0.1
233.0670	0.4
251.0372	0.1
251.0781	40.5
251.0901	0.3
251.0928	0.2
251.1098	0.3
251.1131	0.2
251.1397	0.2
252.0815	0.7

Name: Deoxyuridine
PrecursorMZ: 227.06764
RT: 8.927766666666667
ExactMass: 228.07462149
Spectrum_type: 2
charge: -1
Formula: C9H12N2O5
SMILES: C1[C@@H]([C@H](O[C@H]1N2C=CC(=O)NC2=O)CO)O
Method: HCD
Collision_energy: [28.333334]
Isolation_window: 4.0
Ion_mode: N
Num Peaks: 35
59.0136	2.7
66.0347	47.8
68.0503	2.7
69.0344	1.5
71.0136	1.7
79.9571	2.2
80.9649	9.4
82.9607	2.9
87.0085	3.2
92.0503	2.5
94.0296	99.6
94.0349	2.0
108.0453	5.6
109.0292	2.4
111.0085	4.9
111.0197	10.5
112.0402	7.4
127.0510	4.6
130.0871	4.5
136.0071	7.2
136.0402	32.1
137.0354	3.2
141.0667	5.1
155.1188	2.3
168.9975	4.6
183.1500	7.0
184.0612	100.0
227.0028	7.4
227.0422	3.1
227.0559	5.2
227.0671	63.8
227.0923	4.9
227.1286	5.0
227.1399	26.0
227.2013	4.8

Name: Desthiobiotin
PrecursorMZ: 213.12474
RT: 7.1809
ExactMass: 214.13174244
Spectrum_type: 2
charge: -1
Formula: C10H18N2O3
SMILES: C[C@H]1[C@H](NC(=O)N1)CCCCCC(=O)O
Method: HCD
Collision_energy: [28.333334]
Isolation_window: 4.0
Ion_mode: N
Num Peaks: 4
116.0716	34.8
123.0563	68.0
169.1346	60.8
213.1245	100.0

Name: Diaminopimelic Acid
PrecursorMZ: 189.0885
RT: 16.57
ExactMass: 190.09535693
Spectrum_type: 2
charge: -1
Formula: C7H14N2O4
SMILES: C(CC(C(=O)O)N)CC(C(=O)O)N
Method: HCD
Collision_energy: [28.333334]
Isolation_window: 4.0
Ion_mode: N
Num Peaks: 12
41.9984	8.3
59.0136	8.9
72.0089	11.9
74.0245	14.0
111.0450	21.6
114.0559	67.9
127.0874	11.8
128.0352	9.6
128.0715	62.4
145.0981	7.2
171.0774	21.7
189.0880	100.0

Name: Dihydrothymine
PrecursorMZ: 127.05155
RT: 3.8465
ExactMass: 128.058577502
Spectrum_type: 2
charge: -1
Formula: C5H8N2O2
SMILES: CC1CNC(=O)NC1=O
Method: HCD
Collision_energy: [28.333334]
Isolation_window: 4.0
Ion_mode: N
Num Peaks: 3
41.9985	100.0
44.0141	83.8
127.0512	24.5

Name: Divaricatic acid
PrecursorMZ: 387.14139
RT: 6.91
ExactMass: 388.1522031
Spectrum_type: 2
charge: -1
Formula: C21H24O7
SMILES: CCCC1=C(C(=CC(=C1)OC)O)C(=O)OC2=CC(=C(C(=C2)O)C(=O)O)CCC
Method: HCD
Collision_energy: [28.333334]
Isolation_window: 4.0
Ion_mode: N
Num Peaks: 11
96.9598	100.0
114.0557	93.6
148.9798	23.7
148.9884	18.8
181.0980	32.2
182.0455	45.9
225.0878	51.9
297.1089	45.0
369.2278	17.0
387.1408	76.7
387.2386	92.0

Name: Dl-Tryptophan
PrecursorMZ: 407.17143
RT: 37.7321
ExactMass: 204.08987763
Spectrum_type: 2
charge: -1
Formula: C11H12N2O2
SMILES: C1=CC=C2C(=C1)C(=CN2)CC(C(=O)O)N
Method: HCD
Collision_energy: [28.333334]
Isolation_window: 4.0
Ion_mode: N
Num Peaks: 15
138.9952	19.2
146.2121	17.6
168.6368	22.6
173.4790	100.0
178.8379	19.6
181.2629	20.5
186.1583	24.4
219.6299	22.5
271.9097	23.3
281.1398	31.4
284.5819	28.4
292.5775	22.6
335.9969	26.8
337.8547	23.4
343.3851	24.1

Name: Dodecanedioic Acid
PrecursorMZ: 229.14449
RT: 6.742
ExactMass: 230.15180918
Spectrum_type: 2
charge: -1
Formula: C12H22O4
SMILES: C(CCCCCC(=O)O)CCCCC(=O)O
Method: HCD
Collision_energy: [28.333334]
Isolation_window: 4.0
Ion_mode: N
Num Peaks: 31
59.4824	4.3
70.2826	3.4
71.3200	3.8
78.2746	4.1
80.7441	4.1
83.0984	4.1
83.8364	4.4
83.9171	4.0
83.9199	3.9
94.9804	4.7
96.6806	3.5
97.0658	8.3
110.8782	4.6
120.6503	4.0
127.9368	3.4
139.0401	4.2
139.1126	10.7
140.2160	3.9
159.9770	4.1
165.1286	6.2
167.1441	100.0
169.1228	7.0
172.8550	4.1
173.4814	16.6
183.1389	81.0
184.9912	18.0
185.1551	9.1
199.0072	10.9
211.1340	32.0
215.9820	4.5
229.1447	13.5

Name: Dopac
PrecursorMZ: 167.03531
RT: 13.4786
ExactMass: 168.04225873
Spectrum_type: 2
charge: -1
Formula: C8H8O4
SMILES: C1=CC(=C(C=C1CC(=O)O)O)O
Method: HCD
Collision_energy: [28.333334]
Isolation_window: 4.0
Ion_mode: N
Num Peaks: 8
41.0031	3.4
59.0136	6.2
81.0344	35.6
95.0500	7.0
123.0448	100.0
134.0371	3.9
167.0349	3.7
167.0824	4.1

Name: Edicotinib
PrecursorMZ: 460.27115
RT: 28.6158
ExactMass: 461.27907538
Spectrum_type: 2
charge: -1
Formula: C27H35N5O2
SMILES: CC1(CCC(=CC1)C2=C(C=CC(=N2)C3CC(OC(C3)(C)C)(C)C)NC(=O)C4=NC=C(N4)C#N)C
Method: HCD
Collision_energy: [28.333334]
Isolation_window: 4.0
Ion_mode: N
Num Peaks: 5
96.9597	17.7
148.9809	13.3
148.9896	10.0
460.1687	10.0
460.2701	100.0

Name: Edoxudin
PrecursorMZ: 255.09881
RT: 6.0627
ExactMass: 256.10592162
Spectrum_type: 2
charge: -1
Formula: C11H16N2O5
SMILES: CCC1=CN(C(=O)NC1=O)[C@H]2C[C@@H]([C@H](O2)CO)O
Method: HCD
Collision_energy: [28.333334]
Isolation_window: 4.0
Ion_mode: N
Num Peaks: 12
92.9026	0.5
93.3795	0.8
156.9907	4.5
157.0117	0.8
173.4786	1.5
192.3301	0.5
197.0683	0.8
208.2516	0.6
219.1060	0.7
225.4316	0.6
234.3337	0.7
255.2327	100.0

Name: Ethyl beta-D-glucuronide
PrecursorMZ: 221.06685
RT: 4.6029
ExactMass: 222.07395278
Spectrum_type: 2
charge: -1
Formula: C8H14O7
SMILES: CCO[C@H]1[C@@H]([C@H]([C@@H]([C@H](O1)C(=O)O)O)O)O
Method: HCD
Collision_energy: [28.333334]
Isolation_window: 4.0
Ion_mode: N
Num Peaks: 43
43.0188	5.3
44.9980	4.9
57.0344	10.7
59.0136	37.7
69.0344	9.2
71.0136	19.5
72.9929	5.0
73.0293	11.2
75.0085	54.4
80.0504	3.3
81.0343	4.2
83.0136	4.2
83.0500	3.8
85.0293	23.7
87.0085	10.5
87.0449	3.4
89.0242	9.2
91.0399	3.6
97.0293	5.2
99.0086	3.6
99.0450	4.3
101.0242	18.6
111.0449	3.8
112.0402	8.2
113.0242	9.2
115.0398	3.7
129.0192	9.0
130.0508	8.5
131.0348	7.6
143.0347	3.3
148.9741	3.0
148.9770	3.7
148.9825	5.0
148.9858	4.6
148.9912	3.0
148.9940	3.0
150.0230	4.4
160.0615	19.9
178.0720	33.1
203.0561	5.2
221.0666	100.0
221.1031	12.0
221.1181	3.3

Name: Ethylenediaminetetraacetic Acid
PrecursorMZ: 291.0836
RT: 19.3425
ExactMass: 292.09066547
Spectrum_type: 2
charge: -1
Formula: C10H16N2O8
SMILES: C(CN(CC(=O)O)CC(=O)O)N(CC(=O)O)CC(=O)O
Method: HCD
Collision_energy: [28.333334]
Isolation_window: 4.0
Ion_mode: N
Num Peaks: 12
59.0136	11.5
75.0085	11.8
88.0401	53.8
132.0299	11.3
157.0980	39.8
159.1137	76.2
187.0723	14.7
201.0879	18.7
203.1036	13.5
215.0671	13.8
273.0727	32.8
291.0835	100.0

Name: Ferulic Acid
PrecursorMZ: 193.05094
RT: 37.3256
ExactMass: 194.0579088
Spectrum_type: 2
charge: -1
Formula: C10H10O4
SMILES: COC1=C(C=CC(=C1)/C=C/C(=O)O)O
Method: HCD
Collision_energy: [28.333334]
Isolation_window: 4.0
Ion_mode: N
Num Peaks: 8
89.0396	6.1
106.0424	0.9
117.0346	10.9
134.0373	100.0
134.0401	1.3
149.0608	3.5
178.0272	1.9
193.0506	4.8

Name: Fumaric Acid
PrecursorMZ: 231.01494
RT: 27.3405
ExactMass: 116.0109586
Spectrum_type: 2
charge: -1
Formula: C4H4O4
SMILES: C(=C/C(=O)O)\C(=O)O
Method: HCD
Collision_energy: [28.333334]
Isolation_window: 4.0
Ion_mode: N
Num Peaks: 5
71.0136	62.0
71.0159	1.9
115.0033	100.0
115.0083	1.0
115.0107	1.5

Name: Gentiopicroside
PrecursorMZ: 355.10361
RT: 36.4685
ExactMass: 356.11073221
Spectrum_type: 2
charge: -1
Formula: C16H20O9
SMILES: C=C[C@H]1[C@@H](OC=C2C1=CCOC2=O)O[C@H]3[C@@H]([C@H]([C@@H]([C@H](O3)CO)O)O)O
Method: HCD
Collision_energy: [28.333334]
Isolation_window: 4.0
Ion_mode: N
Num Peaks: 17
59.0137	3.1
96.9599	2.1
109.0295	1.6
109.0658	1.4
114.0559	0.8
119.0502	1.8
121.0295	1.7
128.0351	0.8
135.0450	0.9
137.0607	18.8
155.0349	1.4
173.0456	1.2
181.0505	100.0
182.0540	2.6
355.1036	10.3
355.1769	1.0
355.2129	0.9

Name: Gibberellin A54
PrecursorMZ: 347.1504
RT: 12.2841
ExactMass: 348.15728848
Spectrum_type: 2
charge: -1
Formula: C19H24O6
SMILES: CC12C(CC(C3(C1C(C45C3CCC(C4)C(=C)C5)C(=O)O)OC2=O)O)O
Method: HCD
Collision_energy: [28.333334]
Isolation_window: 4.0
Ion_mode: N
Num Peaks: 5
96.9598	9.0
259.1699	13.2
303.1599	13.9
347.1498	100.0
348.1516	9.1

Name: Gibberellin A79
PrecursorMZ: 363.1448
RT: 31.8172
ExactMass: 364.1522031
Spectrum_type: 2
charge: -1
Formula: C19H24O7
SMILES: CC12C3C(C45CC(CCC4C3(C(C(C1O)O)O)OC2=O)C(=C)C5)C(=O)O
Method: HCD
Collision_energy: [28.333334]
Isolation_window: 4.0
Ion_mode: N
Num Peaks: 29
95.9780	4.5
96.5691	4.3
96.9605	4.4
97.0620	4.9
102.5091	4.3
105.1329	4.3
109.6499	5.7
114.6311	6.2
114.9805	4.7
116.4411	5.8
125.4997	5.5
126.1183	6.2
128.7798	5.7
145.4605	7.2
152.9538	6.9
166.7184	7.4
173.4827	26.1
192.6327	7.4
209.6187	8.7
229.4027	7.2
239.1442	12.4
257.1550	34.9
275.1656	36.8
301.1449	35.5
318.9799	14.6
319.1550	25.7
319.8618	8.7
345.1345	100.0
361.3211	9.4

Name: Gibberellin A8
PrecursorMZ: 363.14537
RT: 10.5653
ExactMass: 364.1522031
Spectrum_type: 2
charge: -1
Formula: C19H24O7
SMILES: C[C@]12[C@H]3[C@@H]([C@@]45CC(=C)[C@@](C4)(CC[C@H]5[C@@]3(C[C@@H]([C@@H]1O)O)OC2=O)O)C(=O)O
Method: HCD
Collision_energy: [28.333334]
Isolation_window: 4.0
Ion_mode: N
Num Peaks: 5
96.9598	38.5
119.0862	25.7
257.1544	33.6
275.1650	100.0
363.1453	69.4

Name: Glu-Thr
PrecursorMZ: 247.09383
RT: 17.8802
ExactMass: 248.10083623
Spectrum_type: 2
charge: -1
Formula: C9H16N2O6
SMILES: C[C@H]([C@@H](C(=O)O)NC(=O)[C@H](CCC(=O)O)N)O
Method: HCD
Collision_energy: [28.333334]
Isolation_window: 4.0
Ion_mode: N
Num Peaks: 11
74.0247	51.8
82.0298	12.4
85.0407	11.1
115.0877	11.7
118.0509	20.1
128.0353	16.4
141.0669	94.9
146.0459	21.6
185.0567	100.0
185.0931	11.9
247.0935	9.9

Name: Gluconolactone
PrecursorMZ: 177.04044
RT: 20.4358
ExactMass: 178.04773803
Spectrum_type: 2
charge: -1
Formula: C6H10O6
SMILES: C([C@@H]1[C@H]([C@@H]([C@H](C(=O)O1)O)O)O)O
Method: HCD
Collision_energy: [28.333334]
Isolation_window: 4.0
Ion_mode: N
Num Peaks: 29
40.7580	7.1
42.4546	7.2
45.0327	8.7
47.9665	7.2
48.0747	7.0
50.9480	7.7
53.0099	9.9
57.0345	8.3
60.0954	6.9
65.0002	6.9
66.9644	7.7
67.3978	7.9
69.1992	9.4
75.0085	100.0
75.4820	7.0
85.0291	9.6
97.0293	13.2
99.7705	7.7
103.8693	7.8
115.0400	9.9
131.9329	9.5
133.1652	8.2
140.5993	7.6
154.7102	7.9
159.0297	32.8
168.3821	7.4
173.4813	17.3
177.0400	8.8
181.8110	8.1

Name: Glucuronolactone
PrecursorMZ: 175.025
RT: 30.2529
ExactMass: 176.03208797
Spectrum_type: 2
charge: -1
Formula: C6H8O6
SMILES: C(=O)[C@@H]([C@@H]1[C@@H]([C@@H](C(=O)O1)O)O)O
Method: HCD
Collision_energy: [28.333334]
Isolation_window: 4.0
Ion_mode: N
Num Peaks: 67
51.0239	0.7
53.0031	2.6
55.0187	4.2
57.0344	15.1
59.0136	29.3
59.0162	0.8
60.0170	0.6
67.0187	2.4
68.9980	0.8
69.0344	6.3
71.0136	21.2
72.9929	39.6
72.9953	1.2
73.0292	41.1
73.0317	1.5
73.9962	0.7
74.0326	1.2
79.9571	1.1
81.0344	1.0
83.0136	6.4
85.0292	74.1
85.0322	2.1
85.0353	0.8
86.0326	3.0
87.0085	100.0
87.0120	2.3
87.0147	0.8
88.0119	2.7
93.0344	0.9
95.0136	15.1
96.0170	0.6
97.0293	3.5
99.0085	6.8
101.0242	4.8
103.0398	1.9
109.0292	0.7
111.0086	2.0
111.0449	0.6
113.0241	61.2
113.0287	1.2
113.0311	1.0
113.0332	0.6
114.0275	3.0
115.0034	24.3
116.0068	0.9
121.0293	2.1
125.0241	0.6
125.0481	0.6
127.0397	0.8
129.0191	2.4
131.0348	11.0
136.0088	3.1
139.0035	0.9
139.0399	0.9
141.0191	0.8
145.0141	2.2
149.0242	0.9
157.0140	7.8
167.0347	0.8
175.0246	9.7
175.0608	0.7
175.0869	2.3
175.0972	0.6
217.0352	2.1
229.0351	2.6
273.0251	2.4
291.0357	0.9

Name: Glycyl-L-proline
PrecursorMZ: 171.07783
RT: 3.9169666666666667
ExactMass: 172.08479225
Spectrum_type: 2
charge: -1
Formula: C7H12N2O3
SMILES: C1C[C@H](N(C1)C(=O)CN)C(=O)O
Method: HCD
Collision_energy: [28.333334]
Isolation_window: 4.0
Ion_mode: N
Num Peaks: 3
114.0560	100.0
127.0876	7.1
171.0774	23.9

Name: Glycyl-L-valine
PrecursorMZ: 173.09336
RT: 4.40235
ExactMass: 174.10044231
Spectrum_type: 2
charge: -1
Formula: C7H14N2O3
SMILES: CC(C)[C@@H](C(=O)O)NC(=O)CN
Method: HCD
Collision_energy: [28.333334]
Isolation_window: 4.0
Ion_mode: N
Num Peaks: 11
73.0406	26.7
84.0454	2.9
85.0488	4.8
100.0768	4.2
101.0721	3.3
116.0717	96.3
127.0513	3.2
127.0877	4.5
129.1033	100.0
173.0649	3.9
173.0932	50.0

Name: Glycyl-glycyl-proline
PrecursorMZ: 228.09925
RT: 3.48925
ExactMass: 229.10625597
Spectrum_type: 2
charge: -1
Formula: C9H15N3O4
SMILES: C1C[C@H](N(C1)C(=O)CNC(=O)CN)C(=O)O
Method: HCD
Collision_energy: [28.333334]
Isolation_window: 4.0
Ion_mode: N
Num Peaks: 4
58.0298	25.7
71.0250	11.8
113.0356	54.3
114.0560	100.0

Name: Glycyl-tyrosyl-alanine
PrecursorMZ: 308.12561
RT: 20.7624
ExactMass: 309.13247072
Spectrum_type: 2
charge: -1
Formula: C14H19N3O5
SMILES: C[C@@H](C(=O)O)NC(=O)[C@H](CC1=CC=C(C=C1)O)NC(=O)CN
Method: HCD
Collision_energy: [28.333334]
Isolation_window: 4.0
Ion_mode: N
Num Peaks: 11
73.0404	12.5
74.0245	13.3
88.0402	19.2
114.0558	15.9
119.0499	15.7
127.0511	33.7
144.0776	26.5
180.0664	45.0
193.0981	22.4
264.1187	18.0
308.1252	100.0

Name: Guanine
PrecursorMZ: 150.04248
RT: 29.8244
ExactMass: 151.0494098
Spectrum_type: 2
charge: -1
Formula: C5H5N5O
SMILES: C1=NC2=C(N1)C(=O)NC(=N2)N
Method: HCD
Collision_energy: [28.333334]
Isolation_window: 4.0
Ion_mode: N
Num Peaks: 12
41.0145	2.1
66.0097	15.7
71.0138	2.6
78.0097	2.0
82.0411	2.7
90.0098	2.4
107.0364	9.9
108.0204	5.6
126.0310	20.7
133.0156	100.0
150.0422	33.3
151.0263	5.3

Name: HC067047
PrecursorMZ: 470.20576
RT: 28.9619
ExactMass: 471.21336163
Spectrum_type: 2
charge: -1
Formula: C26H28F3N3O2
SMILES: CC1=C(C=C(N1CCCN2CCOCC2)C3=CC=CC=C3)C(=O)NC4=CC=CC(=C4)C(F)(F)F
Method: HCD
Collision_energy: [28.333334]
Isolation_window: 4.0
Ion_mode: N
Num Peaks: 17
96.9597	13.4
148.9787	10.7
148.9864	11.1
148.9936	6.7
153.0301	6.0
170.0565	14.2
250.1113	9.2
312.1557	15.4
383.6775	6.4
455.5287	10.0
464.5293	6.8
470.2034	100.0
470.5379	63.9
470.8723	19.8
471.2077	16.2
483.2194	26.2
501.2293	7.8

Name: Hippuric Acid
PrecursorMZ: 178.05132
RT: 13.5266
ExactMass: 179.058243149
Spectrum_type: 2
charge: -1
Formula: C9H9NO3
SMILES: C1=CC=C(C=C1)C(=O)NCC(=O)O
Method: HCD
Collision_energy: [28.333334]
Isolation_window: 4.0
Ion_mode: N
Num Peaks: 3
92.0503	10.8
134.0609	100.0
178.0507	24.3

Name: Homovanillic Acid
PrecursorMZ: 181.05066
RT: 38.9804
ExactMass: 182.0579088
Spectrum_type: 2
charge: -1
Formula: C9H10O4
SMILES: COC1=C(C=CC(=C1)CC(=O)O)O
Method: HCD
Collision_energy: [28.333334]
Isolation_window: 4.0
Ion_mode: N
Num Peaks: 5
48.8885	4.3
115.8227	4.6
137.0245	9.6
137.0606	100.0
173.4796	11.1

Name: Hydrocortisone Butyrate
PrecursorMZ: 477.24998
RT: 33.9894
ExactMass: 432.25118886
Spectrum_type: 2
charge: -1
Formula: C25H36O6
SMILES: CCCC(=O)O[C@@]1(CC[C@@H]2[C@@]1(C[C@@H]([C@H]3[C@H]2CCC4=CC(=O)CC[C@]34C)O)C)C(=O)CO
Method: HCD
Collision_energy: [28.333334]
Isolation_window: 4.0
Ion_mode: N
Num Peaks: 41
59.0138	0.5
96.9598	2.3
109.0658	0.7
111.0814	2.5
135.1179	0.5
148.9824	0.5
148.9900	0.4
151.1128	0.5
167.1077	1.0
169.1233	0.9
170.9993	0.4
195.1025	1.1
213.1131	1.5
219.1388	3.9
221.1545	0.5
257.1910	0.8
259.2068	0.4
263.1287	1.5
271.2067	0.6
287.2380	2.5
313.2172	1.9
327.2686	0.4
331.2277	14.8
332.2312	0.9
357.2070	1.3
371.2589	0.8
375.2176	5.7
389.2696	3.9
401.1968	0.4
415.2485	0.8
419.2074	4.9
433.2594	5.9
434.2628	0.4
459.2388	0.5
477.1684	0.6
477.1848	0.6
477.2489	100.0
477.2801	0.5
477.3137	0.5
477.3286	0.6
478.2525	7.8

Name: Hydroxyphenylacetic acid
PrecursorMZ: 151.04016
RT: 32.9346
ExactMass: 152.047344113
Spectrum_type: 2
charge: -1
Formula: C8H8O3
SMILES: C1=CC(=CC=C1CC(=O)O)O
Method: HCD
Collision_energy: [28.333334]
Isolation_window: 4.0
Ion_mode: N
Num Peaks: 27
41.9984	1.1
59.0137	0.7
71.0137	0.6
74.0246	0.7
78.9589	2.3
79.0551	0.8
79.9572	0.8
88.0402	0.5
93.0345	2.0
95.0502	0.8
106.0423	0.9
107.0500	100.0
107.0537	1.0
107.0566	1.1
107.0611	0.4
108.0209	0.5
116.0716	0.4
121.0295	0.5
123.0451	3.5
128.0352	0.5
128.5636	0.4
133.0658	0.5
136.0166	0.7
150.9802	1.7
151.0260	0.8
151.0400	24.2
151.0764	0.4

Name: Hypoxanthine
PrecursorMZ: 135.03134
RT: 34.8254
ExactMass: 136.03851076
Spectrum_type: 2
charge: -1
Formula: C5H4N4O
SMILES: C1=NC2=C(N1)C(=O)NC=N2
Method: HCD
Collision_energy: [28.333334]
Isolation_window: 4.0
Ion_mode: N
Num Peaks: 18
41.9984	1.2
65.0143	7.0
66.0096	2.6
79.9571	1.6
91.0552	1.3
92.0251	86.7
92.0286	1.4
92.0303	1.7
92.0319	0.9
107.0361	1.1
107.0500	2.6
133.0153	2.8
134.0371	1.9
135.0309	100.0
135.0366	0.9
135.0447	17.5
135.0505	4.9
135.0537	1.5

Name: Hypoxanthine, 9-(2-deoxy-beta-D-erythro-pentofuranosyl)-
PrecursorMZ: 251.07854
RT: 12.5576
ExactMass: 252.08585488
Spectrum_type: 2
charge: -1
Formula: C10H12N4O4
SMILES: C1C(C(OC1N2C=NC3=C2N=CNC3=O)CO)O
Method: HCD
Collision_energy: [28.333334]
Isolation_window: 4.0
Ion_mode: N
Num Peaks: 4
135.0312	100.0
149.0217	5.0
161.0469	11.2
251.0785	22.4

Name: Isethionic Acid
PrecursorMZ: 124.99166
RT: 7.9085
ExactMass: 125.99867984
Spectrum_type: 2
charge: -1
Formula: C2H6O4S
SMILES: C(CS(=O)(=O)O)O
Method: HCD
Collision_energy: [28.333334]
Isolation_window: 4.0
Ion_mode: N
Num Peaks: 5
79.9573	81.2
94.9808	45.5
106.9808	11.9
122.9757	2.4
124.9913	100.0

Name: Isocaproic acid
PrecursorMZ: 115.07673
RT: 24.5203
ExactMass: 116.083729621
Spectrum_type: 2
charge: -1
Formula: C6H12O2
SMILES: CC(C)CCC(=O)O
Method: HCD
Collision_energy: [28.333334]
Isolation_window: 4.0
Ion_mode: N
Num Peaks: 12
41.0031	5.2
41.9984	7.7
43.0188	9.0
59.0136	9.9
71.0136	11.7
71.0500	6.0
87.0085	6.9
100.0401	10.4
110.0609	16.2
115.0034	4.6
115.0398	11.6
115.0762	100.0

Name: Isodityrosine (Not validated)
PrecursorMZ: 359.12476
RT: 29.9093
ExactMass: 360.13213636
Spectrum_type: 2
charge: -1
Formula: C18H20N2O6
SMILES: C1=CC(=CC=C1CC(C(=O)O)N)OC2=C(C=CC(=C2)CC(C(=O)O)N)O
Method: HCD
Collision_energy: [28.333334]
Isolation_window: 4.0
Ion_mode: N
Num Peaks: 22
104.6849	10.6
108.8255	9.6
115.1860	13.2
115.7916	10.7
116.7474	11.7
120.9811	13.2
136.2842	13.5
139.1626	12.9
144.3395	12.3
147.7298	14.8
167.3763	14.4
169.7367	15.6
170.2922	12.7
173.4747	36.7
173.4840	100.0
197.9577	20.7
212.3856	18.1
214.3293	14.7
255.6228	15.9
298.6866	15.9
315.1352	44.9
361.9090	16.3

Name: Isoleucylisoleucine
PrecursorMZ: 243.17155
RT: 9.2392
ExactMass: 244.17869263
Spectrum_type: 2
charge: -1
Formula: C12H24N2O3
SMILES: CCC(C)C(C(=O)NC(C(C)CC)C(=O)O)N
Method: HCD
Collision_energy: [28.333334]
Isolation_window: 4.0
Ion_mode: N
Num Peaks: 17
82.0662	7.9
110.0247	10.3
111.0200	6.7
114.0924	2.5
129.1033	5.2
130.0873	71.1
140.0353	8.2
140.6593	2.0
153.0305	100.0
166.0872	2.1
182.1550	6.7
183.0411	9.4
199.1815	56.1
200.0750	1.8
243.0622	3.2
243.0806	3.1
243.1713	73.4

Name: L-(-)-Ornithine
PrecursorMZ: 131.08277
RT: 3.7967
ExactMass: 132.08987763
Spectrum_type: 2
charge: -1
Formula: C5H12N2O2
SMILES: C(C[C@@H](C(=O)O)N)CN
Method: HCD
Collision_energy: [28.333334]
Isolation_window: 4.0
Ion_mode: N
Num Peaks: 13
41.9985	13.4
58.0298	2.5
70.0298	5.2
71.0250	1.7
72.0090	2.2
75.0087	2.3
83.0614	3.2
95.0250	2.8
100.9336	6.0
113.0356	6.1
114.0196	9.4
131.0713	4.4
131.0825	100.0

Name: L-Alanyl-L-Glutamine
PrecursorMZ: 216.09924
RT: 3.4992666666666667
ExactMass: 217.10625597
Spectrum_type: 2
charge: -1
Formula: C8H15N3O4
SMILES: C[C@@H](C(=O)N[C@@H](CCC(=O)N)C(=O)O)N
Method: HCD
Collision_energy: [28.333334]
Isolation_window: 4.0
Ion_mode: N
Num Peaks: 7
87.0563	15.4
88.0403	100.0
101.0720	11.2
127.0513	17.7
154.0985	22.2
155.0825	9.2
216.0989	25.4

Name: L-Ascorbic Acid
PrecursorMZ: 175.02513
RT: 23.6658
ExactMass: 176.03208797
Spectrum_type: 2
charge: -1
Formula: C6H8O6
SMILES: C([C@@H]([C@@H]1C(=C(C(=O)O1)O)O)O)O
Method: HCD
Collision_energy: [28.333334]
Isolation_window: 4.0
Ion_mode: N
Num Peaks: 25
41.9984	2.0
57.0344	100.0
57.0369	2.7
59.0137	4.3
59.0501	7.9
69.0344	26.0
71.0137	2.2
72.9929	3.6
73.0293	8.3
75.0086	2.0
81.0344	2.7
85.0293	14.2
85.0657	6.6
87.0086	21.8
87.0450	46.5
99.0086	3.0
101.0243	30.2
113.0243	25.6
113.0607	6.0
129.0557	3.2
131.0349	51.2
131.0712	3.6
157.0506	13.5
175.0248	30.0
175.0612	6.7

Name: L-Cysteinesulfonic acid
PrecursorMZ: 199.96945
RT: 32.1748
ExactMass: 200.97656467
Spectrum_type: 2
charge: -1
Formula: C3H7NO5S2
SMILES: C([C@@H](C(=O)O)N)SS(=O)(=O)O
Method: HCD
Collision_energy: [28.333334]
Isolation_window: 4.0
Ion_mode: N
Num Peaks: 29
41.9984	11.8
59.0137	8.6
71.0136	6.0
71.9911	4.1
72.9929	2.9
74.0067	75.7
74.0245	5.1
79.9571	5.3
80.9650	100.0
84.0453	3.9
88.0402	4.4
96.0089	3.2
112.9371	18.1
114.0559	8.8
116.0716	5.3
120.0123	24.4
126.0558	2.8
128.0352	14.0
130.0872	5.1
133.0512	3.5
136.0072	42.8
138.0558	2.9
156.1028	3.1
199.1703	20.1
199.9692	38.0
200.0562	3.1
200.1235	6.3
200.1737	7.2
200.5633	2.8

Name: L-Glutamic Acid
PrecursorMZ: 146.04582
RT: 19.3402
ExactMass: 147.05315777
Spectrum_type: 2
charge: -1
Formula: C5H9NO4
SMILES: C(CC(=O)O)[C@@H](C(=O)O)N
Method: HCD
Collision_energy: [28.333334]
Isolation_window: 4.0
Ion_mode: N
Num Peaks: 43
41.0032	0.1
41.0396	0.1
41.9984	0.5
42.0348	0.2
44.9981	0.2
59.0137	3.2
59.0163	0.1
71.0137	0.4
73.0293	0.1
74.0246	1.4
82.0297	0.3
84.0454	1.0
85.0258	0.6
85.0291	85.7
85.0322	2.5
85.0351	0.9
85.0387	0.2
86.0246	0.3
100.0404	0.5
101.0244	0.5
102.0557	100.0
102.0596	2.2
102.0618	2.0
102.0659	0.5
102.0683	0.2
102.0705	0.1
102.0728	0.1
102.0775	0.1
128.0350	49.5
128.0402	0.7
128.0436	0.8
128.0459	0.5
128.0493	0.2
128.0529	0.1
129.0192	0.1
131.0349	0.1
144.0455	0.1
146.0455	47.2
146.0521	0.4
146.0559	0.6
146.0591	0.6
146.0631	0.2
146.0672	0.1

Name: L-Glutamine
PrecursorMZ: 145.06203
RT: 4.6175
ExactMass: 146.06914219
Spectrum_type: 2
charge: -1
Formula: C5H10N2O3
SMILES: C(CC(=O)N)[C@@H](C(=O)O)N
Method: HCD
Collision_energy: [28.333334]
Isolation_window: 4.0
Ion_mode: N
Num Peaks: 32
41.0031	0.8
41.9984	9.8
43.0188	0.7
57.0344	1.3
58.0296	0.4
59.0136	2.4
69.0343	0.9
71.0137	0.4
71.0500	0.6
73.0292	0.5
74.0245	1.0
81.0344	2.7
83.0500	4.6
84.0452	4.1
85.0293	1.2
87.0085	3.3
88.0401	0.8
99.0643	0.4
101.0606	0.9
101.0799	1.2
102.0557	100.0
102.0596	1.3
102.0618	1.8
102.0635	1.0
102.0658	0.4
109.0405	0.4
127.0399	1.1
127.0511	2.4
128.0351	0.9
145.0504	11.9
145.0616	4.9
145.0696	1.9

Name: L-Histidine
PrecursorMZ: 154.0625
RT: 5.1769
ExactMass: 155.069476538
Spectrum_type: 2
charge: -1
Formula: C6H9N3O2
SMILES: C1=C(NC=N1)C[C@@H](C(=O)O)N
Method: HCD
Collision_energy: [28.333334]
Isolation_window: 4.0
Ion_mode: N
Num Peaks: 14
41.9985	3.6
66.0349	3.3
67.0301	9.7
72.0090	11.0
80.0379	11.5
81.0458	18.6
93.0458	100.0
108.0567	11.0
109.0407	4.9
110.0724	18.9
118.0411	3.1
136.0516	11.9
137.0356	41.8
154.0622	95.4

Name: L-Lactic Acid
PrecursorMZ: 89.02435
RT: 5.3152
ExactMass: 90.031694049
Spectrum_type: 2
charge: -1
Formula: C3H6O3
SMILES: C[C@@H](C(=O)O)O
Method: HCD
Collision_energy: [28.333334]
Isolation_window: 4.0
Ion_mode: N
Num Peaks: 11
40.0970	7.2
41.0032	38.2
43.0188	27.0
64.7644	7.6
65.7034	6.5
67.8467	6.7
84.8763	6.8
87.0085	6.9
89.0242	100.0
91.3364	6.3
94.4019	6.7

Name: L-Leucine
PrecursorMZ: 130.08755
RT: 8.043
ExactMass: 131.094628657
Spectrum_type: 2
charge: -1
Formula: C6H13NO2
SMILES: CC(C)C[C@@H](C(=O)O)N
Method: HCD
Collision_energy: [28.333334]
Isolation_window: 4.0
Ion_mode: N
Num Peaks: 5
100.9334	1.8
130.0870	100.0
130.0928	1.1
130.0958	1.5
130.0982	0.9

Name: L-Leucyl-L-alanine
PrecursorMZ: 201.1247
RT: 5.5019
ExactMass: 202.13174244
Spectrum_type: 2
charge: -1
Formula: C9H18N2O3
SMILES: C[C@@H](C(=O)O)NC(=O)[C@H](CC(C)C)N
Method: HCD
Collision_energy: [28.333334]
Isolation_window: 4.0
Ion_mode: N
Num Peaks: 8
82.0662	7.0
87.0563	9.8
88.0403	100.0
127.0512	12.3
130.0873	26.1
140.1080	12.6
157.1346	60.1
201.1244	64.6

Name: L-Lysine
PrecursorMZ: 145.09844
RT: 30.3344
ExactMass: 146.105527694
Spectrum_type: 2
charge: -1
Formula: C6H14N2O2
SMILES: C(CCN)C[C@@H](C(=O)O)N
Method: HCD
Collision_energy: [28.333334]
Isolation_window: 4.0
Ion_mode: N
Num Peaks: 25
41.0031	1.5
41.9984	1.1
43.0188	1.8
57.0344	1.3
59.0137	1.1
69.0344	0.9
71.0136	1.2
73.0293	7.7
79.9571	3.1
80.9650	1.3
83.0500	1.6
97.0769	1.0
101.0242	2.3
101.0606	2.2
102.0558	3.0
127.0511	0.8
128.0351	1.4
132.0665	0.7
145.0504	2.3
145.0617	0.6
145.0979	100.0
145.1041	1.5
145.1083	1.1
145.1113	1.0
146.0456	1.5

Name: L-Malic Acid
PrecursorMZ: 133.01422
RT: 21.6493
ExactMass: 134.02152329
Spectrum_type: 2
charge: -1
Formula: C4H6O5
SMILES: C([C@@H](C(=O)O)O)C(=O)O
Method: HCD
Collision_energy: [28.333334]
Isolation_window: 4.0
Ion_mode: N
Num Peaks: 28
48.1031	1.1
52.3017	1.1
59.0138	2.1
64.1319	1.1
68.4390	1.1
71.0137	77.2
71.0161	2.3
71.0170	1.6
72.9929	17.6
77.5244	1.1
80.5382	1.1
81.2096	1.1
87.0322	1.2
89.0242	10.0
99.3074	1.2
112.6453	1.3
115.0035	100.0
133.0086	1.7
133.0140	55.5
143.0482	1.3
161.1430	1.3
169.9977	1.1
170.5500	1.1
173.4745	1.2
173.4825	2.2
193.0831	1.2
230.7793	1.3
242.5081	1.2

Name: L-Norvaline
PrecursorMZ: 116.07146
RT: 5.1482
ExactMass: 117.078978594
Spectrum_type: 2
charge: -1
Formula: C5H11NO2
SMILES: CCC[C@@H](C(=O)O)N
Method: HCD
Collision_energy: [28.333334]
Isolation_window: 4.0
Ion_mode: N
Num Peaks: 20
41.9984	0.2
44.9981	0.4
68.0504	0.1
72.0453	0.2
74.0246	0.3
98.0245	0.2
114.0561	0.0
115.7439	0.1
116.0355	0.1
116.0659	0.4
116.0712	100.0
116.0761	1.6
116.0786	1.7
116.0807	1.1
116.0836	0.4
116.0865	0.2
116.0892	0.1
116.0918	0.1
116.0976	0.1
116.4000	0.1

Name: L-Phenylalanyl-L-alanine
PrecursorMZ: 235.10891
RT: 9.6772
ExactMass: 236.11609238
Spectrum_type: 2
charge: -1
Formula: C12H16N2O3
SMILES: C[C@@H](C(=O)O)NC(=O)[C@H](CC1=CC=CC=C1)N
Method: HCD
Collision_energy: [28.333334]
Isolation_window: 4.0
Ion_mode: N
Num Peaks: 3
88.0403	100.0
99.0563	25.4
235.1088	34.7

Name: L-Proline
PrecursorMZ: 114.05628
RT: 5.174
ExactMass: 115.06332853
Spectrum_type: 2
charge: -1
Formula: C5H9NO2
SMILES: C1C[C@H](NC1)C(=O)O
Method: HCD
Collision_energy: [28.333334]
Isolation_window: 4.0
Ion_mode: N
Num Peaks: 6
66.0349	0.8
68.0505	0.7
86.0247	1.1
112.0403	0.6
114.0559	100.0
114.0595	1.2

Name: L-Quebrachitol
PrecursorMZ: 193.07188
RT: 4.8483
ExactMass: 194.07903816
Spectrum_type: 2
charge: -1
Formula: C7H14O6
SMILES: COC1[C@@H]([C@H](C([C@@H]([C@H]1O)O)O)O)O
Method: HCD
Collision_energy: [28.333334]
Isolation_window: 4.0
Ion_mode: N
Num Peaks: 45
41.0031	2.8
43.0188	6.8
44.9980	6.4
57.0344	18.3
59.0136	55.3
59.0162	1.5
65.0395	2.0
69.0343	5.5
71.0136	14.2
71.0500	2.7
72.9929	2.3
73.0292	24.2
75.0085	7.7
81.0344	3.1
83.0136	3.3
83.0500	4.9
85.0293	10.3
87.0085	1.6
87.0449	4.8
89.0242	21.7
91.0398	34.7
93.0455	3.8
95.0500	1.7
97.0292	15.3
99.0449	4.2
101.0242	66.1
101.0605	1.5
103.0398	3.5
111.0449	1.6
115.0398	4.5
117.0554	20.3
127.0399	1.8
129.0554	2.2
131.0347	2.9
133.0504	1.4
145.0504	1.9
147.0659	2.0
149.0800	1.4
149.1081	2.6
157.0504	2.1
163.0613	1.4
175.0609	14.6
193.0624	3.7
193.0715	100.0
193.0979	3.8

Name: L-Serine
PrecursorMZ: 104.03534
RT: 4.5969
ExactMass: 105.042593085
Spectrum_type: 2
charge: -1
Formula: C3H7NO3
SMILES: C([C@@H](C(=O)O)N)O
Method: HCD
Collision_energy: [28.333334]
Isolation_window: 4.0
Ion_mode: N
Num Peaks: 8
42.0349	0.3
44.9982	0.2
58.0298	0.2
72.0091	1.4
74.0246	100.0
74.0270	1.1
104.0352	24.7
104.0384	0.3

Name: L-Tartaric acid
PrecursorMZ: 149.00947
RT: 24.2903
ExactMass: 150.01643791
Spectrum_type: 2
charge: -1
Formula: C4H6O6
SMILES: [C@@H]([C@H](C(=O)O)O)(C(=O)O)O
Method: HCD
Collision_energy: [28.333334]
Isolation_window: 4.0
Ion_mode: N
Num Peaks: 15
41.0031	7.2
43.0188	18.9
44.9980	6.5
59.0136	34.9
71.0136	1.7
72.9929	46.7
75.0085	5.7
87.0085	64.7
87.0115	1.5
103.0035	4.1
105.0191	4.4
130.9984	1.7
149.0088	100.0
149.0452	1.3
149.0605	7.8

Name: L-Threonic Acid
PrecursorMZ: 135.03005
RT: 6.2689
ExactMass: 136.03717335
Spectrum_type: 2
charge: -1
Formula: C4H8O5
SMILES: C([C@@H]([C@H](C(=O)O)O)O)O
Method: HCD
Collision_energy: [28.333334]
Isolation_window: 4.0
Ion_mode: N
Num Peaks: 13
44.9980	4.2
59.0136	14.8
62.9908	7.6
71.0136	6.5
72.9928	3.6
73.0292	1.9
75.0085	100.0
75.0110	3.6
89.0241	2.1
117.0190	4.9
135.0296	75.4
135.0446	4.0
135.0505	2.9

Name: L-Threonine
PrecursorMZ: 118.05093
RT: 4.359
ExactMass: 119.058243149
Spectrum_type: 2
charge: -1
Formula: C4H9NO3
SMILES: C[C@H]([C@@H](C(=O)O)N)O
Method: HCD
Collision_energy: [28.333334]
Isolation_window: 4.0
Ion_mode: N
Num Peaks: 21
41.9984	0.1
44.9981	0.3
55.0188	0.1
56.0141	0.1
72.0089	1.8
72.0454	0.1
74.0244	100.0
74.0269	3.2
74.0293	1.1
74.0321	0.3
74.0365	0.1
88.0402	0.6
99.0087	0.1
100.0402	0.1
118.0451	0.2
118.0506	37.1
118.0554	0.5
118.0581	0.5
118.0603	0.4
118.0633	0.1
118.0661	0.1

Name: L-Tryptophan
PrecursorMZ: 203.08283
RT: 24.4845
ExactMass: 204.08987763
Spectrum_type: 2
charge: -1
Formula: C11H12N2O2
SMILES: C1=CC=C2C(=C1)C(=CN2)C[C@@H](C(=O)O)N
Method: HCD
Collision_energy: [28.333334]
Isolation_window: 4.0
Ion_mode: N
Num Peaks: 11
74.0246	28.0
116.0504	55.8
142.0661	15.7
159.0663	4.8
159.0773	4.7
159.0928	15.5
185.0456	4.2
186.0563	4.1
203.0561	9.7
203.0826	100.0
203.0920	6.0

Name: L-Tyrosine
PrecursorMZ: 180.0668
RT: 28.0584
ExactMass: 181.07389321
Spectrum_type: 2
charge: -1
Formula: C9H11NO3
SMILES: C1=CC(=CC=C1C[C@@H](C(=O)O)N)O
Method: HCD
Collision_energy: [28.333334]
Isolation_window: 4.0
Ion_mode: N
Num Peaks: 26
41.9985	1.2
44.9982	1.1
72.0090	37.6
72.0114	0.5
74.0247	9.1
93.0345	30.0
93.0372	0.5
96.9601	0.8
106.0424	3.4
107.0503	3.8
119.0501	100.0
119.0540	1.4
119.0566	0.4
133.0534	0.4
134.0612	2.9
135.0452	0.3
136.0768	4.0
162.0562	1.8
163.0400	74.9
163.0433	0.5
163.0469	0.6
180.0572	0.4
180.0665	66.3
180.0701	0.8
180.0739	0.6
180.0758	0.5

Name: L-alanyl-L-phenylalanine
PrecursorMZ: 235.10911
RT: 8.7593
ExactMass: 236.11609238
Spectrum_type: 2
charge: -1
Formula: C12H16N2O3
SMILES: C[C@@H](C(=O)N[C@@H](CC1=CC=CC=C1)C(=O)O)N
Method: HCD
Collision_energy: [28.333334]
Isolation_window: 4.0
Ion_mode: N
Num Peaks: 25
59.0136	2.0
79.9571	11.1
80.9649	72.7
81.0456	3.4
87.0561	86.1
87.0593	2.0
91.0551	9.5
93.0456	2.2
100.0402	2.2
107.0612	2.3
135.0561	8.0
137.0717	3.1
147.0449	20.4
153.0667	2.2
160.0612	2.9
161.0647	3.1
164.0714	8.1
175.0180	34.1
191.1187	4.1
217.0285	3.2
220.1465	2.0
235.0391	100.0
235.0980	1.9
235.1086	56.4
236.0422	3.3

Name: L-leucyl-L-leucine
PrecursorMZ: 243.17144
RT: 9.1999
ExactMass: 244.17869263
Spectrum_type: 2
charge: -1
Formula: C12H24N2O3
SMILES: CC(C)C[C@@H](C(=O)N[C@@H](CC(C)C)C(=O)O)N
Method: HCD
Collision_energy: [28.333334]
Isolation_window: 4.0
Ion_mode: N
Num Peaks: 72
44.9982	0.3
52.0191	0.3
58.0297	0.6
66.0347	0.6
68.0503	0.8
74.0068	0.8
82.0660	5.8
84.0816	0.8
85.0405	1.0
86.0245	1.4
94.0296	1.2
95.0250	0.3
95.0330	0.6
98.0609	0.8
99.0925	0.5
110.0244	0.6
111.0198	0.3
111.0562	0.4
112.0765	1.2
113.0354	0.6
114.0922	1.8
116.0715	1.0
122.0973	2.5
125.0242	0.5
125.0718	0.6
125.1082	0.4
126.0558	0.8
129.1031	5.5
130.0144	0.6
130.0870	55.4
130.0927	0.5
130.0958	0.8
130.0982	0.5
131.0905	0.4
139.0585	0.8
140.0351	0.4
140.0464	0.5
141.1031	1.1
143.0824	1.6
153.0303	6.2
153.0555	1.9
153.1032	0.3
156.0850	2.0
157.0616	0.6
165.1030	1.0
166.0871	6.0
182.1547	4.1
183.0409	0.5
197.0678	0.6
197.0927	0.5
197.1655	0.5
199.0909	0.9
199.1451	0.5
199.1812	42.3
199.1902	0.6
199.2025	0.3
200.0748	5.2
200.1848	0.6
209.0929	0.6
225.1242	2.7
225.1605	0.4
243.0508	1.3
243.0620	0.8
243.0808	19.6
243.1347	7.7
243.1396	0.7
243.1709	100.0
243.1821	1.3
243.1936	0.7
243.2000	0.6
244.0836	1.0
244.1743	1.9

Name: L-valyl-L-phenylalanine
PrecursorMZ: 263.14005
RT: 12.7258
ExactMass: 264.1473925
Spectrum_type: 2
charge: -1
Formula: C14H20N2O3
SMILES: CC(C)[C@@H](C(=O)N[C@@H](CC1=CC=CC=C1)C(=O)O)N
Method: HCD
Collision_energy: [28.333334]
Isolation_window: 4.0
Ion_mode: N
Num Peaks: 5
91.0553	39.0
115.0876	27.3
116.0716	100.0
127.0876	84.7
263.1400	86.2

Name: Lactic Acid
PrecursorMZ: 89.02451
RT: 5.559
ExactMass: 90.031694049
Spectrum_type: 2
charge: -1
Formula: C3H6O3
SMILES: CC(C(=O)O)O
Method: HCD
Collision_energy: [28.333334]
Isolation_window: 4.0
Ion_mode: N
Num Peaks: 9
41.0032	37.9
43.0189	40.3
44.9982	0.7
59.0138	2.9
71.0138	3.5
72.9930	0.5
87.0087	2.3
89.0243	100.0
89.0268	1.7

Name: Leprapinic acid
PrecursorMZ: 351.08704
RT: 6.3133
ExactMass: 352.09468823
Spectrum_type: 2
charge: -1
Formula: C20H16O6
SMILES: COC1=CC=CC=C1/C(=C\2/C(=C(C(=O)O2)C3=CC=CC=C3)O)/C(=O)OC
Method: HCD
Collision_energy: [28.333334]
Isolation_window: 4.0
Ion_mode: N
Num Peaks: 23
59.0136	15.8
71.0136	6.0
80.9649	100.0
89.0242	3.1
96.9599	16.7
122.0609	6.6
134.0607	3.5
149.0718	9.1
150.0921	12.2
161.0717	3.3
191.0823	6.3
194.0819	4.5
226.1081	6.9
231.1498	3.0
259.1447	6.4
261.0547	36.5
275.1760	3.6
279.1710	11.0
291.1710	12.4
307.2022	8.6
351.0865	96.9
351.1923	48.4
352.0893	4.2

Name: Leu-phe
PrecursorMZ: 277.15611
RT: 15.3231
ExactMass: 278.16304257
Spectrum_type: 2
charge: -1
Formula: C15H22N2O3
SMILES: CC(C)C[C@@H](C(=O)N[C@@H](CC1=CC=CC=C1)C(=O)O)N
Method: HCD
Collision_energy: [28.333334]
Isolation_window: 4.0
Ion_mode: N
Num Peaks: 25
91.0550	3.3
96.9598	2.8
114.0558	2.7
116.0715	3.0
128.0350	1.9
129.1030	33.7
130.0870	6.2
141.1030	4.0
147.0448	8.7
164.0714	10.8
227.1399	1.9
233.1656	4.6
255.6324	1.9
262.6402	3.2
276.6560	15.2
277.1078	2.3
277.1198	2.6
277.1427	4.3
277.1556	100.0
277.1818	2.9
277.6453	3.2
278.0878	1.9
278.1036	2.6
278.1429	3.7
278.1593	3.8

Name: Leucylleucyltyrosine
PrecursorMZ: 406.2351
RT: 31.4447
ExactMass: 407.24202116
Spectrum_type: 2
charge: -1
Formula: C21H33N3O5
SMILES: CC(C)C[C@@H](C(=O)N[C@@H](CC(C)C)C(=O)N[C@@H](CC1=CC=C(C=C1)O)C(=O)O)N
Method: HCD
Collision_energy: [28.333334]
Isolation_window: 4.0
Ion_mode: N
Num Peaks: 13
96.9598	24.2
128.0349	11.4
130.0870	54.8
148.9766	7.3
148.9855	10.7
180.0662	27.2
242.1871	14.7
256.2026	18.8
275.1397	12.6
362.2448	8.6
406.2341	58.1
406.2672	25.6
407.2799	100.0

Name: Levulinic Acid
PrecursorMZ: 115.04035
RT: 5.5569
ExactMass: 116.047344113
Spectrum_type: 2
charge: -1
Formula: C5H8O3
SMILES: CC(=O)CCC(=O)O
Method: HCD
Collision_energy: [28.333334]
Isolation_window: 4.0
Ion_mode: N
Num Peaks: 3
71.0502	100.0
115.0400	49.9
115.0594	17.0

Name: Lyxose
PrecursorMZ: 149.04559
RT: 5.6291
ExactMass: 150.05282342
Spectrum_type: 2
charge: -1
Formula: C5H10O5
SMILES: C([C@H]([C@@H]([C@@H](C=O)O)O)O)O
Method: HCD
Collision_energy: [28.333334]
Isolation_window: 4.0
Ion_mode: N
Num Peaks: 16
41.7879	46.0
42.5796	43.7
47.4190	38.2
53.3796	45.0
53.5356	43.8
56.8449	44.1
59.0138	100.0
64.2971	43.2
66.4356	47.7
83.0291	41.6
85.6613	41.0
88.8013	40.9
89.7042	51.9
98.1245	46.6
121.0292	48.7
125.9235	42.9

Name: Malic Acid
PrecursorMZ: 133.01453
RT: 23.6658
ExactMass: 134.02152329
Spectrum_type: 2
charge: -1
Formula: C4H6O5
SMILES: C(C(C(=O)O)O)C(=O)O
Method: HCD
Collision_energy: [28.333334]
Isolation_window: 4.0
Ion_mode: N
Num Peaks: 14
41.0031	6.3
43.0188	19.5
59.0136	5.5
71.0136	100.0
72.9929	18.0
75.0085	26.9
79.9571	9.3
80.9649	9.2
89.0242	32.0
115.0034	97.7
115.9204	5.5
133.0140	87.8
133.0507	7.1
133.0756	4.0

Name: Malic acid
PrecursorMZ: 133.0142
RT: 22.9592
Spectrum_type: 2
charge: -1
SMILES: O=C(O)CC(O)C(=O)O
Method: HCD
Collision_energy: [28.333334]
Isolation_window: 4.0
Ion_mode: N
Num Peaks: 34
41.0032	5.5
43.0188	2.2
44.9981	1.1
57.0344	0.1
59.0137	3.0
71.0136	100.0
71.0159	3.5
71.0182	1.2
71.0209	0.4
71.0236	0.1
72.9904	0.2
72.9929	23.4
72.9954	0.6
72.9977	0.3
75.0086	0.1
79.9573	0.7
80.9651	0.2
87.0087	0.6
89.0242	10.8
89.0274	0.3
112.5159	0.3
114.9984	0.4
115.0033	97.5
115.0080	1.1
115.0107	1.9
115.0128	1.0
115.0155	0.4
115.0185	0.3
133.0139	73.8
133.0194	1.2
133.0230	1.1
133.0256	0.8
133.0290	0.3
133.0328	0.2

Name: Malonic Acid
PrecursorMZ: 103.00387
RT: 25.207
ExactMass: 104.0109586
Spectrum_type: 2
charge: -1
Formula: C3H4O4
SMILES: C(C(=O)O)C(=O)O
Method: HCD
Collision_energy: [28.333334]
Isolation_window: 4.0
Ion_mode: N
Num Peaks: 7
41.0031	7.7
57.0344	2.1
59.0136	100.0
59.0154	4.0
59.0162	2.5
103.0035	10.7
103.0398	2.4

Name: Mandelic Acid
PrecursorMZ: 151.04014
RT: 32.3646
ExactMass: 152.047344113
Spectrum_type: 2
charge: -1
Formula: C8H8O3
SMILES: C1=CC=C(C=C1)C(C(=O)O)O
Method: HCD
Collision_energy: [28.333334]
Isolation_window: 4.0
Ion_mode: N
Num Peaks: 16
40.5781	16.5
45.9490	16.5
48.4458	14.6
50.8976	19.5
52.4403	15.3
56.9911	17.4
57.1975	18.7
59.0137	27.7
63.0458	18.0
63.2580	19.5
74.7273	16.4
85.9708	19.6
107.0501	100.0
126.2180	18.3
137.9127	17.3
155.7632	17.2

Name: Methionine Sulfoxide
PrecursorMZ: 164.03896
RT: 3.4810666666666665
ExactMass: 165.04596439
Spectrum_type: 2
charge: -1
Formula: C5H11NO3S
SMILES: CS(=O)CC[C@@H](C(=O)O)N
Method: HCD
Collision_energy: [28.333334]
Isolation_window: 4.0
Ion_mode: N
Num Peaks: 12
47.9675	15.6
48.9753	2.8
60.9753	2.3
62.9909	100.0
63.9624	9.4
72.0090	2.7
76.9702	11.8
77.9780	6.2
79.9573	11.2
100.0403	41.4
149.0152	6.4
164.0386	20.8

Name: Methyl 2-(4,5-dihydroxy-6-methoxy-3,6-dimethyl-2-oxocyclohex-3-en-1-yl)oxy-4-hydroxy-3,6-dimethylbenzoate
PrecursorMZ: 379.14032
RT: 15.3231
ExactMass: 380.14711772
Spectrum_type: 2
charge: -1
Formula: C19H24O8
SMILES: CC1=CC(=C(C(=C1C(=O)OC)OC2C(=O)C(=C(C(C2(C)OC)O)O)C)C)O
Method: HCD
Collision_energy: [28.333334]
Isolation_window: 4.0
Ion_mode: N
Num Peaks: 3
96.9597	12.8
273.1493	9.3
379.1396	100.0

Name: Mevalonic Acid
PrecursorMZ: 147.06658
RT: 5.17
ExactMass: 148.07355886
Spectrum_type: 2
charge: -1
Formula: C6H12O4
SMILES: CC(CCO)(CC(=O)O)O
Method: HCD
Collision_energy: [28.333334]
Isolation_window: 4.0
Ion_mode: N
Num Peaks: 7
44.9981	10.2
57.0345	66.7
59.0138	15.3
85.0294	100.0
101.0608	12.0
103.0400	68.2
147.0662	88.4

Name: Miglitol
PrecursorMZ: 206.10359
RT: 2.1465
ExactMass: 207.11067264
Spectrum_type: 2
charge: -1
Formula: C8H17NO5
SMILES: C1[C@@H]([C@H]([C@@H]([C@H](N1CCO)CO)O)O)O
Method: HCD
Collision_energy: [28.333334]
Isolation_window: 4.0
Ion_mode: N
Num Peaks: 23
41.9984	12.2
44.9980	15.6
57.0344	10.2
58.0296	38.1
59.0136	100.0
60.9929	32.0
71.0136	33.3
72.0452	10.1
73.0292	22.1
81.0343	15.5
84.0452	12.2
85.0292	18.9
88.0401	11.1
98.0609	14.5
100.0402	17.4
107.0613	18.4
114.0559	16.5
116.0715	12.5
128.0715	16.3
140.0714	17.6
146.0820	9.6
206.1033	63.6
207.0874	16.4

Name: Monoethyl fumarate
PrecursorMZ: 143.03524
RT: 7.2636
ExactMass: 144.04225873
Spectrum_type: 2
charge: -1
Formula: C6H8O4
SMILES: CCOC(=O)/C=C/C(=O)O
Method: HCD
Collision_energy: [28.333334]
Isolation_window: 4.0
Ion_mode: N
Num Peaks: 24
41.0031	27.9
41.9984	6.7
43.0188	63.6
55.0187	11.0
59.0136	4.7
69.0343	19.9
71.0136	3.8
71.0500	6.0
81.0343	33.2
84.0214	14.5
85.0292	2.8
95.0499	4.3
97.0292	10.9
97.0656	37.3
99.0085	44.5
99.0449	6.1
99.0812	4.6
113.0354	7.2
115.0398	3.7
125.0605	4.4
143.0347	83.2
143.0456	4.9
143.0710	100.0
143.1074	9.7

Name: Monomethyl glutarate
PrecursorMZ: 145.0508
RT: 6.2968
ExactMass: 146.0579088
Spectrum_type: 2
charge: -1
Formula: C6H10O4
SMILES: COC(=O)CCCC(=O)O
Method: HCD
Collision_energy: [28.333334]
Isolation_window: 4.0
Ion_mode: N
Num Peaks: 23
41.0031	7.5
41.9984	13.5
43.0188	12.6
57.0344	13.7
59.0136	17.2
69.0344	7.0
71.0136	10.7
71.0500	12.0
73.0293	12.1
81.0344	6.4
83.0500	20.3
85.0293	7.0
99.0449	8.9
99.0813	4.2
101.0606	17.3
102.0558	9.4
113.0243	5.5
127.0398	15.1
143.0348	5.0
145.0504	100.0
145.0618	5.2
145.0697	22.6
145.0868	11.0

Name: Muconic Acid
PrecursorMZ: 141.01959
RT: 28.922
ExactMass: 142.02660867
Spectrum_type: 2
charge: -1
Formula: C6H6O4
SMILES: C(=C/C(=O)O)\C=C\C(=O)O
Method: HCD
Collision_energy: [28.333334]
Isolation_window: 4.0
Ion_mode: N
Num Peaks: 16
41.0031	28.2
41.9984	5.2
69.0344	67.2
79.9571	25.6
80.9650	10.9
81.9529	26.1
85.0293	4.9
94.9805	7.9
96.9764	41.8
96.9848	5.2
97.0293	100.0
140.9663	15.5
140.9747	4.7
141.0191	85.7
141.0739	6.2
141.0918	6.3

Name: Mycosporine
PrecursorMZ: 260.11402
RT: 19.2045
ExactMass: 261.12123733
Spectrum_type: 2
charge: -1
Formula: C11H19NO6
SMILES: COC1=C(C[C@](CC1=O)(CO)O)NC(CO)CO
Method: HCD
Collision_energy: [28.333334]
Isolation_window: 4.0
Ion_mode: N
Num Peaks: 75
57.0344	3.0
59.0136	4.3
70.0296	1.3
71.0136	4.8
72.0452	0.9
72.9928	1.8
74.0007	3.1
74.0244	1.0
80.0503	0.7
82.0296	2.6
83.0500	1.4
84.0452	5.6
85.0292	1.6
87.0085	27.2
89.0241	0.7
93.0343	1.1
94.0660	1.7
96.0452	1.7
98.0609	2.1
99.0449	1.5
100.0401	0.6
110.0609	0.7
112.0766	0.7
114.0558	2.0
116.0714	3.0
124.0401	32.9
126.0557	1.0
126.0922	0.6
127.0397	1.0
128.0350	2.7
128.0714	3.5
129.0191	0.7
129.0384	0.9
130.0506	2.5
130.0869	0.7
131.0904	0.8
136.0764	1.5
138.0558	4.2
142.0506	11.0
142.0870	2.4
152.0714	1.6
154.0871	7.1
156.0663	2.9
158.0820	1.9
159.0534	9.0
160.0612	24.1
162.0922	0.8
166.0507	0.9
170.0819	5.6
172.0976	57.1
172.1051	0.9
173.0452	2.6
173.1010	0.7
180.1027	1.1
182.0819	1.3
188.0560	2.0
188.0925	1.3
196.0976	3.0
198.0768	1.7
198.1132	3.2
200.0925	3.5
214.1082	0.9
215.1399	0.7
216.0873	3.0
216.1237	9.9
217.0715	0.9
218.1030	0.9
224.0925	11.4
242.0667	1.3
242.1030	4.6
260.0776	4.6
260.1135	100.0
260.1459	0.7
261.0612	7.2
261.1168	2.1

Name: N'-(1-(4-hexylphenyl)ethylidene)-1,4,5,6-tetrahydrocyclopenta(c)pyrazole-3-carbohydrazide
PrecursorMZ: 351.21821
RT: 20.7741
ExactMass: 352.22631153
Spectrum_type: 2
charge: -1
Formula: C21H28N4O
SMILES: CCCCCCC1=CC=C(C=C1)/C(=N/NC(=O)C2=NNC3=C2CCC3)/C
Method: HCD
Collision_energy: [28.333334]
Isolation_window: 4.0
Ion_mode: N
Num Peaks: 7
96.9598	46.8
148.9762	5.9
148.9848	8.5
308.1251	8.1
333.2074	6.2
351.2176	100.0
352.2208	6.1

Name: N(1)-methyl-2-pyridone-5-carboxylic acid
PrecursorMZ: 152.03549
RT: 7.4636
ExactMass: 153.042593085
Spectrum_type: 2
charge: -1
Formula: C7H7NO3
SMILES: CN1C=C(C=CC1=O)C(=O)O
Method: HCD
Collision_energy: [28.333334]
Isolation_window: 4.0
Ion_mode: N
Num Peaks: 16
40.0191	0.3
51.0239	0.8
79.9572	0.3
80.0266	0.7
80.0504	2.7
80.9650	0.4
81.0344	1.8
107.0376	3.8
108.0452	100.0
108.0490	1.1
108.0538	0.9
108.0563	0.4
126.0560	2.6
152.0024	0.3
152.0353	24.2
153.0228	0.3

Name: N,N-Dimethylglycine
PrecursorMZ: 102.05619
RT: 19.3402
ExactMass: 103.06332853
Spectrum_type: 2
charge: -1
Formula: C4H9NO2
SMILES: CN(C)CC(=O)O
Method: HCD
Collision_energy: [28.333334]
Isolation_window: 4.0
Ion_mode: N
Num Peaks: 18
41.0031	0.7
41.9984	0.3
43.0188	0.3
44.9980	0.4
57.0344	0.4
59.0136	3.7
71.0136	0.6
73.0293	0.7
83.0500	0.4
84.0452	1.1
88.0401	0.4
101.0242	0.6
102.0321	0.5
102.0557	100.0
102.0596	1.4
102.0622	1.9
102.0639	0.9
102.0660	0.4

Name: N-((2,2-dimethyl-3,4-dihydro-2H-1-benzopyran-6-yl)acetyl)-L-tryptophan
PrecursorMZ: 405.18189
RT: 3.0784
ExactMass: 406.18925731
Spectrum_type: 2
charge: -1
Formula: C24H26N2O4
SMILES: CC1(CCC2=C(O1)C=CC(=C2)CC(=O)N[C@@H](CC3=CNC4=CC=CC=C43)C(=O)O)C
Method: HCD
Collision_energy: [28.333334]
Isolation_window: 4.0
Ion_mode: N
Num Peaks: 8
96.9598	100.0
130.0870	16.8
148.9769	17.4
148.9858	20.1
297.1929	19.4
341.1829	17.4
405.1809	86.8
405.2160	17.8

Name: N-((Benzyloxy)carbonyl)glutamic acid
PrecursorMZ: 280.083
RT: 8.7626
ExactMass: 281.0899372
Spectrum_type: 2
charge: -1
Formula: C13H15NO6
SMILES: C1=CC=C(C=C1)COC(=O)NC(CCC(=O)O)C(=O)O
Method: HCD
Collision_energy: [28.333334]
Isolation_window: 4.0
Ion_mode: N
Num Peaks: 8
84.0451	22.0
95.0499	7.3
128.0349	100.0
153.0553	7.5
165.0665	7.2
176.0713	6.2
188.0712	7.1
280.0823	48.0

Name: N-(3-Hydroxybutanoyl)homoserine lactone
PrecursorMZ: 186.07753
RT: 4.2534
ExactMass: 187.0844579
Spectrum_type: 2
charge: -1
Formula: C8H13NO4
SMILES: CC(CC(=O)NC1CCOC1=O)O
Method: HCD
Collision_energy: [28.333334]
Isolation_window: 4.0
Ion_mode: N
Num Peaks: 5
41.0032	35.3
43.0189	99.9
84.0454	47.0
142.0872	21.9
186.0771	100.0

Name: N-(3-bromo-4-methylphenyl)-4-(pyridin-4-ylmethyl)phthalazin-1-amine
PrecursorMZ: 403.05567
RT: 31.704
ExactMass: 404.06366
Spectrum_type: 2
charge: -1
Formula: C21H17BrN4
SMILES: CC1=C(C=C(C=C1)NC2=NN=C(C3=CC=CC=C32)CC4=CC=NC=C4)Br
Method: HCD
Collision_energy: [28.333334]
Isolation_window: 4.0
Ion_mode: N
Num Peaks: 8
80.9649	92.8
96.9598	100.0
160.9910	58.4
179.0016	65.4
321.0824	33.3
359.0654	15.7
403.0550	66.5
403.2484	18.6

Name: N-Acetyl-D-Glucosamine
PrecursorMZ: 256.05916
RT: 2.1835
ExactMass: 221.0899372
Spectrum_type: 2
charge: -1
Formula: C8H15NO6
SMILES: CC(=O)N[C@@H]1[C@H]([C@@H]([C@H](OC1O)CO)O)O
Method: HCD
Collision_energy: [28.333334]
Isolation_window: 4.0
Ion_mode: N
Num Peaks: 10
77.1438	13.7
83.5240	11.8
101.0243	19.9
119.0346	45.9
143.4680	12.3
168.8824	12.8
173.4830	90.1
179.4038	11.8
256.2360	100.0
259.0899	13.4

Name: N-Acetyl-DL-methionine
PrecursorMZ: 190.05483
RT: 6.8554
ExactMass: 191.06161445
Spectrum_type: 2
charge: -1
Formula: C7H13NO3S
SMILES: CC(=O)NC(CCSC)C(=O)O
Method: HCD
Collision_energy: [28.333334]
Isolation_window: 4.0
Ion_mode: N
Num Peaks: 11
46.9959	100.0
74.0246	14.0
84.0453	10.9
85.0294	5.5
98.0610	12.6
112.0403	5.7
142.0509	30.0
148.0437	30.2
158.0823	4.1
190.0543	29.9
191.0562	16.3

Name: N-Acetyl-L-Lysine
PrecursorMZ: 187.10921
RT: 3.6293
ExactMass: 188.11609238
Spectrum_type: 2
charge: -1
Formula: C8H16N2O3
SMILES: CC(=O)N[C@@H](CCCCN)C(=O)O
Method: HCD
Collision_energy: [28.333334]
Isolation_window: 4.0
Ion_mode: N
Num Peaks: 4
58.0298	9.7
143.1189	10.3
145.0982	100.0
187.1087	22.7

Name: N-Acetyl-L-leucine
PrecursorMZ: 172.09827
RT: 6.9979
ExactMass: 173.10519334
Spectrum_type: 2
charge: -1
Formula: C8H15NO3
SMILES: CC(C)C[C@@H](C(=O)O)NC(=O)C
Method: HCD
Collision_energy: [28.333334]
Isolation_window: 4.0
Ion_mode: N
Num Peaks: 18
41.9984	2.3
43.0188	1.1
58.0296	1.9
71.0136	4.6
72.0453	1.5
73.0293	1.5
82.0296	11.4
88.0402	6.1
100.0402	3.3
111.0450	1.6
128.1080	2.9
130.0872	100.0
130.0918	1.4
155.0348	2.0
172.0615	6.6
172.0979	29.0
172.1343	1.8
173.0455	3.9

Name: N-Acetyl-L-ornithine
PrecursorMZ: 173.09337
RT: 3.4224
ExactMass: 174.10044231
Spectrum_type: 2
charge: -1
Formula: C7H14N2O3
SMILES: CC(=O)N[C@@H](CCCN)C(=O)O
Method: HCD
Collision_energy: [28.333334]
Isolation_window: 4.0
Ion_mode: N
Num Peaks: 18
41.9984	4.3
54.0347	0.7
58.0296	18.7
83.0613	2.7
84.0453	0.8
88.0403	0.5
100.0767	0.9
112.0766	2.3
113.0718	1.7
114.0559	1.1
125.0719	1.2
127.0876	1.2
129.1032	9.5
131.0824	100.0
131.0870	1.2
131.0912	0.9
131.0940	0.7
173.0931	48.3

Name: N-Acetyl-L-phenylalanine
PrecursorMZ: 206.08244
RT: 11.0346
ExactMass: 207.08954328
Spectrum_type: 2
charge: -1
Formula: C11H13NO3
SMILES: CC(=O)N[C@@H](CC1=CC=CC=C1)C(=O)O
Method: HCD
Collision_energy: [28.333334]
Isolation_window: 4.0
Ion_mode: N
Num Peaks: 14
41.9984	10.5
58.0296	40.3
70.0296	10.3
72.0088	5.3
73.0293	1.7
91.0550	22.0
103.0551	1.6
146.0458	1.4
147.0449	39.1
162.0922	1.8
164.0714	100.0
164.0785	1.5
206.0820	53.8
207.0661	2.1

Name: N-Acetyl-L-valine
PrecursorMZ: 158.08254
RT: 4.3427500000000006
ExactMass: 159.08954328
Spectrum_type: 2
charge: -1
Formula: C7H13NO3
SMILES: CC(C)[C@@H](C(=O)O)NC(=O)C
Method: HCD
Collision_energy: [28.333334]
Isolation_window: 4.0
Ion_mode: N
Num Peaks: 6
41.9985	11.7
58.0298	37.4
68.0505	27.0
114.0924	80.3
116.0717	100.0
158.0822	51.3

Name: N-Acetyl-Neuraminic Acid
PrecursorMZ: 308.0988
RT: 5.378233333333333
ExactMass: 309.10598118
Spectrum_type: 2
charge: -1
Formula: C11H19NO9
SMILES: CC(=O)N[C@@H]1[C@H](CC(O[C@H]1[C@@H]([C@@H](CO)O)O)(C(=O)O)O)O
Method: HCD
Collision_energy: [28.333334]
Isolation_window: 4.0
Ion_mode: N
Num Peaks: 35
55.0188	0.2
58.0297	0.2
59.0137	2.9
71.0136	0.8
71.0500	0.4
73.0293	0.2
82.0297	0.2
83.0137	0.7
84.0453	0.2
87.0084	100.0
87.0115	3.1
87.0147	1.0
87.0183	0.3
87.0219	0.1
88.0119	0.9
89.0242	1.0
98.0609	16.3
98.0645	0.4
98.0683	0.1
99.0643	0.2
100.0402	2.1
101.0242	3.6
110.0245	0.2
119.0348	2.2
126.0559	1.8
142.0508	0.4
170.0456	19.4
170.0532	0.2
170.0588	0.3
170.0625	0.2
171.0491	0.3
220.0825	0.4
290.0881	0.9
308.0986	7.1
309.1022	0.2

Name: N-Acetylasparagine
PrecursorMZ: 173.0567
RT: 3.9009
ExactMass: 174.0640568
Spectrum_type: 2
charge: -1
Formula: C6H10N2O4
SMILES: CC(=O)N[C@@H](CC(=O)N)C(=O)O
Method: HCD
Collision_energy: [28.333334]
Isolation_window: 4.0
Ion_mode: N
Num Peaks: 31
41.9984	75.3
45.1211	24.4
55.2495	22.4
58.0296	100.0
67.6057	22.5
70.0297	25.4
79.9572	88.5
87.3487	24.0
87.8129	21.1
92.5016	24.4
95.0718	22.7
96.0088	28.5
96.9814	20.9
97.3444	20.4
101.0747	19.5
104.9516	21.5
104.9557	23.2
106.7787	22.7
109.6507	19.7
114.0196	28.7
118.1984	20.8
123.0024	22.1
126.7507	24.2
133.9448	20.7
140.3210	23.5
140.5090	20.9
148.0709	23.0
155.0458	74.3
170.8904	20.2
172.9914	95.5
173.4811	35.3

Name: N-Acetyltryptophan
PrecursorMZ: 245.09327
RT: 33.3219
ExactMass: 246.10044231
Spectrum_type: 2
charge: -1
Formula: C13H14N2O3
SMILES: CC(=O)NC(CC1=CNC2=CC=CC=C21)C(=O)O
Method: HCD
Collision_energy: [28.333334]
Isolation_window: 4.0
Ion_mode: N
Num Peaks: 31
59.0137	11.3
71.0136	6.2
72.0088	7.9
74.0245	6.3
79.9571	6.8
86.0245	36.5
88.0401	5.1
92.0503	30.5
114.0558	8.3
116.0351	16.5
116.0503	100.0
128.0351	9.5
130.0661	9.7
139.0762	7.2
142.0659	17.7
144.0816	5.3
148.9772	5.3
148.9863	6.8
154.0659	4.9
156.0817	7.8
158.0609	16.1
169.0768	7.6
171.0925	55.2
181.0768	5.3
183.0925	82.7
183.1021	6.8
201.1032	9.1
215.0823	30.6
227.0823	7.5
245.0662	6.5
245.0927	71.5

Name: N-Fructosyl pyroglutamate
PrecursorMZ: 290.08804
RT: 6.7404
ExactMass: 291.0954165
Spectrum_type: 2
charge: -1
Formula: C11H17NO8
SMILES: C1CC(=O)N(C1C(=O)O)CC2(C(C(C(O2)CO)O)O)O
Method: HCD
Collision_energy: [28.333334]
Isolation_window: 4.0
Ion_mode: N
Num Peaks: 4
128.0353	100.0
170.0458	8.4
200.0564	32.8
230.0670	4.4

Name: N-acetylglutamic acid
PrecursorMZ: 188.05675
RT: 19.9046
ExactMass: 189.06372245
Spectrum_type: 2
charge: -1
Formula: C7H11NO5
SMILES: CC(=O)NC(CCC(=O)O)C(=O)O
Method: HCD
Collision_energy: [28.333334]
Isolation_window: 4.0
Ion_mode: N
Num Peaks: 18
41.9985	3.5
54.0349	3.3
58.0298	13.4
59.0138	44.5
74.0247	1.7
84.0455	4.0
98.0611	1.9
100.0404	3.6
100.0768	24.9
102.0560	100.0
102.0590	1.7
126.0561	7.8
128.0353	88.6
128.0378	1.2
144.0666	24.5
146.0459	8.3
170.0459	10.5
188.0565	10.9

Name: N-acetylmuramic acid
PrecursorMZ: 292.10362
RT: 8.749475
ExactMass: 293.11106656
Spectrum_type: 2
charge: -1
Formula: C11H19NO8
SMILES: C[C@H](C(=O)O)O[C@H]([C@H](C=O)NC(=O)C)[C@@H]([C@@H](CO)O)O
Method: HCD
Collision_energy: [28.333334]
Isolation_window: 4.0
Ion_mode: N
Num Peaks: 15
58.0298	5.6
65.9860	5.6
81.4523	6.0
83.8056	6.4
89.0242	100.0
93.2578	4.7
97.9171	4.4
98.6441	4.8
125.8914	5.2
148.4341	4.6
168.5927	4.7
172.7346	5.1
173.4779	39.6
184.9470	5.9
298.9112	6.5

Name: Npc283221
PrecursorMZ: 341.10939
RT: 2.8666
ExactMass: 342.11621151
Spectrum_type: 2
charge: -1
Formula: C12H22O11
SMILES: C([C@@H]1[C@@H]([C@@H]([C@H]([C@H](O1)OC2[C@H]([C@H](C([C@H]([C@@H]2O)O)O)O)O)O)O)O)O
Method: HCD
Collision_energy: [28.333334]
Isolation_window: 4.0
Ion_mode: N
Num Peaks: 17
59.0136	38.2
71.0136	24.8
73.0293	7.9
81.0456	18.2
85.0292	8.5
87.0085	23.6
89.0242	16.0
96.9599	42.9
101.0242	24.6
113.0242	24.4
141.0667	17.0
161.0453	10.6
181.0980	80.0
241.1191	75.6
281.1503	21.9
341.1087	100.0
341.1724	8.0

Name: O-Succinylhomoserine
PrecursorMZ: 218.06716
RT: 18.887
ExactMass: 219.07428713
Spectrum_type: 2
charge: -1
Formula: C8H13NO6
SMILES: C(COC(=O)CCC(=O)O)[C@@H](C(=O)O)N
Method: HCD
Collision_energy: [28.333334]
Isolation_window: 4.0
Ion_mode: N
Num Peaks: 75
57.0344	1.7
58.0296	2.8
59.0136	19.5
64.9523	4.3
71.0136	9.7
72.9928	1.5
73.0292	2.1
73.0404	3.4
74.0245	6.7
75.0085	7.0
84.0452	2.2
85.0293	2.3
86.0245	2.2
87.0085	3.5
88.0401	6.2
89.0242	2.2
96.0088	24.5
96.9599	3.0
98.0245	1.9
98.0609	3.6
98.9556	2.2
100.0402	6.2
101.0242	3.5
102.0558	2.0
103.0511	3.7
104.0351	16.6
108.0453	1.8
109.0405	3.5
110.0609	2.1
112.0401	4.9
112.0765	2.0
114.0194	3.2
114.0558	4.5
115.0034	3.4
116.0714	33.0
118.0507	20.2
128.0350	1.3
130.0508	5.0
130.0870	2.1
131.0460	3.8
135.0562	2.4
136.0765	3.1
137.0353	1.7
138.0558	2.7
140.0173	7.8
142.0870	3.1
145.0617	3.3
146.0456	28.0
154.0871	1.7
156.0664	2.1
156.1027	1.8
158.0457	9.8
160.0625	1.8
172.0614	1.6
172.0977	7.8
173.0509	6.9
174.0049	1.7
174.0769	6.0
174.1134	9.4
176.0562	2.1
182.0454	5.7
194.0561	3.8
200.0562	11.3
200.0925	13.3
209.0613	3.1
218.0667	66.6
218.0770	1.4
218.1030	100.0
218.1123	1.8
218.5683	11.7
219.0621	4.4
253.1193	3.0
257.1141	2.8
273.1089	10.7
325.1404	4.3

Name: Ophthalmate
PrecursorMZ: 288.12023
RT: 4.7343
ExactMass: 288.1195603
Spectrum_type: 2
charge: -1
Formula: C11H18N3O6-
SMILES: CC[C@@H](C(=O)NCC(=O)[O-])NC(=O)CC[C@@H](C(=O)[O-])[NH3+]
Method: HCD
Collision_energy: [28.333334]
Isolation_window: 4.0
Ion_mode: N
Num Peaks: 73
59.0137	8.6
67.0300	10.0
71.0137	3.9
73.0406	6.4
74.0246	21.9
85.0293	4.4
87.0562	3.5
88.0403	75.9
94.0409	16.5
95.0249	4.2
95.0487	9.8
96.9599	72.0
97.9594	2.9
98.9557	12.1
98.9642	2.2
102.0559	11.2
104.0352	2.5
112.0514	35.7
113.0357	2.6
114.0558	3.9
124.0516	4.1
127.0511	4.1
128.0352	4.8
130.0873	18.6
136.0877	100.0
140.0717	6.2
141.0669	3.8
141.1032	2.1
143.1189	16.0
144.0778	3.0
148.0880	2.1
148.9753	3.3
148.9842	5.1
148.9926	2.6
150.0559	3.7
152.0717	2.3
154.0984	6.4
155.0462	33.8
157.1345	12.2
166.0988	2.1
167.0589	2.1
169.0982	16.5
172.0727	37.3
173.0455	2.3
180.0776	86.1
181.0980	2.8
183.1139	3.2
184.0728	3.4
185.0565	17.2
187.1087	3.0
192.0776	7.2
198.0773	2.5
198.0882	41.1
199.1088	9.6
200.1404	17.8
201.1243	4.1
202.0831	22.8
210.0883	9.3
214.1198	4.1
214.1561	15.7
226.1195	3.6
226.1561	5.4
240.0990	50.7
244.0826	2.0
244.1302	23.6
258.1095	41.2
258.1459	18.8
270.1094	24.7
288.1063	6.3
288.1199	38.4
288.1564	66.7
289.0926	6.5
289.1640	1.9

Name: Ophthalmic acid
PrecursorMZ: 288.12031
RT: 15.4969
ExactMass: 289.12738533
Spectrum_type: 2
charge: -1
Formula: C11H19N3O6
SMILES: CC[C@@H](C(=O)NCC(=O)O)NC(=O)CC[C@@H](C(=O)O)N
Method: HCD
Collision_energy: [28.333334]
Isolation_window: 4.0
Ion_mode: N
Num Peaks: 13
88.0401	100.0
96.9598	30.2
138.0557	64.1
148.9757	15.8
148.9843	24.0
148.9929	14.4
155.0823	27.3
159.0772	27.0
181.0616	24.6
199.0720	29.3
226.1193	15.2
270.1091	35.4
288.1198	82.6

Name: Orotic Acid
PrecursorMZ: 155.0101
RT: 30.9787
ExactMass: 156.01710661
Spectrum_type: 2
charge: -1
Formula: C5H4N2O4
SMILES: C1=C(NC(=O)NC1=O)C(=O)O
Method: HCD
Collision_energy: [28.333334]
Isolation_window: 4.0
Ion_mode: N
Num Peaks: 18
40.0191	0.4
41.9984	16.3
59.0136	0.3
67.0187	0.3
67.0300	1.4
68.0140	0.6
79.9571	0.8
95.9520	0.4
96.0452	0.3
110.0245	0.3
111.0148	0.4
111.0196	100.0
111.0244	0.9
111.0268	1.8
111.0315	0.5
154.5262	0.3
155.0096	3.2
155.0346	0.3

Name: Otssp167
PrecursorMZ: 485.15111
RT: 10.2771
ExactMass: 486.1589315
Spectrum_type: 2
charge: -1
Formula: C25H28Cl2N4O2
SMILES: CC(=O)C1=CN=C2C=CC(=NC2=C1NC3CCC(CC3)CN(C)C)C4=CC(=C(C(=C4)Cl)O)Cl
Method: HCD
Collision_energy: [28.333334]
Isolation_window: 4.0
Ion_mode: N
Num Peaks: 4
87.0087	95.2
113.0243	89.8
175.0247	92.2
381.1036	100.0

Name: Oxaceprol
PrecursorMZ: 172.06171
RT: 4.359
ExactMass: 173.06880783
Spectrum_type: 2
charge: -1
Formula: C7H11NO4
SMILES: CC(=O)N1C[C@@H](C[C@H]1C(=O)O)O
Method: HCD
Collision_energy: [28.333334]
Isolation_window: 4.0
Ion_mode: N
Num Peaks: 30
41.0031	1.9
41.9984	13.8
43.0188	2.1
57.0344	2.9
58.0297	8.1
68.0504	2.0
71.0137	2.6
72.0453	24.6
83.0501	5.1
84.0453	85.0
86.0610	1.7
98.0610	7.9
100.0403	4.2
100.0766	2.1
101.0606	2.8
110.0610	11.4
110.0974	1.9
115.0593	2.0
116.0716	28.5
126.0559	17.7
127.0510	1.2
128.0352	2.3
128.0716	27.7
128.1080	37.3
130.0509	9.7
130.0872	6.9
154.0510	3.5
172.0615	100.0
172.0805	1.9
172.0979	51.0

Name: Oxindole-3-acetic acid
PrecursorMZ: 190.0513
RT: 25.207
ExactMass: 191.058243149
Spectrum_type: 2
charge: -1
Formula: C10H9NO3
SMILES: C1=CC=C2C(=C1)C(C(=O)N2)CC(=O)O
Method: HCD
Collision_energy: [28.333334]
Isolation_window: 4.0
Ion_mode: N
Num Peaks: 17
41.9984	2.4
59.0136	1.4
68.0504	5.0
72.9929	1.7
74.0245	7.1
112.0403	9.8
116.0504	2.5
118.0508	11.3
118.0661	4.7
128.0505	7.5
131.0376	12.9
144.0454	16.3
146.0610	100.0
172.0405	1.8
190.0510	30.4
190.0922	1.8
191.0560	1.8

Name: Oxypurinol
PrecursorMZ: 151.02645
RT: 34.23715
ExactMass: 152.03342538
Spectrum_type: 2
charge: -1
Formula: C5H4N4O2
SMILES: C1=NNC2=C1C(=O)NC(=O)N2
Method: HCD
Collision_energy: [28.333334]
Isolation_window: 4.0
Ion_mode: N
Num Peaks: 14
41.9985	7.1
65.0145	4.7
81.0094	1.5
83.0251	29.4
92.0268	2.5
96.0204	1.9
108.0204	5.9
109.0044	26.1
123.0075	2.2
123.0313	2.7
124.0153	2.0
136.0167	1.6
151.0262	100.0
151.0401	1.6

Name: P-Cresol sulfate
PrecursorMZ: 187.00739
RT: 38.4921
ExactMass: 188.01432991
Spectrum_type: 2
charge: -1
Formula: C7H8O4S
SMILES: CC1=CC=C(C=C1)OS(=O)(=O)O
Method: HCD
Collision_energy: [28.333334]
Isolation_window: 4.0
Ion_mode: N
Num Peaks: 10
41.9984	3.4
43.0188	3.7
59.0137	3.2
71.0137	3.1
79.9571	26.8
80.9650	8.0
107.0500	100.0
125.0970	13.2
187.0070	42.4
187.0975	8.5

Name: Phenol sulfate
PrecursorMZ: 172.99149
RT: 31.1509
ExactMass: 173.99867984
Spectrum_type: 2
charge: -1
Formula: C6H6O4S
SMILES: C1=CC=C(C=C1)OS(=O)(=O)O
Method: HCD
Collision_energy: [28.333334]
Isolation_window: 4.0
Ion_mode: N
Num Peaks: 14
48.1672	3.7
48.1835	3.9
70.2799	3.9
78.9590	13.9
79.9572	88.7
93.0342	5.3
96.9695	19.7
108.0216	10.3
109.0293	11.4
113.9580	4.1
125.3925	3.7
150.2691	4.5
172.9914	100.0
180.7424	4.7

Name: Phenylpropionylglycine
PrecursorMZ: 206.08243
RT: 14.6185
ExactMass: 207.08954328
Spectrum_type: 2
charge: -1
Formula: C11H13NO3
SMILES: C1=CC=C(C=C1)CCC(=O)NCC(=O)O
Method: HCD
Collision_energy: [28.333334]
Isolation_window: 4.0
Ion_mode: N
Num Peaks: 11
41.0031	7.3
74.0245	3.9
114.0559	6.9
120.0816	51.7
135.0562	3.1
160.0766	19.2
162.0922	13.0
164.0715	28.4
206.0820	100.0
206.0992	3.7
206.9965	26.2

Name: Phosphoric Acid
PrecursorMZ: 390.90051
RT: 31.1845
ExactMass: 97.97689557
Spectrum_type: 2
charge: -1
Formula: H3O4P
SMILES: OP(=O)(O)O
Method: HCD
Collision_energy: [28.333334]
Isolation_window: 4.0
Ion_mode: N
Num Peaks: 24
109.5142	0.1
118.1631	0.1
125.3470	0.1
127.7653	0.1
133.1222	0.1
147.3431	0.1
166.8626	0.1
167.7091	0.1
173.4770	0.3
176.9291	0.2
176.9361	10.5
194.9132	0.2
194.9381	2.4
194.9466	91.7
194.9630	0.6
194.9676	0.7
194.9854	0.2
194.9978	0.1
233.8014	0.1
292.8847	0.6
292.8938	0.3
292.9235	100.0
292.9622	0.8
292.9729	0.2

Name: Phthalic Acid
PrecursorMZ: 165.01969
RT: 32.9612
ExactMass: 166.02660867
Spectrum_type: 2
charge: -1
Formula: C8H6O4
SMILES: C1=CC=C(C(=C1)C(=O)O)C(=O)O
Method: HCD
Collision_energy: [28.333334]
Isolation_window: 4.0
Ion_mode: N
Num Peaks: 4
77.0396	4.8
121.0295	100.0
149.0095	14.3
165.0416	5.0

Name: Procysteine
PrecursorMZ: 145.99207
RT: 11.6899
ExactMass: 146.9990142
Spectrum_type: 2
charge: -1
Formula: C4H5NO3S
SMILES: C1[C@H](NC(=O)S1)C(=O)O
Method: HCD
Collision_energy: [28.333334]
Isolation_window: 4.0
Ion_mode: N
Num Peaks: 9
41.9983	12.6
58.9959	19.2
85.0292	12.7
102.0017	12.4
102.0558	100.0
102.9857	80.4
128.0350	52.0
145.9915	50.8
146.0456	67.2

Name: Prolylhydroxyproline
PrecursorMZ: 227.10395
RT: 4.7405
ExactMass: 228.111007
Spectrum_type: 2
charge: -1
Formula: C10H16N2O4
SMILES: C1C[C@H](NC1)C(=O)N2C[C@@H](C[C@H]2C(=O)O)O
Method: HCD
Collision_energy: [28.333334]
Isolation_window: 4.0
Ion_mode: N
Num Peaks: 64
54.0348	2.0
58.0296	1.3
59.0136	14.8
71.0136	19.6
73.0293	1.7
81.0456	10.1
82.0296	3.6
82.0660	6.4
83.0248	1.9
84.0453	1.9
84.0817	1.3
87.0085	3.2
96.0453	10.8
100.0765	1.5
101.0718	2.3
105.0191	2.2
111.0198	3.9
111.0561	3.6
112.0276	5.3
112.0402	5.0
112.0514	6.3
112.0765	2.6
113.0354	2.7
114.0558	28.7
115.0398	2.5
115.0874	7.9
116.0714	1.5
121.0405	1.8
124.0276	15.9
125.0354	2.5
125.0718	9.2
126.0558	4.6
127.0511	3.0
127.0875	4.0
137.0717	1.4
139.0874	5.4
140.0589	12.6
140.1078	8.9
141.0667	6.8
142.0619	2.3
153.0667	3.3
153.1032	1.7
154.0745	14.7
155.0823	41.5
155.1187	3.1
165.1031	3.1
166.0871	2.7
167.0823	40.8
181.0979	2.4
183.0660	6.0
183.0771	1.7
183.1136	58.0
184.0724	3.0
198.0881	1.9
209.0929	4.2
210.0881	1.5
227.0671	6.5
227.0776	1.4
227.0927	7.0
227.1034	100.0
227.1398	29.7
227.2014	2.8
228.0872	2.4
228.0988	1.6

Name: Protocatechuic Acid
PrecursorMZ: 153.01935
RT: 37.1279
ExactMass: 154.02660867
Spectrum_type: 2
charge: -1
Formula: C7H6O4
SMILES: C1=CC(=C(C=C1C(=O)O)O)O
Method: HCD
Collision_energy: [28.333334]
Isolation_window: 4.0
Ion_mode: N
Num Peaks: 17
42.2773	17.6
46.2732	21.4
56.7900	17.3
69.9066	18.0
71.3486	15.6
77.6976	16.3
84.2400	14.9
88.6038	16.5
92.9005	15.9
93.8631	18.1
94.8769	17.8
97.7510	17.2
105.5224	16.2
107.2041	16.2
109.0293	100.0
112.6857	19.7
137.4676	15.6

Name: Pseudouridine
PrecursorMZ: 243.06258
RT: 8.9507
ExactMass: 244.06953611
Spectrum_type: 2
charge: -1
Formula: C9H12N2O6
SMILES: C1=C(C(=O)NC(=O)N1)[C@H]2[C@@H]([C@@H]([C@H](O2)CO)O)O
Method: HCD
Collision_energy: [28.333334]
Isolation_window: 4.0
Ion_mode: N
Num Peaks: 13
82.0662	7.7
110.0248	8.9
111.0200	5.8
129.1034	4.9
130.0873	57.0
140.0353	8.3
149.0224	2.7
153.0306	100.0
182.1550	6.6
183.0411	10.1
199.1816	44.9
243.0622	3.5
243.1714	58.4

Name: Pterin
PrecursorMZ: 162.04253
RT: 11.76115
ExactMass: 163.0494098
Spectrum_type: 2
charge: -1
Formula: C6H5N5O
SMILES: C1=CN=C2C(=N1)C(=O)NC(=N2)N
Method: HCD
Collision_energy: [28.333334]
Isolation_window: 4.0
Ion_mode: N
Num Peaks: 5
41.9984	7.7
92.0252	4.9
119.0362	95.0
120.0202	6.3
162.0421	100.0

Name: Pyridoxal
PrecursorMZ: 166.05126
RT: 14.2657
ExactMass: 167.058243149
Spectrum_type: 2
charge: -1
Formula: C8H9NO3
SMILES: CC1=NC=C(C(=C1O)C=O)CO
Method: HCD
Collision_energy: [28.333334]
Isolation_window: 4.0
Ion_mode: N
Num Peaks: 7
92.0504	5.0
107.0375	4.0
108.0453	100.0
120.0453	7.7
136.0403	16.9
138.0559	92.5
166.0509	68.8

Name: Pyridoxine
PrecursorMZ: 168.06702
RT: 8.6612
ExactMass: 169.07389321
Spectrum_type: 2
charge: -1
Formula: C8H11NO3
SMILES: CC1=NC=C(C(=C1O)CO)CO
Method: HCD
Collision_energy: [28.333334]
Isolation_window: 4.0
Ion_mode: N
Num Peaks: 5
41.9984	14.8
108.0452	100.0
124.0765	21.8
138.0558	9.2
168.0663	49.2

Name: Pyrrole-2-Carboxylic Acid
PrecursorMZ: 110.02502
RT: 27.1365
ExactMass: 111.032028402
Spectrum_type: 2
charge: -1
Formula: C5H5NO2
SMILES: C1=CNC(=C1)C(=O)O
Method: HCD
Collision_energy: [28.333334]
Isolation_window: 4.0
Ion_mode: N
Num Peaks: 6
41.9984	44.6
66.0347	7.8
79.9571	31.8
80.9649	5.5
106.9806	6.2
110.0245	100.0

Name: Pyruvic Acid
PrecursorMZ: 87.00883
RT: 8.0093
ExactMass: 88.016043985
Spectrum_type: 2
charge: -1
Formula: C3H4O3
SMILES: CC(=O)C(=O)O
Method: HCD
Collision_energy: [28.333334]
Isolation_window: 4.0
Ion_mode: N
Num Peaks: 9
41.0031	1.1
41.9984	0.2
43.0188	1.6
87.0085	11.0
87.0133	0.2
87.0415	0.3
87.0448	100.0
87.0495	2.2
87.0529	0.4

Name: Quinate
PrecursorMZ: 191.05605
RT: 4.5594
ExactMass: 192.0633881
Spectrum_type: 2
charge: -1
Formula: C7H12O6
SMILES: C1[C@H](C([C@@H](CC1(C(=O)O)O)O)O)O
Method: HCD
Collision_energy: [28.333334]
Isolation_window: 4.0
Ion_mode: N
Num Peaks: 31
43.0188	3.0
44.9981	9.6
50.6480	2.1
55.3169	2.4
59.0137	12.5
65.7183	2.4
69.0341	2.8
71.0136	2.7
73.0293	3.7
75.4685	1.9
79.9572	3.5
81.0345	3.8
83.0500	3.4
85.0266	3.1
85.0293	54.9
86.0953	2.3
87.0084	9.9
93.0343	18.3
94.9804	3.5
109.0293	5.2
111.0448	3.0
124.6451	2.2
127.0397	6.6
151.6475	3.0
155.9883	4.4
156.9962	2.9
170.8034	2.6
173.0452	3.2
173.4782	5.1
191.0560	100.0
191.0659	3.5

Name: Raffinose
PrecursorMZ: 503.1627
RT: 2.3762999999999996
ExactMass: 504.16903493
Spectrum_type: 2
charge: -1
Formula: C18H32O16
SMILES: C([C@@H]1[C@@H]([C@@H]([C@H]([C@H](O1)OC[C@@H]2[C@H]([C@@H]([C@H]([C@H](O2)O[C@]3([C@H]([C@@H]([C@H](O3)CO)O)O)CO)O)O)O)O)O)O)O
Method: HCD
Collision_energy: [28.333334]
Isolation_window: 4.0
Ion_mode: N
Num Peaks: 21
59.0136	40.2
71.0136	47.4
73.0292	13.0
85.0292	20.5
89.0241	39.4
95.0135	19.9
96.9598	75.0
101.0241	30.7
113.0241	100.0
119.0347	11.8
143.0346	20.0
148.9761	11.3
148.9802	16.3
148.9849	17.6
148.9889	13.8
161.0452	40.7
179.0558	37.8
221.0664	11.3
323.0981	32.6
383.1193	15.7
503.1612	23.4

Name: Ribonolactone
PrecursorMZ: 147.03018
RT: 7.93
ExactMass: 148.03717335
Spectrum_type: 2
charge: -1
Formula: C5H8O5
SMILES: C([C@@H]1[C@H]([C@H](C(=O)O1)O)O)O
Method: HCD
Collision_energy: [28.333334]
Isolation_window: 4.0
Ion_mode: N
Num Peaks: 20
41.0031	21.5
43.0188	14.5
44.9980	64.5
55.0187	14.5
57.0344	10.3
59.0136	65.0
71.0136	93.2
71.0500	5.4
73.0293	25.4
75.0085	7.1
85.0293	18.9
87.0085	42.1
89.0242	8.8
99.0085	100.0
99.0449	18.5
101.0242	14.3
117.0191	25.5
129.0191	10.6
147.0296	25.0
147.0660	18.7

Name: Sarcosine
PrecursorMZ: 88.04056
RT: 4.681
ExactMass: 89.047678466
Spectrum_type: 2
charge: -1
Formula: C3H7NO2
SMILES: CNCC(=O)O
Method: HCD
Collision_energy: [28.333334]
Isolation_window: 4.0
Ion_mode: N
Num Peaks: 3
44.9981	1.0
88.0403	100.0
88.0427	1.9

Name: Secodihydro-hydramicromelin B
PrecursorMZ: 325.09323
RT: 30.2917
ExactMass: 326.10016753
Spectrum_type: 2
charge: -1
Formula: C15H18O8
SMILES: CC1(C(C(OC1=O)C2=C(C=C(C(=C2)CCC(=O)O)O)OC)O)O
Method: HCD
Collision_energy: [28.333334]
Isolation_window: 4.0
Ion_mode: N
Num Peaks: 9
59.0136	11.0
96.9599	11.0
114.0558	11.5
135.0449	100.0
136.0527	21.3
137.0606	12.8
181.0504	57.4
325.0928	28.7
325.1841	87.5

Name: Shikimic Acid
PrecursorMZ: 173.0456
RT: 5.5789
ExactMass: 174.05282342
Spectrum_type: 2
charge: -1
Formula: C7H10O5
SMILES: C1[C@H]([C@@H]([C@@H](C=C1C(=O)O)O)O)O
Method: HCD
Collision_energy: [28.333334]
Isolation_window: 4.0
Ion_mode: N
Num Peaks: 39
41.0032	2.9
41.5156	1.2
50.0453	1.2
53.5517	1.3
55.9464	1.4
57.0344	6.5
58.3067	1.2
59.0136	1.8
65.0395	2.5
67.0188	2.6
69.0344	31.7
71.0136	8.9
73.0294	2.1
79.9571	23.0
81.0345	2.6
81.8503	1.5
83.0500	3.7
85.0294	2.2
91.8779	1.4
93.0344	100.0
93.0394	1.6
99.0449	9.2
106.6965	1.3
108.0216	2.8
109.0293	5.0
111.0449	5.8
111.0813	1.7
113.0242	10.2
118.7642	1.4
131.7454	1.2
138.9052	1.5
142.0819	1.4
143.0348	1.9
148.6391	1.2
165.1805	1.3
172.9913	21.1
173.0454	50.8
173.0818	6.3
173.4802	1.9

Name: Sinapinic acid
PrecursorMZ: 223.06143
RT: 36.0338
ExactMass: 224.06847348
Spectrum_type: 2
charge: -1
Formula: C11H12O5
SMILES: COC1=CC(=CC(=C1O)OC)/C=C\C(=O)O
Method: HCD
Collision_energy: [28.333334]
Isolation_window: 4.0
Ion_mode: N
Num Peaks: 26
59.0137	4.8
71.0137	3.0
79.9571	4.4
80.9650	6.3
96.9599	2.5
109.0293	5.6
114.0559	3.2
121.0293	15.4
128.0351	3.6
132.0214	2.4
135.0450	5.1
147.0450	6.6
149.0242	100.0
151.0400	8.0
161.0606	5.2
163.0398	2.9
164.0477	68.0
179.0347	3.7
179.0711	17.3
186.6130	5.4
208.0375	5.5
223.0252	5.1
223.0610	78.4
223.0811	4.6
223.1337	3.0
223.5824	3.2

Name: Stachyose
PrecursorMZ: 665.21577
RT: 2.1286
ExactMass: 666.22185834
Spectrum_type: 2
charge: -1
Formula: C24H42O21
SMILES: C([C@@H]1[C@@H]([C@@H]([C@H]([C@H](O1)OC[C@@H]2[C@@H]([C@@H]([C@H]([C@H](O2)OC[C@@H]3[C@H]([C@@H]([C@H]([C@H](O3)O[C@]4([C@H]([C@@H]([C@H](O4)CO)O)O)CO)O)O)O)O)O)O)O)O)O)O
Method: HCD
Collision_energy: [28.333334]
Isolation_window: 4.0
Ion_mode: N
Num Peaks: 15
71.0135	21.4
89.0241	31.2
96.9598	18.0
101.0241	20.7
113.0241	23.5
119.0346	9.7
125.0240	12.3
143.0345	23.2
148.9830	12.8
161.0452	14.9
179.0557	40.5
305.0878	8.7
503.1617	43.8
665.2146	100.0
665.3221	8.3

Name: Stearic Acid
PrecursorMZ: 283.26441
RT: 6.0086
ExactMass: 284.271530387
Spectrum_type: 2
charge: -1
Formula: C18H36O2
SMILES: CCCCCCCCCCCCCCCCCC(=O)O
Method: HCD
Collision_energy: [28.333334]
Isolation_window: 4.0
Ion_mode: N
Num Peaks: 20
73.1112	1.3
78.9251	1.5
84.6963	1.5
86.3644	1.3
87.2153	1.7
94.9806	8.9
96.3371	1.2
96.9598	1.4
102.3159	1.4
131.5819	1.6
154.2095	1.4
173.4772	3.0
173.4845	1.6
185.0681	3.3
207.2356	1.4
222.8416	1.4
228.2649	1.4
238.0677	1.3
277.7366	1.3
283.2643	100.0

Name: Suberic acid
PrecursorMZ: 173.08202
RT: 24.927
ExactMass: 174.08920892
Spectrum_type: 2
charge: -1
Formula: C8H14O4
SMILES: C(CCCC(=O)O)CCC(=O)O
Method: HCD
Collision_energy: [28.333334]
Isolation_window: 4.0
Ion_mode: N
Num Peaks: 24
41.0032	0.4
41.9984	0.2
57.0344	7.7
57.0369	0.2
59.0137	0.2
81.0345	1.3
83.0500	16.3
83.0530	0.3
83.0558	0.2
109.0658	4.3
111.0764	0.3
111.0813	100.0
111.0853	1.1
111.0882	1.4
111.0902	0.3
111.0929	0.3
111.0956	0.2
112.0848	0.2
129.0558	0.1
129.0921	6.4
173.0818	53.7
173.0958	0.3
173.0997	0.4
174.0855	0.1

Name: Suberylglycine
PrecursorMZ: 230.10365
RT: 18.3182
ExactMass: 231.11067264
Spectrum_type: 2
charge: -1
Formula: C10H17NO5
SMILES: C(CCCC(=O)O)CCC(=O)NCC(=O)O
Method: HCD
Collision_energy: [28.333334]
Isolation_window: 4.0
Ion_mode: N
Num Peaks: 28
59.0136	3.5
69.0343	3.1
71.0136	2.2
83.0500	2.3
84.0452	2.3
98.0609	3.4
112.0401	100.0
113.0241	4.3
114.0558	14.9
114.0922	2.2
115.0592	13.6
116.0714	25.6
128.0350	6.3
130.0507	62.7
131.0823	2.3
142.0871	4.4
144.0663	3.1
148.9809	3.6
148.9895	2.5
156.0663	3.2
158.0821	8.7
168.1027	6.4
186.0769	2.1
186.1133	21.9
212.0926	18.5
230.0661	2.6
230.0924	2.6
230.1031	61.4

Name: Succinate
PrecursorMZ: 117.01955
RT: 22.0978
ExactMass: 116.0109586
Spectrum_type: 2
charge: -1
Formula: C4H4O4-2
SMILES: C(CC(=O)[O-])C(=O)[O-]
Method: HCD
Collision_energy: [28.333334]
Isolation_window: 4.0
Ion_mode: N
Num Peaks: 16
43.0188	0.9
55.0188	2.3
57.0344	0.9
59.0136	2.8
71.0500	1.3
73.0292	100.0
73.0317	3.1
73.0328	2.6
73.0340	1.0
87.0450	0.9
99.0085	8.8
116.0715	1.9
116.9283	1.3
117.0191	43.8
117.0556	1.2
117.0748	1.4

Name: Succinic Acid
PrecursorMZ: 117.01928
RT: 22.5483
ExactMass: 118.02660867
Spectrum_type: 2
charge: -1
Formula: C4H6O4
SMILES: C(CC(=O)O)C(=O)O
Method: HCD
Collision_energy: [28.333334]
Isolation_window: 4.0
Ion_mode: N
Num Peaks: 22
55.0188	0.8
73.0265	1.0
73.0291	100.0
73.0317	3.2
73.0328	2.4
73.0340	1.0
73.0354	0.5
73.0366	0.2
73.0381	0.2
73.0395	0.1
73.0409	0.1
73.0451	0.1
99.0085	9.6
99.0123	0.2
99.0143	0.2
99.0161	0.1
117.0190	39.6
117.0238	0.4
117.0265	0.7
117.0286	0.4
117.0317	0.2
117.0340	0.1

Name: Sulfanilic acid
PrecursorMZ: 172.00777
RT: 16.6289
ExactMass: 173.01466426
Spectrum_type: 2
charge: -1
Formula: C6H7NO3S
SMILES: C1=CC(=CC=C1N)S(=O)(=O)O
Method: HCD
Collision_energy: [28.333334]
Isolation_window: 4.0
Ion_mode: N
Num Peaks: 3
79.9573	39.8
108.0455	13.2
172.0074	100.0

Name: Sulfosuccinic acid monosodium salt
PrecursorMZ: 196.97625
RT: 36.4494
ExactMass: 197.9834237
Spectrum_type: 2
charge: -1
Formula: C4H6O7S
SMILES: C(C(C(=O)O)S(=O)(=O)O)C(=O)O
Method: HCD
Collision_energy: [28.333334]
Isolation_window: 4.0
Ion_mode: N
Num Peaks: 37
41.9984	0.4
59.0137	0.3
71.0136	20.1
71.0160	0.6
71.0182	0.2
79.9572	1.3
80.9618	0.8
80.9649	100.0
80.9677	2.5
80.9704	1.0
80.9737	0.2
81.0344	0.3
90.9857	0.8
96.9598	32.2
96.9644	0.6
96.9671	0.3
98.9556	27.3
98.9594	0.4
98.9640	5.3
108.9963	1.1
116.0174	0.3
123.0448	0.7
125.0242	0.5
125.0605	0.2
128.0351	0.3
134.9756	1.3
135.0449	0.3
152.9861	17.7
152.9925	0.2
153.0191	1.1
153.0611	0.3
178.9654	0.4
196.9230	1.1
196.9759	19.9
196.9847	0.3
197.0452	0.6
197.1181	0.7

Name: Syringic Acid
PrecursorMZ: 197.04568
RT: 31.5111
ExactMass: 198.05282342
Spectrum_type: 2
charge: -1
Formula: C9H10O5
SMILES: COC1=CC(=CC(=C1O)OC)C(=O)O
Method: HCD
Collision_energy: [28.333334]
Isolation_window: 4.0
Ion_mode: N
Num Peaks: 29
40.7155	10.3
42.3799	11.1
42.5619	11.0
43.2065	11.8
44.4244	10.8
45.1660	10.7
48.2585	14.6
49.7493	9.8
51.8332	11.0
52.2469	10.9
52.9267	13.3
55.7167	10.4
62.4613	10.7
68.1819	12.5
73.9520	11.1
78.0109	14.4
78.7516	10.2
87.3504	12.7
89.0032	25.5
103.2886	11.5
106.0060	15.5
121.0293	100.0
123.0086	19.3
131.7583	11.7
138.0321	31.1
140.6333	12.3
153.0556	80.4
155.6160	13.5
177.1820	12.0

Name: Taurine
PrecursorMZ: 124.00738
RT: 5.6874666666666664
ExactMass: 125.01466426
Spectrum_type: 2
charge: -1
Formula: C2H7NO3S
SMILES: C(CS(=O)(=O)O)N
Method: HCD
Collision_energy: [28.333334]
Isolation_window: 4.0
Ion_mode: N
Num Peaks: 8
49.9351	5.2
77.0267	5.2
79.9550	6.5
79.9572	100.0
80.9942	6.4
100.8049	5.7
120.6688	5.2
124.0072	62.7

Name: Taxifolin
PrecursorMZ: 303.06568
RT: 5.6002
ExactMass: 304.05830272
Spectrum_type: 2
charge: -1
Formula: C15H12O7
SMILES: C1=CC(=C(C=C1[C@@H]2[C@H](C(=O)C3=C(C=C(C=C3O2)O)O)O)O)O
Method: HCD
Collision_energy: [28.333334]
Isolation_window: 4.0
Ion_mode: N
Num Peaks: 16
106.1935	10.2
112.5261	10.3
115.9137	10.3
123.7762	9.9
126.3140	10.0
139.4210	10.0
141.9393	12.3
165.0669	12.6
173.4748	19.2
173.4838	37.5
193.0248	9.9
213.0885	14.8
218.6174	10.5
257.0779	100.0
273.5674	11.0
299.9994	11.7

Name: Tenofovir
PrecursorMZ: 286.07101
RT: 21.9786
ExactMass: 287.07834094
Spectrum_type: 2
charge: -1
Formula: C9H14N5O4P
SMILES: C[C@H](CN1C=NC2=C(N=CN=C21)N)OCP(=O)(O)O
Method: HCD
Collision_energy: [28.333334]
Isolation_window: 4.0
Ion_mode: N
Num Peaks: 8
62.9641	16.0
80.9747	5.4
110.9852	14.9
134.0471	100.0
134.0499	1.7
151.0165	26.2
154.6114	1.4
286.0710	34.0

Name: Tetradecanedioic acid
PrecursorMZ: 257.1759
RT: 39.2176
ExactMass: 258.18310931
Spectrum_type: 2
charge: -1
Formula: C14H26O4
SMILES: C(CCCCCCC(=O)O)CCCCCC(=O)O
Method: HCD
Collision_energy: [28.333334]
Isolation_window: 4.0
Ion_mode: N
Num Peaks: 17
59.0137	16.7
79.9571	7.3
83.0501	6.9
124.0766	8.5
148.9768	8.0
148.9804	10.4
148.9858	10.0
148.9882	7.5
158.9253	34.2
176.9359	8.9
195.1753	55.5
239.1652	30.2
242.6266	6.5
256.6243	14.0
256.6697	7.5
257.1758	100.0
257.2394	30.0

Name: Thymidine
PrecursorMZ: 241.08294
RT: 10.06325
ExactMass: 242.09027155
Spectrum_type: 2
charge: -1
Formula: C10H14N2O5
SMILES: CC1=CN(C(=O)NC1=O)[C@H]2C[C@@H]([C@H](O2)CO)O
Method: HCD
Collision_energy: [28.333334]
Isolation_window: 4.0
Ion_mode: N
Num Peaks: 25
64.9741	17.0
65.0358	17.0
73.7357	16.6
75.7093	16.2
79.3266	18.2
82.0194	15.5
102.8458	16.5
109.0454	21.0
109.5820	15.9
120.6728	15.7
125.0355	100.0
141.7817	17.7
151.0508	22.8
151.8710	16.0
161.5216	16.9
164.8722	16.2
170.2645	15.8
172.9760	17.1
173.4800	70.1
181.4555	17.5
193.7716	16.9
198.0785	19.2
206.2654	17.2
211.4199	16.9
241.2174	17.6

Name: Traumatic Acid
PrecursorMZ: 227.12897
RT: 6.2576
ExactMass: 228.13615911
Spectrum_type: 2
charge: -1
Formula: C12H20O4
SMILES: C(CCCCC(=O)O)CCC/C=C/C(=O)O
Method: HCD
Collision_energy: [28.333334]
Isolation_window: 4.0
Ion_mode: N
Num Peaks: 25
69.4493	9.7
73.3717	9.0
74.3686	9.3
78.2634	9.0
78.9352	9.3
97.0657	24.9
101.3458	8.9
120.5791	10.3
137.0355	58.7
142.1757	9.6
143.7838	11.8
165.0668	32.4
165.0920	11.0
165.1283	15.1
167.1067	11.7
170.0686	12.9
173.4787	34.9
173.4865	10.2
181.1233	30.7
183.1389	100.0
191.0560	55.2
209.1188	23.2
214.4895	11.1
216.0921	12.0
227.2015	29.5

Name: Tridecanedioic acid
PrecursorMZ: 243.16055
RT: 35.7764
ExactMass: 244.16745924
Spectrum_type: 2
charge: -1
Formula: C13H24O4
SMILES: C(CCCCCC(=O)O)CCCCCC(=O)O
Method: HCD
Collision_energy: [28.333334]
Isolation_window: 4.0
Ion_mode: N
Num Peaks: 13
59.0136	18.9
71.0136	13.1
79.9571	10.1
88.0402	8.5
114.0559	12.7
124.0765	8.8
128.0351	20.7
136.0765	12.5
181.1596	48.4
220.6136	12.9
225.1496	43.0
243.1601	100.0
243.1967	14.1

Name: Trimellitic acid
PrecursorMZ: 209.00945
RT: 37.9613
ExactMass: 210.01643791
Spectrum_type: 2
charge: -1
Formula: C9H6O6
SMILES: C1=CC(=C(C=C1C(=O)O)C(=O)O)C(=O)O
Method: HCD
Collision_energy: [28.333334]
Isolation_window: 4.0
Ion_mode: N
Num Peaks: 22
41.9984	3.8
59.0137	14.9
79.9571	3.8
80.9650	3.0
93.0344	10.4
96.9599	10.3
119.0503	2.2
121.0293	86.5
121.0658	15.6
124.0766	2.8
137.0243	9.7
148.9743	2.7
148.9837	4.0
148.9923	2.5
150.0322	2.9
165.0193	29.5
165.0556	100.0
209.0093	4.7
209.0456	6.9
209.0849	6.3
209.1188	2.7
209.1547	9.6

Name: Trinexapac
PrecursorMZ: 223.06151
RT: 13.9997
ExactMass: 224.06847348
Spectrum_type: 2
charge: -1
Formula: C11H12O5
SMILES: C1CC1C(=C2C(=O)CC(CC2=O)C(=O)O)O
Method: HCD
Collision_energy: [28.333334]
Isolation_window: 4.0
Ion_mode: N
Num Peaks: 23
44.9980	9.4
59.0136	5.8
65.0030	91.2
71.0136	6.2
73.0293	9.1
83.0500	78.3
91.0551	7.1
93.0343	7.1
95.0136	10.8
107.0500	11.4
116.0714	6.5
119.0500	42.2
121.0656	16.9
124.0402	13.6
133.0656	5.9
135.0449	5.3
137.0606	7.8
137.0717	5.2
149.0605	100.0
161.0606	13.0
165.0556	5.0
179.0711	25.3
223.0611	57.7

Name: Undecanedioic Acid
PrecursorMZ: 215.12887
RT: 36.4109
ExactMass: 216.13615911
Spectrum_type: 2
charge: -1
Formula: C11H20O4
SMILES: C(CCCCC(=O)O)CCCCC(=O)O
Method: HCD
Collision_energy: [28.333334]
Isolation_window: 4.0
Ion_mode: N
Num Peaks: 20
62.4200	8.9
76.1560	9.9
78.5923	9.1
83.6006	8.3
91.5311	8.8
97.2826	9.1
102.0759	9.2
117.3990	9.4
119.1709	9.8
122.3111	8.4
124.0393	8.8
148.1066	10.4
151.1223	7.9
153.1285	86.1
160.7573	8.3
173.4825	74.2
173.6590	9.6
179.9381	9.3
183.2684	10.6
197.1184	100.0

Name: Uric Acid
PrecursorMZ: 167.02131
RT: 33.3308
ExactMass: 168.02834
Spectrum_type: 2
charge: -1
Formula: C5H4N4O3
SMILES: C12=C(NC(=O)N1)NC(=O)NC2=O
Method: HCD
Collision_energy: [28.333334]
Isolation_window: 4.0
Ion_mode: N
Num Peaks: 11
41.0145	1.0
41.9985	48.9
69.0094	15.3
96.0203	35.2
97.0044	6.4
98.0360	3.7
123.0313	1.6
124.0152	77.9
124.0173	1.0
142.0259	6.8
167.0211	100.0

Name: Uridine
PrecursorMZ: 279.0392
RT: 11.7934
ExactMass: 244.06953611
Spectrum_type: 2
charge: -1
Formula: C9H12N2O6
SMILES: C1=CN(C(=O)NC1=O)[C@H]2[C@@H]([C@@H]([C@H](O2)CO)O)O
Method: HCD
Collision_energy: [28.333334]
Isolation_window: 4.0
Ion_mode: N
Num Peaks: 7
111.0198	15.0
136.0765	100.0
148.9779	16.3
148.9868	18.0
243.0620	38.4
279.0870	29.3
279.2325	14.8

Name: Val-Ala
PrecursorMZ: 187.10905
RT: 4.3743
ExactMass: 188.11609238
Spectrum_type: 2
charge: -1
Formula: C8H16N2O3
SMILES: C[C@@H](C(=O)O)NC(=O)[C@H](C(C)C)N
Method: HCD
Collision_energy: [28.333334]
Isolation_window: 4.0
Ion_mode: N
Num Peaks: 9
87.0563	6.8
88.0403	10.2
100.0767	3.3
112.9895	3.6
116.0717	43.0
126.0924	12.6
143.1190	100.0
145.0982	3.0
187.1088	71.5

Name: Val-Glu
PrecursorMZ: 245.11448
RT: 19.1534
ExactMass: 246.12157168
Spectrum_type: 2
charge: -1
Formula: C10H18N2O5
SMILES: CC(C)[C@@H](C(=O)N[C@@H](CCC(=O)O)C(=O)O)N
Method: HCD
Collision_energy: [28.333334]
Isolation_window: 4.0
Ion_mode: N
Num Peaks: 59
59.0137	2.8
68.0504	1.4
71.0136	0.8
74.0245	1.6
84.0452	3.2
85.0293	1.3
86.0609	2.7
87.0085	0.6
88.0401	3.1
96.0089	1.0
96.9599	11.2
97.9592	1.4
98.0609	1.2
98.9557	3.8
100.0402	2.0
100.0766	0.7
102.0558	20.1
112.0401	0.7
113.0717	4.7
115.0874	30.6
116.0714	100.0
116.0761	1.8
116.0787	1.7
116.0808	0.9
117.0749	0.7
127.0875	1.3
128.0350	51.5
128.0401	0.8
128.0436	0.8
130.0507	1.5
140.1079	0.8
141.1031	1.6
144.0662	0.7
145.0768	0.8
145.0980	1.0
146.0456	3.9
148.9751	0.7
148.9838	1.2
148.9921	0.7
155.1188	2.5
157.1344	46.4
158.0819	0.8
160.0612	1.0
165.1031	2.8
170.0455	1.0
173.0929	0.9
174.0769	0.7
183.1137	17.2
201.0877	1.0
201.1242	47.3
201.1322	0.9
202.1081	0.8
227.1035	28.6
245.0659	0.8
245.0778	1.6
245.1140	98.3
246.0614	1.5
246.0980	2.6
246.1174	1.5

Name: Val-Tyr
PrecursorMZ: 279.13527
RT: 30.1213
ExactMass: 280.14230712
Spectrum_type: 2
charge: -1
Formula: C14H20N2O4
SMILES: CC(C)[C@@H](C(=O)N[C@@H](CC1=CC=C(C=C1)O)C(=O)O)N
Method: HCD
Collision_energy: [28.333334]
Isolation_window: 4.0
Ion_mode: N
Num Peaks: 9
107.0502	55.4
116.0716	89.0
127.0876	45.2
129.1032	9.9
134.0611	9.6
173.0931	28.8
218.1185	13.4
279.1350	100.0
279.2329	50.7

Name: Valsartan
PrecursorMZ: 434.21898
RT: 34.054
ExactMass: 435.2270398
Spectrum_type: 2
charge: -1
Formula: C24H29N5O3
SMILES: CCCCC(=O)N(CC1=CC=C(C=C1)C2=CC=CC=C2C3=NNN=N3)[C@@H](C(C)C)C(=O)O
Method: HCD
Collision_energy: [28.333334]
Isolation_window: 4.0
Ion_mode: N
Num Peaks: 14
71.0136	3.8
88.0401	16.5
96.9598	6.8
115.0035	13.1
132.0300	6.7
148.9806	3.4
148.9898	2.5
318.2074	24.4
319.1913	8.3
390.2283	13.4
434.1571	21.5
434.2183	100.0
435.1535	2.4
435.2216	5.5

Name: Vanillic Acid
PrecursorMZ: 167.03512
RT: 32.6341
ExactMass: 168.04225873
Spectrum_type: 2
charge: -1
Formula: C8H8O4
SMILES: COC1=C(C=CC(=C1)C(=O)O)O
Method: HCD
Collision_energy: [28.333334]
Isolation_window: 4.0
Ion_mode: N
Num Peaks: 21
41.0031	3.0
41.9984	9.5
59.0136	5.7
63.0238	3.0
65.0031	12.7
71.0136	3.7
74.0245	2.9
79.9571	8.3
91.0187	51.1
108.0214	85.5
109.0292	18.1
117.0505	8.8
121.0292	5.9
123.0337	3.1
123.0448	100.0
123.0643	5.1
124.0162	4.1
133.0404	4.5
152.0112	23.7
167.0347	70.2
167.0767	3.2

Name: Xanthine
PrecursorMZ: 151.02619
RT: 35.0221
ExactMass: 152.03342538
Spectrum_type: 2
charge: -1
Formula: C5H4N4O2
SMILES: C1=NC2=C(N1)C(=O)NC(=O)N2
Method: HCD
Collision_energy: [28.333334]
Isolation_window: 4.0
Ion_mode: N
Num Peaks: 19
41.9985	24.4
65.9985	0.9
71.0251	0.2
82.0411	0.8
107.0504	0.6
108.0158	0.4
108.0202	78.5
108.0242	0.8
108.0258	0.3
126.0310	11.0
126.0332	0.1
133.0157	1.5
151.0146	0.1
151.0167	0.2
151.0188	0.7
151.0260	100.0
151.0331	0.7
151.0357	0.3
151.0375	0.2

Name: Xanthurenic Acid
PrecursorMZ: 204.03045
RT: 35.5687
ExactMass: 205.0375077
Spectrum_type: 2
charge: -1
Formula: C10H7NO4
SMILES: C1=CC2=C(C(=C1)O)NC(=CC2=O)C(=O)O
Method: HCD
Collision_energy: [28.333334]
Isolation_window: 4.0
Ion_mode: N
Num Peaks: 11
41.9984	5.2
59.0137	4.8
78.9589	3.7
79.9572	14.0
80.9650	3.2
88.0403	3.5
132.0301	4.1
132.0454	11.1
160.0404	100.0
204.0303	5.1
204.1263	3.1

Name: Zeatin
PrecursorMZ: 218.10495
RT: 10.3412
ExactMass: 219.11201006
Spectrum_type: 2
charge: -1
Formula: C10H13N5O
SMILES: C/C(=C\CNC1=NC=NC2=C1NC=N2)/CO
Method: HCD
Collision_energy: [28.333334]
Isolation_window: 4.0
Ion_mode: N
Num Peaks: 9
92.0251	4.9
96.9599	3.0
98.9557	1.7
107.0361	4.8
119.0361	1.5
133.0517	11.0
134.0470	13.5
160.0626	100.0
218.1045	29.0

Name: alpha-Hydroxy-gamma-methylmercaptobutyric acid
PrecursorMZ: 149.02813
RT: 9.2249
ExactMass: 150.03506535
Spectrum_type: 2
charge: -1
Formula: C5H10O3S
SMILES: CSCCC(C(=O)O)O
Method: HCD
Collision_energy: [28.333334]
Isolation_window: 4.0
Ion_mode: N
Num Peaks: 4
43.0189	3.6
46.9960	100.0
101.0244	4.1
149.0277	9.8

Name: alpha-Keto-beta-methylvaleric acid
PrecursorMZ: 129.05584
RT: 13.9242
ExactMass: 130.062994177
Spectrum_type: 2
charge: -1
Formula: C6H10O3
SMILES: CCC(C)C(=O)C(=O)O
Method: HCD
Collision_energy: [28.333334]
Isolation_window: 4.0
Ion_mode: N
Num Peaks: 3
85.0658	5.2
101.0608	3.7
129.0556	100.0

Name: alpha-L-glutamyl-L-glutamine
PrecursorMZ: 274.10471
RT: 16.0901
ExactMass: 275.11173527
Spectrum_type: 2
charge: -1
Formula: C10H17N3O6
SMILES: C(CC(=O)O)[C@@H](C(=O)N[C@@H](CCC(=O)N)C(=O)O)N
Method: HCD
Collision_energy: [28.333334]
Isolation_window: 4.0
Ion_mode: N
Num Peaks: 38
74.0245	24.5
82.0296	4.6
84.0452	4.5
87.0561	4.0
88.0401	23.6
101.0718	6.0
109.0405	3.6
114.0558	9.4
123.0561	2.5
124.0401	5.7
127.0510	25.1
128.0350	100.0
137.0717	1.9
138.0557	7.4
141.0667	8.1
145.0615	72.9
145.0979	13.1
148.9741	2.0
148.9825	3.5
151.0873	3.0
155.0823	5.7
167.0459	12.3
168.0299	6.2
181.0615	14.5
184.0725	2.7
185.0564	8.9
194.0931	9.7
195.0772	2.1
199.0721	7.9
212.1038	8.6
212.1402	2.3
223.1084	3.1
238.0831	10.7
239.0669	6.2
256.0936	26.4
256.1298	2.3
274.1043	32.0
274.1406	5.3

Name: beta-Glycerophosphate
PrecursorMZ: 171.0066
RT: 19.7841
ExactMass: 172.013675
Spectrum_type: 2
charge: -1
Formula: C3H9O6P
SMILES: C(C(CO)OP(=O)(O)O)O
Method: HCD
Collision_energy: [28.333334]
Isolation_window: 4.0
Ion_mode: N
Num Peaks: 13
41.9984	2.8
59.0137	1.3
71.0137	1.6
78.9588	100.0
78.9615	2.5
78.9628	1.9
78.9641	1.1
96.9694	7.5
114.0560	1.2
128.0351	1.4
171.0064	19.8
171.1027	4.6
171.1391	8.1

Name: caffeic acid, (Z)-
PrecursorMZ: 179.03503
RT: 39.0225
ExactMass: 180.04225873
Spectrum_type: 2
charge: -1
Formula: C9H8O4
SMILES: C1=CC(=C(C=C1/C=C\C(=O)O)O)O
Method: HCD
Collision_energy: [28.333334]
Isolation_window: 4.0
Ion_mode: N
Num Peaks: 21
41.5997	2.5
42.4907	2.8
43.8882	2.8
49.0343	2.7
53.8754	2.7
63.4007	2.7
66.2736	3.1
70.4767	3.2
74.3690	3.1
82.8594	3.1
84.9905	8.4
86.2703	3.0
103.7528	2.8
122.9644	2.8
134.0370	6.6
135.0450	100.0
140.0098	3.3
143.6397	2.8
161.6048	3.0
173.4805	8.7
179.0350	9.4

Name: delta-Gluconolactone
PrecursorMZ: 177.04068
RT: 6.2689
ExactMass: 178.04773803
Spectrum_type: 2
charge: -1
Formula: C6H10O6
SMILES: C([C@@H]1[C@H]([C@@H]([C@H](C(=O)O1)O)O)O)O
Method: HCD
Collision_energy: [28.333334]
Isolation_window: 4.0
Ion_mode: N
Num Peaks: 19
43.0188	3.9
44.9980	3.8
55.0188	4.1
57.0344	5.1
59.0136	23.7
69.0344	3.2
71.0136	12.0
72.9929	16.1
73.0293	5.4
75.0086	7.4
85.0293	13.5
87.0085	48.0
96.9599	55.8
97.0294	7.5
99.0086	20.4
117.0192	3.8
129.0191	3.1
177.0404	100.0
177.0768	4.5

Name: epsilon-Acetyl-L-lysine
PrecursorMZ: 187.10892
RT: 3.4224
ExactMass: 188.11609238
Spectrum_type: 2
charge: -1
Formula: C8H16N2O3
SMILES: CC(=O)NCCCC[C@@H](C(=O)O)N
Method: HCD
Collision_energy: [28.333334]
Isolation_window: 4.0
Ion_mode: N
Num Peaks: 43
41.0031	1.3
41.9984	9.5
43.0188	0.7
58.0296	26.2
58.0322	0.7
72.0453	0.6
73.0404	0.5
74.0245	1.3
83.0612	1.1
84.0452	2.4
88.0401	1.1
97.0769	1.8
99.0562	0.8
99.0924	0.7
101.0718	4.3
102.0558	0.5
109.0405	2.4
113.0718	0.6
115.0511	0.5
116.0715	1.0
117.0667	1.4
125.0718	19.4
125.0970	1.2
126.0922	1.9
127.0510	19.6
128.0351	3.9
131.0823	0.8
141.1032	0.7
143.0459	0.7
143.0823	2.1
143.1188	10.7
144.0300	1.0
145.0616	16.5
145.0844	0.6
145.0980	100.0
145.1040	0.7
145.1086	0.9
145.1114	0.9
169.0616	5.2
187.0721	18.7
187.0806	1.5
187.0983	0.8
187.1086	40.6

Name: gamma-Glutamylleucine
PrecursorMZ: 259.12986
RT: 20.2811
ExactMass: 260.13722174
Spectrum_type: 2
charge: -1
Formula: C11H20N2O5
SMILES: CC(C)C[C@@H](C(=O)O)NC(=O)CC[C@@H](C(=O)O)N
Method: HCD
Collision_energy: [28.333334]
Isolation_window: 4.0
Ion_mode: N
Num Peaks: 10
78.9590	4.5
96.9600	20.5
128.0353	24.6
130.0873	100.0
171.1502	14.9
180.1030	3.8
197.1295	17.5
241.1193	10.6
259.0129	6.6
259.1299	7.2

Name: gamma-Guanidinobutyric acid
PrecursorMZ: 144.07807
RT: 2.2117
ExactMass: 145.085126602
Spectrum_type: 2
charge: -1
Formula: C5H11N3O2
SMILES: C(CC(=O)O)CN=C(N)N
Method: HCD
Collision_energy: [28.333334]
Isolation_window: 4.0
Ion_mode: N
Num Peaks: 16
41.0144	9.2
41.9984	4.4
58.0296	2.8
59.0137	3.1
71.0137	2.4
82.0296	3.0
83.0612	8.7
84.0452	5.1
88.0401	4.2
102.0558	100.0
102.0619	2.0
114.0558	1.8
127.0510	2.1
144.0664	7.3
144.0776	5.6
144.1027	8.9

Name: gamma-L-Glutamyl-L-phenylalanine
PrecursorMZ: 293.11454
RT: 27.6099
ExactMass: 294.12157168
Spectrum_type: 2
charge: -1
Formula: C14H18N2O5
SMILES: C1=CC=C(C=C1)C[C@@H](C(=O)O)NC(=O)CC[C@@H](C(=O)O)N
Method: HCD
Collision_energy: [28.333334]
Isolation_window: 4.0
Ion_mode: N
Num Peaks: 24
71.0249	9.9
74.0246	6.5
80.9650	4.3
84.0453	5.7
91.0551	9.7
96.9599	33.3
102.0559	21.4
113.0719	17.6
114.0559	4.3
127.0511	8.0
128.0352	64.4
146.0457	7.7
147.0451	12.6
164.0716	100.0
188.1080	9.8
194.9275	6.4
194.9970	15.5
198.1009	4.9
221.1546	4.7
231.1140	6.5
249.1246	29.0
271.6280	10.2
275.1039	24.9
293.1147	70.7

Name: sn-Glycerol 3-phosphate
PrecursorMZ: 171.00636
RT: 18.1003
ExactMass: 172.013675
Spectrum_type: 2
charge: -1
Formula: C3H9O6P
SMILES: C([C@H](COP(=O)(O)O)O)O
Method: HCD
Collision_energy: [28.333334]
Isolation_window: 4.0
Ion_mode: N
Num Peaks: 13
42.5374	11.6
50.0358	11.9
62.3641	10.8
65.1126	10.7
71.7598	10.8
73.8711	11.9
73.9146	13.2
75.7448	10.9
78.9588	100.0
89.8223	12.7
112.5593	13.1
133.4575	11.5
173.4787	24.1

Name: (1-((8S,9S,10R,11S,13S,14S,17R)-11,17-dihydroxy-10,13-dimethyl-3-oxo-2,6,7,8,9,11,12,14,15,16-decahydro-1H-cyclopenta(a)phenanthren-17-yl)-2-hydroxyethyl) methanesulfonate
PrecursorMZ: 477.17332
RT: 11.7138
ExactMass: 442.20252459
Spectrum_type: 2
charge: -1
Formula: C22H34O7S
SMILES: C[C@]12CCC(=O)C=C1CC[C@@H]3[C@@H]2[C@H](C[C@]4([C@H]3CC[C@@]4(C(CO)OS(=O)(=O)C)O)C)O
Method: HCD
Collision_energy: [28.333334]
Isolation_window: 4.0
Ion_mode: N
Num Peaks: 11
89.0242	35.5
96.9598	21.2
148.9776	18.3
148.9863	22.7
327.1965	43.7
345.2070	66.1
403.2492	18.5
447.2385	47.1
477.1727	54.5
477.2492	100.0
477.6749	15.0

Name: (2-(((1S)-1-carboxy-2-phenylethyl)amino)-2-oxoethyl)azanium
PrecursorMZ: 221.09336
RT: 8.6467
ExactMass: 223.10826734
Spectrum_type: 2
charge: -1
Formula: C11H15N2O3+
SMILES: C1=CC=C(C=C1)C[C@@H](C(=O)O)NC(=O)C[NH3+]
Method: HCD
Collision_energy: [28.333334]
Isolation_window: 4.0
Ion_mode: N
Num Peaks: 4
73.0406	100.0
147.0451	23.8
164.0716	18.1
221.0931	15.5

Name: (2-Amino-1-hydroxyethylidene)oxidanium
PrecursorMZ: 74.02475
RT: 4.5893
ExactMass: 76.039853434
Spectrum_type: 2
charge: -1
Formula: C2H6NO2+
SMILES: C(C(=[OH+])O)N
Method: HCD
Collision_energy: [28.333334]
Isolation_window: 4.0
Ion_mode: N
Num Peaks: 7
44.9980	0.5
72.0089	0.1
73.0293	0.6
74.0244	100.0
74.0269	3.6
74.0293	1.1
74.0324	0.5

Name: (2R)-1-((2R)-2-azaniumylpropanoyl)pyrrolidine-2-carboxylate
PrecursorMZ: 185.0931
RT: 3.8463
ExactMass: 186.10044231
Spectrum_type: 2
charge: -1
Formula: C8H14N2O3
SMILES: C[C@H](C(=O)N1CCC[C@@H]1C(=O)[O-])[NH3+]
Method: HCD
Collision_energy: [28.333334]
Isolation_window: 4.0
Ion_mode: N
Num Peaks: 35
41.0031	10.5
41.9984	30.8
43.0188	9.5
57.0344	2.9
58.0297	4.3
69.0344	4.8
70.0296	10.6
71.0330	4.4
73.0293	3.0
80.9650	7.4
83.0136	2.9
83.0500	8.6
84.0453	9.8
84.0534	6.6
85.0486	4.3
96.0453	18.9
97.0487	11.1
98.0610	75.7
99.0643	15.9
106.9808	3.5
112.0404	3.0
113.0719	7.8
114.0559	30.1
121.0293	3.0
126.0514	4.9
140.0716	17.3
141.0680	8.3
141.0750	100.0
141.1032	5.6
143.0825	9.0
167.0544	5.4
185.0568	12.5
185.0649	87.6
185.0931	91.7
186.0772	16.2

Name: (2R)-2-(((2R)-2-ammoniopropanoyl)amino)propanoate
PrecursorMZ: 159.07758
RT: 3.86315
ExactMass: 160.08479225
Spectrum_type: 2
charge: -1
Formula: C6H12N2O3
SMILES: C[C@H](C(=O)N[C@H](C)C(=O)[O-])[NH3+]
Method: HCD
Collision_energy: [28.333334]
Isolation_window: 4.0
Ion_mode: N
Num Peaks: 16
40.0191	1.2
41.9984	2.7
58.0296	5.6
70.0297	2.1
72.0453	5.6
87.0562	11.1
88.0402	59.2
98.0610	9.4
99.0562	1.8
113.0721	1.2
115.0765	1.0
115.0875	34.7
117.0668	10.3
141.0669	2.0
159.0653	1.5
159.0774	100.0

Name: (2R)-2-((2-azaniumylacetyl)amino)-3-methylbutanoate
PrecursorMZ: 173.09327
RT: 4.359
ExactMass: 174.10044231
Spectrum_type: 2
charge: -1
Formula: C7H14N2O3
SMILES: CC(C)[C@H](C(=O)[O-])NC(=O)C[NH3+]
Method: HCD
Collision_energy: [28.333334]
Isolation_window: 4.0
Ion_mode: N
Num Peaks: 35
41.9984	11.0
44.0140	3.2
58.0297	4.8
72.0453	4.2
73.0405	21.4
73.0487	1.6
74.0246	2.8
84.0453	4.1
85.0487	3.6
87.0562	1.8
88.0402	3.1
99.0562	3.0
100.0767	3.0
101.0719	12.6
109.0406	2.9
111.0563	3.6
112.0403	2.0
116.0716	77.0
117.0750	3.5
127.0512	25.1
127.0876	3.2
128.0353	1.7
129.0668	2.0
129.0750	1.6
129.1032	74.4
129.1116	5.6
130.0507	1.5
131.0825	25.0
155.0462	7.4
173.0568	12.3
173.0650	7.2
173.0829	4.0
173.0931	100.0
173.1007	8.5
174.0771	3.0

Name: (2R)-2-amino-6-(((4R)-4-amino-4-carboxybutanoyl)amino)heptanedioic acid
PrecursorMZ: 318.13096
RT: 30.1408
ExactMass: 319.13795002
Spectrum_type: 2
charge: -1
Formula: C12H21N3O7
SMILES: C(C[C@H](C(=O)O)N)CC(C(=O)O)NC(=O)CC[C@H](C(=O)O)N
Method: HCD
Collision_energy: [28.333334]
Isolation_window: 4.0
Ion_mode: N
Num Peaks: 8
127.0514	6.9
128.0353	52.6
128.0717	16.8
171.0776	12.5
189.0881	100.0
282.1097	6.6
300.1203	11.2
318.1310	7.5

Name: (2S)-2-(((2S)-2-azaniumyl-3-hydroxypropanoyl)amino)-3-phenylpropanoate
PrecursorMZ: 251.1039
RT: 8.6374
ExactMass: 252.111007
Spectrum_type: 2
charge: -1
Formula: C12H16N2O4
SMILES: C1=CC=C(C=C1)C[C@@H](C(=O)[O-])NC(=O)[C@H](CO)[NH3+]
Method: HCD
Collision_energy: [28.333334]
Isolation_window: 4.0
Ion_mode: N
Num Peaks: 15
59.0136	14.1
72.9929	4.6
73.0405	59.5
79.9570	11.9
80.9648	9.3
99.0448	5.1
143.0347	12.9
147.0449	10.1
151.0512	3.9
161.0453	11.3
164.0714	21.9
177.1030	4.9
221.0928	41.0
251.0950	100.0
251.1036	29.4

Name: (2S)-2-(((2S,3R)-2-azaniumyl-3-hydroxybutanoyl)amino)pentanedioate
PrecursorMZ: 247.09383
RT: 18.16365
ExactMass: 247.0930112
Spectrum_type: 2
charge: -1
Formula: C9H15N2O6-
SMILES: C[C@H]([C@@H](C(=O)N[C@@H](CCC(=O)[O-])C(=O)[O-])[NH3+])O
Method: HCD
Collision_energy: [28.333334]
Isolation_window: 4.0
Ion_mode: N
Num Peaks: 11
73.0407	20.7
74.0247	44.3
102.0560	72.6
115.0876	27.8
118.0509	61.7
128.0353	100.0
141.0669	26.3
146.0458	18.8
159.0774	69.9
185.0567	42.2
247.0935	28.8

Name: (2S)-2-((2-(deuterioamino)acetyl)amino)-4-methylpentanoic acid
PrecursorMZ: 187.10916
RT: 5.1909
ExactMass: 189.12236912
Spectrum_type: 2
charge: -1
Formula: C8H16N2O3
SMILES: [2H]NCC(=O)N[C@@H](CC(C)C)C(=O)O
Method: HCD
Collision_energy: [28.333334]
Isolation_window: 4.0
Ion_mode: N
Num Peaks: 4
73.0406	41.7
130.0873	96.9
143.1190	100.0
187.1088	51.3

Name: (2S)-2-amino-2,5,5,5-tetradeuterio-4-(trideuteriomethyl)pentanoic acid
PrecursorMZ: 130.08729
RT: 6.6772
ExactMass: 138.138565879
Spectrum_type: 2
charge: -1
Formula: C6H13NO2
SMILES: [2H][C@](CC(C([2H])([2H])[2H])C([2H])([2H])[2H])(C(=O)O)N
Method: HCD
Collision_energy: [28.333334]
Isolation_window: 4.0
Ion_mode: N
Num Peaks: 13
44.9980	0.5
66.0347	0.1
82.0660	0.4
84.0816	0.6
100.9334	0.1
113.0606	0.3
130.0868	100.0
130.0922	1.9
130.0956	1.8
130.0981	0.9
130.1014	0.3
130.1049	0.2
130.1082	0.1

Name: (2S)-2-amino-5-)2-(1-carboxypropylidene)hydrazinyl(-5-oxopentanoic acid
PrecursorMZ: 227.06738
RT: 11.2828
Spectrum_type: 2
charge: -1
SMILES: CCC(=NNC(=O)CCC(C(=O)O)N)C(=O)O
Method: HCD
Collision_energy: [28.333334]
Isolation_window: 4.0
Ion_mode: N
Num Peaks: 19
42.8428	25.6
42.8747	33.0
43.3311	29.0
52.6349	24.4
58.3883	26.5
59.5087	29.8
68.6235	27.1
74.1950	30.2
80.9650	100.0
97.6000	29.9
148.2327	28.2
156.0924	26.8
173.4810	30.3
175.1416	32.4
178.6940	29.6
179.3873	26.7
184.5962	31.7
210.4046	27.5
225.4170	28.7

Name: (2S)-4-(((2R,3S,4S,5S,6R)-3-acetamido-4,5-dihydroxy-6-(hydroxymethyl)oxan-2-yl)amino)-2-amino-4-oxobutanoic acid
PrecursorMZ: 334.12605
RT: 3.5937
ExactMass: 335.13286464
Spectrum_type: 2
charge: -1
Formula: C12H21N3O8
SMILES: CC(=O)N[C@H]1[C@@H]([C@@H]([C@H](O[C@H]1NC(=O)C[C@@H](C(=O)O)N)CO)O)O
Method: HCD
Collision_energy: [28.333334]
Isolation_window: 4.0
Ion_mode: N
Num Peaks: 23
59.0136	9.5
96.0089	27.7
96.9599	48.5
99.0562	8.1
113.0355	100.0
129.0668	15.8
131.0824	15.7
137.0356	10.0
148.9760	7.2
148.9786	9.3
148.9842	11.2
148.9876	9.2
159.0775	8.3
174.0883	7.3
179.0462	34.3
196.0727	95.9
214.0834	36.1
226.1563	11.3
234.1499	12.4
243.1227	7.6
316.1155	33.2
334.1261	33.3
334.1458	22.9

Name: (2S)-4-amino-2-((2-amino-3-phenylpropanoyl)amino)-4-oxobutanoic acid
PrecursorMZ: 278.11496
RT: 7.5684
ExactMass: 279.12190603
Spectrum_type: 2
charge: -1
Formula: C13H17N3O4
SMILES: C1=CC=C(C=C1)CC(C(=O)N[C@@H](CC(=O)N)C(=O)O)N
Method: HCD
Collision_energy: [28.333334]
Isolation_window: 4.0
Ion_mode: N
Num Peaks: 11
70.0296	34.0
71.0248	60.1
96.0088	46.8
114.0194	88.9
116.0714	75.0
131.0459	14.2
146.0609	24.0
158.0821	15.2
163.0873	24.0
260.1038	80.2
278.1144	100.0

Name: (2S)-5-oxo-1-(((2S,3S,4S,5R)-2,3,4-trihydroxy-5-(hydroxymethyl)oxolan-2-yl)methyl)pyrrolidine-2-carboxylic acid
PrecursorMZ: 290.08838
RT: 9.763
ExactMass: 291.0954165
Spectrum_type: 2
charge: -1
Formula: C11H17NO8
SMILES: C1CC(=O)N([C@@H]1C(=O)O)C[C@]2([C@H]([C@@H]([C@H](O2)CO)O)O)O
Method: HCD
Collision_energy: [28.333334]
Isolation_window: 4.0
Ion_mode: N
Num Peaks: 11
71.0136	2.8
79.9571	3.6
96.9598	4.4
128.0350	100.0
138.0227	4.7
158.0819	9.1
170.0456	17.8
200.0561	44.6
230.0665	3.2
290.0879	17.3
290.1429	22.2

Name: (2S,5S)-5-deuteriopyrrolidine-2-carboxylic acid
PrecursorMZ: 114.05622
RT: 4.87845
ExactMass: 116.069605276
Spectrum_type: 2
charge: -1
Formula: C5H9NO2
SMILES: [H][C@@]1(CC[C@H](N1)C(=O)O)[2H]
Method: HCD
Collision_energy: [28.333334]
Isolation_window: 4.0
Ion_mode: N
Num Peaks: 8
44.9982	0.4
66.0349	0.9
68.0505	0.5
86.0247	1.1
112.0404	0.7
114.0559	100.0
114.0597	1.1
114.0620	0.4

Name: (4Z,6E)-2-Amino-7-hydroperoxy-4-)(E)-2-hydroxyvinyl(hepta-4,6-dienoic acid
PrecursorMZ: 197.04555
RT: 29.102
ExactMass: 215.07937252
Spectrum_type: 2
charge: -1
Formula: C9H13NO5
SMILES: C([C@@H](C(=O)O)N)/C(=C/C=C/OO)/C=C/O
Method: HCD
Collision_energy: [28.333334]
Isolation_window: 4.0
Ion_mode: N
Num Peaks: 18
44.5424	59.4
49.3197	55.4
50.1524	61.5
50.4045	67.5
54.3670	55.0
60.0201	64.1
68.9311	61.3
77.1746	59.8
78.6258	63.7
79.8915	57.9
99.5006	56.9
101.5819	60.7
126.4089	83.2
128.4278	71.5
146.1325	62.9
173.4778	100.0
173.4854	93.5
190.9153	75.1

Name: 1-(1-(2-Amino-3-hydroxypropanoyl)pyrrolidine-2-carbonyl)pyrrolidine-2-carboxylic acid
PrecursorMZ: 298.14113
RT: 3.3102
ExactMass: 299.14812078
Spectrum_type: 2
charge: -1
Formula: C13H21N3O5
SMILES: C1CC(N(C1)C(=O)C2CCCN2C(=O)C(CO)N)C(=O)O
Method: HCD
Collision_energy: [28.333334]
Isolation_window: 4.0
Ion_mode: N
Num Peaks: 20
88.0401	2.4
96.9598	3.4
108.0453	20.4
114.0558	100.0
139.0511	17.7
148.9786	4.0
148.9876	3.6
150.0558	12.9
153.0668	4.9
171.0773	12.1
180.0663	3.6
183.0773	3.5
184.0728	3.0
197.0927	2.6
198.0770	18.7
198.0960	3.5
210.1246	37.6
254.1146	21.1
298.1408	61.3
299.1367	3.0

Name: 1-(2,5-Diamino-5-oxopentanoyl)pyrrolidine-2-carboxylic acid
PrecursorMZ: 242.11495
RT: 3.4226
ExactMass: 243.12190603
Spectrum_type: 2
charge: -1
Formula: C10H17N3O4
SMILES: C1CC(N(C1)C(=O)C(CCC(=O)N)N)C(=O)O
Method: HCD
Collision_energy: [28.333334]
Isolation_window: 4.0
Ion_mode: N
Num Peaks: 15
70.0295	7.2
88.0401	11.9
94.0295	18.3
96.0088	10.4
97.0404	9.2
99.0561	9.0
113.0353	9.5
114.0557	100.0
127.0510	52.0
148.9830	13.6
156.0775	11.0
181.0979	12.6
198.1245	23.4
225.0878	19.6
242.1144	73.7

Name: 1-)2-)(2-Amino-3-hydroxybutanoyl)amino(-3-hydroxybutanoyl(pyrrolidine-2-carboxylic acid
PrecursorMZ: 299.12467
RT: 3.5535
ExactMass: 317.15868546
Spectrum_type: 2
charge: -1
Formula: C13H23N3O6
SMILES: CC(C(C(=O)NC(C(C)O)C(=O)N1CCCC1C(=O)O)N)O
Method: HCD
Collision_energy: [28.333334]
Isolation_window: 4.0
Ion_mode: N
Num Peaks: 31
55.4188	2.1
58.9256	1.4
59.0137	4.2
60.4413	1.4
63.1887	1.5
71.0138	12.7
82.0297	5.5
84.0089	5.8
92.7143	1.5
94.2656	1.5
96.2762	1.5
109.6269	1.4
112.0402	34.3
114.0514	2.9
114.0559	100.0
125.5070	1.4
126.0558	1.9
127.2334	1.5
128.0352	1.7
136.0406	3.2
137.2137	1.4
165.7516	1.7
173.4759	3.5
173.4844	3.4
181.0981	3.6
184.0614	16.5
193.0972	2.0
195.1137	2.8
214.1807	1.5
299.1250	20.5
306.1929	1.5

Name: 1-Acetylpyrrolidine-2-carboxylate
PrecursorMZ: 156.06697
RT: 4.6835
ExactMass: 156.066068181
Spectrum_type: 2
charge: -1
Formula: C7H10NO3-
SMILES: CC(=O)N1CCCC1C(=O)[O-]
Method: HCD
Collision_energy: [28.333334]
Isolation_window: 4.0
Ion_mode: N
Num Peaks: 3
84.0454	48.8
114.0560	66.6
156.0666	100.0

Name: 1H-pyrimidine-2,4-di(17O2)one
PrecursorMZ: 111.02027
RT: 8.8069
ExactMass: 114.03571165
Spectrum_type: 2
charge: -1
Formula: C4H4N2O2
SMILES: C1=CNC(=[17O])NC1=[17O]
Method: HCD
Collision_energy: [28.333334]
Isolation_window: 4.0
Ion_mode: N
Num Peaks: 12
41.9984	100.0
41.9995	4.7
41.9999	2.7
55.0187	5.2
78.9667	3.5
79.9571	14.0
95.9520	3.4
96.9772	2.9
110.9755	49.7
111.0085	4.6
111.0198	76.6
111.0449	3.2

Name: 2,4,5-Trimethoxybenzoate
PrecursorMZ: 211.06148
RT: 10.8864
ExactMass: 211.06064845
Spectrum_type: 2
charge: -1
Formula: C10H11O5-
SMILES: COC1=CC(=C(C=C1C(=O)[O-])OC)OC
Method: HCD
Collision_energy: [28.333334]
Isolation_window: 4.0
Ion_mode: N
Num Peaks: 10
85.0292	65.4
123.0449	76.3
123.0561	53.6
123.0813	25.0
125.0353	100.0
137.0605	51.2
167.0712	39.9
211.0608	84.4
211.0721	25.7
211.1336	27.2

Name: 2-((2-Azaniumyl-3-methylbutanoyl)amino)-3-methylbutanoate
PrecursorMZ: 215.14026
RT: 5.9925
ExactMass: 216.1473925
Spectrum_type: 2
charge: -1
Formula: C10H20N2O3
SMILES: CC(C)C(C(=O)NC(C(C)C)C(=O)[O-])[NH3+]
Method: HCD
Collision_energy: [28.333334]
Isolation_window: 4.0
Ion_mode: N
Num Peaks: 5
100.0767	4.9
115.0876	4.7
116.0717	75.0
171.1502	98.3
215.1400	100.0

Name: 2-((2-Azaniumyl-4-methylsulfanylbutanoyl)amino)-3-methylbutanoate
PrecursorMZ: 247.1121
RT: 6.7303
ExactMass: 248.11946368
Spectrum_type: 2
charge: -1
Formula: C10H20N2O3S
SMILES: CC(C)C(C(=O)[O-])NC(=O)C(CCSC)[NH3+]
Method: HCD
Collision_energy: [28.333334]
Isolation_window: 4.0
Ion_mode: N
Num Peaks: 3
46.9960	100.0
116.0717	78.1
247.1121	73.8

Name: 2-((2-amino-3-(1H-imidazol-5-yl)propanoyl)amino)-3-methylpentanoic acid
PrecursorMZ: 267.14613
RT: 6.3016000000000005
ExactMass: 268.15354051
Spectrum_type: 2
charge: -1
Formula: C12H20N4O3
SMILES: CCC(C)C(C(=O)O)NC(=O)C(CC1=CN=CN1)N
Method: HCD
Collision_energy: [28.333334]
Isolation_window: 4.0
Ion_mode: N
Num Peaks: 5
81.0457	27.0
108.0567	24.7
130.0873	100.0
223.1563	40.9
267.1462	29.4

Name: 2-(3-Carboxypropanoylamino)pentanoic acid
PrecursorMZ: 216.08802
RT: 21.7856
ExactMass: 217.09502258
Spectrum_type: 2
charge: -1
Formula: C9H15NO5
SMILES: CCCC(C(=O)O)NC(=O)CCC(=O)O
Method: HCD
Collision_energy: [28.333334]
Isolation_window: 4.0
Ion_mode: N
Num Peaks: 6
87.0451	53.9
102.0560	87.6
128.0353	100.0
128.1080	32.6
172.0978	34.4
198.0771	26.8

Name: 3,3,3-Trideuterio-2-deuteriooxypropanoic acid
PrecursorMZ: 89.0246
RT: 8.8261
ExactMass: 94.056801033
Spectrum_type: 2
charge: -1
Formula: C3H6O3
SMILES: [2H]C([2H])([2H])C(C(=O)O)O[2H]
Method: HCD
Collision_energy: [28.333334]
Isolation_window: 4.0
Ion_mode: N
Num Peaks: 3
41.0032	40.4
43.0189	48.8
89.0243	100.0

Name: 3-(((2R)-2,4-dihydroxy-3,3-dimethylbutanoyl)(15N)amino)(313C)propanoic acid
PrecursorMZ: 218.10351
RT: 4.3379
ExactMass: 221.11106237
Spectrum_type: 2
charge: -1
Formula: C9H17NO5
SMILES: CC(C)(CO)[C@H](C(=O)[15NH][13CH2]CC(=O)O)O
Method: HCD
Collision_energy: [28.333334]
Isolation_window: 4.0
Ion_mode: N
Num Peaks: 66
44.0140	5.6
44.9980	8.6
57.0344	2.0
58.0296	20.1
59.0136	26.7
70.0296	1.8
71.0136	17.0
73.0293	2.3
73.0405	5.0
74.0245	6.4
75.0085	2.2
82.0296	2.5
84.0452	2.7
87.0561	4.5
88.0401	6.8
90.0558	4.9
94.0296	4.4
96.0089	3.6
96.0452	3.0
96.9598	1.7
98.0609	4.3
99.0449	4.8
100.0401	6.5
100.0765	6.1
102.0558	2.5
113.0354	4.0
114.0195	2.7
114.0558	1.4
114.0922	4.0
116.0350	3.2
116.0714	24.2
117.0748	11.3
118.0507	55.6
126.0922	2.5
128.0351	4.1
128.0715	1.8
129.1031	4.1
130.0507	2.7
130.0870	1.8
130.1064	6.7
131.0460	10.6
142.0871	7.8
144.0664	2.7
144.0776	2.7
144.1027	4.3
145.0504	2.6
148.9830	2.3
154.0871	5.0
156.0856	1.9
158.0820	10.9
170.0820	2.9
172.0977	12.5
173.0929	6.0
174.0769	4.4
174.0962	17.6
175.0722	2.3
188.0674	1.9
190.1082	62.8
200.0926	2.0
218.0666	3.9
218.0780	4.5
218.1030	100.0
218.1225	8.7
218.1396	2.2
219.0871	3.6
219.0984	1.7

Name: 3-Hydroxypropane-1-sulfonate
PrecursorMZ: 139.00739
RT: 7.3107
ExactMass: 139.00650487
Spectrum_type: 2
charge: -1
Formula: C3H7O4S-
SMILES: C(CO)CS(=O)(=O)[O-]
Method: HCD
Collision_energy: [28.333334]
Isolation_window: 4.0
Ion_mode: N
Num Peaks: 3
79.9573	82.2
80.9651	17.5
139.0070	100.0

Name: 3-Pyrrolidinecarboxamide, N,1-dicyclohexyl-2,4,5-trioxo-
PrecursorMZ: 319.16614
RT: 20.1817
ExactMass: 320.17360725
Spectrum_type: 2
charge: -1
Formula: C17H24N2O4
SMILES: C1CCC(CC1)NC(=O)C2C(=O)C(=O)N(C2=O)C3CCCCC3
Method: HCD
Collision_energy: [28.333334]
Isolation_window: 4.0
Ion_mode: N
Num Peaks: 23
106.1472	0.4
108.6357	0.5
121.2386	0.6
124.0765	7.8
132.0816	0.8
141.7643	0.5
148.0766	1.3
150.0922	5.4
165.1029	0.5
166.0870	1.7
173.4771	1.0
194.0734	0.6
194.0820	6.9
219.1501	2.2
233.1663	1.3
247.1450	0.8
247.1814	9.7
257.1659	0.6
273.1607	11.7
275.1763	5.2
291.1713	100.0
301.1558	1.9
319.1664	2.9

Name: 3-methyl-2-(((2R)-pyrrolidine-2-carbonyl)amino)pentanoic acid
PrecursorMZ: 227.14035
RT: 8.7248
ExactMass: 228.1473925
Spectrum_type: 2
charge: -1
Formula: C11H20N2O3
SMILES: CCC(C)C(C(=O)O)NC(=O)[C@H]1CCCN1
Method: HCD
Collision_energy: [28.333334]
Isolation_window: 4.0
Ion_mode: N
Num Peaks: 6
94.0298	44.5
130.0873	41.0
183.1501	50.0
184.0613	37.6
227.1400	100.0
227.2016	57.0

Name: 3-oxo-N-(2-oxooxolan-3-yl)pentanamide
PrecursorMZ: 198.07742
RT: 4.3851
ExactMass: 199.0844579
Spectrum_type: 2
charge: -1
Formula: C9H13NO4
SMILES: CCC(=O)CC(=O)NC1CCOC1=O
Method: HCD
Collision_energy: [28.333334]
Isolation_window: 4.0
Ion_mode: N
Num Peaks: 82
40.0192	0.7
41.0032	13.3
41.0144	6.6
41.9984	12.7
43.0189	1.2
55.0188	0.6
55.0300	2.4
57.0345	4.0
58.0297	2.0
59.0137	2.9
67.0300	3.6
68.0015	0.7
69.0344	10.6
70.0297	2.2
71.0137	0.8
71.0501	0.7
72.0453	14.1
81.0345	0.7
82.0297	3.4
83.0137	5.1
83.0501	8.0
83.0613	1.6
84.0453	50.4
84.0498	0.8
85.0657	0.7
92.0504	0.6
94.0661	1.5
95.0249	0.6
95.0502	4.1
96.0454	4.9
96.9599	0.7
97.0294	1.5
97.0407	0.5
97.0657	1.7
97.9593	0.6
98.0247	4.5
98.0357	6.2
98.0610	3.1
98.9558	2.7
102.0559	1.3
107.0376	0.7
108.0454	1.2
110.0610	6.6
111.0450	0.9
112.0403	2.3
112.0514	61.3
112.0562	0.8
112.0583	1.0
112.0767	12.9
113.0241	1.1
122.0611	0.6
124.0404	0.8
124.0765	0.6
125.0482	5.5
126.0560	17.2
126.0672	0.9
127.0513	0.8
128.0352	26.0
128.0716	11.9
136.0768	3.5
136.0879	7.3
137.0718	0.8
138.0560	0.7
139.0513	0.7
139.0639	0.7
139.0750	1.0
150.0560	1.7
154.0722	0.8
154.0873	100.0
154.0986	10.8
155.0827	1.4
155.0907	0.7
156.0666	3.0
180.0667	9.3
180.0778	15.2
198.0558	0.7
198.0605	0.9
198.0771	92.3
198.0881	34.4
198.0971	1.1
199.0725	1.8
199.0810	0.8

Name: 4-(Hydroxy(methoxy)methyl)-5-(hydroxymethyl)-2-methylpyridin-3-ol
PrecursorMZ: 198.07736
RT: 11.2344
ExactMass: 199.0844579
Spectrum_type: 2
charge: -1
Formula: C9H13NO4
SMILES: CC1=NC=C(C(=C1O)C(O)OC)CO
Method: HCD
Collision_energy: [28.333334]
Isolation_window: 4.0
Ion_mode: N
Num Peaks: 29
41.9984	9.6
55.0187	10.4
59.0136	11.8
73.0292	9.1
80.9649	8.8
87.0085	8.1
94.0296	24.7
96.9599	20.3
97.9593	15.9
98.9557	76.3
98.9641	16.1
99.0449	33.6
108.0453	96.4
110.0438	11.1
112.0515	9.7
122.0609	31.4
124.0402	19.7
132.0453	7.9
136.0402	72.9
136.0767	8.8
138.0558	100.0
139.0398	19.6
148.9818	14.6
148.9903	8.5
150.0559	14.5
154.0872	15.4
162.8388	19.0
198.0771	68.1
199.0610	21.2

Name: 4-Bromophenyl 4,4''-Dihydroxy-)1,1':2',1''-Terphenyl(-4'-Sulfonate
PrecursorMZ: 494.98923
RT: 7.8231
ExactMass: 495.99801
Spectrum_type: 2
charge: -1
Formula: C24H17BrO5S
SMILES: C1=CC(=CC=C1C2=C(C=C(C=C2)S(=O)(=O)OC3=CC=C(C=C3)Br)C4=CC=C(C=C4)O)O
Method: HCD
Collision_energy: [28.333334]
Isolation_window: 4.0
Ion_mode: N
Num Peaks: 28
60.2780	13.5
60.6586	16.4
61.6404	15.4
62.8367	18.0
74.6378	15.1
74.8562	16.9
78.2140	16.1
78.5571	16.0
84.1760	15.4
88.3994	15.7
88.8955	14.5
90.1105	14.4
94.9806	30.7
100.0812	16.0
119.9603	15.9
145.1803	14.2
147.3454	25.3
147.6039	15.5
173.4764	100.0
173.4859	57.9
183.0123	18.1
201.2599	16.4
254.6616	15.5
260.6479	17.1
313.8218	17.8
319.2334	16.5
348.2691	16.6
415.8133	17.2

Name: Acetylalanylalanine
PrecursorMZ: 201.08822
RT: 3.8095
ExactMass: 202.09535693
Spectrum_type: 2
charge: -1
Formula: C8H14N2O4
SMILES: C[C@@H](C(=O)N[C@@H](C)C(=O)O)NC(=O)C
Method: HCD
Collision_energy: [28.333334]
Isolation_window: 4.0
Ion_mode: N
Num Peaks: 43
41.9984	13.1
43.0188	3.3
58.0296	10.0
59.0136	41.8
71.0136	6.1
72.0452	16.4
84.0453	59.9
85.0486	7.2
87.0562	4.7
88.0401	42.9
98.0245	3.8
98.0610	4.6
99.0561	22.7
101.0718	5.0
112.0402	4.3
113.0354	6.2
113.0718	5.7
114.0558	21.4
115.0875	28.5
127.0511	8.0
127.0874	3.6
129.0668	5.9
130.0508	3.1
139.0875	10.2
140.0716	18.6
141.0668	3.7
145.0616	5.1
145.0981	31.4
148.9823	5.0
148.9912	3.3
156.0665	15.6
157.0981	4.7
157.1344	6.0
158.0821	4.2
159.0773	6.1
171.0773	13.0
183.0774	4.6
183.1137	7.4
184.0614	4.5
201.0879	63.6
201.0966	5.5
201.1243	21.3
202.0720	100.0

Name: Asparagylisoleucine
PrecursorMZ: 244.13043
RT: 4.3379
ExactMass: 245.1375561
Spectrum_type: 2
charge: -1
Formula: C10H19N3O4
SMILES: CCC(C)C(C(=O)O)NC(=O)C(CC(=O)N)N
Method: HCD
Collision_energy: [28.333334]
Isolation_window: 4.0
Ion_mode: N
Num Peaks: 87
57.0344	0.9
58.0296	10.6
59.0137	2.8
69.0344	2.8
70.0296	8.1
71.0136	3.8
73.0293	1.1
73.0405	1.8
74.0245	7.8
78.9588	10.3
82.0297	1.3
83.0500	1.3
84.0452	5.1
87.0561	2.0
88.0401	1.5
96.0089	7.4
96.0453	1.6
96.9599	1.2
97.0293	3.0
98.0245	23.6
98.0609	2.9
100.0402	1.0
100.0765	3.7
107.0500	1.8
108.0453	1.1
109.0168	1.3
110.0609	1.0
111.0449	1.1
112.0514	2.7
112.0765	0.9
113.0354	27.7
114.0194	13.4
114.0558	0.9
114.0922	2.3
115.0874	1.1
116.0715	6.0
126.0433	1.1
126.0558	4.7
127.0510	1.3
128.0351	11.5
129.1031	22.6
130.0870	100.0
130.0924	1.3
130.0959	1.5
131.0459	1.7
139.0874	0.9
140.0715	22.6
140.0823	1.1
141.0667	1.2
141.1031	21.8
143.1187	8.8
144.0664	16.3
150.0558	2.0
152.9956	22.2
155.1187	2.0
156.1028	1.6
158.0820	9.0
164.0716	1.1
165.1031	3.4
166.0507	2.4
166.0872	1.2
169.0980	3.4
170.0456	4.0
171.0062	8.9
171.0854	1.0
182.1296	4.2
183.1137	10.9
184.0612	38.9
185.0647	0.9
200.0925	1.8
200.1038	1.3
200.1402	4.9
201.1243	1.0
208.0614	3.1
210.0769	2.3
226.0718	4.6
226.1090	1.0
226.1195	18.7
227.1035	11.5
244.0823	10.3
244.0941	1.5
244.1187	7.4
244.1300	50.8
244.1668	0.9
245.0429	16.5
245.0778	2.9
245.1027	3.5

Name: Citrulline, (+-)-
PrecursorMZ: 157.06184
RT: 4.8744
ExactMass: 175.09569129
Spectrum_type: 2
charge: -1
Formula: C6H13N3O3
SMILES: C(CC(C(=O)O)N)CNC(=O)N
Method: HCD
Collision_energy: [28.333334]
Isolation_window: 4.0
Ion_mode: N
Num Peaks: 19
41.6070	3.8
43.4786	3.9
44.5072	3.4
45.2263	3.4
45.5363	3.7
47.8481	4.3
50.2735	3.9
50.2871	4.3
56.7537	3.8
63.5463	4.1
63.7159	4.0
84.5200	3.9
94.9807	8.3
96.4480	3.8
98.5857	4.1
114.0558	100.0
115.0593	5.3
119.0349	7.7
139.0413	4.4

Name: Desmeninol, (S)-
PrecursorMZ: 149.0278
RT: 3.7754
ExactMass: 150.03506535
Spectrum_type: 2
charge: -1
Formula: C5H10O3S
SMILES: CSCC[C@@H](C(=O)O)O
Method: HCD
Collision_energy: [28.333334]
Isolation_window: 4.0
Ion_mode: N
Num Peaks: 14
43.0188	5.7
47.9673	16.4
57.0344	6.0
59.0136	61.1
62.9908	100.0
71.0136	6.8
76.9700	9.2
79.9571	7.7
85.0292	40.2
101.0241	7.6
131.0347	9.4
149.0274	27.5
149.0453	41.4
149.0603	5.1

Name: Gaba carboxy-14C
PrecursorMZ: 102.05611
RT: 4.04175
ExactMass: 105.06657052
Spectrum_type: 2
charge: -1
Formula: C4H9NO2
SMILES: C(C[14C](=O)O)CN
Method: HCD
Collision_energy: [28.333334]
Isolation_window: 4.0
Ion_mode: N
Num Peaks: 6
41.9984	1.2
59.0136	1.3
84.0452	6.2
102.0557	100.0
102.0597	1.7
102.0618	1.7

Name: Glutaminyl-threonine
PrecursorMZ: 246.10983
RT: 3.6167
ExactMass: 247.11682065
Spectrum_type: 2
charge: -1
Formula: C9H17N3O5
SMILES: C[C@@H]([C@@H](C(=O)O)NC(=O)[C@H](CCC(=O)N)N)O
Method: HCD
Collision_energy: [28.333334]
Isolation_window: 4.0
Ion_mode: N
Num Peaks: 11
73.0407	15.6
74.0247	100.0
88.0403	59.8
115.0877	19.0
127.0513	23.2
140.0829	42.8
141.0670	21.5
145.0619	16.4
158.0934	18.0
202.0833	91.5
246.1095	24.4

Name: Glutaminylisoleucine
PrecursorMZ: 258.14602
RT: 4.0694
ExactMass: 259.15320616
Spectrum_type: 2
charge: -1
Formula: C11H21N3O4
SMILES: CCC(C)C(C(=O)O)NC(=O)C(CCC(=O)N)N
Method: HCD
Collision_energy: [28.333334]
Isolation_window: 4.0
Ion_mode: N
Num Peaks: 67
58.0296	7.6
59.0136	1.5
70.0296	7.7
71.0136	1.5
73.0293	1.8
73.0405	4.4
74.0245	4.7
82.0296	1.6
84.0452	4.3
88.0401	27.4
96.9599	2.9
99.0562	4.8
101.0718	1.9
102.0558	1.9
109.0405	1.7
112.0514	4.8
113.0354	2.1
114.0558	2.3
114.0922	1.4
115.0874	1.3
116.0714	3.1
125.0593	2.1
126.0670	3.9
127.0511	11.5
128.0351	2.8
129.1031	10.5
130.0871	69.0
136.0878	2.3
138.0670	2.9
140.0714	1.3
141.0667	1.7
141.1031	2.7
143.1187	17.3
145.0616	4.1
148.0765	6.8
154.0621	1.1
154.0983	1.6
155.1188	5.2
157.1344	14.6
164.0715	2.0
166.0983	3.4
169.0980	8.8
178.0871	1.3
179.0823	1.2
183.1136	1.4
187.0722	1.7
196.1089	2.6
196.1452	22.6
197.1293	13.5
201.1244	1.3
210.0882	1.4
212.1039	3.0
214.1195	19.7
214.1558	9.9
215.1035	1.1
222.1248	1.4
228.0987	5.2
240.0871	1.4
240.0989	9.0
240.1352	6.7
241.1192	2.2
258.0977	11.0
258.1102	9.2
258.1456	100.0
259.0934	3.0
259.1294	1.3
259.1488	2.2

Name: Ile-Met(O)
PrecursorMZ: 277.12292
RT: 3.6106
ExactMass: 278.13002836
Spectrum_type: 2
charge: -1
Formula: C11H22N2O4S
SMILES: CCC(C)C(C(=O)NC(CCS(=O)C)C(=O)O)N
Method: HCD
Collision_energy: [28.333334]
Isolation_window: 4.0
Ion_mode: N
Num Peaks: 20
54.0349	2.6
59.0137	4.1
62.9909	7.9
71.0138	2.6
88.0404	2.6
94.0298	2.8
96.9600	20.4
116.0716	3.5
130.0384	7.2
130.0873	34.7
155.1190	3.3
164.0388	3.1
169.1346	38.0
185.0931	2.6
186.1010	23.4
213.1244	48.4
262.0993	12.4
277.0927	3.6
277.1227	100.0
278.1255	3.7

Name: L-gamma-(threo-beta-methyl)glutamyl-L-alpha-aminobutyrate
PrecursorMZ: 228.08763
RT: 18.0672
ExactMass: 246.12157168
Spectrum_type: 2
charge: -1
Formula: C10H18N2O5
SMILES: CC(CC(=O)O)[C@@H](C(=O)CC[C@H](C(=O)O)N)N
Method: HCD
Collision_energy: [28.333334]
Isolation_window: 4.0
Ion_mode: N
Num Peaks: 14
66.2005	19.7
71.7992	20.5
74.6467	17.2
81.9110	20.7
99.4413	20.2
131.6811	19.6
146.6061	19.8
146.7994	18.5
158.9793	19.7
166.0872	100.0
173.4809	85.2
175.7760	19.1
184.0979	54.4
206.5166	18.7

Name: N-Acetyl-L-Cysteine
PrecursorMZ: 162.02308
RT: 22.7338
ExactMass: 163.03031432
Spectrum_type: 2
charge: -1
Formula: C5H9NO3S
SMILES: CC(=O)N[C@@H](CS)C(=O)O
Method: HCD
Collision_energy: [28.333334]
Isolation_window: 4.0
Ion_mode: N
Num Peaks: 13
40.0495	64.9
40.6028	61.6
41.1119	73.7
51.2513	87.2
54.9601	100.0
64.0569	83.0
73.9726	70.6
90.0263	75.4
106.7966	72.5
141.0664	84.6
142.1287	75.8
142.7419	83.2
152.5889	77.2

Name: N-Cyclohexyl-N'-(Propyl)Phenyl Urea
PrecursorMZ: 259.18169
RT: 9.4132
ExactMass: 260.188863393
Spectrum_type: 2
charge: -1
Formula: C16H24N2O
SMILES: C1CCC(CC1)NC(=O)NCCCC2=CC=CC=C2
Method: HCD
Collision_energy: [28.333334]
Isolation_window: 4.0
Ion_mode: N
Num Peaks: 5
72.0452	79.3
128.0349	16.7
134.0972	27.0
259.0820	44.2
259.1814	100.0

Name: N-Succinyl-L-proline
PrecursorMZ: 214.07227
RT: 6.0631
ExactMass: 215.07937252
Spectrum_type: 2
charge: -1
Formula: C9H13NO5
SMILES: C1CC(N(C1)C(=O)CCC(=O)O)C(=O)O
Method: HCD
Collision_energy: [28.333334]
Isolation_window: 4.0
Ion_mode: N
Num Peaks: 19
63.4311	11.9
67.9063	11.5
71.8268	13.5
102.9440	13.2
105.0013	32.0
106.0889	12.2
106.1351	12.9
110.6468	13.5
113.4060	13.0
114.0559	100.0
116.0714	41.2
154.0587	17.9
169.4131	15.8
170.1187	13.9
173.4827	29.0
175.9235	12.4
176.9071	13.1
190.9911	16.9
213.4182	16.9

PrecursorMZ: 374.04033
RT: 32.1912
Spectrum_type: 2
charge: -1
SMILES: N=c1ccn([C@@H]2O[C@H](COP(=O)(O)O)[C@@H](O)[C@H]2O)c(O)n1
Method: HCD
Collision_energy: [28.333334]
Isolation_window: 4.0
Ion_mode: N
Num Peaks: 7
96.9598	100.0
96.9635	2.2
110.0245	13.6
128.0351	2.8
196.0612	14.1
258.0615	2.3
276.0722	34.0

Name: Qv
PrecursorMZ: 244.13053
RT: 3.5705
ExactMass: 245.1375561
Spectrum_type: 2
charge: -1
Formula: C10H19N3O4
SMILES: CC(C)C(C(=O)O)NC(=O)C(CCC(=O)N)N
Method: HCD
Collision_energy: [28.333334]
Isolation_window: 4.0
Ion_mode: N
Num Peaks: 43
58.0296	8.0
70.0296	8.0
73.0405	2.1
74.0245	5.4
82.0296	1.9
84.0452	2.9
88.0401	22.6
96.0089	2.4
96.9598	3.1
98.0245	3.5
99.0448	1.7
100.0765	1.5
101.0718	2.3
102.0558	13.0
112.0513	1.6
113.0354	4.9
114.0194	1.5
114.0558	1.5
115.0874	6.9
116.0714	65.8
127.0510	12.6
127.0874	2.8
129.1030	17.8
130.0871	15.0
141.0667	17.0
141.1031	5.1
143.1187	10.0
145.0616	1.8
148.9828	2.3
148.9913	1.5
155.0823	5.5
182.1296	18.5
183.1136	15.1
200.1402	7.3
208.1087	1.6
226.0832	1.4
226.1194	3.6
227.1035	3.1
244.0820	2.0
244.0938	2.8
244.1187	3.9
244.1300	100.0
245.1134	1.3

Name: TT zwitterion
PrecursorMZ: 219.09874
RT: 3.9259
ExactMass: 220.10592162
Spectrum_type: 2
charge: -1
Formula: C8H16N2O5
SMILES: C[C@H]([C@@H](C(=O)N[C@@H]([C@@H](C)O)C(=O)[O-])[NH3+])O
Method: HCD
Collision_energy: [28.333334]
Isolation_window: 4.0
Ion_mode: N
Num Peaks: 17
58.0296	4.0
59.0136	1.3
74.0245	37.8
84.0088	1.6
85.0404	1.3
87.0561	21.2
113.0354	2.8
113.0717	2.3
118.0507	5.2
131.0459	100.0
131.0548	1.5
157.0616	4.2
175.0721	22.2
219.0877	1.3
219.0983	20.7
220.0823	1.6
220.1188	1.3

Name: Threoninyl-Proline
PrecursorMZ: 215.10396
RT: 3.8078
ExactMass: 216.111007
Spectrum_type: 2
charge: -1
Formula: C9H16N2O4
SMILES: CC(C(C(=O)N1CCCC1C(=O)O)N)O
Method: HCD
Collision_energy: [28.333334]
Isolation_window: 4.0
Ion_mode: N
Num Peaks: 4
114.0560	100.0
127.0877	7.4
171.0775	56.2
215.1037	24.5

Name: dl-Kynurenine
PrecursorMZ: 190.05097
RT: 28.5971
ExactMass: 208.08479225
Spectrum_type: 2
charge: -1
Formula: C10H12N2O3
SMILES: C1=CC=C(C(=C1)C(=O)CC(C(=O)O)N)N
Method: HCD
Collision_energy: [28.333334]
Isolation_window: 4.0
Ion_mode: N
Num Peaks: 21
49.0007	5.6
61.1670	6.2
68.1991	6.0
68.8256	6.3
69.6082	5.9
72.4048	6.2
75.0745	6.3
85.9144	6.1
110.2616	7.1
113.8163	5.6
116.0501	7.8
120.1845	6.5
128.0500	8.0
131.0374	33.9
136.3781	5.9
144.0451	11.2
146.0609	100.0
166.4968	6.5
173.4805	17.0
192.4260	6.1
194.3388	6.0

Name: gamma-Glu-PPG
PrecursorMZ: 224.05634
RT: 19.1041
Spectrum_type: 2
charge: -1
SMILES: C#CCC(C(=O)O)NC(=O)CCC(C(=O)O)N
Method: HCD
Collision_energy: [28.333334]
Isolation_window: 4.0
Ion_mode: N
Num Peaks: 21
44.3848	7.9
45.9861	8.9
52.1280	8.4
54.1015	7.7
54.3398	7.7
57.6315	7.0
57.8675	9.4
70.2734	8.8
71.6710	9.5
74.6035	8.0
105.8613	8.7
113.4146	8.0
128.0352	12.5
137.2594	9.8
153.9801	8.8
168.9917	9.8
173.4738	22.2
173.4832	100.0
191.7956	8.1
210.6266	10.1
224.0565	13.3

Name: Glycerol
PrecursorMZ: 91.04016
RT: 2.2144
ExactMass: 92.047344113
Spectrum_type: 2
charge: -1
Formula: C3H8O3
SMILES: C(C(CO)O)O
Method: HCD
Collision_energy: [28.333334]
Isolation_window: 4.0
Ion_mode: N
Num Peaks: 16
41.0031	1.7
43.0188	2.3
44.9980	0.9
56.9980	0.9
58.0059	0.5
59.0136	100.0
59.0162	2.6
59.9671	1.0
71.0136	7.4
72.9929	0.3
74.9905	4.1
89.0242	5.0
91.0219	2.7
91.0299	0.4
91.0398	6.4
93.0011	8.1

Name: L-Alanyl-L-leucine
PrecursorMZ: 201.12441
RT: 2.1266
ExactMass: 202.13174244
Spectrum_type: 2
charge: -1
Formula: C9H18N2O3
SMILES: C[C@@H](C(=O)N[C@@H](CC(C)C)C(=O)O)N
Method: HCD
Collision_energy: [28.333334]
Isolation_window: 4.0
Ion_mode: N
Num Peaks: 73
40.0191	1.0
41.0031	0.7
41.9984	2.7
43.0188	1.6
44.9980	0.5
57.0344	2.4
58.0296	0.5
59.0136	1.2
70.0296	2.1
71.0136	0.9
72.0452	1.3
73.0293	0.7
82.0660	2.2
83.0500	0.8
84.0452	0.7
84.0817	0.5
85.0293	0.6
86.0245	1.8
87.0085	3.9
87.0449	0.9
87.0561	11.1
88.0119	2.6
88.0401	33.1
88.0446	0.7
94.0297	0.4
95.0500	0.5
96.0089	1.6
97.0656	1.2
99.0449	0.7
99.0561	0.5
100.0402	1.6
101.0435	1.0
102.0558	1.3
109.0656	1.3
111.0813	0.7
112.0765	0.6
113.0605	0.6
114.0558	0.9
114.0922	1.8
117.0667	2.6
121.0656	1.2
127.0511	1.3
129.1031	2.0
130.0871	31.4
130.0926	0.5
139.0398	2.0
139.0510	0.8
139.0762	0.7
139.0874	0.5
140.0715	0.6
140.1078	9.5
141.1031	1.6
155.1188	0.9
157.0617	0.6
157.1343	58.4
157.1410	0.7
157.1494	0.5
158.1375	0.5
171.0409	0.9
171.0661	0.6
171.0772	1.0
201.0402	1.0
201.0516	1.1
201.0766	6.1
201.0878	1.2
201.0959	2.0
201.1135	2.9
201.1240	100.0
201.1327	1.8
201.1411	0.7
201.1460	0.8
202.0718	2.0
202.1276	1.0

Name: L-Pyroglutamic Acid
PrecursorMZ: 128.03539
RT: 4.8483
ExactMass: 129.042593085
Spectrum_type: 2
charge: -1
Formula: C5H7NO3
SMILES: C1CC(=O)N[C@@H]1C(=O)O
Method: HCD
Collision_energy: [28.333334]
Isolation_window: 4.0
Ion_mode: N
Num Peaks: 10
41.9984	1.2
82.0296	1.2
84.0453	1.2
128.0349	100.0
128.0400	1.6
128.0435	1.6
128.0458	0.9
128.0489	0.3
128.0527	0.3
128.0713	0.2

Name: N-Acetyl-L-alanine
PrecursorMZ: 130.05109
RT: 4.6175
ExactMass: 131.058243149
Spectrum_type: 2
charge: -1
Formula: C5H9NO3
SMILES: C[C@@H](C(=O)O)NC(=O)C
Method: HCD
Collision_energy: [28.333334]
Isolation_window: 4.0
Ion_mode: N
Num Peaks: 25
41.9984	3.3
44.0140	0.6
58.0296	4.9
66.0347	0.5
68.0503	0.8
69.0344	0.5
71.0136	1.2
73.0293	0.7
74.0245	1.0
82.0296	0.5
84.0452	1.6
86.0245	0.9
86.0609	2.9
88.0401	100.0
88.0432	2.0
88.0464	0.9
98.0245	0.7
100.9334	0.5
112.0402	4.7
128.0351	4.6
130.0393	1.1
130.0506	35.7
130.0560	0.6
130.0594	0.5
130.0871	6.7

Name: Sebacic Acid
PrecursorMZ: 201.11331
RT: 6.07
ExactMass: 202.12050905
Spectrum_type: 2
charge: -1
Formula: C10H18O4
SMILES: C(CCCCC(=O)O)CCCC(=O)O
Method: HCD
Collision_energy: [28.333334]
Isolation_window: 4.0
Ion_mode: N
Num Peaks: 46
41.0031	0.8
41.9984	1.5
43.0188	1.9
57.0344	2.9
59.0136	1.3
69.0344	0.7
71.0136	1.1
71.0500	1.2
73.0293	7.2
82.0660	0.7
83.0500	1.4
85.0293	0.7
87.0449	1.8
88.0401	14.9
95.0500	0.7
99.0450	1.0
101.0606	2.0
109.0657	1.0
111.0085	2.3
111.0449	1.4
111.0813	2.6
113.0606	1.5
121.0656	0.7
123.0450	1.0
125.0605	0.7
127.0762	3.2
129.1031	1.0
139.0399	1.3
139.0511	0.7
139.0763	1.7
139.1126	2.2
140.1078	1.0
141.0919	6.7
148.9787	0.9
148.9858	0.9
155.0711	0.7
155.1075	3.4
157.1344	4.8
183.1025	5.0
185.0817	1.9
199.0973	1.2
201.0768	8.3
201.1130	100.0
201.1240	15.2
202.0720	0.8
202.1164	1.1

Name: (+-)-3,4-Dihydroxymandelic acid
PrecursorMZ: 183.02817
RT: 5.132
ExactMass: 184.03717335
Spectrum_type: 2
charge: -1
Formula: C8H8O5
SMILES: C1=CC(=C(C=C1C(C(=O)O)O)O)O
Method: HCD
Collision_energy: [28.333334]
Isolation_window: 4.0
Ion_mode: N
Num Peaks: 21
40.4528	22.1
40.5712	25.3
40.8211	25.1
42.9996	31.3
43.4322	21.8
44.1262	27.7
44.5625	22.8
47.5610	25.6
50.2474	24.6
59.6062	26.8
63.0058	27.2
63.9747	24.1
72.0046	24.8
76.2259	24.2
132.2141	26.4
137.0250	23.5
142.2392	26.9
143.0156	59.2
163.0217	100.0
173.4803	85.0
186.2803	26.7

Name: (-)-Cystine
PrecursorMZ: 239.0169
RT: 21.333
ExactMass: 240.02384922
Spectrum_type: 2
charge: -1
Formula: C6H12N2O4S2
SMILES: C([C@@H](C(=O)O)N)SSC[C@@H](C(=O)O)N
Method: HCD
Collision_energy: [28.333334]
Isolation_window: 4.0
Ion_mode: N
Num Peaks: 7
74.0067	57.8
86.0245	10.3
109.0404	27.8
120.0121	100.0
123.0561	10.5
124.0401	21.7
151.9842	8.2

Name: (9Z)-5,8,11-Trihydroxyoctadec-9-enoic acid
PrecursorMZ: 329.2337
RT: 27.6381
ExactMass: 330.24062418
Spectrum_type: 2
charge: -1
Formula: C18H34O5
SMILES: CCCCCCCC(/C=C\C(CCC(CCCC(=O)O)O)O)O
Method: HCD
Collision_energy: [28.333334]
Isolation_window: 4.0
Ion_mode: N
Num Peaks: 13
74.0244	12.6
96.9598	23.7
128.0350	12.8
139.1125	14.5
148.9769	11.1
148.9857	13.9
171.1024	37.6
201.1129	18.5
211.1337	29.2
229.1441	18.3
307.6329	8.8
329.2331	100.0
329.6379	8.6

Name: (R)-2-hydroxy-4-methylpentanoic acid
PrecursorMZ: 131.07152
RT: 9.3518
ExactMass: 132.078644241
Spectrum_type: 2
charge: -1
Formula: C6H12O3
SMILES: CC(C)C[C@H](C(=O)O)O
Method: HCD
Collision_energy: [28.333334]
Isolation_window: 4.0
Ion_mode: N
Num Peaks: 27
43.0188	0.6
44.9981	0.4
55.0188	1.6
57.0344	0.8
69.0344	5.5
71.0137	0.4
72.9929	0.5
73.0293	0.6
75.0086	4.5
83.0500	0.8
85.0656	74.2
85.0687	1.4
85.0702	1.5
85.0716	0.7
85.0734	0.4
87.0450	0.5
99.0085	0.9
100.9334	2.0
113.0606	1.5
129.0556	1.2
131.0349	3.6
131.0649	0.4
131.0710	100.0
131.0770	0.9
131.0799	1.3
131.0824	0.9
131.0903	2.2

Name: (S)-3-(1-(2-(5-methoxy-1H-indol-3-yl)ethyl)-2,5-dioxoimidazolidin-4-yl)propanoic acid
PrecursorMZ: 344.12561
RT: 29.1193
ExactMass: 345.13247072
Spectrum_type: 2
charge: -1
Formula: C17H19N3O5
SMILES: COC1=CC2=C(C=C1)NC=C2CCN3C(=O)[C@@H](NC3=O)CCC(=O)O
Method: HCD
Collision_energy: [28.333334]
Isolation_window: 4.0
Ion_mode: N
Num Peaks: 10
96.9598	36.3
98.0244	66.8
118.0660	69.0
127.0510	44.1
148.9754	30.6
148.9842	46.4
148.9928	27.6
181.0615	100.0
300.1350	95.7
344.1251	88.3

Name: 1,5-Dihydro-1-beta-D-ribofuranosyl-4H-pyrazolo(3,4-d)pyrimidin-4-one
PrecursorMZ: 267.07371
RT: 27.0051
ExactMass: 268.0807695
Spectrum_type: 2
charge: -1
Formula: C10H12N4O5
SMILES: C1=NN(C2=C1C(=O)NC=N2)[C@H]3[C@@H]([C@@H]([C@H](O3)CO)O)O
Method: HCD
Collision_energy: [28.333334]
Isolation_window: 4.0
Ion_mode: N
Num Peaks: 8
71.0136	3.3
116.0715	16.8
135.0311	100.0
148.9781	4.5
148.9873	4.7
150.9706	4.8
168.9812	24.6
267.0737	16.4

Name: 14-Methylpentadecanoic acid
PrecursorMZ: 255.2331
RT: 5.9868
ExactMass: 256.240230259
Spectrum_type: 2
charge: -1
Formula: C16H32O2
SMILES: CC(C)CCCCCCCCCCCCC(=O)O
Method: HCD
Collision_energy: [28.333334]
Isolation_window: 4.0
Ion_mode: N
Num Peaks: 23
72.7399	0.6
113.8148	0.6
114.0563	0.6
137.0606	0.7
156.9908	3.9
173.4778	1.2
173.4854	0.7
174.0841	0.6
181.0506	3.3
191.0623	0.6
193.0987	0.7
195.0664	2.1
211.0546	12.1
211.0988	0.8
211.1092	0.9
211.1342	1.2
217.0723	0.9
217.1078	1.2
234.3355	1.1
237.0770	1.2
246.8619	0.6
255.0097	0.7
255.2329	100.0

Name: 2,4-Dihydroxybutanoic acid
PrecursorMZ: 119.03518
RT: 5.212
ExactMass: 120.04225873
Spectrum_type: 2
charge: -1
Formula: C4H8O4
SMILES: C(CO)C(C(=O)O)O
Method: HCD
Collision_energy: [28.333334]
Isolation_window: 4.0
Ion_mode: N
Num Peaks: 3
59.0138	100.0
118.9420	9.5
119.0349	13.3

Name: 2-(2-Acetyl-3-hydroxy-5-methoxyphenyl)acetic acid
PrecursorMZ: 223.06137
RT: 36.8541
ExactMass: 224.06847348
Spectrum_type: 2
charge: -1
Formula: C11H12O5
SMILES: CC(=O)C1=C(C=C(C=C1O)OC)CC(=O)O
Method: HCD
Collision_energy: [28.333334]
Isolation_window: 4.0
Ion_mode: N
Num Peaks: 29
59.0137	11.1
71.0136	4.3
79.9571	4.9
80.9649	4.9
93.0343	7.7
96.9599	8.5
109.0292	4.4
114.0558	3.5
119.0500	32.1
128.0351	5.0
135.0449	7.0
135.0813	5.1
136.0766	4.8
149.0242	7.4
151.0398	6.2
161.0606	10.3
164.0111	3.4
164.0476	7.3
179.0347	6.1
179.0711	87.9
179.1075	4.9
180.0664	3.4
222.5745	6.2
223.0254	6.8
223.0609	100.0
223.0974	5.5
223.1259	4.3
223.1343	3.4
224.0564	4.2

Name: 2-(7,8-Dihydroxy-4a,8-dimethyl-1,2,3,4,5,6,7,8a-octahydronaphthalen-2-yl)prop-2-enoic acid
PrecursorMZ: 267.16043
RT: 9.1852
ExactMass: 268.16745924
Spectrum_type: 2
charge: -1
Formula: C15H24O4
SMILES: CC12CCC(CC1C(C(CC2)O)(C)O)C(=C)C(=O)O
Method: HCD
Collision_energy: [28.333334]
Isolation_window: 4.0
Ion_mode: N
Num Peaks: 13
105.0190	11.1
108.0452	60.4
115.0761	12.1
152.0839	30.3
153.0918	6.0
168.0663	5.4
178.0871	5.3
223.1449	7.6
249.1492	4.8
267.0874	7.7
267.1345	9.5
267.1599	100.0
268.1189	34.9

Name: 2-(7-Hydroxyoctyl)pentanedioic acid
PrecursorMZ: 259.15517
RT: 31.4447
ExactMass: 260.16237386
Spectrum_type: 2
charge: -1
Formula: C13H24O5
SMILES: CC(CCCCCCC(CCC(=O)O)C(=O)O)O
Method: HCD
Collision_energy: [28.333334]
Isolation_window: 4.0
Ion_mode: N
Num Peaks: 14
59.0136	10.0
71.0136	6.7
114.0557	11.9
123.0448	9.6
128.0350	11.3
134.0972	34.3
179.1438	44.3
197.1544	16.1
215.1651	7.3
223.1337	23.2
241.1444	42.4
242.1032	9.0
259.1549	100.0
259.1813	20.5

Name: 2-Amino-4-hydroxy-5-((1-(4-methoxy-6-oxopyran-2-yl)-3-methylbutyl)amino)-5-oxopentanoic acid
PrecursorMZ: 355.15141
RT: 31.2646
ExactMass: 356.15835111
Spectrum_type: 2
charge: -1
Formula: C16H24N2O7
SMILES: CC(C)CC(C1=CC(=CC(=O)O1)OC)NC(=O)C(CC(C(=O)O)N)O
Method: HCD
Collision_energy: [28.333334]
Isolation_window: 4.0
Ion_mode: N
Num Peaks: 9
96.9598	35.8
98.0245	27.5
114.0558	21.8
116.0715	24.0
128.0350	17.3
164.0714	35.6
240.0873	100.0
311.1612	17.7
355.1508	64.2

Name: 2-Hydroxyadipic acid
PrecursorMZ: 161.0456
RT: 21.5818
ExactMass: 162.05282342
Spectrum_type: 2
charge: -1
Formula: C6H10O5
SMILES: C(CC(C(=O)O)O)CC(=O)O
Method: HCD
Collision_energy: [28.333334]
Isolation_window: 4.0
Ion_mode: N
Num Peaks: 27
41.0031	4.9
41.9984	0.8
55.0188	0.7
57.0344	100.0
57.0369	2.5
59.0137	24.4
63.9445	3.6
71.0137	1.0
71.0500	22.8
73.0293	25.2
75.0086	0.9
81.0344	0.7
84.0453	2.5
87.0450	0.7
97.0294	1.3
99.0086	3.9
99.0449	95.4
99.0485	1.6
99.0508	1.3
101.0243	17.8
115.0399	13.8
117.0192	14.0
117.0556	11.5
128.0353	1.7
143.0349	54.7
146.0353	0.9
161.0455	58.1

Name: 2-Methoxydecanoic acid
PrecursorMZ: 347.18668
RT: 22.0115
ExactMass: 202.15689456
Spectrum_type: 2
charge: -1
Formula: C11H22O3
SMILES: CCCCCCCCC(C(=O)O)OC
Method: HCD
Collision_energy: [28.333334]
Isolation_window: 4.0
Ion_mode: N
Num Peaks: 7
96.9598	51.7
148.9782	17.0
148.9870	17.1
285.1856	26.8
301.1805	20.3
303.1963	71.9
347.1863	100.0

Name: 2-Methoxyethyl 1-(2-cyclohex-1-enylethyl)-5-hydroxy-2-methylbenzo(g)indole-3-c arboxylate
PrecursorMZ: 406.20253
RT: 11.9204
ExactMass: 407.20965841
Spectrum_type: 2
charge: -1
Formula: C25H29NO4
SMILES: CC1=C(C2=C(N1CCC3=CCCCC3)C4=CC=CC=C4C(=C2)O)C(=O)OCCOC
Method: HCD
Collision_energy: [28.333334]
Isolation_window: 4.0
Ion_mode: N
Num Peaks: 16
96.9598	4.2
130.0870	12.4
158.0931	2.5
166.0618	3.0
167.0459	1.8
254.1506	5.5
298.1404	14.7
299.1435	1.8
325.1625	2.6
335.1648	2.0
343.1731	14.3
405.6973	2.9
406.2017	100.0
406.7030	40.5
407.2039	2.1
414.2105	2.6

Name: 2-Methyl-5-hydroxypyridine
PrecursorMZ: 108.04557
RT: 4.1713
ExactMass: 109.052763847
Spectrum_type: 2
charge: -1
Formula: C6H7NO
SMILES: CC1=NC=C(C=C1)O
Method: HCD
Collision_energy: [28.333334]
Isolation_window: 4.0
Ion_mode: N
Num Peaks: 8
52.0191	15.7
66.0347	24.4
80.0503	35.6
81.0343	4.0
93.0218	14.4
94.0296	49.3
107.0374	21.8
108.0452	100.0

Name: 3,5-Bis(acetylamino)benzoic acid
PrecursorMZ: 235.07236
RT: 10.9587
ExactMass: 236.07970687
Spectrum_type: 2
charge: -1
Formula: C11H12N2O4
SMILES: CC(=O)NC1=CC(=CC(=C1)C(=O)O)NC(=O)C
Method: HCD
Collision_energy: [28.333334]
Isolation_window: 4.0
Ion_mode: N
Num Peaks: 10
64.4187	4.8
69.9988	4.4
128.9093	5.4
173.4767	33.9
173.4861	17.9
173.7774	5.4
191.0824	100.0
195.8096	4.4
224.1534	5.6
242.6705	6.1

Name: 3,5-Dihydroxydecanoic acid
PrecursorMZ: 203.12911
RT: 7.0638
ExactMass: 204.13615911
Spectrum_type: 2
charge: -1
Formula: C10H20O4
SMILES: CCCCCC(CC(CC(=O)O)O)O
Method: HCD
Collision_energy: [28.333334]
Isolation_window: 4.0
Ion_mode: N
Num Peaks: 13
57.0343	8.3
71.0136	8.7
71.0500	9.1
73.0292	8.8
85.0293	7.7
87.0449	13.3
88.0401	24.2
99.0813	7.6
148.9776	10.2
148.9861	12.3
203.0560	29.6
203.0923	8.5
203.1287	100.0

Name: 3-(3'-Hydroxyphenyl)propionic acid
PrecursorMZ: 165.05599
RT: 35.0102
ExactMass: 166.062994177
Spectrum_type: 2
charge: -1
Formula: C9H10O3
SMILES: C1=CC(=CC(=C1)O)CCC(=O)O
Method: HCD
Collision_energy: [28.333334]
Isolation_window: 4.0
Ion_mode: N
Num Peaks: 37
41.0031	2.6
41.9984	1.0
43.0188	3.3
57.0344	3.5
58.0058	2.4
59.0137	1.6
65.0394	0.6
69.0344	0.7
79.9571	2.1
80.9650	1.0
83.0500	4.2
85.0293	0.8
93.0344	1.4
95.0501	1.0
97.0656	0.9
106.0422	22.8
111.0450	0.7
113.0243	0.7
119.0500	37.6
119.0548	0.6
119.0576	0.6
121.0293	15.9
121.0656	100.0
121.0704	1.9
121.0734	1.6
121.0756	0.8
137.0970	2.1
141.0919	1.7
149.0094	2.1
155.1076	2.5
165.0192	2.8
165.0406	1.1
165.0555	29.9
165.0868	14.1
165.1025	0.8
165.4212	4.2
171.0904	0.8

Name: 3-(5-acetyl-4-(carboxymethyl)-1H-pyrrol-3-yl)propanoic acid
PrecursorMZ: 238.07244
RT: 27.8965
ExactMass: 239.07937252
Spectrum_type: 2
charge: -1
Formula: C11H13NO5
SMILES: CC(=O)C1=C(C(=CN1)CCC(=O)O)CC(=O)O
Method: HCD
Collision_energy: [28.333334]
Isolation_window: 4.0
Ion_mode: N
Num Peaks: 8
59.0136	7.5
108.0452	100.0
131.0346	5.8
148.9837	7.5
148.9921	4.7
176.0715	5.2
194.0820	7.8
238.0718	12.2

Name: 3-(Indol-3-YL) lactate
PrecursorMZ: 204.06669
RT: 32.4957
ExactMass: 205.07389321
Spectrum_type: 2
charge: -1
Formula: C11H11NO3
SMILES: C1=CC=C2C(=C1)C(=CN2)C[C@@H](C(=O)O)O
Method: HCD
Collision_energy: [28.333334]
Isolation_window: 4.0
Ion_mode: N
Num Peaks: 35
41.9984	4.1
59.0136	3.0
59.9911	3.8
71.0136	2.6
72.9929	5.8
74.0245	5.8
75.0085	1.9
79.9571	2.2
80.9649	1.9
88.0401	2.9
114.0558	2.7
116.0503	11.2
116.0714	1.7
124.0401	1.8
128.0350	2.3
128.0503	5.3
129.5405	2.7
130.0660	6.5
132.0299	1.5
142.0660	10.2
158.0608	44.2
160.0433	3.2
160.0765	8.6
173.5560	2.2
181.5900	1.5
182.5614	19.9
186.0557	17.2
204.0662	100.0
204.0753	1.7
204.0891	2.6
204.1075	3.2
204.1256	2.1
204.5746	3.3
204.6095	1.4
205.0700	1.4

Name: 3-Amino-5-hydroxybenzoate
PrecursorMZ: 152.0353
RT: 16.7457
ExactMass: 152.034768053
Spectrum_type: 2
charge: -1
Formula: C7H6NO3-
SMILES: C1=C(C=C(C=C1N)[O-])C(=O)O
Method: HCD
Collision_energy: [28.333334]
Isolation_window: 4.0
Ion_mode: N
Num Peaks: 16
43.8121	31.6
47.3092	27.5
50.4779	26.0
54.5783	30.5
55.2028	29.7
60.8561	29.4
65.5386	30.6
65.5440	25.7
66.0348	85.6
74.9252	30.3
84.2573	30.0
84.8513	28.5
98.5990	31.4
108.0452	100.0
117.3783	30.0
137.6896	32.3

Name: 3-Hydroxykynurenine
PrecursorMZ: 206.04611
RT: 33.5256
ExactMass: 224.07970687
Spectrum_type: 2
charge: -1
Formula: C10H12N2O4
SMILES: C1=CC(=C(C(=C1)O)N)C(=O)CC(C(=O)O)N
Method: HCD
Collision_energy: [28.333334]
Isolation_window: 4.0
Ion_mode: N
Num Peaks: 24
41.9985	1.4
117.0346	0.5
119.0503	2.0
120.0455	0.2
131.0377	0.2
132.0455	1.9
134.0248	0.5
134.0612	2.1
144.0455	3.7
146.0248	0.2
147.0326	3.8
148.0405	0.3
159.0327	1.1
160.0326	0.7
160.0403	100.0
160.0431	0.5
160.0481	0.7
160.0503	0.3
161.0483	1.4
162.0479	0.3
162.0560	41.3
162.0639	0.3
188.0354	1.0
206.0459	4.8

Name: 3-Hydroxynonanoic acid
PrecursorMZ: 173.11859
RT: 13.0591
ExactMass: 174.125594432
Spectrum_type: 2
charge: -1
Formula: C9H18O3
SMILES: CCCCCCC(CC(=O)O)O
Method: HCD
Collision_energy: [28.333334]
Isolation_window: 4.0
Ion_mode: N
Num Peaks: 5
127.1127	11.4
131.0824	3.5
173.0455	3.5
173.0816	3.4
173.1182	100.0

Name: 3-Methoxy-dl-tyrosine
PrecursorMZ: 210.07744
RT: 3.4164
ExactMass: 211.0844579
Spectrum_type: 2
charge: -1
Formula: C10H13NO4
SMILES: COC1=C(C=CC(=C1)CC(C(=O)O)N)O
Method: HCD
Collision_energy: [28.333334]
Isolation_window: 4.0
Ion_mode: N
Num Peaks: 7
94.0295	100.0
94.0349	1.9
101.0242	4.2
108.0452	10.2
115.0398	2.0
124.0514	1.8
210.0768	7.5

Name: 3-Methylglutaric acid
PrecursorMZ: 145.0506
RT: 21.0979
ExactMass: 146.0579088
Spectrum_type: 2
charge: -1
Formula: C6H10O4
SMILES: CC(CC(=O)O)CC(=O)O
Method: HCD
Collision_energy: [28.333334]
Isolation_window: 4.0
Ion_mode: N
Num Peaks: 22
43.0939	0.8
51.8799	0.7
59.2256	0.8
64.9732	0.7
81.0344	16.2
82.8934	0.7
83.0472	1.2
83.0500	64.2
83.0543	1.2
83.9681	0.8
87.6389	0.8
89.0231	0.8
91.5346	0.8
100.3872	0.8
101.0605	100.0
101.0642	2.6
109.7743	1.0
123.2474	0.7
127.0398	1.5
135.0133	0.8
145.0504	27.9
145.0572	1.4

Name: 4-Pyridoxic Acid
PrecursorMZ: 182.04627
RT: 29.8987
ExactMass: 183.05315777
Spectrum_type: 2
charge: -1
Formula: C8H9NO4
SMILES: CC1=NC=C(C(=C1O)C(=O)O)CO
Method: HCD
Collision_energy: [28.333334]
Isolation_window: 4.0
Ion_mode: N
Num Peaks: 8
92.0506	4.3
94.0298	1.4
108.0455	59.3
120.0455	5.7
123.0326	1.9
138.0560	100.0
138.0586	1.4
182.0459	11.6

Name: 5,6-Dihydropenicillic acid
PrecursorMZ: 171.06628
RT: 28.738
ExactMass: 172.07355886
Spectrum_type: 2
charge: -1
Formula: C8H12O4
SMILES: CC(C)C1(C(=CC(=O)O1)OC)O
Method: HCD
Collision_energy: [28.333334]
Isolation_window: 4.0
Ion_mode: N
Num Peaks: 15
43.7675	1.4
46.8643	1.4
48.6881	1.5
60.4523	1.6
63.6389	1.7
69.7243	1.7
70.5014	1.6
74.3210	1.6
85.0323	1.6
127.0762	100.0
143.5449	1.6
147.8525	1.6
159.5318	1.9
171.7026	1.5
173.4829	2.3

Name: 5-(12-(3,5-Dihydroxyphenyl)dodecyl)benzene-1,3-diol
PrecursorMZ: 385.23879
RT: 37.3189
ExactMass: 386.24570956
Spectrum_type: 2
charge: -1
Formula: C24H34O4
SMILES: C1=C(C=C(C=C1O)O)CCCCCCCCCCCCC2=CC(=CC(=C2)O)O
Method: HCD
Collision_energy: [28.333334]
Isolation_window: 4.0
Ion_mode: N
Num Peaks: 9
96.9598	22.3
114.0557	4.2
123.0812	54.6
128.0350	5.0
261.1495	59.5
385.1690	7.0
385.1874	10.3
385.2386	100.0
386.2422	7.8

Name: 6,11-dioxododecanoic Acid
PrecursorMZ: 227.1291
RT: 6.092
ExactMass: 228.13615911
Spectrum_type: 2
charge: -1
Formula: C12H20O4
SMILES: CC(=O)CCCCC(=O)CCCCC(=O)O
Method: HCD
Collision_energy: [28.333334]
Isolation_window: 4.0
Ion_mode: N
Num Peaks: 48
43.0188	2.2
57.0343	35.0
57.0369	1.1
59.0136	8.3
69.0343	2.4
71.0500	2.5
81.0343	1.5
83.0499	1.3
93.0456	2.0
95.0499	2.3
97.0656	15.3
99.0561	1.2
102.0016	3.0
109.0656	3.8
111.0813	5.9
112.0402	1.2
114.0558	3.4
116.0714	1.6
123.0561	1.5
123.0813	7.5
125.0354	1.3
127.0874	1.2
135.0562	1.2
137.0353	2.8
137.0969	5.5
139.0510	1.6
139.1125	2.2
148.9803	1.6
148.9875	1.3
149.0969	1.7
155.0823	1.3
155.1438	1.8
163.1124	2.0
165.0667	7.3
165.0918	1.7
165.1283	3.0
167.1074	4.1
181.1231	8.3
183.1139	2.5
183.1387	5.2
209.1180	1.2
225.1129	1.6
227.0672	1.8
227.0922	4.0
227.1035	3.4
227.1285	100.0
227.1400	3.7
227.2013	2.4

Name: An inositol
PrecursorMZ: 179.05627
RT: 4.8483
ExactMass: 180.0633881
Spectrum_type: 2
charge: -1
Formula: C6H12O6
SMILES: C1(C(C(C(C(C1O)O)O)O)O)O
Method: HCD
Collision_energy: [28.333334]
Isolation_window: 4.0
Ion_mode: N
Num Peaks: 28
41.0031	2.8
43.0188	7.6
44.9980	8.1
55.0187	2.8
57.0344	14.0
59.0136	75.3
59.0162	2.0
69.0343	5.1
71.0136	26.9
72.9929	2.8
73.0293	8.7
75.0085	13.9
81.0343	4.3
83.0136	8.4
85.0292	41.3
87.0085	7.8
87.0449	1.8
89.0242	18.5
97.0293	9.4
99.0085	3.4
101.0242	9.6
113.0242	2.1
119.0347	8.4
131.0347	27.3
135.0296	2.2
161.0453	38.3
179.0558	100.0
179.0819	1.9

Name: Budesonide
PrecursorMZ: 475.23437
RT: 32.2715
ExactMass: 430.2355388
Spectrum_type: 2
charge: -1
Formula: C25H34O6
SMILES: CCCC1O[C@@H]2C[C@H]3[C@@H]4CCC5=CC(=O)C=C[C@@]5([C@H]4[C@H](C[C@@]3([C@@]2(O1)C(=O)CO)C)O)C
Method: HCD
Collision_energy: [28.333334]
Isolation_window: 4.0
Ion_mode: N
Num Peaks: 7
96.9598	12.1
128.0350	1.5
343.2641	4.4
387.2541	17.2
431.2438	12.0
475.2337	100.0
476.2369	6.8

PrecursorMZ: 377.19699
RT: 32.8655
ExactMass: 378.20423867
Spectrum_type: 2
charge: -1
Formula: C21H30O6
SMILES: CCC1CC2C(=CC3CCCCC3C2(C4(O1)C(=O)OC(C(=O)O4)(C)O)C)C
Method: HCD
Collision_energy: [28.333334]
Isolation_window: 4.0
Ion_mode: N
Num Peaks: 19
54.2151	17.3
62.9681	17.1
66.4336	15.6
69.7814	15.0
75.7430	14.5
95.4168	16.1
98.0386	16.3
100.1338	15.6
107.2094	16.1
108.1930	15.7
115.6121	16.7
149.1294	15.7
160.1478	20.3
173.4757	94.9
173.4852	100.0
206.4391	18.0
214.7955	18.4
245.9714	17.9
377.1968	33.0

Name: Caffeic Acid
PrecursorMZ: 179.03533
RT: 38.1389
ExactMass: 180.04225873
Spectrum_type: 2
charge: -1
Formula: C9H8O4
SMILES: C1=CC(=C(C=C1/C=C/C(=O)O)O)O
Method: HCD
Collision_energy: [28.333334]
Isolation_window: 4.0
Ion_mode: N
Num Peaks: 13
41.9984	5.4
59.0137	5.5
79.9571	8.9
80.9650	9.7
90.9857	5.4
96.9598	6.3
107.0500	6.2
120.0578	7.2
133.0657	15.1
135.0449	100.0
135.0813	84.9
179.0348	27.2
179.0712	11.0

Name: Camp
PrecursorMZ: 328.04552
RT: 32.8063
ExactMass: 329.05252012
Spectrum_type: 2
charge: -1
Formula: C10H12N5O6P
SMILES: C1[C@@H]2[C@H]([C@H]([C@@H](O2)N3C=NC4=C(N=CN=C43)N)O)OP(=O)(O1)O
Method: HCD
Collision_energy: [28.333334]
Isolation_window: 4.0
Ion_mode: N
Num Peaks: 16
78.9588	13.5
96.9598	9.6
114.0557	7.3
124.0765	8.3
128.0350	9.2
134.0469	100.0
168.0776	7.0
257.1657	10.7
279.6322	9.9
284.1136	6.3
327.2174	19.1
328.0450	20.1
328.1031	10.9
328.1225	21.7
328.2212	15.8
522.0432	14.9

Name: Cholic Acid
PrecursorMZ: 407.28072
RT: 30.0635
ExactMass: 408.28757437
Spectrum_type: 2
charge: -1
Formula: C24H40O5
SMILES: C[C@H](CCC(=O)O)[C@H]1CC[C@@H]2[C@@]1([C@H](C[C@H]3[C@H]2[C@@H](C[C@H]4[C@@]3(CC[C@H](C4)O)C)O)O)C
Method: HCD
Collision_energy: [28.333334]
Isolation_window: 4.0
Ion_mode: N
Num Peaks: 5
96.9598	2.3
128.0349	1.3
345.2797	3.8
407.2800	100.0
408.2836	7.2

Name: Clausarin
PrecursorMZ: 379.19132
RT: 13.5506
ExactMass: 380.19875937
Spectrum_type: 2
charge: -1
Formula: C24H28O4
SMILES: CC1(C=CC2=C(O1)C(=C3C(=C2O)C=C(C(=O)O3)C(C)(C)C=C)C(C)(C)C=C)C
Method: HCD
Collision_energy: [28.333334]
Isolation_window: 4.0
Ion_mode: N
Num Peaks: 20
96.9597	15.3
130.0868	31.6
158.0454	35.4
225.1350	14.4
243.1456	42.2
264.0988	12.6
273.1563	17.0
278.1140	10.9
279.1345	20.4
290.6626	16.0
356.6890	20.7
357.1773	100.0
357.6790	27.4
378.6797	21.5
378.7025	28.3
379.1363	15.2
379.1902	52.7
379.6915	25.6
423.1878	25.5
441.1984	11.7

Name: Crotonic Acid
PrecursorMZ: 85.0296
RT: 8.7864
ExactMass: 86.03677943
Spectrum_type: 2
charge: -1
Formula: C4H6O2
SMILES: C/C=C/C(=O)O
Method: HCD
Collision_energy: [28.333334]
Isolation_window: 4.0
Ion_mode: N
Num Peaks: 6
41.0031	2.7
41.0225	2.2
55.0187	2.2
57.0344	3.4
85.0292	100.0
85.0322	2.4

Name: Cytidine
PrecursorMZ: 242.07855
RT: 2.4419
ExactMass: 243.08552052
Spectrum_type: 2
charge: -1
Formula: C9H13N3O5
SMILES: C1=CN(C(=O)N=C1N)[C@H]2[C@@H]([C@@H]([C@H](O2)CO)O)O
Method: HCD
Collision_energy: [28.333334]
Isolation_window: 4.0
Ion_mode: N
Num Peaks: 8
81.0455	43.5
84.0452	23.0
96.9598	75.0
109.0405	100.0
153.0667	30.8
242.0778	34.8
242.1024	31.5
242.1148	37.0

Name: D-Fructose
PrecursorMZ: 179.05605
RT: 4.7122
ExactMass: 180.0633881
Spectrum_type: 2
charge: -1
Formula: C6H12O6
SMILES: C1[C@H]([C@H]([C@@H](C(O1)(CO)O)O)O)O
Method: HCD
Collision_energy: [28.333334]
Isolation_window: 4.0
Ion_mode: N
Num Peaks: 25
46.3499	8.2
47.9284	6.2
52.7417	6.1
54.5991	6.1
56.8557	7.6
59.0137	10.7
60.9345	6.8
67.0396	6.8
73.0294	8.3
73.8007	6.5
84.9906	14.9
87.0280	7.4
89.0242	18.9
112.0944	6.4
112.9580	7.2
114.9742	5.9
117.9044	6.8
131.0355	5.9
133.0505	14.9
136.3108	7.2
161.0455	100.0
173.4814	14.4
174.3873	6.7
183.1668	6.7
186.1749	6.2

Name: Dihydroagathic acid
PrecursorMZ: 381.22867
RT: 30.0635
ExactMass: 336.2300595
Spectrum_type: 2
charge: -1
Formula: C20H32O4
SMILES: CC(CC[C@H]1C(=C)CC[C@@H]2[C@@]1(CCC[C@@]2(C)C(=O)O)C)CC(=O)O
Method: HCD
Collision_energy: [28.333334]
Isolation_window: 4.0
Ion_mode: N
Num Peaks: 7
75.0084	10.1
96.9597	9.3
148.9751	3.6
148.9838	5.4
276.1350	3.9
381.2280	100.0
382.2314	6.4

Name: Dihydrocaffeic Acid
PrecursorMZ: 181.05097
RT: 36.4799
ExactMass: 182.0579088
Spectrum_type: 2
charge: -1
Formula: C9H10O4
SMILES: C1=CC(=C(C=C1CCC(=O)O)O)O
Method: HCD
Collision_energy: [28.333334]
Isolation_window: 4.0
Ion_mode: N
Num Peaks: 14
59.0137	40.3
74.0246	14.8
79.9571	37.1
80.9650	24.6
109.0293	95.9
118.9418	31.1
135.0448	19.9
137.0242	100.0
137.0606	56.5
138.0194	22.5
153.0191	16.8
181.0141	77.4
181.0505	95.9
181.0695	43.9

Name: Ecgonine
PrecursorMZ: 184.09811
RT: 8.043
ExactMass: 185.10519334
Spectrum_type: 2
charge: -1
Formula: C9H15NO3
SMILES: CN1[C@H]2CC[C@@H]1[C@H]([C@H](C2)O)C(=O)O
Method: HCD
Collision_energy: [28.333334]
Isolation_window: 4.0
Ion_mode: N
Num Peaks: 12
41.9983	100.0
42.0005	1.1
59.0137	2.5
106.9807	2.2
123.0450	0.9
124.0403	1.3
140.0716	2.0
140.1080	1.2
184.0615	2.3
184.0978	56.7
185.0125	4.1
185.0454	1.1

Name: Ezetimibe
PrecursorMZ: 408.1416
RT: 33.5193
ExactMass: 409.14894986
Spectrum_type: 2
charge: -1
Formula: C24H21F2NO3
SMILES: C1=CC(=CC=C1[C@@H]2[C@H](C(=O)N2C3=CC=C(C=C3)F)CC[C@@H](C4=CC=C(C=C4)F)O)O
Method: HCD
Collision_energy: [28.333334]
Isolation_window: 4.0
Ion_mode: N
Num Peaks: 20
71.0135	4.0
96.9597	10.3
115.0033	8.5
127.0509	15.3
128.0349	12.3
132.0298	6.2
164.0712	4.6
180.0662	14.4
213.1029	5.2
227.1032	5.1
256.1089	5.1
274.1194	14.2
275.1034	7.4
292.1298	19.6
293.1138	7.2
390.1666	5.8
407.2800	49.3
408.1408	22.3
408.1773	15.5
408.2834	100.0

Name: Galdosol
PrecursorMZ: 343.15542
RT: 24.6195
ExactMass: 344.16237386
Spectrum_type: 2
charge: -1
Formula: C20H24O5
SMILES: CC(C)C1=C(C(=C2C(=C1)C(=O)[C@@H]3[C@@H]4[C@@]2(CCCC4(C)C)C(=O)O3)O)O
Method: HCD
Collision_energy: [28.333334]
Isolation_window: 4.0
Ion_mode: N
Num Peaks: 13
96.9598	4.7
128.0349	2.1
209.0715	1.9
281.1540	2.2
299.1648	7.5
342.6826	4.5
343.1029	4.8
343.1547	100.0
343.1816	1.8
343.2122	3.9
343.2489	2.0
343.6606	2.2
344.1581	4.6

Name: Gallic Acid
PrecursorMZ: 169.01448
RT: 30.3016
ExactMass: 170.02152329
Spectrum_type: 2
charge: -1
Formula: C7H6O5
SMILES: C1=C(C=C(C(=C1O)O)O)C(=O)O
Method: HCD
Collision_energy: [28.333334]
Isolation_window: 4.0
Ion_mode: N
Num Peaks: 12
41.0031	10.6
41.9984	11.6
55.0188	8.8
59.0137	6.4
71.0136	7.3
81.0344	41.3
125.0242	100.0
125.0606	7.0
125.0970	7.4
169.0141	18.1
169.0504	6.4
169.0869	7.3

Name: Gamma-Aminobutyric Acid
PrecursorMZ: 102.05616
RT: 4.6175
ExactMass: 103.06332853
Spectrum_type: 2
charge: -1
Formula: C4H9NO2
SMILES: C(CC(=O)O)CN
Method: HCD
Collision_energy: [28.333334]
Isolation_window: 4.0
Ion_mode: N
Num Peaks: 7
44.9980	0.4
84.0453	0.2
102.0556	100.0
102.0595	2.3
102.0617	1.9
102.0658	0.5
102.0694	0.2

Name: Gamma-Glutamylalanine
PrecursorMZ: 217.08321
RT: 17.2885
ExactMass: 218.09027155
Spectrum_type: 2
charge: -1
Formula: C8H14N2O5
SMILES: C[C@@H](C(=O)O)NC(=O)CC[C@@H](C(=O)O)N
Method: HCD
Collision_energy: [28.333334]
Isolation_window: 4.0
Ion_mode: N
Num Peaks: 11
82.0296	2.3
84.0452	1.9
88.0401	65.4
96.9598	65.1
127.0511	3.1
128.0351	100.0
155.0824	8.4
181.0617	5.9
199.0724	16.4
216.9094	2.8
217.0830	5.2

Name: Glutamyltyrosine
PrecursorMZ: 309.1095
RT: 33.96
ExactMass: 310.1164863
Spectrum_type: 2
charge: -1
Formula: C14H18N2O6
SMILES: C1=CC(=CC=C1C[C@@H](C(=O)O)NC(=O)CC[C@@H](C(=O)O)N)O
Method: HCD
Collision_energy: [28.333334]
Isolation_window: 4.0
Ion_mode: N
Num Peaks: 30
59.0136	5.5
74.0245	4.1
101.0717	15.3
109.0405	5.9
109.0530	3.3
114.0558	4.7
119.0499	11.2
122.0609	3.9
124.0765	78.2
125.0799	5.1
127.0510	42.7
128.0351	90.4
135.0449	9.5
141.0667	9.0
146.0610	3.5
163.0399	11.7
165.1032	18.1
167.0461	13.0
180.0665	100.0
181.0982	8.4
185.0566	8.1
209.0932	8.7
221.1295	5.9
247.1090	9.6
265.1348	5.2
266.1424	8.8
291.0991	31.4
309.1098	27.3
309.1462	12.3
309.2074	3.5

Name: Glyceric acid
PrecursorMZ: 105.01954
RT: 5.5721
ExactMass: 106.02660867
Spectrum_type: 2
charge: -1
Formula: C3H6O4
SMILES: C(C(C(=O)O)O)O
Method: HCD
Collision_energy: [28.333334]
Isolation_window: 4.0
Ion_mode: N
Num Peaks: 9
41.0032	2.3
43.0189	6.4
44.9981	35.3
56.9982	1.6
59.0138	23.7
72.9930	7.7
75.0087	59.0
105.0192	100.0
105.0213	1.7

Name: Glycyl-L-glutamine
PrecursorMZ: 202.08359
RT: 3.6564
ExactMass: 203.0906059
Spectrum_type: 2
charge: -1
Formula: C7H13N3O4
SMILES: C(CC(=O)N)[C@@H](C(=O)O)NC(=O)CN
Method: HCD
Collision_energy: [28.333334]
Isolation_window: 4.0
Ion_mode: N
Num Peaks: 16
41.9985	19.9
58.0298	14.2
70.0297	11.0
73.0407	26.5
74.0247	21.3
87.0563	22.0
88.0403	100.0
98.0247	18.4
99.0563	11.5
101.0720	13.8
113.0356	43.2
127.0513	15.1
140.0829	26.0
184.0727	21.3
185.0567	14.8
202.0833	18.9

Name: Glycyl-L-tyrosine
PrecursorMZ: 237.08843
RT: 25.7047
ExactMass: 238.09535693
Spectrum_type: 2
charge: -1
Formula: C11H14N2O4
SMILES: C1=CC(=CC=C1C[C@@H](C(=O)O)NC(=O)CN)O
Method: HCD
Collision_energy: [28.333334]
Isolation_window: 4.0
Ion_mode: N
Num Peaks: 10
59.0136	28.2
74.0245	61.1
80.9649	47.8
85.0405	33.0
107.0500	66.5
131.0459	29.5
137.0717	23.1
148.9798	29.5
148.9886	26.6
237.0879	100.0

Name: Inosine
PrecursorMZ: 267.07358
RT: 18.6709
ExactMass: 268.0807695
Spectrum_type: 2
charge: -1
Formula: C10H12N4O5
SMILES: C1=NC2=C(C(=O)N1)N=CN2[C@H]3[C@@H]([C@@H]([C@H](O3)CO)O)O
Method: HCD
Collision_energy: [28.333334]
Isolation_window: 4.0
Ion_mode: N
Num Peaks: 3
81.0456	3.0
135.0309	100.0
267.0733	32.7

Name: Inositol
PrecursorMZ: 179.05649
RT: 2.1999
ExactMass: 180.0633881
Spectrum_type: 2
charge: -1
Formula: C6H12O6
SMILES: C1(C(C(C(C(C1O)O)O)O)O)O
Method: HCD
Collision_energy: [28.333334]
Isolation_window: 4.0
Ion_mode: N
Num Peaks: 17
41.0032	6.4
43.0189	7.1
44.9981	3.6
59.0138	100.0
71.0138	51.2
85.0294	4.7
87.0087	17.3
89.0243	5.4
95.0138	2.4
96.9600	3.7
99.0087	4.0
101.0244	3.6
113.0244	3.3
117.0193	2.3
125.0243	2.2
161.0455	7.1
179.0560	7.1

Name: Isoferulic Acid
PrecursorMZ: 193.0506
RT: 38.1924
ExactMass: 194.0579088
Spectrum_type: 2
charge: -1
Formula: C10H10O4
SMILES: COC1=C(C=C(C=C1)/C=C/C(=O)O)O
Method: HCD
Collision_energy: [28.333334]
Isolation_window: 4.0
Ion_mode: N
Num Peaks: 17
49.7059	9.9
57.4715	10.9
66.6745	12.2
67.7183	10.3
68.1566	10.0
71.0857	12.2
77.3342	9.8
96.4745	10.1
96.9601	17.9
131.3854	11.7
134.0373	52.1
140.3723	9.6
149.0607	22.2
155.9882	10.8
167.6463	9.7
173.4795	100.0
186.9882	14.6

Name: Kamebakaurin
PrecursorMZ: 385.17851
RT: 25.5153
ExactMass: 350.20932405
Spectrum_type: 2
charge: -1
Formula: C20H30O5
SMILES: CC1(CC[C@@H]([C@@]2([C@@H]1C[C@H]([C@]34[C@H]2CC[C@H]([C@H]3O)C(=C)C4=O)O)CO)O)C
Method: HCD
Collision_energy: [28.333334]
Isolation_window: 4.0
Ion_mode: N
Num Peaks: 18
53.8009	15.8
57.3920	15.6
60.4524	16.8
67.4116	15.5
77.4068	15.8
81.5992	15.2
118.5077	17.8
129.3948	17.3
173.4745	36.8
173.4835	100.0
179.2730	16.2
187.6493	14.5
206.9191	16.2
207.5391	20.8
208.3708	15.8
214.5869	19.3
256.5432	16.3
335.2531	17.4

Name: L-Arabinose
PrecursorMZ: 149.04549
RT: 4.7561
ExactMass: 150.05282342
Spectrum_type: 2
charge: -1
Formula: C5H10O5
SMILES: C1[C@@H]([C@@H]([C@H](C(O1)O)O)O)O
Method: HCD
Collision_energy: [28.333334]
Isolation_window: 4.0
Ion_mode: N
Num Peaks: 19
43.4304	15.2
43.6967	16.1
48.4168	14.8
54.1473	14.1
56.0456	16.1
57.0931	14.3
58.4231	13.4
59.0137	100.0
67.3325	16.7
68.6199	19.5
73.4599	20.5
83.0136	56.4
89.0241	24.0
93.6320	16.9
101.0243	47.8
105.6869	17.5
113.0247	17.6
131.0349	66.2
155.1118	15.9

Name: L-Aspartyl-L-phenylalanine
PrecursorMZ: 279.09889
RT: 29.1193
ExactMass: 280.10592162
Spectrum_type: 2
charge: -1
Formula: C13H16N2O5
SMILES: C1=CC=C(C=C1)C[C@@H](C(=O)O)NC(=O)[C@H](CC(=O)O)N
Method: HCD
Collision_energy: [28.333334]
Isolation_window: 4.0
Ion_mode: N
Num Peaks: 27
59.0137	16.6
71.0137	43.4
71.0249	63.1
82.0297	11.4
88.0402	74.6
91.0552	16.5
96.0091	9.9
96.9600	23.7
114.0560	9.4
115.0036	44.6
116.0716	43.3
127.0511	17.5
128.0352	49.8
130.0872	12.7
146.0611	23.0
147.0450	12.3
155.0825	8.0
163.0876	65.5
164.0716	95.5
180.1029	11.7
199.0727	12.6
234.1116	9.9
235.1089	53.1
278.6357	47.0
279.0990	100.0
279.1369	20.4
279.2332	35.3

Name: L-Gulonic acid, gamma-lactone
PrecursorMZ: 177.04083
RT: 21.6758
ExactMass: 178.04773803
Spectrum_type: 2
charge: -1
Formula: C6H10O6
SMILES: C([C@@H]([C@@H]1[C@@H]([C@@H](C(=O)O1)O)O)O)O
Method: HCD
Collision_energy: [28.333334]
Isolation_window: 4.0
Ion_mode: N
Num Peaks: 31
41.0032	2.3
41.9985	1.9
43.0189	3.5
57.0345	9.6
59.0138	3.9
69.0345	5.3
71.0138	3.2
71.0501	9.1
72.9930	8.6
73.0294	11.3
75.0086	100.0
85.0294	7.7
87.0087	5.1
87.0451	3.7
89.0243	2.8
96.9600	32.4
97.0294	19.2
99.0087	3.6
101.0244	9.6
113.0244	7.3
115.0400	31.0
117.0193	7.2
119.0349	7.0
129.0193	5.1
131.0349	2.8
133.0506	2.3
141.0193	9.2
149.0608	1.9
159.0299	48.1
177.0405	43.7
177.0556	8.3

Name: L-Methionine
PrecursorMZ: 148.04387
RT: 6.248200000000001
ExactMass: 149.05104977
Spectrum_type: 2
charge: -1
Formula: C5H11NO2S
SMILES: CSCC[C@@H](C(=O)O)N
Method: HCD
Collision_energy: [28.333334]
Isolation_window: 4.0
Ion_mode: N
Num Peaks: 5
46.9924	0.1
46.9960	100.0
46.9988	0.2
100.0404	1.4
148.0438	2.0

Name: L-Phenylalanine
PrecursorMZ: 164.0718
RT: 11.1577
ExactMass: 165.078978594
Spectrum_type: 2
charge: -1
Formula: C9H11NO2
SMILES: C1=CC=C(C=C1)C[C@@H](C(=O)O)N
Method: HCD
Collision_energy: [28.333334]
Isolation_window: 4.0
Ion_mode: N
Num Peaks: 14
41.9985	0.8
44.9981	1.2
72.0090	46.6
72.0113	0.5
91.0553	5.2
118.0663	1.0
146.0613	0.7
147.0381	0.6
147.0450	100.0
147.0519	0.8
147.0540	0.3
164.0634	0.3
164.0716	45.0
164.0798	0.3

Name: L-Pyroglutamic acid
PrecursorMZ: 128.0355
RT: 4.9139
ExactMass: 129.042593085
Spectrum_type: 2
charge: -1
Formula: C5H7NO3
SMILES: C1CC(=O)N[C@@H]1C(=O)O
Method: HCD
Collision_energy: [28.333334]
Isolation_window: 4.0
Ion_mode: N
Num Peaks: 5
82.0298	1.5
84.0454	1.8
128.0352	100.0
128.0392	1.0
128.0716	2.8

Name: L-cysteinesulfinic acid
PrecursorMZ: 152.00246
RT: 21.1579
ExactMass: 153.00957888
Spectrum_type: 2
charge: -1
Formula: C3H7NO4S
SMILES: C([C@@H](C(=O)O)N)S(=O)O
Method: HCD
Collision_energy: [28.333334]
Isolation_window: 4.0
Ion_mode: N
Num Peaks: 9
41.9984	1.6
59.0136	2.7
71.0136	1.5
88.0401	100.0
88.0432	2.2
88.0449	2.0
108.0452	1.8
152.0020	8.0
152.0426	1.6

Name: Methylmalonic Acid
PrecursorMZ: 117.01937
RT: 22.3302
ExactMass: 118.02660867
Spectrum_type: 2
charge: -1
Formula: C4H6O4
SMILES: CC(C(=O)O)C(=O)O
Method: HCD
Collision_energy: [28.333334]
Isolation_window: 4.0
Ion_mode: N
Num Peaks: 13
41.9908	11.5
43.1743	10.1
47.6707	10.6
50.6629	10.1
53.5091	13.9
55.0188	16.4
73.0293	100.0
79.3671	11.5
95.5958	12.1
99.9256	25.4
109.9315	11.7
111.6300	12.8
116.9285	19.9

Name: N-((4-nitrophenyl)carbonyl)-beta-alanylleucine
PrecursorMZ: 350.13608
RT: 22.2394
ExactMass: 351.1430354
Spectrum_type: 2
charge: -1
Formula: C16H21N3O6
SMILES: CC(C)CC(C(=O)O)NC(=O)CCNC(=O)C1=CC=C(C=C1)[N+](=O)[O-]
Method: HCD
Collision_energy: [28.333334]
Isolation_window: 4.0
Ion_mode: N
Num Peaks: 22
74.0245	16.9
96.9598	27.9
116.0714	42.0
119.0498	12.0
127.0509	32.8
128.0350	44.0
148.9792	16.6
148.9877	15.9
164.0714	63.2
180.0662	47.4
184.0725	17.9
185.0565	21.4
186.1244	44.2
200.1401	19.0
218.1184	16.0
231.1138	12.3
233.0929	12.0
257.0928	36.4
306.1819	13.6
332.1250	34.2
350.1352	34.8
350.1719	100.0

Name: N-Acetyl-L-Aspartic Acid
PrecursorMZ: 174.04111
RT: 20.374966666666666
ExactMass: 175.04807239
Spectrum_type: 2
charge: -1
Formula: C6H9NO5
SMILES: CC(=O)N[C@@H](CC(=O)O)C(=O)O
Method: HCD
Collision_energy: [28.333334]
Isolation_window: 4.0
Ion_mode: N
Num Peaks: 16
41.9985	13.3
44.9982	2.8
58.0298	47.0
59.0138	19.0
70.0298	3.8
71.0138	10.5
86.0611	3.0
88.0403	100.0
96.9931	3.6
112.0404	6.8
114.0196	10.9
115.0037	8.7
128.0353	6.3
130.0509	19.0
156.0302	3.4
174.0408	9.2

Name: N-Acetyl-L-glutamic acid
PrecursorMZ: 188.05675
RT: 23.1093
ExactMass: 189.06372245
Spectrum_type: 2
charge: -1
Formula: C7H11NO5
SMILES: CC(=O)N[C@@H](CCC(=O)O)C(=O)O
Method: HCD
Collision_energy: [28.333334]
Isolation_window: 4.0
Ion_mode: N
Num Peaks: 13
41.9984	6.0
44.0140	5.2
59.0137	4.7
68.0503	3.2
98.0609	10.6
100.0765	27.0
116.0714	100.0
126.0558	6.1
144.0664	31.4
144.1028	7.4
188.0562	19.1
188.0927	12.2
188.1050	5.5

Name: N-Acetyl-L-proline
PrecursorMZ: 156.06656
RT: 4.7016
ExactMass: 157.07389321
Spectrum_type: 2
charge: -1
Formula: C7H11NO3
SMILES: CC(=O)N1CCC[C@H]1C(=O)O
Method: HCD
Collision_energy: [28.333334]
Isolation_window: 4.0
Ion_mode: N
Num Peaks: 16
40.9363	2.3
42.0798	2.3
42.6966	2.4
45.0453	2.5
46.8008	2.6
47.5445	2.5
63.2632	3.1
72.8059	2.8
79.1694	2.6
87.9496	2.7
114.0559	100.0
135.6749	2.9
137.8040	3.0
142.7650	2.6
145.4928	2.6
155.9950	2.6

Name: N-Acetyl-L-tyrosine
PrecursorMZ: 222.0775
RT: 27.1411
ExactMass: 223.0844579
Spectrum_type: 2
charge: -1
Formula: C11H13NO4
SMILES: CC(=O)N[C@@H](CC1=CC=C(C=C1)O)C(=O)O
Method: HCD
Collision_energy: [28.333334]
Isolation_window: 4.0
Ion_mode: N
Num Peaks: 19
58.0296	73.0
58.0321	2.1
59.0136	2.4
70.0296	6.1
72.0090	2.3
74.0245	4.4
80.9650	11.3
93.0344	4.5
106.0422	2.2
107.0500	21.1
119.0500	51.2
136.0765	1.7
162.0559	7.4
163.0398	17.1
178.0871	15.2
180.0663	100.0
222.0075	3.1
222.0769	60.3
222.5908	3.9

Name: N-methyl-L-glutamic acid
PrecursorMZ: 160.06162
RT: 4.359
ExactMass: 161.06880783
Spectrum_type: 2
charge: -1
Formula: C6H11NO4
SMILES: CN[C@@H](CCC(=O)O)C(=O)O
Method: HCD
Collision_energy: [28.333334]
Isolation_window: 4.0
Ion_mode: N
Num Peaks: 39
41.0031	3.2
41.9984	14.8
43.0188	2.3
44.0141	1.2
44.9981	4.5
57.0344	5.2
58.0297	14.9
59.0137	14.1
70.0297	3.4
71.0137	3.4
71.0501	1.3
72.0453	14.3
73.0293	1.1
74.0245	100.0
74.0283	2.0
84.0453	0.9
86.0610	2.8
88.0402	8.3
96.0454	3.2
96.0817	3.8
98.0246	32.5
98.0610	8.9
100.0402	10.4
101.0243	2.0
112.0403	2.1
114.0559	20.4
114.0924	1.1
116.0352	20.8
116.0716	2.1
117.0750	2.6
118.0509	18.9
130.0510	3.7
142.0509	2.3
142.0873	1.5
160.0615	57.6
160.0692	2.3
160.0811	3.1
160.0866	1.4
160.0979	45.8

Name: Neochlorogenic acid
PrecursorMZ: 353.08771
RT: 35.998
ExactMass: 354.09508215
Spectrum_type: 2
charge: -1
Formula: C16H18O9
SMILES: C1[C@H]([C@@H]([C@@H](C[C@]1(C(=O)O)O)OC(=O)/C=C/C2=CC(=C(C=C2)O)O)O)O
Method: HCD
Collision_energy: [28.333334]
Isolation_window: 4.0
Ion_mode: N
Num Peaks: 17
98.4615	15.3
112.0336	17.9
113.0948	15.8
120.7641	16.7
128.8291	20.5
132.8666	25.7
140.3764	29.7
152.7740	20.7
173.4759	85.3
173.4851	100.0
180.0932	25.5
191.4085	24.3
252.6119	26.0
278.5673	25.6
309.0614	36.7
309.1314	28.8
309.2074	35.4

Name: Nicotinic Acid
PrecursorMZ: 122.02496
RT: 3.2818
ExactMass: 123.032028402
Spectrum_type: 2
charge: -1
Formula: C6H5NO2
SMILES: C1=CC(=CN=C1)C(=O)O
Method: HCD
Collision_energy: [28.333334]
Isolation_window: 4.0
Ion_mode: N
Num Peaks: 3
78.0347	12.2
94.0296	9.2
122.0245	100.0

Name: Oxalate
PrecursorMZ: 88.98798
RT: 26.8995
ExactMass: 87.97965848
Spectrum_type: 2
charge: -1
Formula: C2O4-2
SMILES: C(=O)(C(=O)[O-])[O-]
Method: HCD
Collision_energy: [28.333334]
Isolation_window: 4.0
Ion_mode: N
Num Peaks: 5
60.9930	100.0
60.9957	2.4
64.9726	1.3
75.9283	1.6
86.3732	1.6

Name: Oxfenicine
PrecursorMZ: 166.05127
RT: 25.852
ExactMass: 167.058243149
Spectrum_type: 2
charge: -1
Formula: C8H9NO3
SMILES: C1=CC(=CC=C1[C@@H](C(=O)O)N)O
Method: HCD
Collision_energy: [28.333334]
Isolation_window: 4.0
Ion_mode: N
Num Peaks: 8
41.9984	11.4
59.0136	14.6
79.9571	9.9
80.9649	100.0
85.0293	13.6
94.0296	43.5
166.0921	23.9
167.0017	49.4

Name: P-Coumaric Acid
PrecursorMZ: 163.0404
RT: 38.0922
ExactMass: 164.047344113
Spectrum_type: 2
charge: -1
Formula: C9H8O3
SMILES: C1=CC(=CC=C1/C=C/C(=O)O)O
Method: HCD
Collision_energy: [28.333334]
Isolation_window: 4.0
Ion_mode: N
Num Peaks: 14
59.0137	1.5
79.9572	1.1
80.9651	0.6
91.0551	0.7
93.0345	2.2
101.0243	0.6
119.0401	0.5
119.0501	100.0
119.0543	1.5
119.0577	0.9
119.0600	0.9
163.0401	23.1
163.0609	1.5
163.1053	1.5

Name: Pimelic Acid
PrecursorMZ: 159.06665
RT: 22.9838
ExactMass: 160.07355886
Spectrum_type: 2
charge: -1
Formula: C7H12O4
SMILES: C(CCC(=O)O)CCC(=O)O
Method: HCD
Collision_energy: [28.333334]
Isolation_window: 4.0
Ion_mode: N
Num Peaks: 4
95.0502	25.9
97.0658	100.0
115.0764	35.6
159.0662	32.0

Name: Propyl Gallate
PrecursorMZ: 211.06147
RT: 9.9493
ExactMass: 212.06847348
Spectrum_type: 2
charge: -1
Formula: C10H12O5
SMILES: CCCOC(=O)C1=CC(=C(C(=C1)O)O)O
Method: HCD
Collision_energy: [28.333334]
Isolation_window: 4.0
Ion_mode: N
Num Peaks: 15
41.9984	14.4
78.9588	73.1
80.9650	8.8
85.0293	23.7
86.0327	9.9
96.9694	21.0
125.0242	10.9
125.0354	100.0
138.9800	20.7
149.0606	9.0
167.0711	9.2
167.0825	12.4
211.0010	45.3
211.0609	44.9
211.0974	8.3

Name: Provitamin C
PrecursorMZ: 193.03596
RT: 11.4876
ExactMass: 194.04265265
Spectrum_type: 2
charge: -1
Formula: C6H10O7
SMILES: C([C@H]([C@@H]([C@H](C(=O)C(=O)O)O)O)O)O
Method: HCD
Collision_energy: [28.333334]
Isolation_window: 4.0
Ion_mode: N
Num Peaks: 22
41.0031	4.5
43.0188	4.1
44.9980	7.4
55.0187	4.5
57.0344	9.1
59.0136	100.0
59.0162	2.9
71.0136	35.8
72.9929	64.2
73.0293	28.1
80.9650	2.9
83.0136	6.3
85.0293	39.8
89.0242	7.1
95.0136	6.6
96.9598	3.5
99.0086	2.6
101.0242	19.4
103.0035	7.2
113.0242	51.7
131.0348	10.2
193.0351	16.8

Name: Quinolinic Acid
PrecursorMZ: 166.01491
RT: 29.0163
ExactMass: 167.02185764
Spectrum_type: 2
charge: -1
Formula: C7H5NO4
SMILES: C1=CC(=C(N=C1)C(=O)O)C(=O)O
Method: HCD
Collision_energy: [28.333334]
Isolation_window: 4.0
Ion_mode: N
Num Peaks: 8
41.9984	3.3
78.0347	9.6
79.9571	3.4
122.0245	100.0
122.0327	3.9
122.0609	18.6
166.0145	5.4
166.0508	4.5

Name: Saccharopine
PrecursorMZ: 275.12511
RT: 30.7032
ExactMass: 276.13213636
Spectrum_type: 2
charge: -1
Formula: C11H20N2O6
SMILES: C(CCN[C@@H](CCC(=O)O)C(=O)O)C[C@@H](C(=O)O)N
Method: HCD
Collision_energy: [28.333334]
Isolation_window: 4.0
Ion_mode: N
Num Peaks: 11
84.0454	11.8
128.0716	11.6
129.0192	7.5
145.0982	25.1
170.1186	8.1
178.0873	10.1
196.0978	44.9
213.1244	23.0
240.0878	5.6
257.1143	100.0
275.1249	7.0

Name: Sucralose
PrecursorMZ: 395.00766
RT: 5.5561
ExactMass: 396.014551
Spectrum_type: 2
charge: -1
Formula: C12H19Cl3O8
SMILES: C([C@@H]1[C@@H]([C@@H]([C@H]([C@H](O1)O[C@]2([C@H]([C@@H]([C@H](O2)CCl)O)O)CCl)O)O)Cl)O
Method: HCD
Collision_energy: [28.333334]
Isolation_window: 4.0
Ion_mode: N
Num Peaks: 6
96.9598	17.4
148.9783	8.5
148.9871	7.7
197.0678	13.0
359.0305	22.8
395.0071	100.0

Name: Terephthalic Acid
PrecursorMZ: 165.01944
RT: 31.6799
ExactMass: 166.02660867
Spectrum_type: 2
charge: -1
Formula: C8H6O4
SMILES: C1=CC(=CC=C1C(=O)O)C(=O)O
Method: HCD
Collision_energy: [28.333334]
Isolation_window: 4.0
Ion_mode: N
Num Peaks: 20
43.5415	1.8
44.0410	1.5
44.4612	1.6
46.2145	1.5
52.7298	1.7
60.0628	1.9
68.3690	1.5
75.0176	1.7
80.0024	1.8
81.1384	1.5
86.2513	1.8
106.0941	1.9
108.0191	1.6
119.5751	1.9
121.0293	100.0
121.9548	1.7
123.6975	1.6
127.0044	1.6
149.1414	1.6
173.4797	1.8

Name: Uracil
PrecursorMZ: 111.02012
RT: 10.1822
ExactMass: 112.027277375
Spectrum_type: 2
charge: -1
Formula: C4H4N2O2
SMILES: C1=CNC(=O)NC1=O
Method: HCD
Collision_energy: [28.333334]
Isolation_window: 4.0
Ion_mode: N
Num Peaks: 10
41.9984	100.0
67.0301	0.4
68.0141	0.5
79.9573	3.8
80.9651	0.4
95.9522	0.8
110.9757	9.3
111.0199	52.1
111.0235	0.7
111.0258	0.2

Name: Xanthosine
PrecursorMZ: 283.06843
RT: 16.5591
ExactMass: 284.07568412
Spectrum_type: 2
charge: -1
Formula: C10H12N4O6
SMILES: C1=NC2=C(N1[C@H]3[C@@H]([C@@H]([C@H](O3)CO)O)O)NC(=O)NC2=O
Method: HCD
Collision_energy: [28.333334]
Isolation_window: 4.0
Ion_mode: N
Num Peaks: 5
108.0203	12.1
151.0261	100.0
154.0622	9.3
283.0683	16.2
283.2642	65.3

Name: alpha-D-Glucopyranose
PrecursorMZ: 179.056
RT: 2.1278
ExactMass: 180.0633881
Spectrum_type: 2
charge: -1
Formula: C6H12O6
SMILES: C([C@@H]1[C@H]([C@@H]([C@H]([C@H](O1)O)O)O)O)O
Method: HCD
Collision_energy: [28.333334]
Isolation_window: 4.0
Ion_mode: N
Num Peaks: 25
40.4353	21.2
40.5632	21.8
42.6824	23.8
47.2432	22.9
52.5738	22.1
52.9164	21.7
56.4989	22.2
59.0137	100.0
59.0152	22.4
59.6333	23.2
60.9501	22.9
71.0138	51.4
74.7026	20.8
77.4899	21.5
82.4654	25.1
92.8928	25.0
107.6709	25.3
109.0695	28.9
156.2858	25.9
161.4203	21.2
166.0960	20.8
173.4802	44.6
177.0674	27.6
187.4275	25.5
188.6167	29.6

Name: cis,cis-Muconic acid
PrecursorMZ: 141.01964
RT: 11.8022
ExactMass: 142.02660867
Spectrum_type: 2
charge: -1
Formula: C6H6O4
SMILES: C(=C\C(=O)O)\C=C/C(=O)O
Method: HCD
Collision_energy: [28.333334]
Isolation_window: 4.0
Ion_mode: N
Num Peaks: 8
41.0031	44.3
58.0058	10.7
67.0187	41.5
69.0343	59.9
97.0292	100.0
97.0656	5.0
141.0191	12.9
141.0554	5.0

Name: methyl N-)(3-methoxyphenyl)carbonyl(-beta-alanylleucinate
PrecursorMZ: 349.17663
RT: 13.7029
ExactMass: 350.18417193
Spectrum_type: 2
charge: -1
Formula: C18H26N2O5
SMILES: CC(C)CC(C(=O)OC)NC(=O)CCNC(=O)C1=CC(=CC=C1)OC
Method: HCD
Collision_energy: [28.333334]
Isolation_window: 4.0
Ion_mode: N
Num Peaks: 19
92.5226	2.0
94.5097	2.3
99.5822	2.0
106.5598	2.4
155.0641	3.1
163.9742	3.5
164.6585	2.9
173.4802	13.7
183.3444	4.0
202.3382	4.0
218.5408	3.2
222.6705	3.3
227.7953	3.5
228.7470	3.4
241.1310	3.5
273.1607	100.0
317.1504	28.7
321.5988	4.2
332.6753	4.1

Name: methyl beta-D-galactopyranoside
PrecursorMZ: 193.07204
RT: 2.147
ExactMass: 194.07903816
Spectrum_type: 2
charge: -1
Formula: C7H14O6
SMILES: CO[C@H]1[C@@H]([C@H]([C@H]([C@H](O1)CO)O)O)O
Method: HCD
Collision_energy: [28.333334]
Isolation_window: 4.0
Ion_mode: N
Num Peaks: 43
41.0031	12.6
41.9984	1.5
43.0188	19.5
44.9980	33.3
55.0187	20.6
57.0344	14.1
59.0136	100.0
59.0162	2.4
60.0089	2.2
69.0344	7.9
71.0136	65.7
71.0160	1.9
73.0293	32.5
81.0344	1.8
83.0137	13.1
83.0500	2.1
85.0293	37.2
86.0007	14.2
87.0086	7.2
87.0449	1.9
89.0242	3.3
95.0137	4.9
97.0293	13.9
99.0086	7.8
99.0450	2.4
101.0242	60.3
107.0613	2.8
109.0293	1.6
111.0450	1.5
112.0164	1.8
113.0243	18.6
113.0355	1.6
115.0399	1.6
117.0556	1.4
125.0243	3.7
127.0400	2.5
131.0349	3.8
139.0400	1.6
143.0350	1.4
161.0455	6.9
175.0612	3.9
193.0717	98.2
193.1080	6.2

Name: (2R)-2-((2-azaniumylacetyl)amino)-3-(4-hydroxyphenyl)propanoate
PrecursorMZ: 237.08835
RT: 24.1799
ExactMass: 238.09535693
Spectrum_type: 2
charge: -1
Formula: C11H14N2O4
SMILES: C1=CC(=CC=C1C[C@H](C(=O)[O-])NC(=O)C[NH3+])O
Method: HCD
Collision_energy: [28.333334]
Isolation_window: 4.0
Ion_mode: N
Num Peaks: 6
73.0406	100.0
119.0502	26.0
149.0209	21.4
149.0260	16.5
180.0666	29.6
237.0879	25.7

Name: (2R)-2-((5-oxopyrrolidine-2-carbonyl)amino)-3-phenylpropanoic acid
PrecursorMZ: 275.10387
RT: 9.7241
ExactMass: 276.111007
Spectrum_type: 2
charge: -1
Formula: C14H16N2O4
SMILES: C1CC(=O)NC1C(=O)N[C@H](CC2=CC=CC=C2)C(=O)O
Method: HCD
Collision_energy: [28.333334]
Isolation_window: 4.0
Ion_mode: N
Num Peaks: 13
80.9648	3.8
96.9597	5.3
109.0404	15.6
112.0400	4.0
124.0763	3.3
127.0509	100.0
147.0447	7.4
164.0713	3.1
167.0346	4.6
231.1132	3.5
275.0763	6.2
275.1033	50.4
275.1861	3.5

Name: (2R,3R,4S,5R)-2-(6-chloro-6-hydroxy-3H-purin-9-yl)-5-(hydroxymethyl)oxolane-3,4-diol
PrecursorMZ: 303.05043
RT: 11.4723
ExactMass: 304.0574472
Spectrum_type: 2
charge: -1
Formula: C10H13ClN4O5
SMILES: C1=NC(C2=C(N1)N(C=N2)[C@H]3[C@@H]([C@@H]([C@H](O3)CO)O)O)(O)Cl
Method: HCD
Collision_energy: [28.333334]
Isolation_window: 4.0
Ion_mode: N
Num Peaks: 8
148.9760	1.3
148.9846	2.1
150.0181	2.9
151.0258	52.5
177.0415	4.2
267.0731	100.0
268.0766	3.0
303.0502	1.5

Name: 1-(2-Amino-3-phenylpropanoyl)pyrrolidine-2-carboxylic acid
PrecursorMZ: 261.1247
RT: 8.90155
ExactMass: 262.13174244
Spectrum_type: 2
charge: -1
Formula: C14H18N2O3
SMILES: C1CC(N(C1)C(=O)C(CC2=CC=CC=C2)N)C(=O)O
Method: HCD
Collision_energy: [28.333334]
Isolation_window: 4.0
Ion_mode: N
Num Peaks: 14
46.9958	22.2
70.0295	21.3
80.9648	10.3
91.0550	59.5
114.0557	70.4
126.0431	16.0
130.0870	19.6
136.0764	16.8
145.0978	34.9
146.0607	36.2
213.1241	10.5
217.0977	12.4
261.0876	25.6
261.1249	100.0

Name: 2,4-Dideuterio-3-hydroxybutanoic acid
PrecursorMZ: 103.04024
RT: 5.2277
ExactMass: 106.059897605
Spectrum_type: 2
charge: -1
Formula: C4H8O3
SMILES: [2H]CC(C([2H])C(=O)O)O
Method: HCD
Collision_energy: [28.333334]
Isolation_window: 4.0
Ion_mode: N
Num Peaks: 5
41.0032	7.2
57.0345	7.1
59.0138	100.0
85.0294	1.6
103.0400	12.1

Name: 2-(((2R)-5-oxopyrrolidine-2-carbonyl)amino)propanoic acid
PrecursorMZ: 199.07264
RT: 4.3851
ExactMass: 200.07970687
Spectrum_type: 2
charge: -1
Formula: C8H12N2O4
SMILES: CC(C(=O)O)NC(=O)[C@H]1CCC(=O)N1
Method: HCD
Collision_energy: [28.333334]
Isolation_window: 4.0
Ion_mode: N
Num Peaks: 48
41.0031	7.6
41.9984	68.7
58.0297	4.9
59.0136	15.8
70.0296	5.5
71.0136	18.2
82.0296	10.8
84.0452	29.6
85.0405	9.9
85.0486	11.7
87.0562	16.3
88.0401	6.6
94.0296	4.6
96.9599	5.9
97.0405	15.6
98.0245	8.9
98.9557	23.9
98.9641	5.4
99.0562	10.2
110.0610	4.6
111.0561	12.3
112.0402	6.6
112.0515	8.5
112.0765	12.7
113.0353	4.2
113.0718	25.8
126.0432	15.2
126.0558	4.3
127.0511	46.3
127.0593	9.5
127.0874	6.4
128.0352	23.4
129.0385	10.0
137.0717	6.2
139.0510	33.9
154.0871	7.3
155.0824	80.1
155.0904	56.8
157.0619	5.4
181.0616	8.8
181.0700	4.4
199.0721	100.0
199.0807	45.3
199.0833	4.4
199.0974	4.3
199.1087	24.1
199.1702	8.6
200.0927	7.8

Name: 2-((2-Azaniumyl-3-hydroxybutanoyl)amino)-3-phenylpropanoate
PrecursorMZ: 265.11943
RT: 8.0164
ExactMass: 266.12665706
Spectrum_type: 2
charge: -1
Formula: C13H18N2O4
SMILES: CC(C(C(=O)NC(CC1=CC=CC=C1)C(=O)[O-])[NH3+])O
Method: HCD
Collision_energy: [28.333334]
Isolation_window: 4.0
Ion_mode: N
Num Peaks: 10
73.0406	100.0
147.0451	28.7
148.9766	10.1
148.9852	11.8
164.0716	72.1
173.0721	8.3
175.0613	12.4
221.0930	82.2
235.0725	9.8
265.1194	45.5

Name: 2-deuterio-3-oxo-N-((3S)-2-oxooxolan-3-yl)hexanamide
PrecursorMZ: 212.09314
RT: 11.7941
ExactMass: 214.10638471
Spectrum_type: 2
charge: -1
Formula: C10H15NO4
SMILES: [2H]C(C(=O)CCC)C(=O)N[C@H]1CCOC1=O
Method: HCD
Collision_energy: [28.333334]
Isolation_window: 4.0
Ion_mode: N
Num Peaks: 6
41.9984	11.1
87.0449	10.1
112.0401	100.0
116.0714	12.1
168.0745	13.9
212.0924	24.7

Name: Acetylornithine
PrecursorMZ: 173.09352
RT: 3.6014
ExactMass: 174.10044231
Spectrum_type: 2
charge: -1
Formula: C7H14N2O3
SMILES: CC(=O)N[C@@H](CCC[NH3+])C(=O)[O-]
Method: HCD
Collision_energy: [28.333334]
Isolation_window: 4.0
Ion_mode: N
Num Peaks: 5
41.9985	4.0
58.0298	17.3
129.1033	10.2
131.0825	100.0
173.0931	16.8

Name: L-erythronate
PrecursorMZ: 135.03015
RT: 6.8554
ExactMass: 135.02934832
Spectrum_type: 2
charge: -1
Formula: C4H7O5-
SMILES: C([C@@H]([C@@H](C(=O)[O-])O)O)O
Method: HCD
Collision_energy: [28.333334]
Isolation_window: 4.0
Ion_mode: N
Num Peaks: 19
41.9984	44.1
44.9980	5.4
46.9959	2.8
59.0136	15.1
62.9908	9.2
71.0136	5.3
72.9929	3.2
73.0292	3.5
75.0085	100.0
75.0110	3.1
89.0241	2.5
92.0503	3.9
107.0500	2.6
117.0190	5.4
135.0296	74.2
135.0446	6.9
135.0504	5.0
135.0534	3.7
135.0557	4.4

Name: Methanesulfonic Acid
PrecursorMZ: 94.98084
RT: 31.166
ExactMass: 95.98811516
Spectrum_type: 2
charge: -1
Formula: CH4O3S
SMILES: CS(=O)(=O)O
Method: HCD
Collision_energy: [28.333334]
Isolation_window: 4.0
Ion_mode: N
Num Peaks: 20
41.8658	0.1
42.8105	0.2
48.8479	0.2
55.1912	0.2
61.1032	0.1
64.9700	0.3
78.2446	0.2
79.9542	0.8
79.9571	100.0
79.9597	0.8
79.9614	2.5
79.9627	0.8
79.9675	0.2
89.1840	0.2
93.9241	0.2
94.9806	77.2
94.9838	1.2
94.9862	1.7
94.9878	0.6
94.9937	0.2

