Name: Glycyl-L-leucine
PrecursorMZ: 189.12354
RT: 5.9393
ExactMass: 188.11609238
Spectrum_type: 2
charge: 1
Formula: C8H16N2O3
SMILES: CC(C)C[C@@H](C(=O)O)NC(=O)CN
Method: HCD
Collision_energy: [28.333334]
Isolation_window: 4.0
Ion_mode: P
Num Peaks: 12
44.0494	5.1
69.0698	4.7
72.0808	1.6
84.0808	5.6
86.0964	100.0
114.0662	1.5
115.0696	2.8
129.1023	2.2
132.1020	5.0
143.1180	5.2
148.0039	1.4
189.1234	2.0

Name: l-Alanyl-l-leucine
PrecursorMZ: 203.13949
RT: 5.21765
ExactMass: 202.13174244
Spectrum_type: 2
charge: 1
Formula: C9H18N2O3
SMILES: C[C@@H](C(=O)N[C@@H](CC(C)C)C(=O)O)N
Method: HCD
Collision_energy: [28.333334]
Isolation_window: 4.0
Ion_mode: P
Num Peaks: 16
44.0494	81.9
69.0699	2.8
70.0651	1.8
86.0964	100.0
86.0989	1.3
96.0444	1.8
108.0444	1.1
114.0663	0.8
115.0697	0.8
126.0551	1.1
132.1019	72.6
157.1337	17.7
185.1285	0.8
203.0857	1.2
203.1028	0.9
203.1392	6.0

Name: ((3aR,4S,6E,10Z,11aR)-10-(hydroxymethyl)-6-methyl-3-methylidene-2-oxo-3a,4,5,8,9,11a-hexahydrocyclodeca(b)furan-4-yl) 3,4-dihydroxy-2-methylidenebutanoate
PrecursorMZ: 401.15672
RT: 29.592
ExactMass: 378.16785316
Spectrum_type: 2
charge: 1
Formula: C20H26O7
SMILES: C/C/1=C\CC/C(=C/[C@@H]2[C@@H]([C@H](C1)OC(=O)C(=C)C(CO)O)C(=C)C(=O)O2)/CO
Method: HCD
Collision_energy: [28.333334]
Isolation_window: 4.0
Ion_mode: P
Num Peaks: 6
239.1154	8.1
268.0818	6.1
328.1389	6.6
355.1501	10.4
384.1290	35.4
401.1555	100.0

Name: (+-)-Tropic acid
PrecursorMZ: 149.06023
RT: 11.2061
ExactMass: 166.062994177
Spectrum_type: 2
charge: 1
Formula: C9H10O3
SMILES: C1=CC=C(C=C1)C(CO)C(=O)O
Method: HCD
Collision_energy: [28.333334]
Isolation_window: 4.0
Ion_mode: P
Num Peaks: 10
79.0542	34.3
91.0542	14.6
93.0699	39.8
95.0492	14.3
103.0543	100.0
105.0448	5.4
107.0492	23.0
121.0649	18.1
131.0492	12.4
149.0598	11.7

Name: (-)-Asparagine
PrecursorMZ: 133.0611
RT: 4.084133333333333
ExactMass: 132.05349212
Spectrum_type: 2
charge: 1
Formula: C4H8N2O3
SMILES: C([C@@H](C(=O)O)N)C(=O)N
Method: HCD
Collision_energy: [28.333334]
Isolation_window: 4.0
Ion_mode: P
Num Peaks: 18
43.0178	6.1
44.0494	10.6
45.0447	1.5
46.0287	8.5
60.0444	1.6
70.0287	5.1
70.0651	2.6
74.0236	100.0
74.0260	1.1
76.0393	10.2
87.0553	41.8
87.0577	0.5
88.0393	12.6
98.0237	1.3
99.0077	0.9
116.0343	9.8
116.0707	0.6
133.0609	9.9

Name: (2R)-1-((4,8-dimethoxy-7-furo(2,3-b)quinolinyl)oxy)-3-methylbutane-2,3-diol
PrecursorMZ: 348.14121
RT: 30.513
ExactMass: 347.13688739
Spectrum_type: 2
charge: 1
Formula: C18H21NO6
SMILES: CC(C)([C@@H](COC1=C(C2=C(C=C1)C(=C3C=COC3=N2)OC)OC)O)O
Method: HCD
Collision_energy: [28.333334]
Isolation_window: 4.0
Ion_mode: P
Num Peaks: 22
84.0443	90.6
90.0549	95.2
102.0550	61.5
129.0659	14.0
130.0499	13.8
136.0618	9.0
148.0605	32.6
155.0816	22.1
167.0815	26.8
168.0655	8.0
173.0922	7.9
183.0764	13.6
195.0765	40.7
201.0870	46.8
213.0871	46.9
219.0977	10.2
231.0977	35.2
241.0821	100.0
259.0930	16.5
312.1194	9.9
330.1299	13.7
348.1406	8.9

Name: (3-Carboxy-2-(R)-Hydroxy-Propyl)-Trimethyl-Ammonium
PrecursorMZ: 162.11276
RT: 2.1366
ExactMass: 162.11301837
Spectrum_type: 2
charge: 1
Formula: C7H16NO3+
SMILES: C[N+](C)(C)C[C@@H](CC(=O)O)O
Method: HCD
Collision_energy: [28.333334]
Isolation_window: 4.0
Ion_mode: P
Num Peaks: 30
43.0178	6.4
44.0494	0.6
55.0178	0.6
55.0542	2.4
56.0575	1.1
57.0335	2.6
58.0651	18.3
59.0729	17.3
60.0807	25.3
61.0841	1.1
73.0284	1.5
83.0491	0.7
84.0525	0.5
85.0284	9.1
85.0648	0.6
97.0284	1.0
102.0631	1.5
102.0914	7.1
103.0390	20.9
103.0640	2.5
103.0665	0.8
118.0863	0.8
144.0657	0.6
144.1020	0.8
162.0762	0.9
162.1013	1.0
162.1045	0.7
162.1125	100.0
162.1375	4.1
162.1403	2.6

Name: (6S)-4,5,6,7-Tetrahydro-3H-imidazo(4,5-c)pyridine-6-carboxylic acid
PrecursorMZ: 168.0773
RT: 6.4282
ExactMass: 167.069476538
Spectrum_type: 2
charge: 1
Formula: C7H9N3O2
SMILES: C1[C@H](NCC2=C1N=CN2)C(=O)O
Method: HCD
Collision_energy: [28.333334]
Isolation_window: 4.0
Ion_mode: P
Num Peaks: 12
68.0495	0.7
74.0237	1.2
80.0495	1.9
81.0448	1.8
95.0604	100.0
95.0640	0.8
97.0761	1.5
107.0605	2.0
122.0714	1.1
124.0871	7.4
168.0657	1.1
168.0770	40.3

Name: (9E)-11a-hydroxy-3,6,10-trimethyl-6,7,8,11-tetrahydro-4H-cyclodeca(b)furan-2,5-dione
PrecursorMZ: 287.12475
RT: 10.4446
ExactMass: 264.13615911
Spectrum_type: 2
charge: 1
Formula: C15H20O4
SMILES: CC1CC/C=C(/CC2(C(=C(C(=O)O2)C)CC1=O)O)\C
Method: HCD
Collision_energy: [28.333334]
Isolation_window: 4.0
Ion_mode: P
Num Peaks: 8
179.0816	26.4
181.0972	42.0
209.0922	100.0
227.1029	38.0
233.0922	63.3
251.1030	88.6
269.1137	74.0
287.1241	74.0

Name: (E)-3-((1R,4S,7R,7aR)-1-acetyloxy-3,7-dimethyl-2,4,5,6,7,7a-hexahydro-1H-inden-4-yl)-2-methylprop-2-enoic acid
PrecursorMZ: 315.1562
RT: 3.3648
ExactMass: 292.16745924
Spectrum_type: 2
charge: 1
Formula: C17H24O4
SMILES: C[C@@H]1CC[C@H](C2=C(C[C@H]([C@H]12)OC(=O)C)C)/C=C(\C)/C(=O)O
Method: HCD
Collision_energy: [28.333334]
Isolation_window: 4.0
Ion_mode: P
Num Peaks: 14
70.0651	7.0
84.0808	57.9
122.0601	7.7
130.0863	23.3
138.0550	8.3
168.0656	9.7
186.0761	20.2
187.1078	4.7
252.1235	3.9
267.1344	6.8
270.1342	5.1
315.1554	100.0
315.1664	10.8
315.1917	3.9

Name: (S)-dimethyl 2-aminohexanedioate
PrecursorMZ: 190.10759
RT: 17.8108
ExactMass: 189.10010796
Spectrum_type: 2
charge: 1
Formula: C8H15NO4
SMILES: COC(=O)CCC[C@@H](C(=O)OC)N
Method: HCD
Collision_energy: [28.333334]
Isolation_window: 4.0
Ion_mode: P
Num Peaks: 11
43.0178	20.5
45.0334	13.2
86.0600	19.0
87.0440	96.3
98.0601	13.9
104.0707	12.2
112.0757	49.8
126.0914	33.0
130.0863	73.0
154.0864	25.3
190.1075	100.0

Name: 1,3,7-Trimethyluric acid
PrecursorMZ: 211.08293
RT: 14.1837
ExactMass: 210.07529019
Spectrum_type: 2
charge: 1
Formula: C8H10N4O3
SMILES: CN1C2=C(NC1=O)N(C(=O)N(C2=O)C)C
Method: HCD
Collision_energy: [28.333334]
Isolation_window: 4.0
Ion_mode: P
Num Peaks: 10
42.0338	3.0
72.0807	4.7
83.0603	6.0
122.0965	3.2
126.0663	9.4
139.0378	3.6
154.0613	9.3
196.0592	23.2
197.0560	3.0
211.0827	100.0

Name: 1,3-Cyclohexanedione
PrecursorMZ: 113.06012
RT: 2.2379
ExactMass: 112.052429494
Spectrum_type: 2
charge: 1
Formula: C6H8O2
SMILES: C1CC(=O)CC(=O)C1
Method: HCD
Collision_energy: [28.333334]
Isolation_window: 4.0
Ion_mode: P
Num Peaks: 23
41.0385	80.1
43.0178	63.0
43.0542	82.0
45.0334	35.4
53.0385	54.0
55.0178	11.7
55.0542	34.0
57.0698	9.3
59.0491	11.4
67.0542	28.6
70.0651	97.2
71.0491	12.4
73.0284	8.6
81.0335	35.9
83.0491	13.6
85.0648	20.6
95.0491	29.2
96.0273	24.6
96.0808	17.7
113.0476	22.5
113.0539	100.0
113.0597	79.9
113.1073	38.5

Name: 1-((2E,4E)-6,7-Dihydroxy-2,4-octadienoyl)prolyl-N-methylvalyl-N2-methylalaninamide
PrecursorMZ: 489.26828
RT: 3.2307
ExactMass: 466.27913494
Spectrum_type: 2
charge: 1
Formula: C23H38N4O6
SMILES: CC(C)C(C(=O)N(C)C(C)C(=O)N)N(C)C(=O)C1CCCN1C(=O)/C=C/C=C/C(C(C)O)O
Method: HCD
Collision_energy: [28.333334]
Isolation_window: 4.0
Ion_mode: P
Num Peaks: 6
70.0651	27.2
86.0964	34.9
101.0709	33.8
230.1135	32.4
489.2421	100.0
489.3039	39.2

Name: 1-(furan-3-yl)-2-(4,5,6-trihydroxy-1,2,4a,5-tetramethyl-3,4,6,7,8,8a-hexahydro-2H-naphthalen-1-yl)ethanone
PrecursorMZ: 373.19797
RT: 3.1078
ExactMass: 350.20932405
Spectrum_type: 2
charge: 1
Formula: C20H30O5
SMILES: CC1CC(C2(C(C1(C)CC(=O)C3=COC=C3)CCC(C2(C)O)O)C)O
Method: HCD
Collision_energy: [28.333334]
Isolation_window: 4.0
Ion_mode: P
Num Peaks: 3
70.0650	6.2
273.1450	6.9
373.1970	100.0

Name: 1-Methyl-1,2,3,4-tetrahydro-beta-carboline-3-carboxylic acid
PrecursorMZ: 231.11333
RT: 33.7776
ExactMass: 230.105527694
Spectrum_type: 2
charge: 1
Formula: C13H14N2O2
SMILES: CC1C2=C(CC(N1)C(=O)O)C3=CC=CC=C3N2
Method: HCD
Collision_energy: [28.333334]
Isolation_window: 4.0
Ion_mode: P
Num Peaks: 19
56.0495	2.1
74.0236	7.8
86.9899	3.2
102.0550	2.5
118.0652	2.8
130.0652	18.0
143.0731	6.1
144.0809	8.4
146.0602	12.7
154.0653	8.0
157.0887	4.1
158.0965	100.0
168.0809	18.7
170.0966	2.6
185.1073	2.1
188.0707	24.8
196.0758	2.3
214.0864	25.3
231.1130	11.6

Name: 1-Methyl-L-histidine
PrecursorMZ: 170.09281
RT: 4.4321
ExactMass: 169.085126602
Spectrum_type: 2
charge: 1
Formula: C7H11N3O2
SMILES: CN1C=C(N=C1)C[C@@H](C(=O)O)N
Method: HCD
Collision_energy: [28.333334]
Isolation_window: 4.0
Ion_mode: P
Num Peaks: 16
56.0494	3.7
68.0494	5.6
81.0447	1.5
82.0652	1.9
83.0604	14.0
85.0760	1.5
95.0604	10.5
96.0682	100.0
97.0761	21.9
109.0761	68.7
124.0871	59.8
125.0711	7.9
126.1027	25.6
153.0661	3.7
170.0813	1.7
170.0925	96.9

Name: 1-Methylimidazole-5-acetic acid
PrecursorMZ: 141.0662
RT: 6.2801
ExactMass: 140.058577502
Spectrum_type: 2
charge: 1
Formula: C6H8N2O2
SMILES: CN1C=NC=C1CC(=O)O
Method: HCD
Collision_energy: [28.333334]
Isolation_window: 4.0
Ion_mode: P
Num Peaks: 22
42.0338	0.5
54.0338	1.2
55.0417	0.2
56.0495	0.3
68.0495	1.7
70.0652	0.1
81.0448	0.4
95.0570	0.2
95.0604	32.5
95.0633	0.5
96.0445	0.1
96.0648	0.1
96.0682	27.4
96.0711	0.4
97.0761	3.4
100.0394	0.1
123.0555	5.2
141.0571	0.3
141.0592	0.7
141.0658	100.0
141.0720	1.0
141.0757	0.2

Name: 1-Methylimidazoleacetic acid
PrecursorMZ: 141.06615
RT: 6.0016
ExactMass: 140.058577502
Spectrum_type: 2
charge: 1
Formula: C6H8N2O2
SMILES: CN1C=C(N=C1)CC(=O)O
Method: HCD
Collision_energy: [28.333334]
Isolation_window: 4.0
Ion_mode: P
Num Peaks: 5
54.0338	0.9
68.0495	2.0
95.0604	100.0
95.0632	1.1
141.0660	14.8

Name: 1-amino-1,3-dicarboxycyclopentane, trans-(1R,3S)-
PrecursorMZ: 174.07607
RT: 21.6987
ExactMass: 173.06880783
Spectrum_type: 2
charge: 1
Formula: C7H11NO4
SMILES: C1C[C@@](C[C@H]1C(=O)O)(C(=O)O)N
Method: HCD
Collision_energy: [28.333334]
Isolation_window: 4.0
Ion_mode: P
Num Peaks: 10
55.0542	9.1
82.0651	48.0
82.0674	0.6
100.0758	2.9
110.0602	0.4
128.0650	0.5
128.0706	100.0
128.0763	0.5
174.0762	27.3
174.1278	0.3

Name: 2,2'-Anhydrouridine
PrecursorMZ: 227.06672
RT: 26.8678
ExactMass: 226.05897142
Spectrum_type: 2
charge: 1
Formula: C9H10N2O5
SMILES: C1=CN2[C@H]3[C@H]([C@@H]([C@H](O3)CO)O)OC2=NC1=O
Method: HCD
Collision_energy: [28.333334]
Isolation_window: 4.0
Ion_mode: P
Num Peaks: 18
68.0494	14.0
69.0335	6.6
80.0494	25.6
85.0284	9.0
94.0288	9.3
94.0651	6.9
96.0444	57.5
96.0808	7.0
97.0284	13.0
112.9999	23.1
120.0445	12.6
124.0394	81.9
138.0550	87.6
166.0499	100.0
184.0605	90.9
210.0398	17.3
227.0664	34.1
227.1755	29.8

Name: 2,3-Diaminopyridine
PrecursorMZ: 110.07169
RT: 5.2074
ExactMass: 109.063997236
Spectrum_type: 2
charge: 1
Formula: C5H7N3
SMILES: C1=CC(=C(N=C1)N)N
Method: HCD
Collision_energy: [28.333334]
Isolation_window: 4.0
Ion_mode: P
Num Peaks: 11
42.0338	3.4
56.0494	22.0
81.0447	5.8
82.0525	4.2
83.0603	63.7
87.0040	21.2
93.0447	39.6
96.0094	2.5
110.0600	11.3
110.0713	100.0
113.9637	4.1

Name: 2,4-Dihydroxy-1,4-Benzoxazin-3-One
PrecursorMZ: 182.04503
RT: 27.4906
ExactMass: 181.0375077
Spectrum_type: 2
charge: 1
Formula: C8H7NO4
SMILES: C1=CC=C2C(=C1)N(C(=O)C(O2)O)O
Method: HCD
Collision_energy: [28.333334]
Isolation_window: 4.0
Ion_mode: P
Num Peaks: 14
80.0495	10.6
91.0542	31.6
95.0492	13.0
108.0444	14.0
119.0492	35.3
120.0444	2.8
123.0442	43.3
136.0758	100.0
138.0550	4.8
147.0442	15.5
154.0500	35.7
165.0547	31.6
182.0449	25.5
182.0813	3.8

Name: 2,4-di(morpholin-4-yl)-6-((2E)-2-(pyridin-2-ylmethylidene)hydrazinyl)-1,3,5-triazine
PrecursorMZ: 371.19366
RT: 15.6366
ExactMass: 370.18657197
Spectrum_type: 2
charge: 1
Formula: C17H22N8O2
SMILES: C1COCCN1C2=NC(=NC(=N2)N/N=C/C3=CC=CC=N3)N4CCOCC4
Method: HCD
Collision_energy: [28.333334]
Isolation_window: 4.0
Ion_mode: P
Num Peaks: 7
101.0597	3.0
111.0440	2.2
129.0546	5.1
146.0924	19.5
147.0652	7.3
226.1075	4.3
371.1925	100.0

Name: 2-((1-methyl-4-(phenylamino)-1H-pyrazolo(3,4-d)pyrimidin-6-yl)amino)ethanol
PrecursorMZ: 285.14556
RT: 2.1772
ExactMass: 284.13855916
Spectrum_type: 2
charge: 1
Formula: C14H16N6O
SMILES: CN1C2=NC(=NC(=C2C=N1)NC3=CC=CC=C3)NCCO
Method: HCD
Collision_energy: [28.333334]
Isolation_window: 4.0
Ion_mode: P
Num Peaks: 11
87.0440	17.8
101.0597	5.9
132.1020	6.4
163.0867	6.4
195.1128	7.8
199.1078	10.3
267.1344	6.0
285.1165	7.1
285.1448	100.0
285.1537	5.8
285.1813	5.5

Name: 2-((2-((4-Amino-4-carboxybutanoyl)amino)-3-methylpentanoyl)amino)-4-methylpentanoic acid
PrecursorMZ: 374.22957
RT: 22.7346
ExactMass: 373.22128572
Spectrum_type: 2
charge: 1
Formula: C17H31N3O6
SMILES: CCC(C)C(C(=O)NC(CC(C)C)C(=O)O)NC(=O)CCC(C(=O)O)N
Method: HCD
Collision_energy: [28.333334]
Isolation_window: 4.0
Ion_mode: P
Num Peaks: 7
86.0964	100.0
148.0606	6.5
199.1806	48.7
215.1391	17.9
227.1756	21.0
243.1342	22.2
261.1450	13.2

Name: 2-(1-Carboxyethylamino)butanedioic acid
PrecursorMZ: 206.0663
RT: 33.2425
ExactMass: 205.05863707
Spectrum_type: 2
charge: 1
Formula: C7H11NO6
SMILES: CC(C(=O)O)NC(CC(=O)O)C(=O)O
Method: HCD
Collision_energy: [28.333334]
Isolation_window: 4.0
Ion_mode: P
Num Peaks: 15
44.0494	7.6
45.0334	4.3
70.0651	12.3
72.0443	6.4
88.0393	7.3
96.0444	4.4
100.0393	37.9
114.0550	66.0
118.0499	3.9
132.0656	2.1
142.0500	40.5
146.0449	25.5
160.0606	100.0
206.0120	3.1
206.0662	7.4

Name: 2-(1-Carboxyethylamino)pentanedioic acid
PrecursorMZ: 220.08203
RT: 32.8267
ExactMass: 219.07428713
Spectrum_type: 2
charge: 1
Formula: C8H13NO6
SMILES: CC(C(=O)O)NC(CCC(=O)O)C(=O)O
Method: HCD
Collision_energy: [28.333334]
Isolation_window: 4.0
Ion_mode: P
Num Peaks: 20
42.0338	5.4
44.0494	4.4
82.0651	32.8
84.0444	50.1
85.0284	9.4
87.0440	4.4
88.0393	57.0
90.0550	6.4
102.0550	6.4
110.0601	27.6
114.0550	7.5
128.0707	59.1
138.0550	4.4
142.0500	3.0
156.0656	81.7
160.0605	8.4
174.0761	100.0
202.0710	4.9
220.0606	4.0
220.0817	18.2

Name: 2-(2-((2-Acetamido-4-methylpentanoyl)amino)propanoylamino)-3-hydroxypropanoic acid
PrecursorMZ: 332.18276
RT: 17.7607
ExactMass: 331.17433553
Spectrum_type: 2
charge: 1
Formula: C14H25N3O6
SMILES: CC(C)CC(C(=O)NC(C)C(=O)NC(CO)C(=O)O)NC(=O)C
Method: HCD
Collision_energy: [28.333334]
Isolation_window: 4.0
Ion_mode: P
Num Peaks: 16
70.0651	18.1
72.0807	29.2
84.0444	12.6
86.0965	68.1
102.0550	60.0
127.0867	12.2
132.1020	20.4
142.0863	12.2
155.0817	25.9
173.0922	100.0
187.1078	81.1
197.1288	14.2
201.0871	68.0
215.1029	17.9
215.1392	36.0
243.1343	35.1

Name: 2-(2-Hydroxypropylamino)pentanedioic acid
PrecursorMZ: 206.10266
RT: 18.5989
ExactMass: 205.09502258
Spectrum_type: 2
charge: 1
Formula: C8H15NO5
SMILES: CC(CNC(CCC(=O)O)C(=O)O)O
Method: HCD
Collision_energy: [28.333334]
Isolation_window: 4.0
Ion_mode: P
Num Peaks: 16
44.0495	6.7
56.0495	12.1
58.0651	31.4
68.0495	6.1
84.0444	100.0
85.0285	14.8
96.0808	80.5
101.0598	7.9
102.0551	8.8
124.0758	56.7
130.0863	7.0
142.0864	81.4
160.0970	87.2
170.0813	69.5
188.0919	18.3
206.1025	79.0

Name: 2-(2-Oxopyrrolidin-1-yl)butanoic acid, (2R)-
PrecursorMZ: 172.09723
RT: 6.0774
ExactMass: 171.08954328
Spectrum_type: 2
charge: 1
Formula: C8H13NO3
SMILES: CC[C@H](C(=O)O)N1CCCC1=O
Method: HCD
Collision_energy: [28.333334]
Isolation_window: 4.0
Ion_mode: P
Num Peaks: 7
55.0542	28.8
98.0965	41.6
126.0914	82.9
154.0864	100.0
172.0717	22.9
172.0798	24.8
172.0968	47.0

Name: 2-(4-Ethoxy-3-methoxyphenyl)-6,8-dimethylchromen-4-one
PrecursorMZ: 347.12486
RT: 34.2396
ExactMass: 324.13615911
Spectrum_type: 2
charge: 1
Formula: C20H20O4
SMILES: CCOC1=C(C=C(C=C1)C2=CC(=O)C3=CC(=CC(=C3O2)C)C)OC
Method: HCD
Collision_energy: [28.333334]
Isolation_window: 4.0
Ion_mode: P
Num Peaks: 6
163.0390	8.0
167.0816	100.0
256.0972	14.8
273.1239	56.8
301.1186	19.4
347.1241	43.8

Name: 2-(Butanoylamino)-3-hydroxypropanoic acid
PrecursorMZ: 176.09172
RT: 18.0482
ExactMass: 175.0844579
Spectrum_type: 2
charge: 1
Formula: C7H13NO4
SMILES: CCCC(=O)NC(CO)C(=O)O
Method: HCD
Collision_energy: [28.333334]
Isolation_window: 4.0
Ion_mode: P
Num Peaks: 20
43.0178	11.4
45.0334	8.2
68.0494	1.1
69.0335	2.5
70.0651	17.5
72.0444	2.5
86.0601	2.5
87.0440	77.5
87.0467	1.0
90.0550	15.1
98.0600	100.0
98.0631	1.1
112.0758	2.3
116.0706	69.3
116.0754	0.6
130.0864	0.8
140.0707	18.6
158.0813	0.9
159.0766	0.6
176.0917	53.7

Name: 2-Deoxyglucose
PrecursorMZ: 165.07627
RT: 2.1454
ExactMass: 164.06847348
Spectrum_type: 2
charge: 1
Formula: C6H12O5
SMILES: C(C=O)[C@H]([C@@H]([C@@H](CO)O)O)O
Method: HCD
Collision_energy: [28.333334]
Isolation_window: 4.0
Ion_mode: P
Num Peaks: 8
57.0335	42.6
61.0284	17.3
69.0335	100.0
83.0492	26.0
85.0284	31.7
103.0390	16.8
111.0441	18.8
129.0547	18.9

Name: 2-Mercaptoethanol
PrecursorMZ: 79.02146
RT: 2.2676
ExactMass: 78.01393598
Spectrum_type: 2
charge: 1
Formula: C2H6OS
SMILES: C(CS)O
Method: HCD
Collision_energy: [28.333334]
Isolation_window: 4.0
Ion_mode: P
Num Peaks: 5
46.9950	11.8
61.0106	25.0
62.0184	9.1
63.9977	87.1
79.0212	100.0

Name: 2-Methoxyresorcinol
PrecursorMZ: 141.05516
RT: 2.2127
ExactMass: 140.047344113
Spectrum_type: 2
charge: 1
Formula: C7H8O3
SMILES: COC1=C(C=CC=C1O)O
Method: HCD
Collision_energy: [28.333334]
Isolation_window: 4.0
Ion_mode: P
Num Peaks: 22
43.0178	2.1
45.0334	28.9
53.0385	64.1
55.0178	26.8
55.0542	17.5
67.0542	3.4
69.0334	1.9
71.0491	20.2
81.0334	87.6
83.0127	4.0
83.0491	6.8
85.0648	12.5
95.0491	5.6
97.0477	3.0
98.0363	3.0
99.0440	1.9
109.0284	100.0
111.0441	14.4
113.0597	26.4
141.0547	24.9
141.0659	3.7
141.0740	10.6

Name: 2-Methylpyrrolidine
PrecursorMZ: 86.09661
RT: 6.3228
ExactMass: 85.089149355
Spectrum_type: 2
charge: 1
Formula: C5H11N
SMILES: CC1CCCN1
Method: HCD
Collision_energy: [28.333334]
Isolation_window: 4.0
Ion_mode: P
Num Peaks: 20
41.0385	47.9
41.0393	1.0
41.0395	0.6
42.0338	2.8
43.0541	55.7
43.0550	1.1
43.0553	0.7
44.0494	100.0
44.0503	3.0
44.0505	1.6
56.0494	5.8
57.0573	12.8
58.0651	2.9
69.0698	28.6
69.0715	0.5
70.0651	0.5
71.0729	0.5
86.0964	52.6
86.0988	0.6
86.0995	0.5

Name: 2-O-Methyladenosine
PrecursorMZ: 282.11937
RT: 18.9454
ExactMass: 281.11240398
Spectrum_type: 2
charge: 1
Formula: C11H15N5O4
SMILES: COC1C(C(OC1N2C=NC3=C(N=CN=C32)N)CO)O
Method: HCD
Collision_energy: [28.333334]
Isolation_window: 4.0
Ion_mode: P
Num Peaks: 9
69.0335	15.4
74.0600	37.5
99.0441	43.4
102.0550	16.3
117.0547	71.5
120.0656	100.0
236.1131	48.9
282.1187	98.1
282.2220	20.0

Name: 2-Piperidone
PrecursorMZ: 100.07587
RT: 3.0147
ExactMass: 99.068413911
Spectrum_type: 2
charge: 1
Formula: C5H9NO
SMILES: C1CCNC(=O)C1
Method: HCD
Collision_energy: [28.333334]
Isolation_window: 4.0
Ion_mode: P
Num Peaks: 10
44.0131	7.2
44.0494	1.7
55.0542	4.3
56.0494	20.3
57.0335	0.9
57.0698	1.3
72.0808	1.9
82.0651	5.0
100.0757	100.0
100.0791	1.4

Name: 3,5-Dimethoxyphenol
PrecursorMZ: 155.07073
RT: 2.2141
ExactMass: 154.062994177
Spectrum_type: 2
charge: 1
Formula: C8H10O3
SMILES: COC1=CC(=CC(=C1)O)OC
Method: HCD
Collision_energy: [28.333334]
Isolation_window: 4.0
Ion_mode: P
Num Peaks: 58
41.0385	6.3
43.0178	4.3
43.0542	0.4
45.0335	6.9
47.0491	0.4
52.0307	0.9
53.0386	4.1
54.0464	0.7
55.0178	1.1
55.0542	0.9
57.0335	0.9
59.0491	1.7
65.0386	8.3
66.0464	0.4
67.0542	13.3
69.0335	1.7
69.0699	0.9
71.0127	0.8
71.0491	16.4
75.0441	1.6
79.0542	1.9
80.0257	1.6
81.0335	7.0
81.0699	0.4
82.0413	4.0
83.0492	1.2
85.0285	0.3
85.0649	0.4
93.0336	0.4
95.0491	100.0
95.0524	1.0
96.0570	4.7
97.0285	7.0
97.0649	11.1
98.0363	1.0
99.0442	0.8
105.0449	0.6
108.0207	0.5
109.0285	0.6
109.0649	0.4
109.0762	1.9
110.0364	0.5
110.0840	2.4
111.0442	3.0
111.0918	0.4
112.0520	4.9
114.0663	0.6
123.0443	3.1
124.0521	1.3
125.0235	1.0
125.0599	13.6
126.0677	0.4
127.0755	19.0
137.0711	0.9
140.0470	1.4
155.0705	14.5
155.0818	10.9
155.0898	0.5

Name: 3-(2-(4-amino-1,2,5-oxadiazol-3-yl)-7-(3-aminopropoxy)-1-ethyl-1H-imidazo(4,5-c)pyridin-4-yl)prop-2-yn-1-ol
PrecursorMZ: 358.16205
RT: 2.1596
ExactMass: 357.15493749
Spectrum_type: 2
charge: 1
Formula: C16H19N7O3
SMILES: CCN1C2=C(C(=NC=C2OCCCN)C#CCO)N=C1C3=NON=C3N
Method: HCD
Collision_energy: [28.333334]
Isolation_window: 4.0
Ion_mode: P
Num Peaks: 4
123.0917	6.7
314.1710	11.3
358.1494	10.0
358.1608	100.0

Name: 3-(2-(6,7-dihydroxy-1,2,4a-trimethylspiro(3,4,6,7,8,8a-hexahydro-2H-naphthalene-5,2'-oxirane)-1-yl)ethyl)-2-hydroxy-2H-furan-5-one
PrecursorMZ: 389.19337
RT: 2.11
ExactMass: 366.20423867
Spectrum_type: 2
charge: 1
Formula: C20H30O6
SMILES: CC1CCC2(C(C1(C)CCC3=CC(=O)OC3O)CC(C(C24CO4)O)O)C
Method: HCD
Collision_energy: [28.333334]
Isolation_window: 4.0
Ion_mode: P
Num Peaks: 24
55.0542	4.1
57.0334	50.4
59.0491	6.9
75.0440	89.1
83.0491	4.5
87.0440	13.2
93.0546	11.5
101.0597	14.0
113.0597	7.5
119.0702	13.7
129.0546	15.7
131.0702	63.5
149.0808	64.5
167.0914	10.9
187.0965	4.1
205.1070	13.3
223.1175	22.5
241.1282	17.7
289.1395	6.8
297.1544	7.4
299.1601	19.8
315.1648	5.7
389.1915	100.0
389.2021	28.1

Name: 3-(4-(5-Methylpyrimidin-4-yl)piperazine-1-carbonyl)-5,6,7,8-tetrahydrocinnoline
PrecursorMZ: 339.19228
RT: 8.7001
ExactMass: 338.18550935
Spectrum_type: 2
charge: 1
Formula: C18H22N6O
SMILES: CC1=CN=CN=C1N2CCN(CC2)C(=O)C3=NN=C4CCCCC4=C3
Method: HCD
Collision_energy: [28.333334]
Isolation_window: 4.0
Ion_mode: P
Num Peaks: 18
55.0542	2.4
69.0335	0.7
83.0855	5.7
126.0914	12.7
136.0758	4.2
137.0598	0.8
151.0754	1.2
164.0707	2.9
165.0546	0.9
182.0812	6.3
194.1177	6.6
196.0968	100.0
197.0809	19.2
261.1603	0.8
290.1391	1.4
307.1656	2.2
322.1650	0.7
339.1917	3.3

Name: 3-(5-acetyl-4-(carboxymethyl)-1H-pyrrol-3-yl)propanoic acid
PrecursorMZ: 240.08727
RT: 35.9477
ExactMass: 239.07937252
Spectrum_type: 2
charge: 1
Formula: C11H13NO5
SMILES: CC(=O)C1=C(C(=CN1)CCC(=O)O)CC(=O)O
Method: HCD
Collision_energy: [28.333334]
Isolation_window: 4.0
Ion_mode: P
Num Peaks: 9
95.0492	7.8
119.0492	17.6
123.0442	37.5
135.0679	11.3
147.0442	17.7
148.0758	52.1
165.0547	30.7
194.0813	100.0
240.0870	8.9

Name: 3-Amino-5-hydroxybenzoic acid
PrecursorMZ: 154.05017
RT: 7.5293
ExactMass: 153.042593085
Spectrum_type: 2
charge: 1
Formula: C7H7NO3
SMILES: C1=C(C=C(C=C1N)O)C(=O)O
Method: HCD
Collision_energy: [28.333334]
Isolation_window: 4.0
Ion_mode: P
Num Peaks: 6
95.0604	3.8
108.0445	2.0
110.0601	5.5
112.0870	1.3
126.0551	11.8
154.0500	100.0

Name: 3-Hexylserine
PrecursorMZ: 190.14425
RT: 4.4968
ExactMass: 189.13649347
Spectrum_type: 2
charge: 1
Formula: C9H19NO3
SMILES: CCCCCCC(C(C(=O)O)N)O
Method: HCD
Collision_energy: [28.333334]
Isolation_window: 4.0
Ion_mode: P
Num Peaks: 42
44.0494	46.7
45.0464	2.7
45.0528	14.7
55.0541	37.8
56.0494	7.6
56.0575	2.7
59.0491	5.3
60.0443	2.8
70.0650	3.1
72.0807	45.0
73.0647	11.1
73.0841	27.8
82.0651	14.2
83.0491	10.7
84.0807	8.4
85.0647	8.8
85.0841	3.0
86.0600	3.5
87.0633	3.3
90.0913	9.1
98.0964	4.0
100.0757	16.8
101.0597	33.5
102.0913	6.9
108.0808	2.7
112.0757	3.0
118.0862	14.8
119.0896	17.3
126.0914	23.6
126.1278	3.7
128.0707	3.8
130.0863	9.6
131.0452	3.6
144.1020	48.6
144.1213	4.9
154.0863	2.8
154.1227	24.1
172.0968	14.2
172.1332	21.4
190.1074	46.1
190.1268	4.6
190.1437	100.0

Name: 3-Methylglutaconic acid
PrecursorMZ: 127.03935
RT: 2.3864
ExactMass: 144.04225873
Spectrum_type: 2
charge: 1
Formula: C6H8O4
SMILES: C/C(=C\C(=O)O)/CC(=O)O
Method: HCD
Collision_energy: [28.333334]
Isolation_window: 4.0
Ion_mode: P
Num Peaks: 22
41.0385	22.9
43.0178	54.4
43.0542	6.3
53.0385	64.9
55.0178	32.1
56.0494	3.6
57.0335	6.7
57.0528	2.8
69.0335	100.0
71.0491	11.0
81.0335	97.7
83.0128	6.7
84.0444	17.0
85.0284	7.1
85.0478	32.4
95.0492	5.4
97.0284	20.1
99.0441	16.1
109.0285	77.4
127.0391	35.4
127.0584	3.2
127.0755	5.6

Name: 4-(Formyl(6-methoxyquinolin-8-yl)amino)pentanoic acid
PrecursorMZ: 303.13493
RT: 32.0303
ExactMass: 302.12665706
Spectrum_type: 2
charge: 1
Formula: C16H18N2O4
SMILES: CC(CCC(=O)O)N(C=O)C1=C2C(=CC(=C1)OC)C=CC=N2
Method: HCD
Collision_energy: [28.333334]
Isolation_window: 4.0
Ion_mode: P
Num Peaks: 21
84.0808	24.4
124.0758	2.5
130.0864	5.8
147.1130	2.7
180.1020	8.6
203.0817	2.0
212.1070	2.8
214.1228	2.2
229.1337	19.5
239.1029	5.2
240.0869	4.9
243.1131	2.1
243.1494	2.0
257.1130	2.1
257.1288	100.0
259.1445	3.6
260.0880	2.3
285.1237	14.6
303.1189	5.8
303.1342	21.0
303.1705	4.9

Name: 4-Acetamidobutyric acid
PrecursorMZ: 146.08168
RT: 4.2667
ExactMass: 145.07389321
Spectrum_type: 2
charge: 1
Formula: C6H11NO3
SMILES: CC(=O)NCCCC(=O)O
Method: HCD
Collision_energy: [28.333334]
Isolation_window: 4.0
Ion_mode: P
Num Peaks: 15
43.0178	4.0
45.0335	2.6
55.0542	14.8
60.0807	6.0
82.0651	53.6
83.0491	2.5
86.0601	8.9
87.0441	14.8
100.0757	100.0
100.1121	4.6
101.0598	2.1
128.0707	11.7
146.0813	52.0
146.0924	2.5
146.1177	15.1

Name: 4-Carbamoyl-2-acetamidobutanoic acid
PrecursorMZ: 189.08756
RT: 4.0023
ExactMass: 188.07970687
Spectrum_type: 2
charge: 1
Formula: C7H12N2O4
SMILES: CC(=O)NC(CCC(=O)N)C(=O)O
Method: HCD
Collision_energy: [28.333334]
Isolation_window: 4.0
Ion_mode: P
Num Peaks: 16
60.0443	3.5
70.0651	3.7
72.0807	3.3
84.0443	10.2
84.0807	100.0
98.0965	3.0
115.0866	3.0
126.0914	20.6
129.1022	42.4
130.0499	22.2
130.0862	19.8
144.1019	9.6
147.1129	5.5
153.1023	3.2
172.0968	4.5
189.1233	20.4

Name: 5-Acetylamino-6-amino-3-methyluracil
PrecursorMZ: 199.08313
RT: 5.4124
ExactMass: 198.07529019
Spectrum_type: 2
charge: 1
Formula: C7H10N4O3
SMILES: CC(=O)NC1=C(NC(=O)N(C1=O)C)N
Method: HCD
Collision_energy: [28.333334]
Isolation_window: 4.0
Ion_mode: P
Num Peaks: 8
72.0808	17.2
111.0747	4.0
124.0507	14.8
138.0663	9.2
142.0612	8.0
157.0721	47.1
181.0720	100.0
199.1079	4.7

Name: 5-Aminosalicylic Acid
PrecursorMZ: 154.05028
RT: 4.133
ExactMass: 153.042593085
Spectrum_type: 2
charge: 1
Formula: C7H7NO3
SMILES: C1=CC(=C(C=C1N)C(=O)O)O
Method: HCD
Collision_energy: [28.333334]
Isolation_window: 4.0
Ion_mode: P
Num Peaks: 16
80.0495	1.6
81.0335	0.7
81.0573	0.6
95.0366	0.4
95.0604	5.0
96.0444	6.3
108.0445	2.3
109.0523	15.9
110.0601	2.3
112.0870	1.3
126.0551	1.5
136.0395	4.6
136.0871	0.6
154.0424	0.4
154.0499	100.0
154.0977	1.2

Name: 5-Hydroxyindoleacetic Acid
PrecursorMZ: 192.0656
RT: 26.5853
ExactMass: 191.058243149
Spectrum_type: 2
charge: 1
Formula: C10H9NO3
SMILES: C1=CC2=C(C=C1O)C(=CN2)CC(=O)O
Method: HCD
Collision_energy: [28.333334]
Isolation_window: 4.0
Ion_mode: P
Num Peaks: 10
117.0574	1.5
118.0652	8.6
120.0809	5.4
130.0652	5.8
133.0523	3.7
146.0602	18.2
147.0680	16.9
148.0758	31.3
164.0708	1.5
192.0656	100.0

Name: 5-Oxoprolylvaline
PrecursorMZ: 229.11874
RT: 18.6924
ExactMass: 228.111007
Spectrum_type: 2
charge: 1
Formula: C10H16N2O4
SMILES: CC(C)C(C(=O)O)NC(=O)C1CCC(=O)N1
Method: HCD
Collision_energy: [28.333334]
Isolation_window: 4.0
Ion_mode: P
Num Peaks: 13
55.0542	3.9
56.0494	2.9
70.0651	2.1
72.0807	100.0
84.0444	84.0
118.0863	47.7
138.0914	7.8
155.1181	5.2
183.0958	4.7
183.1128	66.1
211.1078	2.2
229.1015	2.4
229.1185	8.1

Name: 6-Amino-1,2-benzopyrone
PrecursorMZ: 162.05521
RT: 34.8141
ExactMass: 161.047678466
Spectrum_type: 2
charge: 1
Formula: C9H7NO2
SMILES: C1=CC2=C(C=CC(=O)O2)C=C1N
Method: HCD
Collision_energy: [28.333334]
Isolation_window: 4.0
Ion_mode: P
Num Peaks: 5
106.0652	5.2
116.0496	14.8
134.0602	22.6
144.0446	11.8
162.0551	100.0

Name: 6-Amino-2-(butanoylamino)hexanoic acid
PrecursorMZ: 217.15533
RT: 4.1897
ExactMass: 216.1473925
Spectrum_type: 2
charge: 1
Formula: C10H20N2O3
SMILES: CCCC(=O)NC(CCCCN)C(=O)O
Method: HCD
Collision_energy: [28.333334]
Isolation_window: 4.0
Ion_mode: P
Num Peaks: 22
43.0542	7.1
61.0396	8.4
70.0651	17.0
71.0491	16.2
72.0807	12.4
74.0600	10.4
83.0492	5.7
84.0807	100.0
116.0706	24.3
121.0284	10.4
129.1022	63.7
130.0863	39.2
138.0550	6.7
139.0390	6.1
147.1128	22.0
154.1227	8.2
156.0656	10.1
199.0712	5.5
199.1079	5.6
217.0819	7.9
217.1183	11.9
217.1547	31.1

Name: 6-Hydroxynicotinic acid
PrecursorMZ: 140.03453
RT: 31.2196
ExactMass: 139.026943022
Spectrum_type: 2
charge: 1
Formula: C6H5NO3
SMILES: C1=CC(=O)NC=C1C(=O)O
Method: HCD
Collision_energy: [28.333334]
Isolation_window: 4.0
Ion_mode: P
Num Peaks: 4
78.0338	7.2
94.0288	3.8
112.0393	37.9
140.0343	100.0

Name: 6-Methoxy-9H-purine
PrecursorMZ: 151.0617
RT: 29.5708
ExactMass: 150.05416083
Spectrum_type: 2
charge: 1
Formula: C6H6N4O
SMILES: COC1=NC=NC2=C1NC=N2
Method: HCD
Collision_energy: [28.333334]
Isolation_window: 4.0
Ion_mode: P
Num Peaks: 9
45.0334	7.5
55.0290	2.7
82.0400	2.8
95.0492	2.4
108.0557	6.2
110.0350	14.0
133.0510	7.0
151.0616	100.0
152.0456	8.1

Name: 8-hydroxyquinolin-2(1H)-one
PrecursorMZ: 162.05523
RT: 33.5228
ExactMass: 161.047678466
Spectrum_type: 2
charge: 1
Formula: C9H7NO2
SMILES: C1=CC2=C(C(=C1)O)NC(=O)C=C2
Method: HCD
Collision_energy: [28.333334]
Isolation_window: 4.0
Ion_mode: P
Num Peaks: 6
89.0386	2.4
106.0652	1.8
116.0496	6.6
134.0602	5.4
144.0445	32.2
162.0551	100.0

Name: Acetyl-DL-carnitine
PrecursorMZ: 204.1235
RT: 17.976
ExactMass: 203.11575802
Spectrum_type: 2
charge: 1
Formula: C9H17NO4
SMILES: CC(=O)OC(CC(=O)[O-])C[N+](C)(C)C
Method: HCD
Collision_energy: [28.333334]
Isolation_window: 4.0
Ion_mode: P
Num Peaks: 23
44.0494	9.5
55.0542	14.4
83.0491	6.5
84.0444	6.7
86.0600	5.2
87.0440	18.8
98.0964	18.0
100.0757	5.9
101.0597	21.7
104.0706	6.4
112.0757	31.2
124.0758	8.6
126.0550	7.0
126.0914	33.6
138.0550	6.4
140.0706	64.3
140.1071	8.9
144.0656	8.3
144.1020	100.0
158.0812	13.9
168.1020	12.3
186.0760	10.1
204.1232	67.4

Name: Actarit
PrecursorMZ: 194.08149
RT: 31.223
ExactMass: 193.07389321
Spectrum_type: 2
charge: 1
Formula: C10H11NO3
SMILES: CC(=O)NC1=CC=C(C=C1)CC(=O)O
Method: HCD
Collision_energy: [28.333334]
Isolation_window: 4.0
Ion_mode: P
Num Peaks: 8
58.0651	15.3
102.0914	5.0
107.0492	7.6
135.0442	45.4
146.0602	7.4
148.0759	100.0
194.0813	20.2
194.1177	50.7

Name: Adenine
PrecursorMZ: 136.06199
RT: 7.5982
ExactMass: 135.05449518
Spectrum_type: 2
charge: 1
Formula: C5H5N5
SMILES: C1=NC2=NC=NC(=C2N1)N
Method: HCD
Collision_energy: [28.333334]
Isolation_window: 4.0
Ion_mode: P
Num Peaks: 6
94.0400	2.9
119.0353	9.5
136.0217	1.5
136.0619	100.0
136.0758	3.6
137.0459	9.1

Name: Adenylyl(3'-5')cytidine
PrecursorMZ: 573.14731
RT: 13.2092
ExactMass: 572.13804064
Spectrum_type: 2
charge: 1
Formula: C19H25N8O11P
SMILES: C1=CN(C(=O)N=C1N)[C@H]2[C@@H]([C@@H]([C@H](O2)CO)OP(=O)(O)OC[C@@H]3[C@H]([C@H]([C@H](O3)N4C=NC5=C(N=CN=C54)N)O)O)O
Method: HCD
Collision_energy: [28.333334]
Isolation_window: 4.0
Ion_mode: P
Num Peaks: 9
97.0284	62.0
112.0506	100.0
136.0618	66.4
187.1078	36.6
244.0931	18.4
348.0707	59.7
444.0918	18.1
462.1024	32.0
573.1459	21.8

Name: Alanylnorvaline
PrecursorMZ: 189.12363
RT: 4.3849
ExactMass: 188.11609238
Spectrum_type: 2
charge: 1
Formula: C8H16N2O3
SMILES: CCCC(C(=O)O)NC(=O)C(C)N
Method: HCD
Collision_energy: [28.333334]
Isolation_window: 4.0
Ion_mode: P
Num Peaks: 24
44.0494	100.0
55.0542	8.0
68.0495	2.4
72.0807	87.2
72.0830	0.9
84.0808	7.4
86.0601	16.0
86.0965	1.1
100.0758	0.8
101.0598	0.9
112.9998	0.7
115.0041	1.4
116.0708	0.9
118.0863	71.7
126.0915	1.6
129.1024	3.3
130.0500	0.7
130.0864	1.7
143.1181	18.2
146.0814	1.1
171.1130	1.4
172.0970	0.6
189.0872	4.1
189.1235	8.5

Name: Alpha-Aminoadipic Acid
PrecursorMZ: 162.07628
RT: 18.5601
ExactMass: 161.06880783
Spectrum_type: 2
charge: 1
Formula: C6H11NO4
SMILES: C(CC(C(=O)O)N)CC(=O)O
Method: HCD
Collision_energy: [28.333334]
Isolation_window: 4.0
Ion_mode: P
Num Peaks: 6
42.0338	14.6
84.0444	52.3
98.0601	3.3
102.0550	100.0
144.0656	5.5
162.0762	16.1

Name: Amino adipic acid diethyl ester
PrecursorMZ: 218.13933
RT: 4.5774
ExactMass: 217.13140809
Spectrum_type: 2
charge: 1
Formula: C10H19NO4
SMILES: CCOC(=O)CCC[C@@H](C(=O)OCC)N
Method: HCD
Collision_energy: [28.333334]
Isolation_window: 4.0
Ion_mode: P
Num Peaks: 26
44.0494	1.4
55.0542	11.5
59.0491	1.6
81.0335	2.8
82.0651	5.5
83.0491	4.8
84.0444	1.1
84.0808	2.0
87.0440	1.6
98.0600	1.4
100.0757	18.3
101.0597	10.2
112.0757	1.9
118.0863	6.0
128.0707	1.1
138.0913	1.5
142.0863	2.1
145.0734	2.6
172.0969	2.3
182.1175	2.1
200.0918	3.1
200.1281	13.4
218.0812	1.2
218.1025	3.7
218.1136	2.8
218.1387	100.0

Name: Aminoisobutyric acid
PrecursorMZ: 104.07089
RT: 4.617
ExactMass: 103.06332853
Spectrum_type: 2
charge: 1
Formula: C4H9NO2
SMILES: CC(C)(C(=O)O)N
Method: HCD
Collision_energy: [28.333334]
Isolation_window: 4.0
Ion_mode: P
Num Peaks: 13
41.0385	6.0
42.0338	0.5
43.0178	0.4
43.0416	2.2
44.0494	0.7
45.0335	0.8
58.0650	100.0
58.0673	0.6
69.0335	0.5
86.0601	0.5
87.0441	1.5
104.0707	3.0
104.1071	0.4

Name: Anserine
PrecursorMZ: 241.13024
RT: 3.7363
ExactMass: 240.12224039
Spectrum_type: 2
charge: 1
Formula: C10H16N4O3
SMILES: CN1C=NC=C1C[C@@H](C(=O)O)NC(=O)CCN
Method: HCD
Collision_energy: [28.333334]
Isolation_window: 4.0
Ion_mode: P
Num Peaks: 12
96.0682	9.5
109.0760	53.5
111.0553	10.8
124.0870	10.4
126.1026	23.7
153.0659	13.7
170.0924	41.4
197.1397	7.9
224.1031	13.9
241.1185	32.4
241.1297	100.0
241.1548	9.3

Name: Asn-Phe
PrecursorMZ: 280.13011
RT: 6.8184
ExactMass: 279.12190603
Spectrum_type: 2
charge: 1
Formula: C13H17N3O4
SMILES: C1=CC=C(C=C1)C[C@@H](C(=O)O)NC(=O)[C@H](CC(=O)N)N
Method: HCD
Collision_energy: [28.333334]
Isolation_window: 4.0
Ion_mode: P
Num Peaks: 15
87.0553	50.4
91.0542	24.8
120.0808	53.2
131.0492	12.7
166.0863	38.5
172.0757	13.5
175.0867	79.0
182.0601	12.8
200.0708	100.0
221.0923	57.0
234.1241	12.7
245.0925	12.8
246.0764	77.8
263.1031	23.2
280.0971	51.0

Name: Asparaginyl-Isoleucine
PrecursorMZ: 246.14563
RT: 4.2465
ExactMass: 245.1375561
Spectrum_type: 2
charge: 1
Formula: C10H19N3O4
SMILES: CC[C@H](C)[C@@H](C(=O)O)NC(=O)[C@H](CC(=O)N)N
Method: HCD
Collision_energy: [28.333334]
Isolation_window: 4.0
Ion_mode: P
Num Peaks: 37
44.0494	9.9
69.0699	35.8
70.0287	6.9
70.0651	5.4
72.0807	4.7
84.0444	3.2
84.0808	5.8
85.0397	12.2
86.0964	96.2
87.0553	74.7
96.0808	5.6
98.0237	20.9
110.0237	30.8
113.1074	17.0
115.0503	7.8
115.0754	4.8
124.0394	11.8
132.1020	42.9
133.0608	26.3
141.1023	72.9
143.1180	13.5
155.1180	13.2
166.0863	99.1
169.0972	7.5
183.1128	16.1
187.1077	64.8
189.1234	6.9
200.1281	13.3
200.1394	25.5
211.1078	4.5
212.0918	100.0
228.1344	6.0
229.1184	38.1
246.0974	3.4
246.1087	18.0
246.1338	13.6
246.1451	9.3

Name: Aspartame
PrecursorMZ: 295.12973
RT: 27.9181
ExactMass: 294.12157168
Spectrum_type: 2
charge: 1
Formula: C14H18N2O5
SMILES: COC(=O)[C@H](CC1=CC=CC=C1)NC(=O)[C@H](CC(=O)O)N
Method: HCD
Collision_energy: [28.333334]
Isolation_window: 4.0
Ion_mode: P
Num Peaks: 3
120.0808	100.0
148.0605	13.0
295.1290	8.3

Name: Aspartic acid 2-Hydroxypropanal (known isomers: 0; isobaric peaks in run: 0)
PrecursorMZ: 192.08687
RT: 19.378
Spectrum_type: 2
charge: 1
SMILES: CC(O)CNC(CC(=O)O)C(=O)O
Method: HCD
Collision_energy: [28.333334]
Isolation_window: 4.0
Ion_mode: P
Num Peaks: 15
58.0651	32.4
59.0491	20.8
68.0494	40.9
71.0491	26.3
84.0808	18.3
86.0600	22.5
88.0393	13.0
110.0600	12.9
114.0550	100.0
128.0707	96.3
132.0656	60.8
146.0812	72.0
156.0656	43.3
174.0761	24.7
192.0867	49.2

Name: Atractyloside A
PrecursorMZ: 471.21988
RT: 6.46
ExactMass: 448.23084734
Spectrum_type: 2
charge: 1
Formula: C21H36O10
SMILES: C[C@@]1([C@@H]2C[C@@H](CC[C@@]([C@H]2CC1=O)(CO)O)C(C)(C)O[C@H]3[C@@H]([C@H]([C@@H]([C@H](O3)CO)O)O)O)O
Method: HCD
Collision_energy: [28.333334]
Isolation_window: 4.0
Ion_mode: P
Num Peaks: 5
84.0807	10.9
130.0863	9.6
324.1290	14.3
453.2080	100.0
471.2186	43.1

Name: Baquiloprim
PrecursorMZ: 309.1819
RT: 3.2238
ExactMass: 308.17494466
Spectrum_type: 2
charge: 1
Formula: C17H20N6
SMILES: CC1=CC(=C2C=CC=NC2=C1N(C)C)CC3=CN=C(N=C3N)N
Method: HCD
Collision_energy: [28.333334]
Isolation_window: 4.0
Ion_mode: P
Num Peaks: 10
55.0542	5.5
83.0491	2.3
84.0808	1.2
101.0597	5.3
109.0760	2.0
147.0917	2.6
191.1179	1.4
209.1285	22.3
309.1447	5.6
309.1811	100.0

Name: Bicine
PrecursorMZ: 164.09224
RT: 4.1126
ExactMass: 163.0844579
Spectrum_type: 2
charge: 1
Formula: C6H13NO4
SMILES: C(CO)N(CCO)CC(=O)O
Method: HCD
Collision_energy: [28.333334]
Isolation_window: 4.0
Ion_mode: P
Num Peaks: 24
44.0494	14.3
55.0541	8.1
56.0494	12.5
58.0651	5.7
60.0443	6.7
70.0650	10.2
71.0491	14.5
72.0807	5.2
74.0236	12.8
74.0600	14.1
82.0651	14.2
83.0491	7.8
86.0600	9.9
88.0756	21.0
100.0757	48.0
101.0597	20.7
102.0550	8.4
104.0706	18.5
118.0863	100.0
128.0707	7.9
136.0757	9.6
146.0812	12.9
164.0706	4.9
164.0918	50.3

Name: Biopterin
PrecursorMZ: 238.09266
RT: 8.5616
ExactMass: 237.08618923
Spectrum_type: 2
charge: 1
Formula: C9H11N5O3
SMILES: C[C@@H]([C@@H](C1=CN=C2C(=N1)C(=O)NC(=N2)N)O)O
Method: HCD
Collision_energy: [28.333334]
Isolation_window: 4.0
Ion_mode: P
Num Peaks: 33
55.0178	15.4
81.0335	13.1
84.0444	12.0
88.0393	5.7
97.0285	4.6
109.0285	17.8
112.0506	5.0
113.0584	28.2
116.0342	5.4
124.0757	6.4
125.0234	6.4
130.0500	19.4
136.0394	11.0
138.0550	5.2
142.0500	6.7
154.0500	12.4
156.0657	6.8
164.0343	11.6
164.0708	18.8
168.0656	15.0
174.0761	5.5
178.0500	5.8
184.0604	7.3
192.0656	24.2
192.0769	17.5
202.0711	28.4
210.0764	5.7
220.0718	26.2
220.0818	15.9
238.0712	26.5
238.0825	100.0
238.0937	4.6
238.1077	7.1

Name: Biotin
PrecursorMZ: 245.0961
RT: 9.27855
ExactMass: 244.08816355
Spectrum_type: 2
charge: 1
Formula: C10H16N2O3S
SMILES: C1[C@H]2[C@@H]([C@@H](S1)CCCCC(=O)O)NC(=O)N2
Method: HCD
Collision_energy: [28.333334]
Isolation_window: 4.0
Ion_mode: P
Num Peaks: 40
44.0495	0.9
55.0542	0.2
56.0494	0.2
58.0651	0.2
69.0699	6.9
70.0651	0.3
84.0808	0.2
86.0924	0.3
86.0964	100.0
86.0987	2.2
86.1016	0.3
96.0444	0.3
97.0396	0.3
100.0394	0.2
100.0757	1.1
101.0597	0.5
103.0543	0.2
104.0576	0.2
118.0863	0.4
123.0263	0.2
125.0347	0.8
132.0526	0.2
132.1020	3.5
152.0456	0.3
155.0453	0.4
163.0503	0.2
166.0685	0.2
167.0452	0.2
167.0526	0.2
179.0452	0.4
183.0877	0.3
191.0452	0.6
199.1806	1.3
209.0558	0.7
209.0746	0.3
227.0850	6.1
245.0957	0.5
245.1007	0.6
245.1499	3.6
245.1863	3.8

Name: Butanedione
PrecursorMZ: 87.04437
RT: 2.1662
ExactMass: 86.03677943
Spectrum_type: 2
charge: 1
Formula: C4H6O2
SMILES: CC(=O)C(=O)C
Method: HCD
Collision_energy: [28.333334]
Isolation_window: 4.0
Ion_mode: P
Num Peaks: 4
43.0178	49.0
45.0334	100.0
59.0491	20.6
87.0440	52.4

Name: C.I. Solvent Yellow 114
PrecursorMZ: 290.0816
RT: 31.2307
ExactMass: 289.07389321
Spectrum_type: 2
charge: 1
Formula: C18H11NO3
SMILES: C1=CC=C2C(=C1)C=C(C(=N2)C3C(=O)C4=CC=CC=C4C3=O)O
Method: HCD
Collision_energy: [28.333334]
Isolation_window: 4.0
Ion_mode: P
Num Peaks: 12
61.0284	3.5
154.0435	23.1
156.0592	5.9
166.0435	6.7
200.0490	100.0
212.0489	20.9
214.0646	5.1
226.0646	5.0
242.0597	4.2
254.0598	8.4
272.0705	22.9
290.0808	80.7

Name: Cis-4-Hydroxy-D-Proline
PrecursorMZ: 132.06575
RT: 4.5516
ExactMass: 131.058243149
Spectrum_type: 2
charge: 1
Formula: C5H9NO3
SMILES: C1[C@H](CN[C@H]1C(=O)O)O
Method: HCD
Collision_energy: [28.333334]
Isolation_window: 4.0
Ion_mode: P
Num Peaks: 30
41.0385	4.7
43.0178	1.8
44.0494	1.1
45.0335	1.5
46.0651	1.8
55.0542	0.6
58.0651	5.0
59.0729	0.3
68.0494	50.3
68.0516	0.6
69.0335	0.8
69.0699	1.7
70.0651	0.4
71.0491	0.4
73.0648	0.3
79.0542	0.6
86.0430	0.4
86.0569	0.5
86.0600	100.0
86.0624	1.5
86.0965	6.5
87.0441	7.7
96.0807	0.3
97.0648	0.3
101.0598	0.3
114.0550	2.7
114.0914	3.2
115.0755	0.3
132.0656	39.3
132.1020	5.6

Name: Citrulline
PrecursorMZ: 176.10306
RT: 3.8482333333333334
ExactMass: 175.09569129
Spectrum_type: 2
charge: 1
Formula: C6H13N3O3
SMILES: C(C[C@@H](C(=O)O)N)CNC(=O)N
Method: HCD
Collision_energy: [28.333334]
Isolation_window: 4.0
Ion_mode: P
Num Peaks: 57
41.0386	0.1
43.0542	0.3
55.0542	0.3
58.0651	0.1
68.0495	0.6
69.0336	0.1
70.0628	0.1
70.0651	100.0
70.0673	1.1
70.0699	0.2
71.0492	0.6
74.0238	0.2
76.0757	0.1
83.0492	0.1
84.0445	0.4
84.0809	0.1
86.0602	2.9
87.0918	0.3
88.0758	0.3
95.0606	0.1
96.0446	1.0
97.0762	1.5
98.0602	0.5
99.0443	0.2
101.0599	0.2
112.0759	0.2
112.1123	0.2
113.0662	0.3
113.0709	58.0
113.0749	0.8
113.0770	0.3
113.0794	0.2
114.0551	11.9
114.0588	0.1
114.0915	0.1
115.0867	14.1
115.0910	0.1
116.0707	10.0
116.0745	0.1
130.0977	0.7
131.0818	0.3
133.0974	0.9
140.1072	0.3
141.0661	1.9
142.0502	1.3
158.0814	0.1
158.0928	0.2
158.1178	0.1
159.0644	0.1
159.0665	0.1
159.0686	0.4
159.0764	55.5
159.0844	0.4
159.0866	0.2
176.0919	0.3
176.1032	2.5
176.1283	0.9

Name: Creatine
PrecursorMZ: 132.07714
RT: 2.2753
ExactMass: 131.069476538
Spectrum_type: 2
charge: 1
Formula: C4H9N3O2
SMILES: CN(CC(=O)O)C(=N)N
Method: HCD
Collision_energy: [28.333334]
Isolation_window: 4.0
Ion_mode: P
Num Peaks: 20
41.0385	1.2
43.0290	5.1
44.0494	31.6
58.0651	34.0
59.0729	44.8
69.0699	4.6
72.0556	0.8
73.0648	0.8
79.0542	1.4
86.0965	9.2
87.0553	1.7
90.0550	38.6
96.0808	0.9
97.0648	0.7
114.0663	1.1
114.0914	3.1
115.0503	0.7
132.0769	22.0
132.1020	100.0
132.1079	0.8

Name: Creatinine
PrecursorMZ: 114.06647
RT: 2.367
ExactMass: 113.058911855
Spectrum_type: 2
charge: 1
Formula: C4H7N3O
SMILES: CN1CC(=O)N=C1N
Method: HCD
Collision_energy: [28.333334]
Isolation_window: 4.0
Ion_mode: P
Num Peaks: 14
41.0385	0.8
42.0338	0.6
43.0290	5.0
44.0494	100.0
68.0494	1.6
72.0444	2.5
72.0808	1.0
86.0713	11.2
104.0819	5.1
114.0550	2.1
114.0662	98.0
114.0708	0.8
114.0914	4.8
114.1026	2.1

Name: Cryptotanshinone
PrecursorMZ: 319.12985
RT: 34.6478
ExactMass: 296.1412445
Spectrum_type: 2
charge: 1
Formula: C19H20O3
SMILES: C[C@H]1COC2=C1C(=O)C(=O)C3=C2C=CC4=C3CCCC4(C)C
Method: HCD
Collision_energy: [28.333334]
Isolation_window: 4.0
Ion_mode: P
Num Peaks: 15
138.0551	3.8
150.0550	4.1
152.0707	6.6
170.0271	3.5
241.0973	7.2
242.0816	3.2
256.0972	12.3
259.1081	68.8
273.0543	12.6
273.1238	30.0
283.1081	8.9
301.1185	100.0
302.1026	4.0
319.1290	21.5
319.1652	8.2

Name: Cytosine
PrecursorMZ: 112.05087
RT: 2.35
ExactMass: 111.043261792
Spectrum_type: 2
charge: 1
Formula: C4H5N3O
SMILES: C1=C(NC(=O)N=C1)N
Method: HCD
Collision_energy: [28.333334]
Isolation_window: 4.0
Ion_mode: P
Num Peaks: 11
42.0338	1.5
52.0181	0.7
67.0290	1.5
68.0131	1.7
69.0447	7.9
71.0240	0.6
94.0400	3.7
95.0240	26.5
112.0394	0.6
112.0505	100.0
112.0543	0.8

Name: D-2-aminoadipic acid
PrecursorMZ: 162.07645
RT: 20.0925
ExactMass: 161.06880783
Spectrum_type: 2
charge: 1
Formula: C6H11NO4
SMILES: C(C[C@H](C(=O)O)N)CC(=O)O
Method: HCD
Collision_energy: [28.333334]
Isolation_window: 4.0
Ion_mode: P
Num Peaks: 3
70.0651	100.0
98.0601	11.2
116.0707	90.5

Name: Delta-Valerolactone
PrecursorMZ: 101.06003
RT: 4.1255
ExactMass: 100.052429494
Spectrum_type: 2
charge: 1
Formula: C5H8O2
SMILES: C1CCOC(=O)C1
Method: HCD
Collision_energy: [28.333334]
Isolation_window: 4.0
Ion_mode: P
Num Peaks: 16
41.0385	2.3
43.0178	6.2
44.0494	1.4
45.0335	1.6
53.0386	1.3
55.0542	100.0
56.0494	4.3
57.0528	2.9
59.0491	28.9
59.0603	2.0
60.0444	4.6
73.0648	1.7
83.0491	14.2
84.0444	5.4
101.0598	21.7
101.0791	3.9

Name: Deoxyadenosine
PrecursorMZ: 252.10994
RT: 2.3929
ExactMass: 251.10183929
Spectrum_type: 2
charge: 1
Formula: C10H13N5O3
SMILES: C1[C@@H]([C@H](O[C@H]1N2C=NC3=C(N=CN=C32)N)CO)O
Method: HCD
Collision_energy: [28.333334]
Isolation_window: 4.0
Ion_mode: P
Num Peaks: 11
99.0441	3.0
104.1070	2.2
117.0546	4.9
136.0618	100.0
234.0974	3.5
252.0869	3.4
252.1090	3.7
252.1233	12.6
252.1346	2.9
252.1439	3.6
252.1597	6.6

Name: Deoxymugineic acid (DMA)
PrecursorMZ: 305.13534
RT: 30.8579
Spectrum_type: 2
charge: 1
Method: HCD
Collision_energy: [28.333334]
Isolation_window: 4.0
Ion_mode: P
Num Peaks: 32
58.0651	2.2
70.0651	6.2
84.0808	14.2
86.0601	6.1
102.0550	1.9
103.0391	2.0
114.0550	50.6
114.0915	2.1
130.0500	2.6
130.0864	3.4
132.0656	1.8
140.0707	3.1
142.0864	22.6
146.0813	8.2
147.1129	2.0
158.0813	9.9
160.0970	4.2
168.0656	2.4
169.0973	4.8
180.1020	10.8
184.0428	1.8
186.0761	100.0
197.0922	6.0
204.0868	11.7
215.1028	2.9
223.1079	2.5
241.1185	11.4
242.1026	1.9
259.1292	1.8
287.1241	56.7
287.1391	1.7
305.1346	27.9

Name: Diaminoheptanedioate
PrecursorMZ: 191.10256
RT: 16.7371
ExactMass: 188.07970687
Spectrum_type: 2
charge: 1
Formula: C7H12N2O4-2
SMILES: C(CC(C(=O)[O-])N)CC(C(=O)[O-])N
Method: HCD
Collision_energy: [28.333334]
Isolation_window: 4.0
Ion_mode: P
Num Peaks: 17
55.0542	4.1
56.0494	2.6
70.0651	2.6
82.0651	34.2
84.0808	9.6
100.0757	2.5
110.0601	0.9
114.0550	0.6
116.0707	0.6
127.0867	1.2
128.0706	100.0
128.0762	0.7
145.0973	1.4
156.0657	1.6
173.0921	5.9
174.0761	5.7
191.1027	9.1

Name: Dihydroactinidiolide, (+-)-
PrecursorMZ: 181.1226
RT: 22.2782
ExactMass: 180.115029749
Spectrum_type: 2
charge: 1
Formula: C11H16O2
SMILES: CC1(CCCC2(C1=CC(=O)O2)C)C
Method: HCD
Collision_energy: [28.333334]
Isolation_window: 4.0
Ion_mode: P
Num Peaks: 8
79.0542	7.3
81.0699	4.1
93.0699	10.0
119.0856	6.7
121.1012	100.0
140.0536	7.6
163.1119	4.8
181.1224	6.1

Name: Dimethylhydantoin
PrecursorMZ: 129.06616
RT: 2.845
ExactMass: 128.058577502
Spectrum_type: 2
charge: 1
Formula: C5H8N2O2
SMILES: CC1(C(=O)NC(=O)N1)C
Method: HCD
Collision_energy: [28.333334]
Isolation_window: 4.0
Ion_mode: P
Num Peaks: 12
43.0178	3.8
55.0178	3.5
55.0542	7.1
56.0494	6.9
57.0335	2.9
69.0334	5.7
83.0491	5.9
83.0603	100.0
84.0808	3.5
85.0284	3.4
111.0553	3.6
129.0659	24.8

Name: Ethyl 3-(2,4-dihydroxy-6-methylpyridin-3-yl)-3-(3-hydroxyphenyl)propanoate
PrecursorMZ: 318.13066
RT: 17.2676
ExactMass: 317.12632271
Spectrum_type: 2
charge: 1
Formula: C17H19NO5
SMILES: CCOC(=O)CC(C1=CC(=CC=C1)O)C2=C(C=C(NC2=O)C)O
Method: HCD
Collision_energy: [28.333334]
Isolation_window: 4.0
Ion_mode: P
Num Peaks: 18
70.0651	13.4
72.0807	68.4
84.0444	5.5
95.0603	7.3
102.0550	5.4
110.0713	16.6
130.0499	6.7
143.1179	68.2
148.0605	31.8
157.0972	6.8
171.1127	25.9
201.0868	5.5
201.1235	7.6
219.0976	9.7
229.1182	5.5
231.0976	9.2
272.1244	37.9
318.1297	100.0

Name: Famciclovir
PrecursorMZ: 322.15058
RT: 10.8818
ExactMass: 321.1437041
Spectrum_type: 2
charge: 1
Formula: C14H19N5O4
SMILES: CC(=O)OCC(CCN1C=NC2=CN=C(N=C21)N)COC(=O)C
Method: HCD
Collision_energy: [28.333334]
Isolation_window: 4.0
Ion_mode: P
Num Peaks: 5
101.0597	7.8
214.1074	3.8
286.1289	5.4
304.1393	100.0
322.1499	40.0

Name: Gamma-Aminobutyric Acid
PrecursorMZ: 104.07093
RT: 4.1147
ExactMass: 103.06332853
Spectrum_type: 2
charge: 1
Formula: C4H9NO2
SMILES: C(CC(=O)O)CN
Method: HCD
Collision_energy: [28.333334]
Isolation_window: 4.0
Ion_mode: P
Num Peaks: 15
41.0385	6.2
43.0178	24.7
44.0494	16.2
45.0334	39.9
56.0495	1.7
57.0335	2.2
58.0651	49.9
68.0495	2.7
69.0335	37.2
86.0601	27.3
87.0440	100.0
87.0465	1.3
104.0707	10.3
104.1071	2.3
105.0547	1.0

Name: Gamma-Butyrobetaine
PrecursorMZ: 146.11795
RT: 4.5533
ExactMass: 145.110278721
Spectrum_type: 2
charge: 1
Formula: C7H15NO2
SMILES: C[N+](C)(C)CCCC(=O)[O-]
Method: HCD
Collision_energy: [28.333334]
Isolation_window: 4.0
Ion_mode: P
Num Peaks: 21
43.0178	3.2
44.0494	7.1
45.0334	2.2
46.0651	3.7
55.0542	12.0
56.0494	2.2
58.0651	2.3
59.0603	2.4
60.0807	5.3
72.0807	2.5
82.0651	38.8
84.0808	1.9
85.0886	3.4
86.0600	2.4
87.0440	9.4
100.0757	95.4
100.1121	100.0
128.0707	6.3
146.0813	36.5
146.0925	1.9
146.1176	38.1

Name: Gamma-Glutamylalanine
PrecursorMZ: 219.09792
RT: 17.8458
ExactMass: 218.09027155
Spectrum_type: 2
charge: 1
Formula: C8H14N2O5
SMILES: C[C@@H](C(=O)O)NC(=O)CC[C@@H](C(=O)O)N
Method: HCD
Collision_energy: [28.333334]
Isolation_window: 4.0
Ion_mode: P
Num Peaks: 24
44.0494	48.4
56.0495	5.5
84.0444	100.0
84.0467	1.1
84.0808	1.8
85.0284	2.0
86.0601	1.6
90.0550	78.5
102.0550	21.8
110.0601	2.2
114.0550	3.0
127.0867	1.2
128.0707	2.0
130.0500	20.8
138.0551	1.2
148.0606	56.7
155.0817	22.4
156.0657	9.1
173.0921	3.7
183.0765	5.1
184.0605	3.4
201.0871	41.9
202.0711	2.1
219.0977	8.5

Name: Glu-Pro
PrecursorMZ: 245.1137
RT: 17.3579
ExactMass: 244.10592162
Spectrum_type: 2
charge: 1
Formula: C10H16N2O5
SMILES: C1C[C@H](N(C1)C(=O)[C@H](CCC(=O)O)N)C(=O)O
Method: HCD
Collision_energy: [28.333334]
Isolation_window: 4.0
Ion_mode: P
Num Peaks: 19
56.0494	2.0
70.0651	35.9
84.0444	56.3
84.0467	0.8
84.0808	1.1
98.0600	1.2
102.0550	7.7
116.0706	100.0
116.0749	0.9
130.0499	0.7
134.0449	0.6
144.0656	2.7
181.0972	14.9
199.1079	0.9
209.0922	13.1
227.1027	72.2
228.0868	2.7
245.1135	2.3
245.1499	0.7

Name: Glu-Thr
PrecursorMZ: 249.10867
RT: 17.8792
ExactMass: 248.10083623
Spectrum_type: 2
charge: 1
Formula: C9H16N2O6
SMILES: C[C@H]([C@@H](C(=O)O)NC(=O)[C@H](CCC(=O)O)N)O
Method: HCD
Collision_energy: [28.333334]
Isolation_window: 4.0
Ion_mode: P
Num Peaks: 17
56.0495	9.4
74.0600	29.3
84.0444	74.9
85.0284	1.3
102.0550	42.9
120.0656	100.0
130.0500	9.8
139.0866	1.5
140.0707	16.2
148.0606	4.5
167.0816	3.9
168.0656	2.2
169.0609	4.1
185.0921	13.5
213.0871	29.5
231.0977	48.3
249.1084	1.6

Name: Glutamyltyrosine
PrecursorMZ: 311.12482
RT: 33.96
ExactMass: 310.1164863
Spectrum_type: 2
charge: 1
Formula: C14H18N2O6
SMILES: C1=CC(=CC=C1C[C@@H](C(=O)O)NC(=O)CC[C@@H](C(=O)O)N)O
Method: HCD
Collision_energy: [28.333334]
Isolation_window: 4.0
Ion_mode: P
Num Peaks: 19
84.0444	38.2
91.0542	3.3
102.0550	6.7
107.0492	2.5
119.0492	11.1
123.0441	23.3
130.0499	16.4
136.0757	96.5
147.0441	14.9
165.0546	100.0
182.0812	90.5
202.0863	14.7
247.1080	33.8
247.1444	2.9
248.0919	11.4
283.1657	2.6
293.1136	20.0
294.0975	13.4
311.1241	16.0

Name: Glycyl-L-glutamine
PrecursorMZ: 204.09832
RT: 3.683
ExactMass: 203.0906059
Spectrum_type: 2
charge: 1
Formula: C7H13N3O4
SMILES: C(CC(=O)N)[C@@H](C(=O)O)NC(=O)CN
Method: HCD
Collision_energy: [28.333334]
Isolation_window: 4.0
Ion_mode: P
Num Peaks: 46
43.0178	3.7
44.0494	47.6
56.0494	3.7
60.0443	3.4
61.0284	4.4
70.0288	3.5
70.0651	5.4
72.0445	3.7
74.0237	3.4
75.0553	7.5
76.0393	11.4
83.0604	12.0
84.0444	100.0
84.0808	8.6
85.0841	8.8
87.0553	31.2
90.0550	54.7
96.0444	9.2
98.0601	6.4
99.0553	14.3
101.0710	10.9
114.0550	3.4
115.0503	10.8
124.0394	59.5
126.0550	40.7
127.0504	3.2
129.0659	3.8
130.0500	32.4
133.0609	21.8
138.0550	27.2
141.0660	5.6
141.1104	4.5
144.0656	13.3
144.0770	3.7
145.0609	18.2
147.0766	6.4
159.0765	2.9
168.0656	3.3
169.0609	4.5
170.0449	47.9
186.0874	22.6
187.0714	31.9
187.1078	4.7
204.0868	3.2
204.0980	52.1
204.1231	3.8

Name: Glycyl-L-proline
PrecursorMZ: 173.09263
RT: 3.9169666666666667
ExactMass: 172.08479225
Spectrum_type: 2
charge: 1
Formula: C7H12N2O3
SMILES: C1C[C@H](N(C1)C(=O)CN)C(=O)O
Method: HCD
Collision_energy: [28.333334]
Isolation_window: 4.0
Ion_mode: P
Num Peaks: 18
44.0494	0.8
56.0495	1.2
70.0651	54.8
84.0444	1.1
84.0808	1.4
86.0965	0.9
95.0604	1.7
100.0394	1.3
100.0758	0.7
102.0551	0.9
109.0761	0.9
116.0706	100.0
116.0755	0.8
127.0867	7.9
130.0500	0.8
137.0711	1.5
155.0817	1.7
173.0922	21.5

Name: Glycyl-L-valine
PrecursorMZ: 175.10796
RT: 4.40235
ExactMass: 174.10044231
Spectrum_type: 2
charge: 1
Formula: C7H14N2O3
SMILES: CC(C)[C@@H](C(=O)O)NC(=O)CN
Method: HCD
Collision_energy: [28.333334]
Isolation_window: 4.0
Ion_mode: P
Num Peaks: 18
55.0542	4.6
68.0494	0.6
70.0651	2.6
72.0807	100.0
72.0831	1.1
84.0445	0.6
84.0808	0.5
112.0758	1.7
115.0867	1.9
116.0707	0.7
118.0863	47.1
118.0912	0.4
129.1023	45.3
129.1103	0.5
157.0692	0.6
157.0974	1.6
158.0813	0.7
175.1078	3.2

Name: His-Ser
PrecursorMZ: 243.10944
RT: 16.4535
ExactMass: 242.10150494
Spectrum_type: 2
charge: 1
Formula: C9H14N4O4
SMILES: C1=C(NC=N1)C[C@@H](C(=O)N[C@@H](CO)C(=O)O)N
Method: HCD
Collision_energy: [28.333334]
Isolation_window: 4.0
Ion_mode: P
Num Peaks: 7
44.0494	15.1
95.0604	11.8
98.9842	15.6
110.0713	85.3
156.0769	36.1
197.1034	83.7
243.1090	100.0

Name: Histidylproline
PrecursorMZ: 253.13049
RT: 4.3347
ExactMass: 252.12224039
Spectrum_type: 2
charge: 1
Formula: C11H16N4O3
SMILES: C1C[C@H](N(C1)C(=O)[C@H](CC2=CN=CN2)N)C(=O)O
Method: HCD
Collision_energy: [28.333334]
Isolation_window: 4.0
Ion_mode: P
Num Peaks: 10
70.0651	5.2
83.0603	3.4
93.0447	2.3
110.0713	100.0
116.0706	8.9
138.0663	4.2
156.0769	11.1
235.1191	39.0
253.1186	4.1
253.1298	7.7

Name: Homovanillic Acid
PrecursorMZ: 183.06538
RT: 9.6945
ExactMass: 182.0579088
Spectrum_type: 2
charge: 1
Formula: C9H10O4
SMILES: COC1=C(C=CC(=C1)CC(=O)O)O
Method: HCD
Collision_energy: [28.333334]
Isolation_window: 4.0
Ion_mode: P
Num Peaks: 12
43.0178	16.9
67.0542	20.6
94.0651	100.0
95.0492	18.1
109.0649	17.0
123.0441	22.1
137.0598	32.7
140.0707	50.2
165.0547	17.4
165.0659	13.7
183.0652	21.6
183.0764	24.1

Name: Hydroquinone
PrecursorMZ: 111.04446
RT: 2.2171
ExactMass: 110.03677943
Spectrum_type: 2
charge: 1
Formula: C6H6O2
SMILES: C1=CC(=CC=C1O)O
Method: HCD
Collision_energy: [28.333334]
Isolation_window: 4.0
Ion_mode: P
Num Peaks: 13
43.0178	7.9
53.0385	7.9
55.0178	3.5
55.0542	47.0
65.0385	6.4
68.0256	11.8
69.0335	6.4
81.0335	2.4
83.0491	26.5
95.0128	10.1
96.0206	8.5
111.0441	100.0
111.0635	27.7

Name: Hypoxanthine
PrecursorMZ: 137.04591
RT: 12.0946
ExactMass: 136.03851076
Spectrum_type: 2
charge: 1
Formula: C5H4N4O
SMILES: C1=NC2=C(N1)C(=O)NC=N2
Method: HCD
Collision_energy: [28.333334]
Isolation_window: 4.0
Ion_mode: P
Num Peaks: 11
55.0290	2.1
67.0291	0.5
82.0400	2.1
94.0400	6.0
110.0349	11.2
112.0506	1.2
119.0353	8.7
128.0456	0.8
137.0457	100.0
137.0521	0.8
138.0299	0.7

Name: Isoguvacine
PrecursorMZ: 128.07094
RT: 6.0178
ExactMass: 127.06332853
Spectrum_type: 2
charge: 1
Formula: C6H9NO2
SMILES: C1CNCC=C1C(=O)O
Method: HCD
Collision_energy: [28.333334]
Isolation_window: 4.0
Ion_mode: P
Num Peaks: 6
55.0542	54.4
73.0648	1.3
82.0651	100.0
82.0675	1.6
100.0758	4.3
128.0707	36.7

Name: Isopentenyladenosine
PrecursorMZ: 336.16632
RT: 8.3363
ExactMass: 335.15935417
Spectrum_type: 2
charge: 1
Formula: C15H21N5O4
SMILES: CC(=CCNC1=C2C(=NC=N1)N(C=N2)[C@H]3[C@@H]([C@@H]([C@H](O3)CO)O)O)C
Method: HCD
Collision_energy: [28.333334]
Isolation_window: 4.0
Ion_mode: P
Num Peaks: 11
72.0807	22.9
120.0808	46.3
130.0862	10.0
210.1125	18.8
211.1159	12.2
219.1493	27.9
237.1235	13.7
247.1442	6.6
300.1444	11.9
318.1548	52.4
336.1655	100.0

Name: Jasmonic Acid
PrecursorMZ: 211.13329
RT: 6.9894
ExactMass: 210.125594432
Spectrum_type: 2
charge: 1
Formula: C12H18O3
SMILES: CC/C=C\C[C@@H]1[C@H](CCC1=O)CC(=O)O
Method: HCD
Collision_energy: [28.333334]
Isolation_window: 4.0
Ion_mode: P
Num Peaks: 38
43.0178	4.0
55.0542	7.0
67.0542	8.9
69.0699	24.1
71.0491	5.3
79.0542	6.0
81.0699	13.5
83.0492	6.5
85.0648	7.6
91.0543	16.4
93.0699	19.0
95.0492	7.6
105.0700	21.1
107.0856	8.7
109.0649	18.6
109.1013	7.5
119.0856	7.1
123.1170	4.1
131.0857	5.9
133.1013	100.0
136.0758	7.1
137.0599	10.5
137.0791	12.8
147.0919	6.9
147.1170	28.3
149.1075	11.7
151.1120	66.2
155.0705	22.8
165.0661	4.4
165.1025	9.2
165.1276	5.9
175.1119	11.0
193.0974	6.1
193.1225	32.3
211.0717	6.6
211.1080	10.5
211.1160	56.6
211.1331	24.2

Name: Kdm5-IN-1
PrecursorMZ: 325.17682
RT: 20.515
ExactMass: 324.16985928
Spectrum_type: 2
charge: 1
Formula: C17H20N6O
SMILES: CC(C)C1=C(N=C2C(=CNN2C1=O)C#N)C3=CN(N=C3)C(C)(C)C
Method: HCD
Collision_energy: [28.333334]
Isolation_window: 4.0
Ion_mode: P
Num Peaks: 8
55.0542	2.8
83.0491	1.4
101.0597	2.4
207.1129	7.2
225.1235	7.7
307.1654	3.1
325.1032	2.0
325.1759	100.0

Name: Kribb11
PrecursorMZ: 285.10907
RT: 9.1382
ExactMass: 284.10217365
Spectrum_type: 2
charge: 1
Formula: C13H12N6O2
SMILES: CNC1=NC(=C(C=C1)[N+](=O)[O-])NC2=CC3=C(C=C2)NN=C3
Method: HCD
Collision_energy: [28.333334]
Isolation_window: 4.0
Ion_mode: P
Num Peaks: 10
136.0757	17.0
180.0656	47.7
182.0812	31.8
207.0765	18.4
208.0605	100.0
222.0761	38.2
225.0871	34.2
232.0605	36.0
250.0713	73.5
285.1812	17.5

Name: L-2-Aminoadipic Acid
PrecursorMZ: 162.07635
RT: 8.587
ExactMass: 161.06880783
Spectrum_type: 2
charge: 1
Formula: C6H11NO4
SMILES: C(C[C@@H](C(=O)O)N)CC(=O)O
Method: HCD
Collision_energy: [28.333334]
Isolation_window: 4.0
Ion_mode: P
Num Peaks: 9
42.0338	28.3
56.0494	18.4
70.0651	19.8
75.0263	42.7
88.0393	95.9
98.0601	100.0
116.0707	27.5
144.0656	42.1
162.1125	14.7

Name: L-Alanine
PrecursorMZ: 90.05507
RT: 4.3305
ExactMass: 89.047678466
Spectrum_type: 2
charge: 1
Formula: C3H7NO2
SMILES: C[C@@H](C(=O)O)N
Method: HCD
Collision_energy: [28.333334]
Isolation_window: 4.0
Ion_mode: P
Num Peaks: 7
42.0338	0.4
44.0473	0.1
44.0494	100.0
44.0518	0.2
44.0540	0.1
45.0335	0.1
90.0550	5.1

Name: L-Alanyl-L-Glutamine
PrecursorMZ: 218.11408
RT: 3.4992666666666667
ExactMass: 217.10625597
Spectrum_type: 2
charge: 1
Formula: C8H15N3O4
SMILES: C[C@@H](C(=O)N[C@@H](CCC(=O)N)C(=O)O)N
Method: HCD
Collision_energy: [28.333334]
Isolation_window: 4.0
Ion_mode: P
Num Peaks: 22
44.0494	46.3
56.0495	3.9
83.0604	51.1
84.0444	100.0
89.0710	3.3
90.0550	71.8
101.0710	20.4
110.0602	2.5
115.0867	3.7
129.0660	7.2
130.0500	19.6
147.0766	25.3
154.0977	6.1
155.0817	19.3
156.0657	2.8
183.0765	6.1
184.0606	4.9
200.1031	78.8
201.0872	48.0
218.0814	3.6
218.1025	2.8
218.1137	5.0

Name: L-Cysteinesulfinic acid
PrecursorMZ: 154.01715
RT: 21.3142
ExactMass: 153.00957888
Spectrum_type: 2
charge: 1
Formula: C3H7NO4S
SMILES: C([C@@H](C(=O)O)N)S(=O)O
Method: HCD
Collision_energy: [28.333334]
Isolation_window: 4.0
Ion_mode: P
Num Peaks: 4
42.0338	15.2
44.0494	100.0
74.0236	89.2
89.0471	18.3

Name: L-Histidine
PrecursorMZ: 156.0769
RT: 5.1769
ExactMass: 155.069476538
Spectrum_type: 2
charge: 1
Formula: C6H9N3O2
SMILES: C1=C(NC=N1)C[C@@H](C(=O)O)N
Method: HCD
Collision_energy: [28.333334]
Isolation_window: 4.0
Ion_mode: P
Num Peaks: 31
41.0386	0.1
56.0495	1.2
68.0495	1.1
74.0237	0.1
81.0448	1.0
82.0526	4.1
83.0603	13.8
83.0627	0.2
84.0808	0.1
93.0448	9.3
93.0475	0.1
95.0604	9.3
95.0632	0.1
100.0759	0.1
110.0640	0.2
110.0662	0.4
110.0712	100.0
110.0750	1.2
110.0770	0.4
110.0796	0.2
110.0821	0.1
110.0848	0.1
111.0554	0.8
112.0395	0.1
112.0758	0.3
112.0870	0.1
138.0664	0.2
139.0504	0.2
156.0657	0.1
156.0768	17.7
156.1021	0.2

Name: L-Homoserine
PrecursorMZ: 102.05521
RT: 4.2916
ExactMass: 119.058243149
Spectrum_type: 2
charge: 1
Formula: C4H9NO3
SMILES: C(CO)[C@@H](C(=O)O)N
Method: HCD
Collision_energy: [28.333334]
Isolation_window: 4.0
Ion_mode: P
Num Peaks: 10
41.0385	17.9
45.0334	1.0
56.0494	68.3
57.0334	1.3
58.0651	2.0
84.0443	100.0
84.0467	1.2
85.0284	4.1
102.0550	4.5
102.0914	2.9

Name: L-Leucyl-L-alanine
PrecursorMZ: 203.13941
RT: 5.5019
ExactMass: 202.13174244
Spectrum_type: 2
charge: 1
Formula: C9H18N2O3
SMILES: C[C@@H](C(=O)O)NC(=O)[C@H](CC(C)C)N
Method: HCD
Collision_energy: [28.333334]
Isolation_window: 4.0
Ion_mode: P
Num Peaks: 18
41.0385	0.6
43.0542	0.9
44.0494	64.9
69.0699	3.8
70.0651	1.2
84.0808	0.9
86.0964	100.0
86.0989	1.2
96.0445	1.3
108.0445	0.7
123.0442	0.7
126.0551	1.0
132.1020	56.6
157.1337	13.8
185.0809	1.9
203.0857	1.1
203.1028	0.8
203.1392	4.4

Name: L-Phenylalanine
PrecursorMZ: 166.08628
RT: 11.1577
ExactMass: 165.078978594
Spectrum_type: 2
charge: 1
Formula: C9H11NO2
SMILES: C1=CC=C(C=C1)C[C@@H](C(=O)O)N
Method: HCD
Collision_energy: [28.333334]
Isolation_window: 4.0
Ion_mode: P
Num Peaks: 30
42.0338	0.1
74.0237	0.1
77.0387	0.1
79.0543	1.4
80.0496	0.1
91.0543	0.7
93.0700	2.5
95.0492	0.3
103.0543	9.9
103.0581	0.1
105.0449	0.1
105.0701	0.1
107.0493	2.3
118.0654	0.2
119.0733	0.1
120.0700	0.1
120.0725	0.1
120.0752	0.2
120.0807	100.0
120.0842	1.8
120.0858	1.0
120.0889	0.2
120.0917	0.1
120.0946	0.1
121.0649	0.1
131.0493	2.9
149.0599	0.9
166.0725	0.2
166.0864	2.7
167.0566	0.1

Name: L-Phenylalanyl-L-leucine
PrecursorMZ: 279.17134
RT: 16.1577
ExactMass: 278.16304257
Spectrum_type: 2
charge: 1
Formula: C15H22N2O3
SMILES: CC(C)C[C@@H](C(=O)O)NC(=O)[C@H](CC1=CC=CC=C1)N
Method: HCD
Collision_energy: [28.333334]
Isolation_window: 4.0
Ion_mode: P
Num Peaks: 13
69.0698	0.6
84.0807	1.0
86.0964	14.5
93.0699	0.7
103.0542	1.2
120.0807	100.0
120.0850	0.9
132.1019	3.7
201.0465	0.6
219.0570	3.4
233.1650	2.3
279.0936	10.0
279.1707	4.5

Name: L-Proline
PrecursorMZ: 116.07104
RT: 6.3898
ExactMass: 115.06332853
Spectrum_type: 2
charge: 1
Formula: C5H9NO2
SMILES: C1C[C@H](NC1)C(=O)O
Method: HCD
Collision_energy: [28.333334]
Isolation_window: 4.0
Ion_mode: P
Num Peaks: 4
70.0650	100.0
70.0673	1.1
116.0707	20.6
116.1072	0.7

Name: L-Pyroglutamic acid
PrecursorMZ: 130.05027
RT: 3.8937
ExactMass: 129.042593085
Spectrum_type: 2
charge: 1
Formula: C5H7NO3
SMILES: C1CC(=O)N[C@@H]1C(=O)O
Method: HCD
Collision_energy: [28.333334]
Isolation_window: 4.0
Ion_mode: P
Num Peaks: 23
41.0385	5.9
43.0178	0.8
44.0131	2.1
45.0335	0.6
56.0495	9.5
57.0335	0.4
69.0335	0.4
70.0651	3.7
84.0443	100.0
84.0467	1.8
84.0808	1.0
85.0284	5.3
87.0041	1.2
87.0441	0.3
95.0128	0.8
102.0551	2.4
112.0394	0.4
113.0711	0.3
130.0412	0.4
130.0500	22.8
130.0864	0.5
130.1592	0.4
131.9744	0.3

Name: L-Saccharopin
PrecursorMZ: 277.14041
RT: 30.7037
ExactMass: 276.13213636
Spectrum_type: 2
charge: 1
Formula: C11H20N2O6
SMILES: C(CCNC(CCC(=O)O)C(=O)O)CC(C(=O)O)N
Method: HCD
Collision_energy: [28.333334]
Isolation_window: 4.0
Ion_mode: P
Num Peaks: 20
56.0495	1.0
67.0542	0.6
84.0444	1.2
84.0807	100.0
84.0834	0.7
85.0284	0.6
85.0648	0.6
102.0551	0.6
130.0500	0.8
130.0863	45.6
148.0606	1.1
167.1180	0.6
168.1020	1.2
195.1129	5.2
213.1235	34.6
214.1075	2.3
231.1342	3.9
259.1292	13.7
277.1190	0.6
277.1398	14.2

Name: L-Threonine
PrecursorMZ: 120.06574
RT: 5.7014
ExactMass: 119.058243149
Spectrum_type: 2
charge: 1
Formula: C4H9NO3
SMILES: C[C@H]([C@@H](C(=O)O)N)O
Method: HCD
Collision_energy: [28.333334]
Isolation_window: 4.0
Ion_mode: P
Num Peaks: 12
42.0338	4.7
45.0335	26.4
56.0494	75.0
57.0335	5.8
58.0651	82.2
72.0808	7.2
74.0600	76.2
76.0757	4.0
102.0550	18.8
102.0914	58.6
120.0656	5.3
120.1020	100.0

Name: L-Tyrosyl-L-leucine
PrecursorMZ: 295.16621
RT: 32.1153
ExactMass: 294.15795719
Spectrum_type: 2
charge: 1
Formula: C15H22N2O4
SMILES: CC(C)C[C@@H](C(=O)O)NC(=O)[C@H](CC1=CC=C(C=C1)O)N
Method: HCD
Collision_energy: [28.333334]
Isolation_window: 4.0
Ion_mode: P
Num Peaks: 14
86.0964	3.6
91.0542	4.5
119.0492	6.4
121.0648	2.6
130.0864	0.9
132.1020	2.3
136.0729	0.8
136.0756	100.0
136.0819	0.9
147.0442	0.7
249.1601	1.4
250.1438	0.9
278.1390	1.4
295.1654	5.4

Name: L-Valine
PrecursorMZ: 118.08627
RT: 5.1245
ExactMass: 117.078978594
Spectrum_type: 2
charge: 1
Formula: C5H11NO2
SMILES: CC(C)[C@@H](C(=O)O)N
Method: HCD
Collision_energy: [28.333334]
Isolation_window: 4.0
Ion_mode: P
Num Peaks: 32
42.0339	0.1
44.0495	0.2
45.0335	0.1
53.0386	0.8
55.0517	0.1
55.0542	28.6
55.0565	0.2
56.0495	0.4
57.0336	0.1
57.0573	2.0
58.0651	1.2
59.0492	0.7
59.0729	1.7
70.0652	0.8
71.0686	0.1
72.0666	0.0
72.0722	0.1
72.0766	0.2
72.0806	100.0
72.0830	1.2
72.0852	0.3
72.0884	0.1
72.0912	0.1
72.0936	0.0
73.0648	0.1
83.0492	0.1
100.0758	0.2
101.0598	0.4
118.0750	0.1
118.0775	0.1
118.0863	5.7
118.0909	0.1

Name: L-Valine, N-L-methionyl-, radical ion(1-)
PrecursorMZ: 249.12753
RT: 6.7424
ExactMass: 248.11946368
Spectrum_type: 2
charge: 1
Formula: C10H20N2O3S
SMILES: CC(C)C(C(=O)O)NC(=O)C(CCSC)N
Method: HCD
Collision_energy: [28.333334]
Isolation_window: 4.0
Ion_mode: P
Num Peaks: 11
56.0494	50.6
61.0106	19.3
72.0808	6.6
74.0600	5.7
104.0529	100.0
118.0863	4.1
155.1179	2.9
158.0999	3.0
201.1234	13.9
203.1213	3.9
249.1269	5.1

Name: L-Valyl-L-valine
PrecursorMZ: 217.15497
RT: 5.9804
ExactMass: 216.1473925
Spectrum_type: 2
charge: 1
Formula: C10H20N2O3
SMILES: CC(C)[C@@H](C(=O)N[C@@H](C(C)C)C(=O)O)N
Method: HCD
Collision_energy: [28.333334]
Isolation_window: 4.0
Ion_mode: P
Num Peaks: 12
55.0542	10.2
57.0573	0.5
70.0651	0.2
72.0778	0.2
72.0807	100.0
72.0830	1.3
72.0852	0.3
84.0808	0.2
118.0863	4.1
171.1493	1.7
217.1184	0.5
217.1548	3.5

Name: L-alanyl-L-phenylalanine
PrecursorMZ: 237.12392
RT: 8.7593
ExactMass: 236.11609238
Spectrum_type: 2
charge: 1
Formula: C12H16N2O3
SMILES: C[C@@H](C(=O)N[C@@H](CC1=CC=CC=C1)C(=O)O)N
Method: HCD
Collision_energy: [28.333334]
Isolation_window: 4.0
Ion_mode: P
Num Peaks: 16
44.0494	67.4
81.0447	6.9
95.0604	7.6
109.0760	8.9
120.0809	100.0
121.0761	53.6
137.0711	10.1
139.0867	33.1
166.0864	98.3
191.0931	7.8
191.1181	7.5
195.0517	11.2
219.0436	19.1
237.0543	58.2
237.0988	21.4
237.1238	7.4

Name: L-alpha-Aspartyl-L-proline
PrecursorMZ: 231.09793
RT: 17.9235
ExactMass: 230.09027155
Spectrum_type: 2
charge: 1
Formula: C9H14N2O5
SMILES: C1C[C@H](N(C1)C(=O)[C@H](CC(=O)O)N)C(=O)O
Method: HCD
Collision_energy: [28.333334]
Isolation_window: 4.0
Ion_mode: P
Num Peaks: 35
43.0178	1.6
46.0287	2.7
56.0495	8.4
70.0287	2.1
70.0651	43.5
74.0237	1.7
74.0600	18.5
82.0651	3.6
84.0444	38.9
88.0393	44.1
102.0550	23.7
110.0238	1.6
110.0601	7.6
112.0757	1.1
114.0550	1.4
116.0707	100.0
120.0656	38.0
125.0711	10.8
128.0707	1.9
130.0500	4.2
139.0867	1.6
140.0707	8.0
142.0500	1.5
150.0551	1.7
160.0606	1.6
167.0816	3.1
168.0656	3.4
169.0609	1.4
171.0765	29.0
185.0921	6.6
195.0765	4.5
196.0605	60.4
213.0871	19.2
214.0711	4.1
231.0977	21.3

Name: L-histidyl-L-leucine
PrecursorMZ: 269.16179
RT: 6.289
ExactMass: 268.15354051
Spectrum_type: 2
charge: 1
Formula: C12H20N4O3
SMILES: CC(C)C[C@@H](C(=O)O)NC(=O)[C@H](CC1=CN=CN1)N
Method: HCD
Collision_energy: [28.333334]
Isolation_window: 4.0
Ion_mode: P
Num Peaks: 12
83.0604	2.6
86.0965	1.4
93.0448	2.5
110.0713	100.0
138.0663	4.5
156.0769	6.8
178.1340	4.7
223.1555	11.7
251.1506	7.2
269.1137	0.8
269.1500	0.9
269.1612	20.5

Name: Legonoxamine B
PrecursorMZ: 337.17292
RT: 3.6911
ExactMass: 336.16852187
Spectrum_type: 2
charge: 1
Formula: C17H24N2O5
SMILES: C1=CC=C(C=C1)CC(=O)N(CCCCCNC(=O)CCC(=O)O)O
Method: HCD
Collision_energy: [28.333334]
Isolation_window: 4.0
Ion_mode: P
Num Peaks: 13
60.0555	5.9
70.0650	11.8
116.0706	12.8
126.0549	7.2
133.0970	5.6
158.0924	5.9
175.1188	5.8
180.0866	14.1
224.1029	16.6
319.1612	5.9
337.1394	5.3
337.1616	17.7
337.1719	100.0

Name: Lenalidomide
PrecursorMZ: 260.10399
RT: 10.8153
ExactMass: 259.09569129
Spectrum_type: 2
charge: 1
Formula: C13H13N3O3
SMILES: C1CC(=O)NC(=O)C1N2CC3=C(C2=O)C=CC=C3N
Method: HCD
Collision_energy: [28.333334]
Isolation_window: 4.0
Ion_mode: P
Num Peaks: 14
70.0650	8.0
84.0807	39.2
105.0573	10.6
113.0709	9.2
120.0444	53.4
129.1022	11.7
132.0444	9.2
141.0659	100.0
147.1129	9.5
158.0600	8.4
232.1082	46.0
243.0267	8.1
260.1034	52.8
260.1973	9.3

Name: Leu-Leu
PrecursorMZ: 245.18634
RT: 9.2774
ExactMass: 244.17869263
Spectrum_type: 2
charge: 1
Formula: C12H24N2O3
SMILES: CC(C)C[C@@H](C(=O)N[C@@H](CC(C)C)C(=O)O)N
Method: HCD
Collision_energy: [28.333334]
Isolation_window: 4.0
Ion_mode: P
Num Peaks: 67
44.0494	1.0
55.0178	0.3
55.0542	0.4
56.0494	0.2
68.0495	0.2
69.0699	7.0
70.0651	0.4
80.0496	0.2
82.0288	0.2
83.0491	0.2
84.0444	0.4
84.0808	0.2
86.0932	0.6
86.0963	100.0
86.0988	2.0
86.1015	0.3
92.0495	0.3
96.0444	0.4
97.0397	0.6
97.0478	0.2
100.0394	1.6
100.0757	1.9
101.0598	0.7
103.0543	0.2
104.0577	0.2
108.0445	0.2
110.0601	0.3
112.0394	0.3
114.0550	0.2
114.0663	0.2
118.0863	0.7
120.0445	0.7
123.0264	0.5
125.0347	5.4
132.0526	0.2
132.1020	4.3
138.0551	0.2
139.0503	0.7
139.0577	0.3
143.0452	0.2
145.0973	0.2
148.0395	1.0
151.0504	0.7
152.0457	0.3
153.0660	0.3
155.0453	4.0
163.0503	1.7
166.0500	0.7
166.0686	0.6
167.0452	2.0
167.0526	0.5
179.0452	2.0
181.0610	0.3
183.0877	0.3
184.0792	0.4
191.0452	4.9
199.0901	0.5
199.1080	0.2
199.1806	2.3
209.0558	4.2
209.0744	0.4
227.0850	13.1
245.0771	0.4
245.0957	1.3
245.1008	0.6
245.1499	5.9
245.1863	4.0

Name: Leucine enkephalin
PrecursorMZ: 336.19282
RT: 9.3422
ExactMass: 555.26929854
Spectrum_type: 2
charge: 1
Formula: C28H37N5O7
SMILES: CC(C)C[C@@H](C(=O)O)NC(=O)[C@H](CC1=CC=CC=C1)NC(=O)CNC(=O)CNC(=O)[C@H](CC2=CC=C(C=C2)O)N
Method: HCD
Collision_energy: [28.333334]
Isolation_window: 4.0
Ion_mode: P
Num Peaks: 10
86.0964	47.7
120.0808	100.0
132.1019	9.1
143.1180	77.9
166.0863	30.4
171.1129	15.1
177.1023	90.1
205.0973	16.5
211.1160	6.0
336.1655	7.7

Name: Levodopa
PrecursorMZ: 198.07648
RT: 22.6804
ExactMass: 197.06880783
Spectrum_type: 2
charge: 1
Formula: C9H11NO4
SMILES: C1=CC(=C(C=C1C[C@@H](C(=O)O)N)O)O
Method: HCD
Collision_energy: [28.333334]
Isolation_window: 4.0
Ion_mode: P
Num Peaks: 12
45.0334	1.8
70.0651	2.9
73.0284	6.1
110.0601	1.9
112.0393	19.2
126.0550	23.3
140.0343	34.6
152.0377	9.1
152.0708	2.5
154.0500	8.5
198.0398	76.4
198.0761	100.0

Name: Lycorine
PrecursorMZ: 288.12013
RT: 17.5499
ExactMass: 287.11575802
Spectrum_type: 2
charge: 1
Formula: C16H17NO4
SMILES: C1CN2CC3=CC4=C(C=C3[C@H]5[C@H]2C1=C[C@@H]([C@H]5O)O)OCO4
Method: HCD
Collision_energy: [28.333334]
Isolation_window: 4.0
Ion_mode: P
Num Peaks: 12
70.0651	8.9
87.0440	5.0
88.0757	9.2
95.0604	7.9
106.0863	17.2
110.0713	21.7
227.1027	5.6
227.2004	4.7
242.1138	57.5
288.1085	4.9
288.1193	100.0
288.2033	5.8

Name: Methionine Sulfoxide
PrecursorMZ: 166.05331
RT: 3.4810666666666665
ExactMass: 165.04596439
Spectrum_type: 2
charge: 1
Formula: C5H11NO3S
SMILES: CS(=O)CC[C@@H](C(=O)O)N
Method: HCD
Collision_energy: [28.333334]
Isolation_window: 4.0
Ion_mode: P
Num Peaks: 36
44.0495	0.3
46.9950	0.4
56.0494	40.8
56.0516	0.2
57.0209	0.2
57.0335	0.8
58.0651	0.9
61.0107	0.8
62.9900	0.3
65.0056	1.8
68.0257	0.2
74.0189	0.1
74.0207	0.2
74.0236	100.0
74.0260	1.1
74.0290	0.2
74.0601	4.4
75.0263	20.6
75.0283	0.3
75.0315	0.5
83.0129	0.2
84.0445	1.2
85.0285	0.8
86.0363	0.2
88.0394	0.1
102.0374	0.2
102.0550	20.7
102.0589	0.1
120.0480	0.2
120.0809	0.6
121.0320	0.8
131.0164	0.6
148.0431	0.3
149.0269	14.0
166.0535	10.9
166.0865	0.4

Name: Methionyl-Leucine
PrecursorMZ: 263.14329
RT: 8.3682
ExactMass: 262.13511374
Spectrum_type: 2
charge: 1
Formula: C11H22N2O3S
SMILES: CC(C)C[C@@H](C(=O)O)NC(=O)[C@H](CCSC)N
Method: HCD
Collision_energy: [28.333334]
Isolation_window: 4.0
Ion_mode: P
Num Peaks: 20
56.0494	53.9
61.0106	19.3
70.0651	3.4
74.0600	5.5
86.0964	10.8
104.0528	100.0
116.0706	16.6
120.0808	16.6
132.1020	7.0
164.9205	2.4
169.1336	2.6
172.1155	4.0
198.1125	2.0
215.1391	9.9
217.1370	4.7
245.1037	2.0
246.0764	2.4
263.1144	3.7
263.1400	2.1
263.1426	6.4

Name: Methyl 2-((4-hydroxyphenyl)methylidene)-3-oxo-1-benzofuran-5-carboxylate
PrecursorMZ: 297.07597
RT: 8.5772
ExactMass: 296.06847348
Spectrum_type: 2
charge: 1
Formula: C17H12O5
SMILES: COC(=O)C1=CC2=C(C=C1)OC(=CC3=CC=C(C=C3)O)C2=O
Method: HCD
Collision_energy: [28.333334]
Isolation_window: 4.0
Ion_mode: P
Num Peaks: 8
134.0840	8.5
163.0867	57.3
179.0817	6.5
181.0973	22.6
199.1079	33.4
261.0544	12.5
279.0650	17.6
297.0754	100.0

Name: Methyl 8-acetyl-12-ethyl-8,16-diazapentacyclo(10.6.1.01,9.02,7.016,19)nonadeca-2,4,6-triene-10-carboxylate
PrecursorMZ: 383.23006
RT: 11.9042
ExactMass: 382.22564282
Spectrum_type: 2
charge: 1
Formula: C23H30N2O3
SMILES: CCC12CCCN3C1C4(CC3)C(C(C2)C(=O)OC)N(C5=CC=CC=C45)C(=O)C
Method: HCD
Collision_energy: [28.333334]
Isolation_window: 4.0
Ion_mode: P
Num Peaks: 7
84.0808	76.2
130.0864	25.3
191.1179	16.4
236.1396	22.7
237.1236	14.7
254.1503	30.5
383.2291	100.0

Name: Methyl Nicotinate
PrecursorMZ: 138.05514
RT: 8.8486
ExactMass: 137.047678466
Spectrum_type: 2
charge: 1
Formula: C7H7NO2
SMILES: COC(=O)C1=CN=CC=C1
Method: HCD
Collision_energy: [28.333334]
Isolation_window: 4.0
Ion_mode: P
Num Peaks: 10
41.0385	5.9
42.0338	7.3
43.0178	5.2
68.0494	5.8
69.0334	29.5
82.0651	11.0
96.0444	100.0
97.0284	5.6
110.0601	4.5
138.0550	65.7

Name: Monomethyl glutarate
PrecursorMZ: 129.05513
RT: 2.1435
ExactMass: 146.0579088
Spectrum_type: 2
charge: 1
Formula: C6H10O4
SMILES: COC(=O)CCCC(=O)O
Method: HCD
Collision_energy: [28.333334]
Isolation_window: 4.0
Ion_mode: P
Num Peaks: 14
43.0178	52.7
45.0335	16.9
53.0385	22.1
55.0178	71.9
55.0542	100.0
57.0335	95.8
61.0284	15.7
69.0335	66.0
71.0491	19.4
83.0491	80.4
85.0284	56.3
111.0441	27.6
129.0547	20.1
129.1024	21.1

Name: N(delta)-(5-Methyl-4-oxo-2-imidazolin-2-yl)ornithine
PrecursorMZ: 229.1302
RT: 4.2396
ExactMass: 228.12224039
Spectrum_type: 2
charge: 1
Formula: C9H16N4O3
SMILES: CC1C(=O)NC(=NCCC[C@@H](C(=O)O)N)N1
Method: HCD
Collision_energy: [28.333334]
Isolation_window: 4.0
Ion_mode: P
Num Peaks: 21
44.0495	4.2
69.0699	2.3
70.0651	100.0
70.0673	1.0
72.0808	1.6
86.0713	3.2
110.0237	2.0
114.0662	32.8
116.0707	27.5
138.1027	2.7
141.1024	3.0
142.0863	1.0
166.0864	2.9
166.0976	22.9
168.1132	1.2
184.1081	6.6
211.1190	2.3
212.1031	6.0
229.1185	2.8
229.1297	37.1
229.1548	7.7

Name: N,N-dimethyl-proline-proline betaine
PrecursorMZ: 241.15549
RT: 2.137
Spectrum_type: 2
charge: 1
SMILES: O=C(N1C(C(O)=O)CCC1)C2CCC[N+]2(C)C
Method: HCD
Collision_energy: [28.333334]
Isolation_window: 4.0
Ion_mode: P
Num Peaks: 22
45.0334	5.0
57.0334	21.1
58.0651	6.5
69.0334	3.3
70.0651	4.4
75.0440	19.6
81.0334	2.1
84.0808	2.5
87.0440	4.3
93.0546	2.3
97.0284	2.6
128.1071	3.3
131.0702	5.5
132.1019	6.0
149.0808	4.1
177.1021	2.3
181.0972	2.4
196.0968	3.7
223.1080	3.1
241.1183	14.5
241.1284	3.7
241.1548	100.0

Name: N-((2R,3R,4R,5R)-3,4,5,6-Tetrahydroxy-1-oxohexan-2-yl)acetamide
PrecursorMZ: 204.08688
RT: 2.3811
ExactMass: 221.0899372
Spectrum_type: 2
charge: 1
Formula: C8H15NO6
SMILES: CC(=O)N[C@@H](C=O)[C@H]([C@H]([C@@H](CO)O)O)O
Method: HCD
Collision_energy: [28.333334]
Isolation_window: 4.0
Ion_mode: P
Num Peaks: 80
42.0339	0.2
43.0179	1.7
44.0495	0.5
45.0335	0.3
53.0386	1.8
55.0179	1.4
55.0543	1.4
56.0495	2.9
57.0336	0.2
58.0288	0.2
60.0444	10.6
61.0284	6.0
68.0495	2.3
69.0336	4.5
70.0288	0.3
70.0652	3.1
71.0492	1.2
72.0445	2.5
73.0285	0.9
80.0496	4.0
81.0336	6.5
82.0289	0.5
82.0652	1.1
83.0129	1.1
83.0367	0.2
83.0493	1.1
84.0415	0.6
84.0444	85.3
84.0469	1.6
84.0491	0.2
85.0285	0.9
86.0602	0.4
88.0394	0.8
96.0445	27.5
96.0481	0.2
97.0285	10.3
97.0524	0.9
98.0238	0.5
98.0319	0.7
98.0601	22.8
99.0442	3.0
100.0395	0.7
101.0235	0.6
103.0393	0.3
108.0446	3.2
109.0286	7.6
110.0602	0.7
114.0551	1.9
114.0663	1.8
116.0708	1.1
122.0603	0.5
124.0396	1.3
126.0466	0.2
126.0496	0.7
126.0550	86.9
126.0603	0.7
127.0392	4.7
134.0815	0.2
138.0433	0.2
138.0454	0.2
138.0488	0.8
138.0549	100.0
138.0613	0.6
138.0650	0.2
140.0709	0.6
144.0591	0.3
144.0656	48.3
145.0498	0.2
150.0552	0.9
156.0658	0.4
158.1291	0.5
162.0763	0.6
168.0657	12.9
186.0763	8.7
186.0874	0.5
204.0690	0.4
204.0869	5.6
204.0981	1.8
204.1023	0.3
204.1345	1.2

Name: N-(1,3-benzodioxol-5-yl)-6-(3-methylpiperidin-1-yl)(1,2,5)oxadiazolo(3,4-b)pyrazin-5-amine
PrecursorMZ: 355.15114
RT: 31.7122
ExactMass: 354.14403846
Spectrum_type: 2
charge: 1
Formula: C17H18N6O3
SMILES: CC1CCCN(C1)C2=NC3=NON=C3N=C2NC4=CC5=C(C=C4)OCO5
Method: HCD
Collision_energy: [28.333334]
Isolation_window: 4.0
Ion_mode: P
Num Peaks: 8
55.0542	8.3
101.0598	9.7
237.0872	57.0
255.0979	100.0
337.1398	14.2
355.1139	4.9
355.1503	84.0
355.2634	5.0

Name: N-(2,6-Dimethylphenyl)-2-hydroxyacetamide
PrecursorMZ: 180.10207
RT: 10.997
ExactMass: 179.094628657
Spectrum_type: 2
charge: 1
Formula: C10H13NO2
SMILES: CC1=C(C(=CC=C1)C)NC(=O)CO
Method: HCD
Collision_energy: [28.333334]
Isolation_window: 4.0
Ion_mode: P
Num Peaks: 11
106.0652	2.0
107.0730	2.4
110.0965	4.5
120.0809	27.1
121.0887	26.0
134.0965	3.9
135.1044	1.6
136.1122	3.8
138.0915	16.2
162.0915	6.9
180.1020	100.0

Name: N-(4-((2-chloro-6-fluorobenzyl)oxy)-3-methoxybenzyl)-1-azabicyclo(2.2.2)octan-3-amine
PrecursorMZ: 405.17412
RT: 16.1547
ExactMass: 404.1666839
Spectrum_type: 2
charge: 1
Formula: C22H26ClFN2O2
SMILES: COC1=C(C=CC(=C1)CNC2CN3CCC2CC3)OCC4=C(C=CC=C4Cl)F
Method: HCD
Collision_energy: [28.333334]
Isolation_window: 4.0
Ion_mode: P
Num Peaks: 4
70.0650	12.3
175.1189	46.7
290.1462	44.3
405.1730	100.0

Name: N-(N-L-Leucylglycyl)-L-leucine
PrecursorMZ: 302.20843
RT: 5.6227
ExactMass: 301.20015635
Spectrum_type: 2
charge: 1
Formula: C14H27N3O4
SMILES: CC(C)C[C@@H](C(=O)NCC(=O)N[C@@H](CC(C)C)C(=O)O)N
Method: HCD
Collision_energy: [28.333334]
Isolation_window: 4.0
Ion_mode: P
Num Peaks: 8
70.0651	2.9
75.0553	3.2
86.0964	77.7
132.1020	15.1
143.1180	100.0
171.1129	21.1
210.0874	2.9
302.1354	5.5

Name: N-(carboxymethyl)valine
PrecursorMZ: 176.09179
RT: 21.8687
ExactMass: 175.0844579
Spectrum_type: 2
charge: 1
Formula: C7H13NO4
SMILES: CC(C)C(C(=O)O)NCC(=O)O
Method: HCD
Collision_energy: [28.333334]
Isolation_window: 4.0
Ion_mode: P
Num Peaks: 12
42.0338	1.4
55.0542	5.2
56.0494	4.4
67.0542	1.9
70.0651	2.3
82.0651	2.5
84.0807	66.9
102.0914	4.6
128.0707	2.6
130.0749	2.4
130.0863	100.0
176.0919	2.4

Name: N-ACETYL-beta-D-GLUCOSAMINE
PrecursorMZ: 222.09782
RT: 2.3394500000000003
ExactMass: 221.0899372
Spectrum_type: 2
charge: 1
Formula: C8H15NO6
SMILES: CC(=O)N[C@@H]1[C@H]([C@@H]([C@H](O[C@H]1O)CO)O)O
Method: HCD
Collision_energy: [28.333334]
Isolation_window: 4.0
Ion_mode: P
Num Peaks: 48
43.0179	3.6
44.0495	0.5
53.0386	0.8
55.0179	0.7
55.0542	1.1
56.0495	1.5
60.0444	8.2
61.0284	5.1
68.0495	1.4
69.0335	2.0
70.0652	1.5
71.0492	0.5
72.0444	2.0
73.0284	0.5
80.0495	1.7
81.0335	3.0
83.0493	0.8
84.0420	0.5
84.0444	70.6
84.0469	0.5
85.0285	1.4
96.0445	12.3
97.0285	5.2
98.0601	12.4
99.0442	1.8
100.0395	0.4
108.0445	1.9
109.0285	3.8
114.0551	1.8
116.0708	0.7
122.0966	1.0
124.0395	0.8
126.0495	0.6
126.0524	0.6
126.0550	100.0
126.0605	0.5
127.0391	3.4
138.0489	0.5
138.0550	79.6
144.0657	34.1
150.0553	0.6
162.0763	1.5
168.0657	15.5
186.0762	14.1
204.0868	17.7
222.0972	0.8
222.1127	5.2
222.1491	2.0

Name: N-Acetyl-D-Galactosamine
PrecursorMZ: 186.07628
RT: 2.3864
ExactMass: 221.0899372
Spectrum_type: 2
charge: 1
Formula: C8H15NO6
SMILES: CC(=O)N[C@@H]1[C@H]([C@H]([C@H](OC1O)CO)O)O
Method: HCD
Collision_energy: [28.333334]
Isolation_window: 4.0
Ion_mode: P
Num Peaks: 55
41.0386	0.9
42.0338	1.0
43.0178	7.3
44.0495	2.2
45.0335	0.7
53.0386	3.7
55.0178	2.3
55.0542	3.1
56.0495	3.6
60.0444	12.5
61.0284	1.8
68.0495	4.2
69.0335	7.1
70.0651	5.3
71.0492	1.6
72.0444	3.1
73.0285	1.4
80.0495	6.1
81.0335	8.5
82.0288	0.8
82.0652	1.3
83.0128	1.9
83.0492	2.0
84.0444	13.0
85.0285	1.0
86.0601	0.8
96.0445	35.5
97.0285	13.0
97.0523	1.4
98.0238	0.7
98.0601	28.7
99.0442	4.4
100.0394	1.1
101.0235	0.8
108.0445	4.2
109.0285	9.1
110.0602	0.9
114.0551	2.2
114.0663	4.3
116.0708	1.8
122.0602	0.7
124.0395	1.8
126.0551	40.2
127.0391	6.6
138.0486	0.6
138.0550	100.0
138.0613	0.6
144.0657	59.2
150.0552	0.9
156.0657	0.6
168.0657	12.3
186.0762	19.6
186.0874	1.2
186.1126	0.6
186.1238	2.3

Name: N-Acetyl-D-Mannosamine
PrecursorMZ: 204.08683
RT: 2.5349
ExactMass: 221.0899372
Spectrum_type: 2
charge: 1
Formula: C8H15NO6
SMILES: CC(=O)N[C@H]1[C@H]([C@@H]([C@H](OC1O)CO)O)O
Method: HCD
Collision_energy: [28.333334]
Isolation_window: 4.0
Ion_mode: P
Num Peaks: 67
43.0178	1.6
44.0495	0.4
45.0336	0.2
53.0386	1.7
55.0179	1.3
55.0543	1.3
56.0495	2.6
60.0444	10.4
61.0284	5.2
68.0495	2.3
69.0335	4.2
70.0652	2.8
71.0492	1.2
72.0444	2.3
73.0285	0.9
80.0495	3.8
81.0335	6.0
82.0289	0.5
82.0652	0.9
83.0129	1.1
83.0493	1.1
84.0415	0.4
84.0444	63.9
84.0469	0.9
85.0285	1.0
86.0602	0.4
88.0394	0.5
96.0445	26.4
97.0285	10.4
97.0524	0.6
98.0239	0.4
98.0320	0.5
98.0601	22.2
99.0442	3.1
100.0395	0.7
101.0236	0.6
103.0393	0.2
108.0446	3.1
109.0285	7.5
110.0602	0.6
114.0551	1.8
114.0663	1.3
116.0708	1.0
122.0604	0.5
124.0396	1.4
126.0497	0.6
126.0550	74.9
126.0605	0.3
127.0392	5.2
138.0489	0.9
138.0550	100.0
138.0614	0.4
140.0709	0.5
144.0589	0.3
144.0657	48.0
145.0499	0.2
150.0554	0.8
156.0659	0.4
158.1292	0.3
162.0764	0.6
168.0657	12.9
186.0762	8.8
186.0875	0.3
204.0690	0.3
204.0869	5.1
204.0981	1.9
204.1345	0.7

Name: N-Acetyl-L-Aspartic Acid
PrecursorMZ: 176.05558
RT: 20.374966666666666
ExactMass: 175.04807239
Spectrum_type: 2
charge: 1
Formula: C6H9NO5
SMILES: CC(=O)N[C@@H](CC(=O)O)C(=O)O
Method: HCD
Collision_energy: [28.333334]
Isolation_window: 4.0
Ion_mode: P
Num Peaks: 20
43.0178	17.7
46.0287	13.2
55.0178	4.6
60.0443	5.2
70.0287	7.3
70.0651	7.3
74.0236	51.7
75.0269	5.0
84.0444	15.5
84.0808	5.4
88.0393	100.0
89.0426	7.3
101.0234	6.6
112.0393	10.4
113.0710	4.6
116.0343	26.4
130.0499	15.5
130.0863	6.7
134.0449	62.8
158.0449	9.8

Name: N-Acetyl-L-arginine
PrecursorMZ: 217.13027
RT: 2.2696
ExactMass: 216.12224039
Spectrum_type: 2
charge: 1
Formula: C8H16N4O3
SMILES: CC(=O)N[C@@H](CCCN=C(N)N)C(=O)O
Method: HCD
Collision_energy: [28.333334]
Isolation_window: 4.0
Ion_mode: P
Num Peaks: 19
60.0556	9.0
70.0651	47.2
71.0491	9.8
72.0807	9.7
97.0284	10.3
112.0757	14.9
112.0869	11.4
113.0709	9.9
115.0866	20.0
116.0706	27.7
157.0972	25.2
158.0813	65.7
158.0925	17.3
175.1190	16.2
199.1077	9.0
200.1030	19.9
217.0973	9.8
217.1183	22.0
217.1296	100.0

Name: N-Acetyl-L-glutamic acid
PrecursorMZ: 190.07121
RT: 19.2939
ExactMass: 189.06372245
Spectrum_type: 2
charge: 1
Formula: C7H11NO5
SMILES: CC(=O)N[C@@H](CCC(=O)O)C(=O)O
Method: HCD
Collision_energy: [28.333334]
Isolation_window: 4.0
Ion_mode: P
Num Peaks: 13
55.0178	28.2
70.0651	8.2
84.0444	100.0
88.0393	11.2
100.0757	13.7
101.0234	9.4
112.0393	8.3
126.0550	61.9
130.0499	84.1
144.0656	55.4
154.0500	29.8
172.0605	18.1
190.0710	10.3

Name: N-Acetyl-L-proline
PrecursorMZ: 158.08163
RT: 4.7016
ExactMass: 157.07389321
Spectrum_type: 2
charge: 1
Formula: C7H11NO3
SMILES: CC(=O)N1CCC[C@H]1C(=O)O
Method: HCD
Collision_energy: [28.333334]
Isolation_window: 4.0
Ion_mode: P
Num Peaks: 16
68.0494	9.6
70.0650	84.4
71.0684	28.3
84.0443	23.6
84.0807	11.1
94.0651	17.6
98.0600	100.0
112.0757	74.8
112.0869	11.7
116.0706	19.2
117.0740	27.0
140.0706	38.1
158.0812	44.4
158.0924	17.1
158.0964	23.7
158.1176	18.5

Name: N-Acetyl-L-tyrosine
PrecursorMZ: 224.09227
RT: 31.1953
ExactMass: 223.0844579
Spectrum_type: 2
charge: 1
Formula: C11H13NO4
SMILES: CC(=O)N[C@@H](CC1=CC=C(C=C1)O)C(=O)O
Method: HCD
Collision_energy: [28.333334]
Isolation_window: 4.0
Ion_mode: P
Num Peaks: 17
55.0542	2.1
58.0651	2.8
79.0542	3.4
91.0543	2.7
93.0699	8.6
105.0699	2.7
108.0445	2.8
121.0649	3.7
126.0551	1.9
132.0809	27.7
151.0755	2.3
162.0550	2.4
165.0547	7.8
178.0863	100.0
206.0813	11.9
224.0919	25.2
224.1283	16.4

Name: N-Acetyl-alpha-aspartylglutamic acid
PrecursorMZ: 305.09895
RT: 31.8605
ExactMass: 304.09066547
Spectrum_type: 2
charge: 1
Formula: C11H16N2O8
SMILES: CC(=O)NC(CC(=O)O)C(=O)NC(CCC(=O)O)C(=O)O
Method: HCD
Collision_energy: [28.333334]
Isolation_window: 4.0
Ion_mode: P
Num Peaks: 10
70.0287	54.7
84.0444	57.3
88.0393	61.1
102.0550	96.2
130.0499	100.0
148.0606	91.0
158.0449	42.9
180.1020	24.9
217.0821	19.5
263.0878	20.0

Name: N-Acetylmannosamine
PrecursorMZ: 222.09768
RT: 2.6143
ExactMass: 221.0899372
Spectrum_type: 2
charge: 1
Formula: C8H15NO6
SMILES: CC(=O)N[C@H](C=O)[C@H]([C@@H]([C@@H](CO)O)O)O
Method: HCD
Collision_energy: [28.333334]
Isolation_window: 4.0
Ion_mode: P
Num Peaks: 34
43.0178	2.9
55.0542	1.1
56.0495	1.7
60.0444	5.7
61.0284	3.7
68.0494	1.1
69.0335	1.5
70.0651	1.0
72.0444	1.4
80.0495	1.2
81.0335	2.2
84.0444	76.3
84.0466	1.0
85.0284	1.4
96.0444	9.8
97.0285	3.5
98.0601	9.1
99.0442	1.3
108.0445	1.5
109.0285	3.0
114.0550	2.2
122.0965	0.9
124.0395	0.8
126.0550	100.0
127.0391	2.7
138.0550	59.1
144.0657	23.9
162.0763	0.9
168.0656	10.6
186.0762	8.7
204.0868	11.9
222.0973	0.8
222.1126	4.8
222.1490	1.7

Name: N-Acetyltryptophan
PrecursorMZ: 247.10845
RT: 33.783
ExactMass: 246.10044231
Spectrum_type: 2
charge: 1
Formula: C13H14N2O3
SMILES: CC(=O)NC(CC1=CNC2=CC=CC=C21)C(=O)O
Method: HCD
Collision_energy: [28.333334]
Isolation_window: 4.0
Ion_mode: P
Num Peaks: 17
129.0700	6.1
130.0652	10.0
132.0809	6.4
144.0809	11.7
146.0602	9.8
156.0809	100.0
160.0759	5.1
168.0808	5.0
170.0602	11.1
174.0915	17.6
184.0758	9.5
188.0708	14.1
202.0865	6.1
212.0707	5.0
229.0975	7.5
230.0815	26.6
247.1082	9.7

Name: N-Glycyl-L-isoleucine
PrecursorMZ: 189.12354
RT: 5.3494
ExactMass: 188.11609238
Spectrum_type: 2
charge: 1
Formula: C8H16N2O3
SMILES: CC[C@H](C)[C@@H](C(=O)O)NC(=O)CN
Method: HCD
Collision_energy: [28.333334]
Isolation_window: 4.0
Ion_mode: P
Num Peaks: 15
41.0386	0.5
44.0494	2.4
69.0699	6.8
72.0808	1.2
75.0553	13.9
84.0808	2.0
86.0964	100.0
86.0989	1.2
129.1024	0.9
130.0864	0.5
132.1020	35.8
143.1180	41.4
143.1262	0.8
171.1130	0.8
189.1234	2.5

Name: N-Methylphenylalanine
PrecursorMZ: 180.10213
RT: 9.3236
ExactMass: 179.094628657
Spectrum_type: 2
charge: 1
Formula: C10H13NO2
SMILES: CN[C@@H](CC1=CC=CC=C1)C(=O)O
Method: HCD
Collision_energy: [28.333334]
Isolation_window: 4.0
Ion_mode: P
Num Peaks: 9
79.0542	2.3
103.0543	2.9
105.0699	2.3
107.0492	2.6
119.0730	9.9
134.0965	100.0
135.0442	3.4
180.0656	2.4
180.1020	14.5

Name: N-Methyltyrosine
PrecursorMZ: 196.09721
RT: 25.978
ExactMass: 195.08954328
Spectrum_type: 2
charge: 1
Formula: C10H13NO3
SMILES: CNC(CC1=CC=C(C=C1)O)C(=O)O
Method: HCD
Collision_energy: [28.333334]
Isolation_window: 4.0
Ion_mode: P
Num Peaks: 9
80.0495	14.8
95.0492	10.1
119.0493	22.6
123.0442	44.6
147.0443	20.1
150.0915	100.0
165.0548	41.5
196.0606	47.7
196.0971	20.9

Name: N-Valylphenylalanine
PrecursorMZ: 265.15572
RT: 12.7226
ExactMass: 264.1473925
Spectrum_type: 2
charge: 1
Formula: C14H20N2O3
SMILES: CC(C)C(C(=O)NC(CC1=CC=CC=C1)C(=O)O)N
Method: HCD
Collision_energy: [28.333334]
Isolation_window: 4.0
Ion_mode: P
Num Peaks: 10
55.0542	1.1
72.0807	16.2
93.0699	0.6
103.0543	1.3
118.0863	2.7
120.0807	100.0
120.0859	0.7
166.0864	1.5
219.1493	2.4
265.1551	4.2

Name: N-acetylglutamic acid
PrecursorMZ: 190.07127
RT: 19.8836
ExactMass: 189.06372245
Spectrum_type: 2
charge: 1
Formula: C7H11NO5
SMILES: CC(=O)NC(CCC(=O)O)C(=O)O
Method: HCD
Collision_energy: [28.333334]
Isolation_window: 4.0
Ion_mode: P
Num Peaks: 24
43.0178	3.9
44.0494	3.4
56.0494	2.1
73.0283	1.3
76.0393	1.3
84.0444	66.5
84.0808	2.2
85.0284	1.2
85.0478	1.2
86.0600	2.4
90.0550	1.9
98.0601	2.1
98.0964	9.1
101.0233	3.5
102.0550	22.4
126.0550	6.5
130.0499	100.0
144.0656	4.9
144.1020	13.1
148.0606	15.7
154.0500	2.6
172.0605	2.2
190.0711	1.5
190.1074	1.2

Name: N-acetylmuramic acid
PrecursorMZ: 294.11925
RT: 8.749475
ExactMass: 293.11106656
Spectrum_type: 2
charge: 1
Formula: C11H19NO8
SMILES: C[C@H](C(=O)O)O[C@H]([C@H](C=O)NC(=O)C)[C@@H]([C@@H](CO)O)O
Method: HCD
Collision_energy: [28.333334]
Isolation_window: 4.0
Ion_mode: P
Num Peaks: 23
60.0444	1.4
61.0284	0.7
69.0335	0.7
80.0495	0.7
81.0335	1.8
84.0444	13.4
96.0444	5.7
97.0285	2.2
98.0601	7.3
99.0441	1.0
109.0285	3.3
114.0550	0.9
126.0550	37.1
127.0391	2.0
138.0486	0.6
138.0549	100.0
138.0607	0.7
144.0656	24.3
168.0656	26.4
186.0762	22.0
258.1342	0.6
276.1081	11.3
276.1446	1.0

Name: N-acetylornithine
PrecursorMZ: 175.10793
RT: 3.6216
ExactMass: 174.10044231
Spectrum_type: 2
charge: 1
Formula: C7H14N2O3
SMILES: CC(=O)N[C@@H](CCCN)C(=O)O
Method: HCD
Collision_energy: [28.333334]
Isolation_window: 4.0
Ion_mode: P
Num Peaks: 36
43.0178	4.4
44.0494	0.7
46.0651	1.1
56.0495	0.8
57.0334	0.6
60.0444	2.6
70.0651	100.0
70.0673	0.9
71.0492	9.3
72.0808	0.8
74.0237	5.7
84.0444	1.6
84.0808	3.4
86.0601	1.9
87.0918	0.8
88.0394	0.8
88.0758	4.1
97.0761	2.0
98.0601	4.4
99.0442	0.8
100.0758	2.1
101.0711	1.3
111.0918	1.6
112.0758	41.3
115.0867	76.4
115.0908	0.6
116.0707	34.6
129.1024	2.6
130.0500	1.6
130.0864	1.3
133.0973	3.2
139.0868	5.6
140.0708	1.4
157.0974	8.7
158.0814	26.1
175.1079	10.8

Name: N-cycloheptyl-3,4-dimethoxybenzamide
PrecursorMZ: 300.15634
RT: 3.463
ExactMass: 277.1677936
Spectrum_type: 2
charge: 1
Formula: C16H23NO3
SMILES: COC1=C(C=C(C=C1)C(=O)NC2CCCCCC2)OC
Method: HCD
Collision_energy: [28.333334]
Isolation_window: 4.0
Ion_mode: P
Num Peaks: 23
55.0542	8.0
56.0495	1.8
62.0600	1.4
70.0651	4.5
83.0491	3.4
84.0444	2.3
101.0597	7.5
113.0710	3.2
116.0707	14.6
122.0601	2.1
141.0659	2.6
157.0973	3.0
173.0921	4.7
182.0812	2.2
185.0921	4.3
199.1078	8.6
200.0918	22.4
256.1295	2.7
282.1337	2.3
300.1080	1.9
300.1442	100.0
300.1546	3.6
300.1643	3.6

Name: N-methyl-D-aspartic acid
PrecursorMZ: 148.0605
RT: 19.6937
ExactMass: 147.05315777
Spectrum_type: 2
charge: 1
Formula: C5H9NO4
SMILES: CN[C@H](CC(=O)O)C(=O)O
Method: HCD
Collision_energy: [28.333334]
Isolation_window: 4.0
Ion_mode: P
Num Peaks: 33
41.0386	0.0
43.0178	0.6
46.0287	1.3
56.0495	9.0
56.0516	0.0
57.0336	0.2
70.0287	0.3
71.0129	0.1
74.0238	0.1
74.0601	0.0
84.0354	0.0
84.0379	0.1
84.0404	0.1
84.0443	100.0
84.0466	2.7
84.0493	0.2
84.0529	0.1
84.0563	0.0
85.0285	2.7
88.0392	20.4
88.0417	0.4
102.0509	0.1
102.0550	20.3
102.0586	0.2
102.0615	0.1
103.0392	0.0
113.0236	0.0
130.0442	0.1
130.0499	13.7
130.0558	0.1
131.0342	0.3
148.0607	4.0
148.0969	0.1

Name: N-methyl-L-tryptophan
PrecursorMZ: 188.07066
RT: 23.7707
ExactMass: 218.105527694
Spectrum_type: 2
charge: 1
Formula: C12H14N2O2
SMILES: CN[C@@H](CC1=CNC2=CC=CC=C21)C(=O)O
Method: HCD
Collision_energy: [28.333334]
Isolation_window: 4.0
Ion_mode: P
Num Peaks: 21
91.0542	2.3
96.0808	0.6
115.0543	4.2
117.0574	1.0
117.0700	3.8
118.0651	57.6
118.0695	0.5
132.0809	0.8
142.0653	5.0
142.0864	1.1
143.0731	9.8
144.0446	1.0
144.0809	25.4
145.0649	0.9
146.0546	0.8
146.0600	100.0
146.0669	0.6
155.0606	1.1
160.0758	1.4
170.0601	9.1
188.0706	31.8

Name: Nicotianamine
PrecursorMZ: 304.15129
RT: 29.8213
ExactMass: 303.1430354
Spectrum_type: 2
charge: 1
Formula: C12H21N3O6
SMILES: C1CN([C@@H]1C(=O)O)CC[C@@H](C(=O)O)NCC[C@@H](C(=O)O)N
Method: HCD
Collision_energy: [28.333334]
Isolation_window: 4.0
Ion_mode: P
Num Peaks: 28
56.0495	3.7
58.0651	3.3
70.0651	4.2
86.0601	3.8
100.0757	11.2
102.0550	4.5
114.0550	29.7
124.0758	3.5
139.0866	2.3
141.1023	9.0
142.0863	4.6
145.0973	3.2
157.0973	5.4
168.1132	3.2
185.0921	100.0
186.0762	5.3
196.1081	5.1
203.1026	4.4
214.1187	3.0
215.1028	2.5
240.1344	6.3
258.1127	2.5
258.1322	4.7
258.1451	2.7
268.1295	3.3
286.1400	55.3
304.1182	2.3
304.1505	11.2

Name: N~6~,N~6~-diethyl-1-methyl-N~4~-phenyl-1H-pyrazolo(3,4-d)pyrimidine-4,6-diamine
PrecursorMZ: 297.1818
RT: 3.0141
ExactMass: 296.17494466
Spectrum_type: 2
charge: 1
Formula: C16H20N6
SMILES: CCN(CC)C1=NC(=C2C=NN(C2=N1)C)NC3=CC=CC=C3
Method: HCD
Collision_energy: [28.333334]
Isolation_window: 4.0
Ion_mode: P
Num Peaks: 10
55.0542	3.9
83.0491	2.5
97.0760	10.4
101.0597	4.3
151.0867	1.7
197.0921	3.1
197.1285	14.4
297.1447	14.4
297.1543	2.5
297.1811	100.0

Name: Oxaceprol
PrecursorMZ: 174.07626
RT: 20.0181
ExactMass: 173.06880783
Spectrum_type: 2
charge: 1
Formula: C7H11NO4
SMILES: CC(=O)N1C[C@@H](C[C@H]1C(=O)O)O
Method: HCD
Collision_energy: [28.333334]
Isolation_window: 4.0
Ion_mode: P
Num Peaks: 6
68.0494	28.1
82.0651	8.7
114.0550	100.0
128.0707	49.3
174.0550	2.4
174.0762	32.9

Name: Oxadiazon
PrecursorMZ: 345.0762
RT: 34.1095
ExactMass: 344.0694478
Spectrum_type: 2
charge: 1
Formula: C15H18Cl2N2O3
SMILES: CC(C)OC1=C(C=C(C(=C1)N2C(=O)OC(=N2)C(C)(C)C)Cl)Cl
Method: HCD
Collision_energy: [28.333334]
Isolation_window: 4.0
Ion_mode: P
Num Peaks: 4
126.0551	11.5
184.0428	100.0
327.0647	8.5
345.0754	64.6

Name: Oxaprozin
PrecursorMZ: 294.11293
RT: 3.1971
ExactMass: 293.10519334
Spectrum_type: 2
charge: 1
Formula: C18H15NO3
SMILES: C1=CC=C(C=C1)C2=C(OC(=N2)CCC(=O)O)C3=CC=CC=C3
Method: HCD
Collision_energy: [28.333334]
Isolation_window: 4.0
Ion_mode: P
Num Peaks: 12
56.0494	41.0
74.0600	38.2
84.0444	55.4
166.0532	38.3
185.0555	26.3
212.1030	65.7
213.0870	100.0
230.1137	55.1
276.1014	69.4
277.0853	47.1
294.1338	99.3
294.1534	26.5

Name: Oxindole-3-acetic acid
PrecursorMZ: 192.06566
RT: 25.8074
ExactMass: 191.058243149
Spectrum_type: 2
charge: 1
Formula: C10H9NO3
SMILES: C1=CC=C2C(=C1)C(C(=O)N2)CC(=O)O
Method: HCD
Collision_energy: [28.333334]
Isolation_window: 4.0
Ion_mode: P
Num Peaks: 9
100.0216	5.1
118.0652	1.2
128.0496	3.2
132.0445	3.3
146.0272	6.0
146.0601	100.0
174.0550	5.9
192.0325	1.4
192.0656	1.6

Name: Oxypurinol
PrecursorMZ: 153.04095
RT: 34.23715
ExactMass: 152.03342538
Spectrum_type: 2
charge: 1
Formula: C5H4N4O2
SMILES: C1=NNC2=C1C(=O)NC(=O)N2
Method: HCD
Collision_energy: [28.333334]
Isolation_window: 4.0
Ion_mode: P
Num Peaks: 4
45.0447	3.4
98.0349	8.1
125.0459	29.7
153.0409	100.0

Name: P-Anisidine
PrecursorMZ: 124.07618
RT: 2.2539
ExactMass: 123.068413911
Spectrum_type: 2
charge: 1
Formula: C7H9NO
SMILES: COC1=CC=C(C=C1)N
Method: HCD
Collision_energy: [28.333334]
Isolation_window: 4.0
Ion_mode: P
Num Peaks: 6
80.0494	5.5
81.0572	2.7
96.0444	32.3
96.0807	2.3
124.0394	29.9
124.0757	100.0

Name: Pantothenic Acid
PrecursorMZ: 220.11825
RT: 5.3712
ExactMass: 219.11067264
Spectrum_type: 2
charge: 1
Formula: C9H17NO5
SMILES: CC(C)(CO)[C@H](C(=O)NCCC(=O)O)O
Method: HCD
Collision_energy: [28.333334]
Isolation_window: 4.0
Ion_mode: P
Num Peaks: 50
43.0178	7.8
45.0335	2.7
55.0178	0.8
55.0542	0.6
57.0699	7.0
59.0491	5.6
60.0444	1.9
61.0477	0.4
67.0542	3.8
69.0699	5.6
70.0287	3.8
72.0444	14.1
73.0284	3.0
73.0648	0.3
74.0237	1.3
81.0699	0.4
83.0492	1.2
85.0648	11.0
86.0965	2.4
87.0805	2.5
87.0998	1.1
88.0393	0.3
90.0517	0.4
90.0549	100.0
90.0576	1.5
95.0492	6.2
96.0808	1.4
98.0237	10.2
99.0805	0.4
100.0394	2.9
103.0755	10.4
112.0758	0.5
113.0598	2.8
116.0343	18.8
124.0758	16.1
130.0864	0.5
131.0704	1.4
132.1020	0.9
133.1054	0.9
142.0864	8.2
156.1021	1.5
160.0970	2.7
166.0864	2.9
172.0969	0.4
174.1126	3.0
174.1319	0.9
184.0969	24.7
202.1075	34.6
220.0970	0.4
220.1181	35.0

Name: Paraxanthine
PrecursorMZ: 181.07218
RT: 12.3794
ExactMass: 180.06472551
Spectrum_type: 2
charge: 1
Formula: C7H8N4O2
SMILES: CN1C=NC2=C1C(=O)N(C(=O)N2)C
Method: HCD
Collision_energy: [28.333334]
Isolation_window: 4.0
Ion_mode: P
Num Peaks: 4
124.0507	62.8
142.0612	15.7
181.0721	100.0
181.0972	8.1

Name: Phe-Tyr
PrecursorMZ: 329.15063
RT: 35.8044
ExactMass: 328.14230712
Spectrum_type: 2
charge: 1
Formula: C18H20N2O4
SMILES: C1=CC=C(C=C1)C[C@@H](C(=O)N[C@@H](CC2=CC=C(C=C2)O)C(=O)O)N
Method: HCD
Collision_energy: [28.333334]
Isolation_window: 4.0
Ion_mode: P
Num Peaks: 5
120.0808	100.0
136.0757	5.7
165.0546	4.0
182.0812	8.7
329.1501	4.1

Name: Phenylacetylglycine
PrecursorMZ: 194.0814
RT: 35.7914
ExactMass: 193.07389321
Spectrum_type: 2
charge: 1
Formula: C10H11NO3
SMILES: C1=CC=C(C=C1)CC(=O)NCC(=O)O
Method: HCD
Collision_energy: [28.333334]
Isolation_window: 4.0
Ion_mode: P
Num Peaks: 8
58.0651	12.2
107.0492	6.9
121.0649	3.9
135.0442	35.2
148.0758	100.0
150.0915	4.2
194.0813	18.3
194.1177	40.6

Name: Pipecolic acid, (-)-
PrecursorMZ: 130.08638
RT: 6.0497
ExactMass: 129.078978594
Spectrum_type: 2
charge: 1
Formula: C6H11NO2
SMILES: C1CCN[C@@H](C1)C(=O)O
Method: HCD
Collision_energy: [28.333334]
Isolation_window: 4.0
Ion_mode: P
Num Peaks: 19
42.0338	0.2
55.0542	0.5
56.0495	4.9
57.0699	0.1
67.0542	0.5
70.0651	0.2
82.0652	0.1
84.0444	0.8
84.0768	0.2
84.0807	100.0
84.0830	2.0
84.0856	0.3
87.0041	0.6
96.0094	0.1
112.0758	0.3
130.0500	0.1
130.0862	28.0
130.0921	0.2
130.1592	0.2

Name: Piperidin-1-yl(2,4,5-trimethoxyphenyl)methanone
PrecursorMZ: 302.13561
RT: 10.2058
ExactMass: 279.14705815
Spectrum_type: 2
charge: 1
Formula: C15H21NO4
SMILES: COC1=CC(=C(C=C1C(=O)N2CCCCC2)OC)OC
Method: HCD
Collision_energy: [28.333334]
Isolation_window: 4.0
Ion_mode: P
Num Peaks: 9
70.0651	14.0
116.0706	5.6
164.0819	2.9
220.1081	3.2
238.1187	4.3
239.1029	2.0
256.1295	6.7
284.1244	6.3
302.1349	100.0

Name: Prexasertib
PrecursorMZ: 366.16699
RT: 22.0295
ExactMass: 365.16002287
Spectrum_type: 2
charge: 1
Formula: C18H19N7O2
SMILES: COC1=C(C(=CC=C1)OCCCN)C2=CC(=NN2)NC3=NC=C(N=C3)C#N
Method: HCD
Collision_energy: [28.333334]
Isolation_window: 4.0
Ion_mode: P
Num Peaks: 9
84.0444	14.3
114.0550	36.0
120.0808	20.5
142.0500	100.0
170.0448	22.9
231.1130	12.9
303.1342	18.8
320.1607	26.3
366.1661	50.6

Name: Pro-Leu
PrecursorMZ: 229.15501
RT: 8.7178
ExactMass: 228.1473925
Spectrum_type: 2
charge: 1
Formula: C11H20N2O3
SMILES: CC(C)C[C@@H](C(=O)O)NC(=O)[C@@H]1CCCN1
Method: HCD
Collision_energy: [28.333334]
Isolation_window: 4.0
Ion_mode: P
Num Peaks: 5
70.0650	100.0
70.0673	1.0
86.0964	0.8
183.1492	1.3
229.1548	20.1

Name: Pro-val
PrecursorMZ: 215.13968
RT: 3.7319
ExactMass: 214.13174244
Spectrum_type: 2
charge: 1
Formula: C10H18N2O3
SMILES: CC(C)C(C(=O)O)NC(=O)C1CCCN1
Method: HCD
Collision_energy: [28.333334]
Isolation_window: 4.0
Ion_mode: P
Num Peaks: 11
70.0650	100.0
72.0807	38.1
86.0600	6.2
114.0549	4.6
126.0914	4.5
127.0866	7.0
152.0707	9.7
169.0973	4.2
173.0920	6.4
215.1027	10.0
215.1390	27.3

Name: Pterin
PrecursorMZ: 164.05696
RT: 11.76115
ExactMass: 163.0494098
Spectrum_type: 2
charge: 1
Formula: C6H5N5O
SMILES: C1=CN=C2C(=N1)C(=O)NC(=N2)N
Method: HCD
Collision_energy: [28.333334]
Isolation_window: 4.0
Ion_mode: P
Num Peaks: 10
92.0243	2.3
94.0400	2.2
96.0556	4.9
100.0216	2.7
119.0353	6.4
121.0510	14.3
136.0759	5.4
137.0459	22.5
164.0568	100.0
165.0408	24.6

Name: Pyroglutamylisoleucyllysine
PrecursorMZ: 371.22995
RT: 3.4104
ExactMass: 370.22162007
Spectrum_type: 2
charge: 1
Formula: C17H30N4O5
SMILES: CCC(C)C(C(=O)NC(CCCCN)C(=O)O)NC(=O)C1CCC(=O)N1
Method: HCD
Collision_energy: [28.333334]
Isolation_window: 4.0
Ion_mode: P
Num Peaks: 14
70.0651	72.4
86.0964	18.1
101.0597	7.4
129.0547	8.4
129.1023	7.2
147.0653	18.3
157.1336	10.6
187.1078	100.0
215.1392	35.7
229.1550	14.1
274.1404	8.1
371.1814	25.6
371.1932	15.3
371.2292	9.7

Name: Pyroglutamyltyrosine
PrecursorMZ: 293.11422
RT: 25.0348
ExactMass: 292.10592162
Spectrum_type: 2
charge: 1
Formula: C14H16N2O5
SMILES: C1CC(=O)NC1C(=O)NC(CC2=CC=C(C=C2)O)C(=O)O
Method: HCD
Collision_energy: [28.333334]
Isolation_window: 4.0
Ion_mode: P
Num Peaks: 8
84.0444	45.1
107.0491	17.8
136.0757	100.0
165.0547	29.6
182.0812	49.3
202.0863	11.2
247.1079	60.7
293.1135	14.7

Name: Pyrrolidone carboxylic acid
PrecursorMZ: 130.05017
RT: 19.697
ExactMass: 129.042593085
Spectrum_type: 2
charge: 1
Formula: C5H7NO3
SMILES: C1CC(=O)NC1C(=O)O
Method: HCD
Collision_energy: [28.333334]
Isolation_window: 4.0
Ion_mode: P
Num Peaks: 15
41.0385	5.3
56.0494	9.7
57.0699	0.2
70.0651	0.3
84.0412	0.4
84.0443	100.0
84.0466	1.9
84.0494	0.3
84.0808	1.7
87.0040	0.2
96.0094	0.2
102.0550	0.6
130.0499	16.2
130.0864	0.6
130.1591	0.3

Name: Raffinose
PrecursorMZ: 522.20466
RT: 2.3762999999999996
ExactMass: 504.16903493
Spectrum_type: 2
charge: 1
Formula: C18H32O16
SMILES: C([C@@H]1[C@@H]([C@@H]([C@H]([C@H](O1)OC[C@@H]2[C@H]([C@@H]([C@H]([C@H](O2)O[C@]3([C@H]([C@@H]([C@H](O3)CO)O)O)CO)O)O)O)O)O)O)O
Method: HCD
Collision_energy: [28.333334]
Isolation_window: 4.0
Ion_mode: P
Num Peaks: 7
85.0284	25.5
91.0390	4.1
97.0284	4.5
127.0391	18.3
145.0497	36.2
163.0602	100.0
325.1135	20.1

Name: Ruxolitinib
PrecursorMZ: 307.16608
RT: 16.4824
ExactMass: 306.1592946
Spectrum_type: 2
charge: 1
Formula: C17H18N6
SMILES: C1CCC(C1)[C@@H](CC#N)N2C=C(C=N2)C3=C4C=CNC4=NC=N3
Method: HCD
Collision_energy: [28.333334]
Isolation_window: 4.0
Ion_mode: P
Num Peaks: 34
84.0808	100.0
95.0855	2.6
97.0648	6.9
108.0444	6.2
122.0601	17.9
128.0707	4.4
130.0863	47.9
138.0914	14.8
140.1071	8.2
150.0550	24.4
152.0708	3.1
156.1020	4.2
164.0707	9.1
172.0969	15.5
174.0914	2.5
190.0904	2.6
198.1126	3.1
202.1228	4.6
216.1022	2.9
218.0854	2.7
225.1235	2.6
230.1176	9.1
235.1291	23.1
243.1343	10.4
244.1183	5.8
244.1335	10.5
245.1135	3.6
261.1449	19.5
272.1286	27.1
289.1397	34.4
289.1550	40.8
290.1390	16.4
307.1503	36.8
307.1657	8.0

Name: Saccharopine
PrecursorMZ: 259.12988
RT: 16.3967
ExactMass: 276.13213636
Spectrum_type: 2
charge: 1
Formula: C11H20N2O6
SMILES: C(CCN[C@@H](CCC(=O)O)C(=O)O)C[C@@H](C(=O)O)N
Method: HCD
Collision_energy: [28.333334]
Isolation_window: 4.0
Ion_mode: P
Num Peaks: 12
56.0495	0.9
84.0444	2.3
84.0808	100.0
84.0838	0.7
122.0966	0.7
130.0500	0.9
142.0501	0.7
168.1020	2.3
170.0813	1.7
195.1130	16.3
213.1234	74.0
259.1292	28.5

Name: Sarafloxacin
PrecursorMZ: 386.13178
RT: 31.8811
ExactMass: 385.12379774
Spectrum_type: 2
charge: 1
Formula: C20H17F2N3O3
SMILES: C1CN(CCN1)C2=C(C=C3C(=C2)N(C=C(C3=O)C(=O)O)C4=CC=C(C=C4)F)F
Method: HCD
Collision_energy: [28.333334]
Isolation_window: 4.0
Ion_mode: P
Num Peaks: 6
110.0713	67.4
156.0768	100.0
253.0933	16.8
271.1041	28.6
368.1203	19.8
386.1307	63.7

Name: Ser-Ile
PrecursorMZ: 219.13452
RT: 3.6838
ExactMass: 218.12665706
Spectrum_type: 2
charge: 1
Formula: C9H18N2O4
SMILES: CC[C@H](C)[C@@H](C(=O)O)NC(=O)[C@H](CO)N
Method: HCD
Collision_energy: [28.333334]
Isolation_window: 4.0
Ion_mode: P
Num Peaks: 32
44.0494	18.2
70.0651	13.1
72.0807	27.9
74.0600	21.0
82.0651	18.5
83.0603	14.3
84.0443	29.0
84.0637	11.2
84.0807	92.1
85.0477	14.4
86.0600	11.3
88.0393	15.8
90.0549	25.0
100.0757	15.1
112.0757	19.1
114.0914	17.4
126.0914	22.1
128.0706	52.1
128.1071	14.2
130.0499	23.0
130.0863	17.2
140.0707	20.8
145.0972	17.9
155.1180	100.0
156.1020	20.0
158.0812	21.3
173.1284	40.7
184.0968	21.1
201.1063	36.9
201.1234	27.0
202.0904	16.2
219.1340	51.4

Name: Ser-Leu
PrecursorMZ: 219.13453
RT: 5.2912
ExactMass: 218.12665706
Spectrum_type: 2
charge: 1
Formula: C9H18N2O4
SMILES: CC(C)C[C@@H](C(=O)O)NC(=O)[C@H](CO)N
Method: HCD
Collision_energy: [28.333334]
Isolation_window: 4.0
Ion_mode: P
Num Peaks: 17
42.0338	2.8
44.0494	2.8
60.0444	100.0
69.0699	2.5
72.0808	2.0
74.0601	1.8
86.0964	79.8
86.0991	1.0
87.0553	4.8
88.0757	4.8
105.0660	1.9
106.0499	0.8
128.1071	5.3
132.1020	58.2
173.1285	42.7
201.1235	4.5
219.1341	11.1

Name: Ser-Tyr
PrecursorMZ: 269.11427
RT: 24.5541
ExactMass: 268.10592162
Spectrum_type: 2
charge: 1
Formula: C12H16N2O5
SMILES: C1=CC(=CC=C1C[C@@H](C(=O)O)NC(=O)[C@H](CO)N)O
Method: HCD
Collision_energy: [28.333334]
Isolation_window: 4.0
Ion_mode: P
Num Peaks: 9
60.0443	86.2
70.0651	12.1
119.0492	8.9
123.0442	12.8
136.0757	89.2
165.0547	56.9
182.0812	100.0
223.1079	30.5
269.1137	16.8

Name: Ser-Val
PrecursorMZ: 205.1188
RT: 4.5025
ExactMass: 204.111007
Spectrum_type: 2
charge: 1
Formula: C8H16N2O4
SMILES: CC(C)[C@@H](C(=O)O)NC(=O)[C@H](CO)N
Method: HCD
Collision_energy: [28.333334]
Isolation_window: 4.0
Ion_mode: P
Num Peaks: 27
42.0338	2.9
44.0495	0.9
55.0542	3.4
60.0443	100.0
70.0288	0.7
72.0807	57.7
74.0236	0.7
75.0553	2.0
84.0808	1.2
86.0965	0.7
87.0553	4.8
98.0601	0.7
99.0441	0.9
114.0914	6.0
117.0547	0.9
118.0863	49.7
131.0452	0.9
134.0813	1.1
141.1024	1.0
142.0864	1.8
158.0813	0.7
159.1129	35.7
162.0762	0.8
187.0795	0.7
187.1078	5.4
205.1184	9.9
205.1266	1.0

Name: Sorbate
PrecursorMZ: 95.04952
RT: 2.2127
ExactMass: 111.044604462
Spectrum_type: 2
charge: 1
Formula: C6H7O2-
SMILES: C/C=C/C=C/C(=O)[O-]
Method: HCD
Collision_energy: [28.333334]
Isolation_window: 4.0
Ion_mode: P
Num Peaks: 7
41.0385	25.0
52.0307	16.1
54.0338	13.6
65.0385	34.3
67.0542	33.6
95.0491	100.0
98.0362	10.6

Name: Stavudine
PrecursorMZ: 225.08751
RT: 35.816
ExactMass: 224.07970687
Spectrum_type: 2
charge: 1
Formula: C10H12N2O4
SMILES: CC1=CN(C(=O)NC1=O)[C@H]2C=C[C@H](O2)CO
Method: HCD
Collision_energy: [28.333334]
Isolation_window: 4.0
Ion_mode: P
Num Peaks: 5
69.0334	36.5
99.0440	11.3
127.0503	100.0
225.0871	27.9
225.1315	7.5

Name: Taurine
PrecursorMZ: 126.02213
RT: 5.6874666666666664
ExactMass: 125.01466426
Spectrum_type: 2
charge: 1
Formula: C2H7NO3S
SMILES: C(CS(=O)(=O)O)N
Method: HCD
Collision_energy: [28.333334]
Isolation_window: 4.0
Ion_mode: P
Num Peaks: 9
44.0494	100.0
45.0335	2.7
84.0444	5.0
108.0114	49.9
108.9955	2.3
126.0220	95.5
126.0551	4.5
126.0664	1.4
127.0060	1.3

Name: Thr-Leu
PrecursorMZ: 233.15005
RT: 4.7884
ExactMass: 232.14230712
Spectrum_type: 2
charge: 1
Formula: C10H20N2O4
SMILES: C[C@H]([C@@H](C(=O)N[C@@H](CC(C)C)C(=O)O)N)O
Method: HCD
Collision_energy: [28.333334]
Isolation_window: 4.0
Ion_mode: P
Num Peaks: 27
44.0495	6.8
56.0495	13.6
57.0335	1.9
58.0651	4.9
69.0699	1.5
70.0651	1.1
74.0576	0.7
74.0600	100.0
74.0625	0.8
75.0441	1.0
84.0445	3.6
86.0965	30.5
101.0711	4.4
113.0712	0.4
116.0706	2.2
124.1123	0.5
126.1279	0.6
130.0864	0.4
132.1020	27.7
141.1388	0.4
142.1228	2.0
143.1181	1.2
169.1337	2.8
172.0970	0.6
187.1442	20.8
215.1392	4.8
233.1498	12.0

Name: Thr-Phe
PrecursorMZ: 267.13493
RT: 8.1019
ExactMass: 266.12665706
Spectrum_type: 2
charge: 1
Formula: C13H18N2O4
SMILES: C[C@H]([C@@H](C(=O)N[C@@H](CC1=CC=CC=C1)C(=O)O)N)O
Method: HCD
Collision_energy: [28.333334]
Isolation_window: 4.0
Ion_mode: P
Num Peaks: 10
56.0494	9.9
58.0651	5.1
74.0600	100.0
84.0444	3.3
120.0809	38.4
166.0864	45.6
221.1287	9.1
249.1239	3.2
267.1345	10.6
268.0822	3.9

Name: Threonylleucine
PrecursorMZ: 233.15017
RT: 5.4988
ExactMass: 232.14230712
Spectrum_type: 2
charge: 1
Formula: C10H20N2O4
SMILES: CC(C)CC(C(=O)O)NC(=O)C(C(C)O)N
Method: HCD
Collision_energy: [28.333334]
Isolation_window: 4.0
Ion_mode: P
Num Peaks: 14
44.0494	3.3
56.0494	1.6
69.0699	4.8
74.0600	9.3
86.0964	100.0
86.0991	1.0
102.0550	1.1
120.0656	5.0
130.0500	0.8
130.1227	1.0
132.1020	1.8
187.1441	1.2
215.1391	1.9
233.1498	2.9

Name: Traumatic Acid
PrecursorMZ: 229.14401
RT: 30.6054
ExactMass: 228.13615911
Spectrum_type: 2
charge: 1
Formula: C12H20O4
SMILES: C(CCCCC(=O)O)CCC/C=C/C(=O)O
Method: HCD
Collision_energy: [28.333334]
Isolation_window: 4.0
Ion_mode: P
Num Peaks: 27
55.0178	6.7
67.0542	11.6
69.0698	8.5
70.0651	6.8
79.0542	7.1
81.0699	41.8
91.0542	15.4
93.0699	7.7
95.0855	6.3
97.0648	9.7
105.0699	21.9
107.0856	7.4
109.0648	6.5
119.0856	20.1
121.1012	15.3
123.1169	23.3
133.1013	8.1
137.0792	9.7
147.1169	100.0
157.1013	21.4
165.1274	48.3
175.1118	24.6
183.0652	7.4
183.0846	12.6
193.1224	10.6
229.0902	21.1
229.1436	88.1

Name: Triptophenolide
PrecursorMZ: 335.16125
RT: 19.2754
ExactMass: 312.17254462
Spectrum_type: 2
charge: 1
Formula: C20H24O3
SMILES: CC(C)C1=C(C2=C(C=C1)[C@]3(CCC4=C([C@@H]3CC2)COC4=O)C)O
Method: HCD
Collision_energy: [28.333334]
Isolation_window: 4.0
Ion_mode: P
Num Peaks: 4
55.0543	3.3
135.0554	2.9
235.1079	24.6
335.1604	100.0

Name: Tyr-Ile
PrecursorMZ: 295.16623
RT: 29.4706
ExactMass: 294.15795719
Spectrum_type: 2
charge: 1
Formula: C15H22N2O4
SMILES: CC[C@H](C)[C@@H](C(=O)O)NC(=O)[C@H](CC1=CC=C(C=C1)O)N
Method: HCD
Collision_energy: [28.333334]
Isolation_window: 4.0
Ion_mode: P
Num Peaks: 4
69.0698	6.2
86.0964	100.0
136.0756	5.2
182.0811	7.5

Name: Tyramine
PrecursorMZ: 377.14655
RT: 19.5375
ExactMass: 137.084063974
Spectrum_type: 2
charge: 1
Formula: C8H11NO
SMILES: C1=CC(=CC=C1CCN)O
Method: HCD
Collision_energy: [28.333334]
Isolation_window: 4.0
Ion_mode: P
Num Peaks: 18
57.0335	3.1
61.0284	1.3
69.0335	4.1
71.0128	1.3
71.0492	2.2
73.0284	1.1
75.0441	1.6
81.0335	1.8
99.0441	3.9
117.0547	1.3
172.0871	3.3
200.0820	1.6
216.0769	2.4
243.0879	51.8
277.1187	1.3
359.1352	4.1
377.1455	100.0
377.1696	1.9

Name: Tyrosyl-proline
PrecursorMZ: 279.1349
RT: 22.8431
ExactMass: 278.12665706
Spectrum_type: 2
charge: 1
Formula: C14H18N2O4
SMILES: C1C[C@H](N(C1)C(=O)[C@H](CC2=CC=C(C=C2)O)N)C(=O)O
Method: HCD
Collision_energy: [28.333334]
Isolation_window: 4.0
Ion_mode: P
Num Peaks: 14
70.0651	19.1
91.0542	6.5
114.0550	4.2
116.0706	91.7
119.0492	9.4
120.0808	2.3
121.0649	2.0
136.0757	100.0
147.0442	3.4
201.0464	2.1
219.0570	12.9
262.1077	3.2
279.0936	43.9
279.1342	13.0

Name: Uracil
PrecursorMZ: 113.03481
RT: 8.9746
ExactMass: 112.027277375
Spectrum_type: 2
charge: 1
Formula: C4H4N2O2
SMILES: C1=CNC(=O)NC1=O
Method: HCD
Collision_energy: [28.333334]
Isolation_window: 4.0
Ion_mode: P
Num Peaks: 9
43.0178	6.8
70.0287	55.9
95.0241	4.5
95.0604	4.6
96.0080	32.3
96.0808	9.1
113.0346	100.0
113.0710	4.1
113.1074	20.1

Name: Ureidosuccinic acid
PrecursorMZ: 177.05079
RT: 22.2322
ExactMass: 176.04332136
Spectrum_type: 2
charge: 1
Formula: C5H8N2O5
SMILES: C(C(C(=O)O)NC(=O)N)C(=O)O
Method: HCD
Collision_energy: [28.333334]
Isolation_window: 4.0
Ion_mode: P
Num Peaks: 6
43.0178	8.2
46.0287	21.5
74.0236	90.2
88.0393	100.0
116.0343	32.1
134.0449	39.3

Name: Uric Acid
PrecursorMZ: 169.03585
RT: 33.3349
ExactMass: 168.02834
Spectrum_type: 2
charge: 1
Formula: C5H4N4O3
SMILES: C12=C(NC(=O)N1)NC(=O)NC2=O
Method: HCD
Collision_energy: [28.333334]
Isolation_window: 4.0
Ion_mode: P
Num Peaks: 10
43.0290	4.5
55.0290	3.1
70.0399	7.2
96.0192	4.7
98.0349	7.7
126.0299	10.5
141.0409	32.4
152.0093	14.8
169.0357	100.0
170.0197	4.6

Name: Urocanic Acid
PrecursorMZ: 139.05027
RT: 22.5139
ExactMass: 138.042927438
Spectrum_type: 2
charge: 1
Formula: C6H6N2O2
SMILES: C1=C(NC=N1)/C=C/C(=O)O
Method: HCD
Collision_energy: [28.333334]
Isolation_window: 4.0
Ion_mode: P
Num Peaks: 25
55.0178	0.2
56.0495	0.7
66.0338	6.8
67.0417	0.3
68.0495	5.5
69.0447	0.7
93.0447	51.3
93.0475	0.9
93.0502	0.1
94.0288	0.3
94.0526	0.3
95.0603	28.0
95.0633	0.4
97.0397	4.3
111.0554	0.6
121.0344	0.5
121.0396	94.8
121.0444	1.1
121.0463	0.4
121.0492	0.2
139.0402	0.2
139.0435	0.6
139.0501	100.0
139.0562	1.0
139.0605	0.2

Name: Val-Glu
PrecursorMZ: 247.12943
RT: 19.4305
ExactMass: 246.12157168
Spectrum_type: 2
charge: 1
Formula: C10H18N2O5
SMILES: CC(C)[C@@H](C(=O)N[C@@H](CCC(=O)O)C(=O)O)N
Method: HCD
Collision_energy: [28.333334]
Isolation_window: 4.0
Ion_mode: P
Num Peaks: 12
55.0542	7.6
72.0807	100.0
72.0830	1.1
84.0444	3.6
102.0550	3.2
126.0550	0.7
130.0499	5.1
148.0605	27.5
201.1235	0.7
247.1292	7.3
247.1372	1.0
247.1445	1.2

Name: Val-Tyr
PrecursorMZ: 281.15059
RT: 27.3603
ExactMass: 280.14230712
Spectrum_type: 2
charge: 1
Formula: C14H20N2O4
SMILES: CC(C)[C@@H](C(=O)N[C@@H](CC1=CC=C(C=C1)O)C(=O)O)N
Method: HCD
Collision_energy: [28.333334]
Isolation_window: 4.0
Ion_mode: P
Num Peaks: 6
55.0542	6.9
72.0807	100.0
136.0757	8.2
165.0547	6.3
182.0812	14.9
281.1499	3.0

Name: Valylleucine
PrecursorMZ: 231.17054
RT: 7.4317
ExactMass: 230.16304257
Spectrum_type: 2
charge: 1
Formula: C11H22N2O3
SMILES: CC(C)C[C@@H](C(=O)O)NC(=O)[C@H](C(C)C)N
Method: HCD
Collision_energy: [28.333334]
Isolation_window: 4.0
Ion_mode: P
Num Peaks: 25
43.0542	0.4
44.0494	1.5
53.0386	0.2
55.0542	9.6
56.0495	0.2
57.0573	0.6
69.0699	4.5
72.0782	0.2
72.0807	100.0
72.0830	1.4
72.0852	0.2
84.0444	0.2
86.0601	0.2
86.0931	0.4
86.0963	81.3
86.0988	1.5
86.1013	0.2
115.0503	0.2
118.0863	3.1
132.1020	6.4
185.0922	0.7
185.1649	2.7
213.1600	0.3
231.0977	0.4
231.1706	5.5

Name: Vanillin
PrecursorMZ: 153.06028
RT: 29.8149
ExactMass: 152.047344113
Spectrum_type: 2
charge: 1
Formula: C8H8O3
SMILES: COC1=C(C=CC(=C1)C=O)O
Method: HCD
Collision_energy: [28.333334]
Isolation_window: 4.0
Ion_mode: P
Num Peaks: 12
110.0350	3.6
111.0320	2.9
111.0383	10.1
128.0456	2.7
129.0427	2.5
129.0489	6.9
136.0336	6.3
153.0409	5.7
153.0540	33.4
153.0602	100.0
154.0379	8.8
154.0443	33.8

Name: Xanthine
PrecursorMZ: 153.04082
RT: 35.0231
ExactMass: 152.03342538
Spectrum_type: 2
charge: 1
Formula: C5H4N4O2
SMILES: C1=NC2=C(N1)C(=O)NC(=O)N2
Method: HCD
Collision_energy: [28.333334]
Isolation_window: 4.0
Ion_mode: P
Num Peaks: 10
55.0290	6.8
81.0083	1.1
82.0400	5.1
83.0240	1.2
108.0194	0.9
110.0349	63.5
128.0456	12.3
136.0143	4.7
153.0409	100.0
154.0249	51.5

Name: Xanthurenic Acid
PrecursorMZ: 206.04535
RT: 6.6077
ExactMass: 205.0375077
Spectrum_type: 2
charge: 1
Formula: C10H7NO4
SMILES: C1=CC2=C(C(=C1)O)NC(=CC2=O)C(=O)O
Method: HCD
Collision_energy: [28.333334]
Isolation_window: 4.0
Ion_mode: P
Num Peaks: 9
43.0178	11.0
80.0494	24.8
87.0440	23.5
108.0444	100.0
120.0444	59.2
160.0393	8.9
160.0428	8.3
178.0499	19.9
206.0813	86.1

Name: Zeatin
PrecursorMZ: 220.11962
RT: 10.6687
ExactMass: 219.11201006
Spectrum_type: 2
charge: 1
Formula: C10H13N5O
SMILES: C/C(=C\CNC1=NC=NC2=C1NC=N2)/CO
Method: HCD
Collision_energy: [28.333334]
Isolation_window: 4.0
Ion_mode: P
Num Peaks: 11
128.0343	1.7
136.0618	3.7
142.0500	1.4
148.0619	25.2
160.0619	16.4
162.0777	1.3
185.0822	1.3
202.0711	2.7
202.1088	10.7
220.0817	1.5
220.1194	100.0

Name: Zinniol
PrecursorMZ: 289.1404
RT: 2.1442
ExactMass: 266.15180918
Spectrum_type: 2
charge: 1
Formula: C15H22O4
SMILES: CC1=C(C=C(C(=C1OC)CO)CO)OCC=C(C)C
Method: HCD
Collision_energy: [28.333334]
Isolation_window: 4.0
Ion_mode: P
Num Peaks: 63
61.0284	1.7
69.0335	1.0
81.0334	1.0
85.0284	1.1
97.0284	1.4
99.0440	1.1
121.0761	1.5
125.0710	3.9
127.0390	2.3
131.0605	0.9
133.0761	2.8
134.0840	0.7
135.0917	1.2
137.0710	0.9
145.0761	1.6
146.1177	1.2
147.0918	3.0
149.0711	1.4
151.0868	0.9
154.0864	1.3
159.0918	0.9
161.0711	0.9
161.1075	1.7
163.0867	4.0
171.0918	0.7
175.0866	9.5
177.1023	1.1
179.0815	0.9
181.0972	3.0
186.1000	3.6
187.0866	0.9
189.1023	6.4
191.0816	1.9
192.1021	0.9
193.0973	4.6
194.0813	1.6
197.0922	2.1
198.0762	3.0
199.0867	0.9
199.1078	2.1
205.0497	0.7
205.0972	3.3
207.1129	1.2
208.0969	1.7
209.0921	1.0
210.1126	0.9
211.1078	3.7
217.0972	10.6
223.1078	2.3
230.1263	3.9
235.1079	7.4
236.0919	3.4
241.1185	2.0
253.1186	7.4
254.1026	5.3
271.1293	17.7
272.1133	2.9
274.1164	3.1
289.0915	0.8
289.1199	0.9
289.1318	1.1
289.1396	100.0
289.1549	1.3

Name: epsilon-Acetyl-L-lysine
PrecursorMZ: 189.12355
RT: 3.6415
ExactMass: 188.11609238
Spectrum_type: 2
charge: 1
Formula: C8H16N2O3
SMILES: CC(=O)NCCCC[C@@H](C(=O)O)N
Method: HCD
Collision_energy: [28.333334]
Isolation_window: 4.0
Ion_mode: P
Num Peaks: 34
43.0178	1.8
44.0495	0.7
56.0495	1.0
60.0444	1.6
67.0542	1.1
69.0699	0.5
70.0651	2.4
72.0444	0.4
72.0808	1.1
74.0237	0.6
84.0807	100.0
84.0832	1.6
85.0648	1.9
86.0601	0.5
88.0393	0.4
100.0758	0.5
101.1075	2.1
102.0915	0.7
111.0918	0.6
112.0758	1.9
114.0915	2.1
115.0867	1.8
116.0707	0.6
126.0915	32.7
129.1024	42.5
130.0500	0.6
130.0864	23.8
143.1181	2.0
147.1130	7.9
153.1025	2.5
154.0865	1.0
171.1130	2.1
172.0970	3.4
189.1235	19.4

Name: gamma-L-Glutamyl-L-phenylalanine
PrecursorMZ: 295.12975
RT: 25.3626
ExactMass: 294.12157168
Spectrum_type: 2
charge: 1
Formula: C14H18N2O5
SMILES: C1=CC=C(C=C1)C[C@@H](C(=O)O)NC(=O)CC[C@@H](C(=O)O)N
Method: HCD
Collision_energy: [28.333334]
Isolation_window: 4.0
Ion_mode: P
Num Peaks: 11
84.0444	25.8
103.0543	2.2
120.0809	100.0
130.0500	8.4
131.0492	4.7
149.0599	3.7
166.0864	58.5
186.0915	8.4
232.0972	8.7
278.1029	9.0
295.1293	8.2

Name: methyl N-(3-amino-2-methylphenyl)carbamate
PrecursorMZ: 181.09738
RT: 8.1505
ExactMass: 180.08987763
Spectrum_type: 2
charge: 1
Formula: C9H12N2O2
SMILES: CC1=C(C=CC=C1NC(=O)OC)N
Method: HCD
Collision_energy: [28.333334]
Isolation_window: 4.0
Ion_mode: P
Num Peaks: 3
135.0918	7.0
139.0503	11.2
181.0973	100.0

Name: ((2R,3S,4R,5R)-5-(6-aminopurin-9-yl)-3,4-dihydroxyoxolan-2-yl)methyl ((2S,4R,5R)-5-(6-aminopurin-9-yl)-4-hydroxyoxolan-2-yl)methyl hydrogen phosphate
PrecursorMZ: 581.16356
RT: 30.4322
ExactMass: 580.15435941
Spectrum_type: 2
charge: 1
Formula: C20H25N10O9P
SMILES: C1[C@H](O[C@H]([C@@H]1O)N2C=NC3=C(N=CN=C32)N)COP(=O)(O)OC[C@@H]4[C@H]([C@H]([C@@H](O4)N5C=NC6=C(N=CN=C65)N)O)O
Method: HCD
Collision_energy: [28.333334]
Isolation_window: 4.0
Ion_mode: P
Num Peaks: 7
81.0335	58.5
136.0618	83.5
152.0568	100.0
216.0881	61.5
332.0757	39.1
348.0707	13.4
446.1082	17.1

Name: (+)-S-Allylcysteine
PrecursorMZ: 162.05861
RT: 7.3871
ExactMass: 161.05104977
Spectrum_type: 2
charge: 1
Formula: C6H11NO2S
SMILES: C=CCSC[C@@H](C(=O)O)N
Method: HCD
Collision_energy: [28.333334]
Isolation_window: 4.0
Ion_mode: P
Num Peaks: 10
70.0651	7.8
72.0444	2.5
73.0106	4.7
74.0059	33.2
88.0393	3.9
116.0529	100.0
120.0115	44.5
145.0320	4.2
162.0585	39.4
162.1127	2.8

Name: (2R)-1-((2S)-2-azaniumyl-3-hydroxypropanoyl)pyrrolidine-2-carboxylate
PrecursorMZ: 203.10322
RT: 4.1188
ExactMass: 202.09535693
Spectrum_type: 2
charge: 1
Formula: C8H14N2O4
SMILES: C1C[C@@H](N(C1)C(=O)[C@H](CO)[NH3+])C(=O)[O-]
Method: HCD
Collision_energy: [28.333334]
Isolation_window: 4.0
Ion_mode: P
Num Peaks: 17
44.0494	6.0
56.0494	6.6
60.0443	42.4
70.0650	43.8
84.0443	10.5
84.0807	21.8
86.0964	16.4
115.0866	12.7
116.0706	100.0
129.1023	10.5
130.0499	20.4
130.0863	7.3
185.0921	9.4
186.0761	10.4
203.0854	8.8
203.1026	23.5
203.1389	7.1

Name: (2R)-2-((2-amino-3-methylbutanoyl)amino)-3-phenylpropanoic acid
PrecursorMZ: 265.15576
RT: 12.2263
ExactMass: 264.1473925
Spectrum_type: 2
charge: 1
Formula: C14H20N2O3
SMILES: CC(C)C(C(=O)N[C@H](CC1=CC=CC=C1)C(=O)O)N
Method: HCD
Collision_energy: [28.333334]
Isolation_window: 4.0
Ion_mode: P
Num Peaks: 7
55.0542	7.2
72.0807	100.0
120.0809	22.9
166.0864	13.3
201.1315	2.2
247.1372	2.5
265.1551	3.1

Name: (2R)-2-((2-amino-4-methylpentanoyl)amino)-3-(4-hydroxyphenyl)propanoic acid
PrecursorMZ: 295.16621
RT: 30.0725
ExactMass: 294.15795719
Spectrum_type: 2
charge: 1
Formula: C15H22N2O4
SMILES: CC(C)CC(C(=O)N[C@H](CC1=CC=C(C=C1)O)C(=O)O)N
Method: HCD
Collision_energy: [28.333334]
Isolation_window: 4.0
Ion_mode: P
Num Peaks: 9
69.0698	2.6
86.0964	100.0
91.0542	1.6
119.0492	2.5
136.0757	37.6
165.0547	4.3
182.0812	10.9
295.1290	3.3
295.1654	6.2

Name: (2R)-2-(2-aminopropanoylamino)-3-(4-hydroxyphenyl)propanoic acid
PrecursorMZ: 253.11924
RT: 23.9235
ExactMass: 252.111007
Spectrum_type: 2
charge: 1
Formula: C12H16N2O4
SMILES: CC(C(=O)N[C@H](CC1=CC=C(C=C1)O)C(=O)O)N
Method: HCD
Collision_energy: [28.333334]
Isolation_window: 4.0
Ion_mode: P
Num Peaks: 8
44.0494	59.8
123.0442	13.7
136.0758	73.6
165.0547	63.8
182.0812	100.0
235.1079	17.0
253.0823	27.9
253.1186	11.2

Name: (2R)-2-(acetyl(15N)amino)-3-methylbutanoic acid
PrecursorMZ: 160.09734
RT: 4.9752
ExactMass: 160.08657817
Spectrum_type: 2
charge: 1
Formula: C7H13NO3
SMILES: CC(C)[C@H](C(=O)O)[15NH]C(=O)C
Method: HCD
Collision_energy: [28.333334]
Isolation_window: 4.0
Ion_mode: P
Num Peaks: 21
42.0338	3.1
45.0335	1.8
55.0542	8.1
56.0576	2.2
59.0604	2.4
60.0808	3.5
69.0699	2.7
70.0651	10.7
72.0808	12.6
73.0841	16.4
83.0492	1.7
96.0808	12.2
100.0758	1.8
101.0598	3.6
103.0503	7.8
114.0914	100.0
119.0898	3.0
125.0600	1.6
142.0864	6.6
160.0970	39.4
160.1334	7.8

Name: (2R)-2-amino-6-(((4R)-4-amino-4-carboxybutanoyl)amino)heptanedioic acid
PrecursorMZ: 320.14619
RT: 30.1408
ExactMass: 319.13795002
Spectrum_type: 2
charge: 1
Formula: C12H21N3O7
SMILES: C(C[C@H](C(=O)O)N)CC(C(=O)O)NC(=O)CC[C@H](C(=O)O)N
Method: HCD
Collision_energy: [28.333334]
Isolation_window: 4.0
Ion_mode: P
Num Peaks: 37
56.0495	1.1
70.0651	2.2
82.0652	8.6
84.0444	12.7
84.0808	3.5
86.0601	1.0
100.0757	0.7
102.0551	1.4
111.0917	0.5
112.0757	0.8
114.0550	2.6
128.0707	100.0
128.0763	0.6
130.0500	8.0
130.0863	0.8
140.0707	1.8
145.0973	4.2
155.0817	2.0
156.0657	1.3
157.0973	3.8
158.0813	1.1
159.0766	2.4
173.0922	23.7
174.0762	11.6
183.0765	3.0
191.1027	80.6
193.0973	3.5
201.0871	2.8
211.1079	2.2
212.1395	0.6
239.1030	1.8
257.1136	4.8
258.1450	0.6
284.1244	2.0
285.1085	1.1
302.1349	9.0
320.1454	12.4

Name: (2R)-5-amino-2-(3-carboxypropanoylamino)pentanoic acid
PrecursorMZ: 233.11366
RT: 16.8989
ExactMass: 232.10592162
Spectrum_type: 2
charge: 1
Formula: C9H16N2O5
SMILES: C(C[C@H](C(=O)O)NC(=O)CCC(=O)O)CN
Method: HCD
Collision_energy: [28.333334]
Isolation_window: 4.0
Ion_mode: P
Num Peaks: 27
56.0494	6.7
70.0287	5.2
70.0651	59.0
71.0491	5.8
82.0651	12.2
84.0808	6.0
86.0965	4.9
98.0601	15.2
100.0757	18.6
101.0233	14.1
101.0597	7.5
115.0866	49.2
116.0706	33.4
118.0863	10.3
128.0707	100.0
144.0656	5.6
152.0708	8.1
169.0972	9.5
170.0812	16.7
173.0921	18.9
187.1078	6.6
191.1027	7.4
197.0921	38.6
198.0761	14.9
215.1027	9.8
216.0867	9.2
233.1134	26.4

Name: (2S)-2-(((2R)-2-amino-3-(4-hydroxyphenyl)propanoyl)amino)-3-phenylpropanoic acid
PrecursorMZ: 329.15063
RT: 36.6649
ExactMass: 328.14230712
Spectrum_type: 2
charge: 1
Formula: C18H20N2O4
SMILES: C1=CC=C(C=C1)C[C@@H](C(=O)O)NC(=O)[C@@H](CC2=CC=C(C=C2)O)N
Method: HCD
Collision_energy: [28.333334]
Isolation_window: 4.0
Ion_mode: P
Num Peaks: 8
91.0541	4.6
119.0492	6.8
120.0808	7.1
136.0757	100.0
166.0862	5.5
293.0924	10.2
311.1029	16.0
329.1498	5.1

Name: (2S)-2-(((2S)-2-(((2S)-2-azaniumyl-3-methylbutanoyl)amino)-3-methylbutanoyl)amino)-3-phenylpropanoate
PrecursorMZ: 364.22417
RT: 9.4844
ExactMass: 363.21580641
Spectrum_type: 2
charge: 1
Formula: C19H29N3O4
SMILES: CC(C)[C@@H](C(=O)N[C@@H](C(C)C)C(=O)N[C@@H](CC1=CC=CC=C1)C(=O)[O-])[NH3+]
Method: HCD
Collision_energy: [28.333334]
Isolation_window: 4.0
Ion_mode: P
Num Peaks: 7
72.0807	94.4
120.0808	100.0
171.1493	53.4
199.1442	23.4
219.1493	74.5
247.1444	27.0
265.1550	15.2

Name: (2S)-2-(((2S)-2-(((2S)-2-azaniumyl-4-methylpentanoyl)amino)-4-methylpentanoyl)amino)propanoate
PrecursorMZ: 316.22397
RT: 6.0213
ExactMass: 315.21580641
Spectrum_type: 2
charge: 1
Formula: C15H29N3O4
SMILES: C[C@@H](C(=O)[O-])NC(=O)[C@H](CC(C)C)NC(=O)[C@H](CC(C)C)[NH3+]
Method: HCD
Collision_energy: [28.333334]
Isolation_window: 4.0
Ion_mode: P
Num Peaks: 4
86.0964	100.0
199.1806	44.2
203.1392	12.8
227.1756	18.2

Name: (2S)-2-(((2S)-2-azaniumyl-3-hydroxypropanoyl)amino)pentanedioate
PrecursorMZ: 217.08246
RT: 17.946
ExactMass: 233.07736114
Spectrum_type: 2
charge: 1
Formula: C8H13N2O6-
SMILES: C(CC(=O)[O-])[C@@H](C(=O)[O-])NC(=O)[C@H](CO)[NH3+]
Method: HCD
Collision_energy: [28.333334]
Isolation_window: 4.0
Ion_mode: P
Num Peaks: 7
84.0444	7.1
125.0711	31.8
126.0550	7.1
130.0499	6.5
171.0765	100.0
200.0555	39.6
217.0821	19.9

Name: (2S)-2-(((2S)-2-azaniumyl-3-methylbutanoyl)amino)-4-methylsulfanylbutanoate
PrecursorMZ: 249.12745
RT: 7.1299
ExactMass: 248.11946368
Spectrum_type: 2
charge: 1
Formula: C10H20N2O3S
SMILES: CC(C)[C@@H](C(=O)N[C@@H](CCSC)C(=O)[O-])[NH3+]
Method: HCD
Collision_energy: [28.333334]
Isolation_window: 4.0
Ion_mode: P
Num Peaks: 10
55.0542	7.4
56.0494	7.8
61.0106	2.9
72.0807	100.0
104.0529	17.6
133.0318	3.4
150.0584	19.0
155.1181	2.8
201.1234	3.2
249.1272	3.8

Name: (2S)-2-(((2S)-pyrrolidin-1-ium-2-carbonyl)amino)pentanedioate
PrecursorMZ: 245.11386
RT: 8.7027
ExactMass: 243.09809658
Spectrum_type: 2
charge: 1
Formula: C10H15N2O5-
SMILES: C1C[C@H]([NH2+]C1)C(=O)N[C@@H](CCC(=O)[O-])C(=O)[O-]
Method: HCD
Collision_energy: [28.333334]
Isolation_window: 4.0
Ion_mode: P
Num Peaks: 6
70.0651	61.6
112.0757	14.9
181.0972	55.3
183.0877	14.1
199.1079	100.0
245.1135	41.3

Name: (2S)-2-(((2S,3R)-2-azaniumyl-3-hydroxybutanoyl)amino)butanedioate
PrecursorMZ: 235.09298
RT: 18.806
ExactMass: 233.07736114
Spectrum_type: 2
charge: 1
Formula: C8H13N2O6-
SMILES: C[C@H]([C@@H](C(=O)N[C@@H](CC(=O)[O-])C(=O)[O-])[NH3+])O
Method: HCD
Collision_energy: [28.333334]
Isolation_window: 4.0
Ion_mode: P
Num Peaks: 26
44.0494	2.7
56.0494	13.3
58.0651	2.8
60.0443	60.1
70.0287	2.4
74.0600	100.0
84.0444	32.9
88.0393	10.0
102.0550	11.5
106.0499	43.1
116.0343	2.3
120.0656	7.8
126.0551	4.1
128.0707	2.7
130.0500	16.4
134.0449	10.3
148.0606	41.8
154.0500	2.1
170.0448	3.8
171.0765	5.6
189.0871	4.7
189.0952	2.3
199.0714	6.2
217.0820	19.1
235.0927	14.2
235.1008	3.7

Name: (2S)-2-(((2S,3R)-2-azaniumyl-3-hydroxybutanoyl)amino)pentanedioate
PrecursorMZ: 249.10874
RT: 18.16365
ExactMass: 247.0930112
Spectrum_type: 2
charge: 1
Formula: C9H15N2O6-
SMILES: C[C@H]([C@@H](C(=O)N[C@@H](CCC(=O)[O-])C(=O)[O-])[NH3+])O
Method: HCD
Collision_energy: [28.333334]
Isolation_window: 4.0
Ion_mode: P
Num Peaks: 20
44.0494	5.1
56.0494	13.6
57.0334	1.8
58.0651	4.5
74.0600	100.0
84.0444	21.2
100.0757	1.9
102.0550	11.6
120.0656	21.2
130.0499	19.8
140.0707	3.3
146.0812	1.3
148.0606	57.9
168.0656	1.6
170.0449	6.6
185.0921	2.6
203.1027	3.7
213.0871	5.1
231.0977	11.1
249.1085	15.6

Name: (2S)-2-((2-acetamido-3-methylbutanoyl)amino)pentanedioic acid
PrecursorMZ: 289.14045
RT: 18.3113
ExactMass: 288.13213636
Spectrum_type: 2
charge: 1
Formula: C12H20N2O6
SMILES: CC(C)C(C(=O)N[C@@H](CCC(=O)O)C(=O)O)NC(=O)C
Method: HCD
Collision_energy: [28.333334]
Isolation_window: 4.0
Ion_mode: P
Num Peaks: 8
72.0807	78.1
84.0444	28.7
118.0863	28.1
130.0499	100.0
156.1020	13.4
172.0604	13.4
184.0968	55.6
243.1342	17.4

Name: (2S)-2-((2-amino-3-carboxypropanoyl)amino)-4-methylpentanoic acid
PrecursorMZ: 247.12953
RT: 21.1894
ExactMass: 246.12157168
Spectrum_type: 2
charge: 1
Formula: C10H18N2O5
SMILES: CC(C)C[C@@H](C(=O)O)NC(=O)C(CC(=O)O)N
Method: HCD
Collision_energy: [28.333334]
Isolation_window: 4.0
Ion_mode: P
Num Peaks: 19
44.0494	3.0
69.0698	8.3
84.0807	7.4
86.0964	100.0
88.0393	16.9
98.0964	2.5
110.0237	2.4
130.0863	21.5
132.1020	16.6
141.1023	8.4
144.1020	4.3
156.1020	4.1
166.0863	7.9
187.1077	4.9
201.1023	2.9
201.1235	21.8
212.0919	5.3
229.1184	2.3
247.1292	5.1

Name: (2S)-2-amino-5-((1-carboxy-3-methylsulfanylpropyl)amino)-5-oxopentanoic acid
PrecursorMZ: 279.10187
RT: 20.1932
ExactMass: 278.09364285
Spectrum_type: 2
charge: 1
Formula: C10H18N2O5S
SMILES: CSCCC(C(=O)O)NC(=O)CC[C@@H](C(=O)O)N
Method: HCD
Collision_energy: [28.333334]
Isolation_window: 4.0
Ion_mode: P
Num Peaks: 19
56.0495	29.6
61.0106	10.5
70.0651	4.4
84.0444	51.9
102.0550	9.8
104.0529	82.5
116.0707	4.8
130.0500	18.8
133.0319	64.8
150.0585	100.0
168.0656	10.5
201.0465	5.3
216.0691	11.0
219.0571	21.3
233.1216	9.3
262.0748	9.5
279.0936	78.5
279.1013	8.6
279.1271	11.9

Name: (2S)-2-azaniumyl-6-(carboxylatomethylazaniumyl)hexanoate
PrecursorMZ: 205.11871
RT: 16.1577
ExactMass: 204.111007
Spectrum_type: 2
charge: 1
Formula: C8H16N2O4
SMILES: C(CC[NH2+]CC(=O)[O-])C[C@@H](C(=O)[O-])[NH3+]
Method: HCD
Collision_energy: [28.333334]
Isolation_window: 4.0
Ion_mode: P
Num Peaks: 12
70.0651	100.0
84.0808	26.6
88.0393	8.2
116.0343	7.5
116.0707	57.5
130.0864	11.3
141.1024	11.7
142.0864	40.1
146.0601	6.4
188.0919	10.4
205.0820	12.4
205.1184	10.6

Name: (2S)-3-hydroxy-2-(((2S)-pyrrolidin-1-ium-2-carbonyl)amino)propanoate
PrecursorMZ: 203.10322
RT: 4.9384
ExactMass: 202.09535693
Spectrum_type: 2
charge: 1
Formula: C8H14N2O4
SMILES: C1C[C@H]([NH2+]C1)C(=O)N[C@@H](CO)C(=O)[O-]
Method: HCD
Collision_energy: [28.333334]
Isolation_window: 4.0
Ion_mode: P
Num Peaks: 6
70.0650	100.0
84.0808	3.8
101.0709	3.6
186.1124	4.7
203.0855	6.1
203.1026	14.1

Name: (2S)-6-acetamido-2-(((2S)-2-amino-5-(diaminomethylideneamino)pentanoyl)amino)hexanoic acid
PrecursorMZ: 383.18244
RT: 33.7412
ExactMass: 344.2172034
Spectrum_type: 2
charge: 1
Formula: C14H28N6O4
SMILES: CC(=O)NCCCC[C@@H](C(=O)O)NC(=O)[C@H](CCCN=C(N)N)N
Method: HCD
Collision_energy: [28.333334]
Isolation_window: 4.0
Ion_mode: P
Num Peaks: 6
84.0808	100.0
130.0863	40.6
147.1129	30.5
209.0810	14.6
320.1494	36.1
383.1815	85.5

Name: (2S,6S)-2-acetamido-6-aminoheptanedioate
PrecursorMZ: 233.11373
RT: 17.2644
ExactMass: 230.09027155
Spectrum_type: 2
charge: 1
Formula: C9H14N2O5-2
SMILES: CC(=O)N[C@@H](CCC[C@@H](C(=O)[O-])N)C(=O)[O-]
Method: HCD
Collision_energy: [28.333334]
Isolation_window: 4.0
Ion_mode: P
Num Peaks: 11
70.0651	100.0
84.0808	80.2
112.0757	96.1
115.0867	12.4
126.0914	53.6
128.0707	12.4
146.0602	15.7
169.0972	21.6
170.0812	28.2
187.1078	26.3
233.1134	25.9

Name: (3R)-2,3,4,9-tetrahydro-1H-pyrido(3,4-b)indol-2-ium-3-carboxylate
PrecursorMZ: 217.09756
RT: 34.8181
ExactMass: 216.08987763
Spectrum_type: 2
charge: 1
Formula: C12H12N2O2
SMILES: C1[C@@H]([NH2+]CC2=C1C3=CC=CC=C3N2)C(=O)[O-]
Method: HCD
Collision_energy: [28.333334]
Isolation_window: 4.0
Ion_mode: P
Num Peaks: 7
74.0236	5.8
130.0652	1.6
132.0808	1.2
144.0808	100.0
171.0917	2.3
173.1073	1.4
217.0973	5.8

Name: (3R)-4-(dimethyl(trideuteriomethyl)azaniumyl)-3-formyloxybutanoate
PrecursorMZ: 190.10749
RT: 3.3042
ExactMass: 192.1189382
Spectrum_type: 2
charge: 1
Formula: C8H15NO4
SMILES: [2H]C([2H])([2H])[N+](C)(C)C[C@@H](CC(=O)[O-])OC=O
Method: HCD
Collision_energy: [28.333334]
Isolation_window: 4.0
Ion_mode: P
Num Peaks: 6
58.0651	13.5
59.0729	18.3
60.0807	88.8
85.0284	74.0
131.0340	18.5
190.1075	100.0

Name: (4R)-4-azaniumyl-5-(((2R)-1-(((1S)-1-carboxylatoethyl)amino)-1-oxopropan-2-yl)amino)-5-oxopentanoate
PrecursorMZ: 290.13578
RT: 15.9402
ExactMass: 288.1195603
Spectrum_type: 2
charge: 1
Formula: C11H18N3O6-
SMILES: C[C@H](C(=O)N[C@@H](C)C(=O)[O-])NC(=O)[C@@H](CCC(=O)[O-])[NH3+]
Method: HCD
Collision_energy: [28.333334]
Isolation_window: 4.0
Ion_mode: P
Num Peaks: 11
84.0444	19.9
84.0808	7.2
90.0550	16.9
102.0550	68.9
144.1020	5.4
145.1054	7.6
155.0817	34.2
173.0922	100.0
201.0871	81.4
290.1354	4.7
290.1795	5.3

Name: (4R,5R,6S,7R)-4-amino-2,5,6,7,8-pentahydroxy-3-oxooctanoic acid
PrecursorMZ: 236.07712
RT: 20.3676
ExactMass: 253.07976644
Spectrum_type: 2
charge: 1
Formula: C8H15NO8
SMILES: C([C@H]([C@H]([C@@H]([C@H](C(=O)C(C(=O)O)O)N)O)O)O)O
Method: HCD
Collision_energy: [28.333334]
Isolation_window: 4.0
Ion_mode: P
Num Peaks: 7
44.0494	15.3
62.0600	20.2
129.0183	8.2
154.0500	100.0
172.0605	42.2
182.0449	27.2
190.0711	13.4

Name: (5-(6-Aminopurin-9-yl)-3,4-dihydroxyoxolan-2-yl)methyl (5-(6-aminopurin-9-yl)-4-hydroxy-2-methylperoxyoxolan-3-yl) hydrogen phosphate
PrecursorMZ: 613.15329
RT: 37.0613
Spectrum_type: 2
charge: 1
SMILES: COOC1C(C(C(O1)N2C=NC3=C(N=CN=C32)N)O)OP(=O)(O)OCC4C(C(C(O4)N5C=NC6=C(N=CN=C65)N)O)O
Method: HCD
Collision_energy: [28.333334]
Isolation_window: 4.0
Ion_mode: P
Num Peaks: 7
97.0284	68.5
136.0618	99.6
152.0568	56.3
348.0706	100.0
462.1025	53.5
478.0976	25.4
613.1517	32.2

Name: (S,S)-N,N'-Ethylenediglutamic acid
PrecursorMZ: 321.13025
RT: 31.1062
ExactMass: 320.1219656
Spectrum_type: 2
charge: 1
Formula: C12H20N2O8
SMILES: C(CC(=O)O)C(C(=O)O)NCCNC(CCC(=O)O)C(=O)O
Method: HCD
Collision_energy: [28.333334]
Isolation_window: 4.0
Ion_mode: P
Num Peaks: 50
70.0652	2.3
84.0808	100.0
86.0601	5.2
88.0394	2.1
98.0601	4.5
102.0552	2.0
103.0391	4.5
112.0758	7.5
114.0551	11.3
116.0707	3.0
129.0184	3.7
129.1024	2.8
130.0501	2.4
130.0864	35.1
132.0657	4.4
140.0707	8.2
144.0657	3.8
147.1130	37.4
157.0974	4.9
158.0813	30.3
162.0763	3.0
168.1020	6.8
176.0918	3.0
178.0711	24.2
184.0605	5.5
187.1078	2.5
194.0814	4.1
198.0762	2.6
202.0711	11.1
211.1079	3.1
212.0919	6.9
213.1236	2.9
220.0816	3.0
221.0924	2.3
222.0762	2.2
231.1342	4.8
239.1029	4.2
240.0869	9.0
257.1136	24.7
257.1290	3.2
258.0976	25.5
258.1128	2.9
259.1294	4.9
267.0981	2.1
275.1243	6.0
285.1086	2.7
303.1190	30.8
303.1345	2.1
304.1183	4.0
321.1294	68.9

Name: 1-((2,3,4-Trihydroxy-5-(hydroxymethyl)oxolan-2-yl)methyl)pyrrolidine-2-carboxylic acid
PrecursorMZ: 278.12444
RT: 18.2833
ExactMass: 277.11615195
Spectrum_type: 2
charge: 1
Formula: C11H19NO7
SMILES: C1CC(N(C1)CC2(C(C(C(O2)CO)O)O)O)C(=O)O
Method: HCD
Collision_energy: [28.333334]
Isolation_window: 4.0
Ion_mode: P
Num Peaks: 16
60.0444	10.4
70.0651	15.9
99.0441	8.4
116.0707	57.4
117.0547	12.7
117.0660	8.0
128.0707	49.2
134.0449	6.4
142.0864	36.1
145.0609	8.7
191.0664	6.1
214.1075	23.6
232.1181	92.6
236.1132	6.7
260.1133	9.1
278.1238	100.0

Name: 1-((2R,3S,5R)-3,4-dihydroxy-5-(hydroxymethyl)oxolan-2-yl)pyridin-1-ium-3-carboxylic acid
PrecursorMZ: 256.08258
RT: 2.4936
ExactMass: 256.08211217
Spectrum_type: 2
charge: 1
Formula: C11H14NO6+
SMILES: C1=CC(=C[N+](=C1)[C@H]2[C@H](C([C@H](O2)CO)O)O)C(=O)O
Method: HCD
Collision_energy: [28.333334]
Isolation_window: 4.0
Ion_mode: P
Num Peaks: 17
45.0334	0.9
55.0178	2.9
57.0334	5.1
61.0284	0.9
69.0334	1.8
71.0127	1.3
73.0284	3.5
85.0284	3.9
97.0284	1.9
115.0390	3.2
124.0393	100.0
133.0496	6.2
238.1076	1.2
256.0818	0.8
256.1182	4.8
256.1295	1.8
256.1696	1.1

Name: 1-((2S)-5-oxopyrrolidine-2-carbonyl)pyrrolidine-2-carboxylic acid
PrecursorMZ: 227.10329
RT: 3.4945
ExactMass: 226.09535693
Spectrum_type: 2
charge: 1
Formula: C10H14N2O4
SMILES: C1CC(N(C1)C(=O)[C@@H]2CCC(=O)N2)C(=O)O
Method: HCD
Collision_energy: [28.333334]
Isolation_window: 4.0
Ion_mode: P
Num Peaks: 14
70.0651	51.3
83.0603	7.0
84.0443	83.5
85.0648	6.5
96.0444	10.1
97.0477	8.7
116.0706	100.0
181.0971	11.4
181.1052	6.9
209.0919	8.9
227.1027	33.6
227.1107	28.3
227.1219	11.6
227.1754	16.3

Name: 1-(2-((2-Amino-4-methylpentanoyl)amino)acetyl)pyrrolidine-2-carboxylic acid
PrecursorMZ: 286.1772
RT: 4.0821
ExactMass: 285.16885622
Spectrum_type: 2
charge: 1
Formula: C13H23N3O4
SMILES: CC(C)CC(C(=O)NCC(=O)N1CCCC1C(=O)O)N
Method: HCD
Collision_energy: [28.333334]
Isolation_window: 4.0
Ion_mode: P
Num Peaks: 14
70.0651	48.6
86.0964	58.5
101.0597	8.9
116.0706	100.0
124.0393	13.7
127.0867	8.7
143.1180	44.2
171.1128	8.1
173.0921	26.8
201.0872	9.0
215.1391	23.1
286.1289	48.3
286.1400	21.3
286.1764	20.4

Name: 1-(2-(Furan-2-yl)-2-oxoethyl)-5-oxopyrrolidine-2-carboxylic acid
PrecursorMZ: 238.07151
RT: 7.2882
ExactMass: 237.06372245
Spectrum_type: 2
charge: 1
Formula: C11H11NO5
SMILES: C1CC(=O)N(C1C(=O)O)CC(=O)C2=CC=CO2
Method: HCD
Collision_energy: [28.333334]
Isolation_window: 4.0
Ion_mode: P
Num Peaks: 29
55.0542	2.4
68.0494	16.0
81.0335	6.0
84.0444	32.0
96.0444	8.2
97.0285	2.4
107.0492	5.7
109.0286	1.7
114.0550	72.7
135.0442	1.8
136.0619	3.3
136.0758	1.5
136.1122	1.8
142.0500	100.0
146.0966	5.2
160.0606	2.7
163.1232	2.4
164.0708	23.7
164.1071	6.6
170.0449	5.0
174.0915	1.8
179.0578	2.2
192.0657	12.1
192.1020	30.6
202.0711	2.3
210.1127	3.7
220.0809	3.1
238.0713	13.2
238.1076	2.2

Name: 1-(5-((3R)-1,2,3,4-tetrahydroxybutyl)-1H-imidazol-2-yl)ethanone
PrecursorMZ: 277.10395
RT: 8.4769
ExactMass: 230.09027155
Spectrum_type: 2
charge: 1
Formula: C9H14N2O5
SMILES: CC(=O)C1=NC=C(N1)C(C([C@@H](CO)O)O)O
Method: HCD
Collision_energy: [28.333334]
Isolation_window: 4.0
Ion_mode: P
Num Peaks: 13
96.0444	21.5
97.0396	85.1
103.0390	11.3
120.0808	21.7
139.0503	100.0
157.0608	76.0
181.0609	13.1
199.0714	32.6
211.0714	52.4
231.1129	13.1
241.0822	11.9
259.0928	38.7
277.1033	12.6

Name: 1H-Imidazole-5-propanoic acid
PrecursorMZ: 141.066
RT: 7.7328
ExactMass: 140.058577502
Spectrum_type: 2
charge: 1
Formula: C6H8N2O2
SMILES: C1=C(NC=N1)CCC(=O)O
Method: HCD
Collision_energy: [28.333334]
Isolation_window: 4.0
Ion_mode: P
Num Peaks: 12
54.0338	0.5
68.0495	2.6
81.0447	70.9
81.0470	1.1
82.0526	0.5
95.0604	37.0
95.0632	0.5
96.0682	1.0
99.0554	4.1
123.0553	100.0
123.0606	0.6
141.0660	24.0

Name: 2-(((2R)-pyrrolidine-2-carbonyl)amino)propanoic acid
PrecursorMZ: 187.10824
RT: 5.0264
ExactMass: 186.10044231
Spectrum_type: 2
charge: 1
Formula: C8H14N2O3
SMILES: CC(C(=O)O)NC(=O)[C@H]1CCCN1
Method: HCD
Collision_energy: [28.333334]
Isolation_window: 4.0
Ion_mode: P
Num Peaks: 20
44.0494	13.4
45.0465	0.7
45.0528	4.5
70.0650	100.0
70.0673	1.1
72.0444	0.9
73.0477	0.7
86.0965	0.8
87.0553	3.2
88.0587	2.4
101.0710	0.7
115.0503	1.4
116.0537	1.4
141.0853	2.6
142.1228	0.7
159.0959	1.8
169.0804	0.7
187.0846	3.5
187.0908	24.2
187.1079	13.7

Name: 2-(((2S)-5-oxopyrrolidine-2-carbonyl)amino)pentanedioic acid
PrecursorMZ: 259.09352
RT: 18.5799
ExactMass: 258.08518617
Spectrum_type: 2
charge: 1
Formula: C10H14N2O6
SMILES: C1CC(=O)N[C@@H]1C(=O)NC(CCC(=O)O)C(=O)O
Method: HCD
Collision_energy: [28.333334]
Isolation_window: 4.0
Ion_mode: P
Num Peaks: 13
84.0444	64.8
85.0760	19.5
127.0867	17.5
130.0499	28.6
131.0816	58.6
148.0606	11.9
171.0765	46.7
173.0921	50.6
199.0715	55.9
213.0871	10.3
217.0821	100.0
241.0821	16.2
259.0930	23.2

Name: 2-(((5S)-5-amino-5-carboxypentyl)amino)pentanedioic acid
PrecursorMZ: 277.14045
RT: 16.3133
ExactMass: 276.13213636
Spectrum_type: 2
charge: 1
Formula: C11H20N2O6
SMILES: C(CCNC(CCC(=O)O)C(=O)O)C[C@@H](C(=O)O)N
Method: HCD
Collision_energy: [28.333334]
Isolation_window: 4.0
Ion_mode: P
Num Peaks: 28
84.0444	5.4
84.0807	100.0
84.0831	1.3
85.0284	1.3
85.0477	3.6
112.0757	1.9
126.0914	5.7
130.0499	4.6
130.0863	19.3
131.0533	3.3
142.0863	1.3
147.0765	2.3
148.0799	2.6
167.1180	1.3
170.0812	10.2
172.0969	12.0
184.0969	1.3
201.1235	2.3
213.1235	9.5
214.1075	5.1
214.1439	1.9
231.1341	40.8
235.1291	13.8
242.0856	3.4
259.1124	2.4
259.1293	5.3
277.1398	32.0
277.1761	1.3

Name: 2-((1-(2-Amino-3-hydroxybutanoyl)pyrrolidine-2-carbonyl)amino)-3-phenylpropanoic acid
PrecursorMZ: 364.18793
RT: 6.3309
ExactMass: 363.17942091
Spectrum_type: 2
charge: 1
Formula: C18H25N3O5
SMILES: CC(C(C(=O)N1CCCC1C(=O)NC(CC2=CC=CC=C2)C(=O)O)N)O
Method: HCD
Collision_energy: [28.333334]
Isolation_window: 4.0
Ion_mode: P
Num Peaks: 5
70.0651	100.0
171.1129	32.2
199.1079	34.2
263.1394	89.4
364.1871	50.9

Name: 2-((1-(2-Amino-3-methylbutanoyl)pyrrolidine-2-carbonyl)amino)-3-phenylpropanoic acid
PrecursorMZ: 362.20855
RT: 7.8124
ExactMass: 361.20015635
Spectrum_type: 2
charge: 1
Formula: C19H27N3O4
SMILES: CC(C)C(C(=O)N1CCCC1C(=O)NC(CC2=CC=CC=C2)C(=O)O)N
Method: HCD
Collision_energy: [28.333334]
Isolation_window: 4.0
Ion_mode: P
Num Peaks: 6
70.0651	100.0
120.0808	14.7
215.1391	42.7
263.1394	91.0
362.1562	20.6
362.2071	27.3

Name: 2-((2-((2-Amino-4-methylpentanoyl)amino)-3-methylbutanoyl)amino)butanedioic acid
PrecursorMZ: 346.19825
RT: 22.3861
ExactMass: 345.18998559
Spectrum_type: 2
charge: 1
Formula: C15H27N3O6
SMILES: CC(C)CC(C(=O)NC(C(C)C)C(=O)NC(CC(=O)O)C(=O)O)N
Method: HCD
Collision_energy: [28.333334]
Isolation_window: 4.0
Ion_mode: P
Num Peaks: 4
72.0807	55.6
86.0964	100.0
185.1649	86.3
213.1598	38.9

Name: 2-((2-amino-3-(1H-imidazol-5-yl)propanoyl)amino)-3-phenylpropanoic acid
PrecursorMZ: 303.14611
RT: 10.2627
ExactMass: 302.13789045
Spectrum_type: 2
charge: 1
Formula: C15H18N4O3
SMILES: C1=CC=C(C=C1)CC(C(=O)O)NC(=O)C(CC2=CN=CN2)N
Method: HCD
Collision_energy: [28.333334]
Isolation_window: 4.0
Ion_mode: P
Num Peaks: 11
70.0651	4.9
110.0713	100.0
124.0758	5.2
129.1023	5.0
156.0768	6.6
180.1020	17.7
257.1400	5.9
285.1349	8.8
303.1380	17.3
303.1456	11.8
303.1704	25.8

Name: 2-(2-deuterio-5-hydroxy-1H-indol-3-yl)acetic acid
PrecursorMZ: 238.0716
RT: 26.59
ExactMass: 192.064519895
Spectrum_type: 2
charge: 1
Formula: C10H9NO3
SMILES: [2H]C1=C(C2=C(N1)C=CC(=C2)O)CC(=O)O
Method: HCD
Collision_energy: [28.333334]
Isolation_window: 4.0
Ion_mode: P
Num Peaks: 7
118.0652	5.5
130.0652	2.5
146.0602	8.1
147.0680	9.8
148.0758	14.1
192.0656	100.0
238.1076	6.0

Name: 2-(Dimethylamino)pentanedioate
PrecursorMZ: 176.09182
RT: 18.7079
ExactMass: 173.06880783
Spectrum_type: 2
charge: 1
Formula: C7H11NO4-2
SMILES: CN(C)C(CCC(=O)[O-])C(=O)[O-]
Method: HCD
Collision_energy: [28.333334]
Isolation_window: 4.0
Ion_mode: P
Num Peaks: 22
43.0178	1.8
44.0494	2.4
45.0334	1.6
46.0651	9.7
55.0542	1.4
58.0651	1.3
67.0542	1.2
69.0334	1.5
69.0698	3.2
70.0651	2.4
84.0808	36.5
85.0284	11.3
87.0441	13.1
90.0550	1.6
101.0597	1.6
112.0757	15.7
116.0707	2.5
130.0863	100.0
131.0340	3.4
158.0813	14.9
159.0765	1.1
176.0918	40.3

Name: 2-Amino-3-(3-(carboxymethyl)imidazol-4-yl)propanoic acid
PrecursorMZ: 214.08269
RT: 22.2642
ExactMass: 213.07495584
Spectrum_type: 2
charge: 1
Formula: C8H11N3O4
SMILES: C1=C(N(C=N1)CC(=O)O)CC(C(=O)O)N
Method: HCD
Collision_energy: [28.333334]
Isolation_window: 4.0
Ion_mode: P
Num Peaks: 12
83.0604	9.5
95.0604	57.1
98.0601	11.2
107.0604	11.7
124.0870	100.0
138.0220	10.3
150.0551	14.9
154.0501	9.9
168.0656	23.0
168.0768	68.4
196.0605	17.6
214.0823	35.4

Name: 2-Amino-5-((1-carboxy-2-(3,4-dihydroxyphenyl)ethyl)amino)-5-oxopentanoic acid
PrecursorMZ: 327.11982
RT: 16.2848
ExactMass: 326.11140092
Spectrum_type: 2
charge: 1
Formula: C14H18N2O7
SMILES: C1=CC(=C(C=C1CC(C(=O)O)NC(=O)CCC(C(=O)O)N)O)O
Method: HCD
Collision_energy: [28.333334]
Isolation_window: 4.0
Ion_mode: P
Num Peaks: 5
124.0758	9.2
152.0707	74.4
198.0762	100.0
281.1136	7.0
327.1189	14.7

Name: 2-amino-5-(15N)azanyl-5-oxo(513C)pentanoic acid
PrecursorMZ: 147.07684
RT: 20.8086
ExactMass: 148.06953191
Spectrum_type: 2
charge: 1
Formula: C5H10N2O3
SMILES: C(C[13C](=O)[15NH2])C(C(=O)O)N
Method: HCD
Collision_energy: [28.333334]
Isolation_window: 4.0
Ion_mode: P
Num Peaks: 7
56.0494	6.6
64.9272	55.4
84.0444	100.0
84.0808	68.9
123.9644	91.6
130.0499	41.2
130.0863	16.8

Name: 2-aminodecanedioic acid
PrecursorMZ: 218.13914
RT: 24.3506
Spectrum_type: 2
charge: 1
SMILES: C(CCCC(C(=O)O)N)CCCC(=O)O
Method: HCD
Collision_energy: [28.333334]
Isolation_window: 4.0
Ion_mode: P
Num Peaks: 12
56.0494	19.1
67.0542	6.9
69.0699	8.8
95.0856	4.3
109.1012	15.9
119.0856	4.3
136.1122	4.9
137.0962	5.9
154.1228	100.0
172.1333	84.8
200.1282	7.7
218.1388	8.7

Name: 3,7-dihydropurine-2,6-dione
PrecursorMZ: 153.04089
RT: 17.1905
ExactMass: 154.03381511
Spectrum_type: 2
charge: 1
Formula: C5H4N4O2
SMILES: C1=NC2=[13C]([15NH]1)C(=O)NC(=O)N2
Method: HCD
Collision_energy: [28.333334]
Isolation_window: 4.0
Ion_mode: P
Num Peaks: 6
55.0290	5.5
110.0349	40.8
128.0456	7.3
136.0143	28.4
153.0409	100.0
154.0249	64.5

Name: 3-((2E)-5-((3-(2-carboxyethyl)-5-(((2R)-4-((1R)-1-hydroxyethyl)-3-methyl-5-oxo-1,2-dihydropyrrol-2-yl)methyl)-4-methyl-1H-pyrrol-2-yl)methyl)-2-(((3R,4R)-3-ethyl-4-methyl-5-oxopyrrolidin-2-yl)methylidene)-3-methyl-1,3-dihydropyrrol-4-yl)propanoic acid
PrecursorMZ: 611.3457
RT: 30.6147
ExactMass: 610.33664982
Spectrum_type: 2
charge: 1
Formula: C33H46N4O7
SMILES: CC[C@@H]1[C@H](C(=O)NC1/C=C/2\C(C(=C(N2)CC3=C(C(=C(N3)C[C@@H]4C(=C(C(=O)N4)[C@@H](C)O)C)C)CCC(=O)O)CCC(=O)O)C)C
Method: HCD
Collision_energy: [28.333334]
Isolation_window: 4.0
Ion_mode: P
Num Peaks: 11
166.0864	9.3
180.1020	68.0
287.1393	21.6
303.1705	51.2
305.1861	9.3
319.1653	16.5
355.0700	7.9
356.0709	9.3
361.1760	29.2
486.2600	100.0
611.3437	27.6

Name: 3-(4-hydroxyphenyl)-2-(((2S)-5-oxopyrrolidine-2-carbonyl)amino)propanoic acid
PrecursorMZ: 293.11426
RT: 34.2365
ExactMass: 292.10592162
Spectrum_type: 2
charge: 1
Formula: C14H16N2O5
SMILES: C1CC(=O)N[C@@H]1C(=O)NC(CC2=CC=C(C=C2)O)C(=O)O
Method: HCD
Collision_energy: [28.333334]
Isolation_window: 4.0
Ion_mode: P
Num Peaks: 18
83.0603	6.2
84.0444	11.3
95.0491	3.8
108.0808	5.8
119.0490	4.7
123.0441	6.1
129.0659	9.9
136.0758	25.7
147.0441	3.9
151.1118	4.3
165.0547	9.0
168.1019	14.2
182.0812	14.8
184.0757	6.5
201.1022	19.9
247.1079	49.6
293.1134	100.0
293.2114	4.6

Name: 3-Methyl-2-((3,4,5-trimethoxybenzoyl)amino)butanoate
PrecursorMZ: 312.14522
RT: 34.5701
ExactMass: 310.12906236
Spectrum_type: 2
charge: 1
Formula: C15H20NO6-
SMILES: CC(C)C(C(=O)[O-])NC(=O)C1=CC(=C(C(=C1)OC)OC)OC
Method: HCD
Collision_energy: [28.333334]
Isolation_window: 4.0
Ion_mode: P
Num Peaks: 8
100.0757	9.6
101.0597	27.3
118.0863	100.0
136.0759	15.8
137.0791	16.4
148.0969	8.1
195.0652	71.8
312.1446	30.2

Name: 3-hydroxy-2-(((2S)-5-oxopyrrolidine-2-carbonyl)amino)propanoic acid
PrecursorMZ: 217.0824
RT: 18.489
ExactMass: 216.07462149
Spectrum_type: 2
charge: 1
Formula: C8H12N2O5
SMILES: C1CC(=O)N[C@@H]1C(=O)NC(CO)C(=O)O
Method: HCD
Collision_energy: [28.333334]
Isolation_window: 4.0
Ion_mode: P
Num Peaks: 7
60.0443	43.1
84.0444	100.0
88.0393	14.3
102.0550	14.7
106.0499	97.0
126.0551	18.0
171.0764	18.2

Name: 3-methyl-2-(((2R)-pyrrolidine-2-carbonyl)amino)pentanoic acid
PrecursorMZ: 229.15515
RT: 9.0349
ExactMass: 228.1473925
Spectrum_type: 2
charge: 1
Formula: C11H20N2O3
SMILES: CCC(C)C(C(=O)O)NC(=O)[C@H]1CCCN1
Method: HCD
Collision_energy: [28.333334]
Isolation_window: 4.0
Ion_mode: P
Num Peaks: 7
70.0650	100.0
70.0673	1.2
86.0964	1.1
113.0345	0.6
132.1018	0.6
183.1493	2.1
229.1549	18.9

Name: 4-Amino-5-((2-((2-(carboxymethylamino)-2-oxoethyl)amino)-2-oxoethyl)amino)-5-oxopentanoic acid
PrecursorMZ: 319.12599
RT: 15.918
ExactMass: 318.11754893
Spectrum_type: 2
charge: 1
Formula: C11H18N4O7
SMILES: C(CC(=O)O)C(C(=O)NCC(=O)NCC(=O)NCC(=O)O)N
Method: HCD
Collision_energy: [28.333334]
Isolation_window: 4.0
Ion_mode: P
Num Peaks: 46
76.0393	12.4
83.0603	11.7
84.0444	37.8
84.0808	17.8
87.0553	32.2
88.0393	29.7
101.0710	15.9
102.0550	38.5
124.0394	12.5
126.0914	18.9
129.1024	12.2
130.0499	27.5
133.0608	75.0
141.0659	20.9
144.1020	33.3
147.0765	33.0
148.0758	100.0
154.0864	14.7
159.0765	32.8
166.0863	94.5
181.0608	17.1
184.0717	11.6
185.0557	17.5
187.0714	32.1
194.0813	61.3
198.0874	12.6
199.0714	25.9
202.0823	13.5
205.0820	12.3
215.0662	13.8
216.0980	44.0
226.0824	23.4
227.0665	29.2
230.0774	22.8
238.0824	16.7
239.0664	16.5
243.0616	17.4
244.0931	26.5
273.1602	31.9
284.0880	15.1
285.0720	23.2
301.1146	28.3
301.1545	18.1
302.0985	16.0
319.1617	38.2
319.1866	34.2

Name: 4-amino-5-(((1S)-4-amino-1-carboxy-4-oxobutyl)amino)-5-oxopentanoic acid
PrecursorMZ: 276.12005
RT: 16.7285
ExactMass: 275.11173527
Spectrum_type: 2
charge: 1
Formula: C10H17N3O6
SMILES: C(CC(=O)N)[C@@H](C(=O)O)NC(=O)C(CCC(=O)O)N
Method: HCD
Collision_energy: [28.333334]
Isolation_window: 4.0
Ion_mode: P
Num Peaks: 41
56.0495	2.1
70.0651	2.6
83.0604	22.3
84.0444	100.0
84.0467	1.6
84.0808	5.6
88.0394	1.6
101.0710	9.8
102.0550	11.4
112.0757	2.4
113.0790	2.5
115.0866	6.2
126.0551	2.7
129.0659	14.7
129.1023	1.8
130.0500	40.7
130.0864	3.0
134.0448	1.7
138.0551	6.5
141.0660	5.3
141.0740	1.9
143.0816	4.3
146.0601	2.7
147.0766	9.3
147.1129	2.3
148.0606	15.7
159.0766	4.4
167.0816	4.0
187.0715	4.9
188.0707	11.8
195.0765	7.9
205.0821	2.9
205.0972	6.3
212.1031	4.9
213.0871	7.0
223.0715	10.1
240.0981	6.7
241.0822	37.4
258.1089	55.9
259.0929	18.1
276.1194	2.5

Name: 4-amino-5-((E)-2-(4-amino-1-((3R,4S,5R)-3,4-dihydroxy-5-(hydroxymethyl)oxolan-2-yl)-2-oxopyrimidin-5-yl)ethenyl)-1-((3R,4S,5R)-3,4-dihydroxy-5-(hydroxymethyl)oxolan-2-yl)pyrimidin-2-one
PrecursorMZ: 549.13588
RT: 9.0702
ExactMass: 510.17104105
Spectrum_type: 2
charge: 1
Formula: C20H26N6O10
SMILES: C1=C(C(=NC(=O)N1C2[C@@H]([C@@H]([C@H](O2)CO)O)O)N)/C=C/C3=CN(C(=O)N=C3N)C4[C@@H]([C@@H]([C@H](O4)CO)O)O
Method: HCD
Collision_energy: [28.333334]
Isolation_window: 4.0
Ion_mode: P
Num Peaks: 9
97.0284	66.3
112.0505	100.0
181.0496	6.0
226.0823	8.0
244.0930	8.7
309.0373	12.5
327.0478	11.9
438.0909	18.3
549.1344	8.1

Name: 5-Acetamido-4-hydroxy-2-prop-2-enyl-6-(1,2,3-trihydroxypropyl)oxane-2-carboxylic acid
PrecursorMZ: 334.15084
RT: 14.9386
ExactMass: 333.14236669
Spectrum_type: 2
charge: 1
Formula: C14H23NO8
SMILES: CC(=O)NC1C(CC(OC1C(C(CO)O)O)(CC=C)C(=O)O)O
Method: HCD
Collision_energy: [28.333334]
Isolation_window: 4.0
Ion_mode: P
Num Peaks: 4
101.0597	8.5
298.1287	23.6
316.1392	100.0
334.1498	89.7

Name: 5-Amino-2-((5-amino-2-((2,5-diamino-5-oxopentanoyl)amino)-5-oxopentanoyl)amino)-5-oxopentanoic acid
PrecursorMZ: 403.19474
RT: 3.1078
ExactMass: 402.18629719
Spectrum_type: 2
charge: 1
Formula: C15H26N6O7
SMILES: C(CC(=O)N)C(C(=O)NC(CCC(=O)N)C(=O)NC(CCC(=O)N)C(=O)O)N
Method: HCD
Collision_energy: [28.333334]
Isolation_window: 4.0
Ion_mode: P
Num Peaks: 11
84.0444	43.2
101.0709	31.9
128.0819	28.8
129.0659	35.1
130.0499	34.0
147.0765	100.0
239.1140	42.9
240.0979	38.1
241.0821	24.1
257.1248	35.6
385.1832	89.0

Name: 5-Hydroxy-2-((2-methylpropan-2-yl)oxycarbonylamino)-5-oxopentanoate
PrecursorMZ: 248.11351
RT: 31.8082
ExactMass: 246.09776223
Spectrum_type: 2
charge: 1
Formula: C10H16NO6-
SMILES: CC(C)(C)OC(=O)NC(CCC(=O)O)C(=O)[O-]
Method: HCD
Collision_energy: [28.333334]
Isolation_window: 4.0
Ion_mode: P
Num Peaks: 32
55.0542	19.0
59.0491	3.3
68.0495	2.8
83.0491	10.4
84.0444	14.4
84.0808	8.5
85.0284	5.8
98.0601	6.8
100.0757	14.5
101.0598	33.5
102.0550	8.5
112.0216	5.0
112.0757	8.4
130.0500	11.5
130.0863	15.9
138.0373	8.0
138.0915	59.6
144.0656	7.8
148.0606	13.1
156.0479	4.1
158.0272	12.7
166.0863	26.5
168.0657	3.2
184.0427	56.8
184.0969	45.3
202.0534	5.9
202.1075	41.5
212.0918	7.4
230.0484	60.8
248.0590	3.2
248.0922	3.5
248.1132	100.0

Name: 5-methyl-(213C,1,3-15N2)1H-pyrimidine-2,4-dione
PrecursorMZ: 127.05044
RT: 12.6039
ExactMass: 129.04035206
Spectrum_type: 2
charge: 1
Formula: C5H6N2O2
SMILES: CC1=C[15NH][13C](=O)[15NH]C1=O
Method: HCD
Collision_energy: [28.333334]
Isolation_window: 4.0
Ion_mode: P
Num Peaks: 7
54.0338	9.6
81.0447	8.1
82.0287	6.9
84.0444	16.2
109.0397	11.6
110.0237	36.9
127.0503	100.0

Name: 8-amino-6,7-dihydro-1H-purin-6-one
PrecursorMZ: 152.0568
RT: 15.1072
ExactMass: 151.0494098
Spectrum_type: 2
charge: 1
Formula: C5H5N5O
SMILES: C1=NC2=C(C(=O)N1)NC(=N2)N
Method: HCD
Collision_energy: [28.333334]
Isolation_window: 4.0
Ion_mode: P
Num Peaks: 11
55.0290	2.3
82.0400	3.6
98.0349	2.1
106.0652	2.1
108.0193	2.1
124.0619	2.9
125.0459	6.5
134.0602	3.7
152.0569	100.0
152.0708	2.4
153.0409	1.9

Name: Ac-Pra-Gly-Leu-Phe-His-Ala-Leu-NH2
PrecursorMZ: 815.41705
RT: 11.3866
ExactMass: 792.42825878
Spectrum_type: 2
charge: 1
Formula: C39H56N10O8
SMILES: C[C@@H](C(=O)N[C@@H](CC(C)C)C(=O)N)NC(=O)[C@H](CC1=CN=CN1)NC(=O)[C@H](CC2=CC=CC=C2)NC(=O)[C@H](CC(C)C)NC(=O)CNC(=O)[C@H](CC#C)NC(=O)C
Method: HCD
Collision_energy: [28.333334]
Isolation_window: 4.0
Ion_mode: P
Num Peaks: 3
217.1185	100.0
415.2192	63.2
815.4153	55.2

Name: Acetyl-L-methionine sulfoxide
PrecursorMZ: 208.0644
RT: 3.6184
ExactMass: 207.05652907
Spectrum_type: 2
charge: 1
Formula: C7H13NO4S
SMILES: CC(=O)N[C@@H](CCS(=O)C)C(=O)O
Method: HCD
Collision_energy: [28.333334]
Isolation_window: 4.0
Ion_mode: P
Num Peaks: 15
56.0494	16.3
62.0600	6.3
74.0236	13.9
86.0600	24.2
98.0600	69.8
102.0550	6.4
144.0656	100.0
144.1020	6.0
149.0597	5.3
162.1124	8.8
166.0533	8.9
208.0605	12.7
208.0969	21.1
208.1179	22.2
208.1333	6.3

Name: Ala-Ser-Pro
PrecursorMZ: 274.1409
RT: 3.5439
ExactMass: 273.13247072
Spectrum_type: 2
charge: 1
Formula: C11H19N3O5
SMILES: C[C@@H](C(=O)N[C@@H](CO)C(=O)N1CCC[C@@H]1C(=O)O)N
Method: HCD
Collision_energy: [28.333334]
Isolation_window: 4.0
Ion_mode: P
Num Peaks: 6
70.0651	53.4
116.0706	46.4
146.0925	24.5
157.0972	22.3
187.1077	24.8
274.1402	100.0

Name: Arginyl-glutamyl-glutamic acid
PrecursorMZ: 433.20556
RT: 14.9986
ExactMass: 432.19686187
Spectrum_type: 2
charge: 1
Formula: C16H28N6O8
SMILES: C(C[C@@H](C(=O)N[C@@H](CCC(=O)O)C(=O)N[C@@H](CCC(=O)O)C(=O)O)N)CN=C(N)N
Method: HCD
Collision_energy: [28.333334]
Isolation_window: 4.0
Ion_mode: P
Num Peaks: 8
70.0650	7.0
84.0444	5.9
116.0706	8.1
158.0925	9.4
175.1190	25.9
304.1617	17.2
415.1938	9.5
433.2043	100.0

Name: Asp-Lys zwitterion
PrecursorMZ: 262.14086
RT: 15.0783
ExactMass: 261.13247072
Spectrum_type: 2
charge: 1
Formula: C10H19N3O5
SMILES: C(CC[NH3+])C[C@@H](C(=O)[O-])NC(=O)[C@H](CC(=O)[O-])[NH3+]
Method: HCD
Collision_energy: [28.333334]
Isolation_window: 4.0
Ion_mode: P
Num Peaks: 27
70.0287	6.3
70.0651	20.3
82.0651	28.9
84.0444	7.2
84.0808	100.0
88.0393	16.7
115.0866	20.0
116.0707	21.1
128.0707	94.7
129.1024	4.0
130.0500	4.8
130.0863	38.8
133.0972	11.9
139.0866	25.7
147.1129	62.6
157.0973	12.6
173.0921	10.0
181.0972	6.2
182.0812	10.8
191.1027	7.4
198.1238	10.3
199.1078	64.7
216.1344	7.8
227.1027	5.1
244.1295	14.4
245.1134	13.7
262.1401	59.7

Name: Asp-Val-Lys
PrecursorMZ: 361.20943
RT: 14.4886
ExactMass: 360.20088463
Spectrum_type: 2
charge: 1
Formula: C15H28N4O6
SMILES: CC(C)[C@@H](C(=O)N[C@@H](CCCCN)C(=O)O)NC(=O)[C@H](CC(=O)O)N
Method: HCD
Collision_energy: [28.333334]
Isolation_window: 4.0
Ion_mode: P
Num Peaks: 13
70.0651	30.6
72.0807	28.4
84.0808	61.3
86.0964	67.6
110.0713	33.8
129.1023	55.5
130.0863	47.1
147.1129	86.9
187.1078	85.7
197.1286	27.4
229.1549	27.1
246.1815	58.1
361.2084	100.0

Name: Aspartylglycyllysine
PrecursorMZ: 319.16224
RT: 14.4688
ExactMass: 318.15393443
Spectrum_type: 2
charge: 1
Formula: C12H22N4O6
SMILES: C(CCN)CC(C(=O)O)NC(=O)CNC(=O)C(CC(=O)O)N
Method: HCD
Collision_energy: [28.333334]
Isolation_window: 4.0
Ion_mode: P
Num Peaks: 15
70.0651	17.7
84.0808	97.8
127.0502	18.3
127.0866	19.6
128.0707	37.3
129.1023	51.2
130.0863	43.2
147.1129	67.2
173.0921	23.1
190.1187	19.9
191.1027	12.8
204.1343	46.5
248.1243	16.7
319.1614	100.0
319.1977	16.9

Name: Dibutylsulfanium
PrecursorMZ: 147.12132
RT: 2.1353
ExactMass: 147.12074678
Spectrum_type: 2
charge: 1
Formula: C8H19S+
SMILES: CCCC[SH+]CCCC
Method: HCD
Collision_energy: [28.333334]
Isolation_window: 4.0
Ion_mode: P
Num Peaks: 25
41.0385	0.9
43.0178	19.5
44.0212	7.5
44.0494	0.8
45.0334	14.7
46.0368	5.0
55.0178	0.8
55.0542	1.4
57.0335	1.1
60.0807	39.6
61.0778	2.9
61.0841	27.2
61.0870	1.2
64.9272	5.2
69.0335	3.5
83.0491	2.7
84.0808	3.0
85.0284	1.8
87.0440	60.3
88.0474	69.8
88.0502	1.7
123.9645	8.5
147.1147	4.8
147.1210	100.0
147.1240	1.9

Name: Gaba carboxy-14C
PrecursorMZ: 86.06033
RT: 4.04175
ExactMass: 105.06657052
Spectrum_type: 2
charge: 1
Formula: C4H9NO2
SMILES: C(C[14C](=O)O)CN
Method: HCD
Collision_energy: [28.333334]
Isolation_window: 4.0
Ion_mode: P
Num Peaks: 8
41.0385	43.3
43.0542	12.2
44.0494	32.9
68.0494	7.5
69.0334	100.0
69.0698	9.0
86.0600	73.3
86.0964	18.0

Name: Gln-Ala-Phe
PrecursorMZ: 365.18303
RT: 4.8767
ExactMass: 364.17466988
Spectrum_type: 2
charge: 1
Formula: C17H24N4O5
SMILES: C[C@@H](C(=O)N[C@@H](CC1=CC=CC=C1)C(=O)O)NC(=O)[C@H](CCC(=O)N)N
Method: HCD
Collision_energy: [28.333334]
Isolation_window: 4.0
Ion_mode: P
Num Peaks: 8
83.0603	27.0
90.0550	28.8
120.0808	100.0
166.0862	86.5
182.0922	31.3
230.1289	47.2
231.1129	58.1
347.1715	72.0

Name: Gln-Gly-Pro
PrecursorMZ: 301.15163
RT: 3.5786
ExactMass: 300.14336975
Spectrum_type: 2
charge: 1
Formula: C12H20N4O5
SMILES: C1C[C@@H](N(C1)C(=O)CNC(=O)[C@H](CCC(=O)N)N)C(=O)O
Method: HCD
Collision_energy: [28.333334]
Isolation_window: 4.0
Ion_mode: P
Num Peaks: 22
70.0651	18.8
84.0443	9.4
84.0807	24.1
96.0443	3.8
98.0600	13.7
110.0600	3.6
112.0757	4.7
116.0706	40.5
124.0757	3.1
128.0706	56.4
140.0706	25.6
154.0863	3.6
158.0812	10.7
181.0971	4.8
186.0874	4.7
209.0921	5.8
227.1027	22.5
239.1028	13.2
265.1187	4.7
283.1291	100.0
301.1395	20.9
301.1503	26.2

Name: Gln-Leu-Phe
PrecursorMZ: 407.22999
RT: 7.0852
ExactMass: 406.22162007
Spectrum_type: 2
charge: 1
Formula: C20H30N4O5
SMILES: CC(C)C[C@@H](C(=O)N[C@@H](CC1=CC=CC=C1)C(=O)O)NC(=O)[C@H](CCC(=O)N)N
Method: HCD
Collision_energy: [28.333334]
Isolation_window: 4.0
Ion_mode: P
Num Peaks: 9
86.0964	38.9
120.0808	79.3
166.0863	100.0
196.1445	72.2
197.1285	59.6
214.1550	54.8
224.1394	42.0
242.1501	26.0
389.2184	66.5

Name: Gln-Tyr
PrecursorMZ: 310.14077
RT: 20.962
ExactMass: 309.13247072
Spectrum_type: 2
charge: 1
Formula: C14H19N3O5
SMILES: C1=CC(=CC=C1C[C@@H](C(=O)O)NC(=O)[C@H](CCC(=O)N)N)O
Method: HCD
Collision_energy: [28.333334]
Isolation_window: 4.0
Ion_mode: P
Num Peaks: 15
83.0603	62.1
84.0443	40.6
101.0709	21.2
129.0658	9.3
136.0757	69.0
165.0546	35.1
181.0801	9.4
182.0812	58.2
193.0972	27.8
207.1129	10.2
239.1029	10.3
246.1238	10.7
247.1080	50.9
292.1295	100.0
293.1136	40.4

Name: Glu-Ala-Gln
PrecursorMZ: 347.15726
RT: 15.1383
ExactMass: 346.14884905
Spectrum_type: 2
charge: 1
Formula: C13H22N4O7
SMILES: C[C@@H](C(=O)N[C@@H](CCC(=O)N)C(=O)O)NC(=O)[C@H](CCC(=O)O)N
Method: HCD
Collision_energy: [28.333334]
Isolation_window: 4.0
Ion_mode: P
Num Peaks: 29
83.0604	42.6
84.0444	89.7
84.0808	8.9
90.0550	62.8
101.0710	19.5
102.0550	24.7
129.0659	19.7
129.1023	8.5
130.0499	30.8
147.0765	41.9
148.0606	11.2
154.0976	6.6
155.0816	9.5
167.0816	22.9
173.0921	13.9
195.0765	38.5
201.0871	34.7
212.1031	71.1
213.0871	38.9
230.1137	13.0
240.0981	31.6
241.0821	62.8
258.1088	23.2
311.1351	6.1
312.1191	8.3
329.1458	100.0
330.1298	10.9
347.1563	9.8
347.1929	8.2

Name: Glu-Glu-Gln
PrecursorMZ: 405.16286
RT: 29.9705
ExactMass: 404.15432836
Spectrum_type: 2
charge: 1
Formula: C15H24N4O9
SMILES: C(CC(=O)O)[C@@H](C(=O)N[C@@H](CCC(=O)O)C(=O)N[C@@H](CCC(=O)N)C(=O)O)N
Method: HCD
Collision_energy: [28.333334]
Isolation_window: 4.0
Ion_mode: P
Num Peaks: 9
84.0444	28.8
102.0550	17.4
130.0499	49.0
147.0765	100.0
187.0714	14.7
201.0870	20.4
241.0821	20.6
387.1877	11.5
405.1622	19.7

Name: Glu-Gly-Tyr
PrecursorMZ: 368.14629
RT: 33.0053
ExactMass: 367.13795002
Spectrum_type: 2
charge: 1
Formula: C16H21N3O7
SMILES: C1=CC(=CC=C1C[C@@H](C(=O)O)NC(=O)CNC(=O)[C@H](CCC(=O)O)N)O
Method: HCD
Collision_energy: [28.333334]
Isolation_window: 4.0
Ion_mode: P
Num Peaks: 14
84.0444	18.0
102.0550	17.9
136.0757	100.0
141.0659	31.3
148.0606	20.0
159.0765	43.1
165.0547	36.1
169.0608	13.4
182.0812	64.2
187.0714	27.5
193.0972	57.8
207.1129	29.9
239.1029	15.3
247.1080	27.2

Name: Glu-Tyr-Leu
PrecursorMZ: 424.20918
RT: 34.1064
ExactMass: 423.20055027
Spectrum_type: 2
charge: 1
Formula: C20H29N3O7
SMILES: CC(C)C[C@@H](C(=O)O)NC(=O)[C@H](CC1=CC=C(C=C1)O)NC(=O)[C@H](CCC(=O)O)N
Method: HCD
Collision_energy: [28.333334]
Isolation_window: 4.0
Ion_mode: P
Num Peaks: 7
86.0964	79.8
132.1020	88.3
136.0757	100.0
182.0812	41.5
215.1392	63.0
247.1080	67.5
265.1188	78.7

Name: Glu-Val-Gln
PrecursorMZ: 375.1886
RT: 15.5372
ExactMass: 374.18014918
Spectrum_type: 2
charge: 1
Formula: C15H26N4O7
SMILES: CC(C)[C@@H](C(=O)N[C@@H](CCC(=O)N)C(=O)O)NC(=O)[C@H](CCC(=O)O)N
Method: HCD
Collision_energy: [28.333334]
Isolation_window: 4.0
Ion_mode: P
Num Peaks: 35
72.0807	79.0
83.0603	22.7
84.0444	52.2
84.0808	27.7
86.0964	16.6
101.0709	12.6
102.0550	17.1
118.0863	98.6
129.0659	12.8
129.1023	30.4
130.0499	22.4
130.0863	21.4
147.0765	28.0
147.1129	36.6
148.0606	51.4
167.0815	14.0
182.1288	40.6
183.1129	52.5
195.0765	24.2
200.1395	22.8
201.1235	41.1
210.1239	17.8
211.1078	12.0
212.1030	55.5
213.0870	22.3
228.1344	11.9
229.1184	29.7
230.1136	15.3
240.0981	42.3
241.0821	29.9
258.1088	30.1
260.1973	24.7
357.1771	100.0
375.1878	15.6
375.2240	54.8

Name: Glu-Val-Pro
PrecursorMZ: 344.18274
RT: 15.7032
ExactMass: 343.17433553
Spectrum_type: 2
charge: 1
Formula: C15H25N3O6
SMILES: CC(C)[C@@H](C(=O)N1CCC[C@@H]1C(=O)O)NC(=O)[C@H](CCC(=O)O)N
Method: HCD
Collision_energy: [28.333334]
Isolation_window: 4.0
Ion_mode: P
Num Peaks: 9
70.0651	100.0
72.0807	54.8
84.0444	19.3
116.0706	33.3
118.0863	81.2
181.0972	77.3
209.0922	76.4
215.1391	25.9
344.1664	17.0

Name: Glutamylasparagine
PrecursorMZ: 262.10447
RT: 17.1182
ExactMass: 261.09608521
Spectrum_type: 2
charge: 1
Formula: C9H15N3O6
SMILES: C(CC(=O)O)[C@@H](C(=O)N[C@@H](CC(=O)N)C(=O)O)N
Method: HCD
Collision_energy: [28.333334]
Isolation_window: 4.0
Ion_mode: P
Num Peaks: 40
56.0495	2.9
70.0287	3.3
74.0236	3.3
83.0603	16.9
84.0444	100.0
84.0808	6.0
87.0553	14.9
88.0393	11.5
101.0710	23.5
102.0550	18.4
116.0343	4.9
129.0659	12.6
130.0499	8.5
132.0808	2.2
133.0608	52.7
134.0448	28.4
136.0394	12.3
139.0503	6.2
146.0600	2.0
148.0606	6.6
155.0816	4.6
157.0609	2.6
164.0343	5.3
181.0608	24.4
182.0449	12.5
185.0557	13.6
188.0707	6.7
191.0664	4.1
199.0715	15.7
200.0555	2.2
203.0663	9.5
205.0972	2.1
209.0558	15.9
226.0824	11.1
227.0664	75.4
228.0504	10.8
244.0931	27.1
245.0771	17.4
262.1038	3.5
262.1288	2.4

Name: H-D-Tyr-Gly-Gly-D-Phe-D-Met(O)-OH
PrecursorMZ: 590.22777
RT: 6.3526
ExactMass: 589.22063427
Spectrum_type: 2
charge: 1
Formula: C27H35N5O8S
SMILES: CS(=O)CC[C@H](C(=O)O)NC(=O)[C@@H](CC1=CC=CC=C1)NC(=O)CNC(=O)CNC(=O)[C@@H](CC2=CC=C(C=C2)O)N
Method: HCD
Collision_energy: [28.333334]
Isolation_window: 4.0
Ion_mode: P
Num Peaks: 3
86.0964	9.1
132.1019	100.0
263.1969	10.9

Name: H-DL-Arg-Gly-DL-Asp-DL-Ala-OH
PrecursorMZ: 418.20577
RT: 3.3999
ExactMass: 417.19719623
Spectrum_type: 2
charge: 1
Formula: C15H27N7O7
SMILES: CC(C(=O)O)NC(=O)C(CC(=O)O)NC(=O)CNC(=O)C(CCCN=C(N)N)N
Method: HCD
Collision_energy: [28.333334]
Isolation_window: 4.0
Ion_mode: P
Num Peaks: 27
70.0650	17.5
72.0807	8.6
74.0600	8.3
86.0964	38.7
101.0709	15.7
129.1022	11.7
147.0764	10.5
158.0924	9.1
159.0765	7.8
173.1284	13.6
175.1189	13.2
186.0872	8.2
200.1030	13.6
201.0870	7.7
203.1027	12.0
216.0979	25.8
218.1135	9.2
241.1298	8.0
242.1499	7.7
287.1354	8.0
329.1818	8.1
400.2191	10.8
401.1781	10.1
418.2046	100.0
418.2307	8.5
418.2489	11.1
418.2661	15.1

Name: H-DL-Leu-DL-Ser-DL-Tyr-OH
PrecursorMZ: 382.19833
RT: 25.6761
ExactMass: 381.18998559
Spectrum_type: 2
charge: 1
Formula: C18H27N3O6
SMILES: CC(C)CC(C(=O)NC(CO)C(=O)NC(CC1=CC=C(C=C1)O)C(=O)O)N
Method: HCD
Collision_energy: [28.333334]
Isolation_window: 4.0
Ion_mode: P
Num Peaks: 7
86.0964	24.1
87.0553	8.6
136.0758	11.3
173.1286	100.0
182.0812	16.6
201.1235	28.7
359.0262	27.5

Name: H-Gly-Gly-Val-Val-Ile-Ala-OH
PrecursorMZ: 515.32042
RT: 3.0367
ExactMass: 514.3114977
Spectrum_type: 2
charge: 1
Formula: C23H42N6O7
SMILES: CC[C@H](C)[C@@H](C(=O)N[C@@H](C)C(=O)O)NC(=O)[C@H](C(C)C)NC(=O)[C@H](C(C)C)NC(=O)CNC(=O)CN
Method: HCD
Collision_energy: [28.333334]
Isolation_window: 4.0
Ion_mode: P
Num Peaks: 15
70.0651	62.5
72.0807	57.4
86.0964	27.7
129.1023	35.2
187.1077	50.8
217.1183	51.5
228.1343	56.4
229.1548	42.4
244.1295	27.0
301.1873	23.0
327.2028	57.9
426.2712	31.8
515.2574	38.2
515.2852	31.0
515.3194	100.0

Name: H-Leu-D-Leu-D-Leu-OH
PrecursorMZ: 358.27108
RT: 8.1923
ExactMass: 357.26275661
Spectrum_type: 2
charge: 1
Formula: C18H35N3O4
SMILES: CC(C)C[C@@H](C(=O)N[C@H](CC(C)C)C(=O)N[C@H](CC(C)C)C(=O)O)N
Method: HCD
Collision_energy: [28.333334]
Isolation_window: 4.0
Ion_mode: P
Num Peaks: 4
86.0964	100.0
199.1807	52.1
227.1756	25.8
245.1864	11.8

Name: His-Leu-Thr
PrecursorMZ: 370.20954
RT: 4.619
ExactMass: 369.20121898
Spectrum_type: 2
charge: 1
Formula: C16H27N5O5
SMILES: C[C@H]([C@@H](C(=O)O)NC(=O)[C@H](CC(C)C)NC(=O)[C@H](CC1=CN=CN1)N)O
Method: HCD
Collision_energy: [28.333334]
Isolation_window: 4.0
Ion_mode: P
Num Peaks: 8
86.0964	11.5
110.0712	100.0
194.0810	11.8
223.1554	42.6
239.1139	27.4
251.1505	48.1
352.1981	30.1
370.2085	36.1

Name: His-Val-Leu
PrecursorMZ: 368.23029
RT: 5.1788
ExactMass: 367.22195442
Spectrum_type: 2
charge: 1
Formula: C17H29N5O4
SMILES: CC(C)C[C@@H](C(=O)O)NC(=O)[C@H](C(C)C)NC(=O)[C@H](CC1=CN=CN1)N
Method: HCD
Collision_energy: [28.333334]
Isolation_window: 4.0
Ion_mode: P
Num Peaks: 13
86.0964	11.9
110.0713	100.0
138.0662	11.7
156.0768	38.7
164.1182	11.5
178.1336	8.8
209.1397	46.4
223.1554	36.9
237.1347	43.6
251.1505	37.4
255.1455	10.2
368.2158	11.7
368.2292	48.6

Name: L-Methionine, L-gamma-glutamyl-, S-oxide
PrecursorMZ: 295.09686
RT: 15.0428
ExactMass: 294.08855747
Spectrum_type: 2
charge: 1
Formula: C10H18N2O6S
SMILES: CS(=O)CC[C@@H](C(=O)O)NC(=O)CC[C@@H](C(=O)O)N
Method: HCD
Collision_energy: [28.333334]
Isolation_window: 4.0
Ion_mode: P
Num Peaks: 17
56.0494	26.8
74.0236	61.1
75.0263	31.2
84.0444	12.0
102.0550	17.8
130.0500	9.0
131.0162	3.4
149.0268	24.1
166.0533	100.0
168.0656	19.3
185.0922	5.1
213.0872	3.4
214.0711	5.4
231.0978	13.7
232.0642	7.1
278.0695	3.1
295.0962	13.0

Name: Leu-Asp-Asn
PrecursorMZ: 361.17303
RT: 17.5038
ExactMass: 360.16449912
Spectrum_type: 2
charge: 1
Formula: C14H24N4O7
SMILES: CC(C)C[C@@H](C(=O)N[C@@H](CC(=O)O)C(=O)N[C@@H](CC(=O)N)C(=O)O)N
Method: HCD
Collision_energy: [28.333334]
Isolation_window: 4.0
Ion_mode: P
Num Peaks: 18
86.0964	82.0
87.0553	19.2
88.0393	23.8
133.0608	31.1
141.1023	14.1
155.1180	19.8
166.0863	13.5
183.1129	23.5
184.0717	13.9
185.0558	13.0
200.1395	100.0
201.1235	44.0
202.0823	21.0
228.1344	22.0
230.0773	35.0
247.1292	13.7
327.1189	12.8
361.1721	15.7

Name: Ms
PrecursorMZ: 237.09098
RT: 3.3279
ExactMass: 236.08307817
Spectrum_type: 2
charge: 1
Formula: C8H16N2O4S
SMILES: CSCCC(C(=O)NC(CO)C(=O)O)N
Method: HCD
Collision_energy: [28.333334]
Isolation_window: 4.0
Ion_mode: P
Num Peaks: 13
44.0494	15.6
56.0494	24.1
74.0236	15.1
74.0600	35.2
99.0553	26.1
127.0867	13.4
130.0499	24.7
145.0609	18.4
166.0533	33.7
173.0921	100.0
237.0873	12.3
237.1235	17.2
237.1599	13.2

Name: N,3,8,9-tetradeuterio-6-deuteriooxypurin-2-imine
PrecursorMZ: 152.05681
RT: 12.5704
ExactMass: 156.08079353
Spectrum_type: 2
charge: 1
Formula: C5H5N5O
SMILES: [2H]C1=NC2=C(N1[2H])N(C(=N[2H])N=C2O[2H])[2H]
Method: HCD
Collision_energy: [28.333334]
Isolation_window: 4.0
Ion_mode: P
Num Peaks: 11
43.0290	1.1
55.0290	0.9
109.0510	2.0
110.0350	11.7
128.0456	7.4
134.0462	1.5
134.0602	1.2
135.0303	6.3
152.0568	100.0
152.0708	2.2
153.0409	34.6

Name: N-(1-(2-carbamoylpyrrolidin-1-yl)-4-methyl-1-oxopentan-2-yl)-5-oxopyrrolidine-2-carboxamide
PrecursorMZ: 361.18425
RT: 3.5034
ExactMass: 338.19540532
Spectrum_type: 2
charge: 1
Formula: C16H26N4O4
SMILES: CC(C)CC(C(=O)N1CCCC1C(=O)N)NC(=O)C2CCC(=O)N2
Method: HCD
Collision_energy: [28.333334]
Isolation_window: 4.0
Ion_mode: P
Num Peaks: 20
70.0651	21.4
74.0600	10.8
84.0444	9.5
84.0808	9.6
86.0964	41.4
120.0656	25.6
129.0659	8.0
129.1023	12.5
147.0764	8.8
147.1130	8.8
159.0764	10.6
175.1190	34.6
187.1442	15.5
196.1445	21.9
197.1286	20.1
214.1551	17.6
242.1501	9.2
343.1980	22.8
361.1835	100.0
361.2451	15.6

Name: N-(1-Deoxy-1-fructosyl)phenylalanine
PrecursorMZ: 328.1402
RT: 13.8252
ExactMass: 327.13180201
Spectrum_type: 2
charge: 1
Formula: C15H21NO7
SMILES: C1=CC=C(C=C1)C[C@@H](C(=O)O)NCC2([C@H]([C@@H]([C@H](O2)CO)O)O)O
Method: HCD
Collision_energy: [28.333334]
Isolation_window: 4.0
Ion_mode: P
Num Peaks: 10
62.0600	20.0
120.0808	32.3
132.0809	22.4
166.0863	24.3
178.0863	13.3
198.0916	22.1
244.0971	56.3
264.1234	38.6
292.1183	68.3
310.1288	100.0

Name: SH-Tripeptide-4
PrecursorMZ: 304.15131
RT: 19.4438
ExactMass: 303.1430354
Spectrum_type: 2
charge: 1
Formula: C12H21N3O6
SMILES: CC(C)C[C@@H](C(=O)NCC(=O)N[C@@H](CC(=O)O)C(=O)O)N
Method: HCD
Collision_energy: [28.333334]
Isolation_window: 4.0
Ion_mode: P
Num Peaks: 5
75.0553	15.3
86.0964	100.0
143.1180	94.2
171.1129	17.9
201.1235	48.8

Name: Ser-Thr-Leu
PrecursorMZ: 320.18258
RT: 4.3838
ExactMass: 319.17433553
Spectrum_type: 2
charge: 1
Formula: C13H25N3O6
SMILES: C[C@H]([C@@H](C(=O)N[C@@H](CC(C)C)C(=O)O)NC(=O)[C@H](CO)N)O
Method: HCD
Collision_energy: [28.333334]
Isolation_window: 4.0
Ion_mode: P
Num Peaks: 33
60.0443	15.9
70.0651	6.6
72.0807	10.4
74.0600	11.4
86.0964	50.0
87.0553	8.2
98.0600	10.2
104.0528	4.1
116.0706	37.4
120.0655	7.0
128.1070	4.0
130.0499	4.2
132.1019	10.6
143.0815	21.5
143.1179	13.7
150.0584	3.4
161.0921	31.0
171.0765	4.1
171.1129	4.9
173.1284	100.0
176.1030	9.7
187.1441	7.7
189.0870	35.1
197.1286	4.0
201.1234	21.3
203.1213	5.1
215.1390	8.1
233.1497	9.7
243.1343	4.6
274.1400	3.3
302.1712	21.6
320.1454	44.1
320.1646	17.8

Name: Ser-Val-Thr
PrecursorMZ: 306.16697
RT: 3.853
ExactMass: 305.15868546
Spectrum_type: 2
charge: 1
Formula: C12H23N3O6
SMILES: C[C@H]([C@@H](C(=O)O)NC(=O)[C@H](C(C)C)NC(=O)[C@H](CO)N)O
Method: HCD
Collision_energy: [28.333334]
Isolation_window: 4.0
Ion_mode: P
Num Peaks: 15
60.0443	10.0
72.0807	28.5
74.0600	5.3
87.0553	5.8
114.0914	9.2
116.0706	12.0
120.0656	6.9
143.0816	5.5
159.1129	100.0
161.0922	10.2
187.1078	23.7
189.0870	11.0
288.1558	6.6
306.1337	8.8
306.1552	7.6

Name: Serinylthreonine zwitterion
PrecursorMZ: 207.09815
RT: 4.1929
ExactMass: 206.09027155
Spectrum_type: 2
charge: 1
Formula: C7H14N2O5
SMILES: C[C@H]([C@@H](C(=O)[O-])NC(=O)[C@H](CO)[NH3+])O
Method: HCD
Collision_energy: [28.333334]
Isolation_window: 4.0
Ion_mode: P
Num Peaks: 13
45.0334	5.9
56.0494	14.0
60.0443	100.0
74.0600	74.5
84.0443	5.6
102.0550	19.8
106.0499	7.4
116.0706	6.3
120.0655	64.8
130.0499	15.2
189.0870	22.2
207.0976	7.2
207.1058	4.4

Name: TT zwitterion
PrecursorMZ: 221.11397
RT: 3.9259
ExactMass: 220.10592162
Spectrum_type: 2
charge: 1
Formula: C8H16N2O5
SMILES: C[C@H]([C@@H](C(=O)N[C@@H]([C@@H](C)O)C(=O)[O-])[NH3+])O
Method: HCD
Collision_energy: [28.333334]
Isolation_window: 4.0
Ion_mode: P
Num Peaks: 8
56.0494	15.3
74.0600	100.0
102.0550	6.2
120.0656	25.6
130.0499	4.1
159.0765	6.0
203.1027	10.1
221.1133	4.9

Name: Thiomorpholine-3-carboxylate
PrecursorMZ: 148.04294
RT: 8.1559
ExactMass: 146.02757467
Spectrum_type: 2
charge: 1
Formula: C5H8NO2S-
SMILES: C1CSCC(N1)C(=O)[O-]
Method: HCD
Collision_energy: [28.333334]
Isolation_window: 4.0
Ion_mode: P
Num Peaks: 10
56.0494	4.5
61.0106	4.3
74.0059	22.3
84.0444	15.7
85.0648	4.6
88.0393	8.1
102.0373	100.0
102.0550	5.1
148.0428	20.9
148.0969	8.7

Name: Thr-Met(O)
PrecursorMZ: 267.10207
RT: 3.3648
ExactMass: 266.09364285
Spectrum_type: 2
charge: 1
Formula: C9H18N2O5S
SMILES: CC(C(C(=O)NC(CCS(=O)C)C(=O)O)N)O
Method: HCD
Collision_energy: [28.333334]
Isolation_window: 4.0
Ion_mode: P
Num Peaks: 16
55.0542	10.6
56.0494	29.1
74.0236	13.3
74.0600	32.7
84.0807	26.6
101.0597	10.6
102.0550	32.2
130.0499	17.5
130.0863	11.4
159.0765	10.7
166.0532	32.8
167.0815	11.1
185.0920	16.8
203.1027	26.6
267.0987	24.3
267.1343	100.0

Name: Thr-Thr-Leu
PrecursorMZ: 334.19839
RT: 4.1809
ExactMass: 333.18998559
Spectrum_type: 2
charge: 1
Formula: C14H27N3O6
SMILES: C[C@H]([C@@H](C(=O)N[C@@H]([C@@H](C)O)C(=O)N[C@@H](CC(C)C)C(=O)O)N)O
Method: HCD
Collision_energy: [28.333334]
Isolation_window: 4.0
Ion_mode: P
Num Peaks: 18
70.0650	20.3
74.0600	24.0
86.0964	24.7
101.0709	14.0
104.0528	7.3
130.0863	39.7
132.1019	8.1
157.0972	20.1
175.1077	43.1
185.0922	12.2
187.1441	100.0
203.1027	53.1
215.1390	34.2
233.1497	13.1
247.1114	8.0
272.1608	18.0
316.1871	8.4
334.1614	9.7

Name: Tyrosylglutamic acid
PrecursorMZ: 311.12482
RT: 34.5287
ExactMass: 310.1164863
Spectrum_type: 2
charge: 1
Formula: C14H18N2O6
SMILES: C1=CC(=CC=C1CC(C(=O)NC(CCC(=O)O)C(=O)O)N)O
Method: HCD
Collision_energy: [28.333334]
Isolation_window: 4.0
Ion_mode: P
Num Peaks: 9
84.0443	3.8
91.0542	3.7
119.0492	5.3
130.0499	2.4
136.0757	100.0
147.0441	2.9
148.0605	9.1
276.0868	2.3
311.1242	9.3

Name: Tyrosylthreonine
PrecursorMZ: 283.12983
RT: 25.6493
ExactMass: 282.12157168
Spectrum_type: 2
charge: 1
Formula: C13H18N2O5
SMILES: CC(C(C(=O)O)NC(=O)C(CC1=CC=C(C=C1)O)N)O
Method: HCD
Collision_energy: [28.333334]
Isolation_window: 4.0
Ion_mode: P
Num Peaks: 11
91.0542	4.6
102.0550	2.5
119.0492	6.7
120.0656	3.5
136.0757	100.0
219.1017	4.5
237.1122	2.5
247.0968	3.5
265.1075	2.8
265.1189	2.4
283.1292	3.6

Name: beta-(N(pros)-L-histidino)-L-tyrosine
PrecursorMZ: 335.13613
RT: 34.1871
ExactMass: 334.12771969
Spectrum_type: 2
charge: 1
Formula: C15H18N4O5
SMILES: C1=CC(=CC=C1[C@H]([C@@H](C(=O)O)N)N2C=NC=C2C[C@@H](C(=O)O)N)O
Method: HCD
Collision_energy: [28.333334]
Isolation_window: 4.0
Ion_mode: P
Num Peaks: 6
210.1127	8.9
215.1052	15.9
244.1081	12.3
289.1297	54.5
335.1243	8.5
335.1352	100.0

Name: epsilon-(gamma-L-Glutamyl)lysine
PrecursorMZ: 276.15644
RT: 14.6258
ExactMass: 275.14812078
Spectrum_type: 2
charge: 1
Formula: C11H21N3O5
SMILES: C(CCNC(=O)CCC(C(=O)O)N)CC(C(=O)O)N
Method: HCD
Collision_energy: [28.333334]
Isolation_window: 4.0
Ion_mode: P
Num Peaks: 12
84.0443	20.4
84.0807	100.0
86.0600	10.0
130.0499	10.3
130.0863	62.8
147.1129	56.7
167.1180	13.1
195.1129	17.0
213.1235	14.6
258.1452	13.8
259.1293	14.1
276.1557	15.9

Name: tert-butyl (2S)-2-cyano-6-azaspiro(2.5)octane-6-carboxylate
PrecursorMZ: 237.16063
RT: 2.2225
ExactMass: 236.152477885
Spectrum_type: 2
charge: 1
Formula: C13H20N2O2
SMILES: CC(C)(C)OC(=O)N1CCC2(CC1)C[C@@H]2C#N
Method: HCD
Collision_energy: [28.333334]
Isolation_window: 4.0
Ion_mode: P
Num Peaks: 7
55.0542	27.3
59.0491	7.6
83.0491	12.9
101.0597	24.2
137.1074	45.3
237.1236	54.0
237.1599	100.0

Name: trideuterio-((2S)-1-deuteriooxy-1-((2R)-1-deuteriooxy-1-((2R)-1-deuteriooxy-1-oxopropan-2-yl)iminopropan-2-yl)iminopropan-2-yl)azanium
PrecursorMZ: 232.12988
RT: 3.5145
ExactMass: 238.16739154
Spectrum_type: 2
charge: 1
Formula: C9H18N3O4+
SMILES: [2H][N+]([2H])([2H])[C@@H](C)C(=N[C@H](C)C(=N[C@H](C)C(=O)O[2H])O[2H])O[2H]
Method: HCD
Collision_energy: [28.333334]
Isolation_window: 4.0
Ion_mode: P
Num Peaks: 15
44.0494	31.4
70.0650	23.5
84.0443	12.9
90.0549	57.2
101.0597	23.3
115.0866	25.4
126.0914	11.2
143.0816	17.2
161.0921	10.2
169.0971	37.4
174.1277	16.4
215.1026	29.4
232.0967	18.4
232.1180	21.4
232.1291	100.0

Name: 1H-Imidazole-5-acetic acid
PrecursorMZ: 127.05045
RT: 7.3361
ExactMass: 126.042927438
Spectrum_type: 2
charge: 1
Formula: C5H6N2O2
SMILES: C1=C(NC=N1)CC(=O)O
Method: HCD
Collision_energy: [28.333334]
Isolation_window: 4.0
Ion_mode: P
Num Peaks: 5
54.0338	1.7
81.0446	100.0
81.0469	1.6
99.0553	7.5
127.0503	22.3

Name: 2-Phenylbutyric Acid
PrecursorMZ: 165.09134
RT: 23.6567
ExactMass: 164.083729621
Spectrum_type: 2
charge: 1
Formula: C10H12O2
SMILES: CCC(C1=CC=CC=C1)C(=O)O
Method: HCD
Collision_energy: [28.333334]
Isolation_window: 4.0
Ion_mode: P
Num Peaks: 9
67.0542	5.2
79.0542	2.9
91.0542	59.8
93.0699	4.8
117.0699	3.6
119.0856	100.0
137.0962	29.1
147.0806	3.9
165.0911	6.5

Name: 3,4-dimethoxy-N-(3-methylpent-1-yn-3-yl)benzamide
PrecursorMZ: 284.12589
RT: 9.4561
ExactMass: 261.13649347
Spectrum_type: 2
charge: 1
Formula: C15H19NO3
SMILES: CCC(C)(C#C)NC(=O)C1=CC(=C(C=C1)OC)OC
Method: HCD
Collision_energy: [28.333334]
Isolation_window: 4.0
Ion_mode: P
Num Peaks: 17
70.0651	100.0
81.0447	27.2
82.0481	11.9
116.0707	52.6
122.0713	38.0
123.0747	30.0
123.0793	13.4
144.0479	42.8
145.0512	40.5
163.0868	11.3
164.0819	27.5
203.0817	11.0
220.1082	30.3
221.0922	31.1
238.1189	43.2
266.1155	57.7
284.1257	81.8

Name: 3-(4-Hydroxyphenyl)-1-(2,4,6-trimethoxyphenyl)prop-2-en-1-one
PrecursorMZ: 337.10417
RT: 37.7165
ExactMass: 314.11542367
Spectrum_type: 2
charge: 1
Formula: C18H18O5
SMILES: COC1=CC(=C(C(=C1)OC)C(=O)C=CC2=CC=C(C=C2)O)OC
Method: HCD
Collision_energy: [28.333334]
Isolation_window: 4.0
Ion_mode: P
Num Peaks: 5
216.0894	4.7
245.0923	21.3
262.0951	3.4
291.0978	49.6
337.1032	100.0

Name: 3-(4-Methoxy-2-(3,4,5-trihydroxy-6-(hydroxymethyl)oxan-2-yl)oxyphenyl)prop-2-enoic acid
PrecursorMZ: 357.12052
RT: 34.816
ExactMass: 356.11073221
Spectrum_type: 2
charge: 1
Formula: C16H20O9
SMILES: COC1=CC(=C(C=C1)C=CC(=O)O)OC2C(C(C(C(O2)CO)O)O)O
Method: HCD
Collision_energy: [28.333334]
Isolation_window: 4.0
Ion_mode: P
Num Peaks: 6
226.0976	6.6
254.0928	13.4
311.1141	100.0
339.2321	5.7
357.1196	29.4
357.2790	10.7

Name: 3-Amino-4-hydroxybenzoate
PrecursorMZ: 154.05017
RT: 30.2261
ExactMass: 152.034768053
Spectrum_type: 2
charge: 1
Formula: C7H6NO3-
SMILES: C1=CC(=C(C=C1C(=O)O)N)[O-]
Method: HCD
Collision_energy: [28.333334]
Isolation_window: 4.0
Ion_mode: P
Num Peaks: 5
53.0385	8.0
80.0495	5.7
126.0551	100.0
154.0501	78.8
154.0865	20.8

Name: 3-Methyl-2-((2,3,4-trihydroxy-5-(hydroxymethyl)oxolan-2-yl)methylamino)pentanoic acid
PrecursorMZ: 294.15568
RT: 9.1915
ExactMass: 293.14745207
Spectrum_type: 2
charge: 1
Formula: C12H23NO7
SMILES: CCC(C)C(C(=O)O)NCC1(C(C(C(O1)CO)O)O)O
Method: HCD
Collision_energy: [28.333334]
Isolation_window: 4.0
Ion_mode: P
Num Peaks: 33
69.0334	3.3
81.0335	6.3
84.0444	9.6
85.0284	5.1
86.0964	26.9
87.0315	3.9
88.0393	12.5
96.0444	4.9
97.0284	5.6
98.0600	3.4
98.0964	4.1
99.0441	3.4
126.0550	23.5
127.0391	5.1
128.1070	5.3
132.1020	19.7
138.0550	53.7
143.0578	5.2
144.0656	11.7
144.1020	8.1
161.0684	6.4
164.1070	15.4
168.0656	13.1
186.0761	9.9
210.1125	37.1
212.1282	11.0
230.1388	58.4
248.1496	15.8
258.1340	65.6
276.0900	3.8
276.1080	4.9
276.1444	100.0
294.1551	4.2

Name: 4-Nitrophenol
PrecursorMZ: 140.03443
RT: 30.7979
ExactMass: 139.026943022
Spectrum_type: 2
charge: 1
Formula: C6H5NO3
SMILES: C1=CC(=CC=C1[N+](=O)[O-])O
Method: HCD
Collision_energy: [28.333334]
Isolation_window: 4.0
Ion_mode: P
Num Peaks: 5
84.0444	0.8
94.0288	2.3
112.0393	100.0
112.0437	0.8
140.0342	80.0

Name: 4-Pyridoxic Acid
PrecursorMZ: 184.06085
RT: 4.9363
ExactMass: 183.05315777
Spectrum_type: 2
charge: 1
Formula: C8H9NO4
SMILES: CC1=NC=C(C(=C1O)C(=O)O)CO
Method: HCD
Collision_energy: [28.333334]
Isolation_window: 4.0
Ion_mode: P
Num Peaks: 11
45.0335	6.2
80.0495	2.8
96.0444	19.7
112.0394	41.8
122.0602	40.9
136.0395	16.6
138.0551	3.0
140.0343	100.0
154.0501	43.3
166.0500	17.0
184.0605	95.3

Name: 5-Aminovaleric acid
PrecursorMZ: 100.07601
RT: 4.07885
ExactMass: 117.078978594
Spectrum_type: 2
charge: 1
Formula: C5H11NO2
SMILES: C(CCN)CC(=O)O
Method: HCD
Collision_energy: [28.333334]
Isolation_window: 4.0
Ion_mode: P
Num Peaks: 11
44.0131	7.5
44.0494	5.3
55.0542	3.9
56.0494	78.4
57.0335	5.0
57.0699	1.2
69.0335	2.4
72.0808	7.7
82.0651	6.1
100.0757	100.0
100.0788	1.1

Name: 6-(4-(4-(Ethylamino)pyrimidin-2-yl)piperazin-1-yl)-1,3-dimethyl-1,2,3,4-tetrahydropyrimidine-2,4-dione
PrecursorMZ: 346.19839
RT: 14.27
ExactMass: 345.191323
Spectrum_type: 2
charge: 1
Formula: C16H23N7O2
SMILES: CCNC1=NC(=NC=C1)N2CCN(CC2)C3=CC(=O)N(C(=O)N3C)C
Method: HCD
Collision_energy: [28.333334]
Isolation_window: 4.0
Ion_mode: P
Num Peaks: 4
140.0707	9.4
158.0812	51.8
328.1870	7.3
346.1974	100.0

Name: 9-Methylxanthine
PrecursorMZ: 167.0564
RT: 14.2218
ExactMass: 166.04907545
Spectrum_type: 2
charge: 1
Formula: C6H6N4O2
SMILES: CN1C=NC2=C1NC(=O)NC2=O
Method: HCD
Collision_energy: [28.333334]
Isolation_window: 4.0
Ion_mode: P
Num Peaks: 7
69.0447	2.0
96.0557	2.2
97.0397	5.1
120.0810	1.8
121.0842	11.2
124.0507	17.7
167.0565	100.0

Name: Adenosine
PrecursorMZ: 268.10512
RT: 2.7564
ExactMass: 267.09675391
Spectrum_type: 2
charge: 1
Formula: C10H13N5O4
SMILES: C1=NC(=C2C(=N1)N(C=N2)[C@H]3[C@@H]([C@@H]([C@H](O3)CO)O)O)N
Method: HCD
Collision_energy: [28.333334]
Isolation_window: 4.0
Ion_mode: P
Num Peaks: 5
55.0178	1.0
57.0334	1.4
136.0617	100.0
268.1044	9.8
268.1183	2.1

Name: Alloisoleucine, D-
PrecursorMZ: 132.1023
RT: 2.1354
ExactMass: 131.094628657
Spectrum_type: 2
charge: 1
Formula: C6H13NO2
SMILES: CC[C@H](C)[C@H](C(=O)O)N
Method: HCD
Collision_energy: [28.333334]
Isolation_window: 4.0
Ion_mode: P
Num Peaks: 18
43.0290	1.8
44.0494	12.5
58.0651	37.9
59.0729	45.9
59.0752	0.3
60.0808	0.7
69.0699	0.9
72.0808	0.4
86.0965	2.7
87.0553	0.7
90.0550	15.3
114.0663	0.4
114.0914	0.8
115.0503	0.3
132.0769	8.7
132.0960	0.4
132.1018	100.0
132.1079	0.6

Name: Alpha-Lactose
PrecursorMZ: 325.11399
RT: 2.3819
ExactMass: 342.11621151
Spectrum_type: 2
charge: 1
Formula: C12H22O11
SMILES: C([C@@H]1[C@@H]([C@@H]([C@H]([C@@H](O1)O[C@@H]2[C@H](O[C@@H]([C@@H]([C@H]2O)O)O)CO)O)O)O)O
Method: HCD
Collision_energy: [28.333334]
Isolation_window: 4.0
Ion_mode: P
Num Peaks: 16
57.0334	4.1
61.0284	6.0
69.0334	8.8
73.0283	4.4
81.0334	4.9
85.0284	100.0
91.0390	7.8
97.0284	17.1
99.0441	3.7
109.0284	7.3
127.0390	36.2
145.0496	39.7
163.0601	15.9
307.1291	4.6
325.1395	12.3
325.1761	6.5

Name: Aspermytin A
PrecursorMZ: 289.17674
RT: 6.9845
ExactMass: 266.18819469
Spectrum_type: 2
charge: 1
Formula: C16H26O3
SMILES: C[C@H]1CC[C@H]2[C@H](C1)C=C[C@@]([C@]2(C)C(=O)CCO)(C)O
Method: HCD
Collision_energy: [28.333334]
Isolation_window: 4.0
Ion_mode: P
Num Peaks: 10
55.0542	4.4
83.0491	3.9
100.0756	4.4
101.0597	20.0
189.1234	4.8
197.0380	4.0
211.0534	3.0
289.0855	13.5
289.1398	3.8
289.1761	100.0

Name: Captopril
PrecursorMZ: 218.08503
RT: 9.3684
ExactMass: 217.07726451
Spectrum_type: 2
charge: 1
Formula: C9H15NO3S
SMILES: C[C@H](CS)C(=O)N1CCC[C@H]1C(=O)O
Method: HCD
Collision_energy: [28.333334]
Isolation_window: 4.0
Ion_mode: P
Num Peaks: 10
73.0106	25.5
82.0651	22.7
84.0808	16.9
126.0373	24.3
128.0707	22.3
172.0428	33.2
172.0792	30.4
200.0741	16.4
218.0483	7.9
218.0848	100.0

Name: Carnosine
PrecursorMZ: 227.11457
RT: 4.1677
ExactMass: 226.10659032
Spectrum_type: 2
charge: 1
Formula: C9H14N4O3
SMILES: C1=C(NC=N1)C[C@@H](C(=O)O)NC(=O)CCN
Method: HCD
Collision_energy: [28.333334]
Isolation_window: 4.0
Ion_mode: P
Num Peaks: 18
70.0651	21.3
82.0651	7.6
84.0444	32.5
84.0807	18.5
95.0604	6.5
110.0713	100.0
116.0706	44.0
122.0713	16.5
156.0769	46.4
164.0819	13.3
180.0768	6.0
181.0972	6.1
181.1084	11.8
210.0874	25.9
227.1027	13.4
227.1139	11.0
227.1392	9.5
227.1756	15.8

Name: Cytidine
PrecursorMZ: 244.09374
RT: 2.4419
ExactMass: 243.08552052
Spectrum_type: 2
charge: 1
Formula: C9H13N3O5
SMILES: C1=CN(C(=O)N=C1N)[C@H]2[C@@H]([C@@H]([C@H](O2)CO)O)O
Method: HCD
Collision_energy: [28.333334]
Isolation_window: 4.0
Ion_mode: P
Num Peaks: 8
95.0240	0.7
112.0505	100.0
112.0543	1.2
226.0688	1.0
226.1076	0.7
244.0794	5.6
244.1182	2.7
244.1294	3.3

Name: D-Glucosamine
PrecursorMZ: 162.07653
RT: 4.7664
ExactMass: 179.07937252
Spectrum_type: 2
charge: 1
Formula: C6H13NO5
SMILES: C([C@@H]1[C@H]([C@@H]([C@H](C(O1)O)N)O)O)O
Method: HCD
Collision_energy: [28.333334]
Isolation_window: 4.0
Ion_mode: P
Num Peaks: 35
43.0178	7.4
44.0494	23.1
55.0541	54.3
56.0494	14.3
59.0491	10.7
60.0807	6.3
62.0600	23.2
68.0494	15.2
70.0650	14.3
71.0491	15.8
72.0443	6.5
73.0647	6.9
74.0600	10.3
75.0634	8.9
80.0494	15.9
83.0491	18.3
84.0443	5.4
84.0807	5.9
87.0441	6.3
98.0600	59.0
98.0964	31.4
101.0597	40.5
102.0550	5.6
102.0914	11.2
103.0390	6.8
114.0913	13.1
116.0706	86.5
116.1070	85.2
126.0550	22.9
126.0914	44.4
144.0656	20.8
144.1020	14.3
162.0761	59.5
162.1011	10.2
162.1125	100.0

Name: D-Glutamine
PrecursorMZ: 147.07673
RT: 3.8293666666666666
ExactMass: 146.06914219
Spectrum_type: 2
charge: 1
Formula: C5H10N2O3
SMILES: C(CC(=O)N)[C@H](C(=O)O)N
Method: HCD
Collision_energy: [28.333334]
Isolation_window: 4.0
Ion_mode: P
Num Peaks: 30
41.0386	2.1
43.0179	0.1
44.0131	0.2
44.0495	1.6
56.0495	5.8
57.0336	0.1
64.9273	0.3
74.0237	0.2
74.0602	0.1
84.0405	0.2
84.0443	100.0
84.0466	1.9
84.0490	0.3
84.0519	0.1
84.0808	0.1
85.0285	1.5
87.0442	0.1
88.0395	0.1
90.0550	1.8
95.0129	0.2
101.0711	4.8
102.0551	3.3
112.0395	0.2
119.0528	0.1
123.9646	0.6
130.0440	0.2
130.0498	40.6
130.0557	0.3
130.0589	0.1
147.0767	3.7

Name: D-Mannosamine
PrecursorMZ: 180.08712
RT: 4.1438
ExactMass: 179.07937252
Spectrum_type: 2
charge: 1
Formula: C6H13NO5
SMILES: C([C@@H]1[C@H]([C@@H]([C@@H](C(O1)O)N)O)O)O
Method: HCD
Collision_energy: [28.333334]
Isolation_window: 4.0
Ion_mode: P
Num Peaks: 27
44.0494	15.2
56.0494	10.0
60.0443	10.4
68.0494	17.4
69.0334	31.3
70.0650	27.4
72.0443	18.5
74.0236	21.9
74.0600	47.3
80.0494	20.9
81.0335	8.5
84.0444	9.3
86.0600	10.0
88.0392	9.7
96.0444	7.7
98.0600	65.5
99.0440	69.6
116.0706	57.8
117.0546	61.7
126.0550	8.4
134.0601	8.3
134.0812	100.0
144.0656	14.8
162.0762	23.0
180.0656	78.8
180.0867	78.2
180.1019	12.5

Name: D-Proline
PrecursorMZ: 116.07063
RT: 4.9519
ExactMass: 115.06332853
Spectrum_type: 2
charge: 1
Formula: C5H9NO2
SMILES: C1C[C@@H](NC1)C(=O)O
Method: HCD
Collision_energy: [28.333334]
Isolation_window: 4.0
Ion_mode: P
Num Peaks: 15
41.0386	0.2
43.0543	0.2
68.0496	0.3
70.0579	0.1
70.0605	0.1
70.0650	100.0
70.0673	1.2
70.0697	0.2
70.0723	0.1
70.0778	0.1
98.0602	0.1
116.0654	0.1
116.0706	22.3
116.0752	0.2
116.0783	0.1

Name: DL-panthenol
PrecursorMZ: 206.13936
RT: 3.9335
ExactMass: 205.13140809
Spectrum_type: 2
charge: 1
Formula: C9H19NO4
SMILES: CC(C)(CO)C(C(=O)NCCCO)O
Method: HCD
Collision_energy: [28.333334]
Isolation_window: 4.0
Ion_mode: P
Num Peaks: 19
55.0542	28.3
56.0494	14.7
60.0443	24.4
71.0491	23.0
82.0651	10.1
83.0491	27.5
84.0807	13.5
100.0757	41.8
101.0597	51.0
112.0757	10.5
129.0547	7.8
130.0863	7.9
142.0863	51.5
146.0812	80.9
170.1176	12.6
188.0918	31.0
188.1282	15.9
206.1025	9.0
206.1388	100.0

Name: Diprotin A
PrecursorMZ: 342.23982
RT: 5.3918
ExactMass: 341.23145648
Spectrum_type: 2
charge: 1
Formula: C17H31N3O4
SMILES: CC[C@H](C)[C@@H](C(=O)N1CCC[C@H]1C(=O)N[C@@H]([C@@H](C)CC)C(=O)O)N
Method: HCD
Collision_energy: [28.333334]
Isolation_window: 4.0
Ion_mode: P
Num Peaks: 9
70.0650	66.7
86.0964	14.4
116.0706	5.2
183.1491	13.2
211.1441	11.8
229.1547	100.0
265.1185	5.2
324.1291	4.8
342.2389	21.1

Name: Ethyl 2-amino-3-carbamoylpropanoate
PrecursorMZ: 161.09253
RT: 3.9272
ExactMass: 160.08479225
Spectrum_type: 2
charge: 1
Formula: C6H12N2O3
SMILES: CCOC(=O)C(CC(=O)N)N
Method: HCD
Collision_energy: [28.333334]
Isolation_window: 4.0
Ion_mode: P
Num Peaks: 12
44.0494	100.0
70.0651	5.3
86.0601	1.0
90.0550	10.6
98.0601	1.6
113.0711	1.2
115.0867	2.0
116.0707	1.5
143.0897	1.0
144.0657	1.6
161.0922	3.3
161.1368	1.0

Name: Flucytosine
PrecursorMZ: 130.04144
RT: 2.8009
ExactMass: 129.03383992
Spectrum_type: 2
charge: 1
Formula: C4H4FN3O
SMILES: C1=NC(=O)NC(=C1F)N
Method: HCD
Collision_energy: [28.333334]
Isolation_window: 4.0
Ion_mode: P
Num Peaks: 11
70.0651	6.3
84.0444	21.2
84.0556	9.1
84.0637	8.8
84.0808	40.6
87.0040	21.5
87.0353	7.7
113.0146	15.1
130.0412	100.0
130.0863	13.5
130.1591	10.2

Name: Glycan Lacto-N-biose
PrecursorMZ: 384.15121
RT: 2.3982
Spectrum_type: 2
charge: 1
Method: HCD
Collision_energy: [28.333334]
Isolation_window: 4.0
Ion_mode: P
Num Peaks: 9
84.0444	10.1
126.0550	57.6
138.0550	80.1
144.0656	13.3
168.0656	35.6
186.0761	41.0
204.0868	100.0
222.0973	24.0
366.1395	5.9

Name: Glycyl-L-tyrosine
PrecursorMZ: 239.10322
RT: 24.1731
ExactMass: 238.09535693
Spectrum_type: 2
charge: 1
Formula: C11H14N2O4
SMILES: C1=CC(=CC=C1C[C@@H](C(=O)O)NC(=O)CN)O
Method: HCD
Collision_energy: [28.333334]
Isolation_window: 4.0
Ion_mode: P
Num Peaks: 9
45.0334	3.3
119.0492	9.8
123.0442	15.0
136.0758	100.0
147.0442	8.1
165.0547	47.0
182.0812	53.3
193.0972	30.0
239.1029	4.7

Name: Guaiacol
PrecursorMZ: 107.04949
RT: 11.2137
ExactMass: 124.052429494
Spectrum_type: 2
charge: 1
Formula: C7H8O2
SMILES: COC1=CC=CC=C1O
Method: HCD
Collision_energy: [28.333334]
Isolation_window: 4.0
Ion_mode: P
Num Peaks: 5
77.0386	3.8
79.0542	100.0
95.0491	19.0
105.0448	7.1
107.0492	10.2

Name: Guanine
PrecursorMZ: 152.05694
RT: 18.8717
ExactMass: 151.0494098
Spectrum_type: 2
charge: 1
Formula: C5H5N5O
SMILES: C1=NC2=C(N1)C(=O)NC(=N2)N
Method: HCD
Collision_energy: [28.333334]
Isolation_window: 4.0
Ion_mode: P
Num Peaks: 6
110.0350	11.5
128.0456	8.8
135.0303	7.6
152.0569	100.0
152.0708	2.0
153.0409	37.6

Name: Guanosine
PrecursorMZ: 284.09996
RT: 18.8647
ExactMass: 283.09166853
Spectrum_type: 2
charge: 1
Formula: C10H13N5O5
SMILES: C1=NC2=C(N1[C@H]3[C@@H]([C@@H]([C@H](O3)CO)O)O)N=C(NC2=O)N
Method: HCD
Collision_energy: [28.333334]
Isolation_window: 4.0
Ion_mode: P
Num Peaks: 4
152.0568	100.0
153.0409	2.2
182.0925	1.5
284.1248	1.9

Name: L-Aspartic Acid
PrecursorMZ: 134.04477
RT: 20.5973
ExactMass: 133.0375077
Spectrum_type: 2
charge: 1
Formula: C4H7NO4
SMILES: C([C@@H](C(=O)O)N)C(=O)O
Method: HCD
Collision_energy: [28.333334]
Isolation_window: 4.0
Ion_mode: P
Num Peaks: 21
42.0338	0.2
43.0178	4.6
44.0495	0.2
46.0287	12.2
60.0443	0.5
61.0284	0.4
70.0288	0.9
70.0651	0.1
71.0684	0.3
74.0197	0.2
74.0236	100.0
74.0260	1.2
74.0282	0.3
74.0309	0.1
88.0356	0.3
88.0393	60.5
88.0418	1.1
88.0447	0.2
116.0343	7.8
117.0741	0.1
134.0449	5.3

Name: L-Serine
PrecursorMZ: 106.04995
RT: 4.5498
ExactMass: 105.042593085
Spectrum_type: 2
charge: 1
Formula: C3H7NO3
SMILES: C([C@@H](C(=O)O)N)O
Method: HCD
Collision_energy: [28.333334]
Isolation_window: 4.0
Ion_mode: P
Num Peaks: 14
42.0338	12.3
43.0178	1.3
44.0495	0.1
46.0287	0.1
58.0651	0.1
60.0385	0.1
60.0410	0.1
60.0443	100.0
60.0466	0.6
60.0497	0.1
70.0288	3.0
88.0393	17.4
88.0420	0.2
106.0499	7.3

Name: L-Tryptophan
PrecursorMZ: 205.09735
RT: 23.7547
ExactMass: 204.08987763
Spectrum_type: 2
charge: 1
Formula: C11H12N2O2
SMILES: C1=CC=C2C(=C1)C(=CN2)C[C@@H](C(=O)O)N
Method: HCD
Collision_energy: [28.333334]
Isolation_window: 4.0
Ion_mode: P
Num Peaks: 26
74.0237	2.2
84.0808	0.4
91.0543	0.5
115.0543	1.6
117.0574	0.8
117.0700	2.1
118.0652	32.0
130.0652	2.9
132.0809	10.2
142.0653	3.9
143.0731	4.6
144.0446	0.9
144.0809	23.2
145.0650	0.4
146.0537	0.8
146.0599	92.3
146.0670	0.5
155.0605	0.5
159.0918	12.5
160.0759	1.9
170.0601	8.4
188.0606	0.6
188.0623	0.9
188.0704	100.0
188.0807	0.4
205.0974	1.4

Name: L-Tyrosine
PrecursorMZ: 182.08114
RT: 28.046
ExactMass: 181.07389321
Spectrum_type: 2
charge: 1
Formula: C9H11NO3
SMILES: C1=CC(=CC=C1C[C@@H](C(=O)O)N)O
Method: HCD
Collision_energy: [28.333334]
Isolation_window: 4.0
Ion_mode: P
Num Peaks: 43
65.0387	0.2
77.0387	0.2
80.0495	0.3
81.0700	0.2
91.0510	0.2
91.0543	34.0
91.0571	0.6
93.0700	0.7
94.0653	0.2
95.0492	16.6
95.0521	0.2
103.0545	1.8
105.0449	0.4
107.0494	1.5
108.0445	0.4
108.0810	0.3
109.0650	1.6
118.0654	1.8
119.0443	0.3
119.0492	40.4
119.0538	0.4
119.0557	0.1
121.0651	1.7
123.0389	0.4
123.0441	50.3
123.0494	0.5
123.0524	0.1
136.0662	0.2
136.0695	0.9
136.0757	100.0
136.0813	1.0
136.0838	0.4
136.0871	0.1
137.0599	0.8
147.0442	20.3
147.0511	0.1
154.0501	1.1
165.0446	0.1
165.0466	0.2
165.0546	36.5
165.0631	0.2
182.0449	0.7
182.0814	4.3

Name: L-Valyl-L-proline
PrecursorMZ: 215.13937
RT: 7.1796
ExactMass: 214.13174244
Spectrum_type: 2
charge: 1
Formula: C10H18N2O3
SMILES: CC(C)[C@@H](C(=O)N1CCC[C@H]1C(=O)O)N
Method: HCD
Collision_energy: [28.333334]
Isolation_window: 4.0
Ion_mode: P
Num Peaks: 13
70.0650	100.0
70.0673	1.3
72.0807	0.6
125.0710	4.0
137.0710	0.6
151.0868	0.5
169.0608	6.1
169.1336	2.0
179.0816	0.6
197.0922	0.5
215.0486	1.0
215.1028	2.6
215.1391	19.2

Name: Mannitol
PrecursorMZ: 183.08691
RT: 2.1376
ExactMass: 182.07903816
Spectrum_type: 2
charge: 1
Formula: C6H14O6
SMILES: C([C@H]([C@H]([C@@H]([C@@H](CO)O)O)O)O)O
Method: HCD
Collision_energy: [28.333334]
Isolation_window: 4.0
Ion_mode: P
Num Peaks: 17
43.0178	12.8
45.0335	10.7
55.0178	12.7
55.0542	16.8
57.0335	23.5
61.0284	16.3
69.0335	100.0
71.0491	7.0
73.0284	6.5
81.0335	15.5
83.0491	33.6
85.0284	22.3
87.0441	10.0
99.0441	14.0
111.0441	22.3
129.0547	15.0
183.1130	6.6

Name: Methionine methyl ester
PrecursorMZ: 164.07432
RT: 5.5494
ExactMass: 163.06669983
Spectrum_type: 2
charge: 1
Formula: C6H13NO2S
SMILES: COC(=O)C(CCSC)N
Method: HCD
Collision_energy: [28.333334]
Isolation_window: 4.0
Ion_mode: P
Num Peaks: 8
61.0106	27.2
70.0651	100.0
87.0263	11.6
88.0393	8.7
116.0707	21.5
118.0685	51.6
133.0318	52.1
164.0740	20.2

Name: N,N-Dimethylproline
PrecursorMZ: 144.10225
RT: 4.6394
ExactMass: 144.102453689
Spectrum_type: 2
charge: 1
Formula: C7H14NO2+
SMILES: C[N+]1(CCC[C@H]1C(=O)O)C
Method: HCD
Collision_energy: [28.333334]
Isolation_window: 4.0
Ion_mode: P
Num Peaks: 9
44.0494	1.8
70.0651	3.6
84.0444	1.5
84.0807	100.0
84.0836	1.0
98.0601	2.1
98.0964	54.0
144.0657	1.6
144.1020	45.6

Name: N-Acetyl-D-Glucosamine
PrecursorMZ: 204.08722
RT: 4.3048
ExactMass: 221.0899372
Spectrum_type: 2
charge: 1
Formula: C8H15NO6
SMILES: CC(=O)N[C@@H]1[C@H]([C@@H]([C@H](OC1O)CO)O)O
Method: HCD
Collision_energy: [28.333334]
Isolation_window: 4.0
Ion_mode: P
Num Peaks: 35
44.0495	1.0
56.0495	1.1
57.0335	5.5
68.0494	9.1
70.0651	1.3
82.0651	1.5
84.0444	71.4
84.0466	0.9
87.0441	1.1
90.0550	1.6
94.0652	4.6
96.0444	2.8
98.0601	3.1
110.0601	1.0
112.0757	8.5
114.0550	42.5
122.0601	1.9
126.0551	3.1
128.0707	1.4
130.0499	39.8
138.0550	2.5
140.0707	17.9
140.1071	1.4
142.0500	37.0
144.0656	1.4
144.1020	0.9
156.0657	2.6
158.0813	3.2
158.1176	2.5
168.0656	8.1
186.0761	100.0
186.1125	1.4
204.0868	12.8
204.0980	1.9
204.1232	6.3

Name: N-Acetyl-L-histidine
PrecursorMZ: 198.08794
RT: 5.2467
ExactMass: 197.08004122
Spectrum_type: 2
charge: 1
Formula: C8H11N3O3
SMILES: CC(=O)N[C@@H](CC1=CN=CN1)C(=O)O
Method: HCD
Collision_energy: [28.333334]
Isolation_window: 4.0
Ion_mode: P
Num Peaks: 10
95.0604	5.6
108.0445	3.6
110.0713	100.0
152.0821	31.6
156.0645	7.9
156.0770	32.1
180.0770	7.2
198.0764	13.6
198.0876	20.0
198.1127	3.4

Name: N-Acetyl-Neuraminic Acid
PrecursorMZ: 310.11422
RT: 5.378233333333333
ExactMass: 309.10598118
Spectrum_type: 2
charge: 1
Formula: C11H19NO9
SMILES: CC(=O)N[C@@H]1[C@H](CC(O[C@H]1[C@@H]([C@@H](CO)O)O)(C(=O)O)O)O
Method: HCD
Collision_energy: [28.333334]
Isolation_window: 4.0
Ion_mode: P
Num Peaks: 103
55.0178	2.8
56.0495	4.7
57.0335	3.0
60.0444	28.4
61.0284	3.0
67.0542	2.2
68.0495	12.6
69.0335	2.7
73.0284	3.3
79.0542	2.2
80.0495	3.8
81.0335	6.1
82.0651	3.4
83.0492	1.6
84.0444	16.3
85.0285	10.0
94.0288	5.0
94.0652	2.3
95.0492	5.1
96.0444	5.6
96.0809	1.3
97.0284	3.3
98.0601	5.1
100.0394	1.9
101.0234	1.7
103.0391	20.5
106.0652	4.3
107.0492	2.5
108.0445	5.7
109.0285	5.1
110.0601	9.9
111.0441	1.4
112.0394	35.6
113.0234	2.1
120.0445	7.4
121.0285	76.3
122.0602	6.5
123.0442	14.1
124.0394	6.2
124.0758	3.8
125.0235	4.3
126.0551	16.4
127.0391	1.9
128.0344	4.4
130.0500	29.2
132.0445	4.4
133.0285	1.9
134.0602	5.8
135.0442	2.3
136.0394	16.4
137.0234	2.5
138.0551	8.6
139.0391	3.8
140.0343	2.1
140.0708	3.7
142.0500	3.9
144.0656	2.2
145.0497	2.1
146.0449	2.1
148.0395	2.4
149.0234	1.4
150.0551	16.0
151.0391	21.2
152.0708	5.7
154.0500	21.2
155.0341	7.7
156.0657	2.4
160.0394	2.0
164.0707	1.5
166.0500	13.1
167.0340	71.8
168.0656	9.3
169.0497	3.5
170.0449	1.9
170.0813	5.5
172.0605	28.4
178.0500	14.0
179.0340	28.9
180.0655	1.3
182.0449	6.6
182.0813	1.5
184.0605	8.5
185.0445	4.5
186.0762	7.5
192.0657	1.7
196.0606	27.7
197.0446	53.8
204.0868	3.1
208.0606	3.0
210.0763	2.1
214.0711	22.4
215.0552	16.9
220.0606	1.9
226.0712	2.3
232.0818	30.2
238.0713	7.0
250.0925	16.3
256.0820	16.2
274.0926	100.0
292.1031	29.8
310.1143	2.0
310.1288	2.2
310.1747	1.9

Name: Nepsilon-(Carboxymethyl)lysine
PrecursorMZ: 205.1186
RT: 16.6938
ExactMass: 204.111007
Spectrum_type: 2
charge: 1
Formula: C8H16N2O4
SMILES: C(CCNCC(=O)O)C[C@@H](C(=O)O)N
Method: HCD
Collision_energy: [28.333334]
Isolation_window: 4.0
Ion_mode: P
Num Peaks: 15
56.0494	1.2
67.0542	1.3
70.0651	3.1
84.0807	100.0
84.0833	1.4
96.0807	1.0
98.0964	1.0
130.0863	40.7
141.1024	2.0
142.0864	12.4
146.0600	1.0
187.1079	1.3
188.0707	1.1
188.0919	1.7
205.1184	9.0

Name: Nicotinic Acid
PrecursorMZ: 124.03935
RT: 10.6073
ExactMass: 123.032028402
Spectrum_type: 2
charge: 1
Formula: C6H5NO2
SMILES: C1=CC(=CN=C1)C(=O)O
Method: HCD
Collision_energy: [28.333334]
Isolation_window: 4.0
Ion_mode: P
Num Peaks: 15
53.0386	2.2
68.0495	0.9
77.0912	0.1
78.0338	0.4
79.0417	0.4
80.0494	23.3
80.0516	0.4
96.0444	18.8
96.0473	0.2
124.0307	0.2
124.0335	0.6
124.0392	100.0
124.0442	1.2
124.0462	0.4
124.0493	0.2

Name: Pyridoxine
PrecursorMZ: 170.08143
RT: 10.5361
ExactMass: 169.07389321
Spectrum_type: 2
charge: 1
Formula: C8H11NO3
SMILES: CC1=NC=C(C(=C1O)CO)CO
Method: HCD
Collision_energy: [28.333334]
Isolation_window: 4.0
Ion_mode: P
Num Peaks: 4
124.0758	9.5
134.0602	52.0
152.0708	100.0
170.0813	24.5

Name: Pyrrolidine
PrecursorMZ: 72.08094
RT: 4.2041
ExactMass: 71.073499291
Spectrum_type: 2
charge: 1
Formula: C4H9N
SMILES: C1CCNC1
Method: HCD
Collision_energy: [28.333334]
Isolation_window: 4.0
Ion_mode: P
Num Peaks: 7
42.0338	21.0
44.0494	14.4
55.0542	9.6
56.0494	5.2
57.0573	9.0
70.0651	9.2
72.0807	100.0

Name: Secoisolariciresinol Diglucoside
PrecursorMZ: 704.31467
RT: 34.7011
ExactMass: 686.27858538
Spectrum_type: 2
charge: 1
Formula: C32H46O16
SMILES: COC1=C(C=CC(=C1)C[C@@H](CO[C@H]2[C@@H]([C@H]([C@@H]([C@H](O2)CO)O)O)O)[C@@H](CC3=CC(=C(C=C3)O)OC)CO[C@H]4[C@@H]([C@H]([C@@H]([C@H](O4)CO)O)O)O)O
Method: HCD
Collision_energy: [28.333334]
Isolation_window: 4.0
Ion_mode: P
Num Peaks: 8
133.0648	21.6
137.0598	100.0
151.0754	9.4
163.0754	50.2
203.1067	9.3
295.1331	41.6
327.1593	92.1
345.1699	24.7

Name: Tenofovir
PrecursorMZ: 288.08641
RT: 21.9786
ExactMass: 287.07834094
Spectrum_type: 2
charge: 1
Formula: C9H14N5O4P
SMILES: C[C@H](CN1C=NC2=C(N=CN=C21)N)OCP(=O)(O)O
Method: HCD
Collision_energy: [28.333334]
Isolation_window: 4.0
Ion_mode: P
Num Peaks: 27
59.0492	1.9
64.9787	0.4
72.0209	0.2
82.9893	0.4
88.0757	0.3
106.0863	0.7
112.9999	2.4
136.0619	9.3
148.0620	0.6
149.0824	0.3
153.0314	0.8
159.0667	3.3
176.0840	0.2
176.0931	35.1
177.0772	1.2
194.1038	0.4
206.1038	9.4
240.0648	3.7
252.0649	0.8
270.0756	11.1
288.0618	0.3
288.0668	0.7
288.0702	0.5
288.0765	0.4
288.0856	100.0
288.1052	0.3
288.1100	0.3

Name: Thr-Ile
PrecursorMZ: 233.15024
RT: 4.9272
ExactMass: 232.14230712
Spectrum_type: 2
charge: 1
Formula: C10H20N2O4
SMILES: CC[C@H](C)[C@@H](C(=O)O)NC(=O)[C@H]([C@@H](C)O)N
Method: HCD
Collision_energy: [28.333334]
Isolation_window: 4.0
Ion_mode: P
Num Peaks: 18
44.0495	5.7
56.0495	12.9
57.0336	1.6
58.0652	4.2
70.0651	1.3
74.0601	100.0
75.0441	1.0
84.0445	2.8
86.0965	22.7
101.0711	2.6
116.0708	2.4
132.1021	21.9
142.1229	1.1
143.1182	1.0
169.1338	1.9
187.1443	13.2
215.1393	4.0
233.1499	8.6

Name: Thr-Pro
PrecursorMZ: 217.11888
RT: 3.8202
ExactMass: 216.111007
Spectrum_type: 2
charge: 1
Formula: C9H16N2O4
SMILES: C[C@H]([C@@H](C(=O)N1CCC[C@H]1C(=O)O)N)O
Method: HCD
Collision_energy: [28.333334]
Isolation_window: 4.0
Ion_mode: P
Num Peaks: 27
44.0494	1.7
56.0494	8.2
57.0335	1.4
58.0651	1.0
70.0651	30.4
72.0807	1.3
74.0600	51.0
84.0444	2.7
84.0808	5.6
86.0601	1.2
100.0757	6.2
112.0757	0.9
114.0550	2.5
116.0706	100.0
116.0748	1.2
128.0708	1.0
130.0864	0.9
153.1023	1.1
154.1228	2.2
155.0817	1.4
159.0765	1.3
171.1130	0.7
181.0972	0.7
199.1078	5.6
217.1014	0.8
217.1184	18.0
217.1548	1.2

Name: Thr-Val-Leu
PrecursorMZ: 332.2191
RT: 4.3522
ExactMass: 331.21072103
Spectrum_type: 2
charge: 1
Formula: C15H29N3O5
SMILES: C[C@H]([C@@H](C(=O)N[C@@H](C(C)C)C(=O)N[C@@H](CC(C)C)C(=O)O)N)O
Method: HCD
Collision_energy: [28.333334]
Isolation_window: 4.0
Ion_mode: P
Num Peaks: 13
72.0808	13.8
74.0600	12.3
84.0807	3.7
86.0964	14.3
101.0710	16.8
128.1071	7.0
129.1023	6.0
143.1179	2.9
173.1285	100.0
187.1442	60.5
201.1235	29.8
215.1391	16.5
231.1705	4.5

Name: Threonine pyruvate (known isomers: 0; isobaric peaks in run: 0)
PrecursorMZ: 192.08699
RT: 20.0181
Spectrum_type: 2
charge: 1
SMILES: CC(NC(C(=O)O)C(C)O)C(=O)O
Method: HCD
Collision_energy: [28.333334]
Isolation_window: 4.0
Ion_mode: P
Num Peaks: 11
56.0494	20.9
74.0600	7.5
82.0651	17.1
88.0757	7.2
100.0757	78.4
102.0550	30.5
116.0707	5.1
128.0707	9.7
146.0813	100.0
174.0760	5.6
192.0867	9.1

Name: Thymine
PrecursorMZ: 127.05033
RT: 9.6396
ExactMass: 126.042927438
Spectrum_type: 2
charge: 1
Formula: C5H6N2O2
SMILES: CC1=CNC(=O)NC1=O
Method: HCD
Collision_energy: [28.333334]
Isolation_window: 4.0
Ion_mode: P
Num Peaks: 10
54.0338	9.5
56.0494	9.6
81.0335	0.7
81.0447	2.2
82.0287	6.9
84.0444	14.8
109.0397	11.4
110.0237	39.2
127.0502	100.0
127.0557	0.7

Name: Timonacic
PrecursorMZ: 134.02719
RT: 8.5589
ExactMass: 133.01974964
Spectrum_type: 2
charge: 1
Formula: C4H7NO2S
SMILES: C1C(NCS1)C(=O)O
Method: HCD
Collision_energy: [28.333334]
Isolation_window: 4.0
Ion_mode: P
Num Peaks: 7
44.0494	4.7
58.9950	13.2
61.0106	4.1
86.9899	4.3
88.0215	100.0
105.0005	3.5
134.0271	14.5

Name: Tomivosertib
PrecursorMZ: 341.1717
RT: 20.6077
ExactMass: 340.1647739
Spectrum_type: 2
charge: 1
Formula: C17H20N6O2
SMILES: CC1=C2C(=O)NC3(N2C(=O)C(=C1)NC4=NC=NC(=C4)N)CCCCC3
Method: HCD
Collision_energy: [28.333334]
Isolation_window: 4.0
Ion_mode: P
Num Peaks: 4
101.0597	4.6
205.0972	11.4
241.1183	9.3
341.1708	100.0

Name: beta-N-ACETYL-D-GALACTOSAMINE
PrecursorMZ: 204.08717
RT: 2.1111
ExactMass: 221.0899372
Spectrum_type: 2
charge: 1
Formula: C8H15NO6
SMILES: CC(=O)N[C@@H]1[C@H]([C@H]([C@H](O[C@H]1O)CO)O)O
Method: HCD
Collision_energy: [28.333334]
Isolation_window: 4.0
Ion_mode: P
Num Peaks: 36
43.0178	5.0
46.0651	7.0
56.0494	2.4
57.0447	4.4
60.0443	10.4
61.0284	6.6
68.0494	2.5
69.0335	4.5
70.0651	2.7
71.0491	10.5
71.0603	6.4
80.0495	3.2
81.0335	5.3
84.0444	67.9
85.0284	3.4
96.0444	22.2
97.0284	12.1
98.0318	8.2
98.0601	15.9
99.0441	3.1
108.0444	2.6
109.0284	6.8
114.0662	38.5
126.0550	78.3
127.0390	4.1
134.0813	6.5
138.0550	100.0
144.0656	39.7
158.1289	14.2
168.0656	11.7
186.0761	7.7
204.0868	6.7
204.0979	8.5
204.1021	8.0
204.1231	3.6
204.1344	44.3

Name: epsilon-Fructoselysine
PrecursorMZ: 309.16675
RT: 15.7664
ExactMass: 308.15835111
Spectrum_type: 2
charge: 1
Formula: C12H24N2O7
SMILES: C(CCNCC(=O)[C@H]([C@@H]([C@@H](CO)O)O)O)C[C@@H](C(=O)O)N
Method: HCD
Collision_energy: [28.333334]
Isolation_window: 4.0
Ion_mode: P
Num Peaks: 9
84.0807	74.5
99.0440	4.1
117.0546	5.2
130.0863	65.0
147.1129	7.1
180.0867	11.5
245.1498	5.9
246.1339	4.2
309.1658	100.0

Name: ((2R,3S,5R)-5-(2,6-diaminopurin-9-yl)-3-fluorooxolan-2-yl)methanol
PrecursorMZ: 269.11438
RT: 16.3496
ExactMass: 268.10840184
Spectrum_type: 2
charge: 1
Formula: C10H13FN6O2
SMILES: C1C(C(OC1N2C=NC3=C(N=C(N=C32)N)N)CO)F
Method: HCD
Collision_energy: [28.333334]
Isolation_window: 4.0
Ion_mode: P
Num Peaks: 2
84.0808	100.0
130.0863	76.0

Name: (2-((8S,10R,11S,13S,14S,17R)-11,17-dihydroxy-10,13-dimethyl-3-oxo-7,8,9,11,12,14,15,16-octahydro-6H-cyclopenta(a)phenanthren-17-yl)-2-oxoethyl) 2,2-dimethylpropanoate
PrecursorMZ: 445.25992
RT: 31.0413
ExactMass: 444.25118886
Spectrum_type: 2
charge: 1
Formula: C26H36O6
SMILES: C[C@]12C[C@@H](C3[C@H]([C@@H]1CC[C@@]2(C(=O)COC(=O)C(C)(C)C)O)CCC4=CC(=O)C=C[C@]34C)O
Method: HCD
Collision_energy: [28.333334]
Isolation_window: 4.0
Ion_mode: P
Num Peaks: 19
99.0440	12.1
227.1431	23.3
265.1591	15.4
279.1749	9.6
297.1849	8.6
307.1695	34.3
325.1800	42.1
339.1956	12.6
343.1905	19.4
349.1800	12.7
367.1905	21.3
367.2268	11.6
381.2427	9.8
385.2010	15.4
385.2376	13.3
391.2268	16.2
409.2375	26.6
427.2480	29.0
445.2586	100.0

Name: (2S)-1-((2S)-2-(((2S)-2-amino-4-carboxybutanoyl)amino)propanoyl)pyrrolidine-2-carboxylic acid
PrecursorMZ: 316.15154
RT: 15.3616
ExactMass: 315.1430354
Spectrum_type: 2
charge: 1
Formula: C13H21N3O6
SMILES: C[C@@H](C(=O)N1CCC[C@H]1C(=O)O)NC(=O)[C@H](CCC(=O)O)N
Method: HCD
Collision_energy: [28.333334]
Isolation_window: 4.0
Ion_mode: P
Num Peaks: 7
70.0651	100.0
84.0444	28.4
90.0550	39.3
116.0707	46.9
181.0972	69.4
187.1078	19.7
209.0922	99.6

Name: (2S)-1-(3-carboxylatopropanoyl)pyrrolidine-2-carboxylate
PrecursorMZ: 216.08721
RT: 20.5196
ExactMass: 213.06372245
Spectrum_type: 2
charge: 1
Formula: C9H11NO5-2
SMILES: C1C[C@H](N(C1)C(=O)CCC(=O)[O-])C(=O)[O-]
Method: HCD
Collision_energy: [28.333334]
Isolation_window: 4.0
Ion_mode: P
Num Peaks: 19
55.0178	5.5
55.0542	6.7
70.0651	47.4
74.0236	7.7
86.0601	5.8
101.0233	11.9
101.0598	7.3
114.0550	5.5
116.0706	16.6
124.0757	10.3
152.0708	10.2
154.0865	4.9
170.0812	24.4
170.1176	20.9
180.0655	4.6
198.0762	100.0
198.1127	7.2
216.0868	12.9
216.1232	32.5

Name: (2S)-2-(((2S)-2-aminopropanoyl)amino)-3-hydroxybutanoic acid
PrecursorMZ: 191.10319
RT: 3.9285
ExactMass: 190.09535693
Spectrum_type: 2
charge: 1
Formula: C7H14N2O4
SMILES: C[C@@H](C(=O)N[C@@H](C(C)O)C(=O)O)N
Method: HCD
Collision_energy: [28.333334]
Isolation_window: 4.0
Ion_mode: P
Num Peaks: 9
44.0494	71.3
56.0494	19.0
74.0600	100.0
84.0444	7.9
102.0550	12.7
120.0656	52.2
130.0500	10.1
173.0921	8.4
191.1027	6.4

Name: (2S)-2-(((2S)-2-azaniumyl-3-hydroxypropanoyl)amino)-3-phenylpropanoate
PrecursorMZ: 253.11921
RT: 8.6374
ExactMass: 252.111007
Spectrum_type: 2
charge: 1
Formula: C12H16N2O4
SMILES: C1=CC=C(C=C1)C[C@@H](C(=O)[O-])NC(=O)[C@H](CO)[NH3+]
Method: HCD
Collision_energy: [28.333334]
Isolation_window: 4.0
Ion_mode: P
Num Peaks: 8
60.0444	86.2
120.0808	100.0
166.0864	84.5
189.1025	6.9
207.1130	25.8
217.0975	9.1
235.1080	8.0
253.1187	19.4

Name: (2S)-2-((6-methyl-2,3-dihydro-1,4-dioxine-5-carbonyl)amino)pentanedioic acid
PrecursorMZ: 274.09328
RT: 18.8905
ExactMass: 273.08485182
Spectrum_type: 2
charge: 1
Formula: C11H15NO7
SMILES: CC1=C(OCCO1)C(=O)N[C@@H](CCC(=O)O)C(=O)O
Method: HCD
Collision_energy: [28.333334]
Isolation_window: 4.0
Ion_mode: P
Num Peaks: 11
69.0335	9.0
81.0335	20.1
84.0444	27.1
99.0441	40.0
117.0547	44.9
130.0499	100.0
164.0707	8.0
210.0762	16.3
228.0868	22.3
274.0926	21.8
274.1038	7.9

Name: (2S)-2-amino-5-((4-amino-1-carboxy-4-oxobutyl)amino)-5-oxopentanoic acid
PrecursorMZ: 276.1201
RT: 16.2411
ExactMass: 275.11173527
Spectrum_type: 2
charge: 1
Formula: C10H17N3O6
SMILES: C(CC(=O)NC(CCC(=O)N)C(=O)O)[C@@H](C(=O)O)N
Method: HCD
Collision_energy: [28.333334]
Isolation_window: 4.0
Ion_mode: P
Num Peaks: 29
76.0393	3.1
84.0444	65.0
84.0808	7.7
90.0550	3.9
101.0710	9.4
102.0550	17.3
124.0394	2.2
129.1024	2.0
130.0499	100.0
130.0863	4.0
138.0550	2.9
141.0660	6.7
147.0765	58.8
147.1129	3.0
155.0816	9.6
159.0765	13.6
168.0656	5.6
173.0921	13.7
183.0765	4.2
187.0714	9.2
195.0768	1.9
196.0605	3.2
201.0871	6.8
205.0821	3.4
213.0871	4.3
241.0822	3.3
242.0661	2.6
259.0929	2.9
276.1195	7.3

Name: (2S,3R)-2-((2-azaniumylacetyl)amino)-3-hydroxybutanoate
PrecursorMZ: 177.08737
RT: 4.133
ExactMass: 176.07970687
Spectrum_type: 2
charge: 1
Formula: C6H12N2O4
SMILES: C[C@H]([C@@H](C(=O)[O-])NC(=O)C[NH3+])O
Method: HCD
Collision_energy: [28.333334]
Isolation_window: 4.0
Ion_mode: P
Num Peaks: 50
44.0494	11.2
55.0542	8.0
56.0494	14.8
56.0575	6.6
58.0651	7.4
59.0491	1.7
59.0685	3.3
60.0444	31.0
70.0651	67.9
71.0621	7.3
71.0684	88.9
71.0714	2.9
74.0600	37.3
76.0757	2.5
83.0491	2.0
84.0444	5.1
84.0525	3.3
86.0601	4.0
87.0634	1.9
88.0757	1.6
90.0550	3.0
96.0444	2.3
101.0598	5.6
102.0550	23.6
102.0632	8.0
106.0499	3.5
113.0710	23.6
113.1155	10.1
114.0550	4.7
114.0681	8.3
114.0743	71.5
115.0584	11.6
115.0867	5.1
116.0707	3.3
116.0837	2.2
116.0900	15.2
117.0740	8.8
120.0656	44.7
130.0500	8.7
131.0817	2.2
141.1105	17.3
142.0693	3.0
143.0533	1.9
159.0766	23.2
159.1211	6.0
160.0736	10.1
160.0799	100.0
177.0872	1.9
177.1064	3.2
177.1316	30.1

Name: (2S,3S)-3-hydroxy-2-(((2S)-pyrrolidin-2-yl)formamido)butanoic acid
PrecursorMZ: 217.11896
RT: 4.9469
ExactMass: 216.111007
Spectrum_type: 2
charge: 1
Formula: C9H16N2O4
SMILES: C[C@@H]([C@@H](C(=O)O)NC(=O)[C@@H]1CCCN1)O
Method: HCD
Collision_energy: [28.333334]
Isolation_window: 4.0
Ion_mode: P
Num Peaks: 7
70.0650	100.0
74.0600	2.0
84.0807	2.1
116.0706	2.4
187.0908	2.2
217.1014	4.4
217.1184	18.2

Name: (4S)-2-oxoimidazolidine-4-carboxylate
PrecursorMZ: 131.04547
RT: 4.6654
ExactMass: 129.03001703
Spectrum_type: 2
charge: 1
Formula: C4H5N2O3-
SMILES: C1[C@H](NC(=O)N1)C(=O)[O-]
Method: HCD
Collision_energy: [28.333334]
Isolation_window: 4.0
Ion_mode: P
Num Peaks: 15
42.0338	3.0
44.0494	22.8
57.0447	2.0
58.0287	3.8
59.0604	2.3
70.0651	1.9
71.0491	1.8
85.0396	100.0
85.0761	9.1
87.0041	6.3
90.0550	5.5
113.9637	1.9
131.0452	18.4
131.0816	4.3
131.9743	1.7

Name: 1-(2-(Cyanomethylsulfanyl)acetyl)pyrrolidine-2-carboxylic acid
PrecursorMZ: 229.06476
RT: 5.7547
ExactMass: 228.05686342
Spectrum_type: 2
charge: 1
Formula: C9H12N2O3S
SMILES: C1CC(N(C1)C(=O)CSCC#N)C(=O)O
Method: HCD
Collision_energy: [28.333334]
Isolation_window: 4.0
Ion_mode: P
Num Peaks: 26
44.0494	3.5
69.0698	4.7
70.0650	23.5
80.0494	1.2
82.0651	1.9
86.0058	2.4
86.0963	77.2
98.0600	7.6
114.0661	3.1
116.0705	100.0
132.0114	9.1
138.0372	1.2
149.0709	1.6
167.0815	1.7
183.0763	1.2
184.0426	3.7
186.0583	1.4
193.0606	1.1
211.0713	1.7
211.1076	1.1
212.0375	0.9
229.0642	4.9
229.0819	1.4
229.1183	1.8
229.1295	1.2
229.1547	11.8

Name: 1H-pyrimidine-2,4-di(17O2)one
PrecursorMZ: 113.03471
RT: 12.0334
ExactMass: 114.03571165
Spectrum_type: 2
charge: 1
Formula: C4H4N2O2
SMILES: C1=CNC(=[17O])NC1=[17O]
Method: HCD
Collision_energy: [28.333334]
Isolation_window: 4.0
Ion_mode: P
Num Peaks: 9
42.0338	2.0
43.0178	5.4
68.0131	2.0
70.0287	53.3
95.0240	4.3
96.0080	31.3
96.0808	3.0
113.0346	100.0
113.1074	6.6

Name: 2-(((2R)-2-amino-4-methylpentanoyl)amino)-3-phenylpropanoic acid
PrecursorMZ: 279.17139
RT: 14.8535
ExactMass: 278.16304257
Spectrum_type: 2
charge: 1
Formula: C15H22N2O3
SMILES: CC(C)C[C@H](C(=O)NC(CC1=CC=CC=C1)C(=O)O)N
Method: HCD
Collision_energy: [28.333334]
Isolation_window: 4.0
Ion_mode: P
Num Peaks: 7
86.0964	100.0
120.0808	56.2
166.0863	11.3
201.0464	3.0
219.0570	15.0
279.0936	51.4
279.1706	4.5

Name: 2-(((2R)-5-oxopyrrolidine-2-carbonyl)amino)acetate
PrecursorMZ: 187.07151
RT: 18.0746
ExactMass: 185.05623177
Spectrum_type: 2
charge: 1
Formula: C7H9N2O4-
SMILES: C1CC(=O)N[C@H]1C(=O)NCC(=O)[O-]
Method: HCD
Collision_energy: [28.333334]
Isolation_window: 4.0
Ion_mode: P
Num Peaks: 8
56.0494	3.6
76.0393	21.0
84.0444	100.0
102.0550	2.7
130.0499	4.8
141.0660	2.8
170.0449	4.8
187.0714	5.3

Name: 2-((2-((2-Amino-3-methylbutanoyl)amino)-3-methylbutanoyl)amino)butanedioic acid
PrecursorMZ: 332.18266
RT: 20.0403
ExactMass: 331.17433553
Spectrum_type: 2
charge: 1
Formula: C14H25N3O6
SMILES: CC(C)C(C(=O)NC(C(C)C)C(=O)NC(CC(=O)O)C(=O)O)N
Method: HCD
Collision_energy: [28.333334]
Isolation_window: 4.0
Ion_mode: P
Num Peaks: 4
72.0807	100.0
171.1493	63.5
199.1442	24.6
233.1135	8.6

Name: 2-((3,4,5-Tris(2-hydroxyethoxy)-6-methoxyoxan-2-yl)methoxy)ethanol
PrecursorMZ: 371.19362
RT: 16.1666
ExactMass: 370.18389715
Spectrum_type: 2
charge: 1
Formula: C15H30O10
SMILES: COC1C(C(C(C(O1)COCCO)OCCO)OCCO)OCCO
Method: HCD
Collision_energy: [28.333334]
Isolation_window: 4.0
Ion_mode: P
Num Peaks: 8
101.0597	1.4
129.0546	1.8
147.0652	3.0
212.1030	0.9
271.1404	1.2
353.1820	2.3
371.1563	0.9
371.1924	100.0

Name: 2-(2-((2-Amino-3-methylbutanoyl)amino)propanoylamino)-3-(4-hydroxyphenyl)propanoic acid
PrecursorMZ: 352.18769
RT: 22.4806
ExactMass: 351.17942091
Spectrum_type: 2
charge: 1
Formula: C17H25N3O5
SMILES: CC(C)C(C(=O)NC(C)C(=O)NC(CC1=CC=C(C=C1)O)C(=O)O)N
Method: HCD
Collision_energy: [28.333334]
Isolation_window: 4.0
Ion_mode: P
Num Peaks: 11
72.0807	72.7
120.0808	35.1
136.0758	86.3
141.0659	27.1
143.1180	100.0
159.0765	37.3
166.0863	37.6
171.1129	39.4
182.0813	38.8
187.0714	24.1
207.1129	69.5

Name: 2-Amino-6-((2,6-diamino-6-carboxyhexanoyl)amino)heptanedioic acid
PrecursorMZ: 363.18865
RT: 14.5566
ExactMass: 362.18014918
Spectrum_type: 2
charge: 1
Formula: C14H26N4O7
SMILES: C(CC(C(=O)NC(CCCC(C(=O)O)N)C(=O)O)N)CC(C(=O)O)N
Method: HCD
Collision_energy: [28.333334]
Isolation_window: 4.0
Ion_mode: P
Num Peaks: 8
84.0807	48.4
129.1022	40.1
130.0863	26.5
147.1129	41.1
189.0871	15.1
363.1519	17.9
363.1761	16.0
363.1877	100.0

Name: 2-amino-6-(((4R,5R)-3,4,5,6-tetrahydroxy-2-oxohexyl)amino)hexanoic acid
PrecursorMZ: 291.15616
RT: 16.7957
ExactMass: 308.15835111
Spectrum_type: 2
charge: 1
Formula: C12H24N2O7
SMILES: C(CCNCC(=O)C([C@@H]([C@@H](CO)O)O)O)CC(C(=O)O)N
Method: HCD
Collision_energy: [28.333334]
Isolation_window: 4.0
Ion_mode: P
Num Peaks: 16
84.0808	100.0
86.0601	3.6
98.0965	2.4
116.0707	2.9
122.0601	1.6
128.0707	2.3
130.0863	82.9
140.1071	2.0
142.0864	1.8
144.0657	3.4
162.0762	13.2
166.0862	2.1
227.1392	1.9
228.1232	1.5
273.1450	47.5
291.1555	29.2

Name: 3-(((2S,4R,5S)-2,4-dihydroxy-6-(hydroxymethyl)-5-((2S,4S,5R)-3,4,5-trihydroxy-6-(hydroxymethyl)oxan-2-yl)oxyoxan-3-yl)iminomethyl)-4-hydroxypent-3-en-2-one
PrecursorMZ: 452.1777
RT: 2.3982
ExactMass: 451.16897536
Spectrum_type: 2
charge: 1
Formula: C18H29NO12
SMILES: CC(=C(C=NC1[C@H]([C@@H](C(O[C@@H]1O)CO)O[C@H]2C([C@H]([C@H](C(O2)CO)O)O)O)O)C(=O)C)O
Method: HCD
Collision_energy: [28.333334]
Isolation_window: 4.0
Ion_mode: P
Num Peaks: 16
81.0334	17.3
83.0491	16.0
95.0491	7.7
111.0440	100.0
144.0655	7.1
255.0866	10.8
272.1132	13.0
288.1081	11.8
289.1157	9.0
290.1237	10.8
307.1263	7.2
386.1448	7.7
416.1551	18.6
417.1393	9.6
434.1657	84.8
452.1764	64.1

Name: 3-(N(epsilon)-lysino)lactic acid
PrecursorMZ: 235.12937
RT: 16.4563
ExactMass: 234.12157168
Spectrum_type: 2
charge: 1
Formula: C9H18N2O5
SMILES: C(CCNCC(C(=O)O)O)C[C@@H](C(=O)O)N
Method: HCD
Collision_energy: [28.333334]
Isolation_window: 4.0
Ion_mode: P
Num Peaks: 6
84.0808	100.0
130.0863	55.7
172.0969	7.2
217.0972	6.3
235.1079	3.9
235.1290	29.0

Name: 3-Amino-3,3-dideuteriopropane-1-sulfonic acid
PrecursorMZ: 140.03797
RT: 5.9927
ExactMass: 141.04286781
Spectrum_type: 2
charge: 1
Formula: C3H9NO3S
SMILES: [2H]C([2H])(CCS(=O)(=O)O)N
Method: HCD
Collision_energy: [28.333334]
Isolation_window: 4.0
Ion_mode: P
Num Peaks: 4
41.0385	19.0
44.0494	36.7
58.0651	38.8
140.0377	100.0

Name: 3-Deuteriooxy-2-(dideuterioamino)propanoate
PrecursorMZ: 106.05014
RT: 5.6835
ExactMass: 107.053598291
Spectrum_type: 2
charge: 1
Formula: C3H6NO3-
SMILES: [2H]N([2H])C(CO[2H])C(=O)[O-]
Method: HCD
Collision_energy: [28.333334]
Isolation_window: 4.0
Ion_mode: P
Num Peaks: 4
42.0338	14.5
60.0443	100.0
88.0393	13.6
106.0499	4.4

Name: 3-Ethylsulfanylpropanoate
PrecursorMZ: 135.0483
RT: 20.6059
ExactMass: 133.0323257
Spectrum_type: 2
charge: 1
Formula: C5H9O2S-
SMILES: CCSCCC(=O)[O-]
Method: HCD
Collision_energy: [28.333334]
Isolation_window: 4.0
Ion_mode: P
Num Peaks: 16
43.0178	14.8
44.0211	11.8
46.0287	27.0
47.0257	2.9
47.0320	9.3
71.0320	1.9
74.0236	100.0
75.0207	16.8
75.0270	93.9
75.0298	2.2
88.0393	29.4
89.0363	9.9
89.0426	81.3
89.0454	3.7
117.0376	10.7
135.0482	8.4

Name: Asn-Tyr-Leu
PrecursorMZ: 409.2093
RT: 22.962
ExactMass: 408.20088463
Spectrum_type: 2
charge: 1
Formula: C19H28N4O6
SMILES: CC(C)C[C@@H](C(=O)O)NC(=O)[C@H](CC1=CC=C(C=C1)O)NC(=O)[C@H](CC(=O)N)N
Method: HCD
Collision_energy: [28.333334]
Isolation_window: 4.0
Ion_mode: P
Num Peaks: 17
85.0396	8.9
86.0964	33.7
136.0758	79.3
146.0601	20.0
155.1180	12.8
183.1129	14.5
188.0708	8.5
191.0816	10.7
200.1395	67.9
205.0972	8.1
228.1345	19.9
233.0923	22.2
249.1600	9.7
250.1190	100.0
278.1139	23.2
295.1657	8.7
375.1558	8.2

Name: Gln-Thr-Leu
PrecursorMZ: 361.20934
RT: 3.6488
ExactMass: 360.20088463
Spectrum_type: 2
charge: 1
Formula: C15H28N4O6
SMILES: C[C@H]([C@@H](C(=O)N[C@@H](CC(C)C)C(=O)O)NC(=O)[C@H](CCC(=O)N)N)O
Method: HCD
Collision_energy: [28.333334]
Isolation_window: 4.0
Ion_mode: P
Num Peaks: 45
60.0556	6.6
70.0651	28.0
72.0807	6.7
74.0600	25.5
83.0603	16.9
84.0444	18.1
84.0808	12.4
86.0964	81.1
101.0709	13.2
102.0550	8.8
112.0869	10.1
119.0816	7.9
120.0656	41.9
129.0659	9.4
129.1023	18.0
130.0499	10.0
132.1020	36.0
140.0707	11.9
147.0765	20.1
159.0765	7.8
175.1190	8.5
183.1241	7.2
184.1080	19.6
185.0921	11.2
187.1442	24.1
195.0763	6.8
196.1445	38.1
197.1285	26.5
212.1030	16.9
213.0870	10.4
214.1551	18.9
215.1391	10.7
224.1395	14.6
225.1235	7.7
230.1138	27.7
233.1497	7.0
242.1501	15.9
290.1462	7.2
325.1873	7.2
326.1712	16.6
343.1978	61.1
344.1567	9.6
361.1833	100.0
361.2093	7.7
361.2450	16.9

Name: Glu-Leu-Leu
PrecursorMZ: 374.22959
RT: 19.9421
ExactMass: 373.22128572
Spectrum_type: 2
charge: 1
Formula: C17H31N3O6
SMILES: CC(C)C[C@@H](C(=O)N[C@@H](CC(C)C)C(=O)O)NC(=O)[C@H](CCC(=O)O)N
Method: HCD
Collision_energy: [28.333334]
Isolation_window: 4.0
Ion_mode: P
Num Peaks: 13
84.0444	10.7
86.0964	100.0
102.0550	12.2
129.0659	6.4
132.1020	73.5
141.0659	6.5
154.6010	7.3
170.1177	5.2
197.1286	42.5
215.1391	69.0
225.1235	15.3
243.1342	20.0
245.1863	7.8

Name: Glu-Leu-Pro
PrecursorMZ: 358.19849
RT: 16.7302
ExactMass: 357.18998559
Spectrum_type: 2
charge: 1
Formula: C16H27N3O6
SMILES: CC(C)C[C@@H](C(=O)N1CCC[C@@H]1C(=O)O)NC(=O)[C@H](CCC(=O)O)N
Method: HCD
Collision_energy: [28.333334]
Isolation_window: 4.0
Ion_mode: P
Num Peaks: 10
70.0651	100.0
84.0444	18.5
86.0964	80.1
116.0706	42.3
132.1020	86.1
181.0972	83.9
209.0922	88.8
215.1391	21.6
229.1549	20.7
358.1977	23.6

Name: Glu-Val-Leu
PrecursorMZ: 360.21414
RT: 17.8312
ExactMass: 359.20563565
Spectrum_type: 2
charge: 1
Formula: C16H29N3O6
SMILES: CC(C)C[C@@H](C(=O)O)NC(=O)[C@H](C(C)C)NC(=O)[C@H](CCC(=O)O)N
Method: HCD
Collision_energy: [28.333334]
Isolation_window: 4.0
Ion_mode: P
Num Peaks: 14
72.0807	69.3
84.0444	17.4
86.0964	96.4
102.0550	27.8
118.0863	47.6
129.0660	13.2
132.1020	96.3
183.1129	81.8
197.1287	33.0
201.1235	100.0
211.1079	23.9
215.1392	54.0
229.1185	28.9
243.1344	10.6

Name: Glu-Val-Lys
PrecursorMZ: 375.22496
RT: 13.8233
ExactMass: 374.21653469
Spectrum_type: 2
charge: 1
Formula: C16H30N4O6
SMILES: CC(C)[C@@H](C(=O)N[C@@H](CCCCN)C(=O)O)NC(=O)[C@H](CCC(=O)O)N
Method: HCD
Collision_energy: [28.333334]
Isolation_window: 4.0
Ion_mode: P
Num Peaks: 10
72.0807	18.6
84.0808	32.7
129.1023	31.0
130.0863	48.3
147.1129	55.5
183.1129	34.1
201.1235	35.0
246.1816	16.6
357.2136	100.0
375.2240	56.9

Name: H-DL-Leu-DL-Asp-DL-Tyr-OH
PrecursorMZ: 410.1934
RT: 34.9127
ExactMass: 409.18490021
Spectrum_type: 2
charge: 1
Formula: C19H27N3O7
SMILES: CC(C)CC(C(=O)NC(CC(=O)O)C(=O)NC(CC1=CC=C(C=C1)O)C(=O)O)N
Method: HCD
Collision_energy: [28.333334]
Isolation_window: 4.0
Ion_mode: P
Num Peaks: 10
86.0964	84.2
136.0757	85.0
165.0546	13.0
182.0812	29.8
201.1235	100.0
229.1184	36.7
249.1602	46.3
251.1030	70.0
277.1551	13.3
297.1084	20.6

Name: Leu-Ala-Tyr
PrecursorMZ: 366.20333
RT: 24.956
ExactMass: 365.19507097
Spectrum_type: 2
charge: 1
Formula: C18H27N3O5
SMILES: C[C@@H](C(=O)N[C@@H](CC1=CC=C(C=C1)O)C(=O)O)NC(=O)[C@H](CC(C)C)N
Method: HCD
Collision_energy: [28.333334]
Isolation_window: 4.0
Ion_mode: P
Num Peaks: 9
86.0964	50.6
136.0757	100.0
157.1336	53.4
182.0812	12.1
185.1285	18.2
207.1129	82.7
235.1079	23.3
249.1601	15.1
295.1656	8.8

Name: Phe-Ala-Ser
PrecursorMZ: 324.15633
RT: 6.922
ExactMass: 323.14812078
Spectrum_type: 2
charge: 1
Formula: C15H21N3O5
SMILES: C[C@@H](C(=O)N[C@@H](CO)C(=O)O)NC(=O)[C@H](CC1=CC=CC=C1)N
Method: HCD
Collision_energy: [28.333334]
Isolation_window: 4.0
Ion_mode: P
Num Peaks: 7
120.0808	72.9
162.0914	11.2
191.1180	19.7
207.1129	100.0
221.1287	16.1
235.1081	13.6
324.1900	10.6

Name: Pro-Leu-Met
PrecursorMZ: 360.19638
RT: 5.1393
ExactMass: 359.18787759
Spectrum_type: 2
charge: 1
Formula: C16H29N3O4S
SMILES: CC(C)C[C@@H](C(=O)N[C@@H](CCSC)C(=O)O)NC(=O)[C@@H]1CCCN1
Method: HCD
Collision_energy: [28.333334]
Isolation_window: 4.0
Ion_mode: P
Num Peaks: 11
56.0494	9.9
70.0650	55.8
86.0964	9.7
104.0528	34.5
129.1023	9.4
201.1057	9.7
229.1005	14.1
229.1548	100.0
247.1113	6.9
360.1658	6.7
360.1954	26.7

Name: Thr-Val-Phe
PrecursorMZ: 366.20325
RT: 8.2483
ExactMass: 365.19507097
Spectrum_type: 2
charge: 1
Formula: C18H27N3O5
SMILES: C[C@H]([C@@H](C(=O)N[C@@H](C(C)C)C(=O)N[C@@H](CC1=CC=CC=C1)C(=O)O)N)O
Method: HCD
Collision_energy: [28.333334]
Isolation_window: 4.0
Ion_mode: P
Num Peaks: 11
72.0808	68.0
74.0601	17.6
120.0809	100.0
166.0863	23.2
173.1286	30.8
201.1236	49.1
219.1494	69.2
247.1446	20.2
267.1344	30.5
348.1661	17.2
366.1761	24.9

Name: Val-Gly-Asp
PrecursorMZ: 290.13572
RT: 18.0429
ExactMass: 289.12738533
Spectrum_type: 2
charge: 1
Formula: C11H19N3O6
SMILES: CC(C)[C@@H](C(=O)NCC(=O)N[C@@H](CC(=O)O)C(=O)O)N
Method: HCD
Collision_energy: [28.333334]
Isolation_window: 4.0
Ion_mode: P
Num Peaks: 8
70.0651	7.7
72.0808	56.5
84.0808	4.2
129.1023	100.0
134.0449	4.0
157.0973	22.1
244.1296	6.8
290.1352	6.0

Name: e-Pyrrole-lysine
PrecursorMZ: 255.13486
RT: 10.2795
ExactMass: 254.12665706
Spectrum_type: 2
charge: 1
Formula: C12H18N2O4
SMILES: C1=C(N(C(=C1)C=O)CCCCC(C(=O)O)N)CO
Method: HCD
Collision_energy: [28.333334]
Isolation_window: 4.0
Ion_mode: P
Num Peaks: 19
82.0651	4.6
84.0808	24.8
94.0651	9.2
109.0285	5.4
120.0808	5.9
134.0965	22.4
139.0503	7.2
146.0965	5.4
148.1122	88.5
158.0966	13.3
163.1230	5.4
175.1231	100.0
176.1071	9.9
192.1021	8.2
197.1287	6.2
209.1287	8.1
219.1130	5.6
237.1237	7.0
255.1344	9.3

